
units lj                  # Use reduced LJ style units
atom_style atomic         # Uncharged point particles
atom_modify map hash      # Needed for indexing of clusters etc
                          # Used to be able to find where atoms are in relation to each other.

lattice fcc 1.0 spacing 1 1 1
Lattice spacing in x,y,z = 1.5874011 1.5874011 1.5874011
region box block 0 10 0 10 0 10 units lattice
create_box 2 box
Created orthogonal box = (0.0000000 0.0000000 0.0000000) to (15.874011 15.874011 15.874011)
  3 by 4 by 4 MPI processor grid
create_atoms 1 box
Created 4000 atoms
  using lattice units in orthogonal box = (0.0000000 0.0000000 0.0000000) to (15.874011 15.874011 15.874011)
  create_atoms CPU = 0.003 seconds
set type 1 type/fraction 2 0.88 78393
Setting atom values ...
  3511 settings made for type/fraction
mass 1 1.0
mass 2 1.0
pair_style lj/cut  3.5
pair_modify tail  yes
pair_coeff 1  1  1.0  1.0   # Intearaction between 1 and 1 set with epsilon = 1 and sigma = 1
pair_coeff 1  2  1.5  0.8
pair_coeff 2  2  0.5  0.88

write_data data.0
System init for write_data ...
Neighbor list info ...
  update every 1 steps, delay 10 steps, check yes
  max neighbors/atom: 2000, page size: 100000
  master list distance cutoff = 3.8
  ghost atom cutoff = 3.8
  binsize = 1.9, bins = 9 9 9
  1 neighbor lists, perpetual/occasional/extra = 1 0 0
  (1) pair lj/cut, perpetual
      attributes: half, newton on
      pair build: half/bin/atomonly/newton
      stencil: half/bin/3d
      bin: standard
WARNING: Not all mixed pair coeffs generated from mixing. Use write_data with 'pair ij' option to store all pair coeffs. (../write_data.cpp:312)


#############################
#   M E L T   S Y S T E M   #
#############################

velocity all create 2.4 8172548 mom yes dist gaussian # Assign velocities
                                                    # Temperature 2.4, random number seed, zero linear momentum
                                                                                # Gaussian distribution

timestep 0.002   # simulation timestep
thermo 1000       # output thermodynamic data every 1000 steps bf 100

# Define a fix  in this case with index 1 applied to all
# particles in the simulation. This fix is for simulations
# in the anisotropic NPT ensemble. Note that we use the MTK
# correction.
fix 1 all npt temp 2.4 2.4 0.1 iso 5.68 5.68 0.5 mtk yes tchain 5 pchain 5 # Use NPT ensemble
                                                                         # Set temperature and pressure and damping
                                                                         # Numbers of thermostats in chain and in barostat
run 10000          # run for 10000 steps
Per MPI rank memory allocation (min/avg/max) = 3.642 | 3.644 | 3.648 Mbytes
Step Temp E_pair E_mol TotEng Press Volume 
       0          2.4   -3.2921436            0   0.30695645   -2.7369977         4000 
    1000    2.4061654   -2.3841158            0      1.22423     5.848736    3950.5851 
    2000    2.3442166   -2.3827982            0    1.1326476    5.7500653    3948.8542 
    3000    2.4120412   -2.3693749            0    1.2477824    5.8249431    3973.3615 
    4000    2.4300066   -2.3697281            0    1.2743705    5.6491367    3992.5738 
    5000    2.4296677   -2.3810985            0    1.2624919    5.7988046    3961.2186 
    6000    2.4157131    -2.424348            0    1.1983157    5.4231987    3970.4619 
    7000    2.4421404   -2.3867841            0    1.2755107    5.6937779    3968.4892 
    8000    2.4055533   -2.3268742            0    1.2805537    5.7770656    4004.3246 
    9000    2.4458607   -2.4330133            0    1.2348606     5.605222    3952.0127 
   10000    2.4168275   -2.3836596            0    1.2406754    5.2965376    4038.5835 
Loop time of 2.50386 on 48 procs for 10000 steps with 4000 atoms

Performance: 690135.506 tau/day, 3993.840 timesteps/s
99.7% CPU use with 48 MPI tasks x no OpenMP threads

MPI task timing breakdown:
Section |  min time  |  avg time  |  max time  |%varavg| %total
---------------------------------------------------------------
Pair    | 1.0923     | 1.1632     | 1.3157     |   3.7 | 46.46
Neigh   | 0.20966    | 0.21679    | 0.25336    |   1.5 |  8.66
Comm    | 0.69851    | 0.86533    | 0.94055    |   5.2 | 34.56
Output  | 0.00023658 | 0.00024176 | 0.00030113 |   0.0 |  0.01
Modify  | 0.21906    | 0.24321    | 0.28332    |   3.6 |  9.71
Other   |            | 0.01508    |            |       |  0.60

Nlocal:        83.3333 ave          95 max          73 min
Histogram: 2 2 7 8 7 11 5 2 1 3
Nghost:        1633.98 ave        1661 max        1580 min
Histogram: 1 0 0 5 5 6 10 7 7 7
Neighs:        9447.10 ave       10948 max        8159 min
Histogram: 2 3 8 7 9 8 4 4 0 3

Total # of neighbors = 453461
Ave neighs/atom = 113.36525
Neighbor list builds = 908
Dangerous builds = 214

# Equilibrate just above the melting temperature to avoid step fn in T

fix 1 all npt temp 1.25 1.25 0.1 iso 5.68 5.68 0.5 mtk yes tchain 5 pchain 5
run 2000
Per MPI rank memory allocation (min/avg/max) = 3.643 | 3.645 | 3.649 Mbytes
Step Temp E_pair E_mol TotEng Press Volume 
   10000    2.4168275   -2.3836596            0    1.2406754    5.2965376    4038.5835 
   11000    1.2449474   -3.5631459            0   -1.6961917    5.9053717     3044.292 
   12000    1.2493935   -3.5557668            0   -1.6821451    5.9316526    3050.9498 
Loop time of 0.613492 on 48 procs for 2000 steps with 4000 atoms

Performance: 563332.315 tau/day, 3260.025 timesteps/s
99.6% CPU use with 48 MPI tasks x no OpenMP threads

MPI task timing breakdown:
Section |  min time  |  avg time  |  max time  |%varavg| %total
---------------------------------------------------------------
Pair    | 0.26144    | 0.29431    | 0.34038    |   2.7 | 47.97
Neigh   | 0.039794   | 0.041857   | 0.048386   |   0.8 |  6.82
Comm    | 0.17628    | 0.22905    | 0.26635    |   3.5 | 37.34
Output  | 5.261e-05  | 5.3746e-05 | 7.5745e-05 |   0.0 |  0.01
Modify  | 0.040603   | 0.043501   | 0.046922   |   0.8 |  7.09
Other   |            | 0.004717   |            |       |  0.77

Nlocal:        83.3333 ave          91 max          77 min
Histogram: 8 2 6 7 3 8 3 7 1 3
Nghost:        1972.52 ave        1991 max        1953 min
Histogram: 1 7 5 4 3 8 8 6 3 3
Neighs:        12513.0 ave       14366 max       11017 min
Histogram: 4 3 7 10 6 5 5 4 2 2

Total # of neighbors = 600622
Ave neighs/atom = 150.15550
Neighbor list builds = 144
Dangerous builds = 14

#############################
# L I N E A R  Q U E N C H  #
#############################

# Define solid atoms. This closely follows ten Wolde  Ruiz-Montero and Frenkel  Faraday Discuss  1996  104  93-110
# Compute components of the per-atom q6 vector
compute q6 all orientorder/atom degrees 1 6 components 6 nnn NULL cutoff 1.3 # compute the Q6 parameter.
                                                                             # Use all neighbours within 1.3 unit cell.

# get number of connections
compute coord_number all coord/atom orientorder q6 0.5

# An atom is solid if it has 8 or more connections (of a possible 14)
variable is_solid atom c_coord_number>=8
group solid dynamic all var is_solid    # Must be dynamic to update
dynamic group solid defined

# do clustering
compute cluster solid cluster/atom 1.3 # Create a cluster where all atoms within are solid and max 1.3 units from another member

# define chunks one chunk per cluster
compute clus_chunks solid chunk/atom c_cluster nchunk every compress yes  # Says which atoms are in which chunk

# count the size of each chunk
compute size_chunks solid property/chunk clus_chunks count


# Find the maximum entry in the vector of chunk sizes
variable max_n equal max(c_size_chunks)


# Thermo style which includes this variable
# thermo_style custom step temp pe vol v_max_n

thermo ${N}  # Print the thermo information every 100 steps
thermo 1000  

# Reset the npt fix at a lower temperature (below freezing)
fix 1  all npt temp  ${temp} ${temp}  0.1  iso  5.68  5.68  0.5  mtk yes tchain  5  pchain  5
fix 1  all npt temp  0.45 ${temp}  0.1  iso  5.68  5.68  0.5  mtk yes tchain  5  pchain  5
fix 1  all npt temp  0.45 0.45  0.1  iso  5.68  5.68  0.5  mtk yes tchain  5  pchain  5

dump dmp2 all dcd ${N} traj.dcd
dump dmp2 all dcd 1000 traj.dcd


compute msd all msd com yes
variable twopoint equal c_msd[4]/6/(step*dt+1.0e-6)
fix 9 all vector 10 c_msd[4]
variable fit equal slope(f_9)/6/(10*dt)
thermo_style custom step temp pe c_msd[4] v_twopoint v_fit v_max_n

fix 1 all npt temp 1.25 ${temp} 0.1 iso 5.68 5.68 0.5 mtk yes tchain 5 pchain 5
fix 1 all npt temp 1.25 0.45 0.1 iso 5.68 5.68 0.5 mtk yes tchain 5 pchain 5
run 500000 # 5000000  # Run for this many steps
Neighbor list info ...
  update every 1 steps, delay 10 steps, check yes
  max neighbors/atom: 2000, page size: 100000
  master list distance cutoff = 3.8
  ghost atom cutoff = 3.8
  binsize = 1.9, bins = 8 8 8
  4 neighbor lists, perpetual/occasional/extra = 1 3 0
  (1) pair lj/cut, perpetual
      attributes: half, newton on
      pair build: half/bin/atomonly/newton
      stencil: half/bin/3d
      bin: standard
  (2) compute orientorder/atom, occasional
      attributes: full, newton on
      pair build: full/bin/atomonly
      stencil: full/bin/3d
      bin: standard
  (3) compute coord/atom, occasional
      attributes: full, newton on
      pair build: full/bin/atomonly
      stencil: full/bin/3d
      bin: standard
  (4) compute cluster/atom, occasional
      attributes: full, newton on
      pair build: full/bin/atomonly
      stencil: full/bin/3d
      bin: standard
Per MPI rank memory allocation (min/avg/max) = 9.826 | 9.832 | 9.836 Mbytes
Step Temp PotEng c_msd[4] v_twopoint v_fit v_max_n 
   12000    1.2493935   -3.5557668 3.3682389e-30 2.3390547e-32 8.3333333e+20            1 
   13000    1.2548323   -3.5602923   0.91959214 0.0058948212  0.077557142            1 
   14000    1.2429867   -3.5866533    1.8691363  0.011125811  0.077936076            2 
   15000    1.2562839   -3.5861758    2.8276288  0.015709049    0.0785626            2 
   16000    1.2303643   -3.5830122    3.7866465  0.019722116  0.079115063            2 
   17000    1.2742144   -3.5717763    4.7377005  0.023224021  0.079438224            1 
   18000    1.2408325   -3.5945891     5.622633  0.026030708  0.079039049            2 
   19000    1.2516758   -3.5874433    6.5649019  0.028793429  0.078810859            1 
   20000    1.2373751   -3.5986651     7.529179  0.031371578  0.079014381            1 
   21000    1.2320095   -3.5719823    8.4540676  0.033547887  0.078811904            2 
   22000    1.2368584    -3.554121    9.5426829  0.036146525  0.078881818            1 
   23000    1.2422921   -3.5918417      10.4104  0.037718839  0.079030877            1 
   24000     1.241115   -3.6119889    11.477013  0.039850739  0.079292423            1 
   25000    1.2262859   -3.5935985    12.523358  0.041744525  0.079706564            2 
   26000    1.2454889   -3.5865067    13.553466  0.043440595  0.080221131            2 
   27000    1.2194097   -3.5734932    14.686826   0.04532971  0.080788297            3 
   28000    1.2217043   -3.6518786    15.562788  0.046317822  0.081168281            1 
   29000    1.2262658   -3.6126079    16.656164   0.04786254  0.081485532            3 
   30000    1.2002318   -3.6301683    17.692096   0.04914471  0.081719972            4 
   31000    1.2229885   -3.6013365    18.738771  0.050373039  0.082033069            2 
   32000    1.2131907   -3.5901309    19.551055  0.050914206  0.082236738            1 
   33000    1.2081644   -3.5986022    20.541313  0.051872003  0.082267356            2 
   34000     1.212902   -3.6472512    21.411391    0.0524789  0.082230547            2 
   35000     1.222985   -3.6306917    22.250097   0.05297642  0.082155662            5 
   36000    1.2029056   -3.6210656    23.368693  0.054094196  0.082145113            2 
   37000    1.2006504   -3.6302749    24.364529  0.054875065  0.082154922            2 
   38000    1.2119215   -3.6157645    25.250729  0.055374405  0.082094864            3 
   39000    1.1913984   -3.6140078    26.379232   0.05636588  0.082044005            4 
   40000    1.1886461   -3.6442421    27.401598  0.057086662  0.082029459            3 
   41000     1.204284   -3.6294341    28.326624  0.057574438  0.082017916            1 
   42000    1.1993546   -3.6454962     29.39728  0.058327937  0.082085425            2 
   43000    1.1968001   -3.6491116    30.517947  0.059143307  0.082131845            2 
   44000    1.1864121   -3.6955208    31.249823  0.059185271  0.082123208            2 
   45000    1.1992523   -3.6296937    32.142682  0.059523485  0.082101921            2 
   46000    1.1535618   -3.6622657      33.1212  0.060002173  0.082053687            2 
   47000    1.2187577   -3.6489593    34.028828    0.0603348  0.081970139            1 
   48000    1.1676246   -3.6758129    34.759442  0.060346253    0.0818392            2 
   49000    1.2136091   -3.6310174    35.656541  0.060640376  0.081667608            3 
   50000     1.171537   -3.6505263    36.584112   0.06097352  0.081483622            2 
   51000    1.1993283   -3.6742714    37.342609  0.061017334  0.081319476            1 
   52000    1.2141195    -3.653983    38.489358  0.061681662   0.08119223            2 
   53000    1.1980229   -3.6678047    39.555999  0.062194967  0.081100777            1 
   54000    1.1911273    -3.645999    40.361495  0.062286257  0.081022695            3 
   55000    1.1917615   -3.6284103    41.488087  0.062860737  0.080916698            6 
   56000     1.179016    -3.694311    42.320481  0.062976906   0.08082309            4 
   57000    1.1665546   -3.6514889    43.180705  0.063129685  0.080731904            4 
   58000    1.1831057   -3.6455398    44.216802  0.063529888  0.080643371            1 
   59000    1.1930827   -3.6847905    44.996998  0.063555081   0.08054327            2 
   60000    1.1722341   -3.6684116    46.071461   0.06398814  0.080461379            3 
   61000    1.1639079   -3.6779864    47.370258  0.064713467  0.080413767            1 
   62000    1.1252171   -3.6772576     47.93169  0.064424314  0.080392206            2 
   63000    1.1801705   -3.6992713    48.856489  0.064624985  0.080346376            2 
   64000    1.1684666   -3.7081358    49.660755  0.064662441  0.080271261            1 
   65000    1.1796867   -3.6658614    50.688284  0.064984979  0.080162213            5 
   66000    1.1835503   -3.7182989     50.83703  0.064188169  0.080012028            1 
   67000    1.1561542   -3.6673265    52.149109  0.064862076  0.079850698            4 
   68000    1.1579099   -3.6768803    53.170176   0.06515953  0.079716331            3 
   69000    1.1623094   -3.6792366    53.945205  0.065151213  0.079584663            2 
   70000    1.1607289   -3.7003127    54.517301  0.064901548  0.079451888            1 
   71000    1.1814086   -3.6920486    55.026578  0.064585185  0.079268423            2 
   72000    1.1542233   -3.7320097    56.033451  0.064853531  0.079091543            5 
   73000    1.1496698   -3.7058629    56.914782  0.064971212  0.078913256            2 
   74000    1.1338798   -3.7083756    57.721908  0.065002148  0.078732277            2 
   75000    1.1613019   -3.7038655    58.463388   0.06495932  0.078537549            3 
   76000    1.1429943   -3.7153855    59.500247  0.065241499  0.078348064            2 
   77000    1.1583803   -3.7493471    59.850793  0.064773586  0.078178782            3 
   78000    1.1328332   -3.7136562     60.53697  0.064676249  0.077977881            3 
   79000    1.1542736   -3.7035267     61.49166   0.06486462  0.077768875            3 
   80000    1.1340462   -3.7410794    62.566403  0.065173336  0.077598011            2 
   81000    1.1434264   -3.7131658    63.672272  0.065506452  0.077439008            3 
   82000    1.1453288   -3.7649386    64.461343  0.065509495  0.077314086            2 
   83000    1.1109487   -3.7429931    65.202197  0.065464052  0.077176264            1 
   84000    1.1435603    -3.762863     65.87857  0.065355724  0.077039215            4 
   85000    1.1179671   -3.7242831    66.834224  0.065523748  0.076899615            2 
   86000    1.1404107   -3.7383848    67.803719  0.065701277  0.076757517            2 
   87000    1.1434838   -3.7611248    68.211552  0.065336735  0.076617583            3 
   88000    1.1186805   -3.7410227    69.541834  0.065854009  0.076481979            3 
   89000    1.1432108   -3.7697106      70.6354  0.066138014  0.076372393            2 
   90000    1.1291826   -3.7334754    71.374278  0.066087294    0.0762656            3 
   91000    1.1091098   -3.7690759    71.838956   0.06578659   0.07615433            2 
   92000    1.1253769   -3.7588813    72.492062  0.065663099  0.076036714            3 
   93000    1.1330671   -3.7102244    73.713051  0.066051121  0.075924627            3 
   94000    1.1208212   -3.7666714    74.051579  0.065648563  0.075814902            4 
   95000    1.1144876   -3.7391551    75.294303  0.066047634  0.075698804            3 
   96000    1.1372036   -3.7440585     76.02371  0.065992803   0.07558352            2 
   97000    1.1066284   -3.7829326    76.748301  0.065934966  0.075482229            2 
   98000    1.1066391   -3.7547897    77.472926  0.065878338  0.075376437            1 
   99000    1.1007969   -3.7537588     78.41011  0.066001775  0.075265297            4 
  100000    1.1066373   -3.7977017     79.09184  0.065909866  0.075161156            2 
  101000    1.1269662   -3.7921925    79.724278  0.065779107  0.075056422            2 
  102000    1.1102951   -3.7694726    81.038526  0.066207946  0.074954235            2 
  103000    1.0920602   -3.7825531     81.58213  0.066004959  0.074847522            2 
  104000    1.0785943   -3.7788016    81.764839  0.065516697  0.074726701            3 
  105000    1.1059272    -3.784985    82.282549   0.06530361  0.074598686            2 
  106000    1.1159023    -3.758594     83.67594  0.065782971  0.074472876            2 
  107000    1.0966741   -3.7594756    84.457089  0.065776549  0.074357782            2 
  108000    1.0931686   -3.7850039    84.979051  0.065570255  0.074237917            1 
  109000    1.0961295   -3.7905114     85.58136  0.065429174  0.074101404            2 
  110000    1.1162523   -3.7814383    86.582364    0.0655927  0.073975103            1 
  111000    1.1156111   -3.8000814    86.706565  0.065095018  0.073839569            4 
  112000    1.1026383   -3.7888976    87.527833  0.065124875  0.073698499            1 
  113000    1.0679842   -3.7804831    88.704687  0.065416436  0.073561081            3 
  114000    1.1158258   -3.7942813    88.891979  0.064979517  0.073419602            3 
  115000    1.0862929   -3.7783611    89.687666  0.064991062  0.073277016            3 
  116000    1.0807679   -3.7973789    90.668936  0.065135729  0.073124125            4 
  117000    1.1128807   -3.7909801    90.978302   0.06479936  0.072975155            2 
  118000    1.0679609   -3.8217648    91.786401  0.064820904  0.072830143            2 
  119000    1.0743622   -3.8154767    92.706135  0.064920263  0.072690214            5 
  120000    1.0764413   -3.8059393    93.570814  0.064979732  0.072552113            3 
  121000    1.0770428    -3.796784    94.093196  0.064802476  0.072409964            5 
  122000    1.0819399   -3.8321406    94.439599  0.064507923   0.07226355            2 
  123000    1.0490226   -3.8406416    94.851042  0.064262223  0.072108315            3 
  124000    1.0684894   -3.8576249     95.19918  0.063977943  0.071948097            4 
  125000     1.083042   -3.7912824    96.452954  0.064301969  0.071786658            4 
  126000    1.0818862   -3.8444501    96.542921  0.063851138  0.071622514            4 
  127000    1.0748756    -3.845937    96.924614  0.063598828  0.071453869            5 
  128000    1.0645166   -3.8397251    98.191287  0.063926619  0.071283371            2 
  129000    1.0733041   -3.8504752    98.730087  0.063779126  0.071114208            3 
  130000    1.0817071   -3.8566233    98.800454  0.063333624  0.070944602            4 
  131000    1.0717088   -3.8698988    99.199733  0.063104156   0.07077813            3 
  132000    1.0505146   -3.8460084    100.14741  0.063224375  0.070603077            2 
  133000    1.0673074   -3.8242477    100.98512  0.063273882   0.07042184            2 
  134000    1.0576618   -3.8416326     101.0527  0.062843716  0.070247351            1 
  135000    1.0355831   -3.8376354    102.14646  0.063053372  0.070076007            2 
  136000    1.0515512     -3.87839    102.20112  0.062623235  0.069902776            3 
  137000    1.0629276   -3.9003763    102.99003  0.062646006  0.069733034            4 
  138000    1.0777317   -3.8244079    104.27671  0.062969028  0.069567674            4 
  139000    1.0347228   -3.8588528    104.38635  0.062581747  0.069406661            2 
  140000     1.032239   -3.8969535    105.28275  0.062668303  0.069247888            2 
  141000    1.0279666   -3.8477137    105.78657  0.062521614  0.069085765            4 
  142000    1.0370807   -3.9021227    106.24241  0.062348831  0.068928359            6 
  143000     1.029612   -3.8696026    106.75048  0.062208904  0.068766139            1 
  144000     1.033883   -3.8865028    107.27473  0.062080284  0.068600227            6 
  145000    1.0295672   -3.8800182    107.99768  0.062067632  0.068436375            2 
  146000    1.0407594    -3.888378    108.68635  0.062035588  0.068276381            3 
  147000    1.0439078    -3.890988    109.62274  0.062144412  0.068120949            4 
  148000    1.0277159    -3.868462    110.25302    0.0620794  0.067967391            6 
  149000    1.0305685   -3.9068721    110.10522  0.061580101  0.067814586            1 
  150000    1.0523751   -3.8903294    110.88949  0.061605273  0.067658537            9 
  151000    1.0117348   -3.9008815     112.0101  0.061815728  0.067503633            2 
  152000    1.0181702   -3.8965141    112.58931  0.061726592  0.067353028            2 
  153000    1.0161222   -3.8984008    112.88267  0.061482934  0.067202855            5 
  154000    1.0272395   -3.9207588    113.50761  0.061421869   0.06705183            2 
  155000    1.0268755   -3.9180347    114.24779  0.061423545  0.066902999            3 
  156000    1.0226383   -3.9126859    114.87664  0.061365727  0.066760766            4 
  157000     1.018783   -3.9175208    115.20405  0.061148648  0.066620549            2 
  158000    1.0224685   -3.9150834    116.62455  0.061510837  0.066480147            3 
  159000    1.0067296   -3.9191834    116.82585  0.061229479  0.066342942            3 
  160000    1.0044617   -3.9321335    117.56952  0.061234126  0.066209083            3 
  161000    1.0103403    -3.902731    117.96768  0.061059873  0.066076502            2 
  162000    1.0318329   -3.9524981    118.30977  0.060858937  0.065942676            4 
  163000     1.019528   -3.9248638    119.44275  0.061064802  0.065807864            5 
  164000    1.0180205   -3.9269183    119.96665  0.060958661  0.065680711           12 
  165000    1.0035723    -3.916421    120.75153  0.060985621  0.065552983            3 
  166000    0.9947526   -3.9666582    120.79607  0.060640595  0.065427666            4 
  167000   0.98414527    -3.909312    121.13852  0.060448362  0.065298965            3 
  168000    1.0071563   -3.9115716    122.01403  0.060522834  0.065166047            1 
  169000   0.99313244   -3.9481439    122.65239  0.060479481  0.065032942            2 
  170000    1.0101791   -3.9396979    123.73563  0.060654719   0.06490531            2 
  171000    1.0001462   -3.9386041    123.95236  0.060405632  0.064778806            2 
  172000   0.98140343   -3.9202659    124.51362  0.060326364  0.064652599            4 
  173000    1.0066641   -3.9587224    124.65031    0.0600435  0.064527078            3 
  174000   0.98447099   -3.9716976    125.51854  0.060114241  0.064403937            3 
  175000     1.001135   -3.9610121    126.50624  0.060241067  0.064281964            3 
  176000   0.98545263    -3.965184    126.67508  0.059978732  0.064164186            2 
  177000   0.96713027   -3.9568625    127.52691   0.06004092  0.064045089            4 
  178000   0.97606626   -3.9517771    128.52682  0.060171733  0.063929242            4 
  179000    0.9664168   -3.9648846    128.03709  0.059607585  0.063809806            2 
  180000   0.99094721   -3.9659457    128.15629  0.059331613  0.063682821            3 
  181000   0.96826819   -3.9677802    129.44194  0.059595736  0.063556356            3 
  182000   0.95241482   -3.9762153    129.78951  0.059427432  0.063430881            5 
  183000    1.0169157   -3.9522087    130.16898  0.059275492  0.063303762            3 
  184000   0.98206288   -3.9630383    130.24083  0.058985882  0.063176719            2 
  185000   0.99063028   -3.9561599    131.57575  0.059268354  0.063045675            4 
  186000   0.96124336   -3.9803052    131.70888  0.059009357   0.06291754            2 
  187000    0.9542585   -3.9751797    131.93276  0.058793563  0.062788493            3 
  188000   0.98991807   -3.9901508    132.57185   0.05876412  0.062664987            5 
  189000   0.94440984   -3.9887896    133.56864    0.0588927  0.062546893            3 
  190000   0.98185328    -4.002313    134.27132  0.058890931  0.062429367            8 
  191000   0.96663148   -4.0046799    134.42241   0.05864852  0.062313144            4 
  192000   0.95966497   -3.9700186    135.42696  0.058779062  0.062193725            2 
  193000   0.95941363   -3.9951263    135.79347  0.058632758  0.062076723            2 
  194000    0.9481006   -4.0113042    136.28526  0.058541777  0.061962065            4 
  195000   0.93668864   -4.0414814    135.99834  0.058118948  0.061842705            2 
  196000   0.96950409   -3.9998328    135.90422  0.057782407  0.061718791            7 
  197000    0.9498645    -4.024427    137.14585  0.058014317  0.061591806            3 
  198000   0.94181881   -4.0240642     137.6365  0.057927822  0.061462107            5 
  199000   0.95009949   -4.0259641     138.3983  0.057955739  0.061333688            3 
  200000   0.94312852   -4.0367912    138.41286  0.057672026  0.061207973            4 
  201000   0.96552717   -4.0516882     138.8507  0.057566625  0.061083408            4 
  202000   0.93614531   -4.0225629    139.13348  0.057398301  0.060958996            2 
  203000   0.94588579   -4.0414919    139.70425  0.057349856  0.060834121            6 
  204000   0.94440108    -4.052285    140.48771  0.057388772  0.060715435            5 
  205000   0.94381916   -4.0330583    140.49416  0.057111447   0.06059084            3 
  206000   0.93216832      -4.0004    141.33868  0.057175839  0.060464905            2 
  207000   0.93532326   -4.0559549    141.42982  0.056936321  0.060339577            6 
  208000    0.9307245   -4.0595478    141.45215  0.056671533  0.060212846            2 
  209000   0.92081941   -4.0401984    142.19928  0.056698279  0.060085732            2 
  210000   0.92923839   -4.0190023    142.92327  0.056715583  0.059958537            4 
  211000   0.93991521   -4.0322566    142.60526  0.056321191  0.059829134            4 
  212000   0.92346431   -4.0693381    143.14943  0.056269429  0.059700911            2 
  213000   0.93686299    -4.051023    143.16215   0.05601023  0.059570727            5 
  214000   0.90651971   -4.0750638    143.98924  0.056070578  0.059440471            6 
  215000   0.93471743    -4.046779    144.85802   0.05614652  0.059313143            4 
  216000   0.92952778   -4.0655745    144.21845  0.055639834  0.059186613            2 
  217000   0.92672048   -4.0349848    145.48555  0.055870026  0.059061361            4 
  218000   0.91534767   -4.0767279    145.98034  0.055802884   0.05893547            4 
  219000   0.92056174   -4.1061539    146.14752  0.055611688  0.058808043            3 
  220000   0.91117973   -4.0585777    146.77194  0.055595433  0.058682348            8 
  221000    0.8937782   -4.0717822    147.60561  0.055658226  0.058560055            3 
  222000   0.91103516    -4.083709    147.91686  0.055524345   0.05843975            1 
  223000   0.91098277   -4.0433055    148.50253   0.05549422   0.05831911            6 
  224000   0.92881969   -4.1036271    148.52903  0.055256337  0.058198623            5 
  225000   0.91287606   -4.0642611     149.5919  0.055404408   0.05808044            5 
  226000   0.91528039   -4.0696215    150.79391  0.055602475  0.057965713            4 
  227000   0.88694867   -4.0835492    150.58196  0.055279721  0.057851938            3 
  228000   0.91577342   -4.1029452    151.05637   0.05521066   0.05773535            3 
  229000     0.887021   -4.1060601    150.77911  0.054868672  0.057618757            2 
  230000   0.91704421   -4.0783231    151.39497  0.054853249  0.057500766            3 
  231000    0.9018509   -4.1004678    151.95591  0.054818151  0.057382861            7 
  232000    0.8936337   -4.1636373    151.26568  0.054333938   0.05726446            4 
  233000   0.88869423   -4.0809912    152.73416   0.05462595  0.057144101            3 
  234000   0.90793028   -4.1463975    152.14608  0.054183078  0.057024127            3 
  235000   0.88526669   -4.1149273    153.43028  0.054407901  0.056906756            8 
  236000   0.87556941   -4.1197698    153.63112  0.054248277  0.056792298            4 
  237000   0.91722935   -4.0982852      154.422  0.054297469  0.056677559            2 
  238000   0.89223626   -4.1247935    155.01295  0.054276243  0.056563499            4 
  239000   0.88290161    -4.126605    155.21434  0.054119365  0.056449789            5 
  240000   0.89098047   -4.1251555    155.91421  0.054136877  0.056340751            2 
  241000   0.88184375   -4.1437706    156.72815   0.05419369  0.056232313            5 
  242000   0.87773923   -4.1487225    156.87864  0.054021571  0.056126762            6 
  243000    0.8817488   -4.1054192    157.94635  0.054165413  0.056021497            5 
  244000   0.87859937   -4.1369718    157.69271  0.053856801  0.055915864            4 
  245000   0.86666769   -4.1452826    158.09195   0.05377277  0.055808128            4 
  246000   0.88097463   -4.1408743    158.77009  0.053783906   0.05570432            3 
  247000   0.87956679   -4.1542823    159.25226  0.053728832  0.055602441            7 
  248000   0.85077887   -4.1286777    160.08144  0.053790807  0.055501776            5 
  249000   0.85963956   -4.1579989    160.33878  0.053660903  0.055402759            2 
  250000   0.85611747   -4.1644364    160.85622  0.053618738  0.055305036            2 
  251000   0.85545087   -4.1640734    162.35994  0.053904361  0.055210781            6 
  252000   0.87341372   -4.1696416    162.61242   0.05377395  0.055115553            3 
  253000   0.86156583   -4.1398559    163.20586  0.053756869  0.055021953            6 
  254000   0.85765565   -4.1443565    163.24099  0.053556755  0.054927875            8 
  255000   0.85363096   -4.1631746    162.94525  0.053250083  0.054834036            5 
  256000   0.85002561   -4.1618616    163.75012  0.053304076  0.054742344            5 
  257000   0.85525724   -4.1792185    163.53569  0.053027137   0.05464711            6 
  258000   0.86119054   -4.1709254    164.44058  0.053113882  0.054551213            7 
  259000   0.85512113   -4.1812731    164.53874  0.052940393   0.05445613            3 
  260000   0.87665749   -4.1768284    164.53417  0.052735309   0.05436084            4 
  261000   0.85901712   -4.1852922    165.31656  0.052783067  0.054263711            4 
  262000   0.85981184   -4.1949936    165.84551  0.052749845  0.054167948            4 
  263000   0.83469232   -4.2081166    166.11862  0.052635812  0.054069729            3 
  264000    0.8491439   -4.2052835    165.87452  0.052359383  0.053971594            7 
  265000   0.84914483    -4.191393    166.25258  0.052280686  0.053873676            1 
  266000   0.83437519   -4.2076917     166.9556  0.052304385  0.053775767            3 
  267000   0.85670992   -4.1995972    167.46634  0.052267897  0.053678575            4 
  268000    0.8354766   -4.1885142    168.08651  0.052265705  0.053581074            3 
  269000   0.84347649   -4.2046147    167.35955  0.051846205  0.053482123            4 
  270000   0.84007173   -4.2080776    167.76988  0.051780827  0.053381686            5 
  271000   0.84673403   -4.1926944    168.28988  0.051749655  0.053279609            4 
  272000   0.83675848   -4.1994039     168.5435  0.051637102  0.053177403           11 
  273000   0.82173913   -4.2088185    168.38269  0.051398868  0.053073082            5 
  274000   0.84791112   -4.2289024    168.89284  0.051366435  0.052969133            6 
  275000   0.84806377   -4.2143245    168.87131  0.051173124   0.05286472            2 
  276000   0.82909604   -4.2287741    169.46427  0.051166748  0.052761138            2 
  277000    0.8380169   -4.2255584     169.5619  0.051011401  0.052657111           12 
  278000   0.80783249   -4.2218472    169.97578  0.050951972  0.052551569            2 
  279000   0.82911041   -4.2202557    170.17314  0.050828298  0.052447929            6 
  280000   0.81266104   -4.2594777    170.44957  0.050729038  0.052344191            5 
  281000   0.82794836   -4.2139074    170.72314  0.050629638  0.052240873           12 
  282000   0.81934371   -4.2228055    171.36211  0.050638921  0.052136742            4 
  283000   0.81906514   -4.2552056    171.30748  0.050443898  0.052033923            2 
  284000   0.82121888   -4.2392066    171.68559  0.050377227  0.051930396            4 
  285000   0.81937539   -4.2551843    172.35707  0.050396803  0.051828348            4 
  286000   0.80309381   -4.2535549    172.42105  0.050239233  0.051724921            4 
  287000   0.82321334   -4.2757014    172.49291  0.050085049  0.051622306            9 
  288000   0.81979971   -4.2468715    172.37394  0.049876718  0.051518227            7 
  289000   0.79826763   -4.2807323    173.28233  0.049966069  0.051416149           10 
  290000   0.82361498   -4.2533046    173.95193  0.049986188  0.051315941            5 
  291000    0.7903241   -4.2476216    174.73698  0.050039227  0.051216951            5 
  292000   0.80884793   -4.2675965    174.48014  0.049794561  0.051117102            3 
  293000   0.79327252   -4.2468116    174.59986  0.049658662  0.051015499            5 
  294000   0.78887079   -4.2847266    174.69782  0.049517524  0.050913162            4 
  295000   0.79127621   -4.2838088    174.64382  0.049334413  0.050808325            4 
  296000   0.78431535   -4.3097867    174.69728  0.049182793  0.050704972            8 
  297000   0.80423128   -4.2851977    175.32198  0.049192475  0.050600983            2 
  298000   0.79101833   -4.2834914    176.54607  0.049369705  0.050500431           13 
  299000   0.80096719   -4.2978743    176.08107  0.049074991  0.050399919            5 
  300000     0.789561   -4.3033201    176.59708  0.049054745  0.050299961            9 
  301000   0.78618078   -4.3258519    176.13682  0.048764347  0.050198293            4 
  302000   0.78172852   -4.3129091    176.55103  0.048717171  0.050096515            3 
  303000   0.78452249   -4.2828004    176.88688  0.048648757  0.049995355            9 
  304000   0.78090044   -4.3126105    177.69735  0.048710896  0.049893964            3 
  305000    0.7966621   -4.2898323    177.89212  0.048604404  0.049793533            4 
  306000   0.76995886   -4.3229284    178.40848  0.048586187   0.04969392            2 
  307000   0.77692541   -4.3485693    177.66823  0.048226989  0.049592935            5 
  308000   0.76682174    -4.320428    178.52953  0.048303445  0.049490795            7 
  309000   0.76246984   -4.2989709    178.83896  0.048230572  0.049388094            5 
  310000   0.76674221   -4.3434954    178.52658  0.047991015  0.049285556           10 
  311000   0.76367623   -4.3147179    179.08319   0.04798585  0.049183686            4 
  312000   0.76417257   -4.3006121    179.15953  0.047852437  0.049081473            4 
  313000   0.77067129   -4.3189914    179.13435  0.047692851  0.048978644            6 
  314000   0.76858715   -4.3248652    178.83333  0.047461075  0.048874035            3 
  315000   0.76707022   -4.3380669    178.86038  0.047317561  0.048768332            8 
  316000   0.74579573   -4.3592446    179.68852  0.047386214  0.048662647           10 
  317000   0.75212932   -4.3249543    179.93223  0.047300796  0.048558024            4 
  318000   0.74888192   -4.3526573    180.18028  0.047217055  0.048454592           10 
  319000   0.73297483   -4.3594026    180.13564  0.047057378  0.048350516            7 
  320000   0.77122955    -4.375189    181.25605  0.047202097   0.04824786            5 
  321000   0.75102837   -4.3606232    181.52115  0.047123871  0.048145525            4 
  322000   0.74017221   -4.3500541      181.256  0.046908903  0.048043738            4 
  323000   0.73773961   -4.3820604     181.3203  0.046780263  0.047941816            6 
  324000   0.75078064    -4.378944    181.62601  0.046714508  0.047840104            6 
  325000   0.75568822   -4.3564531    182.10675  0.046694038  0.047740179            5 
  326000   0.75853823   -4.3585613    182.72906  0.046709883  0.047640284            9 
  327000   0.75451094   -4.3730011    182.85009  0.046597881  0.047541092           12 
  328000   0.73301269   -4.3627011    182.78638  0.046439629  0.047443121            6 
  329000   0.73137535   -4.3936215    183.25999  0.046418438  0.047344642            8 
  330000   0.74675178   -4.3984534    183.57424  0.046357132  0.047245894            9 
  331000   0.75815386   -4.3490798    183.62695   0.04623035  0.047147601           13 
  332000   0.73255218   -4.3887119    183.71788  0.046113926  0.047048761            6 
  333000   0.72546188    -4.392308    184.26808  0.046113134  0.046949909            3 
  334000   0.74177153    -4.378881    184.08719  0.045929937  0.046850711            7 
  335000    0.7230422   -4.4131377    184.29452  0.045844407  0.046752937            6 
  336000   0.72549922   -4.4115521     184.1564  0.045673709  0.046654075            5 
  337000   0.71087384   -4.4025028    184.95398  0.045735405  0.046555013            7 
  338000   0.72805048   -4.4101616    185.04523  0.045622592  0.046456618            2 
  339000   0.70814923   -4.4178591    184.99264  0.045475083  0.046357986            6 
  340000   0.72338985   -4.4133066    184.86419  0.045309851  0.046259349            5 
  341000   0.71558478   -4.4440269     185.4671  0.045324316  0.046160984            3 
  342000   0.74178436   -4.4268752    185.84412  0.045283656  0.046063234            5 
  343000   0.71423713   -4.4508093    185.74839  0.045128374  0.045964753            8 
  344000    0.7258129   -4.4228687    185.36644   0.04490466  0.045865082            7 
  345000   0.73159708   -4.4121412    186.50187  0.045048762   0.04576575            6 
  346000   0.72080025   -4.4268312    185.87981  0.044768741  0.045666893           14 
  347000   0.70056843   -4.4410141    185.41196  0.044527367  0.045566798            7 
  348000   0.72990126   -4.4593144    185.86401  0.044507665  0.045467024            8 
  349000   0.69877484   -4.4543548    186.33141  0.044491741  0.045366863            6 
  350000   0.71401079   -4.4510862    186.37954  0.044376082  0.045267583           22 
  351000   0.69808936   -4.4341193    186.79225  0.044347638  0.045169184            6 
  352000   0.71314199   -4.4680259    186.97427  0.044264743  0.045070224            9 
  353000    0.7141688   -4.4575003    187.76429  0.044325848  0.044971756            4 
  354000   0.71365882    -4.444166    187.28815  0.044088548   0.04487413            6 
  355000   0.70489364   -4.4456965    188.17603  0.044172776  0.044776117            3 
  356000   0.71276484   -4.4829796    187.49701  0.043889749   0.04467866            7 
  357000   0.70419988   -4.4705883    187.22905  0.043704261  0.044579746            6 
  358000   0.69095535   -4.4636046    188.17925  0.043803364  0.044481059            6 
  359000   0.68017267   -4.4738296    187.27738  0.043472001  0.044382675            8 
  360000   0.68782964   -4.4880277    187.82848  0.043478815  0.044283776            4 
  361000   0.69386472    -4.477837    188.27213  0.043460787  0.044184089            9 
  362000   0.70687701     -4.48146    187.75317  0.043221263  0.044085673           13 
  363000    0.6941485   -4.5157007    188.10741   0.04318352  0.043985938            6 
  364000   0.69073443   -4.4955659    188.51794  0.043158868  0.043886675           12 
  365000   0.69115892   -4.4842116    188.52972  0.043043314  0.043787994            9 
  366000   0.67513086   -4.5048371    188.38827  0.042893505  0.043688716            7 
  367000   0.68006555   -4.4946104    188.84959  0.042881379  0.043589488           10 
  368000   0.67151921   -4.5099339     188.8996  0.042776177  0.043490449            6 
  369000   0.68739814   -4.4916955     189.2621  0.042742117  0.043392534           11 
  370000   0.68462317   -4.5085917    189.43098  0.042664636  0.043295446           15 
  371000    0.6714952   -4.5484801    189.52797  0.042571422  0.043198052            8 
  372000    0.6842006   -4.5075236    189.82323  0.042523124  0.043100642            7 
  373000   0.67207069   -4.5212493    189.73362  0.042389103  0.043003173            6 
  374000   0.66851909     -4.53146    189.50636  0.042225124  0.042905196            6 
  375000   0.67477531   -4.5307023    189.77698  0.042172663  0.042808241            6 
  376000   0.66742826   -4.5105435    189.77961  0.042061085  0.042711476            7 
  377000   0.66388435     -4.51171    190.30239  0.042065074  0.042614429            6 
  378000   0.65944807    -4.516704    190.36105  0.041966721   0.04251765           11 
  379000   0.66839517   -4.5354485    191.06061  0.042009808  0.042420857           17 
  380000   0.66094844   -4.5383694    190.79391   0.04184077  0.042324232            6 
  381000   0.68340302   -4.5362951    190.61579  0.041691993  0.042227418           19 
  382000   0.66414081   -4.5520637    190.75874  0.041614036  0.042130427           10 
  383000    0.6627063   -4.5431236     190.8972  0.041535509  0.042033378            8 
  384000   0.65519457   -4.5335027    190.34669  0.041307876  0.041936516            4 
  385000   0.66773002   -4.5574491    191.20868   0.04138716  0.041839138           11 
  386000   0.66067898   -4.5684865    190.71961  0.041174354  0.041742789            5 
  387000   0.66144547   -4.5560592    190.99452  0.041127157  0.041646252            8 
  388000    0.6449983    -4.569387    191.11881  0.041047855  0.041548855            9 
  389000   0.64424286   -4.5663901    191.00292  0.040917507  0.041451173            7 
  390000   0.64100909   -4.5695428    191.01408  0.040814975  0.041353962           10 
  391000   0.63960038   -4.5739872    191.04155  0.040716444  0.041256358            8 
  392000   0.63941861   -4.5705817    191.09194  0.040623286  0.041158563           18 
  393000   0.62823163   -4.5849117    191.20528  0.040543952  0.041061224            8 
  394000   0.62786645   -4.6108627    191.44061  0.040490823   0.04096329            5 
  395000   0.63198111   -4.5973848    191.42081  0.040384137  0.040866265           13 
  396000   0.62028496   -4.5851836     191.6146  0.040322938   0.04077021            8 
  397000   0.62500733   -4.5944469      191.913  0.040284005  0.040675047           15 
  398000   0.62787321   -4.6111235    191.66917  0.040131737  0.040580066            9 
  399000   0.62394501   -4.6232264    192.31479  0.040165995  0.040485322            6 
  400000   0.62660274   -4.5926999    192.79457  0.040165535  0.040390745            7 
  401000   0.62507993   -4.5843089    192.59037  0.040022937  0.040296962            6 
  402000   0.62927445   -4.5783381     192.6691  0.039939697  0.040203888            9 
  403000     0.620282   -4.6226646    193.16584  0.039943308  0.040110978            8 
  404000   0.63036443   -4.6138349    193.31495  0.039875196    0.0400176           14 
  405000   0.62569887   -4.6023709    193.08962  0.039730375  0.039925125           10 
  406000   0.61650943   -4.6167478    193.02586   0.03961943  0.039832624           12 
  407000   0.62334085   -4.6098735    194.09395  0.039740775  0.039740413            4 
  408000   0.62211748    -4.628057    193.95356  0.039614698  0.039648826           16 
  409000   0.62342992   -4.6253217    193.15904  0.039355957   0.03955776            7 
  410000   0.61989375     -4.65601    193.93551  0.039417786  0.039465839            8 
  411000   0.62636708   -4.6479923    193.81075  0.039296584   0.03937386            6 
  412000   0.60843454   -4.6588803    193.80267  0.039199568  0.039282536           10 
  413000   0.59806895   -4.6488342    193.65154  0.039074161  0.039191043            8 
  414000    0.6037939   -4.6360894    193.98542  0.039046984  0.039100624            6 
  415000   0.59680815   -4.6505469    194.05456  0.038966779  0.039010063            9 
  416000   0.60439148    -4.661782    194.24687  0.038911632   0.03891951           16 
  417000   0.59484309   -4.6526042    193.92449  0.038753896  0.038828633           10 
  418000    0.5885618   -4.6801052    194.34771  0.038745555  0.038737194           13 
  419000   0.59456058   -4.6383809     194.1506  0.038613883  0.038646003           11 
  420000   0.60427355   -4.6860021    193.93734  0.038479631  0.038554754           20 
  421000   0.58846801   -4.6650678    194.29417  0.038458862  0.038463397            6 
  422000   0.59200841   -4.6833184    193.92505  0.038294836  0.038372044           12 
  423000   0.59002387   -4.6795821     194.4686  0.038311387  0.038280568            8 
  424000   0.58480893   -4.6633418    194.12481  0.038153461  0.038189273           11 
  425000   0.59171619    -4.693905    194.56186  0.038149385  0.038098359           24 
  426000   0.57941839   -4.6572343    194.52569  0.038052756  0.038008279           16 
  427000    0.5780472    -4.692059    194.71368  0.038000328  0.037918201            6 
  428000   0.57508804   -4.6676149     194.6604  0.037901169  0.037828245           11 
  429000   0.58673622   -4.6989899    194.11847   0.03770755  0.037737817           18 
  430000   0.56849962   -4.7133288    194.72198  0.037736818  0.037647515           17 
  431000   0.57628226   -4.6981172    194.91278  0.037686151  0.037557493           11 
  432000   0.57612388   -4.6754772    194.92807  0.037601866  0.037467962           14 
  433000   0.57749798   -4.7027423     195.1175  0.037551481   0.03737893           13 
  434000   0.57863973   -4.7158833    194.72508  0.037389608  0.037289635            7 
  435000    0.5684434   -4.7042492     194.9608  0.037348812  0.037200008            3 
  436000   0.56867786   -4.7306859    194.53352  0.037181483    0.0371101           14 
  437000   0.57076783   -4.7159824    194.90419  0.037167084  0.037020573           15 
  438000   0.55950022   -4.7238018    194.35828  0.036978364  0.036930528            6 
  439000   0.57180438   -4.7122367    194.55109   0.03693073  0.036841084            4 
  440000   0.56742204   -4.7477539    195.12968   0.03695638  0.036751699           12 
  441000   0.56357099   -4.7189002    194.78289  0.036807047  0.036662648            8 
  442000   0.56478437   -4.7629584    194.71525  0.036711019  0.036573497           15 
  443000   0.56696373   -4.7612124    194.75828  0.036636244  0.036484516           24 
  444000   0.55913946   -4.7518647    194.77899  0.036557618  0.036395484            9 
  445000   0.56499427   -4.7554724     194.6579  0.036452791  0.036306652           19 
  446000   0.54519007   -4.7797886    194.24174    0.0362933  0.036217781            6 
  447000   0.55064995   -4.7548335    194.93429  0.036341217  0.036128862            9 
  448000   0.54834995   -4.7544798    194.83245  0.036241156  0.036040968            8 
  449000   0.54691499   -4.7686264    194.81518  0.036157235  0.035953027           16 
  450000   0.55515181   -4.7644363    195.23143  0.036153969   0.03586521            6 
  451000   0.55227097   -4.7632203    195.41783  0.036108247  0.035778124           13 
  452000   0.53319815   -4.7782997    195.06458  0.035963233  0.035690505            9 
  453000   0.53260323   -4.7598105    195.47838  0.035959966  0.035603598           12 
  454000   0.54258055   -4.7618416    195.37529  0.035861837  0.035516894           11 
  455000   0.54267761   -4.7941509    195.36976  0.035782007  0.035430579           36 
  456000   0.52678586   -4.8047843    195.49472  0.035726375  0.035344437           21 
  457000   0.52927204    -4.790012    195.65255  0.035676978  0.035258307           45 
  458000   0.53840489   -4.7775286    195.55459  0.035581257   0.03517233           22 
  459000   0.54575894   -4.7971652    195.83941  0.035555448  0.035086533           22 
  460000   0.52842052   -4.7876074     195.0404  0.035333405  0.035000886            8 
  461000   0.53376991     -4.82749    195.63144  0.035363601  0.034915202           12 
  462000    0.5400545   -4.7982953    195.45433  0.035255111   0.03482961           11 
  463000   0.51967603   -4.8256204    195.31548  0.035153974  0.034743633           14 
  464000   0.52578486   -4.8187398    195.36448  0.035087011  0.034657753           11 
  465000   0.52109584   -4.8184124    195.29281  0.034998711  0.034571988            5 
  466000   0.51872299   -4.8336984    195.56952  0.034973091  0.034486569           18 
  467000   0.51984938    -4.834281    195.32827  0.034855151  0.034401194           14 
  468000   0.53402867   -4.8322924    195.32424  0.034779957  0.034315993           27 
  469000   0.50972016   -4.8278396    195.10561  0.034666953  0.034231013           17 
  470000   0.51895643    -4.829192    196.03426  0.034757847  0.034146342           24 
  471000   0.51985068   -4.8307455    195.94205  0.034667737  0.034061767           30 
  472000   0.52120217   -4.8298046    195.40976  0.034500311   0.03397736           22 
  473000    0.5047745   -4.8466659    195.23509  0.034396597  0.033893099           24 
  474000   0.50403839   -4.8605813    195.32826  0.034340412   0.03380859           44 
  475000   0.50833067   -4.8504323     195.2031  0.034246158  0.033724194           79 
  476000   0.50973079   -4.8622358    195.31038  0.034192993  0.033639887           60 
  477000   0.50545163   -4.8682678    194.97721  0.034063104  0.033555694           41 
  478000   0.50218482   -4.8602133    195.16588  0.034024735  0.033471535           23 
  479000   0.51124611   -4.8671117    194.93291  0.033913171  0.033387499           16 
  480000   0.50784817   -4.8647712    194.99206  0.033852788  0.033303489           28 
  481000   0.50801318   -4.8612251    194.80284  0.033749627  0.033219591           79 
  482000    0.4935878   -4.8775036    195.01262  0.033715874  0.033135836           39 
  483000   0.49940105   -4.8691991    195.41962  0.033716291  0.033052228           85 
  484000   0.49291342   -4.8964605     194.8707  0.033552118  0.032968923           50 
  485000   0.49987876   -4.8976924    194.71179  0.033455635  0.032885428           92 
  486000   0.49087769   -4.8791052    194.88063  0.033415746  0.032802145           96 
  487000   0.49854611   -4.8901953    194.75798  0.033326143  0.032718597           95 
  488000   0.49403107   -4.9095072    194.68595  0.033245552  0.032635095           97 
  489000   0.49165336   -4.9021203    194.96651  0.033225376  0.032551817           92 
  490000   0.48232351   -4.9240166    195.03851  0.033169814  0.032468424           79 
  491000   0.48133309   -4.9168792    194.34033  0.032983763   0.03238527           93 
  492000   0.47202901   -4.9250582    194.83858  0.033001114  0.032302305           38 
  493000   0.47049407   -4.9132936    194.21601  0.032828941  0.032219218           98 
  494000   0.47515656   -4.9533307    194.33395   0.03278238  0.032135991           59 
  495000   0.47602278   -4.9428787    194.59061  0.032759362  0.032053066          110 
  496000   0.48290323   -4.9416441    194.23674   0.03263386  0.031970432           82 
  497000   0.47725599    -4.930955    194.50802  0.032613685   0.03188794           78 
  498000   0.46499199   -4.9423555    194.42533  0.032534359  0.031805511           37 
  499000    0.4830104   -4.9378508    194.29543  0.032447466  0.031723154           56 
  500000    0.4763389   -4.9215998    194.05671  0.032342784  0.031640855           72 
  501000   0.45516328    -4.937302    194.16684  0.032296548  0.031558911           44 
  502000   0.46019924   -4.9584565    194.29913  0.032254172  0.031476886           78 
  503000   0.46576646   -4.9395672    193.99233  0.032139219  0.031395151           84 
  504000   0.46279225   -4.9581904    193.91192  0.032062156  0.031313081           50 
  505000   0.46492219   -4.9547292    193.50466  0.031931462  0.031231179           51 
  506000    0.4555235   -4.9741483    193.93654  0.031939484  0.031149545           54 
  507000   0.46866197   -4.9749175    193.92412  0.031874445  0.031068043           52 
  508000   0.45489887   -4.9813099    193.65079  0.031766863  0.030986627           97 
  509000   0.46012993   -4.9543197    193.47545  0.031675745  0.030905431           74 
  510000   0.44822293   -4.9862963    194.02069  0.031702727  0.030824321           47 
  511000   0.45734573   -4.9800621    193.52571  0.031559966  0.030743455           85 
  512000   0.45375143   -4.9898647    193.52894  0.031498851  0.030662937           74 
Loop time of 1252.42 on 48 procs for 500000 steps with 4000 atoms

Performance: 68986.444 tau/day, 399.227 timesteps/s
99.4% CPU use with 48 MPI tasks x no OpenMP threads

MPI task timing breakdown:
Section |  min time  |  avg time  |  max time  |%varavg| %total
---------------------------------------------------------------
Pair    | 83.64      | 89.594     | 95.656     |  30.3 |  7.15
Neigh   | 8.2723     | 8.7584     | 9.1812     |   6.4 |  0.70
Comm    | 80.131     | 85.635     | 93.266     |  37.0 |  6.84
Output  | 1.1482     | 1.1491     | 1.176      |   0.4 |  0.09
Modify  | 1050.9     | 1055.6     | 1060.4     |   6.6 | 84.28
Other   |            | 11.68      |            |       |  0.93

Nlocal:        83.3333 ave          90 max          77 min
Histogram: 2 4 2 10 7 7 9 3 3 1
Nghost:        2276.02 ave        2299 max        2251 min
Histogram: 2 1 4 7 11 5 6 9 0 3
Neighs:        15395.4 ave       17047 max       13743 min
Histogram: 3 4 3 5 5 11 8 5 2 2
FullNghs:      30790.1 ave       33859 max       27806 min
Histogram: 2 2 5 6 8 11 7 4 2 1

Total # of neighbors = 1477926
Ave neighs/atom = 369.48150
Neighbor list builds = 26998
Dangerous builds = 0

#clear
#
#next RN
#
#jump SELF
Total wall time: 0:20:55
