
units lj                  # Use reduced LJ style units
atom_style atomic         # Uncharged point particles
atom_modify map hash      # Needed for indexing of clusters etc
                          # Used to be able to find where atoms are in relation to each other.

lattice fcc 1.0 spacing 1 1 1
Lattice spacing in x,y,z = 1.5874011 1.5874011 1.5874011
region box block 0 10 0 10 0 10 units lattice
create_box 2 box
Created orthogonal box = (0.0000000 0.0000000 0.0000000) to (15.874011 15.874011 15.874011)
  3 by 4 by 4 MPI processor grid
create_atoms 1 box
Created 4000 atoms
  using lattice units in orthogonal box = (0.0000000 0.0000000 0.0000000) to (15.874011 15.874011 15.874011)
  create_atoms CPU = 0.042 seconds
set type 1 type/fraction 2 0.82 78393
Setting atom values ...
  3266 settings made for type/fraction
mass 1 1.0
mass 2 1.0
pair_style lj/cut  3.5
pair_modify tail  yes
pair_coeff 1  1  1.0  1.0   # Intearaction between 1 and 1 set with epsilon = 1 and sigma = 1
pair_coeff 1  2  1.5  0.8
pair_coeff 2  2  0.5  0.88

write_data data.0
System init for write_data ...
Neighbor list info ...
  update every 1 steps, delay 10 steps, check yes
  max neighbors/atom: 2000, page size: 100000
  master list distance cutoff = 3.8
  ghost atom cutoff = 3.8
  binsize = 1.9, bins = 9 9 9
  1 neighbor lists, perpetual/occasional/extra = 1 0 0
  (1) pair lj/cut, perpetual
      attributes: half, newton on
      pair build: half/bin/atomonly/newton
      stencil: half/bin/3d
      bin: standard
WARNING: Not all mixed pair coeffs generated from mixing. Use write_data with 'pair ij' option to store all pair coeffs. (../write_data.cpp:312)


#############################
#   M E L T   S Y S T E M   #
#############################

velocity all create 2.4 2750902 mom yes dist gaussian # Assign velocities
                                                    # Temperature 2.4, random number seed, zero linear momentum
                                                                                # Gaussian distribution

timestep 0.002   # simulation timestep
thermo 1000       # output thermodynamic data every 1000 steps bf 100

# Define a fix  in this case with index 1 applied to all
# particles in the simulation. This fix is for simulations
# in the anisotropic NPT ensemble. Note that we use the MTK
# correction.
fix 1 all npt temp 2.4 2.4 0.1 iso 5.68 5.68 0.5 mtk yes tchain 5 pchain 5 # Use NPT ensemble
                                                                         # Set temperature and pressure and damping
                                                                         # Numbers of thermostats in chain and in barostat
run 10000          # run for 10000 steps
Per MPI rank memory allocation (min/avg/max) = 3.642 | 3.644 | 3.648 Mbytes
Step Temp E_pair E_mol TotEng Press Volume 
       0          2.4    -3.598932            0 0.00016796869   -3.1561227         4000 
    1000    2.3627848   -2.8936719            0   0.64961926    5.3486002    3859.8658 
    2000    2.3780383   -2.9014773            0   0.66468842    5.5098071    3855.7126 
    3000    2.4006451   -2.9345769            0   0.66549054    5.5597215    3811.9782 
    4000    2.3656032   -2.9463918            0   0.60112592    5.3613099    3815.9205 
    5000    2.3947938    -2.884742            0   0.70655059    5.7240235    3838.4167 
    6000     2.378117   -2.9202156            0   0.64606802    5.6386051    3822.6849 
    7000    2.4043442   -2.8799701            0   0.72564452    6.0306116     3811.239 
    8000    2.4246785   -2.9227951            0   0.71331337    5.7706204    3803.8754 
    9000    2.3817944   -2.9443681            0   0.62743031    5.3788295    3830.7561 
   10000    2.4302538   -2.9047494            0   0.73971995    5.8193082    3806.7769 
Loop time of 2.61083 on 48 procs for 10000 steps with 4000 atoms

Performance: 661858.455 tau/day, 3830.199 timesteps/s
99.6% CPU use with 48 MPI tasks x no OpenMP threads

MPI task timing breakdown:
Section |  min time  |  avg time  |  max time  |%varavg| %total
---------------------------------------------------------------
Pair    | 1.1318     | 1.2063     | 1.3448     |   3.5 | 46.20
Neigh   | 0.21088    | 0.2183     | 0.23776    |   1.2 |  8.36
Comm    | 0.75776    | 0.89958    | 1.0008     |   5.5 | 34.46
Output  | 0.00024717 | 0.0002508  | 0.00032018 |   0.0 |  0.01
Modify  | 0.23987    | 0.2708     | 0.31214    |   4.4 | 10.37
Other   |            | 0.0156     |            |       |  0.60

Nlocal:        83.3333 ave          95 max          74 min
Histogram: 6 2 3 11 7 4 7 6 0 2
Nghost:        1697.60 ave        1721 max        1677 min
Histogram: 3 3 8 4 4 14 4 3 3 2
Neighs:        10026.7 ave       11449 max        8454 min
Histogram: 2 3 5 7 5 5 7 8 3 3

Total # of neighbors = 481282
Ave neighs/atom = 120.32050
Neighbor list builds = 902
Dangerous builds = 188

# Equilibrate just above the melting temperature to avoid step fn in T

fix 1 all npt temp 1.25 1.25 0.1 iso 5.68 5.68 0.5 mtk yes tchain 5 pchain 5
run 2000
Per MPI rank memory allocation (min/avg/max) = 3.644 | 3.645 | 3.649 Mbytes
Step Temp E_pair E_mol TotEng Press Volume 
   10000    2.4302538   -2.9047494            0   0.73971995    5.8193082    3806.7769 
   11000    1.2764901   -4.2923477            0   -2.3780912    5.7576541    2944.7594 
   12000    1.2477352    -4.249255            0   -2.3781202    5.8551824    2947.5383 
Loop time of 0.629005 on 48 procs for 2000 steps with 4000 atoms

Performance: 549439.569 tau/day, 3179.627 timesteps/s
99.6% CPU use with 48 MPI tasks x no OpenMP threads

MPI task timing breakdown:
Section |  min time  |  avg time  |  max time  |%varavg| %total
---------------------------------------------------------------
Pair    | 0.2811     | 0.30623    | 0.34398    |   2.4 | 48.68
Neigh   | 0.040431   | 0.043093   | 0.047471   |   0.7 |  6.85
Comm    | 0.18825    | 0.23056    | 0.25879    |   3.0 | 36.66
Output  | 5.1415e-05 | 5.268e-05  | 6.8559e-05 |   0.0 |  0.01
Modify  | 0.040025   | 0.044256   | 0.049061   |   1.2 |  7.04
Other   |            | 0.004813   |            |       |  0.77

Nlocal:        83.3333 ave          92 max          77 min
Histogram: 7 0 9 5 8 3 12 0 0 4
Nghost:        2018.38 ave        2040 max        1996 min
Histogram: 3 2 8 4 8 5 9 1 2 6
Neighs:        12930.8 ave       14718 max       11643 min
Histogram: 3 5 8 7 10 8 1 1 3 2

Total # of neighbors = 620677
Ave neighs/atom = 155.16925
Neighbor list builds = 145
Dangerous builds = 13

#############################
# L I N E A R  Q U E N C H  #
#############################

# Define solid atoms. This closely follows ten Wolde  Ruiz-Montero and Frenkel  Faraday Discuss  1996  104  93-110
# Compute components of the per-atom q6 vector
compute q6 all orientorder/atom degrees 1 6 components 6 nnn NULL cutoff 1.3 # compute the Q6 parameter.
                                                                             # Use all neighbours within 1.3 unit cell.

# get number of connections
compute coord_number all coord/atom orientorder q6 0.5

# An atom is solid if it has 8 or more connections (of a possible 14)
variable is_solid atom c_coord_number>=8
group solid dynamic all var is_solid    # Must be dynamic to update
dynamic group solid defined

# do clustering
compute cluster solid cluster/atom 1.3 # Create a cluster where all atoms within are solid and max 1.3 units from another member

# define chunks one chunk per cluster
compute clus_chunks solid chunk/atom c_cluster nchunk every compress yes  # Says which atoms are in which chunk

# count the size of each chunk
compute size_chunks solid property/chunk clus_chunks count


# Find the maximum entry in the vector of chunk sizes
variable max_n equal max(c_size_chunks)


# Thermo style which includes this variable
# thermo_style custom step temp pe vol v_max_n

thermo ${N}  # Print the thermo information every 100 steps
thermo 1000  

# Reset the npt fix at a lower temperature (below freezing)
fix 1  all npt temp  ${temp} ${temp}  0.1  iso  5.68  5.68  0.5  mtk yes tchain  5  pchain  5
fix 1  all npt temp  0.45 ${temp}  0.1  iso  5.68  5.68  0.5  mtk yes tchain  5  pchain  5
fix 1  all npt temp  0.45 0.45  0.1  iso  5.68  5.68  0.5  mtk yes tchain  5  pchain  5

dump dmp2 all dcd ${N} traj.dcd
dump dmp2 all dcd 1000 traj.dcd


compute msd all msd com yes
variable twopoint equal c_msd[4]/6/(step*dt+1.0e-6)
fix 9 all vector 10 c_msd[4]
variable fit equal slope(f_9)/6/(10*dt)
thermo_style custom step temp pe c_msd[4] v_twopoint v_fit v_max_n

fix 1 all npt temp 1.25 ${temp} 0.1 iso 5.68 5.68 0.5 mtk yes tchain 5 pchain 5
fix 1 all npt temp 1.25 0.45 0.1 iso 5.68 5.68 0.5 mtk yes tchain 5 pchain 5
run 500000 # 5000000  # Run for this many steps
Neighbor list info ...
  update every 1 steps, delay 10 steps, check yes
  max neighbors/atom: 2000, page size: 100000
  master list distance cutoff = 3.8
  ghost atom cutoff = 3.8
  binsize = 1.9, bins = 8 8 8
  4 neighbor lists, perpetual/occasional/extra = 1 3 0
  (1) pair lj/cut, perpetual
      attributes: half, newton on
      pair build: half/bin/atomonly/newton
      stencil: half/bin/3d
      bin: standard
  (2) compute orientorder/atom, occasional
      attributes: full, newton on
      pair build: full/bin/atomonly
      stencil: full/bin/3d
      bin: standard
  (3) compute coord/atom, occasional
      attributes: full, newton on
      pair build: full/bin/atomonly
      stencil: full/bin/3d
      bin: standard
  (4) compute cluster/atom, occasional
      attributes: full, newton on
      pair build: full/bin/atomonly
      stencil: full/bin/3d
      bin: standard
Per MPI rank memory allocation (min/avg/max) = 9.833 | 9.839 | 9.842 Mbytes
Step Temp PotEng c_msd[4] v_twopoint v_fit v_max_n 
   12000    1.2477352    -4.249255 8.4782826e-31 5.887696e-33 8.3333333e+20            1 
   13000    1.2474103   -4.2752746   0.81135891 0.0052010184   0.06880788            3 
   14000    1.2701399   -4.2826901     1.683363  0.010020018  0.071036642            1 
   15000    1.2447411   -4.3096476    2.5015642  0.013897578  0.070600978            1 
   16000    1.2505823   -4.2840204    3.3990278  0.017703269  0.070943172            1 
   17000    1.2790265   -4.2932322    4.1835018  0.020507361  0.070613761            2 
   18000    1.2298056    -4.309105    5.0474175  0.023367673  0.070390274            3 
   19000    1.2550445   -4.3019818    5.7838124  0.025367598  0.069837538            2 
   20000    1.2476382   -4.3056857    6.5638619  0.027349424  0.069080885            1 
   21000    1.2149523   -4.3378928    7.3514898  0.029172578   0.06852764            4 
   22000    1.2425612   -4.3212719    8.2237913  0.031150724  0.068279044            1 
   23000    1.2455328   -4.3488906     9.094839  0.032952315  0.068174911            3 
   24000    1.2261835   -4.3029225    9.8836107  0.034318092  0.068152218            3 
   25000    1.2130633   -4.3112711    10.805929  0.036019762  0.068405775            2 
   26000    1.2208488   -4.2942355    11.627333  0.037267093  0.068558473            2 
   27000     1.236338   -4.3628831    12.264774  0.037854239  0.068473189            3 
   28000     1.221881   -4.3627261    13.108607  0.039013709  0.068268146            2 
   29000    1.2162459   -4.3518331    14.009837  0.040258152  0.068273008            2 
   30000    1.2068642   -4.3215266     14.70584  0.040849554  0.068171412            3 
   31000    1.2479674     -4.34908    15.424823  0.041464578  0.067971285            2 
   32000    1.2003366   -4.3521005    16.158888  0.042080438  0.067782276            1 
   33000    1.2033492   -4.3647116    16.928442  0.042748591  0.067603162            2 
   34000    1.2492097   -4.3317286    17.808914  0.043649299  0.067454582            4 
   35000    1.2316981   -4.3359054    18.664637   0.04443961  0.067367712            2 
   36000     1.204445   -4.3399358    19.331602  0.044749078  0.067259257            1 
   37000    1.2111685   -4.3872525    20.125954  0.045328725  0.067118378            3 
   38000    1.1966916   -4.3796594    20.807477  0.045630432  0.066968765            2 
   39000    1.1745822   -4.3453982    21.660465  0.046283044  0.066829093            3 
   40000     1.197423   -4.3952545    22.404143  0.046675297  0.066731958            3 
   41000    1.1872476   -4.3472042    23.584384   0.04793574  0.066712135            1 
   42000    1.2198939   -4.3427945    24.226684  0.048068817   0.06674616            3 
   43000    1.1760144   -4.3985819    24.816357  0.048093715  0.066704918            2 
   44000    1.2118466   -4.3924018     25.62534  0.048532839  0.066625907            2 
   45000    1.1873578   -4.4170666    26.322747  0.048745828  0.066542463            3 
   46000    1.2277725   -4.3630164     27.19696  0.049269855  0.066472104            1 
   47000    1.2015636   -4.4158784    27.985289  0.049619306   0.06640448            4 
   48000    1.2220736   -4.3840994    28.785769  0.049975292  0.066318413            1 
   49000    1.1744539   -4.3815067    29.414755  0.050025094  0.066245517            2 
   50000    1.2155733    -4.440876    29.910098  0.049850162  0.066138255            1 
   51000    1.1734022   -4.3943653    30.859929  0.050424721  0.065996092            1 
   52000     1.195486   -4.4095599    31.336675   0.05021903  0.065851547            1 
   53000    1.1943542   -4.3856217     32.09135  0.050458097  0.065644105            2 
   54000    1.1699972    -4.413706    32.796228  0.050611462  0.065440722            5 
   55000    1.1921194    -4.395655    33.718853  0.051089171  0.065277826            2 
   56000    1.1783273   -4.4077694    34.432898  0.051239431  0.065170108            1 
   57000    1.1753321   -4.3995065    35.377784  0.051721906  0.065078296            2 
   58000    1.1655985   -4.4000878    36.055432  0.051803781  0.064986056            1 
   59000    1.1916906   -4.4174892    36.680962  0.051809268   0.06490659            1 
   60000    1.1698707   -4.4247595    37.420405  0.051972785  0.064824836            4 
   61000    1.1850625   -4.4237265    38.107571  0.052059523     0.064731            2 
   62000    1.1696474    -4.407243    38.774085  0.052115705   0.06462271            2 
   63000    1.1858548   -4.4790649    39.305604   0.05199154  0.064498382            3 
   64000    1.1719864   -4.4229668    40.100342  0.052213987  0.064366052            2 
   65000    1.1761717   -4.4353734    41.038453  0.052613401  0.064253152            3 
   66000    1.1391363   -4.4440483    41.737191  0.052698473  0.064176654            1 
   67000    1.1568769   -4.4472277     42.23085  0.052525932  0.064072873            2 
   68000    1.1715806   -4.4650816    42.850202  0.052512502  0.063940031            3 
   69000    1.1638047   -4.4345175    43.609509  0.052668489  0.063830386            2 
   70000    1.1639262   -4.4534962    44.510481  0.052988668  0.063721184            1 
   71000    1.1343296   -4.4317252    45.127882  0.052966997  0.063613077            1 
   72000    1.1700237    -4.440806    45.803985  0.053013871  0.063520923            2 
   73000    1.1517379   -4.4969385    46.422119  0.052993286  0.063418818            2 
   74000    1.1276469    -4.482272    46.952494   0.05287443  0.063315158            2 
   75000    1.1026327    -4.479282    47.585727  0.052873029  0.063197007            5 
   76000     1.155024   -4.4355401    48.517828  0.053199372  0.063075172            2 
   77000    1.1511504   -4.4338318    49.019053  0.053050922  0.062963296            3 
   78000    1.1633774   -4.4804288    49.706782  0.053105536  0.062842651            2 
   79000    1.1630434   -4.5261195    50.126974  0.052876554  0.062716938            3 
   80000    1.1580842   -4.4736707    51.251192  0.053386658  0.062600636            3 
   81000    1.1406988    -4.469007    51.930535  0.053426476  0.062497883            1 
   82000    1.1628923   -4.4894996    52.528306  0.053382425  0.062384319            3 
   83000    1.1347922   -4.4596555    53.325814  0.053539974  0.062270716            3 
   84000    1.1471233   -4.4703915    53.757659  0.053331011  0.062164265            1 
   85000    1.1293497    -4.480459    54.440883  0.053373414  0.062058727            2 
   86000    1.0980929   -4.5163376     55.00724  0.053301589  0.061942174            2 
   87000    1.1972731   -4.4667876    55.578455  0.053236068    0.0618244            2 
   88000    1.1086184   -4.5220039    56.012498  0.053042138  0.061704639            2 
   89000    1.1210759   -4.5004199    56.757617  0.053143836  0.061591811            3 
   90000    1.1252889   -4.4918576    57.648959  0.053378666  0.061491601            2 
   91000    1.1177334   -4.5409702    58.323038  0.053409375  0.061396014            2 
   92000    1.1318865   -4.5278663    59.026133    0.0534657  0.061302206            2 
   93000    1.1255313   -4.5088184    59.500242  0.053315629  0.061197274            3 
   94000    1.1046677   -4.5253167    60.313235   0.05346918  0.061097726            3 
   95000    1.1405805   -4.5190347    60.669227   0.05321862  0.060998964            2 
   96000    1.1215315   -4.4830934    61.836283  0.053677329  0.060904122            2 
   97000     1.142163   -4.5169524    62.215917    0.0534501  0.060815264            1 
   98000    1.1151354   -4.5244738    63.077205  0.053637079  0.060722146            4 
   99000    1.1165911   -4.5224201    63.603249  0.053538088  0.060627391            1 
  100000    1.0827397   -4.5252998    64.200871  0.053500726  0.060533176            2 
  101000     1.101262   -4.5023781    64.440245  0.053168519  0.060417511            3 
  102000    1.0866747   -4.5372082    64.579743  0.052761228  0.060286059            3 
  103000    1.1327712   -4.5302457    65.114493  0.052681629  0.060143947            3 
  104000    1.0960232   -4.5527934    65.567727  0.052538242  0.060003431            2 
  105000    1.0745766   -4.5718477    66.228031  0.052561929  0.059860512            2 
  106000    1.0970367   -4.5574143    66.739967  0.052468528  0.059720101            3 
  107000     1.096294   -4.5521889    67.310092   0.05242219   0.05957964            2 
  108000    1.0910338   -4.5357729     68.04368  0.052502839  0.059439188            3 
  109000    1.0860657   -4.5751015    68.831355   0.05262336   0.05930766            3 
  110000    1.1036047   -4.5694644     69.44075  0.052606628  0.059189147            3 
  111000    1.1134034   -4.5848718    69.901678  0.052478737  0.059067302            1 
  112000    1.0831185   -4.5560977    70.538021  0.052483646  0.058946145            3 
  113000    1.1135248   -4.5852856    71.057915  0.052402592   0.05882653            3 
  114000    1.0863281   -4.5777798    71.607198  0.052344443  0.058704172            3 
  115000    1.1175418   -4.5495575    72.813202  0.052763189  0.058592008            2 
  116000    1.1061174   -4.5802504    72.609361  0.052161897   0.05848355            2 
  117000    1.0985256   -4.5778308    73.789437  0.052556579  0.058369255            2 
  118000    1.0716036   -4.5417049    74.267551  0.052448835   0.05825436            2 
  119000    1.0819315   -4.5979357    74.414833  0.052111227  0.058138759            3 
  120000    1.0829739   -4.6224342    74.720075  0.051888941  0.058015871            5 
  121000    1.0511076   -4.5932533    75.607803   0.05207149  0.057893252            3 
  122000    1.0767123   -4.5709846    76.093675  0.051976554   0.05776968            3 
  123000    1.0822486   -4.5709603    76.686515  0.051955634  0.057648297            4 
  124000    1.0675962   -4.6038764    77.055123  0.051784356   0.05752196            5 
  125000    1.0582985   -4.5884654    77.664224  0.051776149  0.057397986            1 
  126000    1.0547832   -4.6026374    78.391015  0.051845909  0.057285603            3 
  127000    1.0456867   -4.6135297    78.630038  0.051594513  0.057163481            2 
  128000    1.0356369   -4.6341496    79.255478  0.051598618  0.057046811            4 
  129000    1.0748547   -4.6278811    80.109603   0.05175039  0.056935717            5 
  130000    1.0514318   -4.6101303    80.677274  0.051716201  0.056823924            2 
  131000    1.0442887   -4.6398892    81.493698  0.051840774  0.056715149            2 
  132000    1.0512662   -4.6622799    81.598194  0.051514011  0.056606805            4 
  133000    1.0718365   -4.6379582    82.598239  0.051753282  0.056507542            2 
  134000    1.0550996   -4.6228358    83.299162  0.051802961  0.056413998            3 
  135000    1.0796728   -4.6420349     83.74708  0.051695728  0.056320106            3 
  136000    1.0595227   -4.6165924    83.886861  0.051401263  0.056228261            5 
  137000     1.050208   -4.6084459    84.729149  0.051538411  0.056128636            1 
  138000    1.0554886   -4.6035644     85.39716  0.051568333  0.056036302            4 
  139000    1.0599763    -4.649828    86.266984  0.051718815  0.055948828            1 
  140000    1.0503274   -4.6760901    86.699696  0.051606962  0.055863502            3 
  141000    1.0478913   -4.6291187    87.153184  0.051508974  0.055778202            4 
  142000    1.0117168    -4.691132    87.691938  0.051462405  0.055694176            2 
  143000    1.0259574   -4.6536626    88.237244  0.051420305   0.05560487            5 
  144000    1.0519565    -4.653634    88.959319  0.051481087  0.055525202            2 
  145000    1.0106042   -4.6317546    89.468529  0.051418695  0.055446262            3 
  146000    1.0631541   -4.6383186    89.912767  0.051320072  0.055364282            4 
  147000    1.0339289   -4.6466271     90.45372  0.051277619  0.055281903            3 
  148000    1.0260096    -4.676406    90.957265  0.051214676  0.055196353            7 
  149000    1.0334217   -4.6469625    91.329375  0.051079069  0.055109704            2 
  150000    1.0247305   -4.7037598    91.505093  0.050836163  0.055021795            3 
  151000    1.0118658   -4.6619522     92.47835  0.051036617  0.054933585            3 
  152000    1.0232602   -4.6732605     92.78224  0.050867456  0.054843137            3 
  153000    1.0037247   -4.6899661    93.048169  0.050679831  0.054753691            5 
  154000    1.0415301   -4.7103792    94.005917  0.050869002  0.054666092            2 
  155000    1.0334981   -4.6834203    94.083835  0.050582707  0.054572468            5 
  156000    1.0073758   -4.6583098    95.466367  0.050996991  0.054481478            3 
  157000    1.0149022   -4.6681485     95.43781  0.050657011  0.054398935            1 
  158000   0.99968748   -4.6995202    95.700605  0.050475003  0.054303868            7 
  159000    1.0044082   -4.7129506    96.029353  0.050329849  0.054210411            3 
  160000    1.0204491   -4.7120122    96.758682  0.050395147  0.054117841            2 
  161000   0.98302963   -4.7297071    96.834461  0.050121356  0.054024576            4 
  162000    1.0105893   -4.7301088    97.676308  0.050245014  0.053931237            3 
  163000    1.0155339   -4.7167185    98.085551  0.050145987  0.053835624            2 
  164000    1.0178652   -4.7003967     98.81754  0.050212164  0.053742726            3 
  165000   0.99570439   -4.7053376    99.281646  0.050142246  0.053651213            2 
  166000   0.98874795   -4.7300638    99.880822  0.050140975  0.053563977            3 
  167000     1.018375   -4.7382481    100.65786  0.050228471  0.053481547            3 
  168000    1.0094224   -4.7069116    101.06451  0.050131206  0.053397616            4 
  169000   0.98821567   -4.7557409    101.02115  0.049813189  0.053311687            4 
  170000    1.0316996   -4.7475167    101.92667  0.049964054   0.05322264            2 
  171000     1.001551   -4.7214773    102.23593  0.049822576  0.053138131            3 
  172000   0.99451754   -4.7097953    102.64733  0.049732234  0.053053514            4 
  173000    1.0124605   -4.7593127    103.18488  0.049703698  0.052963994            3 
  174000    1.0029694   -4.7685974    103.53105  0.049583837  0.052876446            6 
  175000    1.0015789   -4.7512677    103.74095  0.049400451  0.052785941            3 
  176000   0.99856014   -4.7244093    104.71212  0.049579603  0.052697994            7 
  177000   0.97621794   -4.7672131    104.93511  0.049404478  0.052608566            3 
  178000   0.98798305   -4.7648137    105.35924  0.049325486  0.052518107            5 
  179000   0.97412062   -4.7144647    105.59581  0.049160062  0.052430415            3 
  180000   0.98731547   -4.7552415    106.15547  0.049146051     0.052339            3 
  181000   0.97558987   -4.7781489     106.4533  0.049011647  0.052249799            5 
  182000   0.96265383   -4.7910671    107.46166  0.049204055  0.052161961            5 
  183000   0.96516795   -4.7995782    107.23146  0.048830354  0.052072228            7 
  184000   0.96802218   -4.7527275    107.55451  0.048711283  0.051979834            4 
  185000    0.9750068   -4.7555365    108.27429  0.048772202  0.051888409            2 
  186000     0.980808   -4.7773886    108.77174   0.04873286  0.051797086            6 
  187000   0.97827469   -4.7795876     109.4222   0.04876212  0.051707402            8 
  188000   0.94650184   -4.7760449     110.0408  0.048776949  0.051618831            3 
  189000   0.95914487   -4.7919637    110.35142  0.048655831  0.051529112            4 
  190000   0.96280287   -4.7714425    110.81126   0.04860143  0.051440158            4 
  191000   0.98103181   -4.8021061    110.91505  0.048392254  0.051350745            5 
  192000    0.9755989   -4.7962089    110.86655   0.04811916  0.051258667            5 
  193000   0.96105751   -4.7702571    112.11701  0.048409761  0.051169316            3 
  194000   0.96968327   -4.8005006    112.30164  0.048239535  0.051083933            7 
  195000   0.97026976   -4.8312541    113.10299   0.04833461  0.050999793            3 
  196000   0.93551523   -4.8431967    112.97168  0.048032177  0.050909886            3 
  197000   0.95858221   -4.8496621    113.27105  0.047914997  0.050819128            6 
  198000   0.94422545    -4.817076      114.291  0.048102272  0.050729192            2 
  199000   0.95270786     -4.83314    114.12236  0.047789933  0.050636764            2 
  200000   0.94000489   -4.8485852    114.38675  0.047661147  0.050544868            2 
  201000   0.94226675   -4.8462793    114.80207  0.047596214   0.05045125            4 
  202000   0.93366413   -4.8031184    115.60917  0.047693552  0.050357632            4 
  203000   0.93691536   -4.8311638    115.67215  0.047484461  0.050265287            4 
  204000   0.93764168   -4.8070304    116.08319  0.047419605   0.05017243           12 
  205000   0.94807785   -4.8528193     116.3727  0.047305974  0.050079452            3 
  206000    0.9272157    -4.852665     116.5439  0.047145592  0.049984586            2 
  207000   0.92398107   -4.8610023    116.84468  0.047038923  0.049888385            4 
  208000   0.94455267    -4.846372    117.64002   0.04713142  0.049794478            5 
  209000   0.92898505   -4.8563925    118.08286  0.047082478  0.049700781            5 
  210000    0.9253516   -4.8872488    118.29276   0.04694157  0.049609521            6 
  211000   0.94547861   -4.8535074    119.05195  0.047018937  0.049520675            4 
  212000   0.93283081    -4.851646    119.70215  0.047052733  0.049432973            5 
  213000   0.96216557   -4.8422942     119.7629  0.046855596  0.049346291            5 
  214000   0.92496126   -4.8779364    120.79405  0.047038183  0.049257718            4 
  215000    0.9107545   -4.8924595    120.77607  0.046812431  0.049169155            3 
  216000   0.90339813   -4.8880394    120.77774  0.046596349  0.049083159            5 
  217000     0.933347   -4.8605979    121.55105  0.046678592  0.048995625            6 
  218000   0.90943822    -4.880028    121.27141  0.046357571  0.048904168            3 
  219000   0.90830801   -4.8523004    122.00228  0.046424004  0.048812607            3 
  220000   0.91490429   -4.9150986    121.67765  0.046090018  0.048720537            5 
  221000   0.90807471   -4.9004087    122.06664  0.046028144  0.048627108            3 
  222000   0.90422112   -4.9153166    122.50998  0.045987231  0.048532902            3 
  223000   0.90182702   -4.8460149    123.36108  0.046099059  0.048438969            7 
  224000   0.90965189   -4.9150467    122.66785  0.045635361  0.048343383           11 
  225000   0.88460664   -4.8931066    124.00746  0.045928688  0.048250373            4 
  226000   0.90087291   -4.9146572    124.62355  0.045952637  0.048160346            7 
  227000   0.90832001   -4.9356133    124.64492  0.045758046  0.048072154            3 
  228000   0.91541975   -4.9051367    125.30888   0.04580003  0.047982678            5 
  229000   0.91310832   -4.9189581    125.39601  0.045631736  0.047893116            4 
  230000   0.89841128   -4.8925775    125.88691  0.045611198  0.047802924            8 
  231000    0.8921406   -4.9022035    126.14381  0.045506425  0.047712219            5 
  232000   0.90470531   -4.9280861    126.81489  0.045551327  0.047620038            5 
  233000   0.90759634   -4.9177828    126.70202  0.045315457  0.047530858            3 
  234000   0.89550496   -4.9280601      127.266   0.04532265   0.04744261            7 
  235000   0.88915063   -4.9470172    127.43596  0.045190057  0.047353431            4 
  236000   0.88755074   -4.9562288    127.88499  0.045157128  0.047265015            4 
  237000   0.88495665   -4.9346548    127.60195   0.04486707  0.047175718            3 
  238000   0.91057902   -4.9606587    128.04515  0.044833735   0.04708229            5 
  239000   0.89156387   -4.9417218    128.21156  0.044704168  0.046988736            6 
  240000   0.87497937   -4.9320217     128.6744  0.044678611   0.04689407            6 
  241000   0.88556581    -5.005723    128.63929  0.044481084  0.046800861            7 
  242000   0.88184269   -4.9431801    129.40541  0.044561092  0.046705953            4 
  243000   0.87756197    -4.956579    129.38826  0.044371831  0.046609512            4 
  244000   0.88524946   -4.9533556    129.93628  0.044377143  0.046512604            3 
  245000   0.89096099   -4.9917278    129.74574  0.044131203  0.046416207            5 
  246000   0.87936235   -4.9795557    130.39196  0.044170719  0.046320328            4 
  247000   0.87323751   -4.9686948    130.48082   0.04402187  0.046225774            5 
  248000   0.89728315   -4.9658491    131.20035  0.044086138  0.046130843            5 
  249000    0.8707418    -5.001458    130.99382  0.043839966  0.046037384            5 
  250000   0.84711009   -4.9859233    131.75505   0.04391835  0.045944149            6 
  251000   0.87915184    -4.985772    131.80118  0.043758692  0.045852153            6 
  252000   0.86828086    -5.007602    131.99058  0.043647679   0.04575921            3 
  253000   0.86705951   -5.0141027    132.44567  0.043625056  0.045666424            5 
  254000   0.85007748   -4.9991159    132.83143  0.043579865  0.045574439            5 
  255000   0.83937855   -5.0000211    133.11224  0.043500732   0.04548232            4 
  256000   0.84637205   -4.9926964    134.03861  0.043632361   0.04539053            9 
  257000   0.85144895   -4.9628606    134.34237   0.04356108   0.04530125            5 
  258000   0.85986898   -5.0050025    134.30397  0.043379836  0.045212589            6 
  259000    0.8512237   -5.0411125    134.28208  0.043205304  0.045122029            7 
  260000   0.85581224   -5.0254144    134.98645  0.043264886  0.045030538            8 
  261000   0.84871443   -5.0338535     135.3349  0.043210377   0.04494031            6 
  262000   0.84713687   -5.0334937    135.32071   0.04304094  0.044851937            5 
  263000   0.85150969   -5.0547794    135.41036  0.042905692  0.044762708            5 
  264000   0.85285233   -5.0232738    135.87409  0.042889548  0.044673276            5 
  265000    0.8451009   -5.0199341    136.35136  0.042877786  0.044585488            4 
  266000   0.85168232   -5.0233566    136.23545  0.042680279  0.044496686            3 
  267000   0.84715775   -5.0571161     136.3777  0.042564826  0.044409277            3 
  268000   0.83794192   -5.0190865    136.64255  0.042488354  0.044319261            6 
  269000   0.83347297   -5.0352234    137.44646  0.042579448  0.044229332           10 
  270000   0.83420809   -5.0489086    137.73685  0.042511373  0.044140835            3 
  271000   0.83886144   -5.0397079    137.82831   0.04238263  0.044051982            2 
  272000   0.82791006   -5.0736138    137.65931  0.042175033  0.043961383            4 
  273000   0.82773647    -5.039767    138.66131  0.042326406   0.04387036            5 
  274000   0.83660289   -5.0296024     138.4217  0.042099058  0.043780115            5 
  275000   0.81579204   -5.0612064    138.90196  0.042091504   0.04369066            5 
  276000   0.83060713   -5.0886151    138.79159  0.041905673  0.043600744            7 
  277000   0.82334801   -5.0704903    139.14808  0.041861637  0.043510915            5 
  278000   0.82784611   -5.0721111    139.72116  0.041882841  0.043422787            6 
  279000   0.82400068   -5.0621561    140.48214  0.041960019  0.043336538            4 
  280000   0.82536559   -5.0976894    139.85308  0.041622939  0.043249935            5 
  281000   0.84153957   -5.0849352    140.75914  0.041743516  0.043162451            7 
  282000   0.83853099   -5.0807319    140.80398  0.041608741  0.043075317            4 
  283000   0.83560437   -5.1230101     140.5807  0.041395967  0.042987476           10 
  284000   0.82962455   -5.0908405    140.78172  0.041309191  0.042898655           10 
  285000   0.82231787   -5.1098413    141.59257  0.041401337  0.042811036           18 
  286000   0.80881637   -5.1022298    141.75997  0.041305352  0.042723741            6 
  287000   0.79901208     -5.10048    142.20902  0.041291817  0.042637651            8 
  288000   0.80004367   -5.0949151    142.15798  0.041133674  0.042549716            3 
  289000   0.81338613   -5.1048702    142.57307  0.041111035  0.042461723            5 
  290000   0.79588848   -5.1481734    142.49403  0.040946561  0.042374369            4 
  291000   0.80160183    -5.114411    142.78368  0.040888797  0.042285983            4 
  292000   0.81759055   -5.1203154    142.66014  0.040713511  0.042196681            5 
  293000   0.80569999   -5.1214782    142.94093  0.040654417   0.04210936            5 
  294000   0.79245275   -5.0984328    143.38807  0.040642876  0.042021959            5 
  295000    0.8125424   -5.1390134    143.04287  0.040407591  0.041933512            6 
  296000   0.78715309   -5.1392444    142.89566  0.040229633   0.04184288            6 
  297000   0.77515375   -5.1351672    143.64098  0.040303306  0.041751531            6 
  298000   0.77996622   -5.1155837    144.12134  0.040302387  0.041662435            8 
  299000   0.79161251   -5.1458012    144.46054  0.040262134  0.041572698            7 
  300000   0.78786485   -5.1644828    144.08038  0.040022329  0.041484652            7 
  301000   0.77469008   -5.1563257    145.02364  0.040150509  0.041397503           11 
  302000   0.78268051   -5.1510752    144.90205  0.039984011  0.041310764            4 
  303000   0.79589928   -5.1693633    145.75253  0.040085953  0.041225255            6 
  304000   0.78168511   -5.1697643    145.89144  0.039992172  0.041140644            8 
  305000   0.76905368   -5.1710785    145.81941  0.039841369  0.041055782            9 
  306000   0.78191521   -5.1505357    146.46584  0.039887211  0.040972261           13 
  307000   0.76480718   -5.1800544    146.48106  0.039761416  0.040888895            9 
  308000   0.78814973    -5.161248    146.85351  0.039733093  0.040805152            6 
  309000   0.76899614   -5.2044297    146.48056  0.039503926  0.040720378            3 
  310000   0.76132943   -5.1810761    146.78791  0.039459115  0.040635308           10 
  311000   0.74949956   -5.1651991    147.37624  0.039489881  0.040551638            7 
  312000   0.76838665    -5.193434    147.36043   0.03935909  0.040466788           14 
  313000   0.79393507   -5.1797394     147.5314  0.039278861  0.040381511            5 
  314000   0.78399043   -5.1915996    147.79944  0.039224904  0.040296521            5 
  315000   0.76003956   -5.1699856     148.0108  0.039156297  0.040211512            5 
  316000   0.76803099   -5.2020745    147.73731   0.03896026   0.04012581           11 
  317000   0.75418034   -5.2231158    147.76368  0.038844291  0.040040268            8 
  318000   0.77392629   -5.2080549    147.97737  0.038778137  0.039954297            3 
  319000   0.74558326   -5.2399697    147.81534  0.038614247  0.039868802            4 
  320000   0.76734319    -5.200661    148.55881  0.038687189  0.039782738            6 
  321000    0.7677948   -5.2131446     148.7373  0.038613005  0.039696956            4 
  322000   0.74820286    -5.226778    149.08515  0.038583113  0.039611986            8 
  323000   0.76401677   -5.2149063     148.9428  0.038426936  0.039526992            7 
  324000   0.74427311   -5.2482647    149.67156   0.03849577  0.039441976           13 
  325000   0.76639712   -5.2433436    149.45631   0.03832213  0.039357671           10 
  326000   0.74581796   -5.2343564    149.85827   0.03830733  0.039273631            4 
  327000   0.73392326   -5.2286883    150.29363  0.038301129  0.039189681            6 
  328000   0.74785993    -5.215425    150.21239  0.038163716  0.039106502            6 
  329000    0.7498323   -5.2443246     150.1298  0.038026797  0.039021837           11 
  330000   0.73842092   -5.2305187    150.61033  0.038032911  0.038937426            8 
  331000   0.74269664   -5.2744374    149.87046  0.037731737   0.03885305            5 
  332000   0.73009897   -5.2782975    150.58528  0.037797509  0.038769111            8 
  333000   0.74514789   -5.2882416    150.30338  0.037613459  0.038683869            7 
  334000   0.73885794   -5.2602715     150.0609  0.037440345  0.038597256           17 
  335000   0.72253417   -5.2616313    150.38538  0.037409298  0.038509943            5 
  336000   0.71504174    -5.296561    149.97476   0.03719612  0.038421904            9 
  337000   0.74414516   -5.2690103     150.5483  0.037227572  0.038334978            5 
  338000   0.74081386   -5.2786873    150.61187  0.037133103  0.038247677           12 
  339000   0.72019339   -5.2646047    150.64302  0.037031224  0.038160095            8 
  340000   0.74313556   -5.2760244    150.88966  0.036982759  0.038072393           15 
  341000   0.71678528   -5.2930973    150.90985  0.036879239  0.037984186            6 
  342000   0.70831651   -5.3106617    150.55461  0.036684846  0.037895522           10 
  343000   0.71659389   -5.2770354    151.06403  0.036701659  0.037807177            6 
  344000   0.71282031   -5.2928109    150.88839  0.036552421  0.037718341            6 
  345000    0.7050865   -5.3250994    151.28156  0.036541439   0.03763007            9 
  346000   0.71372823    -5.301646    151.48787  0.036485518  0.037542526            6 
  347000   0.71320163   -5.3082815    151.41367  0.036362552  0.037454399            8 
  348000   0.70565299   -5.3289456    151.60086  0.036302888  0.037366209            5 
  349000    0.7191224   -5.3382867    151.47683  0.036169251  0.037277516           18 
  350000   0.70503732   -5.3113832    152.21094  0.036240699  0.037189885           13 
  351000   0.70119897   -5.2976892    152.23933  0.036144191  0.037102788            6 
  352000   0.69839911     -5.30975    152.37786  0.036074305  0.037015584            7 
  353000   0.70801203   -5.3098823    152.03518  0.035891213   0.03692796            7 
  354000   0.70120064   -5.3194414    152.14167  0.035814895  0.036840697           17 
  355000   0.70559965   -5.3262342    152.41021  0.035777044  0.036754283            5 
  356000   0.68111858    -5.319016    153.07172  0.035831394  0.036668549           15 
  357000   0.69573897   -5.3285191    152.98173  0.035710022  0.036582732            7 
  358000   0.69943085   -5.3281476    153.04438  0.035624856  0.036496858            5 
  359000   0.69597461   -5.3651033    152.61236  0.035425339  0.036410577           10 
  360000   0.69086064   -5.3875086    152.99177  0.035414762  0.036323573           15 
  361000   0.68993409   -5.3501374    152.81869  0.035276706  0.036236126            9 
  362000   0.68834897   -5.3667747    152.81659  0.035178773  0.036148728            6 
  363000   0.69126414   -5.3685918    152.69541  0.035054043  0.036061412            4 
  364000    0.6787665   -5.3283488    153.11383  0.035053533  0.035974256           11 
  365000    0.6699089   -5.3782715    153.09873  0.034954048  0.035886958           19 
  366000   0.68598655   -5.3919912    152.91064  0.034815719  0.035798753           30 
  367000   0.68853226   -5.3618196    153.77949   0.03491814  0.035711725           10 
  368000   0.67100167   -5.3796481    153.17284  0.034685879  0.035624199           15 
  369000    0.6847562   -5.3824722    153.34391  0.034630514  0.035536694           13 
  370000   0.67163433   -5.4152603    152.95798  0.034449994  0.035448756            8 
  371000   0.68665113   -5.4017204    153.03165  0.034373685    0.0353606            8 
  372000   0.68499154   -5.3909777    153.56504  0.034400771  0.035272555           10 
  373000   0.66509282   -5.4190588    152.88493  0.034156597  0.035184145            6 
  374000   0.66752572   -5.3784753    153.19607  0.034134596  0.035096321           17 
  375000    0.6514909   -5.3964717    153.31061  0.034069025  0.035008519            8 
  376000   0.67629609   -5.4324469    153.68072  0.034060443  0.034921427           15 
  377000   0.66459445    -5.419778    154.13159  0.034069759  0.034834045            6 
  378000   0.65936326   -5.4090244    153.57508   0.03385694  0.034747287           12 
  379000   0.66121361   -5.4158882     153.9042  0.033839974  0.034660787           28 
  380000   0.66740505    -5.422835     154.0074  0.033773553  0.034574315           17 
  381000   0.65696274    -5.416392    154.13667  0.033713182  0.034487848            9 
  382000   0.65876519   -5.4356934    154.30078  0.033660729  0.034401605           17 
  383000   0.65953654   -5.4365937    154.09787  0.033528693  0.034315144            9 
  384000   0.67739135   -5.4631981    154.37931  0.033502455  0.034228405           20 
  385000   0.65324912   -5.4595361    153.81784  0.033293904  0.034142442           39 
  386000   0.66303355   -5.4343915    154.38965  0.033331099  0.034056792           10 
  387000   0.63532965   -5.4491731    154.89422  0.033353622  0.033970986           10 
  388000    0.6460414   -5.4527629    154.47265  0.033177115  0.033885959           12 
  389000   0.65478555    -5.433977    154.31311   0.03305765  0.033800423           12 
  390000   0.65253828   -5.4610483    154.65744  0.033046462  0.033715273            8 
  391000   0.65419816   -5.4447751    154.69705  0.032970386  0.033629896            7 
  392000   0.64411605   -5.4750222    154.87034  0.032923116  0.033544928            7 
  393000   0.65575669   -5.4723381    154.58679  0.032779217  0.033460021            8 
  394000   0.65120255   -5.4732393    155.29249  0.032845281  0.033375409            9 
  395000   0.62989873   -5.4840167      154.506  0.032596203  0.033290683           12 
  396000   0.64181291   -5.4847393    154.93382  0.032603919  0.033206056            9 
  397000   0.63512323   -5.4900733    154.95971  0.032527228  0.033121426           24 
  398000   0.62590506   -5.4997087    154.46102  0.032341085  0.033036378           14 
  399000   0.63262287   -5.4985809     155.0557  0.032384232   0.03295115            6 
  400000   0.62995065   -5.4953914    154.74967  0.032239514  0.032866105           11 
  401000   0.62801541     -5.49028    154.93017  0.032196626  0.032781301           11 
  402000   0.62671135   -5.5008483    154.93394  0.032117317  0.032696615           17 
  403000   0.62225468   -5.5203212    154.51376  0.031950735  0.032611719            7 
  404000   0.63012379   -5.4867349    155.43554  0.032061787  0.032527651           22 
  405000   0.62882074   -5.5372267     154.6027  0.031811256  0.032443399           11 
  406000   0.61465729   -5.4890993    155.04816  0.031824335  0.032359295           18 
  407000   0.60803884   -5.5153068     155.1853  0.031774222  0.032276007           13 
  408000   0.61373668   -5.5139594     154.9478  0.031647836     0.032192           12 
  409000   0.60619961   -5.5202022    155.20228  0.031622306  0.032107908            5 
  410000    0.5994768    -5.522354    155.04596  0.031513406  0.032024345            9 
  411000   0.61346409   -5.5260387    155.07956  0.031443545  0.031941526           24 
  412000    0.6139954   -5.5435381    155.05094  0.031361436  0.031858494            4 
  413000   0.59927347   -5.5345743    155.36116  0.031348095  0.031775688            6 
  414000   0.58462087   -5.5368265    155.59432  0.031319307  0.031692938            5 
  415000   0.62019354   -5.5729512    154.97519  0.031119515  0.031609905           11 
  416000    0.5997735   -5.5532217    154.91292  0.031032235  0.031526613           20 
  417000   0.58640056   -5.5686327     154.8627  0.030947782  0.031443143           14 
  418000   0.58637216   -5.5627365    154.97771  0.030896673  0.031359714           15 
  419000   0.60152074   -5.5638184    154.91213  0.030809892  0.031276648           15 
  420000   0.59558424   -5.5627882    155.20604  0.030794849  0.031193633           16 
  421000   0.59580381   -5.5569465    154.97128  0.030675233  0.031110695           14 
  422000    0.5920287   -5.5601478    155.28285   0.03066407  0.031027816           14 
  423000   0.59231033   -5.5902205    154.81082  0.030498586  0.030944919           15 
  424000   0.61419924   -5.5839223    154.93315  0.030450698  0.030861703           23 
  425000   0.58984196   -5.5915827    154.87594  0.030367832   0.03077869           31 
  426000   0.60180169   -5.6164897    155.01102  0.030322969  0.030695738           36 
  427000   0.57969099   -5.5873648    154.97902  0.030245711  0.030613158           19 
  428000   0.58363079   -5.5972196    154.93333  0.030166146  0.030530641           12 
  429000   0.58850206   -5.6036432    155.10517   0.03012921  0.030448621           16 
  430000   0.59857621   -5.6287521    154.86865  0.030013304  0.030366604           22 
  431000   0.56385914     -5.59726    154.98249   0.02996568  0.030284654           12 
  432000   0.57974672   -5.6091924    155.30524  0.029958573  0.030202749           24 
  433000   0.57176586   -5.5984297    155.32956  0.029894064  0.030121204           13 
  434000   0.58222606   -5.6198546     155.2444  0.029808833   0.03004044           14 
  435000   0.57167842   -5.6257354    155.02231   0.02969776  0.029959359           22 
  436000   0.56253736   -5.6280831    155.05651  0.029636183  0.029878575            9 
  437000   0.56965115   -5.6183619     155.0843  0.029573666  0.029798252           14 
  438000    0.5649119    -5.617951    155.65497  0.029614721  0.029718313            8 
  439000   0.57265544   -5.6411929    155.26974  0.029474134  0.029638706           26 
  440000   0.55471801   -5.6245685    155.44435  0.029440217  0.029559297           58 
  441000   0.56387918   -5.6384643     155.3383   0.02935342  0.029480073           44 
  442000    0.5663777   -5.6659377    155.33216  0.029285853  0.029400621           11 
  443000   0.55566503   -5.6778498     155.0995  0.029175979  0.029321434           13 
  444000   0.55054362   -5.6880579    155.14761  0.029119296  0.029242109            8 
  445000    0.5705289    -5.644474    155.31517  0.029085238  0.029163294           17 
  446000    0.5551763   -5.6710219    155.10536  0.028980823  0.029084695           22 
  447000   0.55636478   -5.6792364    155.38079  0.028967336  0.029006001           17 
  448000   0.55697437   -5.6820249    155.35442  0.028897772  0.028927676           66 
  449000   0.54901146   -5.6925786     155.3103  0.028825223  0.028849546           48 
  450000   0.54504854   -5.6971168    155.59915  0.028814657   0.02877162           60 
  451000   0.54131417   -5.6702549    155.36655  0.028707789  0.028693579           37 
  452000   0.54862814   -5.6896718    155.16139   0.02860645  0.028615484           53 
  453000   0.54176549   -5.7031911    155.13822   0.02853904  0.028537505           50 
  454000   0.52961751   -5.6892175    155.37862  0.028520305  0.028459802           66 
  455000   0.54764024   -5.7130868    155.03503  0.028394694  0.028382111           33 
  456000   0.53271741   -5.7013161    155.07627  0.028339962  0.028304608           67 
  457000    0.5490362   -5.6860677    155.24661   0.02830901  0.028227542           57 
  458000   0.53614038   -5.6978968    155.43279  0.028281076  0.028150702           39 
  459000   0.53305873   -5.7237762     154.9813  0.028137491  0.028073986           30 
  460000   0.53029054   -5.7228557    154.97684  0.028075514  0.027997295           36 
  461000   0.52608142   -5.7043647    155.18067  0.028051459  0.027920972           21 
  462000   0.54668409   -5.7073298    154.93836  0.027947035  0.027844738           46 
  463000   0.52309959   -5.7369971    155.21999  0.027937363  0.027768676           68 
  464000    0.5218426    -5.734369    154.99626  0.027836973  0.027692695           66 
  465000   0.52689353   -5.7605211    154.95157  0.027769098  0.027617027           85 
  466000   0.52872267   -5.7501229    155.18121  0.027750574  0.027541674           85 
  467000   0.52004068    -5.744498     155.1021  0.027677034  0.027466697          114 
  468000   0.52551832    -5.754155    155.23049  0.027640757  0.027391654          149 
  469000   0.52658584   -5.7613318    155.30999  0.027595947  0.027316829          107 
  470000    0.5242827   -5.7627832    155.03711   0.02748885  0.027242081           85 
  471000   0.51327084   -5.7463858    155.31193   0.02747911  0.027167511          191 
  472000   0.51834289   -5.7650228    154.84544  0.027338531  0.027093095          113 
  473000   0.51018813   -5.7745069    155.13442  0.027331646  0.027018776          142 
  474000   0.51603434    -5.784209    155.24031    0.0272926  0.026944629           91 
  475000   0.50000845   -5.7699885     155.0039  0.027193666  0.026870636          151 
  476000    0.5075286   -5.7932498    154.99772  0.027135456  0.026796864          136 
  477000   0.49589634   -5.7829924    155.01602  0.027081764  0.026723338          186 
  478000   0.51004108   -5.7867234    154.90837  0.027006341  0.026649946           85 
  479000   0.51465454   -5.7850733    155.37214  0.027030644  0.026576722           78 
  480000    0.5000103   -5.8211144     154.9386  0.026899063  0.026503384           94 
  481000   0.49871055   -5.8005822     155.0978   0.02687072  0.026430324           95 
  482000    0.5024134   -5.8010268    155.07948  0.026811805  0.026357204          145 
  483000   0.49581117   -5.8141619    154.57355  0.026669005  0.026284305           92 
  484000   0.48861401   -5.8148182     154.7645  0.026646781  0.026211341           49 
  485000   0.48165669   -5.8028078    154.62366   0.02656764  0.026138578           74 
  486000   0.48876543   -5.8187769    154.42589  0.026479061  0.026066049           89 
  487000   0.48760563   -5.8174989    154.71475  0.026474119  0.025993664           87 
  488000   0.48486495   -5.8200831    154.86553  0.026445616   0.02592147          138 
  489000   0.49224101   -5.8022498     154.5436  0.026336674  0.025849533          239 
  490000     0.483464   -5.8401599    154.59156  0.026291081  0.025777762          259 
  491000   0.48171332   -5.8359122    154.29236  0.026186755  0.025706069          253 
  492000   0.47866715   -5.8402428    154.49447  0.026167763  0.025634474          263 
  493000   0.46770526   -5.8509268    154.63468  0.026138385  0.025562894          265 
  494000   0.48532604   -5.8352839    154.14948  0.026003624  0.025491656          314 
  495000   0.48810317   -5.8421058    154.40038   0.02599333  0.025420662          282 
  496000   0.46515531   -5.8542168    154.68546   0.02598882  0.025349835          306 
  497000   0.48437438   -5.8457289    154.22386  0.025859132  0.025279067          325 
  498000   0.47202098   -5.8551329    154.54207  0.025860453  0.025208613          258 
  499000   0.47206131   -5.8693151    154.12556  0.025739072  0.025138167          233 
  500000   0.46986165    -5.867082    154.29969  0.025716616  0.025067847          188 
  501000   0.46806758   -5.8841738    154.26767  0.025659958  0.024997788          172 
  502000   0.47152226   -5.8707041    154.25224  0.025606282  0.024927811          267 
  503000   0.47205206   -5.8686375    154.32722  0.025567796  0.024858044          308 
  504000   0.46611311   -5.8900239    154.05014  0.025471253  0.024788406          302 
  505000   0.45385684   -5.8792491    154.14723  0.025436837  0.024718864          350 
  506000   0.45706091   -5.8881544    154.33903  0.025418153  0.024649562          301 
  507000   0.45539025   -5.8793163    153.97205  0.025307701   0.02458044          263 
  508000   0.45431388   -5.9095864    153.94649   0.02525369   0.02451144          195 
  509000   0.45407069   -5.8805867    153.94376  0.025203628   0.02444257          331 
  510000   0.45719457   -5.9075265    153.92188  0.025150634  0.024373811          261 
  511000    0.4429384   -5.8994055    153.69767  0.025064851  0.024305286          260 
  512000   0.46138337   -5.9026394     153.8131  0.025034684  0.024236851          436 
Loop time of 1267.58 on 48 procs for 500000 steps with 4000 atoms

Performance: 68161.197 tau/day, 394.451 timesteps/s
99.4% CPU use with 48 MPI tasks x no OpenMP threads

MPI task timing breakdown:
Section |  min time  |  avg time  |  max time  |%varavg| %total
---------------------------------------------------------------
Pair    | 87.844     | 92.88      | 97.961     |  26.5 |  7.33
Neigh   | 8.5353     | 8.9172     | 9.5131     |   6.1 |  0.70
Comm    | 80.584     | 87.196     | 93.388     |  33.2 |  6.88
Output  | 0.88893    | 0.88965    | 0.9117     |   0.3 |  0.07
Modify  | 1061.9     | 1065.8     | 1071.2     |   6.2 | 84.08
Other   |            | 11.87      |            |       |  0.94

Nlocal:        83.3333 ave          92 max          76 min
Histogram: 2 5 4 9 6 9 8 3 1 1
Nghost:        2338.02 ave        2356 max        2310 min
Histogram: 1 0 2 5 8 5 10 8 5 4
Neighs:        15975.0 ave       18355 max       14493 min
Histogram: 5 4 7 11 9 4 4 2 1 1
FullNghs:      31950.3 ave       35216 max       29111 min
Histogram: 2 4 7 6 9 8 5 5 1 1

Total # of neighbors = 1533615
Ave neighs/atom = 383.40375
Neighbor list builds = 26876
Dangerous builds = 0

#clear
#
#next RN
#
#jump SELF
Total wall time: 0:21:11
