
units lj                  # Use reduced LJ style units
atom_style atomic         # Uncharged point particles
atom_modify map hash      # Needed for indexing of clusters etc
                          # Used to be able to find where atoms are in relation to each other.

lattice fcc 1.0 spacing 1 1 1
Lattice spacing in x,y,z = 1.5874011 1.5874011 1.5874011
region box block 0 10 0 10 0 10 units lattice
create_box 2 box
Created orthogonal box = (0.0000000 0.0000000 0.0000000) to (15.874011 15.874011 15.874011)
  3 by 4 by 4 MPI processor grid
create_atoms 1 box
Created 4000 atoms
  using lattice units in orthogonal box = (0.0000000 0.0000000 0.0000000) to (15.874011 15.874011 15.874011)
  create_atoms CPU = 0.002 seconds
set type 1 type/fraction 2 0.69 78393
Setting atom values ...
  2781 settings made for type/fraction
mass 1 1.0
mass 2 1.0
pair_style lj/cut  3.5
pair_modify tail  yes
pair_coeff 1  1  1.0  1.0   # Intearaction between 1 and 1 set with epsilon = 1 and sigma = 1
pair_coeff 1  2  1.5  0.8
pair_coeff 2  2  0.5  0.88

write_data data.0
System init for write_data ...
Neighbor list info ...
  update every 1 steps, delay 10 steps, check yes
  max neighbors/atom: 2000, page size: 100000
  master list distance cutoff = 3.8
  ghost atom cutoff = 3.8
  binsize = 1.9, bins = 9 9 9
  1 neighbor lists, perpetual/occasional/extra = 1 0 0
  (1) pair lj/cut, perpetual
      attributes: half, newton on
      pair build: half/bin/atomonly/newton
      stencil: half/bin/3d
      bin: standard
WARNING: Not all mixed pair coeffs generated from mixing. Use write_data with 'pair ij' option to store all pair coeffs. (../write_data.cpp:312)


#############################
#   M E L T   S Y S T E M   #
#############################

velocity all create 2.4 3143649 mom yes dist gaussian # Assign velocities
                                                    # Temperature 2.4, random number seed, zero linear momentum
                                                                                # Gaussian distribution

timestep 0.002   # simulation timestep
thermo 1000       # output thermodynamic data every 1000 steps bf 100

# Define a fix  in this case with index 1 applied to all
# particles in the simulation. This fix is for simulations
# in the anisotropic NPT ensemble. Note that we use the MTK
# correction.
fix 1 all npt temp 2.4 2.4 0.1 iso 5.68 5.68 0.5 mtk yes tchain 5 pchain 5 # Use NPT ensemble
                                                                         # Set temperature and pressure and damping
                                                                         # Numbers of thermostats in chain and in barostat
run 10000          # run for 10000 steps
Per MPI rank memory allocation (min/avg/max) = 3.642 | 3.644 | 3.648 Mbytes
Step Temp E_pair E_mol TotEng Press Volume 
       0          2.4    -4.227286            0  -0.62818599   -3.7882121         4000 
    1000    2.3843612   -3.8398467            0  -0.26419913     5.973841    3641.0685 
    2000    2.4086842   -3.8539255            0  -0.24180243    5.8857863    3627.7385 
    3000    2.4049338   -3.8288025            0  -0.22230365    6.3271004    3616.1071 
    4000    2.3582909   -3.8488966            0  -0.31234462    5.6275318    3658.8481 
    5000    2.3857956   -3.8687455            0  -0.29094684    5.5569764    3656.4784 
    6000    2.4386478   -3.9403583            0  -0.28330106    5.3153267    3642.8226 
    7000    2.4370629   -3.8482334            0  -0.19355294    5.9950819    3634.6685 
    8000     2.372112    -3.840384            0  -0.28310547    5.4247097    3688.7148 
    9000    2.4188688   -3.8846384            0   -0.2572422    5.7955321    3626.1364 
   10000    2.4033227   -3.8378352            0  -0.23375229    5.7345272    3646.7957 
Loop time of 2.67354 on 48 procs for 10000 steps with 4000 atoms

Performance: 646333.178 tau/day, 3740.354 timesteps/s
99.6% CPU use with 48 MPI tasks x no OpenMP threads

MPI task timing breakdown:
Section |  min time  |  avg time  |  max time  |%varavg| %total
---------------------------------------------------------------
Pair    | 1.1776     | 1.2675     | 1.4313     |   3.2 | 47.41
Neigh   | 0.21659    | 0.22265    | 0.25328    |   1.2 |  8.33
Comm    | 0.74659    | 0.90672    | 1.0427     |   5.4 | 33.91
Output  | 0.00024732 | 0.00025319 | 0.00039836 |   0.0 |  0.01
Modify  | 0.21793    | 0.2604     | 0.30454    |   5.7 |  9.74
Other   |            | 0.01597    |            |       |  0.60

Nlocal:        83.3333 ave          89 max          75 min
Histogram: 3 1 4 4 1 8 3 14 3 7
Nghost:        1748.69 ave        1776 max        1728 min
Histogram: 5 2 12 4 6 6 6 2 4 1
Neighs:        10473.4 ave       11399 max        9125 min
Histogram: 3 3 3 3 3 6 5 12 7 3

Total # of neighbors = 502722
Ave neighs/atom = 125.68050
Neighbor list builds = 901
Dangerous builds = 201

# Equilibrate just above the melting temperature to avoid step fn in T

fix 1 all npt temp 1.25 1.25 0.1 iso 5.68 5.68 0.5 mtk yes tchain 5 pchain 5
run 2000
Per MPI rank memory allocation (min/avg/max) = 3.644 | 3.646 | 3.650 Mbytes
Step Temp E_pair E_mol TotEng Press Volume 
   10000    2.4033227   -3.8378352            0  -0.23375229    5.7345272    3646.7957 
   11000    1.2558161   -5.6906912            0    -3.807438    5.9178123    2781.6911 
   12000    1.2277861   -5.7379615            0   -3.8967428    5.9836598    2762.2963 
Loop time of 0.686424 on 48 procs for 2000 steps with 4000 atoms

Performance: 503479.164 tau/day, 2913.653 timesteps/s
99.6% CPU use with 48 MPI tasks x no OpenMP threads

MPI task timing breakdown:
Section |  min time  |  avg time  |  max time  |%varavg| %total
---------------------------------------------------------------
Pair    | 0.30068    | 0.32756    | 0.39978    |   2.9 | 47.72
Neigh   | 0.042445   | 0.045302   | 0.052544   |   0.8 |  6.60
Comm    | 0.18711    | 0.2636     | 0.29861    |   3.6 | 38.40
Output  | 5.3671e-05 | 5.5353e-05 | 7.0584e-05 |   0.0 |  0.01
Modify  | 0.039875   | 0.045122   | 0.050793   |   1.5 |  6.57
Other   |            | 0.004789   |            |       |  0.70

Nlocal:        83.3333 ave          91 max          76 min
Histogram: 4 1 8 3 6 8 9 3 3 3
Nghost:        2105.25 ave        2123 max        2086 min
Histogram: 2 2 6 4 9 5 9 4 4 3
Neighs:        13819.4 ave       15914 max       11805 min
Histogram: 1 1 5 9 11 9 4 4 3 1

Total # of neighbors = 663331
Ave neighs/atom = 165.83275
Neighbor list builds = 147
Dangerous builds = 11

#############################
# L I N E A R  Q U E N C H  #
#############################

# Define solid atoms. This closely follows ten Wolde  Ruiz-Montero and Frenkel  Faraday Discuss  1996  104  93-110
# Compute components of the per-atom q6 vector
compute q6 all orientorder/atom degrees 1 6 components 6 nnn NULL cutoff 1.3 # compute the Q6 parameter.
                                                                             # Use all neighbours within 1.3 unit cell.

# get number of connections
compute coord_number all coord/atom orientorder q6 0.5

# An atom is solid if it has 8 or more connections (of a possible 14)
variable is_solid atom c_coord_number>=8
group solid dynamic all var is_solid    # Must be dynamic to update
dynamic group solid defined

# do clustering
compute cluster solid cluster/atom 1.3 # Create a cluster where all atoms within are solid and max 1.3 units from another member

# define chunks one chunk per cluster
compute clus_chunks solid chunk/atom c_cluster nchunk every compress yes  # Says which atoms are in which chunk

# count the size of each chunk
compute size_chunks solid property/chunk clus_chunks count


# Find the maximum entry in the vector of chunk sizes
variable max_n equal max(c_size_chunks)


# Thermo style which includes this variable
# thermo_style custom step temp pe vol v_max_n

thermo ${N}  # Print the thermo information every 100 steps
thermo 1000  

# Reset the npt fix at a lower temperature (below freezing)
fix 1  all npt temp  ${temp} ${temp}  0.1  iso  5.68  5.68  0.5  mtk yes tchain  5  pchain  5
fix 1  all npt temp  0.45 ${temp}  0.1  iso  5.68  5.68  0.5  mtk yes tchain  5  pchain  5
fix 1  all npt temp  0.45 0.45  0.1  iso  5.68  5.68  0.5  mtk yes tchain  5  pchain  5

dump dmp2 all dcd ${N} traj.dcd
dump dmp2 all dcd 1000 traj.dcd


compute msd all msd com yes
variable twopoint equal c_msd[4]/6/(step*dt+1.0e-6)
fix 9 all vector 10 c_msd[4]
variable fit equal slope(f_9)/6/(10*dt)
thermo_style custom step temp pe c_msd[4] v_twopoint v_fit v_max_n

fix 1 all npt temp 1.25 ${temp} 0.1 iso 5.68 5.68 0.5 mtk yes tchain 5 pchain 5
fix 1 all npt temp 1.25 0.45 0.1 iso 5.68 5.68 0.5 mtk yes tchain 5 pchain 5
run 2000000 # 5000000  # Run for this many steps
Neighbor list info ...
  update every 1 steps, delay 10 steps, check yes
  max neighbors/atom: 2000, page size: 100000
  master list distance cutoff = 3.8
  ghost atom cutoff = 3.8
  binsize = 1.9, bins = 8 8 8
  4 neighbor lists, perpetual/occasional/extra = 1 3 0
  (1) pair lj/cut, perpetual
      attributes: half, newton on
      pair build: half/bin/atomonly/newton
      stencil: half/bin/3d
      bin: standard
  (2) compute orientorder/atom, occasional
      attributes: full, newton on
      pair build: full/bin/atomonly
      stencil: full/bin/3d
      bin: standard
  (3) compute coord/atom, occasional
      attributes: full, newton on
      pair build: full/bin/atomonly
      stencil: full/bin/3d
      bin: standard
  (4) compute cluster/atom, occasional
      attributes: full, newton on
      pair build: full/bin/atomonly
      stencil: full/bin/3d
      bin: standard
Per MPI rank memory allocation (min/avg/max) = 9.847 | 9.850 | 9.854 Mbytes
Step Temp PotEng c_msd[4] v_twopoint v_fit v_max_n 
   12000    1.2277861   -5.7379615 7.5099558e-31 5.2152469e-33 8.3333333e+20            1 
   13000    1.2421519   -5.7355758   0.61765219 0.0039593088  0.050862062            5 
   14000    1.2308268   -5.7326352    1.1757914 0.0069987582  0.049322673            4 
   15000    1.2470774   -5.7135705    1.7889807 0.0099387812  0.048643333            3 
   16000    1.2379853    -5.712781    2.3641385  0.012313221   0.04876622            3 
   17000    1.2545869   -5.7670412    2.9219549  0.014323308  0.048784609            2 
   18000    1.2473031   -5.7450653    3.4677859  0.016054564    0.0481599            3 
   19000    1.2550148   -5.7977261    3.9366142  0.017265851   0.04719869            3 
   20000    1.2571978   -5.7592592    4.5326171  0.018885904  0.046666589            2 
   21000    1.2085698   -5.7867317    5.0906601  0.020201032  0.046568012            6 
   22000     1.220835   -5.7711358    5.6788388  0.021510753  0.046717991            5 
   23000    1.2438966   -5.7757429    6.1752262  0.022374008  0.046645952            2 
   24000    1.2490571   -5.7226295    6.7125898  0.023307603  0.046452829            4 
   25000    1.2320157   -5.7127088    7.1730014  0.023910004  0.046095619            3 
   26000    1.2442571   -5.7560777    7.6445434  0.024501741  0.045682408            2 
   27000    1.2777236   -5.7571251    8.2731322  0.025534358  0.045494907            2 
   28000    1.2385447   -5.7015257     8.977432  0.026718547  0.045524862            1 
   29000    1.2251827   -5.7236319    9.5447721  0.027427506  0.045670607            2 
   30000    1.1961393   -5.7535028    10.196154   0.02832265  0.045864765            2 
   31000    1.2290271   -5.7683023    10.750722   0.02889979  0.046059896            2 
   32000    1.2495721   -5.7893344    11.305872  0.029442375   0.04620677            3 
   33000     1.244394   -5.7494398    11.939024   0.03014905   0.04637404            1 
   34000    1.2288278   -5.7477099    12.638353  0.030976355  0.046575527            1 
   35000    1.2220324   -5.7340218    13.334438  0.031748663   0.04690303            2 
   36000    1.2334631   -5.7540928    13.836773  0.032029566   0.04716911            3 
   37000    1.2395783   -5.7839639    14.422338  0.032482743  0.047387989            4 
   38000    1.2286141   -5.7539359    14.874755  0.032620077  0.047508933            2 
   39000    1.2727467   -5.7292068    15.342178  0.032782432   0.04751399            2 
   40000    1.1987676    -5.783893    15.771544  0.032857382  0.047428021            5 
   41000    1.2580848   -5.7996969    16.212878  0.032953004  0.047318517            3 
   42000     1.236537   -5.7368852    16.791197  0.033315866  0.047194491            3 
   43000    1.2367504   -5.7205922    17.344253  0.033612893  0.047078365            2 
   44000    1.2450902   -5.7571454    17.816843   0.03374402  0.046981822            1 
   45000    1.2357107   -5.7734793     18.38761   0.03405113  0.046868535            4 
   46000    1.2274099   -5.8193482    19.017068   0.03445121  0.046789187            1 
   47000    1.2254888   -5.8113589    19.603576  0.034758113  0.046735829            3 
   48000    1.2554473   -5.7588081    20.164087  0.035007095  0.046689319            3 
   49000    1.2474815   -5.7376751    20.828364  0.035422387  0.046664436            3 
   50000    1.2385656   -5.7867211    21.470296  0.035783826  0.046688882            2 
   51000    1.2476758   -5.7843149    21.987082  0.035926605  0.046727285            2 
   52000    1.2228553   -5.7568806    22.638027   0.03627889  0.046752738            1 
   53000    1.2199783   -5.8156417    22.839813  0.035911656   0.04673206            2 
   54000    1.2141527   -5.7634933    23.437076  0.036168327  0.046688355            3 
   55000    1.2316266   -5.7658997    23.822567  0.036094798  0.046617198            6 
   56000    1.2221992   -5.8174796    24.527278  0.036498926  0.046545462            3 
   57000    1.2205915   -5.7913616    25.135759  0.036748185  0.046516126            4 
   58000    1.2270038   -5.8115659     25.91502  0.037234224  0.046529925            1 
   59000    1.2427991   -5.7516161    26.324203  0.037181078  0.046529992            1 
   60000    1.2282684   -5.7847718    26.968557  0.037456328  0.046549532            2 
   61000     1.216704   -5.7957395    27.488346  0.037552385  0.046556917            3 
   62000    1.2355133   -5.8347669    28.121086  0.037797159  0.046563896            2 
   63000    1.2518476   -5.7661428    28.789019  0.038080713   0.04659882            2 
   64000    1.2343055   -5.7915642    29.218945  0.038045501  0.046623779            2 
   65000    1.2319035   -5.7757031    29.826787   0.03823947  0.046649908            2 
   66000    1.2521482   -5.7783095    30.382292   0.03836148  0.046669498            2 
   67000    1.2205255   -5.7641652    30.997005  0.038553488  0.046683076            3 
   68000    1.2330752   -5.7893564    31.716588  0.038868367  0.046722779            2 
   69000    1.2129008   -5.7825825    32.269323  0.038972613  0.046771258            3 
   70000    1.2230795   -5.8052551    32.759309  0.038999177  0.046793964            2 
   71000     1.230936   -5.8534085    33.194445  0.038960616  0.046809923            1 
   72000    1.2382716   -5.8111771     33.80668  0.039128102  0.046809533            3 
   73000    1.2108471   -5.8191446    34.358165  0.039221649   0.04681538            2 
   74000    1.2187258   -5.7794799     34.97004  0.039380676  0.046819361            3 
   75000    1.2453048   -5.7497297    35.517197  0.039463552    0.0468267            3 
   76000    1.2304572   -5.7840332    35.970785   0.03944165    0.0468362            2 
   77000    1.2138092   -5.8176876    36.655177  0.039670105  0.046852652            3 
   78000    1.2034515   -5.8319946    37.238601   0.03978483  0.046860281            4 
   79000    1.2481512   -5.7896941     37.79124  0.039864177  0.046864595            1 
   80000    1.2256643   -5.8659324    38.002865  0.039586317   0.04686199            2 
   81000     1.196487   -5.7709643    38.781336  0.039898494   0.04685833            2 
   82000     1.225549   -5.8089402    39.514791  0.040157308  0.046858983            2 
   83000    1.2080303   -5.8186836    39.749371  0.039909007  0.046855518            5 
   84000    1.2154163   -5.8260461    40.476389  0.040155148  0.046849487            2 
   85000    1.2219878    -5.799859    41.048029  0.040243165  0.046844961            4 
   86000    1.2362614   -5.7555806    42.100475  0.040795033  0.046867446            3 
   87000    1.2155828   -5.8106256    42.524374  0.040732159  0.046900567            4 
   88000    1.2326487   -5.8114081    42.767736  0.040499749  0.046921295            3 
   89000    1.2519925   -5.8198641    43.533779  0.040761966  0.046931336            1 
   90000    1.2074258   -5.8586507    44.030109  0.040768619  0.046946878            2 
   91000    1.2385245   -5.8341772    44.613509  0.040854862  0.046957858            1 
   92000    1.2041961   -5.7730212    45.328978  0.041058857  0.046972871            2 
   93000     1.243626   -5.8173872    45.910908  0.041138806  0.046993651            2 
   94000    1.2368264     -5.81012    46.582071  0.041296162  0.047014089            2 
   95000    1.2374893   -5.8294592    47.096319   0.04131256  0.047038492            8 
   96000    1.2184627   -5.8394761    47.587214  0.041308345  0.047055025            3 
   97000    1.1940485   -5.8482267    48.018233  0.041252777  0.047067917            3 
   98000    1.2089623   -5.8217209    48.747103  0.041451618  0.047090014            3 
   99000    1.2109229   -5.7931469    49.172084  0.041390643   0.04709866            3 
  100000    1.2166463   -5.8258741    49.656049  0.041380041  0.047105366            1 
  101000    1.1948287   -5.8387823    50.361655   0.04155252   0.04710493            2 
  102000    1.2163817    -5.854213    50.997093  0.041664292  0.047107498            1 
  103000    1.2040389   -5.7912601     51.37456  0.041565178  0.047103238            2 
  104000    1.2060336    -5.838704    51.797477  0.041504388  0.047098681            2 
  105000    1.1958075   -5.8626339    52.040747   0.04130218  0.047080257            2 
  106000    1.2138067   -5.8335994    52.672909  0.041409519  0.047053642            2 
  107000    1.2152626     -5.80923    52.916455  0.041212192  0.047024354            2 
  108000    1.2108937   -5.8400477    53.589058  0.041349581  0.046995881            3 
  109000    1.2137305   -5.7855217    54.203807   0.04144022  0.046959333            1 
  110000    1.2117039   -5.8194331    54.931116  0.041614481  0.046932398            4 
  111000    1.1828721   -5.8315053    55.257663  0.041484731  0.046902675            2 
  112000    1.1835429   -5.8307041     55.77663  0.041500468  0.046880296            2 
  113000    1.2116523   -5.8228123     56.44901  0.041629063  0.046860109            4 
  114000    1.2125763   -5.7985716    56.574226  0.041355428  0.046826667            1 
  115000     1.214095   -5.8351377    56.932734  0.041255604  0.046786202            1 
  116000    1.2174085   -5.8189048    57.486717  0.041297929    0.0467438            2 
  117000    1.2102284   -5.8733639    58.218699   0.04146631  0.046706805            4 
  118000    1.1798333   -5.8395718    58.472439  0.041294095  0.046673255            2 
  119000    1.1784952   -5.8773545    59.034164  0.041340451  0.046630271            2 
  120000    1.2303064   -5.8456838     59.22022  0.041125153   0.04658374            2 
  121000    1.2251057   -5.8515209    59.789456  0.041177311  0.046532022            2 
  122000    1.2032786   -5.8370581    60.269242  0.041167515  0.046478037            3 
  123000    1.1969017   -5.8735348    60.661967  0.041098894   0.04642169            3 
  124000     1.207854   -5.8250726    61.612705  0.041406388  0.046369636            2 
  125000    1.2000935   -5.8357745    61.963918  0.041309279  0.046322185            2 
  126000    1.2028828   -5.8737737    62.012282  0.041013414   0.04627311            1 
  127000    1.1878771   -5.8853368    62.471906  0.040992064  0.046215549            2 
  128000    1.2215461   -5.8555635    63.035799  0.041038932  0.046156629            5 
  129000    1.1904289   -5.8720694    63.534504  0.041042961  0.046095039            2 
  130000    1.2126843   -5.8419505    63.721995  0.040847433  0.046031431            3 
  131000    1.2123005   -5.8785334    64.394486  0.040963413   0.04597047            4 
  132000    1.2405741   -5.8365242    64.952304  0.041005242  0.045912158            1 
  133000    1.2238273   -5.8186408    65.524184  0.041055253  0.045856445            2 
  134000    1.1787701   -5.9019875    65.590856  0.040790333  0.045803276            4 
  135000    1.2101547   -5.8390136    66.521346  0.041062559  0.045745133            8 
  136000    1.2164655   -5.8327129    66.749412  0.040900375   0.04569026            2 
  137000    1.2316337   -5.8028011    67.639455  0.041143221  0.045633227            2 
  138000    1.2153924   -5.8809975     67.80663  0.040946032  0.045579342            3 
  139000    1.2054424   -5.8275838    68.732087  0.041206287  0.045530016            3 
  140000    1.1987548   -5.8424731    69.094364  0.041127597  0.045483875            2 
  141000    1.1859535   -5.8541304    69.597327  0.041133172  0.045440643            2 
  142000    1.2074621   -5.8884972    70.235584  0.041218065  0.045396875            4 
  143000    1.2091533   -5.8540449    70.773342  0.041243206  0.045353444            4 
  144000    1.1997832   -5.8963119    71.256626  0.041236473  0.045316292            4 
  145000    1.1945014    -5.842123    71.887448  0.041314625  0.045281608            3 
  146000    1.2050293   -5.8281531    72.404635  0.041326846  0.045247343            3 
  147000    1.2133263   -5.9026273    72.314141  0.040994411  0.045211459            2 
  148000    1.2127802   -5.8911158    72.864587  0.041027357  0.045172095            4 
  149000    1.2092503   -5.8565376    73.490007  0.041101793  0.045129895            2 
  150000    1.2030103   -5.8503473     74.42447  0.041346928  0.045089772            4 
  151000    1.2048471   -5.8826341    74.399174  0.041059147  0.045049264            2 
  152000    1.1865864   -5.8961814    74.776089  0.040995663  0.045008908            2 
  153000    1.1994318   -5.8385106    75.578116  0.041164551  0.044967709            2 
  154000    1.2040705   -5.9019838    75.942327  0.041094333  0.044928524            3 
  155000    1.1842981   -5.8316551    76.850787  0.041317627  0.044893248            3 
  156000    1.1960418   -5.8739519    77.358514  0.041323992  0.044859568            3 
  157000    1.1897198   -5.8814539    77.570182  0.041173133  0.044827642            2 
  158000    1.1769121   -5.8917134    77.883905  0.041078009  0.044795127            3 
  159000    1.2053004   -5.9047476    78.592189  0.041190874  0.044767355            3 
  160000    1.2069233   -5.9068133    79.494852  0.041403568  0.044741047            2 
  161000    1.1875393   -5.8641328    79.820481  0.041314949   0.04472023            2 
  162000    1.2098711   -5.8590877    80.271355  0.041291849   0.04469474            1 
  163000    1.1812666   -5.8909034    81.230705   0.04152899  0.044670664            2 
  164000    1.2083356   -5.9114319    81.837556  0.041584124  0.044652807            3 
  165000    1.1975296   -5.9290642    81.730834  0.041278199    0.0446356            4 
  166000    1.1916044   -5.9006745    82.369038  0.041349919  0.044616583            6 
  167000    1.1853844   -5.8560974     83.23806  0.041535958  0.044594713            3 
  168000    1.1755788   -5.9097574    83.313071  0.041325928    0.0445716            2 
  169000    1.1714679   -5.8985006    83.976249  0.041408406   0.04454847            3 
  170000     1.200733   -5.8817562     84.48365  0.041413554  0.044524673            2 
  171000    1.1915086   -5.8699257     85.17569  0.041508621  0.044504736            3 
  172000    1.1681654   -5.8647407    85.511075  0.041429784  0.044484025            2 
  173000     1.163601   -5.8634584    85.799085  0.041329039  0.044462838            2 
  174000    1.1680588   -5.8999728    85.975503  0.041176007  0.044437084            2 
  175000    1.1805516   -5.8438615    87.429628  0.041633156  0.044416043            2 
  176000    1.2117782   -5.8836166    87.639169  0.041495818   0.04439841            4 
  177000    1.1625077   -5.8989424     87.86827  0.041369242  0.044376173            4 
  178000    1.1810251   -5.8925353    88.293058  0.041335701  0.044351124            5 
  179000    1.1620737   -5.9159024    88.585183  0.041240774  0.044327926            3 
  180000    1.1774689   -5.8898371    89.200523  0.041296538  0.044303603            4 
  181000    1.1855251   -5.8717452    89.593743  0.041249421  0.044276344            2 
  182000    1.1777566    -5.856878    90.388086  0.041386486  0.044248569            2 
  183000    1.1930396   -5.9128023    90.334657     0.041136   0.04422275            3 
  184000     1.189164   -5.9068202    91.216089  0.041311635  0.044197321            4 
  185000    1.2149449   -5.9082106    91.859453  0.041378132  0.044172465            3 
  186000    1.1534193   -5.9597736    91.512108  0.041000048  0.044147027            6 
  187000    1.1754872   -5.8846513    93.096072  0.041486663  0.044122645            4 
  188000     1.182977   -5.9046644    93.517225   0.04145267  0.044102106            3 
  189000     1.175014   -5.9053892    94.059927  0.041472631  0.044082086            2 
  190000    1.1743795   -5.8664024    94.695465  0.041533098  0.044066661            3 
  191000    1.1627157   -5.9091465    95.208754  0.041539596  0.044052419            4 
  192000    1.1725571   -5.8960782    95.581049   0.04148483   0.04403701            3 
  193000    1.1507721   -5.9337762     95.79699  0.041363122  0.044018392            2 
  194000    1.1825577   -5.9083811    96.372285   0.04139703  0.043996621            5 
  195000    1.1807597   -5.9200166    96.410561  0.041201094  0.043974374            3 
  196000    1.1569842   -5.8837646     97.34185  0.041386841  0.043949723            5 
  197000    1.1818306   -5.9242544    97.402641  0.041202471  0.043924492            6 
  198000    1.1650351   -5.9398074    97.663797  0.041104292   0.04389924            5 
  199000    1.1754102   -5.8962094    98.484371  0.041241361  0.043873112            2 
  200000    1.1801685   -5.9424242    98.617495  0.041090623  0.043846872            2 
  201000    1.1693829   -5.9223354    99.483882  0.041245391  0.043820224            2 
  202000     1.162831   -5.8931291    99.803678  0.041173134  0.043792484            4 
  203000     1.166834   -5.9236534    100.37997  0.041206883  0.043767602            1 
  204000    1.1762047    -5.929302    100.86335  0.041202349  0.043742974            2 
  205000    1.1440989    -5.959471    101.67029  0.041329384  0.043721266            3 
  206000    1.1787309   -5.9206661    101.77302  0.041170314  0.043700785            3 
  207000    1.1701122    -5.925104    102.95534    0.0414474  0.043681224            2 
  208000    1.1803668   -5.9418893     102.9675  0.041253004  0.043665244            5 
  209000     1.198329   -5.9043267    104.19762  0.041546101  0.043650365            4 
  210000    1.1722583    -5.914516    104.73094  0.041559897  0.043638723            2 
  211000    1.1674712   -5.9367203    104.86173  0.041414585  0.043624701            3 
  212000     1.174222   -5.9247181    105.42479  0.041440564  0.043610005            2 
  213000    1.1561272   -5.9287008    105.94435  0.041449275  0.043594613            4 
  214000    1.1669367   -5.9063342    107.05841  0.041689411  0.043578325            2 
  215000    1.1790993   -5.9057027    106.81168  0.041399877  0.043564854            2 
  216000    1.1657897   -5.9036473    106.74592   0.04118284  0.043547388            4 
  217000    1.1862204   -5.9307837    107.33695  0.041220027  0.043526966            2 
  218000    1.1691332   -5.9389265    107.98278  0.041277823    0.0435071            3 
  219000    1.1642996   -5.9448592    107.85995  0.041042598  0.043484979            2 
  220000    1.1884762   -5.9306669     108.5087  0.041101779  0.043464995            2 
  221000    1.1782488   -5.9455334    109.37273  0.041241601  0.043449716            3 
  222000    1.1752262   -5.9497972    110.47078  0.041468009  0.043433509            3 
  223000    1.1724523   -5.8995755    111.30648  0.041594351  0.043421667            2 
  224000    1.1532769   -5.9510113    111.49072  0.041477204  0.043411296            2 
  225000    1.1802276   -5.9292979      111.829  0.041418148  0.043398203            2 
  226000    1.1625369   -5.9484499    112.10766  0.041337632  0.043385282            3 
  227000    1.2151416   -5.9190157     112.2627  0.041212444  0.043373313            2 
  228000    1.1507406   -5.9481839     112.8705  0.041253836  0.043355407            5 
  229000    1.1609593   -5.9578891    113.37321  0.041256626  0.043337983            3 
  230000    1.1761636   -5.8996448    113.91341  0.041272976  0.043320698            1 
  231000    1.1698478   -5.9233398    114.51063   0.04130975  0.043304037            2 
  232000    1.1612185   -5.9300526    114.44499  0.041108114  0.043286134            4 
  233000    1.1811242    -5.962216    114.85977  0.041080032  0.043267103            4 
  234000     1.169677   -5.9311988    115.52762  0.041142316  0.043247171            3 
  235000     1.179649   -5.9717871    115.95741  0.041119648  0.043230315            4 
  236000     1.171717   -5.9328964    116.36659  0.041089897  0.043209012            2 
  237000    1.1408454   -5.9196501     116.6395  0.041012483  0.043186036            3 
  238000    1.1641774   -5.9261326    117.02653  0.040975674  0.043164183            5 
  239000    1.1760974   -5.9631655     117.6926   0.04103647  0.043142797            6 
  240000    1.1868749   -5.9551371     117.8083  0.040905659  0.043120678            3 
  241000    1.1234673   -5.9503988     118.4481  0.040957159  0.043097646            4 
  242000    1.1575237   -5.9261638    118.83207  0.040920134  0.043074813            6 
  243000    1.1436409   -5.9533721    119.07774  0.040835986  0.043052648            4 
  244000    1.1440987   -5.9363552    119.99123  0.040980611  0.043029066            3 
  245000    1.1510595   -5.9874139    119.55772   0.04066589  0.043004481            2 
  246000    1.1580216   -5.9452876     119.9435  0.040631265  0.042975987            5 
  247000    1.1188939   -5.9218545    120.17609  0.040545239  0.042946861            4 
  248000    1.1781017   -5.9907783    120.16688  0.040378655  0.042914715            3 
  249000    1.1383267   -5.9555334    121.16905  0.040551892  0.042882505            5 
  250000    1.1703889   -5.9571425    121.10589  0.040368629  0.042850771            3 
  251000    1.1570952   -5.9554053    121.78073  0.040431848  0.042817789            2 
  252000    1.1677517   -5.9743237    122.06638  0.040365866  0.042785678            1 
  253000    1.1565615   -5.9777663    122.56538   0.04037068  0.042753156            5 
  254000    1.1473772   -5.9648031    123.16957  0.040409962  0.042721069            4 
  255000    1.1405688    -5.915837     123.7924  0.040455031  0.042690652            5 
  256000    1.1478416    -5.933191    124.17681  0.040422137  0.042661573            3 
  257000    1.1503855   -6.0000388    124.74446  0.040448915  0.042632635            3 
  258000    1.1806121   -5.9556486    125.13082  0.040416931  0.042603896            4 
  259000    1.1731332   -5.9480827    125.49719  0.040378762  0.042574978            3 
  260000    1.1553079   -5.9567622    126.18569  0.040444131   0.04254705            3 
  261000    1.1526953   -5.9033492    126.56813  0.040411281  0.042520987            4 
  262000    1.1518207   -5.9858483    127.56632  0.040574529  0.042495898            3 
  263000    1.1755711   -5.9604409    127.87811  0.040519047  0.042472756            2 
  264000    1.1524241   -5.9526983     128.5073  0.040564173  0.042450156            2 
  265000     1.133777   -5.9650282    129.42652  0.040700162  0.042427413            1 
  266000    1.1563684   -5.9532596    129.20407  0.040477466  0.042404423            4 
  267000    1.1489747   -5.9494929    129.72637  0.040488878  0.042380524            2 
  268000    1.1636496   -5.9941903    130.47169  0.040569554   0.04235902            3 
  269000     1.132105   -5.9645057    130.48365  0.040422443  0.042336943            6 
  270000    1.1522547   -5.9450781    131.03462  0.040442783   0.04231164            8 
  271000    1.1457203   -5.9673249    131.46382  0.040425528  0.042287598            2 
  272000    1.1076169   -5.9596727    131.97694  0.040434112  0.042263153            4 
  273000    1.1483437   -5.9659365    131.98139  0.040287361  0.042238808            3 
  274000    1.1525186   -6.0050903    132.33241  0.040247084  0.042213921            2 
  275000    1.1614982   -5.9925135    133.44839  0.040438907  0.042190735            2 
  276000    1.1500486   -5.9653388    133.98494  0.040454391  0.042169693            3 
  277000    1.1484165   -6.0005086    134.01587  0.040317651  0.042148843            3 
  278000    1.1247442   -6.0156115    134.59361  0.040345805  0.042128372            5 
  279000    1.1614578   -6.0090613    134.59615  0.040201956  0.042105584            3 
  280000    1.1567415   -5.9400969    135.89331  0.040444438  0.042083222            2 
  281000    1.1540497   -5.9938344    135.99011  0.040329214  0.042060393            2 
  282000    1.1572985   -5.9820312    136.16966  0.040239262  0.042037428            6 
  283000    1.1496283   -5.9841372    136.74396  0.040266184  0.042013816            3 
  284000     1.155934   -6.0310924     136.8505  0.040155662  0.041991663            7 
  285000    1.1375014   -5.9717021      137.478  0.040198246  0.041967698            4 
  286000    1.1172441   -6.0100139    137.77013  0.040142812  0.041942854            3 
  287000    1.1097095   -6.0077308    138.16122  0.040116499  0.041919263            1 
  288000    1.1241813   -5.9956362     138.1028  0.039960302  0.041895384            3 
  289000    1.1284754   -6.0278855    138.94486  0.040064838  0.041870247            3 
  290000     1.135837   -5.9419193    139.75475   0.04015941  0.041845672            4 
  291000    1.1421107   -6.0153357    139.92024  0.040068796  0.041822308            4 
  292000    1.1321109    -5.950319     140.9089  0.040213726  0.041798342            3 
  293000    1.1435723   -5.9438961    140.47577  0.039953292  0.041774642            7 
  294000    1.1176838   -5.9774221    140.92392  0.039944422  0.041749034            5 
  295000    1.1320463   -6.0384816    140.73802  0.039756503  0.041722736            6 
  296000    1.1307868   -6.0080527    141.55996  0.039853593  0.041695833            2 
  297000    1.1470465   -6.0070828     142.2664  0.039917621  0.041669777            2 
  298000    1.1232982   -6.0006545     142.8215  0.039938897  0.041644439            6 
  299000    1.1213512    -6.004033    142.70046  0.039771589  0.041618688            1 
  300000    1.1288115   -6.0338438    143.64375  0.039901041  0.041591736            2 
  301000    1.1169849    -6.000316    143.41379  0.039704814  0.041564975            3 
  302000    1.1244481   -5.9690825    144.40016  0.039845518  0.041539254            3 
  303000     1.139382   -6.0009936    144.75967  0.039812891   0.04151306            3 
  304000      1.13068   -6.0357408    145.34918  0.039843524  0.041488744            3 
  305000    1.1194626   -6.0254997    145.57769  0.039775325  0.041464168            3 
  306000    1.1345892   -6.0296184     145.4581  0.039612772   0.04143869            4 
  307000    1.1326643   -6.0313866     145.5491  0.039508443  0.041411481            7 
  308000    1.1391675   -5.9992292    146.83761  0.039728789  0.041385275            3 
  309000    1.1210846   -5.9846341    147.56927  0.039797538  0.041359333            3 
  310000    1.1128164   -6.0103877    147.79394  0.039729555  0.041335759            3 
  311000    1.1418662   -6.0000204    148.33681   0.03974727  0.041312033            4 
  312000    1.1245321   -6.0271096    148.42482  0.039643381  0.041288298            3 
  313000    1.1237046   -5.9920947      148.987  0.039666401   0.04126445            3 
  314000     1.122774   -6.0371142    149.05699  0.039558649  0.041239936            2 
  315000    1.1383178   -6.0091227    149.49055  0.039547765   0.04121342            2 
  316000    1.1392797   -6.0026686    149.51618  0.039429373  0.041186488            4 
  317000    1.1172369   -6.0290213    150.41573  0.039541465  0.041161049            9 
  318000    1.0996094   -6.0259905    149.40214  0.039151505  0.041134514            4 
  319000    1.1362889    -6.042822    150.31637  0.039267599  0.041106974            3 
  320000     1.126353   -6.0090849    151.17469  0.039368408  0.041080332            3 
  321000    1.1419669   -6.0025506    152.09231  0.039483985  0.041054929            4 
  322000    1.0909763   -6.0334481    151.96049  0.039327249  0.041028517            4 
  323000    1.1471309    -6.011058     152.2224  0.039273064  0.041001118            5 
  324000    1.1341071   -6.0077701    153.09485  0.039376246  0.040975107            3 
  325000    1.1385798   -6.0193408    153.78756  0.039432709  0.040950442            3 
  326000    1.1136803   -6.0552487    154.04649  0.039377937  0.040926249            2 
  327000      1.11964   -6.0601065    154.28666  0.039318722  0.040902331            4 
  328000    1.1340616   -6.0349241    154.74049  0.039314148  0.040876794            3 
  329000    1.1257347   -6.0310249    155.14835  0.039297961  0.040850908            4 
  330000    1.1224371   -6.0318446    155.81164  0.039346373  0.040825487            2 
  331000    1.1140005   -6.0243292    155.86376  0.039240624  0.040800317            6 
  332000    1.1356025   -6.0471561     156.2714  0.039224748  0.040773984            3 
  333000    1.0967086   -6.0521295    156.34984  0.039126586  0.040747315            2 
  334000    1.1236111   -6.0468102    156.53271  0.039055067  0.040720758            2 
  335000    1.1032329   -6.0079712    158.02601  0.039309951  0.040694656            2 
  336000    1.1280203   -6.0130436    158.04702  0.039198169  0.040670198            4 
  337000    1.1293045   -6.0407462    159.13444  0.039350753  0.040646414            2 
  338000    1.1135348   -6.0889181    158.81479  0.039155521  0.040623084            2 
  339000    1.1195441   -6.0389652    159.82648  0.039288712  0.040600011            2 
  340000    1.1052928   -6.0270715    160.44083  0.039323733  0.040578019            2 
  341000    1.1064425   -6.0322953    160.55209  0.039235604  0.040556253            4 
  342000     1.102496   -6.0512822    161.10456  0.039255496  0.040534832            4 
  343000    1.1028253   -6.0499382    160.83503  0.039075567  0.040512334            4 
  344000    1.1043663   -6.0237602    161.85561  0.039209208   0.04049055            3 
  345000    1.1358508    -6.082637    161.73161  0.039065606  0.040468429            2 
  346000    1.1170209   -6.0518312    162.43037  0.039120994  0.040446285            3 
  347000    1.1039779   -6.0847357    162.43859  0.039010227  0.040423759            4 
  348000    1.0956573   -6.0122031     163.5321  0.039159985  0.040400751            2 
  349000    1.0858967   -6.0346871    164.15644  0.039196857  0.040378364            4 
  350000    1.0975486   -6.0801546    163.71454  0.038979652  0.040356719            4 
  351000    1.1023569   -6.0270725    164.73082  0.039109881  0.040333756            3 
  352000    1.0887261   -6.0380337    165.30263  0.039134146  0.040311385            2 
  353000    1.1151349   -6.0727806    165.25029  0.039010927  0.040289118            2 
  354000    1.1181143   -6.0686481    165.29811  0.038911984  0.040266792            3 
  355000      1.12978   -6.0584446    165.81502  0.038923714  0.040244334            4 
  356000    1.0961822   -6.0479097     166.5035  0.038975539  0.040223187            3 
  357000    1.1306984   -6.0130231    167.58419  0.039118625  0.040202768            3 
  358000    1.1240418   -6.0652853    167.26936  0.038936071  0.040182223            4 
  359000    1.1025226   -6.0371991    167.89363  0.038972522   0.04016099            4 
  360000    1.0992366    -6.076534    168.33686  0.038966866  0.040139918            4 
  361000    1.1339216   -6.0790943    168.45547  0.038886305  0.040118558            5 
  362000     1.100891   -6.0652603    168.75902  0.038848761  0.040097499            5 
  363000    1.1076016   -6.1240078    168.90155  0.038774461   0.04007552            1 
  364000    1.1114452   -6.0626477    169.48401  0.038801284  0.040053183            2 
  365000    1.1130621   -6.0681351    170.72881  0.038979181  0.040032073            1 
  366000    1.1045642   -6.0665222    170.83006  0.038895734  0.040012095            4 
  367000    1.0934207   -6.0903793    170.80947  0.038785076  0.039992082            4 
  368000     1.117634   -6.0395122    171.45871    0.0388267  0.039971559            2 
  369000    1.1152544   -6.0907579    171.10573  0.038641764  0.039949908            2 
  370000    1.1249401   -6.0977382    171.38184  0.038599513   0.03992802            4 
  371000    1.1239985   -6.0506944     172.2775  0.038696654  0.039906248            3 
  372000    1.1191525   -6.0813229    173.26305  0.038813408  0.039884135            4 
  373000    1.0949249   -6.0670318    173.35211  0.038729247  0.039863387            2 
  374000    1.1000546   -6.0430754    174.42914  0.038865672  0.039844077            3 
  375000    1.1096874    -6.071481    174.78492  0.038841093  0.039825738            3 
  376000    1.1172085   -6.1162483    174.78688  0.038738227  0.039806761            3 
  377000    1.1117024   -6.0725882    175.47051  0.038786585  0.039788421            2 
  378000    1.1150883   -6.0782643    175.20515  0.038625474  0.039767692            2 
  379000     1.116008    -6.090367    175.22047  0.038526929  0.039747345            2 
  380000    1.1098157   -6.0723243    176.35224  0.038673737   0.03972658            3 
  381000    1.1070032   -6.0974034    175.78801   0.03844882  0.039706975            5 
  382000    1.1321588   -6.1065551    176.10345  0.038416983  0.039686215            2 
  383000     1.128102    -6.123157     176.7895  0.038465948  0.039664744            2 
  384000    1.1034896   -6.0827488    177.60415  0.038542568   0.03964402            4 
  385000    1.0911136   -6.0588662    177.67539  0.038457877  0.039622447            4 
  386000     1.119369   -6.1335212    177.88248  0.038402953  0.039601035            3 
  387000    1.0815338   -6.0790769    178.88426  0.038519435  0.039579918            3 
  388000    1.0979556    -6.125902    178.99947  0.038444904  0.039560163            2 
  389000    1.1024995   -6.0777692    179.09107  0.038365697  0.039540085            3 
  390000    1.1015667    -6.065566    179.88506  0.038436978  0.039518549            2 
  391000     1.103571   -6.0893294    179.90292  0.038342481  0.039496786            4 
  392000    1.0885345   -6.0667143    180.58658  0.038390004  0.039474539            2 
  393000    1.1122258   -6.0698198    180.46799  0.038267173  0.039452469            3 
  394000    1.1172172   -6.0581211    181.52636  0.038393901   0.03943108            2 
  395000     1.090901     -6.11834    180.88204  0.038160769  0.039408864            8 
  396000    1.0768689   -6.1117875    181.93227  0.038285409  0.039386268            4 
  397000    1.0778673   -6.0906015    181.92413  0.038187266  0.039365695            7 
  398000    1.1007552   -6.0700054    183.04835  0.038326706  0.039345232            4 
  399000    1.0892376   -6.0846465    182.89826  0.038199302  0.039323909            4 
  400000    1.1071207   -6.0951775    183.56115  0.038241907  0.039302812            3 
  401000    1.0874732   -6.0790429     184.4615  0.038333646  0.039281044            2 
  402000     1.071074   -6.1110643    184.57291  0.038261384  0.039258009            2 
  403000    1.0725723   -6.1154191    184.18246  0.038085702  0.039235406            6 
  404000    1.0878063   -6.1111404    184.58822  0.038075129  0.039211895            4 
  405000    1.1082873   -6.1108795     184.4597  0.037954671  0.039188284            6 
  406000    1.0903545   -6.1112439    185.33663   0.03804118   0.03916352            1 
  407000    1.0913347   -6.1104258    184.85225  0.037848535   0.03913887            5 
  408000    1.0795791   -6.1405007    184.87034  0.037759465  0.039114715            3 
  409000    1.1002473   -6.1476737    185.86504  0.037869813  0.039090693            2 
  410000     1.095063   -6.0914551     186.6434  0.037935651  0.039067303            5 
  411000    1.0788825   -6.1144451    186.88142   0.03789161  0.039044395            2 
  412000    1.0700831   -6.1245752    187.23696  0.037871554  0.039021438            4 
  413000    1.1065695   -6.1390464    187.58621  0.037850324  0.038998868            3 
  414000    1.0958871   -6.0902636    188.58004  0.037958946  0.038976915            2 
  415000    1.0863804   -6.0704424    188.52277  0.037855978  0.038955235            2 
  416000    1.0707006   -6.0971347    188.92082  0.037844716   0.03893182            2 
  417000    1.0570108   -6.1309736    189.30935  0.037831605  0.038908769            3 
  418000    1.0656371   -6.1243186    189.04902  0.037689198  0.038884928            4 
  419000    1.0768525   -6.1027852    190.15504   0.03781922  0.038861441            6 
  420000    1.0972749   -6.1276503    190.43799  0.037785316  0.038838522            3 
  421000    1.0926232    -6.134598    189.63572  0.037536763  0.038815742            3 
  422000    1.0831792   -6.1059806    191.52263  0.037820424  0.038793261            5 
  423000    1.0961908   -6.1114661    191.84954  0.037795418  0.038771474            2 
  424000    1.0842945    -6.090547    191.84804  0.037705983  0.038749421            4 
  425000    1.1070354   -6.1016435    191.98965  0.037645029  0.038726005            2 
  426000    1.0849374   -6.0971814    191.97135  0.037553081  0.038702088            4 
  427000    1.0845626   -6.1483867    192.34376  0.037537814  0.038677859            4 
  428000     1.092818   -6.1210597    193.36621  0.037649183  0.038654674            6 
  429000    1.0759915   -6.1215093    192.99595    0.0374895  0.038630525            2 
  430000    1.0999175   -6.1513699    193.23458  0.037448563  0.038606368            9 
  431000    1.0651778   -6.0924808    194.08808  0.037526698  0.038581946            4 
  432000    1.0804481   -6.1202835    194.61507  0.037541486  0.038557858            6 
  433000    1.1005107   -6.1241525    194.67949  0.037467185  0.038533144            3 
  434000    1.1132702   -6.1367961    193.88668  0.037228626  0.038508793            2 
  435000    1.0699378   -6.0674071    195.13626  0.037382425  0.038485017            2 
  436000     1.078909   -6.1441763    194.22849  0.037123183  0.038459984            2 
  437000    1.0836736   -6.1245312    194.94189  0.037174273  0.038434446            4 
  438000    1.0975405   -6.1246157    195.56949  0.037208807  0.038409046            4 
  439000     1.050396   -6.1212995     196.0788  0.037220729  0.038382596            3 
  440000    1.0821556   -6.1241586    196.64554  0.037243474  0.038357474            6 
  441000    1.0586837   -6.1282801    197.21738  0.037267079  0.038332024            9 
  442000    1.0673217   -6.1412265    196.85093  0.037113674  0.038306186            3 
  443000    1.0651899   -6.1445781    196.97676  0.037053566  0.038280912            3 
  444000    1.0996951   -6.1606637    197.12553  0.036998034  0.038255312            3 
  445000    1.0831999    -6.122081    197.81471  0.037043954  0.038229704            2 
  446000     1.089575   -6.1316713    197.93045  0.036982521  0.038203833            5 
  447000     1.064031   -6.1801029    197.50465  0.036820404  0.038178097            2 
  448000     1.097443   -6.1773237    198.80805  0.036980664  0.038151907            4 
  449000    1.0788497   -6.1530091    199.30782  0.036991059  0.038125922            5 
  450000    1.0843655   -6.1371159    198.74887  0.036805345  0.038099532            2 
  451000    1.0932533   -6.1269507    200.27797  0.037006277  0.038073751            1 
  452000    1.0868676   -6.1308928    200.03559  0.036879718  0.038047728            3 
  453000    1.0772438    -6.187827    199.21433  0.036647228  0.038021037            3 
  454000    1.0432864   -6.1452062    199.50541  0.036619936   0.03799479            2 
  455000    1.0909522   -6.1658969    200.81007  0.036778401  0.037968172            3 
  456000    1.1038399   -6.1172693    202.04775  0.036923932  0.037942525            9 
  457000    1.0524393   -6.2014881    201.48921  0.036741286   0.03791722            8 
  458000    1.0461191   -6.2098719    201.37686  0.036640623  0.037891889            3 
  459000    1.0774904   -6.1739724    202.41354  0.036749009  0.037865834           10 
  460000    1.0534192   -6.1728004    202.67758  0.036716953  0.037841238            2 
  461000    1.0531026   -6.1491358    203.91252  0.036860542  0.037816682            5 
  462000    1.0546246   -6.1489789    204.22356  0.036836861  0.037792561            3 
  463000    1.0649211   -6.1638992    204.51778  0.036810256  0.037768345            4 
  464000    1.0678457   -6.1297593    204.60965  0.036747422   0.03774483            3 
  465000    1.0841045   -6.1642208    204.64884   0.03667542  0.037720418            3 
  466000    1.0697019   -6.1933786    204.93359  0.036647637   0.03769658            7 
  467000    1.0588155    -6.172144    204.96179  0.036574196  0.037672623            3 
  468000    1.0458557    -6.196664    205.20465  0.036539289  0.037648184            3 
  469000    1.0508633   -6.1249536    206.44803  0.036682308  0.037623782            3 
  470000     1.061868   -6.1614161    206.65699  0.036641309  0.037600175            3 
  471000    1.0630859   -6.1735509    206.41393  0.036520511  0.037575786            3 
  472000    1.0628679   -6.1413699    206.60978  0.036477715  0.037550866            4 
  473000     1.054991   -6.1767999    206.58775  0.036396715  0.037525641            2 
  474000    1.0597876   -6.2004825    206.46883   0.03629902  0.037500948            4 
  475000     1.058919   -6.1895669    207.75361  0.036448002  0.037476459            6 
  476000    1.0805373   -6.1792422    208.37073  0.036479469  0.037452148            4 
  477000    1.0742822    -6.211088    207.71102   0.03628774  0.037427342            2 
  478000    1.0693358   -6.1738553    207.96942  0.036256872  0.037401712            4 
  479000    1.0444216   -6.2161814    208.23249  0.036226947  0.037376112            3 
  480000    1.0795796    -6.197176    208.36406  0.036174317   0.03734973            6 
  481000    1.0749437   -6.1681402    208.60473  0.036140806  0.037323393            3 
  482000    1.0532264   -6.2129852    209.32671  0.036190648  0.037296082            4 
  483000    1.0640978   -6.1788518    209.57456  0.036158481  0.037269162            8 
  484000    1.0675089   -6.2076533    209.30155  0.036036768  0.037242893            3 
  485000    1.0318685    -6.164777    210.30167  0.036134307  0.037216971            2 
  486000    1.0531727   -6.1489284    211.04148   0.03618681  0.037191765            4 
  487000    1.0474743   -6.1633645    211.03474  0.036111351  0.037166152            2 
  488000    1.0645296   -6.1970059    210.40099  0.035929132  0.037140507            3 
  489000    1.0503744   -6.1824647    211.39365  0.036024822  0.037114355            2 
  490000     1.074452    -6.177895    211.61201  0.035988437  0.037087566            4 
  491000    1.0588293   -6.1934575    212.00292  0.035981487  0.037061685            4 
  492000    1.0626318   -6.2092901    212.18497  0.035939189  0.037036068            3 
  493000    1.0504958    -6.204289    212.28814  0.035883729  0.037010589            4 
  494000      1.05474   -6.1731426    213.07345  0.035943565  0.036984668            3 
  495000    1.0683615   -6.2107124    213.60036  0.035959656  0.036959165            4 
  496000    1.0586176   -6.2067111     213.3703  0.035848505  0.036933932            5 
  497000    1.0717191   -6.1832601    214.51942  0.035969051  0.036909174            6 
  498000    1.0430363   -6.1794645    214.45058  0.035885304  0.036884258            6 
  499000    1.0561067   -6.1792101    215.33966  0.035961867  0.036859548            7 
  500000    1.0614006   -6.2236183    215.02532  0.035837554  0.036834847            3 
  501000      1.04787   -6.2229882    214.88598  0.035742844  0.036810021            6 
  502000    1.0632759   -6.2103023    215.90481  0.035840773  0.036785502            3 
  503000    1.0329501   -6.1787597    216.13739  0.035808051   0.03676095            3 
  504000    1.0635927   -6.2333631    216.00224  0.035714656  0.036736389            7 
  505000    1.0516536   -6.1827969    217.20148  0.035841828  0.036712217            2 
  506000    1.0594613   -6.1764452    217.82954  0.035874431  0.036688488            3 
  507000    1.0548207   -6.1975436    218.02247  0.035835383  0.036665086            2 
  508000    1.0587119   -6.2046424    217.95708  0.035754115  0.036641596            7 
  509000    1.0479079   -6.1843367     218.6697   0.03580054  0.036618161            6 
  510000    1.0656133   -6.1920444     218.4729  0.035698185  0.036594312            2 
  511000    1.0663902   -6.2015721    218.43527  0.035622191  0.036570414            5 
  512000    1.0640745   -6.2030045    218.93295  0.035633618  0.036546708            5 
  513000    1.0381547   -6.1878597     219.4106  0.035641749  0.036522385            2 
  514000    1.0737369   -6.2363214    219.20752  0.035539481  0.036498121            4 
  515000    1.0815668   -6.2475474     219.4263  0.035505873  0.036474248            2 
  516000    1.0466412   -6.2296965     220.9467  0.035682606  0.036450918            5 
  517000    1.0134913   -6.2383224    220.49316  0.035540484  0.036427652            4 
  518000    1.0432821   -6.2064911    221.01045  0.035555092  0.036404143            2 
  519000     1.029384     -6.21069    221.36454   0.03554344  0.036379956            2 
  520000    1.0386998    -6.196388    221.73014  0.035533676  0.036356205            2 
  521000    1.0429678   -6.1749292    221.89484  0.035491817  0.036332407            2 
  522000    1.0630661   -6.2284086    221.07971  0.035293696  0.036308337            2 
  523000    1.0475846   -6.1771717    222.43387   0.03544198  0.036283766           10 
  524000    1.0218007   -6.2026994    222.45518  0.035377732  0.036259303            3 
  525000    1.0371821   -6.2364729    222.87317  0.035376693  0.036234939            3 
  526000    1.0573129   -6.2336055    222.34735  0.035226133  0.036210851            3 
  527000    1.0540612   -6.2117638    223.44305   0.03533255  0.036186237            4 
  528000    1.0424763   -6.2257599    223.38961  0.035257198  0.036161961            4 
  529000    1.0195004   -6.2007701    223.70095  0.035239595  0.036137321            6 
  530000    1.0488831    -6.217943    224.90508  0.035362434  0.036113196            6 
  531000    1.0543191   -6.2118886    225.63735  0.035410758  0.036088558            3 
  532000    1.0212561   -6.2631402    225.43164  0.035311974  0.036064667            3 
  533000     1.036274   -6.2289966    225.11203  0.035195751  0.036040605            3 
  534000    1.0409158   -6.2083269     225.7632  0.035231461  0.036016537            3 
  535000     1.038439   -6.2362984    226.24384  0.035240473  0.035992043            2 
  536000    1.0304256   -6.2556737    226.40123  0.035199196  0.035968908            5 
  537000    1.0408705   -6.2120069    226.46748   0.03514393  0.035945556            3 
  538000    1.0461798   -6.2425734    226.73745  0.035120424  0.035922396            2 
  539000     1.030505   -6.2665508    227.03043  0.035100561  0.035899296            3 
  540000      1.04016   -6.2493408    226.94207  0.035021925  0.035875262            4 
  541000    1.0228709   -6.2431643    228.05952  0.035129316  0.035852257            5 
  542000    1.0234016   -6.2288059    229.12421  0.035228199  0.035829209            4 
  543000    1.0360547   -6.2667063    228.73037  0.035102881  0.035806302            4 
  544000    1.0383958    -6.254742    228.61294  0.035020364  0.035783995            2 
  545000    1.0518149   -6.2613489    228.73571  0.034974879  0.035761408            4 
  546000     1.070874   -6.2830127    229.44895  0.035019681  0.035738695            5 
  547000    1.0324453   -6.2487134    229.69749  0.034993524  0.035715525            5 
  548000    1.0358712   -6.2144308    229.96093  0.034969728  0.035692496            8 
  549000    1.0265223   -6.2159891    230.19375  0.034941371  0.035669559            4 
  550000    1.0478161   -6.2654949    229.92974   0.03483784  0.035645771            2 
  551000    1.0528083   -6.2587982    229.55948  0.034718615  0.035621706            4 
  552000    1.0516265   -6.2309327    231.04299  0.034879678  0.035598369            3 
  553000    1.0435585    -6.262132    231.07817  0.034821907  0.035575102            5 
  554000    1.0277222   -6.2391062    230.99184  0.034746066   0.03555173            5 
  555000    1.0385663   -6.2465399    231.82627   0.03480875  0.035528611            2 
  556000    1.0360832   -6.2580192    231.76266  0.034736609  0.035505554            5 
  557000   0.99770672   -6.2548864    231.66351  0.034659411  0.035482721            3 
  558000    1.0231615   -6.2290596    234.03902  0.034952064  0.035459974            3 
  559000    1.0206316   -6.2354612    234.16831  0.034908812  0.035438657            7 
  560000    1.0338084   -6.2585896    234.68245  0.034922983  0.035417058            4 
  561000    1.0308989   -6.3258859    233.57358  0.034696015   0.03539466            1 
  562000    1.0148332    -6.261306    235.15918  0.034869392  0.035372171            6 
  563000    1.0378387   -6.2713456    234.44655  0.034701975  0.035350071            5 
  564000    1.0272349   -6.2579444    235.32561  0.034770333  0.035328796            5 
  565000    1.0333412   -6.2317955    235.05784  0.034669298  0.035307772            4 
  566000    1.0386228   -6.2772591    235.76734  0.034712505   0.03528694            4 
  567000    1.0338567   -6.2360894    236.77805  0.034799831  0.035265861            2 
  568000    1.0334858   -6.2535452    236.51345  0.034699743  0.035244485            8 
  569000    1.0362821   -6.2983038    236.13407  0.034583198  0.035222736            4 
  570000    1.0428858   -6.2449218    236.92138  0.034637628  0.035200938            6 
  571000    1.0371274   -6.2897779    236.12361  0.034460538  0.035178831            2 
  572000    1.0221498   -6.2222018    237.31478  0.034573832  0.035156637            4 
  573000    1.0031318    -6.270368    237.50192   0.03454071  0.035134441            2 
  574000    1.0464996    -6.271524    237.64793  0.034501731  0.035111758            3 
  575000     1.028213   -6.2749994    237.08784  0.034360557   0.03508917            2 
  576000    1.0244121   -6.2627117     237.9529  0.034426055  0.035066522            5 
  577000    1.0280143   -6.2339125    238.72376  0.034477723  0.035044468            7 
  578000    1.0114395   -6.2921573    238.38655  0.034369456  0.035022118            3 
  579000    1.0224384   -6.3252363    237.73649  0.034216535  0.034999667            5 
  580000    1.0244658   -6.2605167    239.33743  0.034387562  0.034976793            4 
  581000    1.0170229   -6.2620209    239.15587  0.034302334  0.034954509            5 
  582000    1.0257277   -6.2578791     239.8852  0.034347823  0.034932434            7 
  583000    1.0244203   -6.2741931    240.19045   0.03433254  0.034910377            3 
  584000    1.0243849    -6.279024    241.20623  0.034418698  0.034888737            6 
  585000    1.0083662   -6.2633521    240.92194  0.034319364  0.034867364            3 
  586000    1.0221496   -6.3129104    240.72197  0.034232362  0.034845493           16 
  587000    1.0217714   -6.2787729    241.20426  0.034242512  0.034823546            3 
  588000    1.0385122   -6.3073817     240.9952  0.034154649  0.034801597            6 
  589000    1.0043409   -6.2885167    241.75169  0.034203691   0.03477998            4 
  590000    1.0354025   -6.2334216    242.55358   0.03425898  0.034758595            4 
  591000    1.0157058   -6.2977121     241.9608  0.034117428  0.034736643            2 
  592000    1.0096111   -6.2775571    243.08252  0.034217697  0.034714408            3 
  593000    1.0104369   -6.2799923    242.63895   0.03409766  0.034692157            8 
  594000    1.0256143   -6.2603441    242.96584  0.034086117  0.034670224            4 
  595000   0.99892419   -6.2644857    243.60168  0.034117882  0.034648055            2 
  596000    1.0242707   -6.2529267    244.17459  0.034140743  0.034626556            4 
  597000    1.0198228   -6.2775094    243.56598  0.033998601  0.034604371            6 
  598000     1.004426   -6.3226166    243.49965  0.033932504  0.034581651            6 
  599000    1.0078123   -6.2958129    244.46306  0.034009886  0.034559267            3 
  600000    1.0079283   -6.2985258    244.32311  0.033933766  0.034536736            4 
  601000    1.0158444   -6.2856937    244.68064  0.033926877  0.034514498            3 
  602000    1.0044498   -6.2570043     245.0056  0.033915504  0.034492265            4 
  603000    1.0019456   -6.2889686    246.02104  0.033999591   0.03446976            3 
  604000    1.0161698   -6.2691868    245.40676  0.033858549  0.034447495            7 
  605000    1.0387387   -6.3221273    245.03783  0.033751767  0.034425129            6 
  606000    1.0261139   -6.3101743    245.29908  0.033731997  0.034402099            6 
  607000    1.0180819   -6.2855648    246.26168  0.033808578  0.034379665            6 
  608000   0.99031803   -6.3117678    246.06391  0.033725865  0.034356836            2 
  609000    1.0112829   -6.3336103    246.18211   0.03368666  0.034333775            6 
  610000    1.0114994   -6.2759774    246.37466  0.033657741  0.034310487            6 
  611000    1.0081224   -6.3053227    246.34854  0.033599092    0.0342878            3 
  612000    0.9945383   -6.3007332    246.33371  0.033542172  0.034264527            5 
  613000   0.99995791   -6.2949015    248.33655  0.033759727   0.03424113            6 
  614000    1.0094506   -6.2979688    248.26003  0.033694359  0.034217774            5 
  615000     1.010499   -6.3347619    247.23307  0.033500415  0.034194617            3 
  616000    1.0211399   -6.2914597    247.84069  0.033528232   0.03417114            9 
  617000    1.0238156   -6.3458686    247.40763  0.033415402  0.034147762            3 
  618000    1.0028654   -6.3100099    248.11679  0.033456956   0.03412435            3 
  619000   0.99260567   -6.3512058    247.72134  0.033349669  0.034101239            3 
  620000    1.0130849   -6.3229218    249.06904  0.033477022  0.034077933            5 
  621000    1.0095859   -6.2899305    249.42125  0.033470377   0.03405485            3 
  622000    1.0049691   -6.3113421    249.03739  0.033365137  0.034031978            8 
  623000    0.9868155   -6.3418311    249.64077  0.033392291  0.034009208            4 
  624000    1.0011186    -6.307421    249.35671  0.033300843  0.033985627            3 
  625000     1.000832   -6.3316469    250.04134  0.033338845  0.033962506           11 
  626000   0.99499137   -6.3157901    250.33321  0.033324442  0.033939374            5 
  627000   0.99566677   -6.2797036    250.75788  0.033327735  0.033916077            4 
  628000    1.0050784   -6.2957425    251.40654  0.033360741  0.033893316            4 
  629000   0.99854324   -6.3300784    251.29853  0.033293393  0.033870427            6 
  630000    0.9955439   -6.3294199    251.59558  0.033279839  0.033847473            7 
  631000     1.001162   -6.3106533    252.35351  0.033327193  0.033824429            9 
  632000    1.0004714   -6.3300201     251.7046  0.033188898   0.03380128            4 
  633000   0.97642232   -6.3488503    251.92035   0.03316487  0.033777741            5 
  634000    1.0119238   -6.3246482     252.1138  0.033137986  0.033754511            2 
  635000    1.0055511   -6.3472955    251.78868  0.033043134  0.033731653            5 
  636000   0.98739663   -6.3447953     253.1009  0.033163116  0.033708719            7 
  637000   0.99878661   -6.3574413    252.53739  0.033037335  0.033685575            2 
  638000    1.0220875   -6.3213953    253.31592  0.033087241  0.033662496            3 
  639000    1.0101079   -6.3442014    252.62505  0.032945364  0.033639652            3 
  640000    1.0079166    -6.356219    253.02097  0.032945439  0.033616926            4 
  641000   0.98504122   -6.3300963     253.5426  0.032961856  0.033593988            4 
  642000   0.98898965   -6.3004522    254.38475  0.033019827  0.033571061            6 
  643000    1.0093566   -6.3030864    254.62059   0.03299904  0.033548323            3 
  644000    1.0228981    -6.336362    255.44767  0.033054822  0.033525961            9 
  645000   0.99973576   -6.3573316    255.49054  0.033009114  0.033503855            9 
  646000     1.000143   -6.3202962     255.7211  0.032987758  0.033482059            6 
  647000    1.0076055   -6.3599121    256.48432  0.033035075  0.033459821            7 
  648000   0.99598674   -6.3316669    255.77869  0.032893349   0.03343716            5 
  649000     1.010763   -6.3452166    255.99388  0.032870298  0.033415138            5 
  650000   0.99384216   -6.3777621    255.94784  0.032813826  0.033393319            4 
  651000    0.9896908   -6.3248921    256.97271  0.032894612  0.033371454            6 
  652000   0.98040491   -6.3291926    257.38608  0.032896994  0.033349434            7 
  653000    1.0075532    -6.342483    257.52069  0.032863794  0.033327326            5 
  654000   0.99692231   -6.3762525     257.9123  0.032863443  0.033305399            6 
  655000   0.97078726    -6.378616    257.45004  0.032754458  0.033283245            5 
  656000   0.99299071   -6.3547109    258.05226  0.032781029  0.033261486           10 
  657000   0.99153236   -6.3710617    258.37591  0.032772186  0.033239671            5 
  658000   0.98521629   -6.3241465    258.62706  0.032754187  0.033217936            4 
  659000   0.98002704   -6.3670676    258.85633  0.032733476  0.033196583            4 
  660000   0.96509307   -6.3327672    259.54482   0.03277081  0.033174795           11 
  661000    1.0097742   -6.3717845    259.01416  0.032654332  0.033152865            3 
  662000   0.99864849     -6.36114    259.73409   0.03269563  0.033130737            5 
  663000   0.95956126   -6.3653987    259.43392  0.032608587  0.033108822            3 
  664000   0.98137661    -6.326263    259.66516  0.032588499  0.033086463            6 
  665000    1.0098573   -6.3339818    260.29962     0.032619  0.033064761            3 
  666000     1.013634   -6.3544335    259.81593  0.032509501  0.033042684            6 
  667000    1.0012581   -6.3934333    260.35791  0.032528475  0.033020069            5 
  668000   0.98121843    -6.384851    260.61775  0.032512194  0.032997494            8 
  669000   0.99081483   -6.3565058    261.14994  0.032529888  0.032975105            6 
  670000   0.99623086   -6.3607697    260.49924  0.032400403  0.032952804            4 
  671000   0.98450629   -6.3996287    260.23885  0.032319778   0.03293035            7 
  672000    1.0026001   -6.3614052    262.02878  0.032493648  0.032907726            4 
  673000   0.99513055   -6.3597434     261.4178  0.032369712  0.032885931            8 
  674000   0.98030054   -6.3704687    262.27794  0.032428034  0.032864154            5 
  675000     0.984303   -6.3689454    262.08037  0.032355601  0.032842564            5 
  676000   0.99220761   -6.3741151    262.95299  0.032415309   0.03282076            3 
  677000   0.96227033   -6.3888903    263.77548   0.03246867  0.032799143            7 
  678000   0.99543805   -6.3652254    263.91756  0.032438245  0.032778066            5 
  679000    0.9603221   -6.3650454    263.81499  0.032377883  0.032757115            2 
  680000   0.99741283   -6.3408236     265.2474  0.032505809  0.032736577            2 
  681000   0.98345355   -6.3419124    265.05983  0.032435123  0.032715757            9 
  682000   0.97103244   -6.3782684    265.13124   0.03239629  0.032695018            4 
  683000   0.98492877   -6.3950641    265.64071  0.032411019  0.032674322            5 
  684000   0.97995366   -6.3591293    266.26792  0.032440049  0.032653479            3 
  685000    1.0120485   -6.3945449    266.33931  0.032401376  0.032632664            6 
  686000   0.97861984   -6.3948225    265.88169  0.032298554  0.032612162            3 
  687000    1.0079512   -6.4033356    266.57524  0.032335667  0.032591876            5 
  688000   0.99080065    -6.391881    267.08528  0.032350445   0.03257151            5 
  689000   0.97832235   -6.4045785      266.818  0.032271166  0.032551084            4 
  690000   0.97601225   -6.3322395    269.13038  0.032503669  0.032531214            2 
  691000   0.96661972   -6.4181705    267.13185  0.032215611  0.032511344            4 
  692000   0.98804006   -6.4104882    268.89806  0.032381751  0.032491337            5 
  693000   0.98165301   -6.3780774    268.33323  0.032267104   0.03247148            5 
  694000   0.98724385   -6.3865209    268.65962  0.032259801  0.032451677            7 
  695000   0.99426914    -6.386273    269.15011  0.032272195  0.032431788            2 
  696000   0.99126809    -6.381036    269.23503  0.032235995  0.032412256            4 
  697000   0.96991989   -6.3955427    269.70632  0.032246093  0.032392716            4 
  698000    0.9476814   -6.4075392    269.75945  0.032206238  0.032373312            9 
  699000   0.99327854   -6.3959077     269.2059   0.03209417  0.032353497            3 
  700000   0.97709706   -6.3981336    270.24658  0.032172212  0.032333617            4 
  701000   0.97374782   -6.4385106    270.10063  0.032108967  0.032313622            6 
  702000   0.96380729   -6.4366569    270.29782  0.032086636  0.032293637            3 
  703000   0.98082086   -6.3932125    270.66379  0.032084375  0.032273783            4 
  704000   0.99719433   -6.4159171    270.74924  0.032048915  0.032253821            3 
  705000   0.97586301   -6.4220774    269.41976  0.031846308   0.03223343            3 
  706000    0.9886415   -6.4184775    270.27663  0.031902341  0.032212728            6 
  707000   0.98405728   -6.4151617    270.67842  0.031904575  0.032191564            4 
  708000   0.95520895   -6.3924762    270.86513  0.031881489   0.03217056            3 
  709000   0.97545616    -6.404655    272.00296  0.031970258  0.032150448            4 
  710000   0.98436544   -6.3993731    271.63643   0.03188221   0.03213003            5 
  711000   0.97458969   -6.4042669    272.49164  0.031937604  0.032109778            5 
  712000    1.0044989   -6.4060294    271.85943  0.031818753   0.03208946            9 
  713000   0.98112179   -6.4127913    272.14157  0.031807102  0.032069444            5 
  714000   0.96131287   -6.3998877    272.59555   0.03181554  0.032049153            3 
  715000   0.96089131   -6.3750548    272.78365  0.031792966  0.032029052            3 
  716000   0.96763753    -6.424534    272.91783   0.03176418  0.032008141            2 
  717000   0.94806354   -6.3981241    272.29905  0.031647961  0.031987106            3 
  718000   0.97283828   -6.4240842    273.08332  0.031694908  0.031965767            2 
  719000   0.97818659   -6.3994339     273.0278  0.031644391  0.031944924            7 
  720000   0.96637984   -6.3907332    273.43103   0.03164711  0.031924126            6 
  721000   0.95909206    -6.410677    273.41237   0.03160106  0.031903211            3 
  722000     0.963768   -6.3947159    273.42468  0.031558712  0.031882012            2 
  723000   0.96342793   -6.4149707    274.03075  0.031584918  0.031861097            4 
  724000   0.97705354   -6.4045645    274.29908  0.031572178  0.031840209            5 
  725000   0.95811237   -6.4503749    274.32519   0.03153163  0.031819259            9 
  726000   0.98162127   -6.4046857    275.16844  0.031584991  0.031798262            4 
  727000   0.99025272   -6.4365105    273.61399  0.031363364  0.031777351            2 
  728000   0.95927188   -6.3843175    274.65098  0.031438986  0.031756301            3 
  729000    0.9549602   -6.4302802    274.77579  0.031410127  0.031735468            6 
  730000   0.94713834   -6.4386937    274.88647  0.031379734  0.031714679            4 
  731000   0.98142669    -6.422412    275.51101  0.031408004  0.031693621            3 
  732000   0.95873242   -6.4415786    276.10334   0.03143253  0.031672756            4 
  733000   0.95976317   -6.4462949     275.2431  0.031291848  0.031651666            4 
  734000   0.96197441   -6.4308761    275.30316  0.031256036  0.031630641            4 
  735000   0.94764436   -6.4739795    275.04772  0.031184548   0.03160956            7 
  736000   0.97487481   -6.4408395    275.40726  0.031182887  0.031588154            6 
  737000   0.95470555   -6.4405164    275.65619  0.031168723  0.031566652            4 
  738000   0.93776179    -6.421848     276.1517  0.031182442  0.031545498           11 
  739000   0.96532572   -6.4266095     276.9469  0.031229917  0.031524372           11 
  740000   0.94458581   -6.4519143    276.88166  0.031180367   0.03150325            3 
  741000    0.9380601   -6.4307335      277.886  0.031251237  0.031482161            4 
  742000   0.94894113   -6.4190598     276.5661  0.031060883  0.031460779            7 
  743000     0.970224   -6.4634149    276.95542  0.031062744  0.031439036            6 
  744000   0.96664517   -6.4263829    277.23851    0.0310527  0.031417283            4 
  745000   0.95820411   -6.4209681    277.03139  0.030987851  0.031394962           17 
  746000   0.96925894   -6.4830409    275.82826  0.030811915  0.031372865            6 
  747000    0.9353689   -6.4245042    277.21537  0.030925409  0.031350866            5 
  748000   0.95545033   -6.4280448    277.80449  0.030949698  0.031329011            6 
  749000   0.94699835   -6.3973078    278.10599  0.030941921  0.031307202            2 
  750000   0.95975013   -6.4642699    277.52599  0.030836221  0.031285374            8 
  751000   0.95709423   -6.4236851    278.44423  0.030897052  0.031263164            6 
  752000   0.96971773   -6.4564783    278.15823  0.030824272  0.031240938            5 
  753000   0.95146553   -6.4579009    278.29788  0.030798791  0.031218487            4 
  754000   0.95676166   -6.4520312    278.75228  0.030808166  0.031196722            5 
  755000   0.96237439   -6.4072959    279.34894  0.030833217    0.0311749            3 
  756000   0.94173847   -6.4025521    279.24958   0.03078148  0.031152874            7 
  757000   0.92688828   -6.4412342    279.12537  0.030727143  0.031130566            5 
  758000    0.9544857   -6.4399575    278.40451  0.030607356  0.031108634            3 
  759000   0.94692878   -6.4397046    279.64118  0.030702809  0.031086333            7 
  760000   0.96333118   -6.4357055    280.45633  0.030751791  0.031063959            7 
  761000   0.95355539   -6.4471619    279.26794  0.030581246   0.03104177            6 
  762000   0.95482536   -6.4539675    280.19899  0.030642934  0.031019594            4 
  763000   0.95879846   -6.4769255    279.34624  0.030509638  0.030997439            4 
  764000   0.95459277   -6.4608539    279.37165  0.030472475  0.030975169            5 
  765000   0.96069681   -6.4692876     280.5281  0.030558617  0.030952885            7 
  766000   0.94248114   -6.4854446    279.81935  0.030441617  0.030930374            4 
  767000   0.95911257   -6.4520619    281.06947  0.030537752   0.03090813           11 
  768000   0.93156209   -6.4593667    281.29488  0.030522447  0.030886264            6 
  769000   0.94630739   -6.4224741    281.29633  0.030482914  0.030864323            3 
  770000   0.95892405   -6.4494982    282.29859  0.030551796  0.030842071            4 
  771000   0.93238257   -6.4563134    281.36284  0.030411029  0.030819855            4 
  772000   0.96026664   -6.4219658    282.12967  0.030454412  0.030797622            6 
  773000   0.95152108    -6.450952     281.6953  0.030368186  0.030775584            3 
  774000   0.93695137   -6.4214575    282.72045  0.030439325  0.030753605            7 
  775000   0.96016608   -6.5111811    280.78796  0.030192254  0.030731228            8 
  776000    0.9375266   -6.4663409    283.08047  0.030399535  0.030709101            8 
  777000   0.96284482   -6.4963803    282.53423  0.030301826  0.030687176            4 
  778000   0.95237108    -6.470123    282.80648  0.030292039  0.030664986            3 
  779000   0.93387247   -6.4838417    283.37371  0.030313833  0.030642901            8 
  780000   0.94509714   -6.4833683    283.39886  0.030277656  0.030620846            6 
  781000   0.93773678   -6.4446121    284.54637  0.030361329  0.030599183            4 
  782000   0.94056452   -6.4403347    283.74811  0.030237437  0.030577539            4 
  783000   0.91919323   -6.4683994     283.9849   0.03022402  0.030555772            4 
  784000   0.95084216   -6.5014282    283.71313  0.030156583  0.030533733            4 
  785000    0.9253676   -6.4988866    284.86146   0.03024007  0.030511776           12 
  786000   0.95509779   -6.4463815    285.26823  0.030244724  0.030490354            2 
  787000   0.94602917   -6.5337942    283.18331  0.029985526  0.030468592            4 
  788000   0.93742472   -6.4833815    284.67239  0.030104948  0.030446836           13 
  789000   0.93727111   -6.4706976    285.30983  0.030134119  0.030424924           10 
  790000   0.91976287   -6.4694909    285.68587   0.03013564  0.030403416            4 
  791000   0.94549037   -6.4806054    286.64242  0.030198316  0.030382052            4 
  792000   0.92970572   -6.4884745    286.31099  0.030125315  0.030360834            7 
  793000   0.95241511   -6.5094305    285.51648  0.030003833  0.030339584           10 
  794000   0.95364215   -6.5265759    285.42966  0.029956934  0.030318217            6 
  795000   0.91302621   -6.5276862    285.18432  0.029893535  0.030296953            5 
  796000   0.90876464   -6.5016966    286.92304  0.030038007  0.030275756            5 
  797000   0.94268682   -6.5188931    286.19949  0.029924664  0.030254624            4 
  798000   0.92047194   -6.5047322    287.05561  0.029976568  0.030234041            8 
  799000   0.95195016   -6.4301201    288.63033  0.030103288  0.030213295            8 
  800000   0.93705393   -6.4797196    287.41444  0.029939004  0.030192153            8 
  801000   0.91447341   -6.5149451    287.03777   0.02986244  0.030170815            6 
  802000   0.94599443   -6.5119969    286.46913  0.029766119  0.030149011            8 
  803000   0.96295183   -6.4951655    287.72255  0.029859127    0.0301275            9 
  804000   0.94222595   -6.5281508     286.6196  0.029707669  0.030105684            3 
  805000   0.90754118   -6.4906016     287.5055  0.029762475  0.030084092            4 
  806000   0.95761121   -6.4871811    287.49235  0.029724188  0.030062432            4 
  807000    0.9151597   -6.5126082    287.64648  0.029703271  0.030040949            7 
  808000    0.9233099   -6.4902346    288.35162  0.029739234  0.030019324            8 
  809000   0.91997431   -6.5251216    288.59311   0.02972735  0.029997799            4 
  810000   0.91875149   -6.5166151    288.96709  0.029729124  0.029976422            5 
  811000   0.93441978   -6.5181815    287.83496  0.029576137  0.029954883            5 
  812000   0.91996171   -6.4801549    289.13912  0.029673555  0.029933795            3 
  813000   0.92923409    -6.532675    289.43819  0.029667711  0.029912623            4 
  814000   0.94122523   -6.5136541    288.53192  0.029538485  0.029891552            7 
  815000   0.92947311   -6.5206028    290.58842  0.029712518  0.029870822            5 
  816000    0.9452947   -6.5171441    290.74247  0.029691838    0.0298502            7 
  817000   0.93761861   -6.5030445    290.88551  0.029670085      0.02983            4 
  818000   0.92479608   -6.5049533     291.2673  0.029672708  0.029809909            5 
  819000   0.93757237   -6.5242707    290.42229  0.029550498  0.029789328            3 
  820000   0.91794522   -6.5185757    291.11035  0.029584385  0.029768713            4 
  821000   0.94569872   -6.5072321    290.95138  0.029532215  0.029747991            3 
  822000   0.95216855   -6.5367572     291.7694  0.029579217  0.029727224            4 
  823000   0.92132435   -6.4931674    290.65158  0.029430091  0.029706347            5 
  824000     0.910476   -6.5530194    290.23544  0.029352289  0.029685017            9 
  825000   0.93718568   -6.4636095    291.31363  0.029425619   0.02966375            8 
  826000   0.92145236   -6.5342599    292.16276  0.029475662  0.029642805           11 
  827000   0.92472056   -6.5082726    292.42928  0.029466876  0.029621715            4 
  828000   0.93968718   -6.4898649    292.03227  0.029391331  0.029600782            9 
  829000   0.92086984   -6.5295177    292.24738  0.029377501  0.029580102            8 
  830000   0.91069764    -6.526907    291.94476  0.029311723  0.029559368            4 
  831000   0.92553455   -6.5399435    292.76769  0.029358974  0.029538447            5 
  832000   0.91671557   -6.5708557    293.03217  0.029350177  0.029517607            6 
  833000   0.92950833   -6.5534961    292.08378  0.029220066   0.02949682            3 
  834000   0.89491785    -6.520523     293.9531  0.029371813  0.029476258            5 
  835000    0.9117966   -6.4722012    294.14974  0.029356262  0.029455908            4 
  836000     0.920909   -6.5249073    294.09225  0.029315416  0.029435436            7 
  837000   0.93751274   -6.5501857    294.21044  0.029292159  0.029414532            5 
  838000   0.93296118   -6.5725959    293.85476  0.029221833  0.029393711            9 
  839000   0.91945264    -6.533713    293.59728   0.02916143  0.029372777            5 
  840000   0.92853198   -6.5545704    293.79513  0.029146342  0.029351978            6 
  841000   0.92280046   -6.5451324    294.12494  0.029144366  0.029331207            5 
  842000    0.9240953   -6.5269203      293.441  0.029042063  0.029310013            5 
  843000    0.8986213   -6.5231878    294.27791  0.029090343  0.029288945            4 
  844000   0.88556866   -6.5508783    294.34879  0.029062874  0.029268023            5 
  845000   0.92330308   -6.5802084    293.94476  0.028988636  0.029246901            6 
  846000   0.92038157   -6.5710249    294.64573  0.029023417  0.029226036            2 
  847000    0.9195417   -6.5592242    295.18235  0.029041947   0.02920481            7 
  848000   0.88646847    -6.514404    295.29682  0.029018949    0.0291839            2 
  849000   0.91274014   -6.5139924    296.29701  0.029082942  0.029163121            5 
  850000     0.893866   -6.5093609    296.11025  0.029030416  0.029142504            4 
  851000   0.94402495   -6.5984567    295.69001  0.028955152  0.029121609            4 
  852000   0.92189667   -6.5628096    295.77321  0.028929305  0.029100977            2 
  853000    0.9041031   -6.5317806    296.07297  0.028924674  0.029080093            4 
  854000   0.90530025   -6.5213541    296.25324  0.028908396  0.029059428            2 
  855000   0.89728825   -6.5685774    296.37224  0.028886183  0.029038587            5 
  856000   0.91094623   -6.5799486    296.18621  0.028834328  0.029017754            4 
  857000   0.90137136   -6.5656645    296.16124  0.028798253  0.028996988            4 
  858000   0.90354431   -6.5601604    297.08329  0.028854244  0.028976476           10 
  859000   0.92936048    -6.579882    296.69132  0.028782627  0.028955779            6 
  860000   0.92459751   -6.5521351    297.29625  0.028807776  0.028934881            7 
  861000   0.89787162    -6.605732    296.58978  0.028705941  0.028913932            4 
  862000   0.91523268   -6.5766337    297.85709  0.028795156  0.028893146            7 
  863000   0.92165581   -6.5314749    297.03242  0.028682157  0.028872577           18 
  864000   0.89597388   -6.5783722    297.04829  0.028650491  0.028852117            7 
  865000   0.90719196   -6.5759968     297.4519  0.028656252  0.028831456            5 
  866000   0.91169979   -6.5785546    297.62515  0.028639834  0.028810978            5 
  867000   0.90717656   -6.5690263    296.76949  0.028524556  0.028790311            6 
  868000   0.93679831   -6.5353542    297.88108  0.028598414  0.028769719            4 
  869000   0.91212061   -6.5376262    297.65846  0.028544156    0.0287491            5 
  870000   0.91468235   -6.5494032    298.37591  0.028580068  0.028728494            3 
  871000   0.91341574    -6.554643     299.1909   0.02862523  0.028707766            5 
  872000   0.92488748   -6.5883551    298.56367  0.028532461  0.028686975            6 
  873000   0.91228852     -6.55457    298.61756  0.028504922  0.028666259            7 
  874000   0.91118257   -6.5663432    299.48829  0.028555329   0.02864563            4 
  875000   0.88635041   -6.5784969    298.28022   0.02840764  0.028624798            5 
  876000   0.91405606   -6.5647615    299.11394  0.028454523  0.028603837            5 
  877000   0.89163398   -6.5872477    298.30911  0.028345601  0.028583072           11 
  878000   0.88843578   -6.5857889    298.82974  0.028362732  0.028562166            6 
  879000    0.8877062   -6.6005898    299.14576  0.028360424  0.028541183            4 
  880000   0.89990363   -6.5981308    298.92212  0.028307019  0.028520489            7 
  881000   0.91097506   -6.5648548    300.86064  0.028458252   0.02849952            8 
  882000   0.91926186   -6.5689938    300.62307   0.02840354  0.028478821           11 
  883000   0.89604237   -6.5955434     300.3108  0.028341902  0.028458357            6 
  884000   0.93385026   -6.5564916     300.2248  0.028301734  0.028437822            6 
  885000   0.89905544   -6.6017838    299.98073  0.028246773  0.028417437            6 
  886000   0.91550058   -6.5876372    300.12488   0.02822845  0.028396707            6 
  887000   0.91794005   -6.5752828    300.06114  0.028190637  0.028376082            9 
  888000   0.90070484   -6.5877908    299.92019  0.028145663  0.028355502            4 
  889000    0.8968724   -6.6053689    299.93255  0.028115162  0.028334877            9 
  890000   0.89660087   -6.6092449    299.83309  0.028074259  0.028313813           12 
  891000   0.89050343   -6.5820284    301.35536  0.028185125  0.028292994           12 
  892000   0.90515575   -6.6044141     300.9807  0.028118526  0.028272401            8 
  893000   0.89687616   -6.5995389    300.62358  0.028053712  0.028251783            7 
  894000   0.88471711   -6.5669022    302.11218  0.028161091  0.028231204           15 
  895000   0.92125902    -6.541366    301.45697  0.028068619  0.028210779            6 
  896000   0.89498846   -6.5951746    302.12206   0.02809915  0.028190263            8 
  897000   0.89781222   -6.5694368    301.24534  0.027986375  0.028169821            3 
  898000   0.90232052   -6.6058691    302.10112  0.028034625  0.028149236            4 
  899000   0.89203858   -6.6234026    301.59853  0.027956853  0.028128731            6 
  900000   0.89127814   -6.6065113    302.70859  0.028028573   0.02810815            8 
  901000   0.89162767   -6.5983191    302.70479  0.027997113  0.028087792            5 
  902000   0.87875099   -6.6177254    301.99662  0.027900648  0.028067426           10 
  903000   0.90860271   -6.5624279    303.82771  0.028038733  0.028047068            6 
  904000   0.89392251   -6.5772031    303.64287  0.027990678  0.028026834           11 
  905000   0.90958966   -6.5944422    303.40619  0.027937955  0.028006581            6 
  906000   0.89078909   -6.6169111    303.01674  0.027871297    0.0279864           23 
  907000   0.91151457   -6.6185459    303.98181  0.027929237   0.02796619            7 
  908000   0.89260064   -6.6468544    304.17729  0.027916418  0.027945948            6 
  909000   0.88452973   -6.6253554    304.00738   0.02787013  0.027925679            4 
  910000   0.90059579   -6.6021904    304.20399  0.027857509  0.027905582           10 
  911000   0.90006776   -6.5896413    304.14263  0.027821316  0.027885614           11 
  912000   0.88984153   -6.6135648    303.69763  0.027750149  0.027865322            6 
  913000   0.89244687   -6.5951482    304.55457  0.027797971   0.02784518            6 
  914000   0.88668668   -6.6131844    304.02108  0.027718917  0.027825047           11 
  915000   0.89240276   -6.6034675    305.76049  0.027847039  0.027804861            6 
  916000   0.88498807   -6.6104864    304.18405  0.027673221  0.027784683           14 
  917000    0.9041448   -6.6412193    304.11891  0.027637123  0.027764559            5 
  918000   0.89069889   -6.6198557    304.20627  0.027614948   0.02774428            9 
  919000   0.88583651   -6.6249748    305.24891  0.027679444  0.027724088            4 
  920000   0.88480035   -6.6164813    305.26408  0.027650732  0.027703937            7 
  921000   0.87147693   -6.5551023    305.96763  0.027684367  0.027683784            7 
  922000    0.8984231   -6.6103595     306.2092  0.027676175  0.027663811            5 
  923000   0.87386905   -6.6201661    305.83866  0.027612735   0.02764374           12 
  924000    0.8850428    -6.619768    305.97206  0.027594882  0.027623583           14 
  925000   0.88094661   -6.6216001    305.93491  0.027561703  0.027603399            4 
  926000   0.88456159   -6.6406208    305.90347   0.02752911  0.027583141            8 
  927000   0.86363457   -6.6410943    305.28926  0.027444198  0.027562764            3 
  928000   0.87355067     -6.61174    306.14699  0.027491647  0.027542309            4 
  929000   0.90464471   -6.6725215    305.79189  0.027430201  0.027521967            6 
  930000   0.85691658   -6.6247933    305.60106  0.027383608  0.027501397            4 
  931000   0.87522548   -6.6263883    305.39955  0.027336157  0.027480856            4 
  932000   0.87898943   -6.6106054    304.86505  0.027259035  0.027460375            7 
  933000   0.87780905   -6.6666518    305.85636   0.02731836  0.027439635           14 
  934000   0.88056764   -6.6511914    306.64195  0.027359203  0.027419041           14 
  935000   0.86371495   -6.6573638    306.27764  0.027297472  0.027398413            8 
  936000   0.87854081   -6.6310737    306.59477  0.027296543  0.027377902            9 
  937000   0.87182206   -6.6237718    306.54885  0.027263327   0.02735737            9 
  938000   0.88835701   -6.6767914    306.40853  0.027221795  0.027336799            9 
  939000     0.870694   -6.5839896    307.29729   0.02727168  0.027316241            4 
  940000   0.86863655   -6.6302047    305.82672  0.027112298  0.027295812            6 
  941000   0.87154078    -6.645971    306.99855  0.027187261  0.027275323            7 
  942000   0.87012892    -6.654068    307.37902  0.027192058  0.027254885            7 
  943000   0.87250006   -6.6614645    307.25003  0.027151823  0.027234452           11 
  944000   0.87415162    -6.683327    306.87332  0.027089806  0.027214094           19 
  945000   0.87215253   -6.6455709    307.47256  0.027113982  0.027193777            6 
  946000   0.88718537    -6.656203    307.85434  0.027118952  0.027173515            4 
  947000   0.86851896   -6.6302785    308.19419  0.027120221  0.027153537            9 
  948000   0.84813084    -6.685887    307.50242  0.027030803  0.027133323            6 
  949000   0.88124237   -6.6201854     308.2144   0.02706484  0.027112932            8 
  950000   0.85756035   -6.6595711     308.1404   0.02702986  0.027092663            6 
  951000   0.87215759   -6.6432016    308.68849  0.027049465  0.027072304            4 
  952000   0.89641365   -6.6507473    308.21618  0.026979708  0.027052132           12 
  953000   0.87422459    -6.649255    309.57771  0.027070454  0.027032063            4 
  954000   0.86671855   -6.6666799    309.36283  0.027023308  0.027012126            3 
  955000    0.8806256   -6.6781463    309.26934  0.026986853  0.026992041            8 
  956000   0.87819755   -6.6778679    309.66364  0.026992996  0.026972101            5 
  957000   0.88333365   -6.6565108    309.13227  0.026918519  0.026952069           20 
  958000   0.85405314   -6.6820041    308.86815  0.026867445  0.026931687            6 
  959000    0.8620521   -6.6824979    308.82295  0.026835501  0.026911122           12 
  960000    0.8729922   -6.7053952    309.05976  0.026828105   0.02689078            4 
  961000   0.88195012   -6.6504585    309.80232  0.026864578  0.026870591            5 
  962000   0.85105582   -6.6691772    308.85086  0.026754232  0.026850354            3 
  963000   0.88328396   -6.6849626    308.43927  0.026690833  0.026829916            8 
  964000   0.87496215   -6.6910006    308.56371  0.026673903  0.026809616            7 
  965000   0.85275535   -6.7082678    308.91192  0.026676332  0.026789219            4 
  966000   0.85694616   -6.6548399    309.98615  0.026741386  0.026768915            3 
  967000   0.86696421   -6.6577475    309.05811  0.026633757  0.026748803            2 
  968000   0.87683117   -6.6897874    309.30416  0.026627424  0.026728638            6 
  969000   0.87703489   -6.6534323    310.47456  0.026700598  0.026708425            6 
  970000    0.8771947   -6.6762012    310.30988  0.026658924  0.026688294           10 
  971000   0.86774507   -6.6678853    310.40927  0.026639999  0.026668155            5 
  972000   0.86386251   -6.6938279    310.72059  0.026639283  0.026647955           10 
  973000   0.85906646   -6.6565146      311.343  0.026665211  0.026627746            6 
  974000   0.86555888   -6.6779724    310.49551  0.026565324  0.026607621            4 
  975000   0.86929419   -6.6967691    310.99231  0.026580539  0.026587567            6 
  976000   0.87883895   -6.6819819    311.68736   0.02661265  0.026567626            6 
  977000   0.86509872   -6.6833836    311.19972  0.026543818  0.026547858            4 
  978000   0.85530844   -6.6828241    312.34381  0.026614162  0.026528153            5 
  979000   0.85676794   -6.6838454    311.75914  0.026537209  0.026508343            6 
  980000   0.84637674    -6.680748    311.73434  0.026508022  0.026488582            3 
  981000   0.86926712   -6.6790137    312.67254  0.026560698  0.026468708            4 
  982000   0.85508385   -6.6876773    310.66022  0.026362883  0.026448733            3 
  983000    0.8647974   -6.6973277    311.84014  0.026436092   0.02642885            7 
  984000   0.86186915    -6.714833    311.83362  0.026408674  0.026408931            5 
  985000    0.8654661   -6.7124931    311.74547  0.026374405  0.026389152            8 
  986000   0.86410138   -6.6669977    313.08845  0.026461161  0.026369593            6 
  987000    0.8717879   -6.7098508    312.84633  0.026413908   0.02635019            5 
  988000   0.85650141    -6.676368    312.94107  0.026395164  0.026330696           12 
  989000   0.86352159   -6.7029581    312.41948  0.026324527  0.026311142           15 
  990000   0.85855673   -6.6947167     313.6396  0.026400639  0.026291394           12 
  991000   0.84541186   -6.7229382    313.45565  0.026358531  0.026271684           15 
  992000   0.87148469   -6.6735243    314.07022  0.026383587  0.026252285            6 
  993000   0.84817187   -6.6886966    313.29646  0.026292083  0.026232791            7 
  994000   0.86103288   -6.7025347    313.66735  0.026296726  0.026213429            4 
  995000   0.85616122    -6.719581    313.31033  0.026240396  0.026194074            5 
  996000   0.85402948   -6.6910955    313.59638  0.026237984   0.02617468            7 
  997000   0.85171674   -6.7047063    313.04372  0.026165473  0.026155105            3 
  998000    0.8474028   -6.7081047    313.72991  0.026196552   0.02613549            7 
  999000   0.86632013   -6.7133471    314.22131   0.02621132  0.026115977            5 
 1000000   0.86995766   -6.7556309    312.80261  0.026066884  0.026096222            8 
 1001000   0.86114507   -6.7128177    313.10298  0.026065849  0.026076574           16 
 1002000   0.85136107    -6.728264    314.16763  0.026128379  0.026057207           11 
 1003000   0.86429662   -6.6946832    315.22667  0.026190318  0.026037932           14 
 1004000   0.83956944   -6.6994265    314.31563  0.026088615   0.02601854            5 
 1005000   0.87183369   -6.7036519    314.01909  0.026038067  0.025999103           13 
 1006000   0.83619732   -6.7357396    313.72527  0.025987846   0.02597954           12 
 1007000   0.87021457   -6.7045474    314.82609  0.026053136  0.025960022            6 
 1008000   0.84687737    -6.733711    314.42853  0.025994422  0.025940739            3 
 1009000   0.85993088   -6.7180135    314.96937  0.026013327  0.025921135            5 
 1010000   0.86484178    -6.736059    313.77371   0.02588892  0.025901525            7 
 1011000   0.83614486   -6.7303854    315.07969   0.02597096   0.02588203            9 
 1012000   0.85803289   -6.7359657    315.90124  0.026012948   0.02586264           11 
 1013000   0.85788029    -6.728767    315.40181  0.025946184  0.025843058            6 
 1014000   0.84175061   -6.7271278    315.13295    0.0258985  0.025823676            6 
 1015000   0.85132285   -6.7588717    314.61901  0.025830789  0.025804067           10 
 1016000   0.84367317   -6.7505437    314.88673  0.025827324  0.025784475            6 
 1017000   0.83851176   -6.7199953    315.05451  0.025815676  0.025765025            6 
 1018000   0.85292781   -6.7371622    314.74138  0.025764684  0.025745381            5 
 1019000   0.83948472   -6.7399799    316.22422  0.025860665  0.025725746            4 
 1020000   0.84709328    -6.769645     315.3339  0.025762574  0.025706082           18 
 1021000   0.83483801   -6.7994854    314.30491  0.025653356   0.02568625           16 
 1022000    0.8483794   -6.7292141    315.69923  0.025741947  0.025666533            6 
 1023000   0.83715175     -6.74986    316.12817  0.025751724  0.025647094            5 
 1024000   0.83292736   -6.7326441    315.78611  0.025698739  0.025627625            5 
 1025000   0.86023931    -6.736874    316.17831  0.025705554  0.025608092            4 
 1026000   0.83574368   -6.7407425    315.93084    0.0256604  0.025588739            7 
 1027000   0.86620645   -6.6977353    317.07694  0.025728411  0.025569261            5 
 1028000   0.83986993   -6.7219226     316.3831  0.025647139  0.025549923            7 
 1029000   0.83458791   -6.7190918    316.29145  0.025614792  0.025530451            4 
 1030000   0.81499867   -6.7206267    316.47607   0.02560486  0.025510936            8 
 1031000   0.85170117   -6.7595675    315.75386   0.02552165    0.0254914           11 
 1032000   0.86200903   -6.7538797    316.09153  0.025524187  0.025471857            3 
 1033000   0.83967825    -6.743607    315.78935  0.025475101  0.025452359           12 
 1034000   0.85130421   -6.7633518    316.48654  0.025506652  0.025432729            6 
 1035000   0.84361713   -6.7368156    316.97582  0.025521403  0.025413183            5 
 1036000   0.84207096   -6.7750663    316.33143  0.025444935  0.025393761            8 
 1037000   0.83929355    -6.726704    317.22773  0.025492424  0.025374454            9 
 1038000   0.83520859   -6.7411651    316.59626  0.025417169  0.025355271           11 
 1039000   0.83457447   -6.7394567    318.02262  0.025507108   0.02533586           10 
 1040000   0.83691922   -6.7607677    316.51609  0.025361866  0.025316494            9 
 1041000   0.82890445   -6.7725154    317.52538  0.025418298  0.025296923            8 
 1042000   0.83292884    -6.769181    316.91882  0.025345395  0.025277408           14 
 1043000   0.82853723   -6.7716636     316.8738  0.025317497  0.025257759           11 
 1044000   0.85391999   -6.7646489    317.67018  0.025356815  0.025238359            5 
 1045000    0.8242753   -6.7751367     317.3949  0.025310598  0.025218902           11 
 1046000   0.82806358   -6.7487254    317.77965  0.025317053  0.025199544            7 
 1047000    0.8318981   -6.7442922    317.22131  0.025248433  0.025180132            8 
 1048000   0.83256372   -6.7357225    317.75249  0.025266579  0.025160574            9 
 1049000   0.82923125   -6.7601273    317.28276  0.025205176  0.025141269            4 
 1050000   0.82204084   -6.7474717    317.75038  0.025218284  0.025121847           17 
 1051000   0.82789732   -6.7959208    317.92172  0.025207875   0.02510249            9 
 1052000   0.84402037   -6.7681023    318.09976  0.025198017  0.025083109           10 
 1053000   0.83594679   -6.7092843    319.22857   0.02526342  0.025064071            9 
 1054000   0.84703655    -6.748091    318.12059   0.02515185  0.025045056            5 
 1055000   0.83143277   -6.7644637    318.63379  0.025168546  0.025025896           16 
 1056000    0.8407791   -6.7747779    318.89721    0.0251655  0.025006674            7 
 1057000    0.8393453   -6.7800957    318.45938  0.025107173   0.02498744           14 
 1058000    0.8277505   -6.7635127     318.3944  0.025078324  0.024968368           16 
 1059000   0.84664595   -6.7820476    318.41878  0.025056561  0.024949359           21 
 1060000   0.80553682   -6.7780444    318.32023  0.025025175   0.02493017           13 
 1061000   0.83068711   -6.7940679    318.46245  0.025012759  0.024910766            7 
 1062000   0.81870783   -6.7632703    318.52163  0.024993851  0.024891602            6 
 1063000   0.82515521   -6.7851784    318.55128  0.024972662  0.024872416           16 
 1064000   0.83307023   -6.7745317    319.24509  0.025003531   0.02485324           22 
 1065000   0.83277704   -6.7827884    319.91986  0.025032853  0.024834109            6 
 1066000   0.80106452   -6.7529971     320.0475  0.025019348  0.024815006            6 
 1067000    0.8469127    -6.748588    320.77771   0.02505293  0.024796164           14 
 1068000   0.82268788   -6.7839196    319.65544  0.024941904  0.024777242            6 
 1069000     0.829022    -6.810684     318.9914  0.024866807   0.02475808            8 
 1070000   0.81358072   -6.8033296    319.20997  0.024860589  0.024738777            9 
 1071000   0.83873431    -6.777366    319.31344  0.024845428  0.024719564           14 
 1072000    0.8239176   -6.7589501    320.14098  0.024886582  0.024700536           15 
 1073000   0.83390007   -6.8030687     320.1002  0.024860221  0.024681604           12 
 1074000   0.83358066   -6.7586088    320.65564  0.024880171  0.024662544            5 
 1075000   0.83411021   -6.7623819    320.44304  0.024840546  0.024643657            7 
 1076000   0.84158982   -6.8076621    321.62267  0.024908819  0.024624836            8 
 1077000   0.81640975   -6.7916806    320.29442  0.024782917  0.024605823            8 
 1078000   0.81807682   -6.7828971    321.21303   0.02483094  0.024587065           12 
 1079000   0.82523429   -6.7769868    319.96886  0.024711837  0.024568277            7 
 1080000   0.83259494   -6.7709226    320.47293   0.02472785  0.024549281           11 
 1081000   0.82950309   -6.7955744    320.34072  0.024694783  0.024530341            9 
 1082000   0.81496837   -6.7964452    320.50835   0.02468487  0.024511364            9 
 1083000   0.81037301    -6.804942    320.63174  0.024671571  0.024492324            8 
 1084000   0.84009046   -6.7831024    321.25957  0.024697076  0.024473372           13 
 1085000   0.83818855    -6.774382    320.63457  0.024626311  0.024454461            4 
 1086000   0.83207111   -6.7760885    321.19424  0.024646581  0.024435703            5 
 1087000   0.81559394   -6.7907013    321.17156  0.024622168  0.024416904           10 
 1088000   0.82494334   -6.8124736    320.97633  0.024584584  0.024397976            3 
 1089000   0.84210024   -6.7795252    321.88031  0.024631184  0.024379255            3 
 1090000   0.81702625   -6.8146404    320.39132  0.024494749  0.024360551           10 
 1091000   0.81012302   -6.7977278    321.91185  0.024588439    0.0243417            5 
 1092000   0.81892013   -6.8179037    321.08225  0.024502614  0.024322902            4 
 1093000   0.82842577   -6.8112161    321.84666  0.024538476  0.024304218            7 
 1094000   0.82463452   -6.8172887      321.461   0.02448667  0.024285392            9 
 1095000   0.79942717   -6.8518604    320.33251  0.024378425  0.024266407           26 
 1096000   0.81774353   -6.8495813    320.86381  0.024396579  0.024247167           15 
 1097000   0.81140219   -6.8422681    321.41503  0.024416213  0.024228189            9 
 1098000   0.80300578   -6.8388447    321.62839  0.024410169  0.024209303            4 
 1099000   0.81214972   -6.8174255    322.42664  0.024448486  0.024190495            7 
 1100000   0.81900563   -6.8165479     322.1078  0.024402106  0.024171746            6 
 1101000   0.83423135   -6.8597758    321.75458  0.024353207  0.024153089           15 
 1102000   0.80338992   -6.8086039    321.80707  0.024335078  0.024134454           12 
 1103000   0.79716363   -6.8308863    321.51554   0.02429099  0.024115899           11 
 1104000   0.81438813   -6.8107844    322.34756   0.02433179  0.024097431            6 
 1105000   0.79174399   -6.8201348     322.6765  0.024334578  0.024079057           13 
 1106000   0.79981408   -6.8386301    322.79007  0.024321132  0.024060743           14 
 1107000   0.81443649   -6.8144243    323.86146  0.024379815  0.024042304            7 
 1108000   0.78865018   -6.7936726    323.75694  0.024349951  0.024024139           11 
 1109000   0.81278666   -6.7904832    323.38338  0.024299923  0.024005985           23 
 1110000   0.81153889    -6.811794    323.50416  0.024287099  0.023987793           14 
 1111000   0.82430698   -6.8255284    324.25609  0.024321639  0.023969443           16 
 1112000   0.81838542   -6.8374626    323.21703    0.0242219  0.023951182            6 
 1113000   0.81214002   -6.8281393    322.73258  0.024163865  0.023932862            9 
 1114000   0.81247369    -6.795937    324.20786  0.024252533  0.023914585           10 
 1115000   0.82345496   -6.8172296     323.6079  0.024185942  0.023896416           11 
 1116000   0.81321224   -6.8504837    324.24991   0.02421221  0.023878138           17 
 1117000   0.79595339   -6.8221912    323.86457  0.024161785  0.023859857            8 
 1118000    0.7957531   -6.8581784    323.35821  0.024102431  0.023841558            9 
 1119000   0.81113177   -6.8314856    323.19879  0.024069019  0.023823104            5 
 1120000   0.80434059   -6.8507576    323.29711  0.024054845  0.023804582            6 
 1121000   0.81092277    -6.844526    323.98573  0.024084577  0.023786182            7 
 1122000   0.82347437   -6.8558897    322.86182  0.023979636  0.023767792            6 
 1123000   0.81741404   -6.8460642    323.38006  0.023996739   0.02374933           16 
 1124000   0.82520447   -6.8512932    324.55359  0.024062395  0.023731076           11 
 1125000   0.80281544   -6.8645698    323.97728  0.023998317  0.023712795            8 
 1126000     0.771583   -6.8538228    324.44353  0.024011511   0.02369458           16 
 1127000   0.82118281   -6.8511372    324.04444  0.023960695  0.023676268            9 
 1128000   0.80631854   -6.8414232    324.13509   0.02394615  0.023658085            9 
 1129000     0.800554   -6.8580357    324.00179  0.023915101  0.023639836            7 
 1130000   0.79659692   -6.8392184    325.04802  0.023971093  0.023621547            5 
 1131000   0.80549194   -6.8616969    324.42899  0.023904287  0.023603244           20 
 1132000   0.79872257   -6.8265294     324.1675  0.023863921  0.023584986            9 
 1133000   0.79199516   -6.8412657    324.57844  0.023873084  0.023566882            8 
 1134000   0.78448051   -6.8533954     324.9918  0.023882408  0.023548726            5 
 1135000   0.79889735   -6.8568486     324.8305  0.023849523  0.023530639            6 
 1136000    0.7816315   -6.8761916    324.40431  0.023797265  0.023512538           10 
 1137000   0.82580115   -6.8753539    324.69513   0.02379765  0.023494488            4 
 1138000   0.79993446   -6.8571923    325.22915  0.023815843  0.023476277           25 
 1139000   0.82479289   -6.8679383    325.60849  0.023822687  0.023458041           21 
 1140000    0.7951448   -6.8943157    324.55442  0.023724738  0.023439791           12 
 1141000   0.81699777   -6.8665394    324.67905  0.023713048  0.023421555           21 
 1142000   0.80501688   -6.8868952    324.67262  0.023691814  0.023403363           11 
 1143000   0.81307802   -6.8725567    325.82215  0.023754896  0.023385222            8 
 1144000   0.80645709   -6.8789624    324.30796  0.023623831  0.023366958            5 
 1145000   0.79894423     -6.88299    324.20566  0.023595754  0.023348645            7 
 1146000   0.79803447    -6.909438    323.95923  0.023557244  0.023330204           12 
 1147000   0.78581544   -6.8864301    324.42389  0.023570466  0.023311828           17 
 1148000   0.77876026   -6.9001383     324.1503  0.023530074  0.023293473           15 
 1149000   0.78665856   -6.8571807    325.90903   0.02363715  0.023275157           15 
 1150000   0.79515098   -6.9002018    324.68401  0.023527827  0.023256889            8 
 1151000   0.81550891   -6.8814082    324.89858  0.023522921  0.023238519            8 
 1152000   0.80991829   -6.8793464     325.2312  0.023526563  0.023220206            8 
 1153000   0.80506949   -6.8724699    325.35906  0.023515399  0.023202057           12 
 1154000   0.79735595   -6.8650339    326.06006  0.023545643  0.023183878           11 
 1155000   0.78432117   -6.8734513    325.59949  0.023492027  0.023165656           14 
 1156000   0.77906717   -6.8803568    325.41648  0.023458512   0.02314741           14 
 1157000   0.78215366   -6.8349193     324.8457  0.023397126  0.023129227            6 
 1158000   0.79301676   -6.8776634    325.50224  0.023424168  0.023111037           17 
 1159000    0.7924205   -6.8874568    326.20734  0.023454655  0.023092885           10 
 1160000   0.79310889   -6.8641964    326.13746  0.023429415  0.023074871           19 
 1161000   0.78648643   -6.8720938      325.904  0.023392478   0.02305689           25 
 1162000   0.79721402   -6.8829513    326.98555  0.023449911  0.023038897            7 
 1163000   0.77955485   -6.8510335    326.31223  0.023381501  0.023020989            9 
 1164000   0.77506118   -6.9147707    325.17726  0.023280159  0.023003012           12 
 1165000   0.79332343   -6.8994692     325.4068  0.023276595  0.022984803            7 
 1166000   0.77244682   -6.8999071    325.39749  0.023255967  0.022966763            6 
 1167000   0.77563146   -6.8810731    326.82523  0.023337991  0.022948673            9 
 1168000   0.78389901   -6.8742189    326.47067  0.023292713  0.022930607            9 
 1169000   0.79638425   -6.9015431    326.58556  0.023280978  0.022912523            7 
 1170000   0.79823033   -6.8893636    326.03213  0.023221662  0.022894508            8 
 1171000   0.79966757   -6.8950361    326.36815  0.023225743   0.02287642            9 
 1172000   0.77549434   -6.9117234    325.43722  0.023139734  0.022858287           17 
 1173000   0.79317767   -6.9328942    325.97528  0.023158233  0.022840211            7 
 1174000   0.78796841   -6.9285875    326.57645  0.023181179  0.022822086           26 
 1175000   0.78028139   -6.9049942    325.25427  0.023067679  0.022803981           21 
 1176000   0.78748353   -6.8928807    325.76287  0.023084104  0.022785838           32 
 1177000   0.81389794   -6.8744557    326.41437  0.023110618  0.022767879           20 
 1178000   0.77621927    -6.876836    326.34551  0.023086129  0.022749911           12 
 1179000   0.79965553   -6.8940215    326.17374  0.023054407  0.022731985            4 
 1180000   0.78030537   -6.9064332    327.18229  0.023106094  0.022714018            5 
 1181000   0.78488825   -6.8941872    326.23613  0.023019766  0.022696041            9 
 1182000   0.77584409   -6.8804735    326.37081  0.023009786  0.022678147           10 
 1183000   0.80578814   -6.8816471    326.89273  0.023027101  0.022660123           17 
 1184000   0.77870641   -6.9113149    325.08812  0.022880639  0.022642121           20 
 1185000   0.77783007   -6.9053874    326.14305  0.022935517  0.022624076            9 
 1186000   0.78928252   -6.9042817     326.5473  0.022944583  0.022606079            7 
 1187000   0.76617453   -6.9160155    326.95225  0.022953682  0.022588141            6 
 1188000    0.7823219   -6.9134724    326.17716  0.022879992  0.022570133            7 
 1189000   0.77890346   -6.9387544    326.63934  0.022893141  0.022552103           16 
 1190000   0.77282742    -6.925779     326.8114  0.022885953  0.022534163           12 
 1191000   0.77317221   -6.8942776    326.85632  0.022869879  0.022516269            9 
 1192000   0.79076151    -6.952551    326.41665  0.022819956  0.022498327           11 
 1193000   0.77831647   -6.9639971    325.24677  0.022719109  0.022480311           16 
 1194000   0.77771803   -6.9656591    326.51357  0.022788496  0.022462312           24 
 1195000   0.77685528   -6.9752154    326.71533  0.022783495  0.022444306           15 
 1196000   0.75852769   -6.9472669    327.13658  0.022793797  0.022426263            5 
 1197000    0.7711766   -6.9545722    325.90314  0.022688884  0.022408163            9 
 1198000   0.78661669   -6.8861172    327.12524  0.022754956  0.022390117           14 
 1199000   0.78990183   -6.9301635    326.75783  0.022710441  0.022372044           16 
 1200000   0.77258636   -6.9458774    325.80897  0.022625623  0.022353888           20 
 1201000   0.75935437   -6.9783402    326.63587  0.022664159  0.022335674           23 
 1202000   0.76305993   -6.9503089    326.87395   0.02266181  0.022317526           10 
 1203000   0.78729577   -6.9622814     326.2462  0.022599487  0.022299395            9 
 1204000    0.7953793   -6.9331334    326.85011  0.022622516  0.022281263           20 
 1205000   0.78196407    -6.944317     326.3439  0.022568735  0.022263156           10 
 1206000   0.78239232   -6.9407585    326.24942  0.022543492  0.022245064            5 
 1207000   0.76600743    -6.920783    326.72076  0.022557357  0.022227062            7 
 1208000   0.75660012   -6.9255599    326.67871  0.022535783  0.022208988            7 
 1209000   0.78489711   -6.9672334     326.7339  0.022520947  0.022190827            9 
 1210000   0.76407203    -6.940182    326.57977   0.02249172  0.022172626            8 
 1211000   0.77117175   -6.9559763    326.33519  0.022456316  0.022154444            5 
 1212000   0.77064899    -6.934324    326.75808  0.022466864  0.022136385            8 
 1213000   0.78412812   -6.9406204    327.14146  0.022474681  0.022118387            6 
 1214000   0.77112631   -6.9226101    326.85225  0.022436316   0.02210044            9 
 1215000   0.76485232   -6.9728104    326.89193  0.022420571  0.022082365            7 
 1216000   0.77202745    -6.958565    326.33272   0.02236381  0.022064289           21 
 1217000   0.77845319   -6.9609944    326.59905  0.022363671  0.022046109           15 
 1218000   0.76223446   -6.9596706    326.77686  0.022357475  0.022027995           18 
 1219000   0.75955756   -6.9726039    326.70087  0.022333939   0.02200992           10 
 1220000   0.78009063   -6.9772473    326.73929  0.022318257  0.021991899            9 
 1221000   0.75449584   -6.9741002     327.1165  0.022325723  0.021973852           15 
 1222000    0.7681488   -6.9751467       326.78  0.022284507  0.021955822           16 
 1223000   0.75538211   -6.9629278    327.31583  0.022302796  0.021937817           18 
 1224000   0.75259351   -6.9779098    327.20357  0.022276931  0.021919874           10 
 1225000   0.75767732   -6.9516305    327.14632  0.022254852  0.021901867           11 
 1226000   0.76607258   -6.9739462    326.28686  0.022178281  0.021883825           12 
 1227000   0.77126928   -6.9575912    327.05606  0.022212446  0.021865897           10 
 1228000   0.76664206    -7.002796    326.78363  0.022175871  0.021847853           13 
 1229000   0.76960322   -6.9556186    326.77965  0.022157557  0.021829866           11 
 1230000   0.75503752   -6.9538704    327.47807  0.022186861  0.021811983           18 
 1231000   0.76097112   -6.9509263    327.47659  0.022168738  0.021794064           11 
 1232000   0.75590317   -6.9545825    327.59138  0.022158508  0.021776169           18 
 1233000   0.75559517    -6.951382    327.80528  0.022154993  0.021758312           14 
 1234000   0.76019462    -6.966402    327.64599  0.022126283  0.021740523            6 
 1235000   0.78459394   -6.9684735    328.19758  0.022145585  0.021722739           33 
 1236000   0.75714865   -7.0024552    326.42457  0.022008129  0.021704863           40 
 1237000   0.75325945    -6.983308    327.10319  0.022036054  0.021687126           69 
 1238000   0.76388369   -6.9837808    327.37763  0.022036728  0.021669361           25 
 1239000   0.76978378   -6.9854003    327.35511  0.022017427  0.021651608           30 
 1240000   0.75928498   -6.9628202    327.70534  0.022023208  0.021633902           18 
 1241000   0.75899161    -6.973829    327.72693  0.022006912  0.021616145           11 
 1242000   0.76111796   -6.9892091    328.08969  0.022013532   0.02159838            7 
 1243000   0.76889809    -6.984407    327.84029  0.021979102  0.021580744           19 
 1244000   0.76904568    -6.987226    328.76785   0.02202357  0.021563145           13 
 1245000   0.75356171   -6.9429665    328.07531  0.021959525  0.021545644           22 
 1246000   0.75807592   -6.9713947    328.80744  0.021990867   0.02152808           10 
 1247000   0.76408335   -6.9703633    327.87394  0.021910849  0.021510522           16 
 1248000   0.74850523   -6.9829966     327.9072  0.021895513  0.021492949           12 
 1249000   0.75601269   -7.0094351    328.05544  0.021887873  0.021475324            6 
 1250000    0.7439275   -6.9956212    328.17801  0.021878534  0.021457632            9 
 1251000   0.74732668   -6.9862242    327.90437  0.021842817  0.021439898           20 
 1252000    0.7403814   -7.0159885    327.85862  0.021822326  0.021422208           20 
 1253000   0.75637102   -6.9866172    327.98313   0.02181319  0.021404605           12 
 1254000   0.73058725   -7.0089196    327.70684  0.021777435  0.021386936           18 
 1255000    0.7552956   -7.0088882    327.67893  0.021758229  0.021369302           13 
 1256000   0.75782364   -7.0053435    327.82431  0.021750551  0.021351617           35 
 1257000   0.73832252   -6.9631996    327.93401   0.02174052  0.021333975           11 
 1258000   0.74042276   -6.9978503    327.96929  0.021725575  0.021316309           11 
 1259000   0.74798114   -6.9806848    328.42203  0.021738286  0.021298673           17 
 1260000   0.75525527   -7.0173295    327.46381  0.021657659   0.02128093           16 
 1261000   0.74360721   -7.0123663    327.61457  0.021650447  0.021263191            9 
 1262000   0.75589585   -7.0388654    327.21481  0.021606894  0.021245493            8 
 1263000   0.74618137   -7.0395901    326.78763  0.021561601  0.021227742            5 
 1264000   0.74162464   -7.0115158    327.82971  0.021613246  0.021210005           10 
 1265000   0.76489222   -6.9982626    327.65825  0.021584865  0.021192241           12 
 1266000   0.76344298   -7.0381869    327.25644  0.021541366  0.021174525            8 
 1267000   0.73108001   -7.0185308    328.78361   0.02162481  0.021156809           18 
 1268000   0.75089463   -7.0358697    326.94295  0.021486787  0.021139132           14 
 1269000   0.73994328   -7.0096805    327.53491  0.021508728  0.021121405           13 
 1270000    0.7486481    -7.023246    328.07975  0.021527543  0.021103814           12 
 1271000   0.76081709   -7.0193848    327.30269  0.021459657   0.02108615           18 
 1272000   0.76892186   -7.0095492    327.39752  0.021448999  0.021068562           17 
 1273000   0.74105258   -6.9921755    328.19253  0.021484193  0.021051057           16 
 1274000   0.74926027   -7.0350158    328.03618  0.021457102  0.021033607           34 
 1275000   0.74401701   -7.0354083    327.96632  0.021435707  0.021016082           25 
 1276000   0.73655262   -7.0239936    328.05158  0.021424476  0.020998492           18 
 1277000    0.7482187   -7.0368566    327.26144  0.021356137  0.020981029           23 
 1278000   0.74150318   -7.0292049    328.46212  0.021417718  0.020963526           12 
 1279000   0.74631669   -7.0118849    328.58898  0.021409238  0.020946113           11 
 1280000   0.74284032   -7.0456159    327.83248  0.021343261  0.020928585           14 
 1281000   0.74242711   -7.0364031     328.2048   0.02135082  0.020911014           11 
 1282000    0.7574358   -7.0566986    327.75919    0.0213052  0.020893482            7 
 1283000   0.72965814   -7.0553598    328.56215  0.021340748  0.020875868           38 
 1284000   0.74795423   -7.0482326    327.90141  0.021281244  0.020858346           24 
 1285000   0.74636911   -7.0242839    328.64639  0.021312995  0.020840878           21 
 1286000   0.73583755   -7.0325877    328.89769  0.021312707  0.020823357           41 
 1287000   0.74821264   -7.0521081    327.57386  0.021210429  0.020805939           29 
 1288000   0.74108593   -7.0450052    328.03498  0.021223795  0.020788408           23 
 1289000   0.74235429   -7.0476331    327.85977  0.021196003  0.020770909            9 
 1290000   0.73266692   -7.0638674    328.44341  0.021217274  0.020753352            7 
 1291000   0.73223712   -7.0743595    327.35535  0.021130606  0.020735813            8 
 1292000   0.74590499   -7.0596259    327.82342  0.021144442  0.020718229            8 
 1293000   0.72156502   -7.0743539    327.66004  0.021117558  0.020700708            9 
 1294000   0.74981408   -7.0696278    327.03908   0.02106125  0.020683239           26 
 1295000   0.72512186   -7.0651526    328.21118  0.021120411  0.020665766           18 
 1296000   0.73942087   -7.0175988    327.98242  0.021089404  0.020648433           24 
 1297000   0.73983451   -7.0298491    327.45963  0.021039555   0.02063106           36 
 1298000   0.74023292   -7.0764092     328.0787  0.021063091  0.020613664           33 
 1299000    0.7191739   -7.0643016    328.39982  0.021067476  0.020596314           21 
 1300000   0.74233849   -7.0563572    328.33852  0.021047341  0.020578948           12 
 1301000   0.73900555   -7.0529772    328.60002  0.021047913  0.020561549           21 
 1302000   0.74064773   -7.0665597    327.72459  0.020975716  0.020544224           24 
 1303000   0.73050992   -7.0482976    328.48506  0.021008254  0.020526837           12 
 1304000    0.7212672   -7.0177689     328.1969  0.020973728  0.020509448           20 
 1305000   0.74676474   -7.0630703    327.76829  0.020930287  0.020492105           19 
 1306000   0.72036282   -7.0313448    327.91497   0.02092362  0.020474705           16 
 1307000   0.72155697   -7.0637815    327.86965  0.020904722  0.020457307            8 
 1308000   0.72603699   -7.0611395    328.05162  0.020900333  0.020439941           17 
 1309000   0.72846883    -7.081274    327.98015  0.020879816  0.020422641           21 
 1310000   0.72596621   -7.0436252    328.67302  0.020907953  0.020405381           13 
 1311000   0.73116236   -7.0862993    326.79721  0.020772769  0.020388048           22 
 1312000   0.72034011   -7.0793945    327.82092  0.020821959   0.02037072           30 
 1313000   0.72997739   -7.0777464    328.44597  0.020845771  0.020353457           51 
 1314000   0.73403111   -7.0757869    328.21493  0.020815255  0.020336221           17 
 1315000   0.73565001   -7.0840532    328.06351   0.02078983   0.02031895           24 
 1316000   0.73269586    -7.068471    328.12164  0.020777713  0.020301718           38 
 1317000   0.72776452   -7.0639157    328.25708  0.020770506  0.020284552           28 
 1318000   0.72666845   -7.0698664    328.47554   0.02076856  0.020267364           24 
 1319000   0.71945416   -7.0647778    328.58543  0.020759757  0.020250161           40 
 1320000   0.72330751   -7.0643203    328.47211  0.020736876   0.02023304           13 
 1321000   0.71787594   -7.1036772    328.60827  0.020729767  0.020215889           25 
 1322000   0.71477266     -7.10511    328.50122  0.020707339  0.020198755           15 
 1323000   0.71627012   -7.0743956    327.61613  0.020635937  0.020181562           24 
 1324000   0.73847386   -7.1280545    327.94127  0.020640815  0.020164393           15 
 1325000   0.71733345   -7.0804728    328.20462    0.0206418  0.020147268           29 
 1326000   0.73553126   -7.0712512     328.5441  0.020647568   0.02013022           11 
 1327000   0.71967477   -7.1190797    328.46217  0.020626863   0.02011308           36 
 1328000   0.70821642   -7.0979652    327.05177  0.020522827  0.020095904           13 
 1329000   0.71821258   -7.1165236    327.84835  0.020557333  0.020078695            9 
 1330000   0.71607085   -7.0969374     328.4808  0.020581504  0.020061475           29 
 1331000   0.72335782   -7.1057975    327.33718  0.020494439  0.020044257           26 
 1332000   0.71785967   -7.1161131    328.36511  0.020543363  0.020027101           12 
 1333000   0.72059788   -7.0994649    327.84032  0.020495144  0.020010011           18 
 1334000   0.72190166   -7.0963632    328.19493  0.020501932  0.019992857           36 
 1335000    0.7222743   -7.1118012    327.72085  0.020456982  0.019975701           20 
 1336000   0.72978796    -7.098661    328.48006  0.020489026  0.019958587           17 
 1337000   0.73276651   -7.0826515    327.69466  0.020424748  0.019941507           24 
 1338000   0.72614082    -7.112998    327.78401  0.020415048  0.019924354           11 
 1339000    0.7191875   -7.1024343    328.75876  0.020460466  0.019907275           12 
 1340000    0.7233728   -7.1171623    328.17516  0.020408903  0.019890137           18 
 1341000   0.72016401   -7.1202489     327.3725  0.020343804  0.019873056            9 
 1342000     0.711657   -7.1031827      328.278  0.020384873  0.019855933            9 
 1343000   0.70814535   -7.1325165    328.02948  0.020354274  0.019838897           21 
 1344000   0.71858032   -7.1303408    328.09322  0.020343082  0.019821878           15 
 1345000   0.71985715   -7.1045172    329.23642  0.020398787  0.019804914           13 
 1346000   0.71407134   -7.1003188    328.02153  0.020308416  0.019787942           10 
 1347000   0.71949055   -7.1295705    328.59757  0.020328976  0.019770969           13 
 1348000   0.71596402     -7.07545    328.46425  0.020305653  0.019754043           18 
 1349000    0.7167219   -7.1266905    327.70592  0.020243756  0.019737103           17 
 1350000   0.71359038    -7.114615    328.41568  0.020272573   0.01972018            8 
 1351000   0.71233512   -7.1160822     328.1989  0.020244196  0.019703282           33 
 1352000   0.70852464    -7.131591     328.0253  0.020218522  0.019686326           57 
 1353000   0.70410965   -7.1193139     327.4592  0.020168711  0.019669459           30 
 1354000   0.70684709   -7.1415576    327.91959  0.020182151   0.01965257           16 
 1355000   0.71593511   -7.1220072    327.75356  0.020157046  0.019635723           24 
 1356000   0.72024901   -7.1168049     328.3067  0.020176174  0.019618881           11 
 1357000   0.71304665   -7.1291986    328.24484  0.020157507  0.019602074           14 
 1358000   0.73771527   -7.1164948    327.83379  0.020117439   0.01958524           24 
 1359000   0.70205288   -7.1521173    328.00036   0.02011285  0.019568441           25 
 1360000   0.69411763     -7.12287    328.71108  0.020141611  0.019551589           27 
 1361000   0.70044777   -7.1122645    328.26463  0.020099475  0.019534804           14 
 1362000   0.70804057    -7.127182    328.46011  0.020096678  0.019518057           13 
 1363000   0.70466699   -7.1291827    328.23359  0.020068084  0.019501272           12 
 1364000   0.69837886   -7.1233878    329.06636   0.02010425  0.019484569           16 
 1365000   0.70765033   -7.1225926    328.57749  0.020059676  0.019467889           13 
 1366000   0.71886566   -7.1206792    327.63962  0.019987775  0.019451083           31 
 1367000   0.71089584   -7.1587998    327.42667  0.019960172  0.019434313           16 
 1368000   0.70266183   -7.1310839    328.62769  0.020018744  0.019417553           15 
 1369000   0.70128501   -7.1151932    329.12967  0.020034677  0.019400888           24 
 1370000   0.69299155   -7.1542542     327.7221  0.019934434   0.01938425           23 
 1371000   0.71236499   -7.1302975    328.34481  0.019957744  0.019367559           18 
 1372000   0.69877891   -7.1439659    328.61219  0.019959438  0.019350907           28 
 1373000   0.72231796   -7.1054983     328.8045  0.019956573  0.019334337           20 
 1374000   0.70368836   -7.1000329    328.66783  0.019933759   0.01931783           23 
 1375000   0.69976786   -7.1192892    329.20522  0.019951831  0.019301286           47 
 1376000   0.69255436   -7.1367056    328.25058  0.019879516  0.019284801           33 
 1377000   0.70424742   -7.1403792     328.4208  0.019875381  0.019268288           46 
 1378000   0.71516681   -7.1523523    328.21466  0.019848492  0.019251805           34 
 1379000   0.70827735   -7.1582001    328.66626  0.019861389  0.019235245           26 
 1380000   0.70070327   -7.1765674    327.84258  0.019797257  0.019218651           32 
 1381000    0.7037783    -7.156791    328.46089  0.019820233  0.019201988           37 
 1382000   0.70621544    -7.146001    328.83653  0.019828541  0.019185438           31 
 1383000   0.69314261   -7.1342653    328.93128  0.019819913  0.019168905           44 
 1384000   0.68722299   -7.1547191    329.28533  0.019826911  0.019152412           23 
 1385000   0.70835895   -7.1575501    328.32359  0.019754729   0.01913589           14 
 1386000    0.7028179   -7.1462789     329.1026  0.019787313  0.019119391           17 
 1387000   0.71928244   -7.1649483    327.90553  0.019701125   0.01910283           16 
 1388000   0.70006907   -7.1503905    329.19173  0.019764153  0.019086315           50 
 1389000   0.70504912   -7.1597881    329.06785  0.019742491  0.019069875           49 
 1390000   0.70294717   -7.1725205     328.0111  0.019664934  0.019053399           34 
 1391000   0.70106901   -7.1327096    329.14826  0.019718923  0.019037035           37 
 1392000   0.69472681   -7.1452007      328.562   0.01966966  0.019020578           36 
 1393000   0.70321351   -7.1857707    327.97153  0.019620216  0.019004158           24 
 1394000   0.69413536    -7.164211    328.92097  0.019662899   0.01898776           13 
 1395000   0.69826678   -7.1372612    328.86044  0.019645187    0.0189714           44 
 1396000    0.7038683   -7.1666132    329.04263  0.019641991  0.018955132           53 
 1397000   0.69761056   -7.1461026     329.5079  0.019655685  0.018938873           18 
 1398000   0.69891134   -7.1525504    329.39963  0.019635171  0.018922706           17 
 1399000   0.70463312   -7.1537898    329.03101  0.019599179  0.018906553           16 
 1400000   0.69649296   -7.1807405    329.01413  0.019584174  0.018890401           19 
 1401000   0.69659509   -7.1421763    329.44183  0.019595636  0.018874223           11 
 1402000   0.69775152   -7.1492127    329.25039   0.01957028  0.018858074           13 
 1403000   0.68516054   -7.1761343    328.43663  0.019507997  0.018841881           20 
 1404000   0.68325748   -7.1737096    329.11939  0.019534627  0.018825736           30 
 1405000   0.69380212   -7.1730344    328.53839  0.019486262  0.018809583           15 
 1406000   0.68914763   -7.1649556    328.61855  0.019477155  0.018793375           19 
 1407000   0.69631297   -7.1658442    329.63999  0.019523809  0.018777269           22 
 1408000   0.69705116    -7.213773    328.62751  0.019450018  0.018761164           22 
 1409000   0.69759964   -7.1712686    328.91489  0.019453211  0.018745056           25 
 1410000    0.6857908    -7.173331    329.00247   0.01944459  0.018728958           27 
 1411000    0.6959231   -7.1584804    329.31685  0.019449377  0.018712915           29 
 1412000   0.70214713   -7.1693382    328.97709   0.01941555  0.018696902           28 
 1413000   0.68897479   -7.1816121     329.7534  0.019447594  0.018680927           30 
 1414000   0.68094324    -7.179478    329.03613  0.019391568  0.018664956           34 
 1415000   0.69268457   -7.1865779     328.9867  0.019374953  0.018648968           62 
 1416000   0.69739649     -7.17613    329.21897   0.01937494  0.018633027           47 
 1417000   0.68996548   -7.1858487    329.38723  0.019371161  0.018617082           20 
 1418000   0.68357237   -7.1966434    328.20689  0.019288134  0.018601087           24 
 1419000   0.68611285   -7.2003047    329.20465  0.019333137  0.018585138           30 
 1420000   0.70178336   -7.2137327    329.19618  0.019319024  0.018569162           22 
 1421000   0.69521249   -7.2031665     328.4098  0.019259312  0.018553175           17 
 1422000   0.69648405   -7.1977782    328.77795  0.019267344   0.01853717           18 
 1423000   0.69019288   -7.1985608    328.97347  0.019265254  0.018521232           29 
 1424000   0.68278244   -7.1974206    329.74092  0.019296636  0.018505267           24 
 1425000   0.68912559   -7.1894713    329.16175  0.019249225  0.018489324           35 
 1426000   0.68188912      -7.2077    328.78236  0.019213555  0.018473457           32 
 1427000   0.68505714   -7.2083676    328.74447  0.019197878  0.018457521           46 
 1428000   0.69060914   -7.2218564    329.27354  0.019215309   0.01844162           31 
 1429000   0.69026117   -7.2161764    328.58966  0.019161981  0.018425688           30 
 1430000   0.66577043   -7.2382397    328.41852  0.019138608  0.018409765           19 
 1431000   0.68131265   -7.2131559    328.57603  0.019134407  0.018393886           48 
 1432000    0.6939743   -7.2183623    329.01486  0.019146582  0.018378078           25 
 1433000   0.67640486   -7.2300659    328.74052  0.019117267  0.018362282           25 
 1434000      0.67124   -7.2328357    329.37741  0.019140947  0.018346522           32 
 1435000   0.67584365    -7.214588    329.77445  0.019150665  0.018330763           24 
 1436000    0.6670552    -7.202266    328.95151  0.019089572  0.018315034           22 
 1437000   0.69900832   -7.2112403    329.69968  0.019119675  0.018299304           17 
 1438000   0.66869638   -7.2064072    329.87729  0.019116672  0.018283616           14 
 1439000   0.67472681    -7.211865     328.7455  0.019037844  0.018267905           25 
 1440000   0.68380869   -7.2550111     328.5539  0.019013536  0.018252194           26 
 1441000    0.6767809   -7.2069021    329.01135  0.019026796  0.018236528           22 
 1442000   0.67392805   -7.2182462    329.46221  0.019039656  0.018220845           26 
 1443000   0.67500395   -7.2259855    330.09717   0.01906313  0.018205181           43 
 1444000   0.66453722   -7.2061494     328.9988  0.018986542  0.018189565           38 
 1445000   0.67493263   -7.1965899    329.74137  0.019016227   0.01817395           61 
 1446000     0.688086   -7.2106896     328.9534  0.018957665  0.018158296           37 
 1447000   0.66760029   -7.2429218    328.25924  0.018904587  0.018142648           17 
 1448000   0.67192608   -7.2244308    329.04722  0.018936879  0.018127025           39 
 1449000   0.67365404   -7.2322687    328.83082  0.018911365   0.01811142           47 
 1450000   0.68142393   -7.2199083    329.13838  0.018915999  0.018095823           34 
 1451000   0.67362588   -7.2316545    329.38315   0.01891702  0.018080237           56 
 1452000    0.6892121   -7.2382146    328.63899  0.018861283  0.018064662           21 
 1453000   0.67971209   -7.2561013    328.67477  0.018850354  0.018049076           29 
 1454000   0.67228554   -7.2465095    328.88963  0.018849704    0.0180335           36 
 1455000    0.6719301   -7.2594869    328.70283   0.01882605  0.018017898           51 
 1456000    0.6892205   -7.2649903    328.88051   0.01882329  0.018002291           54 
 1457000   0.69201385   -7.2455762    329.88498  0.018867821  0.017986763           24 
 1458000   0.65891497   -7.2342728    329.37825  0.018825917  0.017971306           41 
 1459000   0.68082731   -7.2500688    328.31436  0.018752248  0.017955831           72 
 1460000   0.67021948   -7.2307379    328.77806  0.018765871  0.017940323           55 
 1461000    0.6733163   -7.2214428    328.83519  0.018756285  0.017924863           43 
 1462000   0.67161844   -7.2417114    328.74134  0.018738107  0.017909437           37 
 1463000   0.66007822    -7.223619    329.06749  0.018743876  0.017893993           77 
 1464000   0.66757901   -7.2466341    329.32707  0.018745849  0.017878568           67 
 1465000   0.66240404   -7.2602319    328.59705  0.018691527  0.017863194           52 
 1466000   0.68165801   -7.2245232    329.76955  0.018745427  0.017847852           90 
 1467000   0.67561719   -7.2488062    328.97149  0.018687315  0.017832522           72 
 1468000   0.67120978   -7.2781027    329.04457  0.018678733  0.017817262           31 
 1469000   0.66375565   -7.2714464     329.0615  0.018666979  0.017801975          128 
 1470000   0.66001574   -7.2494434    329.36609  0.018671547  0.017786627           56 
 1471000   0.65981852   -7.2497722    329.34542  0.018657683  0.017771335           58 
 1472000   0.66282511   -7.2660095    328.57701  0.018601506  0.017756091           89 
 1473000   0.66168562   -7.2697308    328.71453  0.018596658  0.017740817           45 
 1474000   0.65767864   -7.2655678     329.3165  0.018618074  0.017725559           69 
 1475000    0.6640744    -7.275603     329.7083  0.018627588  0.017710321           69 
 1476000   0.67552068   -7.2807301    329.31133  0.018592555  0.017695095           71 
 1477000   0.67901005   -7.2452353    330.03495  0.018620794  0.017679924           43 
 1478000   0.66978906   -7.2436407    329.66929  0.018587579  0.017664709           50 
 1479000   0.66961799   -7.2538599    329.38125  0.018558781   0.01764954           78 
 1480000   0.66617789   -7.2554348     329.0752  0.018529009  0.017634353           55 
 1481000   0.66194485   -7.2736864    328.57637   0.01848843  0.017619143           50 
 1482000    0.6594661   -7.2771335    328.66868  0.018481145  0.017603964           57 
 1483000   0.67610129   -7.3016733    328.32405  0.018449317  0.017588736           27 
 1484000   0.65465154   -7.2489889    329.34833  0.018494403  0.017573574           39 
 1485000   0.65547944   -7.2617644     329.0829  0.018467054  0.017558447           41 
 1486000   0.65644529   -7.2535039    328.88824   0.01844371  0.017543312           56 
 1487000   0.66428817   -7.2715965    328.71305  0.018421489  0.017528169           42 
 1488000   0.66267819    -7.273308    329.07991  0.018429655  0.017513011          122 
 1489000   0.66954159   -7.3051621    329.15492  0.018421475  0.017497864          103 
 1490000   0.65666226   -7.2732218    328.57138  0.018376475  0.017482742           83 
 1491000   0.66222008   -7.2618738    329.45152  0.018413342  0.017467619           52 
 1492000   0.65643274   -7.3037542    328.19579  0.018330864  0.017452516           75 
 1493000   0.66597479   -7.2960952    328.81667  0.018353241  0.017437491           71 
 1494000   0.65037322   -7.2668999    329.27138   0.01836632  0.017422465           82 
 1495000    0.6651011   -7.2686293    329.29348  0.018355266  0.017407506          104 
 1496000   0.65309193   -7.2880794    329.47842  0.018353299  0.017392566          130 
 1497000   0.66505475   -7.2871391    328.83199  0.018305054  0.017377611          285 
 1498000   0.65438884   -7.2953149    329.15515  0.018310812  0.017362641          205 
 1499000   0.64974648   -7.3099212    328.40665  0.018256985  0.017347623          171 
 1500000   0.66226564    -7.300044    329.64187  0.018313437  0.017332696          128 
 1501000   0.64711048   -7.2905193    328.85214  0.018257392  0.017317831          129 
 1502000   0.65331334   -7.3009516    328.84451  0.018244813  0.017302997          181 
 1503000   0.67344426   -7.3099223    328.67082  0.018223044  0.017288129          129 
 1504000   0.64700773   -7.2967211    329.40584  0.018251654  0.017273285          142 
 1505000   0.64358516   -7.2724746    329.49654  0.018244548   0.01725851          141 
 1506000   0.65966584   -7.2703064    329.52114  0.018233795  0.017243754          185 
 1507000     0.651092   -7.3017865    328.44023  0.018161924  0.017229005          119 
 1508000   0.64941244   -7.3144696    329.59053  0.018213446  0.017214226          170 
 1509000   0.63818624    -7.281956    329.13237  0.018176075  0.017199461           48 
 1510000   0.65835924   -7.2834825    329.61087  0.018190445  0.017184704          131 
 1511000   0.64499481   -7.2902054    329.94286  0.018196716  0.017169961          163 
 1512000   0.65824487   -7.3119721    329.10536  0.018138523  0.017155234          166 
 1513000    0.6450805   -7.3162967    328.20564   0.01807698  0.017140495          130 
 1514000   0.65144642   -7.3142481    329.26027  0.018123088  0.017125742          137 
 1515000   0.65823291   -7.3136228    328.86915  0.018089612  0.017110964          186 
 1516000   0.65019898   -7.3189209    328.73122  0.018070098   0.01709619          220 
 1517000   0.63753974   -7.3010891    329.57201  0.018104373  0.017081453          127 
 1518000   0.64320936   -7.3404468    328.34115  0.018024877   0.01706669          193 
 1519000   0.65038392   -7.3349706    329.12306  0.018055906  0.017051933          186 
 1520000   0.63881816   -7.3365947    328.26416  0.017996938  0.017037158          166 
 1521000   0.66196613   -7.3286963    329.68359  0.018062875  0.017022411          116 
 1522000   0.64877868   -7.3014952    328.67891  0.017995998  0.017007671          144 
 1523000   0.64371403   -7.3256523    329.03084  0.018003439  0.016992971          115 
 1524000    0.6504047   -7.3507905    328.23427  0.017948068  0.016978263          159 
 1525000   0.64200356    -7.331693    328.56077   0.01795414  0.016963569          165 
 1526000   0.63226144   -7.3181368    328.82195  0.017956638  0.016948891          186 
 1527000   0.66890107   -7.3355684     328.9669  0.017952789  0.016934206          146 
 1528000   0.62908371   -7.3326679     328.0722  0.017892245  0.016919573          141 
 1529000   0.64151256   -7.3492075    328.52088  0.017904997  0.016904943          185 
 1530000   0.64521799   -7.3206645    328.95167  0.017916758  0.016890339          199 
 1531000   0.64629445   -7.3488882    328.83522  0.017898716  0.016875741          128 
 1532000   0.64025415   -7.3491741     329.2964  0.017912119  0.016861126          250 
 1533000    0.6563784   -7.3457453    328.40455  0.017851954  0.016846535          249 
 1534000   0.64065877   -7.3284968    329.07338   0.01787665  0.016831966          156 
 1535000   0.63427674   -7.3180069    329.03888  0.017863131  0.016817449          199 
 1536000   0.64931843   -7.3284319    328.83938  0.017840678  0.016802912          250 
 1537000   0.64441896    -7.327732    328.62656  0.017817532  0.016788357          187 
 1538000   0.64698457   -7.3222481    329.20777  0.017837439  0.016773825          151 
 1539000   0.64360886   -7.3505087    328.60819  0.017793383   0.01675932          162 
 1540000   0.64265782   -7.3331974    328.73895  0.017788904  0.016744811          247 
 1541000   0.64600057   -7.3339013    328.31112  0.017754224  0.016730291          175 
 1542000    0.6366919    -7.343805    328.16069  0.017734581  0.016715769          269 
 1543000   0.64190455   -7.3470456    328.85492  0.017760581   0.01670126          250 
 1544000   0.62578175   -7.3363537    328.61229  0.017735983  0.016686768          127 
 1545000   0.63892765   -7.3511392    327.83763   0.01768272  0.016672287          275 
 1546000   0.63587249   -7.3411373    328.36232  0.017699564  0.016657803          316 
 1547000   0.63900444   -7.3771694     328.5666  0.017699127  0.016643314          268 
 1548000    0.6435539   -7.3771231    328.13634  0.017664531  0.016628819          265 
 1549000   0.62917999   -7.3426753    328.91488  0.017695012  0.016614335          242 
 1550000   0.63848129   -7.3655677     328.6556  0.017669656  0.016599886          175 
 1551000   0.63684123   -7.3688335    327.22043  0.017581153  0.016585393          342 
 1552000   0.63641076    -7.365016    327.61413  0.017590965  0.016570943          334 
 1553000    0.6204092   -7.3723567    327.45968   0.01757135  0.016556486          312 
 1554000    0.6488475   -7.3666431    327.55884   0.01756536  0.016542046          256 
 1555000   0.63990383   -7.3522462    328.25272   0.01759125  0.016527621          272 
 1556000   0.62088171   -7.3793526    327.45091  0.017537002  0.016513203          307 
 1557000   0.62816998   -7.3676338    327.84113  0.017546624  0.016498791          199 
 1558000   0.64094251   -7.3749077    327.00015  0.017490381  0.016484407          259 
 1559000   0.64642723   -7.3821188     328.0182  0.017533579  0.016470018          143 
 1560000   0.62191094   -7.3914957    328.43451  0.017544578   0.01645564          232 
 1561000   0.63163247   -7.3814254    328.16476  0.017518938  0.016441276          283 
 1562000   0.62073834   -7.3800059    327.91954   0.01749464  0.016426916          317 
 1563000   0.63949923   -7.4048603    327.38307  0.017454845  0.016412559          338 
 1564000   0.64355242   -7.3717151    328.56724   0.01750678  0.016398221          339 
 1565000   0.62925345   -7.3757848     327.0477  0.017414681  0.016383924          309 
 1566000   0.63166724   -7.3754254    328.01265  0.017454909  0.016369609          297 
 1567000   0.64025631   -7.3909991      328.235  0.017455594  0.016355317          202 
 1568000   0.64976316   -7.4022583    327.63011  0.017412314  0.016340999          365 
 1569000   0.63196326   -7.3680175    328.37493  0.017440776  0.016326714          306 
 1570000    0.6344986   -7.4038875    327.37242  0.017376455  0.016312445          303 
 1571000    0.6220774   -7.3871829    328.03693  0.017400643  0.016298161          317 
 1572000   0.62868344   -7.3806881     328.1712  0.017396692  0.016283916          324 
 1573000   0.62793011   -7.3940651    327.99712   0.01737641   0.01626969          168 
 1574000   0.61704322   -7.3871798    327.65939   0.01734749  0.016255483          165 
 1575000   0.61758437   -7.4163956    327.40701  0.017323122  0.016241271          294 
 1576000   0.61982345   -7.3880214    327.37831  0.017310613   0.01622706          310 
 1577000   0.63034728    -7.393316    327.52245  0.017307253  0.016212858          351 
 1578000   0.61794673   -7.3902461    327.58647  0.017299666  0.016198699          243 
 1579000   0.63629831   -7.3851054    328.44217   0.01733387  0.016184589          279 
 1580000   0.62584122   -7.3883175    327.19337  0.017257034  0.016170468          296 
 1581000   0.63484562   -7.4112672     327.4519  0.017259746  0.016156364          325 
 1582000   0.62414852   -7.3902046     327.8647  0.017270581  0.016142281          294 
 1583000   0.62249433   -7.4047955    328.07389  0.017270683  0.016128183          402 
 1584000   0.62321531   -7.4158305    327.01403  0.017204021  0.016114103          476 
 1585000   0.62825513   -7.4135001    327.49973  0.017218703  0.016100059          491 
 1586000   0.64009866   -7.3986497    327.71242  0.017219022  0.016086006          491 
 1587000   0.61345291   -7.4088863    327.80966  0.017213278  0.016071948          449 
 1588000   0.62286889   -7.4117851    327.62376  0.017192683  0.016057935          489 
 1589000    0.6097588   -7.4016187    328.01123  0.017202183  0.016043932          343 
 1590000   0.59759051    -7.400597    327.88025  0.017184499  0.016029946          462 
 1591000   0.62066087   -7.3837102    327.96182  0.017177971  0.016015971          444 
 1592000   0.62799377   -7.4084936    327.85194  0.017161429  0.016001995          343 
 1593000   0.62564856    -7.411468    327.12767  0.017112768  0.015988016          424 
 1594000   0.61954485   -7.4202911    326.79596   0.01708469  0.015974067          503 
 1595000   0.61520371    -7.416484    327.96974  0.017135305  0.015960125          456 
 1596000   0.63070413   -7.4048566    327.41539  0.017095624  0.015946185          336 
 1597000   0.61564178   -7.4254588    326.63362  0.017044126  0.015932233          478 
 1598000   0.61038829   -7.4322338    326.71769  0.017037844  0.015918284          438 
 1599000    0.6021594   -7.4148177    327.43369  0.017064503  0.015904354          418 
 1600000   0.63012732   -7.4017844    327.20767  0.017042066   0.01589043          437 
 1601000   0.61445921   -7.4227071    327.05093  0.017023263  0.015876496          524 
 1602000   0.61358104   -7.4225166    327.00219  0.017010101  0.015862558          544 
 1603000     0.621892   -7.4162884    327.03334   0.01700111  0.015848639          417 
 1604000   0.61394011   -7.4344245    327.15244  0.016996698  0.015834755          358 
 1605000   0.60703967   -7.4359057    327.21222  0.016989212  0.015820894          538 
 1606000   0.61652342   -7.3996624    327.49698  0.016993409  0.015807048          419 
 1607000   0.61015583   -7.3987737    327.28581  0.016971884  0.015793234          396 
 1608000   0.61052542   -7.4282924    326.99573  0.016946296  0.015779392          378 
 1609000    0.6026034   -7.4335391     327.2645  0.016949684  0.015765564          390 
 1610000    0.6031214   -7.4279316    327.59419  0.016956221  0.015751738          505 
 1611000   0.61600457   -7.4329942    327.07344  0.016918758  0.015737919          499 
 1612000   0.60532927   -7.4377674    326.38711  0.016872783  0.015724092          432 
 1613000   0.60684416   -7.4284842     326.7403   0.01688057  0.015710273          343 
 1614000   0.59938313   -7.4462234    327.01111  0.016884093  0.015696478          459 
 1615000   0.62628498   -7.4471434    326.98496  0.016872289  0.015682696          379 
 1616000   0.60998724   -7.4385241    327.04651  0.016865022   0.01566892          533 
 1617000   0.62328752   -7.4363494    327.28187  0.016866722  0.015655169          438 
 1618000   0.62473423   -7.4695404    326.35587  0.016808605  0.015641457          473 
 1619000   0.60307677   -7.4454754    326.72875  0.016817416  0.015627718          424 
 1620000    0.6154363   -7.4447641    327.38036  0.016840554  0.015614014          509 
 1621000   0.61556081   -7.4493102    326.88788  0.016804847  0.015600317          399 
 1622000    0.6044307   -7.4551235    326.67762  0.016783684  0.015586642          363 
 1623000   0.61418743   -7.4372332    326.49562  0.016763998  0.015572978          317 
 1624000   0.61454535   -7.4448804    326.51857  0.016754853  0.015559325          542 
 1625000   0.61801089   -7.4537472    326.51804  0.016744515  0.015545692          643 
 1626000   0.60828228   -7.4415431    326.29714  0.016722895   0.01553205          464 
 1627000   0.60016158   -7.4402149    327.42801   0.01677054  0.015518484          484 
 1628000   0.59262868   -7.4505256    326.92123  0.016734297  0.015504907          425 
 1629000   0.60629291   -7.4472519    326.85752  0.016720765  0.015491324          539 
 1630000   0.60693487    -7.457639    326.36461  0.016685307  0.015477736          477 
 1631000   0.60334101   -7.4489228    326.68429  0.016691411  0.015464168          583 
 1632000   0.60849918   -7.4679359    326.60545  0.016677157  0.015450627          463 
 1633000   0.60816355   -7.4519743    326.88743  0.016681334  0.015437117          613 
 1634000   0.60186335     -7.45112    327.04439  0.016679131  0.015423607          455 
 1635000    0.5961519   -7.4340473    327.42733  0.016688447  0.015410125          489 
 1636000   0.59672138   -7.4432494     326.9153  0.016652165  0.015396653          460 
 1637000   0.61370042   -7.4767588    326.34011  0.016612712  0.015383167          504 
 1638000    0.6024283   -7.4681482    326.17196  0.016594015  0.015369707          610 
 1639000   0.59530655   -7.4664703    325.91905  0.016571032  0.015356274          385 
 1640000   0.59502151   -7.4521472    326.78675  0.016605018  0.015342823          557 
 1641000   0.61132268   -7.4737315    326.43827  0.016577202  0.015329374          599 
 1642000    0.6062745   -7.4790112    326.16517  0.016553247  0.015315933          468 
 1643000   0.60257793   -7.4855074    326.18778  0.016544318  0.015302498          547 
 1644000   0.60234293   -7.4809706    326.53824   0.01655202  0.015289087          529 
 1645000   0.58834277   -7.4694497    325.98883  0.016514125  0.015275662          646 
 1646000   0.59526738   -7.4522002    326.91392  0.016550927  0.015262277          501 
 1647000   0.60388586   -7.4705204    326.25615  0.016507597  0.015248903          578 
 1648000   0.59693279   -7.4646381    326.70551  0.016520303  0.015235552          596 
 1649000   0.59369341   -7.4905929    325.86594  0.016467856  0.015222177          572 
 1650000   0.60639139   -7.4698923     326.5051  0.016490157  0.015208823          505 
 1651000   0.59826166   -7.4686281    326.72831  0.016491435  0.015195495          502 
 1652000    0.5858862   -7.4760049    325.96284  0.016442839  0.015182189          523 
 1653000   0.59111663   -7.4869547     326.5808  0.016464045  0.015168882          663 
 1654000   0.58705138    -7.490772    326.34588  0.016442255  0.015155618          585 
 1655000   0.60255203   -7.4708765    325.97961  0.016413878  0.015142348          513 
 1656000    0.5931523   -7.4711394    326.68849  0.016439638  0.015129081          558 
 1657000    0.5966102   -7.4739347    326.54123  0.016422311   0.01511584          570 
 1658000   0.57791123    -7.482741    326.33078  0.016401828  0.015102619          545 
 1659000   0.58351597   -7.4910396    326.53656  0.016402279  0.015089404          647 
 1660000   0.59102503   -7.4905966    326.45682  0.016388394  0.015076182          594 
 1661000   0.60435065   -7.4826399    326.05318  0.016358277  0.015062958          610 
 1662000   0.59296564   -7.4947294    325.55313  0.016323362   0.01504977          585 
 1663000   0.58483694   -7.4816987     326.0423  0.016338059  0.015036591          616 
 1664000   0.59504024   -7.5086942     325.5902  0.016305599  0.015023449          682 
 1665000   0.57221082   -7.4999179    326.42998  0.016337837  0.015010311          622 
 1666000   0.58596643   -7.4622447     326.0397  0.016308508  0.014997171          558 
 1667000   0.57048757   -7.4941955    326.59532  0.016326501  0.014984051          707 
 1668000   0.59044999   -7.4642851    325.82621  0.016278288  0.014970949          781 
 1669000   0.60132493   -7.4905299    325.71617   0.01626304  0.014957853          717 
 1670000   0.59013089   -7.4599618    326.25862   0.01628037   0.01494478          728 
 1671000   0.58093671   -7.4931684     326.4339  0.016279369  0.014931732          719 
 1672000   0.57908872    -7.490327    325.71722  0.016233912  0.014918674          788 
 1673000   0.57670544   -7.5000164    325.83334  0.016229993  0.014905614          654 
 1674000   0.60554885    -7.487449    326.19866  0.016238484  0.014892582          714 
 1675000   0.58176642   -7.4843765    326.53121  0.016245334   0.01487957          659 
 1676000   0.57833395   -7.4918655    325.92423  0.016205461  0.014866583          745 
 1677000   0.57931338   -7.4764235    326.85587  0.016242093  0.014853622          649 
 1678000   0.58707666    -7.494386    326.33185  0.016206389  0.014840655          737 
 1679000   0.58284394   -7.4931893    326.53892  0.016207014  0.014827684          799 
 1680000   0.58901125    -7.497964    326.04069  0.016172654  0.014814734          777 
 1681000   0.58812424   -7.4922204    325.94818  0.016158446  0.014801774          560 
 1682000   0.58314899   -7.5086654    325.94543  0.016148703  0.014788844          725 
 1683000   0.58697506   -7.5184766    325.87862    0.0161358  0.014775896          660 
 1684000   0.57653733   -7.5179947    325.84056  0.016124335  0.014762957          696 
 1685000   0.57600733   -7.4979877    326.31047  0.016138005  0.014750039          744 
 1686000   0.58975039   -7.4926705    325.86203  0.016106269  0.014737147          780 
 1687000   0.58202975   -7.5181496    325.92325  0.016099746  0.014724266          617 
 1688000   0.58776249   -7.5048219    326.11652  0.016099749  0.014711394          582 
 1689000   0.58075422   -7.5245556    325.53028  0.016061292  0.014698508          780 
 1690000   0.56259316   -7.5179752    324.95255  0.016023301  0.014685623          885 
 1691000   0.58292277   -7.5229367    324.97884  0.016015121  0.014672762          764 
 1692000     0.559073   -7.5096891    325.28728  0.016020847  0.014659907          782 
 1693000   0.58078579    -7.508051     325.5673  0.016025167  0.014647087          741 
 1694000   0.56963383   -7.5339295    326.32321  0.016052893  0.014634282          783 
 1695000   0.58038582   -7.5036168     326.1021  0.016032551  0.014621487          759 
 1696000    0.5871232   -7.5107854    325.78088  0.016007315  0.014608705          710 
 1697000   0.57175555   -7.5186799    325.92992  0.016005202  0.014595953          766 
 1698000   0.58200795   -7.5130099    326.01732  0.016000065  0.014583224          855 
 1699000   0.58112699   -7.5073404    326.07663  0.015993556  0.014570484          776 
 1700000   0.56910619   -7.5128686    325.39537  0.015950753  0.014557766          785 
 1701000   0.58462395   -7.5071838    326.20335   0.01598096  0.014545048          693 
 1702000   0.56452516    -7.524379    326.02207  0.015962695  0.014532347          743 
 1703000   0.57906291   -7.5331258    324.84988  0.015895962  0.014519648          820 
 1704000   0.56533051   -7.5206463    325.56823  0.015921764   0.01450695          804 
 1705000   0.56841335   -7.5249481     325.9465  0.015930914  0.014494234          611 
 1706000   0.57582616   -7.5064634    325.90807  0.015919699  0.014481569          641 
 1707000   0.58021616   -7.5385584    325.10981  0.015871403  0.014468921          806 
 1708000   0.56344282   -7.5211358    325.66394  0.015889146  0.014456276          666 
 1709000    0.5739173   -7.5070483    325.71438  0.015882308  0.014443651          785 
 1710000   0.57600797   -7.5183946    325.07908   0.01584206  0.014431024          779 
 1711000   0.56588235   -7.5284114    325.26401  0.015841808  0.014418423          676 
 1712000   0.55193845   -7.5223068    325.67263  0.015852445  0.014405838          813 
 1713000   0.57596074   -7.5082994    326.07933  0.015862976  0.014393273          796 
 1714000   0.57644926   -7.5234248    325.44131  0.015822701  0.014380707          752 
 1715000   0.56825442    -7.521716     326.0641  0.015843737  0.014368167          774 
 1716000   0.57114743   -7.5121901    325.37773  0.015801172  0.014355635          785 
 1717000   0.56769968   -7.5166468    325.39228  0.015792675  0.014343118          706 
 1718000   0.56652975   -7.5297177    325.26127  0.015777128  0.014330624          822 
 1719000   0.57932206   -7.5386424    325.32134  0.015770862  0.014318129          784 
 1720000   0.57457228   -7.5332468     325.5646  0.015773479  0.014305628          808 
 1721000   0.56200186    -7.524233    325.06355  0.015740052  0.014293154          817 
 1722000   0.55979039   -7.5316466    325.52813  0.015753394  0.014280684          805 
 1723000   0.55513776   -7.5317231    324.96417  0.015716975  0.014268228          809 
 1724000   0.56953149   -7.5537212    324.32811  0.015677113  0.014255774          852 
 1725000   0.57073147   -7.5526623     325.7937  0.015738826  0.014243334          775 
 1726000   0.56736702   -7.5542462    325.01387  0.015692056  0.014230926          746 
 1727000   0.56481509   -7.5257576    324.70853  0.015668236   0.01421852          740 
 1728000   0.55087363   -7.5431848    325.21967  0.015683819  0.014206105          829 
 1729000   0.56480717   -7.5410625    324.88678  0.015658703  0.014193712          851 
 1730000   0.55217982   -7.5507637     325.0222  0.015656175  0.014181334          936 
 1731000   0.56148595   -7.5572869    324.97466  0.015644842  0.014168958          936 
 1732000   0.55009608   -7.5408024    325.08054  0.015640903  0.014156608          812 
 1733000   0.56516691    -7.525159    325.13294  0.015634398  0.014144255          817 
 1734000   0.58191478   -7.5428732    325.17708  0.015627503  0.014131932          838 
 1735000   0.56220263   -7.5289485    324.66656  0.015593975  0.014119625          858 
 1736000   0.55795577   -7.5495782    325.47381  0.015623743  0.014107316          833 
 1737000   0.55844037   -7.5659057    325.45783  0.015613982  0.014095023          839 
 1738000   0.54949115   -7.5475303    325.12041  0.015588819  0.014082744          959 
 1739000   0.56049846   -7.5462831    325.26457  0.015586763  0.014070463          945 
 1740000   0.56823359   -7.5476999    325.26368  0.015577762  0.014058208          852 
 1741000   0.55700233   -7.5453301       325.33  0.015571989  0.014045981          868 
 1742000   0.55776064   -7.5709329    324.65729  0.015530869  0.014033756          853 
 1743000    0.5485381   -7.5584224    324.32348  0.015505999  0.014021527          907 
 1744000   0.55354086   -7.5525968    324.83301  0.015521455  0.014009298          803 
 1745000   0.54290322   -7.5563675    325.05617  0.015523217  0.013997093          751 
 1746000   0.56102195   -7.5563404    324.88139  0.015505985  0.013984899          888 
 1747000   0.55649073   -7.5582415    325.14467  0.015509668  0.013972735          905 
 1748000   0.55973372    -7.563558    324.64332  0.015476894  0.013960572          846 
 1749000   0.54942435   -7.5652094    324.95085  0.015482697  0.013948401          836 
 1750000   0.54372629   -7.5528741    324.38483  0.015446897  0.013936237          862 
 1751000   0.55865443   -7.5437867    324.67943  0.015452096  0.013924089          842 
 1752000   0.55512852   -7.5489593    324.87215  0.015452442  0.013911955          852 
 1753000    0.5513776    -7.579392    324.34375  0.015418509  0.013899836          864 
 1754000   0.56088627   -7.5573985    324.53253  0.015418687   0.01388775          698 
 1755000   0.55309324   -7.5573055    324.89525  0.015427125  0.013875681          775 
 1756000   0.54529991   -7.5616691    324.64134   0.01540629  0.013863601          703 
 1757000   0.54941057     -7.57297    325.18718   0.01542341  0.013851538          818 
 1758000   0.55895849   -7.5556524    325.09881  0.015410448  0.013839483          802 
 1759000   0.55607512   -7.5873767     324.5434  0.015375374  0.013827433          709 
 1760000   0.54311327   -7.5657136    324.86396  0.015381816  0.013815404          856 
 1761000   0.54482056   -7.5784084    324.91312  0.015375408  0.013803389          916 
 1762000   0.54893071    -7.558105    324.56872  0.015350394  0.013791374          807 
 1763000   0.55205487    -7.578008    325.33848  0.015378072  0.013779368          918 
 1764000   0.53296107   -7.5694218    324.90366  0.015348813  0.013767386          907 
 1765000   0.55555318   -7.5651956    324.17398  0.015305665  0.013755407          859 
 1766000   0.55099891    -7.573683    324.58162  0.015316233  0.013743426          936 
 1767000    0.5487355   -7.5961351    323.76014  0.015268824  0.013731454          915 
 1768000   0.54471226   -7.5798748    324.88756  0.015313328  0.013719509          915 
 1769000   0.54389674   -7.5586244    325.05046  0.015312345  0.013707565          690 
 1770000   0.54859108   -7.5804112    324.04616  0.015256411  0.013695652          948 
 1771000   0.54696546    -7.585841    324.21344  0.015255667  0.013683745          875 
 1772000   0.55452212   -7.5749447     324.8208  0.015275621  0.013671848          858 
 1773000    0.5436891   -7.5937899     324.4238  0.015248346  0.013659951          747 
 1774000   0.55358169   -7.5771407    324.44227  0.015240618  0.013648076          894 
 1775000   0.52924258   -7.5646531    323.87259  0.015205286  0.013636218          838 
 1776000   0.55078094   -7.5844334    324.70076  0.015235584  0.013624349          803 
 1777000   0.54375264   -7.5921886    324.87697  0.015235273   0.01361251          882 
 1778000   0.53349221   -7.5796609     324.1923  0.015194615  0.013600668          809 
 1779000   0.53385381   -7.5816904    324.60735  0.015205516  0.013588832          740 
 1780000   0.53604777   -7.5930599     324.4919  0.015191569  0.013577024          772 
 1781000   0.54262791   -7.5943475    324.10436  0.015164905  0.013565233          771 
 1782000   0.54871423   -7.5906633    324.29956  0.015165524  0.013553458          589 
 1783000   0.53477745   -7.5834527    324.49688   0.01516624  0.013541692          793 
 1784000   0.52769755   -7.6001607    324.39919  0.015153176  0.013529925          824 
 1785000   0.55825563   -7.5976098    324.27328  0.015138809  0.013518171          814 
 1786000   0.53802568   -7.5848444    324.54891  0.015143193  0.013506424          617 
 1787000   0.55364125   -7.6013476    323.69988  0.015095126  0.013494705          793 
 1788000   0.54326554    -7.593138    323.90449   0.01509622  0.013482992          858 
 1789000   0.53908271   -7.5885703    324.04959   0.01509454  0.013471279          696 
 1790000   0.53578216    -7.586587    324.45978  0.015105204  0.013459587          843 
 1791000   0.53932163   -7.6118177    324.33286  0.015090865  0.013447906          873 
 1792000   0.54023159   -7.6125446    324.26171  0.015079135  0.013436245          870 
 1793000   0.53311522   -7.5993281    323.81126  0.015049789  0.013424579          836 
 1794000   0.54033373   -7.5985609    323.32954  0.015019024  0.013412935          806 
 1795000   0.54021302   -7.6151439    323.89114  0.015036729  0.013401305          824 
 1796000   0.53888904   -7.5947649     324.3706  0.015050603  0.013389672          760 
 1797000   0.53211592   -7.5842734    324.02991  0.015026429  0.013378066          748 
 1798000   0.53708226   -7.6070068    324.43277  0.015036743  0.013366469          834 
 1799000   0.53379372   -7.5861946    323.98445  0.015007618  0.013354892          846 
 1800000   0.53014168   -7.5769055    324.47853  0.015022154  0.013343313          850 
 1801000   0.52803366   -7.6030869    323.91787  0.014987871  0.013331752          854 
 1802000   0.52779654   -7.5951933    323.90416   0.01497892  0.013320182          853 
 1803000   0.53362639   -7.5817122    324.65961  0.015005528  0.013308635          801 
 1804000   0.54622168   -7.5937522    323.96706  0.014965219  0.013297093          785 
 1805000   0.52161332   -7.5921689    324.41506  0.014977611  0.013285564          823 
 1806000   0.53676635   -7.6047419    324.13788  0.014956528  0.013274045          815 
 1807000   0.55157726   -7.5880252    323.98372  0.014941142  0.013262541          707 
 1808000   0.53129868   -7.6054944    323.60732  0.014915529  0.013251056          839 
 1809000   0.52253536   -7.6176154    323.90094   0.01492081  0.013239585          855 
 1810000   0.53411821   -7.6211183    324.42361   0.01493663  0.013228116          835 
 1811000   0.52038141   -7.6030777    323.59548  0.014890276  0.013216656          778 
 1812000   0.53781208   -7.6224945    324.01345  0.014901281  0.013205216          835 
 1813000   0.53488343   -7.6081139    323.93788  0.014889588  0.013193793          892 
 1814000   0.53095188   -7.6000461     323.7712  0.014873723  0.013182382          898 
 1815000   0.52703286   -7.6156128    323.92333  0.014872513  0.013170971          903 
 1816000   0.52462319   -7.6027953    323.76335  0.014856982  0.013159583          801 
 1817000   0.52688316    -7.620145    324.12781  0.014865521   0.01314822          866 
 1818000   0.53704971   -7.5978269    323.81631  0.014843065  0.013136845          873 
 1819000    0.5225787   -7.6054338    324.46501  0.014864624  0.013125495          932 
 1820000   0.51636667    -7.608263    323.54581  0.014814368  0.013114158          940 
 1821000   0.52700655    -7.597752     323.8303  0.014819252  0.013102828         1014 
 1822000   0.51460299    -7.609214    323.83833  0.014811486  0.013091515          908 
 1823000   0.53601607    -7.639604    323.58553  0.014791805  0.013080212          870 
 1824000   0.52099693   -7.6045665    323.99266  0.014802296  0.013068934          877 
 1825000   0.51741879   -7.6236355    323.09672  0.014753275   0.01305764          857 
 1826000   0.52155359   -7.6168138    323.95797    0.0147845  0.013046377          911 
 1827000    0.5243967    -7.604124    323.71088  0.014765138  0.013035137          857 
 1828000   0.52630268   -7.6084908    323.75988  0.014759294  0.013023898          852 
 1829000   0.53168672   -7.6175323    323.66453   0.01474688   0.01301268          825 
 1830000   0.51161957   -7.6263345    323.63268  0.014737372  0.013001464          803 
 1831000   0.50988536   -7.6270866    323.70422  0.014732579  0.012990259          777 
 1832000   0.51018963   -7.6305367     323.4595  0.014713405  0.012979076          838 
 1833000   0.51927339   -7.6244693    323.18422  0.014692863  0.012967899          773 
 1834000   0.52566613   -7.6197349    323.49604   0.01469902  0.012956727          790 
 1835000   0.52429059    -7.630816    323.80327  0.014704962  0.012945572          717 
 1836000   0.52339057    -7.626812    323.52923  0.014684515  0.012934424          783 
 1837000   0.51949819   -7.6265717    323.78708  0.014688218  0.012923283          785 
 1838000   0.51315483   -7.6266057    323.74336  0.014678245  0.012912129          831 
 1839000    0.5186141   -7.6399147    323.29784  0.014650074  0.012901003          909 
 1840000   0.51993026   -7.6220549    323.74203   0.01466223  0.012889886          823 
 1841000   0.51227535   -7.6330409    322.98333  0.014619922  0.012878781          750 
 1842000   0.51144419   -7.6562519    323.31096  0.014626808  0.012867686          728 
 1843000    0.5257574   -7.6329541     323.1431  0.014611282  0.012856609          781 
 1844000   0.53251668    -7.629045    324.25707    0.0146537  0.012845549          807 
 1845000   0.51884996   -7.6195068    323.96144  0.014632405    0.0128345          819 
 1846000   0.50983194   -7.6154981    323.51532  0.014604339  0.012823457          826 
 1847000   0.51856955   -7.6273002    324.21771  0.014628123  0.012812437          667 
 1848000   0.50931195   -7.6386578    323.58588  0.014591715  0.012801411          828 
 1849000   0.51934438   -7.6314161    323.34516  0.014572975  0.012790407          822 
 1850000   0.52191796    -7.649644    323.02745  0.014550786  0.012779414          873 
 1851000   0.51156676   -7.6388747    323.40515  0.014559929  0.012768432          730 
 1852000   0.51213804   -7.6257622    323.65361  0.014563247   0.01275747          911 
 1853000   0.52253577   -7.6358073     323.3836  0.014543245  0.012746513          884 
 1854000    0.5209174   -7.6405941    323.88431  0.014557907  0.012735576          784 
 1855000   0.51081646   -7.6418738    323.54412  0.014534776  0.012724648          813 
 1856000   0.49786838   -7.6275551    323.36443  0.014518877  0.012713719          777 
 1857000   0.49487192   -7.6409471    323.02766  0.014495946  0.012702802          733 
 1858000   0.51534821   -7.6494414    322.84955  0.014480155  0.012691898          859 
 1859000   0.52701118   -7.6423647    323.02741  0.014480339  0.012681014          751 
 1860000   0.51656887   -7.6407921    323.69909  0.014502647  0.012670122          807 
 1861000   0.50971382   -7.6353906    323.28571  0.014476344  0.012659252          783 
 1862000    0.4956621   -7.6535285    323.48972    0.0144777  0.012648394          783 
 1863000    0.5115882   -7.6429287    323.26449  0.014459854  0.012637543          860 
 1864000    0.5104588   -7.6431976    322.86595  0.014434279  0.012626699          871 
 1865000   0.50058162   -7.6456976    323.29458  0.014445692  0.012615871          804 
 1866000   0.50336589    -7.638262    322.87743  0.014419321  0.012605051          834 
 1867000   0.50438788   -7.6559655    323.39457   0.01443468  0.012594245          794 
 1868000    0.5075601    -7.636719     323.3181  0.014423541  0.012583444          866 
 1869000   0.50439244   -7.6380117    322.70473  0.014388475  0.012572664          868 
 1870000   0.51542245   -7.6525892    322.94961  0.014391694  0.012561906          876 
 1871000   0.50878013   -7.6572654    323.21618  0.014395875  0.012551155          889 
 1872000   0.50197286   -7.6510142    322.53573  0.014357894  0.012540409          823 
 1873000    0.5135292     -7.64677    323.16984  0.014378441  0.012529668          933 
 1874000   0.50552542   -7.6579679    323.33352  0.014378047  0.012518947          868 
 1875000   0.49500862    -7.647547    322.93618  0.014352719  0.012508235          839 
 1876000   0.50144916   -7.6543858    323.22657  0.014357968   0.01249756          855 
 1877000   0.49600118   -7.6580922    323.02264  0.014341265  0.012486874          874 
 1878000   0.50746353   -7.6591917    322.32574  0.014302704  0.012476204          868 
 1879000   0.50186056   -7.6525326    323.41231  0.014343282  0.012465537          865 
 1880000   0.50886163   -7.6742394    323.02351  0.014318418  0.012454868          907 
 1881000   0.50109596   -7.6649009    322.97374  0.014308601  0.012444218          897 
 1882000   0.50398454    -7.654017    322.89645  0.014297576  0.012433573          902 
 1883000   0.51886045   -7.6519268    322.41841  0.014268827  0.012422945          810 
 1884000   0.49853193   -7.6685302    322.91014  0.014283003  0.012412321          828 
 1885000   0.50086822   -7.6636337    323.34889  0.014294823   0.01240172          833 
 1886000   0.49391958   -7.6633679    322.16134  0.014234771  0.012391116          821 
 1887000   0.48421874   -7.6618058     322.5037  0.014242347  0.012380528          792 
 1888000   0.48690221   -7.6594601    323.50956    0.0142792  0.012369949          749 
 1889000   0.49111621   -7.6845225    322.63253  0.014232951  0.012359394          893 
 1890000   0.49779003   -7.6560446    323.07865   0.01424509  0.012348837          881 
 1891000   0.50120067   -7.6833624     323.1795  0.014242002  0.012338302          910 
 1892000   0.48930502   -7.6508617    322.83608  0.014219348  0.012327766          822 
 1893000   0.49826141   -7.6619371    322.62207  0.014202415  0.012317239          839 
 1894000   0.50537159   -7.6868223    322.31839  0.014181556  0.012306731          816 
 1895000   0.50373822    -7.670711     323.0191  0.014204886  0.012296225          884 
 1896000   0.49834332   -7.6598521    322.86788  0.014190747  0.012285734          872 
 1897000   0.48681087   -7.6603832    323.30608  0.014202516  0.012275261          858 
 1898000   0.50040444   -7.6780048    322.63217  0.014165445  0.012264799          842 
 1899000   0.51185927    -7.668215    322.79512  0.014165136  0.012254345          827 
 1900000   0.48864623   -7.6788376    322.88384  0.014161572  0.012243894          854 
 1901000   0.49247051    -7.670425    322.40247  0.014133021  0.012233466          977 
 1902000   0.48561529   -7.6815803    322.46229  0.014128211  0.012223043          856 
 1903000   0.49135343   -7.6582099    322.87987  0.014139073  0.012212624          902 
 1904000   0.50499663   -7.6706529    322.63425  0.014120897  0.012202216          946 
 1905000   0.49527801   -7.6597965     322.8003  0.014120748  0.012191829          900 
 1906000   0.48776491   -7.6647863    322.58751  0.014104036  0.012181438          999 
 1907000   0.49954544   -7.6804616    322.50795  0.014093163  0.012171074          906 
 1908000   0.49234313   -7.6736164    322.58043  0.014088942  0.012160724          943 
 1909000   0.50131106   -7.6724403    322.12157  0.014061532  0.012150379          849 
 1910000   0.48487971   -7.6798695    322.58481  0.014074381  0.012140042          905 
 1911000   0.48568798    -7.674068    322.56602  0.014066197  0.012129731          906 
 1912000   0.49360992   -7.6707853    322.87288  0.014072214  0.012119422          870 
 1913000   0.49297193   -7.6711178    322.37343  0.014043101  0.012109134          908 
 1914000    0.4853381    -7.669778    323.14534  0.014069372  0.012098848          815 
 1915000   0.49803296   -7.6757176    322.77902  0.014046085  0.012088573          901 
 1916000   0.48978467   -7.6695061     322.5252  0.014027714  0.012078292          902 
 1917000   0.48858473   -7.6769572    322.27467  0.014009506   0.01206803          868 
 1918000    0.4863959   -7.6821776    322.59881  0.014016285  0.012057775          839 
 1919000    0.5003723   -7.6701316    322.26006   0.01399427  0.012047536          871 
 1920000   0.49070281   -7.6650057      322.333  0.013990148  0.012037308          911 
 1921000    0.4869792   -7.6664942    323.00092  0.014011839  0.012027084          878 
 1922000   0.47848667   -7.6772382    322.69611  0.013991333  0.012016877          970 
 1923000    0.4903709   -7.6725638    322.29422  0.013966642  0.012006683          928 
 1924000   0.48852939   -7.6923459    322.20117  0.013955352  0.011996501          941 
 1925000   0.48438604    -7.687634    322.92872  0.013979598  0.011986325          833 
 1926000    0.4768363   -7.6973048    322.39147  0.013949094  0.011976154          902 
 1927000   0.47619784   -7.6756761    322.64526  0.013952831  0.011965992          883 
 1928000   0.48252915   -7.6987463    322.61389  0.013944238  0.011955839          875 
 1929000   0.48241323   -7.6819359    321.97939  0.013909599  0.011945704          932 
 1930000   0.48178818   -7.6897404    322.53893  0.013926551  0.011935589          923 
 1931000   0.48600527   -7.6829447     322.4978  0.013917564  0.011925469          905 
 1932000   0.48570471   -7.6830539    322.58872  0.013914282  0.011915371          867 
 1933000   0.47667247   -7.6903478    322.51598  0.013903948  0.011905272          903 
 1934000   0.47463016   -7.6812488     322.4385  0.013893421  0.011895188          887 
 1935000   0.47574422   -7.6939919    321.99378  0.013867088  0.011885106          880 
 1936000   0.49371942   -7.6795392    322.13665  0.013866075  0.011875042          925 
 1937000   0.48276783   -7.6902606    322.21307  0.013862204  0.011864984          810 
 1938000   0.48621426   -7.7047004    322.80811  0.013880638  0.011854944          868 
 1939000   0.48612055   -7.6966873    322.57052  0.013863268  0.011844913          903 
 1940000   0.48117031   -7.6813176    322.35073  0.013846681  0.011834904          885 
 1941000    0.4717008   -7.6846765    322.26524  0.013835877  0.011824902          931 
 1942000   0.48689017   -7.6984286    322.12397   0.01382269  0.011814904          919 
 1943000   0.48194028    -7.690168    322.67566  0.013839238  0.011804918          825 
 1944000   0.47627409   -7.7108543    322.50824  0.013824942  0.011794936          839 
 1945000   0.46947212   -7.7247972      322.243   0.01380647  0.011784968          949 
 1946000   0.46912008   -7.6987856    322.58025  0.013813817  0.011775025          857 
 1947000   0.48164765   -7.6996703    321.73845  0.013770692  0.011765081          920 
 1948000   0.47850708   -7.6920138    322.08898  0.013778618  0.011755153          852 
 1949000   0.48151222   -7.7151757    322.23405  0.013777751  0.011745238          840 
 1950000   0.47379025   -7.7098462    322.82481  0.013795932  0.011735315          809 
 1951000   0.48191177   -7.6909829    321.88018  0.013748513  0.011725413          867 
 1952000   0.47638754   -7.6975316    322.24103  0.013756874  0.011715525          928 
 1953000   0.47883409   -7.7201505     321.9005    0.0137353  0.011705643          897 
 1954000   0.47231042   -7.7061669    322.21569  0.013741713   0.01169576          872 
 1955000   0.46371717   -7.7027899    322.00549  0.013725724  0.011685896          924 
 1956000   0.47180972   -7.7064439    321.78412  0.013709276  0.011676043          939 
 1957000   0.46752308    -7.713016    322.73619  0.013742812  0.011666205          857 
 1958000   0.47605698   -7.7026027    322.48272  0.013725005   0.01165638          748 
 1959000   0.47047653   -7.7166223    321.81522  0.013689604  0.011646568          854 
 1960000   0.45794941   -7.7016204    322.35528  0.013705582  0.011636765          817 
 1961000   0.47523536   -7.7086701    321.55576  0.013664617  0.011626978          932 
 1962000   0.46442526   -7.7135469    322.24362  0.013686868  0.011617195          898 
 1963000   0.46327734   -7.7201304    322.00893  0.013669933  0.011607415          819 
 1964000   0.48162512   -7.7088322    321.83768  0.013655706  0.011597646          929 
 1965000    0.4671458   -7.7117786    322.04289  0.013657459  0.011587879          855 
 1966000   0.47128678   -7.6992959    321.82484   0.01364127  0.011578124          868 
 1967000   0.46906774   -7.7055445    322.13505  0.013647477  0.011568383          951 
 1968000   0.47531234   -7.7264684    321.56545  0.013616423  0.011558656          862 
 1969000   0.46685044   -7.7146757    322.68563  0.013656917  0.011548934          904 
 1970000   0.47550251   -7.7180789    321.73685   0.01360985  0.011539231          984 
 1971000   0.47125731    -7.703643    321.77096  0.013604387  0.011529544          889 
 1972000   0.46073979   -7.7188532    321.84064  0.013600433  0.011519856          902 
 1973000   0.47534151   -7.7225937    321.47147  0.013577947  0.011510174          873 
 1974000   0.46302184   -7.7123584    321.78089  0.013584131  0.011500508          830 
 1975000   0.46462652   -7.7118556    321.91569   0.01358294  0.011490847          877 
 1976000    0.4555152   -7.7017004    322.00616  0.013579882  0.011481202          873 
 1977000   0.47077902   -7.7271234    322.42813    0.0135908  0.011471549          934 
 1978000   0.46642828    -7.712583    322.07854    0.0135692  0.011461916          857 
 1979000   0.46147459   -7.7191726     321.7094    0.0135468  0.011452293          893 
 1980000   0.46354193   -7.7157165    322.10179  0.013556472   0.01144269          886 
 1981000   0.46258835   -7.7043936    322.04252  0.013547136  0.011433094          930 
 1982000   0.46790263   -7.7091155    321.79045  0.013529703  0.011423513          828 
 1983000   0.45766994    -7.728073    321.59962   0.01351486  0.011413936          906 
 1984000   0.45445021   -7.7131947    321.87719  0.013519707  0.011404362          932 
 1985000   0.44813737    -7.727471    321.63012  0.013502524  0.011394805          892 
 1986000   0.45971755   -7.7224721    321.88893  0.013506585  0.011385258          877 
 1987000   0.45568138   -7.7388222     321.2797  0.013474237  0.011375718          899 
 1988000   0.45256364   -7.7222077    321.26663  0.013466911  0.011366187          946 
 1989000   0.44907463   -7.7123703    321.35306  0.013463761  0.011356673          911 
 1990000   0.45757858   -7.7164742    321.61078  0.013467788  0.011347161          874 
 1991000   0.45650272   -7.7349772    321.70799  0.013465093  0.011337656         1034 
 1992000   0.46177782   -7.7183107    321.38007  0.013444615   0.01132817          864 
 1993000   0.45131913   -7.7288601    322.07614  0.013466974  0.011318693          914 
 1994000   0.45365316   -7.7241989    321.64279  0.013442109  0.011309219          923 
 1995000   0.46731385   -7.7344574     321.2413  0.013418601   0.01129976          901 
 1996000   0.45330715   -7.7420739    321.46313  0.013421139  0.011290315          906 
 1997000   0.45925323   -7.7410348    321.44107  0.013413498  0.011280873          908 
 1998000   0.44773427   -7.7234455    321.84898  0.013423798  0.011271447          826 
 1999000    0.4574461   -7.7498202    321.69521  0.013410672  0.011262022          964 
 2000000   0.46230062   -7.7321107    321.42613  0.013392755  0.011252614          950 
 2001000   0.44991445    -7.741377    321.50564  0.013389374  0.011243215          911 
 2002000    0.4519573   -7.7368941    321.52576  0.013383523  0.011233821          910 
 2003000   0.44550775   -7.7327965    321.92081  0.013393277  0.011224431          872 
 2004000    0.4554453   -7.7336564    321.48707  0.013368557  0.011215065          965 
 2005000   0.44458694   -7.7324845    321.25934  0.013352425  0.011205706          865 
 2006000   0.45841425   -7.7397105    321.30128  0.013347511  0.011196346          876 
 2007000   0.44714305   -7.7285126    321.84397  0.013363394  0.011186993          926 
 2008000   0.44655673   -7.7424009    321.07059  0.013324643  0.011177654          862 
 2009000   0.44266337   -7.7458556    321.43955  0.013333315  0.011168331          945 
 2010000   0.45504713   -7.7247609    321.38391  0.013324374  0.011159019          938 
 2011000   0.45757667   -7.7341302    321.29357  0.013314005  0.011149717          969 
 2012000   0.44583955   -7.7485262    321.26686  0.013306282  0.011140419          953 
Loop time of 5263.84 on 48 procs for 2000000 steps with 4000 atoms

Performance: 65655.471 tau/day, 379.951 timesteps/s
99.4% CPU use with 48 MPI tasks x no OpenMP threads

MPI task timing breakdown:
Section |  min time  |  avg time  |  max time  |%varavg| %total
---------------------------------------------------------------
Pair    | 385.86     | 421.76     | 458.14     |  87.7 |  8.01
Neigh   | 36.504     | 37.849     | 39.513     |  11.8 |  0.72
Comm    | 341.14     | 372.95     | 407.22     |  90.3 |  7.09
Output  | 5.1939     | 5.1959     | 5.2446     |   0.3 |  0.10
Modify  | 4359.6     | 4375.2     | 4388       |  10.0 | 83.12
Other   |            | 50.9       |            |       |  0.97

Nlocal:        83.3333 ave          90 max          77 min
Histogram: 1 1 6 11 6 6 11 3 1 2
Nghost:        2427.08 ave        2450 max        2411 min
Histogram: 3 2 12 8 9 6 2 4 1 1
Neighs:        16821.4 ave       19587 max       14543 min
Histogram: 3 3 8 7 6 9 5 4 1 2
FullNghs:      33642.4 ave       36237 max       31072 min
Histogram: 2 0 8 7 8 6 9 3 3 2

Total # of neighbors = 1614836
Ave neighs/atom = 403.70900
Neighbor list builds = 106864
Dangerous builds = 0

#clear
#
#next RN
#
#jump SELF
Total wall time: 1:27:47
