
units lj                  # Use reduced LJ style units
atom_style atomic         # Uncharged point particles
atom_modify map hash      # Needed for indexing of clusters etc
                          # Used to be able to find where atoms are in relation to each other.

lattice fcc 1.0 spacing 1 1 1
Lattice spacing in x,y,z = 1.5874011 1.5874011 1.5874011
region box block 0 10 0 10 0 10 units lattice
create_box 2 box
Created orthogonal box = (0.0000000 0.0000000 0.0000000) to (15.874011 15.874011 15.874011)
  3 by 4 by 4 MPI processor grid
create_atoms 1 box
Created 4000 atoms
  using lattice units in orthogonal box = (0.0000000 0.0000000 0.0000000) to (15.874011 15.874011 15.874011)
  create_atoms CPU = 0.003 seconds
set type 1 type/fraction 2 0.07 78393
Setting atom values ...
  309 settings made for type/fraction
mass 1 1.0
mass 2 1.0
pair_style lj/cut  3.5
pair_modify tail  yes
pair_coeff 1  1  1.0  1.0   # Intearaction between 1 and 1 set with epsilon = 1 and sigma = 1
pair_coeff 1  2  1.5  0.8
pair_coeff 2  2  0.5  0.88

write_data data.0
System init for write_data ...
Neighbor list info ...
  update every 1 steps, delay 10 steps, check yes
  max neighbors/atom: 2000, page size: 100000
  master list distance cutoff = 3.8
  ghost atom cutoff = 3.8
  binsize = 1.9, bins = 9 9 9
  1 neighbor lists, perpetual/occasional/extra = 1 0 0
  (1) pair lj/cut, perpetual
      attributes: half, newton on
      pair build: half/bin/atomonly/newton
      stencil: half/bin/3d
      bin: standard
WARNING: Not all mixed pair coeffs generated from mixing. Use write_data with 'pair ij' option to store all pair coeffs. (../write_data.cpp:312)


#############################
#   M E L T   S Y S T E M   #
#############################

velocity all create 2.4 8172548 mom yes dist gaussian # Assign velocities
                                                    # Temperature 2.4, random number seed, zero linear momentum
                                                                                # Gaussian distribution

timestep 0.002   # simulation timestep
thermo 1000       # output thermodynamic data every 1000 steps bf 100

# Define a fix  in this case with index 1 applied to all
# particles in the simulation. This fix is for simulations
# in the anisotropic NPT ensemble. Note that we use the MTK
# correction.
fix 1 all npt temp 2.4 2.4 0.1 iso 5.68 5.68 0.5 mtk yes tchain 5 pchain 5 # Use NPT ensemble
                                                                         # Set temperature and pressure and damping
                                                                         # Numbers of thermostats in chain and in barostat
run 10000          # run for 10000 steps
Per MPI rank memory allocation (min/avg/max) = 3.642 | 3.644 | 3.648 Mbytes
Step Temp E_pair E_mol TotEng Press Volume 
       0          2.4   -7.8774228            0   -4.2783228   -2.8368304         4000 
    1000    2.4261653    -4.576035            0  -0.93769684    5.6472102    4934.9216 
    2000    2.3986871   -4.5672698            0  -0.97013862     5.553188    4947.3805 
    3000    2.3491183   -4.5222156            0  -0.99941916    5.7985636    4935.9164 
    4000    2.4230288   -4.5832466            0  -0.94961205    5.7994109    4904.9453 
    5000    2.3797388   -4.5670176            0  -0.99830173    5.5302871    4949.4696 
    6000    2.4329072    -4.574159            0  -0.92571051    5.6917542    4922.6829 
    7000    2.3808426   -4.5062122            0  -0.93584111    5.7924205    4947.1128 
    8000    2.3628145   -4.5352608            0  -0.99192507    6.0584689    4896.2875 
    9000    2.4339334   -4.4969625            0  -0.84697514    5.8180562    4946.4417 
   10000    2.4039198   -4.5639334            0  -0.95895518    5.3948049    4967.7812 
Loop time of 2.15741 on 48 procs for 10000 steps with 4000 atoms

Performance: 800962.195 tau/day, 4635.198 timesteps/s
99.6% CPU use with 48 MPI tasks x no OpenMP threads

MPI task timing breakdown:
Section |  min time  |  avg time  |  max time  |%varavg| %total
---------------------------------------------------------------
Pair    | 0.90451    | 0.95339    | 1.0408     |   3.3 | 44.19
Neigh   | 0.18974    | 0.1962     | 0.21127    |   1.0 |  9.09
Comm    | 0.65275    | 0.7604     | 0.83122    |   4.7 | 35.25
Output  | 0.00024812 | 0.00025589 | 0.0003868  |   0.0 |  0.01
Modify  | 0.19959    | 0.23262    | 0.27932    |   4.0 | 10.78
Other   |            | 0.01454    |            |       |  0.67

Nlocal:        83.3333 ave          91 max          75 min
Histogram: 3 2 2 8 7 8 4 6 5 3
Nghost:        1424.79 ave        1443 max        1402 min
Histogram: 1 3 3 5 10 6 6 5 7 2
Neighs:        7666.25 ave        8661 max        6541 min
Histogram: 1 2 5 5 6 11 7 8 2 1

Total # of neighbors = 367980
Ave neighs/atom = 91.995000
Neighbor list builds = 899
Dangerous builds = 163

# Equilibrate just above the melting temperature to avoid step fn in T

fix 1 all npt temp 1.25 1.25 0.1 iso 5.68 5.68 0.5 mtk yes tchain 5 pchain 5
run 2000
Per MPI rank memory allocation (min/avg/max) = 3.642 | 3.644 | 3.648 Mbytes
Step Temp E_pair E_mol TotEng Press Volume 
   10000    2.4039198   -4.5639334            0  -0.95895518    5.3948049    4967.7812 
   11000    1.2172989    -6.073167            0   -4.2476751     5.935319    4070.5334 
   12000    1.2267734   -6.1263461            0    -4.286646    5.8334469    4055.7514 
Loop time of 0.477258 on 48 procs for 2000 steps with 4000 atoms

Performance: 724135.967 tau/day, 4190.602 timesteps/s
99.6% CPU use with 48 MPI tasks x no OpenMP threads

MPI task timing breakdown:
Section |  min time  |  avg time  |  max time  |%varavg| %total
---------------------------------------------------------------
Pair    | 0.21111    | 0.22449    | 0.24177    |   1.9 | 47.04
Neigh   | 0.031653   | 0.033275   | 0.035717   |   0.5 |  6.97
Comm    | 0.14285    | 0.16314    | 0.18623    |   2.4 | 34.18
Output  | 5.0873e-05 | 5.1901e-05 | 6.5166e-05 |   0.0 |  0.01
Modify  | 0.043199   | 0.05185    | 0.059939   |   2.2 | 10.86
Other   |            | 0.004451   |            |       |  0.93

Nlocal:        83.3333 ave          91 max          75 min
Histogram: 2 4 1 11 1 11 8 2 4 4
Nghost:        1629.65 ave        1647 max        1609 min
Histogram: 1 3 4 7 7 5 10 2 4 5
Neighs:        9410.85 ave       10268 max        8009 min
Histogram: 1 0 3 5 7 8 3 9 4 8

Total # of neighbors = 451721
Ave neighs/atom = 112.93025
Neighbor list builds = 142
Dangerous builds = 12

#############################
# L I N E A R  Q U E N C H  #
#############################

# Define solid atoms. This closely follows ten Wolde  Ruiz-Montero and Frenkel  Faraday Discuss  1996  104  93-110
# Compute components of the per-atom q6 vector
compute q6 all orientorder/atom degrees 1 6 components 6 nnn NULL cutoff 1.3 # compute the Q6 parameter.
                                                                             # Use all neighbours within 1.3 unit cell.

# get number of connections
compute coord_number all coord/atom orientorder q6 0.5

# An atom is solid if it has 8 or more connections (of a possible 14)
variable is_solid atom c_coord_number>=8
group solid dynamic all var is_solid    # Must be dynamic to update
dynamic group solid defined

# do clustering
compute cluster solid cluster/atom 1.3 # Create a cluster where all atoms within are solid and max 1.3 units from another member

# define chunks one chunk per cluster
compute clus_chunks solid chunk/atom c_cluster nchunk every compress yes  # Says which atoms are in which chunk

# count the size of each chunk
compute size_chunks solid property/chunk clus_chunks count


# Find the maximum entry in the vector of chunk sizes
variable max_n equal max(c_size_chunks)


# Thermo style which includes this variable
# thermo_style custom step temp pe vol v_max_n

thermo ${N}  # Print the thermo information every 100 steps
thermo 1000  

# Reset the npt fix at a lower temperature (below freezing)
fix 1  all npt temp  ${temp} ${temp}  0.1  iso  5.68  5.68  0.5  mtk yes tchain  5  pchain  5
fix 1  all npt temp  0.45 ${temp}  0.1  iso  5.68  5.68  0.5  mtk yes tchain  5  pchain  5
fix 1  all npt temp  0.45 0.45  0.1  iso  5.68  5.68  0.5  mtk yes tchain  5  pchain  5

dump dmp2 all dcd ${N} traj.dcd
dump dmp2 all dcd 1000 traj.dcd


compute msd all msd com yes
variable twopoint equal c_msd[4]/6/(step*dt+1.0e-6)
fix 9 all vector 10 c_msd[4]
variable fit equal slope(f_9)/6/(10*dt)
thermo_style custom step temp pe c_msd[4] v_twopoint v_fit v_max_n

fix 1 all npt temp 1.25 ${temp} 0.1 iso 5.68 5.68 0.5 mtk yes tchain 5 pchain 5
fix 1 all npt temp 1.25 0.45 0.1 iso 5.68 5.68 0.5 mtk yes tchain 5 pchain 5
run 500000 # 5000000  # Run for this many steps
Neighbor list info ...
  update every 1 steps, delay 10 steps, check yes
  max neighbors/atom: 2000, page size: 100000
  master list distance cutoff = 3.8
  ghost atom cutoff = 3.8
  binsize = 1.9, bins = 9 9 9
  4 neighbor lists, perpetual/occasional/extra = 1 3 0
  (1) pair lj/cut, perpetual
      attributes: half, newton on
      pair build: half/bin/atomonly/newton
      stencil: half/bin/3d
      bin: standard
  (2) compute orientorder/atom, occasional
      attributes: full, newton on
      pair build: full/bin/atomonly
      stencil: full/bin/3d
      bin: standard
  (3) compute coord/atom, occasional
      attributes: full, newton on
      pair build: full/bin/atomonly
      stencil: full/bin/3d
      bin: standard
  (4) compute cluster/atom, occasional
      attributes: full, newton on
      pair build: full/bin/atomonly
      stencil: full/bin/3d
      bin: standard
Per MPI rank memory allocation (min/avg/max) = 9.746 | 9.750 | 9.754 Mbytes
Step Temp PotEng c_msd[4] v_twopoint v_fit v_max_n 
   12000    1.2267734   -6.1263461 2.0423609e-30 1.4183061e-32 8.3333333e+20            1 
   13000     1.238472   -6.1047151   0.55060591 0.0035295249  0.045965325            1 
   14000    1.2256274   -6.1136339    1.1130044 0.0066250257  0.045723247            1 
   15000    1.2172406   -6.1360386      1.60754 0.0089307773  0.044427243            2 
   16000    1.2527635   -6.1346504     2.186878  0.011389989  0.044621988            3 
   17000    1.2553988   -6.1440337     2.688168  0.013177294  0.044717815            3 
   18000     1.221077   -6.1197848    3.1992101  0.014811157  0.044468853            2 
   19000    1.2574586   -6.1202011    3.7291733  0.016356023  0.044206391            2 
   20000    1.2334602   -6.1605522    4.2837934  0.017849139  0.044213051            2 
   21000    1.2407156   -6.0763864    4.7635117  0.018902824  0.044056907            2 
   22000    1.2481206   -6.1429145    5.3649302  0.020321705  0.044100499            2 
   23000    1.2306919   -6.1726554    5.8305809  0.021125293  0.044194281            2 
   24000    1.2462526   -6.1656279    6.3503657  0.022049881  0.044075107            2 
   25000    1.2368953   -6.1263144    6.7951366  0.022650455   0.04390144            2 
   26000    1.2358238   -6.1361195    7.4166211  0.023771221  0.043744112            3 
   27000    1.2458353   -6.1583115    7.9966977  0.024681165  0.043773932            2 
   28000    1.2386557   -6.1506823    8.4734705  0.025218662  0.043822819            2 
   29000    1.1877866   -6.1631636    8.8233686  0.025354507  0.043696211            7 
   30000    1.2448598   -6.1654987    9.2155751  0.025598819  0.043387489            6 
   31000    1.2063262   -6.1240228      9.71984  0.026128602  0.043049821            3 
   32000    1.2351274   -6.1759931    10.264727  0.026731059  0.042837817            4 
   33000    1.2267105   -6.1509897    10.674098  0.026954793  0.042639582            3 
   34000    1.2091398     -6.20772    11.139574  0.027302877  0.042418604            4 
   35000    1.2125396   -6.1768901    11.573615  0.027556225  0.042155747            2 
   36000    1.2240804   -6.1864466    12.179871  0.028194145  0.041951904            1 
   37000    1.2121474   -6.1588015    12.646088  0.028482181  0.041849849            3 
   38000    1.2077404   -6.1899552    13.226555  0.029005603   0.04179732            4 
   39000    1.1976839   -6.1991056    13.703055  0.029280032  0.041793116            3 
   40000    1.1922457   -6.1590906    14.325801  0.029845419  0.041794323            2 
   41000    1.2291237   -6.1646777    14.834653  0.030151733   0.04184167            1 
   42000    1.2176863   -6.1578233    15.325299  0.030407339  0.041849579            6 
   43000      1.20895   -6.2213916    15.755224  0.030533379  0.041878989            2 
   44000    1.2190954   -6.1962907    16.275125  0.030824099  0.041891137            3 
   45000     1.225773   -6.2185369    16.685075  0.030898287  0.041851635            3 
   46000     1.232152   -6.1976901    17.197734  0.031155316    0.0418079            5 
   47000    1.1944006   -6.2156459    17.620687  0.031242352  0.041775321            8 
   48000    1.1685847   -6.1882395    18.093561  0.031412432  0.041720436            2 
   49000    1.1700691   -6.2238802    18.539556  0.031529857  0.041658173            5 
   50000     1.189932   -6.2346937    19.136608  0.031894347  0.041626062            3 
   51000    1.1684668   -6.2077358    19.866973  0.032462374  0.041631775            4 
   52000    1.1913509   -6.2335367    20.360652   0.03262925  0.041665797            3 
   53000    1.1752857   -6.1971123    20.822597  0.032739932  0.041686687            7 
   54000    1.1658471   -6.1886008    21.236705  0.032772693      0.04169            2 
   55000    1.1689923   -6.2164701    21.783756   0.03300569  0.041688869            2 
   56000     1.180598   -6.2588653    22.302138  0.033187705   0.04169454            4 
   57000    1.1829016    -6.270688    22.749183  0.033259039  0.041713785            3 
   58000    1.1935342   -6.2787188    23.217526  0.033358515  0.041707652            9 
   59000     1.186388   -6.2248451    23.584775  0.033311828  0.041681687            2 
   60000    1.1909301   -6.2703385    24.194453  0.033603407  0.041656946            2 
   61000    1.1783395   -6.2737642    24.566854  0.033561276  0.041644615            6 
   62000    1.1612651   -6.2297342    25.054425  0.033675302  0.041609865            5 
   63000    1.1604853   -6.2329416    25.429838  0.033637352  0.041565138            4 
   64000    1.1327801   -6.2446356    25.829881  0.033632657  0.041512959            5 
   65000    1.1703231   -6.2837399     26.17191  0.033553731  0.041447843            2 
   66000    1.1758998   -6.2251482     27.01728  0.034112727  0.041399347            1 
   67000    1.1447894   -6.2797443    27.527188  0.034237796   0.04138171            4 
   68000    1.1694868   -6.2796534    28.135593  0.034479893  0.041386368            2 
   69000    1.1395627   -6.2850398    28.581857  0.034519151   0.04139773            3 
   70000    1.1405778   -6.2971603    29.115524  0.034661338  0.041404018            4 
   71000    1.1708699   -6.2867936    29.452395  0.034568538  0.041395124            9 
   72000    1.1320174   -6.2572616    29.941159  0.034654119  0.041374294            2 
   73000    1.1752156   -6.2811542    30.328859  0.034621985  0.041352469            2 
   74000     1.148672    -6.328171    30.531984  0.034382865  0.041307848            4 
   75000    1.1531839   -6.3090252    31.056589   0.03450732    0.0412533            2 
   76000    1.1127207   -6.2689877    31.518635  0.034559906    0.0412035            4 
   77000     1.137542   -6.3233873    31.923975  0.034549756  0.041136312            3 
   78000    1.1243461   -6.2950158    32.082923  0.034276627  0.041052712            2 
   79000    1.1177115   -6.2859647    32.426682   0.03420536  0.040959928            2 
   80000    1.1453704   -6.3040246    32.910329  0.034281593   0.04086375            6 
   81000    1.1633413   -6.2705657    33.465662  0.034429694   0.04077751            2 
   82000    1.1230163   -6.3165455    33.788043  0.034337441  0.040690351            2 
   83000    1.1427602   -6.3181467    34.294441   0.03443217  0.040615098            2 
   84000    1.1320896   -6.2965619    34.750831  0.034475031  0.040537984            3 
   85000    1.1259356   -6.2787371    35.219177  0.034528604  0.040464772            7 
   86000    1.1469831     -6.31512    35.635495  0.034530518  0.040397749            3 
   87000    1.1263645   -6.3293725    35.921381  0.034407453  0.040322045            4 
   88000    1.1129679   -6.3436026    36.226445  0.034305346  0.040234996            5 
   89000    1.1206336   -6.3462904    36.649523  0.034316032  0.040143915            5 
   90000    1.0957464   -6.2988695    37.035765  0.034292375  0.040052779            4 
   91000    1.1334321   -6.3402557    37.385761  0.034236045  0.039958979            5 
   92000    1.1341528   -6.3251005    37.916803   0.03434493  0.039867512            6 
   93000     1.142518   -6.3515604    38.425892  0.034431803  0.039786781            9 
   94000    1.1107044   -6.3446674    38.896966  0.034483126  0.039715505            7 
   95000    1.1004727   -6.3524006    39.538057  0.034682506   0.03965806            3 
   96000     1.126781   -6.3438877    39.828812  0.034573622  0.039602142            3 
   97000    1.1224467   -6.3499672    40.192318  0.034529482  0.039540311            4 
   98000    1.0986699   -6.3918711    40.714056  0.034620796  0.039475469            5 
   99000    1.1095522   -6.3623732    41.159583  0.034646114  0.039409632            4 
  100000    1.0805285   -6.3629395    41.308184  0.034423486  0.039343043            3 
  101000    1.1008524   -6.3350807    41.850535  0.034530144  0.039279227            3 
  102000    1.1003509    -6.361686    42.044106   0.03434976  0.039206828            5 
  103000    1.1087592   -6.3425221      42.4164  0.034317476  0.039123941            3 
  104000    1.0966259   -6.3166067    42.953144  0.034417583  0.039044613            3 
  105000    1.0880018   -6.3487033     43.30281  0.034367309  0.038969384            3 
  106000    1.0768141   -6.3749529    43.543508  0.034232317  0.038893745            4 
  107000     1.117279   -6.3923681    43.876229  0.034171517  0.038815725            6 
  108000    1.1081017    -6.390182     44.39855   0.03425814  0.038734724            6 
  109000    1.1149741   -6.3594963    44.644756  0.034132076  0.038657774            4 
  110000    1.1107337   -6.3629335    45.054621  0.034132289  0.038575729            3 
  111000    1.0817048   -6.4084982    45.324112  0.034027111  0.038493686            2 
  112000    1.0963774   -6.4286536    45.451877  0.033818361   0.03840305            4 
  113000    1.0825487    -6.395183    45.735098  0.033727948  0.038312664            3 
  114000    1.0977244   -6.4040491    46.343642  0.033876931  0.038221687            3 
  115000    1.0844017   -6.3891613    46.637985  0.033795641   0.03813708            3 
  116000    1.0844473   -6.4146534    47.127611  0.033856042   0.03805292            3 
  117000    1.0994454   -6.4354428    47.309377  0.033696137  0.037966682            6 
  118000    1.0676488   -6.3802291    47.542203  0.033575002  0.037872381            3 
  119000    1.0663998   -6.4151588    47.874738  0.033525727  0.037774231            2 
  120000     1.080801    -6.416846    48.016643  0.033344891  0.037676977            5 
  121000    1.0709945   -6.3991941    48.521447  0.033416974   0.03758192            2 
  122000    1.0633265   -6.4301797    48.909657  0.033408236  0.037487143            4 
  123000    1.0501601   -6.3799444    49.377855  0.033453831  0.037396551            4 
  124000    1.0480605   -6.4383163     49.39402  0.033194906  0.037305843            7 
  125000    1.0469174    -6.442481    49.753459  0.033168973   0.03720969            3 
  126000    1.0772952   -6.3796739     50.19662  0.033198823  0.037116388            3 
  127000    1.0646154   -6.4389089    50.457946  0.033108888  0.037021624            4 
  128000    1.0391157   -6.4467492    50.546424  0.032907828  0.036923677            3 
  129000    1.0460945   -6.4257382    50.968219  0.032925206  0.036822806            2 
  130000    1.0495666   -6.4557057    51.195751  0.032817789  0.036726842            3 
  131000    1.0625238   -6.4510775    51.745615  0.032917058  0.036633407            3 
  132000    1.0530018   -6.4767652    52.201053   0.03295521  0.036539797            4 
  133000    1.0450448   -6.4528589     52.47323  0.032877964  0.036453809            2 
  134000    1.0582592   -6.4328168    52.880107  0.032885639  0.036370598            3 
  135000    1.0715155   -6.4524672    53.313773  0.032909736  0.036286487            5 
  136000    1.0534962   -6.4455031    53.719578  0.032916408  0.036206339            4 
  137000    1.0202658   -6.4502221    53.961451  0.032823267  0.036125907            3 
  138000    1.0428628   -6.4591398    54.265147  0.032768808  0.036046106            5 
  139000    1.0331985   -6.4742936    54.482231  0.032663208  0.035963349            6 
  140000     1.035694   -6.4785091    54.877364  0.032665097  0.035880334            4 
  141000    1.0295724   -6.4743933    55.264487  0.032662226  0.035803434            4 
  142000    1.0545656   -6.5007539    55.627284  0.032645119  0.035725601            9 
  143000    1.0468278   -6.4604889    55.833915  0.032537246  0.035651379            3 
  144000    1.0404353   -6.4816156    56.301661  0.032581979  0.035575524            3 
  145000     1.010569   -6.4818888    56.727982  0.032602288  0.035499934            3 
  146000    1.0438645   -6.4819816    57.095386  0.032588691   0.03542577            3 
  147000    1.0565601   -6.5017965    57.357526  0.032515604  0.035352628            3 
  148000    1.0354136   -6.5048352     57.55543  0.032407337  0.035278648            6 
  149000    1.0469943   -6.5505734    57.649792  0.032242613  0.035205184            4 
  150000    1.0548708   -6.5142246    58.212395   0.03234022  0.035131844            3 
  151000    1.0449534   -6.5191877    58.763192  0.032430017  0.035061791            2 
  152000    1.0232585   -6.4951937    58.769525  0.032220134  0.034991459            2 
  153000    1.0016299   -6.5148976    59.124988  0.032203152   0.03491995            7 
  154000    1.0159315   -6.5163701    59.666131  0.032286867  0.034852818            5 
  155000    1.0247247   -6.5293671    59.834151  0.032168898  0.034784033            3 
  156000    1.0202401   -6.5282143    60.225694  0.032171845  0.034718202            9 
  157000     1.029885   -6.5290368    60.770584  0.032256148   0.03465393           10 
  158000    1.0299135   -6.5488039    60.868562  0.032103672  0.034589384            1 
  159000   0.99488837   -6.5271638     61.04501   0.03199424  0.034521603            4 
  160000    1.0143652   -6.5293417    61.384192  0.031970933  0.034455197            2 
  161000     1.011205   -6.5743749    61.802954  0.031989107  0.034390976            5 
  162000   0.99493626   -6.5645402    61.927861  0.031855896  0.034325652            5 
  163000    1.0026987   -6.5761907    62.191777  0.031795387  0.034257896            5 
  164000    1.0291151   -6.5920556     62.28209  0.031647403  0.034188013            3 
  165000    1.0140918   -6.5754418    62.857754   0.03174634  0.034114984            4 
  166000   0.99819566   -6.5547534    62.997047  0.031625023  0.034044634            3 
  167000    1.0146313   -6.5480225    63.058699  0.031466416  0.033970723            5 
  168000     1.018202   -6.5554874    63.430157  0.031463371   0.03389694            6 
  169000    1.0026438    -6.572013    63.783157  0.031451261  0.033824002            2 
  170000   0.98467382   -6.5600012    64.164838  0.031453352  0.033752213            7 
  171000    1.0010426   -6.5773898    64.344323  0.031356882  0.033681877            5 
  172000   0.99617134   -6.5673963    64.773802  0.031382656  0.033610282            7 
  173000     1.005936   -6.5712727    64.678094  0.031155151  0.033538611            4 
  174000   0.99656953   -6.6066358    65.062591  0.031160245  0.033464218            6 
  175000   0.96302116    -6.567359    65.522269  0.031201081  0.033391253           10 
  176000   0.97529572   -6.5522826    65.500301    0.0310134  0.033318939            6 
  177000   0.99647847   -6.5943155    65.630352  0.030899412  0.033246805            4 
  178000    0.9890565   -6.5976255     66.01949  0.030908001  0.033172038            3 
  179000   0.97488132   -6.5713901    66.262294  0.030848368  0.033096472            9 
  180000   0.99278759   -6.6101729    66.269192  0.030680182  0.033020861            4 
  181000   0.96971908   -6.6181173    66.556795  0.030643091  0.032944845            5 
  182000   0.96052266   -6.6243814    66.796115  0.030584301  0.032867694            4 
  183000    0.9933833   -6.6233363    67.483285  0.030730093  0.032793295            5 
  184000    0.9812644   -6.6263974    67.529142  0.030583851  0.032720367            6 
  185000   0.97634753   -6.6179482    67.761681   0.03052328  0.032649024            6 
  186000   0.97082963   -6.6306908    68.094159  0.030508136  0.032577528            5 
  187000   0.95687453   -6.5997277    68.482429  0.030518017  0.032505567            3 
  188000   0.97237654   -6.6319724    68.654296  0.030431869  0.032434336            4 
  189000   0.94932535   -6.6039642     68.93213  0.030393355  0.032363806            6 
  190000   0.95545383   -6.6322296    69.071959  0.030294719  0.032292025            5 
  191000   0.97442553   -6.6321938     69.31547  0.030242351  0.032219817            2 
  192000    0.9699575    -6.602676    69.700784  0.030252076  0.032147582            5 
  193000   0.96600954   -6.6520828    69.789851  0.030133787  0.032078322            4 
  194000   0.98944497   -6.6408846    70.298518  0.030196958   0.03200869            6 
  195000   0.94620416   -6.6299436    70.397919  0.030084581  0.031938963            4 
  196000   0.93325377   -6.6340877    70.722374  0.030069036  0.031869825            8 
  197000   0.96016846   -6.6631629    70.775381  0.029938824  0.031801316            9 
  198000   0.94447448   -6.7148027    70.657872  0.029738162  0.031729246            9 
  199000    0.9358048   -6.6792052    71.081703  0.029766207   0.03165508            7 
  200000   0.96147705    -6.631514    71.228828  0.029678678  0.031581784           14 
  201000   0.93873668   -6.6919038    71.291055  0.029556822  0.031507676            2 
  202000   0.94634868   -6.6495964    71.519424  0.029504713  0.031433237            5 
  203000    0.9547625    -6.649511    71.758653  0.029457575  0.031358929           16 
  204000   0.91888655   -6.6925544    72.023918  0.029421535  0.031285158            4 
  205000   0.94428038   -6.6230624    72.194122  0.029347204  0.031211998            5 
  206000   0.94283505   -6.6734305     72.46115  0.029312763  0.031139442            7 
  207000   0.93404108   -6.7052118    72.528493  0.029198266  0.031066953            3 
  208000   0.93188669   -6.6641832    73.069947  0.029274818  0.030995512            7 
  209000   0.93039259   -6.7070775    73.105128  0.029148775  0.030923827            7 
  210000   0.93884168   -6.6706635    73.222086  0.029056383  0.030851178            5 
  211000   0.94546264   -6.7137565    73.423964  0.028998406  0.030778555            5 
  212000    0.9059356   -6.7145803    73.461329  0.028876309  0.030705315            5 
  213000   0.91087591   -6.6957165    73.897468  0.028911372   0.03063131            6 
  214000   0.92742855    -6.697383    73.999816  0.028816128  0.030556833            7 
  215000   0.93094641   -6.6921125    74.254126  0.028780669  0.030482843            5 
  216000   0.91925726   -6.7098719    74.192152  0.028623516  0.030408191            8 
  217000   0.91902411   -6.6986975    74.642335  0.028664491  0.030333162            5 
  218000   0.91547232   -6.6902905    74.978758  0.028661605  0.030260385            4 
  219000     0.926587   -6.6915557    74.940936  0.028516338  0.030188262            4 
  220000   0.90557767   -6.7095217    75.147069  0.028464799  0.030115545            9 
  221000   0.90447145   -6.7272641    75.238722  0.028370559  0.030043434            5 
  222000   0.91217168   -6.7178247    75.655244  0.028399116  0.029971697            8 
  223000   0.91426627   -6.7009251    75.671198  0.028277727  0.029901387            5 
  224000   0.91145273   -6.7432873    76.059233  0.028295846  0.029830875           13 
  225000   0.91269152   -6.7508257    76.006545  0.028150572  0.029759745           13 
  226000   0.91980706   -6.7081279    76.420272  0.028178566   0.02968888            5 
  227000   0.90993927   -6.7563109    76.621319  0.028128237  0.029617619            4 
  228000   0.89805966   -6.7244142    76.833973  0.028082592  0.029546797            5 
  229000   0.89899125   -6.7420904    77.011361  0.028024513  0.029476983           17 
  230000   0.90509463   -6.7401818    77.050515  0.027916853   0.02940638           10 
  231000   0.88934311   -6.7414837    77.205123  0.027851776  0.029334587            7 
  232000   0.90449991    -6.775787    77.176928  0.027721598  0.029262074            6 
  233000   0.88840183   -6.7670032    77.411295  0.027686443  0.029189358            8 
  234000   0.89842566   -6.8019563    77.608045  0.027638193  0.029117922            7 
  235000   0.89526588   -6.7579113    77.597927  0.027516995  0.029045592            3 
  236000   0.88784315   -6.7745988    77.789478  0.027468036  0.028972525            5 
  237000   0.88569456   -6.7793836    78.009015   0.02742933  0.028899199            4 
  238000   0.89573547   -6.7726296    78.403594  0.027452239  0.028826124            5 
  239000   0.89628038   -6.7682901     78.17345   0.02725713  0.028752997            5 
  240000   0.90171367   -6.8102092    78.369466   0.02721162  0.028680115            3 
  241000   0.88420991   -6.7716594    78.617219  0.027184377  0.028607369           11 
  242000   0.85977716   -6.7801394    78.674754  0.027091858  0.028533955           11 
  243000   0.88489733   -6.8007222    78.704041  0.026990412  0.028460226           10 
  244000   0.88062144   -6.8134711     78.69728  0.026877486  0.028385942           10 
  245000   0.86567502   -6.8301383    78.793853   0.02680063  0.028310981           16 
  246000   0.87871037   -6.8022229    79.098399  0.026794851  0.028235891            8 
  247000   0.85558361   -6.7891603    78.999361  0.026652956  0.028160448            8 
  248000   0.87794778   -6.7853489    79.358977  0.026666323  0.028085419            6 
  249000   0.87544858   -6.7767539    79.518418   0.02661259   0.02801019           12 
  250000    0.8782761   -6.8126849    79.466648  0.026488883  0.027934665           14 
  251000   0.87844577   -6.8460047    79.269472  0.026317886  0.027859078            8 
  252000   0.86470493   -6.8391802    79.637866  0.026335273  0.027783013            4 
  253000   0.85561521   -6.8580527    80.134562  0.026394783  0.027709241            8 
  254000   0.84769582   -6.8409632     80.10348  0.026280669  0.027635561           11 
  255000   0.86398168   -6.8421093    80.208229  0.026211839  0.027561523            5 
  256000   0.85508962   -6.8233339    80.410252  0.026175212  0.027487971            7 
  257000   0.86962043   -6.8765965    80.494669  0.026100736  0.027414026            9 
  258000   0.86316352   -6.8425728    80.568021  0.026023263  0.027340821            8 
  259000   0.86002103   -6.8879618     80.74015  0.025978169  0.027267666           14 
  260000   0.86216889    -6.849319    80.791361  0.025894667  0.027194618            9 
  261000   0.86831424   -6.8939253    80.876546  0.025822652  0.027121533           18 
  262000   0.85431874   -6.8641997    80.964265  0.025751993  0.027047808            5 
  263000   0.85470168    -6.836972    81.049357  0.025681038  0.026973995            3 
  264000   0.85336136   -6.8536198    81.192401  0.025628914  0.026900173           14 
  265000   0.84599595   -6.8790402    81.271467  0.025557065  0.026825825           20 
  266000   0.84683065   -6.8797714    81.528048  0.025541369  0.026752311           21 
  267000   0.85845907   -6.8546434    81.459142  0.025424202  0.026679287           13 
  268000   0.85574389   -6.9036981    81.518805  0.025347887  0.026605264            9 
  269000   0.84481211   -6.9113356     81.55052  0.025263482  0.026531288           24 
  270000   0.82713499   -6.8720898    82.144176  0.025353141  0.026457544           12 
  271000   0.85626958   -6.8797425    81.979142  0.025208838  0.026384378            8 
  272000   0.81148965   -6.8754968    82.159889  0.025171535  0.026312349            8 
  273000   0.83039209   -6.8634682    82.524748  0.025190705  0.026241654            6 
  274000   0.83556502    -6.855891    82.279138  0.025024069  0.026170685           13 
  275000   0.82907981   -6.8832232    82.703429  0.025061645  0.026100102           18 
  276000   0.83231835   -6.8886314    82.875861  0.025022905  0.026029374           14 
  277000   0.81892844   -6.9031069    83.039147  0.024981693  0.025959397            8 
  278000   0.81279177   -6.9263944    83.089072  0.024906796  0.025889645           14 
  279000   0.82059529   -6.9004381     83.14378  0.024833865  0.025819853            6 
  280000    0.8317182    -6.908081    83.381685  0.024815978  0.025751101           11 
  281000   0.82776935   -6.8809018    83.720276  0.024828077  0.025683397           15 
  282000   0.80491591   -6.9136875    83.593797  0.024702659  0.025615188           10 
  283000   0.82666199   -6.9232706    83.803624  0.024677157  0.025547032           18 
  284000   0.80589728   -6.9380006    83.821211  0.024595426  0.025478876            7 
  285000   0.81180894   -6.9243893    83.811493  0.024506284  0.025410637           13 
  286000   0.81752166   -6.9290041    84.035254  0.024485797  0.025342097            6 
  287000    0.8067093   -6.9430879    84.163439    0.0244377  0.025273727            6 
  288000   0.80505326   -6.9340561    84.321718  0.024398645  0.025206549            7 
  289000   0.80724462   -6.9470252    84.345333   0.02432103  0.025139348            7 
  290000   0.80859408   -6.9568146    84.379966  0.024247116  0.025072714           10 
  291000   0.81303891   -6.9609945    84.819287  0.024289601  0.025006423           10 
  292000   0.81236667   -6.9391429    84.657299  0.024160188  0.024940185            5 
  293000   0.79912387   -6.9466158    84.718019     0.024095  0.024873704            7 
  294000   0.79458464   -6.9763851    84.960404  0.024081747  0.024807177            6 
  295000   0.80035332   -6.9452141    84.804534  0.023956083  0.024740362            6 
  296000   0.80135111   -6.9544969    84.767877   0.02386483  0.024673224           13 
  297000   0.79096507   -6.9938324    84.808914  0.023795992  0.024605759            8 
  298000   0.78393898   -6.9903074    84.832558  0.023722751  0.024538422            9 
  299000   0.77066583   -6.9712037     85.20828  0.023748127   0.02447135           18 
  300000   0.79921024   -6.9863074    85.207352  0.023668709   0.02440456           15 
  301000   0.78653775   -6.9874283     85.02406   0.02353933   0.02433758           16 
  302000   0.80264964   -6.9772538    85.390891  0.023562608  0.024270847            9 
  303000   0.79242684   -6.9757257    85.188019  0.023429048  0.024203709           16 
  304000   0.76732503    -6.989614    85.338355  0.023393189  0.024136378            9 
  305000   0.77077725   -7.0152679    85.596379  0.023386989  0.024069861           21 
  306000   0.78068357   -7.0168121    85.613193   0.02331514  0.024003277           10 
  307000   0.79144576   -7.0081732    85.769652  0.023281664  0.023937323           12 
  308000   0.78295415   -6.9937961    85.641821  0.023171488  0.023870886           12 
  309000   0.77020466   -6.9713424    85.806844  0.023141004  0.023804509            7 
  310000   0.76850386    -6.983934    85.675381  0.023031016  0.023737614           11 
  311000    0.7662451   -7.0418338    85.717495  0.022968246  0.023670912            9 
  312000   0.75354077   -7.0261275    85.767078  0.022907873  0.023604621           15 
  313000   0.76336513   -7.0328772     85.91203  0.022873277  0.023537928           22 
  314000   0.77881855    -7.006915    86.133472  0.022859202  0.023471281           11 
  315000   0.75172318   -7.0378651    86.193647  0.022802552  0.023404956            7 
  316000   0.75769115   -7.0135662    86.265029  0.022749216  0.023338755            8 
  317000   0.76080697   -7.0256437     86.27923  0.022681185  0.023272877           15 
  318000   0.76466756   -7.0321009    86.101642  0.022563323  0.023207112           11 
  319000   0.77132848   -7.0368308    86.433011  0.022579157  0.023141253            9 
  320000   0.75384898   -7.0336293    86.176042  0.022441678  0.023075049           14 
  321000   0.76144023   -7.0620846    86.298796  0.022403633  0.023009364           17 
  322000   0.76605874   -7.0142438    86.473685  0.022379318  0.022944073            8 
  323000   0.76859039   -7.0267415    86.448511  0.022303537  0.022878307           12 
  324000   0.74092406   -7.0766744     86.54206   0.02225876  0.022813029           16 
  325000   0.74086206   -7.0631742    86.548675  0.022191968  0.022747778           29 
  326000    0.7681128   -7.0772211    86.671977  0.022155413  0.022682771           16 
  327000   0.74126072   -7.0885896    86.607952  0.022071343  0.022618231           22 
  328000   0.76455187   -7.0245851     86.87295   0.02207138  0.022554006           15 
  329000   0.76055257   -7.0842736    86.716133  0.021964573  0.022489501           25 
  330000   0.74330043   -7.0787931    86.889052   0.02194168  0.022425055           14 
  331000   0.72814078   -7.0526175    87.061521  0.021918812  0.022361258           23 
  332000    0.7331935   -7.0692631    86.998173  0.021836891  0.022298139           18 
  333000   0.73807903   -7.0807201    87.233057  0.021830094  0.022234793           14 
  334000   0.72811301   -7.0900916    87.093694  0.021729964  0.022171556           13 
  335000   0.72952584   -7.0655399    87.475586  0.021760096  0.022108259           11 
  336000   0.72806197   -7.0975813    87.349267  0.021664005   0.02204555           14 
  337000   0.74136861   -7.0917818    87.529023   0.02164417  0.021982402           16 
  338000    0.7185069   -7.1086252    87.138206  0.021483779  0.021919311           12 
  339000    0.7472269   -7.0999165    87.441377   0.02149493  0.021856436           14 
  340000   0.72034006   -7.0891103    87.501056  0.021446337  0.021793698           11 
  341000   0.72924715   -7.1060406    87.476936   0.02137755  0.021730488           13 
  342000    0.7132252   -7.1049122    87.543414  0.021331241  0.021667622           14 
  343000   0.73421312   -7.1318846    87.397374   0.02123357  0.021604673           13 
  344000   0.70969309   -7.1363814    87.444432  0.021183244   0.02154178           19 
  345000   0.72191563   -7.1274158    87.526542  0.021141677  0.021479173           22 
  346000   0.69559347   -7.1159749    87.605512  0.021099593  0.021416478           14 
  347000   0.71834426   -7.1332587    87.659264  0.021051696  0.021354268            9 
  348000   0.70584344   -7.1417126    87.554833  0.020966196  0.021292434           10 
  349000   0.70919148   -7.1461539    87.851145  0.020976873   0.02123074           15 
  350000   0.71824043   -7.1438683    87.820988  0.020909759  0.021169082            8 
  351000   0.70479034   -7.1255439    87.861604   0.02085983  0.021107901            9 
  352000    0.7063372   -7.1417189    87.868984  0.020802316  0.021046759           18 
  353000   0.68979343   -7.1485209    87.954822   0.02076365  0.020985481           14 
  354000   0.69356723   -7.1410858    87.930681  0.020699313  0.020924567           13 
  355000   0.70083714   -7.1443439    88.044013  0.020667609  0.020863907           18 
  356000   0.71036875   -7.1721863    88.108527  0.020624655   0.02080317            7 
  357000   0.70453501    -7.156882    87.795423  0.020493796  0.020742391           30 
  358000   0.69211025   -7.1798612    87.990748  0.020482018  0.020681772           16 
  359000   0.67577191   -7.1680272    88.037257  0.020435761  0.020621039           15 
  360000   0.70855826   -7.1697854    88.037491  0.020379049  0.020560611           18 
  361000   0.68461354   -7.1756606    88.130916  0.020344163  0.020500172           10 
  362000   0.69133682   -7.1827602    88.256062  0.020316773  0.020440299           17 
  363000   0.70518553   -7.1812234    88.561504  0.020330924  0.020381002           11 
  364000   0.68397471   -7.1595958    88.348286  0.020226256  0.020321979           20 
  365000   0.68531669   -7.1741808    88.464189  0.020197303  0.020262943           27 
  366000   0.67770645   -7.1704445     88.43968  0.020136539  0.020203961           21 
  367000    0.6780934    -7.182097    88.514201  0.020098592  0.020145184           29 
  368000   0.68047656   -7.1904912    88.658808  0.020076723  0.020086642           22 
  369000   0.66604503   -7.1817098    88.485918   0.01998327  0.020028585           33 
  370000   0.66680712   -7.1659888    88.770564   0.01999337   0.01997053           36 
  371000   0.66685896    -7.190532    88.683626  0.019919952  0.019912439           24 
  372000   0.68200698   -7.1898981    88.785237  0.019889166   0.01985489           27 
  373000   0.66913019   -7.2043105    88.675351  0.019811294  0.019797462           34 
  374000   0.67605721   -7.2248786     88.57471  0.019735898  0.019739909           22 
  375000   0.67824476    -7.215244    88.542729  0.019676162  0.019682325           26 
  376000   0.66582968   -7.2437857    88.832809  0.019688123  0.019624924           27 
  377000   0.66853774   -7.2201769    88.682139  0.019602595  0.019567551           43 
  378000   0.66665228   -7.2108345    88.562351  0.019524328  0.019510419           50 
  379000   0.66704948    -7.234983    88.530788  0.019465872  0.019452765           34 
  380000   0.67370683   -7.2397231    88.644207  0.019439519  0.019395134           41 
  381000   0.65063677   -7.2499006    88.581244  0.019374725  0.019337613           52 
  382000   0.64548158   -7.2545604    88.588433  0.019325574  0.019280237           43 
  383000   0.64693416   -7.2654595    88.563084    0.0192696  0.019222744           51 
  384000   0.65477851   -7.2641771    88.559665  0.019218677  0.019165485           50 
  385000   0.64926081   -7.2456281      88.5572  0.019168225  0.019108425           32 
  386000   0.64711214   -7.2529714     88.45656  0.019096839  0.019051657           31 
  387000     0.656958   -7.2645518    88.663186  0.019091987   0.01899512           40 
  388000   0.65200486   -7.2763219    88.745114  0.019060377  0.018938813           29 
  389000   0.64355295   -7.2782159    88.634465  0.018987674  0.018882475           26 
  390000   0.64753752   -7.2702617    88.728551  0.018959092  0.018826422           58 
  391000   0.62909199   -7.3011412    88.785887  0.018922823   0.01877038           37 
  392000   0.63646916   -7.2853623    88.577995  0.018830356  0.018714503           35 
  393000   0.63844179    -7.307469    88.817848  0.018833301  0.018658787           78 
  394000    0.6403264   -7.3072777    88.634399    0.0187467  0.018603247          100 
  395000   0.62273293   -7.2784353    88.633693  0.018699091  0.018547754           51 
  396000   0.62546057   -7.3210295    88.757047   0.01867783  0.018492379           69 
  397000   0.62331129   -7.3290967    88.875727  0.018655694  0.018437137           56 
  398000   0.62253205   -7.3171226     88.70303  0.018572661  0.018381977           61 
  399000   0.63505611   -7.3176452    88.789717  0.018544218  0.018326957           58 
  400000   0.62778805   -7.3087568     88.80436  0.018500908  0.018272321           29 
  401000   0.64381148   -7.3083601    88.596183  0.018411509  0.018217613           64 
  402000   0.63280136   -7.3227769    88.777453  0.018403286  0.018163059           36 
  403000   0.60471873   -7.3246155    88.695159  0.018340604  0.018108686           36 
  404000   0.63371073   -7.3136312    88.886318  0.018334636   0.01805455           66 
  405000   0.61236974   -7.3278387    88.957976   0.01830411  0.018000517          107 
  406000   0.60981158   -7.3184105    88.868433  0.018240647  0.017946704          117 
  407000   0.62627109   -7.3442309    88.861079  0.018194324  0.017892914          132 
  408000   0.61605196   -7.3272652    88.796404   0.01813652  0.017839081          179 
  409000   0.62330818   -7.3351346    88.807101  0.018094356   0.01778563           84 
  410000   0.61479989   -7.3519211     88.88859  0.018066787  0.017732267          237 
  411000   0.60942522   -7.3562164    88.936641  0.018032571  0.017678901          170 
  412000   0.60174234   -7.3503255    88.795297  0.017960214  0.017625788          268 
  413000   0.60696123   -7.3471863    89.004879  0.017959015  0.017573061          107 
  414000   0.60142033   -7.3573556     89.05682  0.017926091  0.017520624          206 
  415000   0.59717143   -7.3500779    89.007793  0.017873051  0.017468398          228 
  416000    0.6022976   -7.3639552    88.996045  0.017827733  0.017416353          245 
  417000   0.60648713   -7.3746178    88.739388  0.017733691  0.017364152          185 
  418000   0.61065216   -7.3871384    88.969649  0.017737171  0.017312037          134 
  419000   0.60279813   -7.3737236    88.786997  0.017658512  0.017260021          112 
  420000   0.60953027   -7.3980432    88.826503  0.017624306  0.017208065          214 
  421000   0.59016866   -7.3683334    88.799603  0.017577118  0.017156267          267 
  422000   0.60181305   -7.3989955    88.714722  0.017518705  0.017104618          349 
  423000     0.586617   -7.4053661    88.676611  0.017469782  0.017053023          221 
  424000   0.59731002   -7.4044742    88.916025  0.017475634  0.017001616          292 
  425000   0.58423381   -7.3846367    88.824798  0.017416627  0.016950196          301 
  426000   0.58933168   -7.3952685    88.720505  0.017355341  0.016899098          285 
  427000   0.59577537   -7.4012993    88.773706  0.017325079  0.016848116          262 
  428000   0.58760213   -7.4024595    88.806407  0.017290967    0.0167972          247 
  429000   0.57728146   -7.4237843     88.77841  0.017245223  0.016746334          265 
  430000   0.58020713   -7.4321973    88.704699  0.017190833  0.016695568          288 
  431000   0.58325147   -7.4292241    88.875923  0.017184053   0.01664501          301 
  432000    0.5738519   -7.4185966    88.586585  0.017088462  0.016594483          371 
  433000   0.57099295   -7.4202658    88.578582  0.017047456  0.016544147          297 
  434000   0.58828715   -7.4410022     88.75552  0.017042151  0.016493996          375 
  435000   0.57073754   -7.4293728    88.676628   0.01698786  0.016443996          295 
  436000   0.56760769   -7.4120659    88.700014  0.016953367  0.016394077          296 
  437000   0.57291405   -7.4384665    88.702551  0.016915056  0.016344333          310 
  438000   0.56618341   -7.4313104     88.62008  0.016860746  0.016294711          324 
  439000   0.56734044   -7.4283032    88.442762  0.016788679  0.016245174          312 
  440000   0.56155579   -7.4435295    88.590367  0.016778479  0.016195629          409 
  441000   0.57250095   -7.4460547     88.46688  0.016717097  0.016146198          324 
  442000   0.55989754   -7.4679338    88.550829  0.016695104  0.016097018          308 
  443000   0.56375608   -7.4431035    88.588465  0.016664497  0.016047888          413 
  444000   0.56149931   -7.4327091    88.592677  0.016627755  0.015999045          386 
  445000    0.5603123   -7.4755883    88.521074   0.01657698  0.015950242          377 
  446000   0.54975571   -7.4401616    88.759989  0.016584452   0.01590159          416 
  447000   0.55537147   -7.4467155    88.571407  0.016512194  0.015853068          384 
  448000   0.55331805   -7.4809415    88.649815  0.016489921  0.015804838          358 
  449000   0.54297056   -7.4639737    88.613359  0.016446429  0.015756656          453 
  450000   0.54913639   -7.4636134    88.577484  0.016403238  0.015708561          355 
  451000   0.54520915   -7.4840228     88.51385  0.016355109  0.015660536          414 
  452000   0.53268761   -7.4797162    88.691086  0.016351601  0.015612824          410 
  453000   0.53835485   -7.4757741    88.587997  0.016296541  0.015565189          420 
  454000   0.54863186   -7.4636632    88.525845  0.016249237  0.015517764          380 
  455000   0.54966835   -7.4937796     88.43138  0.016196223  0.015470393          391 
  456000   0.55415174   -7.4974429    88.495743  0.016172468  0.015423082          438 
  457000   0.53182714   -7.4788486    88.513776  0.016140368  0.015375886          402 
  458000   0.52244051   -7.4871793    88.446539  0.016092893  0.015328885          357 
  459000   0.53230955    -7.501734    88.398014  0.016049022  0.015281947          406 
  460000   0.53144559   -7.4966249    88.333543  0.016002453  0.015235204          366 
  461000   0.52582612   -7.4958286    88.370587  0.015974437  0.015188671          466 
  462000   0.53183149   -7.5224103    88.384031  0.015942285  0.015142111          475 
  463000   0.53662419   -7.5034017    88.373445  0.015905948  0.015095652          438 
  464000    0.5206218   -7.4923448    88.271674   0.01585339  0.015049368          358 
  465000   0.52944534   -7.5122341    88.401281  0.015842523   0.01500329          421 
  466000   0.51970422   -7.4957641    88.350309  0.015799411  0.014957401          350 
  467000    0.5102779   -7.5244363    88.199965  0.015738752  0.014911679          453 
  468000   0.51828767   -7.5119388    88.245759  0.015713276  0.014866042          523 
  469000   0.52358357   -7.5148505    88.320293  0.015693016  0.014820652          437 
  470000   0.52535272   -7.5301873    88.445655  0.015681854  0.014775279          453 
  471000   0.52330773   -7.5304457    88.199883  0.015605075  0.014730164          321 
  472000    0.4996152   -7.5324738    88.436442  0.015613779  0.014685144          402 
  473000   0.51480624   -7.5400348    88.232345  0.015544811  0.014640322          397 
  474000   0.50759059   -7.5398688    88.178521  0.015502553  0.014595468          365 
  475000   0.50846359   -7.5419635    88.294489  0.015490261  0.014550809          423 
  476000   0.51499472    -7.546563    88.287022  0.015456411  0.014506395          336 
  477000   0.50736359   -7.5471394    88.017347  0.015376895  0.014462005          488 
  478000   0.50090792   -7.5511051     88.22405  0.015380762  0.014417759          345 
  479000   0.49845147   -7.5493956    88.106176  0.015328145  0.014373693          403 
  480000   0.50680673   -7.5616636    88.220163  0.015316001  0.014329796          310 
  481000   0.49922705   -7.5657857    88.110935  0.015265235  0.014286049          456 
  482000   0.49327624   -7.5569171    88.211827  0.015251007  0.014242403          417 
  483000   0.50066271   -7.5636492    88.168903  0.015212026  0.014198997          347 
  484000   0.48454319   -7.5638669    88.038084  0.015158072  0.014155698          369 
  485000    0.4992693   -7.5582223     88.10352  0.015138062  0.014112531          323 
  486000   0.48761221   -7.5640591    88.134654  0.015112252  0.014069544          387 
  487000   0.49164288   -7.5638281    88.240302  0.015099299  0.014026698          301 
  488000   0.48373156   -7.5674702     88.03976  0.015034112  0.013983945          341 
  489000   0.49234655   -7.5567461    88.209758  0.015032338  0.013941378          382 
  490000   0.48442528   -7.5836845    88.060099  0.014976207  0.013899012          376 
  491000    0.4812204   -7.5589904    88.012886  0.014937693  0.013856771          361 
  492000   0.48798191    -7.577631    88.200486  0.014939107  0.013814695          395 
  493000   0.46849196   -7.5634459    87.963484  0.014868743  0.013772763          369 
  494000   0.48807357   -7.5949985    87.964076  0.014838744  0.013730988          403 
  495000   0.48293982   -7.6003223    88.113988  0.014834005  0.013689335          387 
  496000    0.4860417   -7.6002995    88.059517  0.014794946  0.013647793          375 
  497000   0.47330689   -7.5915757     88.18646  0.014786462  0.013606377          418 
  498000   0.47694713   -7.5984375    88.074122  0.014737972  0.013565183          436 
  499000   0.47557212   -7.5914628    87.960018  0.014689382  0.013524045          384 
  500000   0.46588655   -7.6138611    88.007742  0.014667957  0.013483126          439 
  501000   0.46774525   -7.5820132    87.801019  0.014604295  0.013442248          425 
  502000   0.46305969   -7.6159075    88.059941  0.014618184  0.013401531          495 
  503000   0.46197334   -7.6195136    88.019106  0.014582357  0.013360901          484 
  504000   0.45491106   -7.5970952    87.905502   0.01453464  0.013320535          432 
  505000   0.45503074   -7.6187228    88.041829  0.014528355   0.01328033          415 
  506000    0.4518873   -7.6082472    87.994932  0.014491919  0.013240273          459 
  507000   0.45594266   -7.6186519    88.030826  0.014469235  0.013200295          464 
  508000   0.45520684   -7.6160938    87.942212  0.014426216  0.013160488          428 
  509000   0.44727936    -7.611855     87.99503  0.014406521  0.013120787          403 
  510000   0.44728517   -7.6230564    88.034235  0.014384679  0.013081208          452 
  511000   0.46054654   -7.6152589    87.925459   0.01433879  0.013041824          415 
  512000   0.45766551   -7.6269011    87.865899   0.01430109   0.01300253          425 
Loop time of 1080.01 on 48 procs for 500000 steps with 4000 atoms

Performance: 79999.235 tau/day, 462.959 timesteps/s
99.4% CPU use with 48 MPI tasks x no OpenMP threads

MPI task timing breakdown:
Section |  min time  |  avg time  |  max time  |%varavg| %total
---------------------------------------------------------------
Pair    | 65.211     | 71.483     | 77.394     |  30.3 |  6.62
Neigh   | 6.6349     | 6.8255     | 7.2007     |   3.9 |  0.63
Comm    | 57.356     | 63.195     | 71.137     |  35.5 |  5.85
Output  | 0.85333    | 0.85383    | 0.8626     |   0.1 |  0.08
Modify  | 918.21     | 925.13     | 931.48     |   9.2 | 85.66
Other   |            | 12.52      |            |       |  1.16

Nlocal:        83.3333 ave          92 max          78 min
Histogram: 5 3 11 8 5 9 4 2 0 1
Nghost:        1781.29 ave        1802 max        1750 min
Histogram: 1 1 4 3 2 9 12 8 7 1
Neighs:        10869.2 ave       11785 max       10023 min
Histogram: 3 2 4 12 5 8 5 3 2 4
FullNghs:      21738.7 ave       23828 max       20128 min
Histogram: 4 3 5 12 5 8 5 2 3 1

Total # of neighbors = 1043459
Ave neighs/atom = 260.86475
Neighbor list builds = 26945
Dangerous builds = 0

#clear
#
#next RN
#
#jump SELF
Total wall time: 0:18:02
