
units lj                  # Use reduced LJ style units
atom_style atomic         # Uncharged point particles
atom_modify map hash      # Needed for indexing of clusters etc
                          # Used to be able to find where atoms are in relation to each other.

lattice fcc 1.0 spacing 1 1 1
Lattice spacing in x,y,z = 1.5874011 1.5874011 1.5874011
region box block 0 10 0 10 0 10 units lattice
create_box 2 box
Created orthogonal box = (0.0000000 0.0000000 0.0000000) to (15.874011 15.874011 15.874011)
  3 by 4 by 4 MPI processor grid
create_atoms 1 box
Created 4000 atoms
  using lattice units in orthogonal box = (0.0000000 0.0000000 0.0000000) to (15.874011 15.874011 15.874011)
  create_atoms CPU = 0.003 seconds
set type 1 type/fraction 2 0.89 78393
Setting atom values ...
  3550 settings made for type/fraction
mass 1 1.0
mass 2 1.0
pair_style lj/cut  3.5
pair_modify tail  yes
pair_coeff 1  1  1.0  1.0   # Intearaction between 1 and 1 set with epsilon = 1 and sigma = 1
pair_coeff 1  2  1.5  0.8
pair_coeff 2  2  0.5  0.88

write_data data.0
System init for write_data ...
Neighbor list info ...
  update every 1 steps, delay 10 steps, check yes
  max neighbors/atom: 2000, page size: 100000
  master list distance cutoff = 3.8
  ghost atom cutoff = 3.8
  binsize = 1.9, bins = 9 9 9
  1 neighbor lists, perpetual/occasional/extra = 1 0 0
  (1) pair lj/cut, perpetual
      attributes: half, newton on
      pair build: half/bin/atomonly/newton
      stencil: half/bin/3d
      bin: standard
WARNING: Not all mixed pair coeffs generated from mixing. Use write_data with 'pair ij' option to store all pair coeffs. (../write_data.cpp:312)


#############################
#   M E L T   S Y S T E M   #
#############################

velocity all create 2.4 5300450 mom yes dist gaussian # Assign velocities
                                                    # Temperature 2.4, random number seed, zero linear momentum
                                                                                # Gaussian distribution

timestep 0.002   # simulation timestep
thermo 1000       # output thermodynamic data every 1000 steps bf 100

# Define a fix  in this case with index 1 applied to all
# particles in the simulation. This fix is for simulations
# in the anisotropic NPT ensemble. Note that we use the MTK
# correction.
fix 1 all npt temp 2.4 2.4 0.1 iso 5.68 5.68 0.5 mtk yes tchain 5 pchain 5 # Use NPT ensemble
                                                                         # Set temperature and pressure and damping
                                                                         # Numbers of thermostats in chain and in barostat
run 10000          # run for 10000 steps
Per MPI rank memory allocation (min/avg/max) = 3.642 | 3.644 | 3.648 Mbytes
Step Temp E_pair E_mol TotEng Press Volume 
       0          2.4   -3.2438273            0   0.35527274   -2.6679874         4000 
    1000    2.4192944   -2.3606087            0    1.2674257    5.3817883    3998.1946 
    2000    2.3822022   -2.3277322            0    1.2446777    5.5138557    3988.2011 
    3000    2.4244495    -2.304682            0     1.331083    5.6655537    4008.6252 
    4000    2.4598653   -2.3076968            0    1.3811787    5.7638598    4001.5045 
    5000    2.3993122   -2.3054775            0     1.292591    5.8818258    3963.0455 
    6000    2.4122934   -2.3322912            0    1.2852443    5.6248438    3989.0937 
    7000    2.3826769   -2.2906976            0    1.2824242    5.5514284    4015.4543 
    8000    2.4009101    -2.330622            0    1.2698427    5.6437074      3974.83 
    9000    2.3987191   -2.3353615            0    1.2618177    5.8443705    3943.4364 
   10000    2.4449905   -2.3364892            0    1.3300796      6.00486    3934.4179 
Loop time of 2.51774 on 48 procs for 10000 steps with 4000 atoms

Performance: 686330.056 tau/day, 3971.817 timesteps/s
99.6% CPU use with 48 MPI tasks x no OpenMP threads

MPI task timing breakdown:
Section |  min time  |  avg time  |  max time  |%varavg| %total
---------------------------------------------------------------
Pair    | 1.0686     | 1.1629     | 1.2427     |   3.2 | 46.19
Neigh   | 0.2081     | 0.2162     | 0.22763    |   0.9 |  8.59
Comm    | 0.7789     | 0.86362    | 0.95643    |   4.6 | 34.30
Output  | 0.00024703 | 0.00026211 | 0.00031807 |   0.0 |  0.01
Modify  | 0.23132    | 0.25935    | 0.28932    |   3.3 | 10.30
Other   |            | 0.01536    |            |       |  0.61

Nlocal:        83.3333 ave          93 max          75 min
Histogram: 4 2 4 11 3 8 10 5 0 1
Nghost:        1661.90 ave        1703 max        1625 min
Histogram: 2 1 6 9 7 9 7 5 1 1
Neighs:        9714.06 ave       10773 max        8087 min
Histogram: 1 4 0 4 7 3 11 8 7 3

Total # of neighbors = 466275
Ave neighs/atom = 116.56875
Neighbor list builds = 905
Dangerous builds = 181

# Equilibrate just above the melting temperature to avoid step fn in T

fix 1 all npt temp 1.25 1.25 0.1 iso 5.68 5.68 0.5 mtk yes tchain 5 pchain 5
run 2000
Per MPI rank memory allocation (min/avg/max) = 3.643 | 3.645 | 3.649 Mbytes
Step Temp E_pair E_mol TotEng Press Volume 
   10000    2.4449905   -2.3364892            0    1.3300796      6.00486    3934.4179 
   11000    1.2327842   -3.4636489            0   -1.6149349    5.8603957    3058.8122 
   12000    1.2752516   -3.4150018            0   -1.5026025    5.8728359    3093.1544 
Loop time of 0.627109 on 48 procs for 2000 steps with 4000 atoms

Performance: 551100.766 tau/day, 3189.241 timesteps/s
99.6% CPU use with 48 MPI tasks x no OpenMP threads

MPI task timing breakdown:
Section |  min time  |  avg time  |  max time  |%varavg| %total
---------------------------------------------------------------
Pair    | 0.27089    | 0.29855    | 0.34477    |   2.9 | 47.61
Neigh   | 0.039746   | 0.042389   | 0.048515   |   0.9 |  6.76
Comm    | 0.18578    | 0.23677    | 0.27153    |   3.6 | 37.76
Output  | 5.3509e-05 | 5.4655e-05 | 7.1836e-05 |   0.0 |  0.01
Modify  | 0.039918   | 0.044437   | 0.049226   |   1.4 |  7.09
Other   |            | 0.004908   |            |       |  0.78

Nlocal:        83.3333 ave          93 max          73 min
Histogram: 1 1 1 12 8 4 8 11 1 1
Nghost:        1957.08 ave        1974 max        1938 min
Histogram: 2 5 1 7 4 6 8 9 4 2
Neighs:        12360.1 ave       14155 max       10127 min
Histogram: 1 0 2 6 13 8 7 5 4 2

Total # of neighbors = 593283
Ave neighs/atom = 148.32075
Neighbor list builds = 143
Dangerous builds = 13

#############################
# L I N E A R  Q U E N C H  #
#############################

# Define solid atoms. This closely follows ten Wolde  Ruiz-Montero and Frenkel  Faraday Discuss  1996  104  93-110
# Compute components of the per-atom q6 vector
compute q6 all orientorder/atom degrees 1 6 components 6 nnn NULL cutoff 1.3 # compute the Q6 parameter.
                                                                             # Use all neighbours within 1.3 unit cell.

# get number of connections
compute coord_number all coord/atom orientorder q6 0.5

# An atom is solid if it has 8 or more connections (of a possible 14)
variable is_solid atom c_coord_number>=8
group solid dynamic all var is_solid    # Must be dynamic to update
dynamic group solid defined

# do clustering
compute cluster solid cluster/atom 1.3 # Create a cluster where all atoms within are solid and max 1.3 units from another member

# define chunks one chunk per cluster
compute clus_chunks solid chunk/atom c_cluster nchunk every compress yes  # Says which atoms are in which chunk

# count the size of each chunk
compute size_chunks solid property/chunk clus_chunks count


# Find the maximum entry in the vector of chunk sizes
variable max_n equal max(c_size_chunks)


# Thermo style which includes this variable
# thermo_style custom step temp pe vol v_max_n

thermo ${N}  # Print the thermo information every 100 steps
thermo 1000  

# Reset the npt fix at a lower temperature (below freezing)
fix 1  all npt temp  ${temp} ${temp}  0.1  iso  5.68  5.68  0.5  mtk yes tchain  5  pchain  5
fix 1  all npt temp  0.45 ${temp}  0.1  iso  5.68  5.68  0.5  mtk yes tchain  5  pchain  5
fix 1  all npt temp  0.45 0.45  0.1  iso  5.68  5.68  0.5  mtk yes tchain  5  pchain  5

dump dmp2 all dcd ${N} traj.dcd
dump dmp2 all dcd 1000 traj.dcd


compute msd all msd com yes
variable twopoint equal c_msd[4]/6/(step*dt+1.0e-6)
fix 9 all vector 10 c_msd[4]
variable fit equal slope(f_9)/6/(10*dt)
thermo_style custom step temp pe c_msd[4] v_twopoint v_fit v_max_n

fix 1 all npt temp 1.25 ${temp} 0.1 iso 5.68 5.68 0.5 mtk yes tchain 5 pchain 5
fix 1 all npt temp 1.25 0.45 0.1 iso 5.68 5.68 0.5 mtk yes tchain 5 pchain 5
run 5000000 # 5000000  # Run for this many steps
Neighbor list info ...
  update every 1 steps, delay 10 steps, check yes
  max neighbors/atom: 2000, page size: 100000
  master list distance cutoff = 3.8
  ghost atom cutoff = 3.8
  binsize = 1.9, bins = 8 8 8
  4 neighbor lists, perpetual/occasional/extra = 1 3 0
  (1) pair lj/cut, perpetual
      attributes: half, newton on
      pair build: half/bin/atomonly/newton
      stencil: half/bin/3d
      bin: standard
  (2) compute orientorder/atom, occasional
      attributes: full, newton on
      pair build: full/bin/atomonly
      stencil: full/bin/3d
      bin: standard
  (3) compute coord/atom, occasional
      attributes: full, newton on
      pair build: full/bin/atomonly
      stencil: full/bin/3d
      bin: standard
  (4) compute cluster/atom, occasional
      attributes: full, newton on
      pair build: full/bin/atomonly
      stencil: full/bin/3d
      bin: standard
Per MPI rank memory allocation (min/avg/max) = 9.822 | 9.829 | 9.834 Mbytes
Step Temp PotEng c_msd[4] v_twopoint v_fit v_max_n 
   12000    1.2752516   -3.4150018 1.1501592e-30 7.9872163e-33 8.3333333e+20            2 
   13000    1.2467551   -3.4690328   0.98829904   0.00633525  0.083303905            3 
   14000    1.2548843   -3.4785433    2.0297344  0.012081752  0.086505232            1 
   15000    1.2459429   -3.4199193    3.1433501  0.017463055   0.08790692            1 
   16000    1.2473151   -3.4648484    4.1576324  0.021654335  0.088022337            1 
   17000    1.2467013   -3.4721187    5.1376197  0.025184409  0.087508612            2 
   18000    1.2718505    -3.491617    6.0794751  0.028145717  0.086149882            3 
   19000    1.2449946   -3.4489907    7.0936753   0.03111261  0.085301436            1 
   20000    1.2317768   -3.4539993    8.1723527  0.034051469  0.084868073            6 
   21000    1.2366173   -3.4561196    9.1772163  0.036417524  0.084935348            2 
   22000    1.2302649   -3.4679097    10.206308  0.038660256  0.084996087            2 
   23000    1.2641485   -3.4398019    11.227542  0.040679501  0.084916684            2 
   24000    1.2690763     -3.46263    12.228551  0.042460246   0.08498496            3 
   25000    1.2552024   -3.4741156     13.43128  0.044770931  0.085272082            1 
   26000    1.2437408   -3.4736165    14.622595   0.04686729  0.085865678            2 
   27000    1.2540686   -3.4631673    15.783268  0.048713789  0.086608659            1 
   28000    1.2761909   -3.4829317    17.061372  0.050777891   0.08738992            4 
   29000    1.2486727   -3.4837761    18.132015  0.052103489  0.088149251            1 
   30000      1.25485   -3.4637297    19.266634  0.053518426  0.088694161            3 
   31000    1.2675765   -3.4735192    20.465036  0.055013536  0.089176824            4 
   32000    1.2530605   -3.5037509    21.452311  0.055865392  0.089574708            2 
   33000    1.2401823   -3.4696074    22.395223  0.056553592  0.089835813            1 
   34000    1.2964209   -3.4403523    23.314077  0.057142344  0.089818738            5 
   35000    1.2493947    -3.483923    24.196914  0.057611699  0.089645693            1 
   36000    1.2451912   -3.4742695    25.026415  0.057931516  0.089356195            2 
   37000    1.2573603   -3.4564325    26.107885  0.058801542  0.089054582            1 
   38000     1.271338   -3.4687471    27.293707  0.059854621  0.088831863            2 
   39000    1.2394058   -3.4644949    28.323247  0.060519758  0.088697189            1 
   40000    1.2384464   -3.4246176    29.620953  0.061710318  0.088577037            1 
   41000     1.244286   -3.4451635    30.654388  0.062305667   0.08859205            2 
   42000    1.2335668    -3.449137    31.821757  0.063138406  0.088581505            2 
   43000    1.2396708   -3.4699801    32.632331   0.06324095  0.088546447            1 
   44000    1.2585885   -3.4569537    33.600131  0.063636611  0.088472082            1 
   45000    1.2142141   -3.4731422    34.465403   0.06382482  0.088312117            1 
   46000    1.2203412   -3.4895036    35.599967  0.064492692  0.088168823            3 
   47000     1.283553   -3.4796965    36.708135  0.065085345  0.088046416            2 
   48000    1.2450335   -3.4752704    37.598601  0.065275348  0.087928118            2 
   49000     1.255554   -3.4585876    38.695421  0.065808539  0.087833898            1 
   50000    1.2134932   -3.4385658    39.919822  0.066533036  0.087808791            2 
   51000    1.2385908   -3.4600777    41.115766  0.067182624  0.087794439            1 
   52000    1.2665001   -3.4784703    42.542454  0.068177009  0.087852315            2 
   53000    1.2171186   -3.4496775    43.682418  0.068683046  0.088005678            2 
   54000    1.2408475   -3.4762032    44.600502  0.068827935  0.088119782            1 
   55000     1.239913   -3.4953139    45.589421   0.06907488  0.088219263            1 
   56000      1.23138   -3.5112144    46.682243  0.069467623  0.088278986            2 
   57000    1.2666867   -3.4635494     48.08673  0.070302236  0.088342252            1 
   58000     1.269068   -3.4821604    48.933989  0.070307455  0.088416502            1 
   59000    1.2084659   -3.4338878    49.888221  0.070463588  0.088455773            2 
   60000    1.2533883   -3.4892281      50.7631  0.070504305  0.088463325            2 
   61000    1.2363327    -3.432598     52.05175  0.071108948  0.088461366            1 
   62000    1.2182139   -3.4491447    53.061547  0.071319283  0.088476653            2 
   63000     1.221702   -3.4879576     54.10554  0.071568174  0.088499937            2 
   64000    1.2282387   -3.4518625    55.241412  0.071928922   0.08854008            1 
   65000    1.2403024   -3.5181317    55.937076  0.071714199  0.088542785            3 
   66000     1.228936   -3.4862678    57.068119  0.072055705  0.088522281            3 
   67000    1.2666134   -3.4554403    57.919536  0.072039223  0.088481454            2 
   68000    1.2371077   -3.4790727    58.981176  0.072280853  0.088438291            2 
   69000     1.224134   -3.4490037    60.113058  0.072600311  0.088394425            3 
   70000    1.2581322   -3.4773367    60.927315  0.072532517  0.088358199            1 
   71000    1.1957156   -3.5037027    61.902635  0.072655674  0.088303482            2 
   72000       1.2309     -3.45489    62.761716  0.072640875  0.088245822            4 
   73000    1.2172818   -3.4393493     64.09982   0.07317331   0.08816214            3 
   74000    1.2434771   -3.4679857    64.854734  0.073034609  0.088083808            3 
   75000    1.2354773   -3.4651447    66.130635  0.073478483  0.088037382            2 
   76000    1.2563624   -3.4665254    66.934282  0.073392852  0.087968752            1 
   77000    1.2367007   -3.4577875    68.001055  0.073594215  0.087916302            2 
   78000    1.2208563   -3.4646775    69.168301  0.073897757  0.087866314            2 
   79000    1.2294127   -3.5038911    69.929309  0.073765094  0.087810683            2 
   80000    1.2566823    -3.500406    71.211515  0.074178661  0.087755494            3 
   81000    1.2251833   -3.4835259     72.05062  0.074126152   0.08770648            2 
   82000    1.2455297   -3.4813338    72.772327  0.073955617  0.087633201            1 
   83000    1.2532149   -3.4742515    74.318137  0.074616603  0.087578187            1 
   84000    1.2267468   -3.4808286    74.913101  0.074318552  0.087533189            3 
   85000     1.217011   -3.4565054    76.531572  0.075030952  0.087502696            1 
   86000    1.2392476    -3.491757     77.47394  0.075071646   0.08749015            5 
   87000    1.2417855   -3.4705631     78.27657  0.074977557  0.087463085            4 
   88000    1.2098772   -3.4294627    80.008076  0.075765223  0.087432486            1 
   89000    1.2581202   -3.4492385    79.980511  0.074888119  0.087381268       -1e+20 
   90000    1.2448623   -3.4750233    80.820878  0.074834146  0.087306289            2 
   91000    1.2221479   -3.5040813    81.600192   0.07472545  0.087219158            1 
   92000    1.2369302   -3.4817971     83.01207  0.075192092  0.087147527            1 
   93000    1.2380797   -3.4514214    84.807752  0.075992609  0.087099725            2 
   94000    1.2332589   -3.4724671    84.815109  0.075190699  0.087056598            1 
   95000    1.2549107   -3.4351596    86.146552  0.075567151  0.087015851            2 
   96000    1.2306893   -3.4931868    87.073665  0.075584778  0.086963784            3 
   97000    1.2256254   -3.4700047     88.26885  0.075832345  0.086928181            2 
   98000    1.2184272   -3.4846859    89.528885  0.076130003  0.086880117            1 
   99000     1.246975    -3.496889    89.912963  0.075684312  0.086837964            4 
  100000    1.2289954   -3.4822896    91.449025  0.076207521  0.086795753            3 
  101000    1.2064874   -3.5092861     92.31766  0.076169686  0.086752049            1 
  102000    1.2575439   -3.4465451    93.152266  0.076104792  0.086705027            1 
  103000    1.2289579   -3.4641848     94.58499  0.076525073  0.086649007            1 
  104000    1.2435822   -3.4250853    96.288071  0.077153903  0.086609445            1 
  105000         1.23   -3.4842055     95.97583  0.076171293   0.08657452            2 
  106000    1.2119201   -3.4770102    97.349029  0.076532255  0.086540222            1 
  107000     1.249914   -3.4793647     98.12094  0.076418177  0.086498938            3 
  108000    1.2438231   -3.4827961    99.458646  0.076742782  0.086468414            2 
  109000    1.2376471   -3.4461915    100.38221  0.076744809  0.086443458            2 
  110000    1.2345046   -3.4734288      101.085  0.076579544  0.086410125            1 
  111000    1.2024577   -3.4785194    102.32534  0.076820828  0.086384065            2 
  112000    1.2250242   -3.4787635    103.31593  0.076871973  0.086362557            2 
  113000    1.2417975   -3.4947261     104.8745  0.077341076  0.086343851            3 
  114000    1.2674742   -3.4986022    105.76644  0.077314646   0.08632809            2 
  115000    1.2460396   -3.4531941    106.94491  0.077496311  0.086315631            3 
  116000    1.2405903   -3.4637221    108.29838  0.077800557  0.086300439            3 
  117000    1.2006351   -3.4687856    109.24875  0.077812503  0.086292569            2 
  118000    1.2423247   -3.4894742    108.86196  0.076879917   0.08627184            3 
  119000    1.2180684   -3.4501273    110.86641  0.077637544  0.086241516            2 
  120000     1.242417   -3.4785164    111.82564  0.077656697  0.086220628            1 
  121000    1.2260153   -3.4975482    112.66212  0.077590991  0.086200613            2 
  122000    1.2349938    -3.524432    113.01235  0.077194229  0.086170644            3 
  123000    1.2371705   -3.5168141    113.93602  0.077192428  0.086137668            2 
  124000    1.2368706   -3.4680975    115.27766  0.077471545  0.086106224            2 
  125000    1.2024588    -3.465118    116.68988  0.077793253  0.086061558            1 
  126000    1.2635073   -3.5305176    116.67394  0.077165304  0.086016466            2 
  127000    1.2186437   -3.4624847    118.52127  0.077769859  0.085971338            2 
  128000    1.2163082   -3.4456088    119.26567  0.077646923  0.085929048            2 
  129000      1.26404   -3.4961332     120.1958  0.077645867  0.085909539            2 
  130000     1.232907   -3.4692758    122.08236  0.078257924  0.085876578            1 
  131000     1.215338   -3.4829065    122.68409  0.078043316  0.085848568            4 
  132000    1.2102971   -3.4981131    123.19539  0.077774865  0.085820595            3 
  133000    1.2170662   -3.4920714    124.57182  0.078052518  0.085801185            2 
  134000    1.2333255   -3.4944419    126.19732  0.078480919  0.085781826            2 
  135000    1.2408696    -3.481531    127.50382  0.078706064  0.085764259            2 
  136000     1.236785   -3.4795339    127.80084  0.078309339  0.085747737            2 
  137000    1.2244783     -3.48302    128.98604  0.078458662  0.085729836            2 
  138000    1.2317068   -3.4579619    129.93941  0.078465826  0.085706281            2 
  139000    1.2175189   -3.4702181    130.99883  0.078536466  0.085689825            2 
  140000    1.2555464   -3.4900903    132.25604  0.078723833  0.085678317            4 
  141000    1.2254318   -3.5088827    132.85613  0.078520171  0.085663363            3 
  142000      1.24268    -3.524109     133.4973  0.078343483  0.085644587            2 
  143000    1.2455728   -3.4765349    134.59032  0.078432589  0.085625265            3 
  144000    1.1887776   -3.4926514     134.9119  0.078074017  0.085594979            3 
  145000     1.241644   -3.5132288    135.62356  0.077944573  0.085552258            1 
  146000    1.2453541   -3.4900025    136.07801  0.077670099  0.085500571            1 
  147000     1.252424   -3.5027592    137.81009  0.078123632  0.085448741            1 
  148000    1.2339785   -3.4845609    138.02941  0.077719261  0.085389106            2 
  149000    1.2342243   -3.4752576    139.06525  0.077776987   0.08533032            1 
  150000    1.2733086   -3.4688773    139.99981   0.07777767  0.085281136            3 
  151000    1.2438094   -3.5157881    140.61557  0.077602413   0.08522901            2 
  152000    1.2247433   -3.4610854    142.13769  0.077926367  0.085171701            2 
  153000    1.2210966   -3.4608395    143.79365  0.078318982   0.08511887            1 
  154000    1.2487063   -3.4872005    144.27073  0.078068575   0.08507398            2 
  155000    1.2229069   -3.4638805    145.20885  0.078069272  0.085021316            1 
  156000    1.2328072   -3.4745062    146.16226  0.078078128  0.084970925            2 
  157000    1.2131808   -3.5226467    145.96148  0.077474248  0.084918062            2 
  158000    1.2062468   -3.5115224    147.70389  0.077902895  0.084865249            4 
  159000    1.2170067    -3.472318    149.28364  0.078240899   0.08481811            1 
  160000    1.2453512   -3.4839118    149.73888  0.077988998  0.084771472            2 
  161000    1.2277614     -3.48793    150.68762  0.077995664  0.084726793            2 
  162000    1.2190387   -3.4888259    151.53626   0.07795075  0.084672372            2 
  163000    1.2184024   -3.4609427    152.83726   0.07813766  0.084620159            2 
  164000    1.2160184   -3.4742571    153.67025  0.078084474  0.084572006            2 
  165000    1.2125727   -3.4835435    154.68367  0.078123063  0.084515617            2 
  166000    1.2107116    -3.486726     155.3572  0.077990563  0.084468188            2 
  167000    1.2452116   -3.5013373    155.70547  0.077697341  0.084421733            1 
  168000     1.200797   -3.4795604    157.44101   0.07809574   0.08436402            1 
  169000    1.2180623   -3.5323302    157.56987  0.077697172  0.084319238            2 
  170000    1.2291355   -3.4835725    158.87264  0.077878747  0.084276039            2 
  171000    1.2113011    -3.469067    160.11056   0.07802659  0.084230826            1 
  172000    1.2474969   -3.5374884    160.69886  0.077857974  0.084187881            4 
  173000    1.2068071   -3.4814809    161.61982  0.077851549  0.084142423            3 
  174000     1.252452   -3.4700779    162.53026  0.077840165  0.084098205            1 
  175000    1.2182999   -3.4833702    164.59055  0.078376454   0.08405001            2 
  176000    1.2299065   -3.5148339    164.42543   0.07785295  0.084008936            2 
  177000    1.2112715   -3.4962871    166.02395    0.0781657  0.083963504            2 
  178000    1.2141586   -3.5033301    166.91345  0.078142999  0.083918833            1 
  179000    1.2250385   -3.4767074    166.42533  0.077479202   0.08386924            2 
  180000    1.2089144   -3.5365819    167.90688  0.077734665    0.0838178            1 
  181000     1.221507    -3.487136    169.67978  0.078121443  0.083772796            2 
  182000    1.2445931   -3.4983787    169.68614  0.077695117  0.083726526            2 
  183000    1.1741828   -3.4855363     171.9911  0.078320172  0.083678283            2 
  184000    1.2297216   -3.4907592    172.64098  0.078188848  0.083635126            1 
  185000    1.2635225   -3.5110495    173.54631  0.078174015  0.083594557            3 
  186000    1.2278794   -3.4977387    173.90235  0.077913241  0.083557887            4 
  187000     1.235721   -3.4933367    175.69996  0.078297667  0.083524877            1 
  188000    1.2084396   -3.5241855    175.66874  0.077867348    0.0834965            4 
  189000    1.2197863   -3.4743828    178.00485  0.078485382  0.083466151            1 
  190000    1.2192436     -3.50256    179.00765  0.078512129   0.08343664            3 
  191000    1.2508716   -3.4977934    179.25186  0.078207618  0.083408761            3 
  192000     1.223969   -3.4932419    180.50323  0.078343417  0.083385783            2 
  193000    1.2194485   -3.4607516    181.95993  0.078566465  0.083360929            2 
  194000    1.2278317    -3.484933    182.60313  0.078437773  0.083336982            2 
  195000    1.2096812   -3.5115051     183.0051  0.078207309  0.083310044            5 
  196000    1.2053544   -3.4917285    184.97808  0.078647144  0.083279065            2 
  197000    1.2049141   -3.4806741    185.75341  0.078575891  0.083253943            1 
  198000    1.2131314   -3.4718664    186.64553  0.078554516   0.08323254            1 
  199000    1.2051907   -3.5119732    187.09294  0.078347127  0.083203531            2 
  200000    1.2471529   -3.5258676    186.79827  0.077832611   0.08317502            2 
  201000    1.2105497   -3.5192226    189.34285  0.078500353  0.083148525            1 
  202000     1.199702   -3.5010332    190.74633  0.078690731  0.083126208            3 
  203000    1.2147114   -3.4354142    192.44436  0.079000146  0.083104217            2 
  204000    1.2065381   -3.4896252    192.73593  0.078731996  0.083094286            2 
  205000    1.2098806   -3.5157699    194.13074  0.078914935  0.083078897            3 
  206000    1.1938543   -3.5074537    195.11273  0.078929096  0.083065112            1 
  207000    1.2624712   -3.4946831    196.63813  0.079161887  0.083053453            1 
  208000     1.238632   -3.4920236    196.43236  0.078698863  0.083042727            2 
  209000    1.2108999   -3.4953555    197.87768  0.078898595  0.083032405            2 
  210000    1.2278466   -3.5340023    198.91865  0.078935973   0.08302021            1 
  211000    1.2178409   -3.5154555    199.71092   0.07887477  0.083009273            3 
  212000      1.26666   -3.5154845     200.5196  0.078820598  0.082995022            1 
  213000    1.2027421   -3.4795564    201.21941   0.07872434  0.082980355            1 
  214000    1.2194137   -3.5452254    201.92834  0.078632532  0.082965353            3 
  215000    1.1856444   -3.5097741    202.91231  0.078648181  0.082945325            2 
  216000    1.2261659    -3.528507    204.30641  0.078821916  0.082930663            2 
  217000    1.1830363   -3.5148858    205.80546  0.079034356   0.08292016            2 
  218000    1.2098825   -3.4927624    205.97112  0.078735137   0.08290927            2 
  219000    1.2218506   -3.5063362    208.05425  0.079168283  0.082898205            2 
  220000    1.2011392   -3.5133904    208.64039   0.07903045  0.082892099            2 
  221000    1.2360376   -3.5565913    209.65495   0.07905541   0.08288242            2 
  222000    1.2026464   -3.4966154    210.44573  0.078996146  0.082872467            2 
  223000    1.2141038    -3.512465    211.21541  0.078929525  0.082868619            1 
  224000    1.2219807   -3.4917046    212.43252  0.079029954  0.082863127            2 
  225000    1.2356072   -3.5160347    214.12661  0.079306152  0.082864621            1 
  226000    1.2194206   -3.5051466     215.8501  0.079590744  0.082864288            1 
  227000    1.2281561    -3.531985    215.80412  0.079223245  0.082863215            2 
  228000    1.2070505   -3.5152108    216.26058  0.079042608  0.082858428            3 
  229000    1.2048812     -3.48399    218.56853   0.07953731  0.082851881            2 
  230000    1.2273289   -3.5221333    219.15881  0.079405365  0.082853116            1 
  231000    1.1924231   -3.4977533    220.41058  0.079513197  0.082859415            3 
  232000    1.1780262    -3.511756     221.6512  0.079616093  0.082858265            1 
  233000    1.2383715   -3.5169124    221.53991  0.079234589  0.082861059            1 
  234000     1.234013   -3.5051552    223.01657  0.079421856  0.082868045            4 
  235000     1.200389    -3.493655    223.63507  0.079303217  0.082867349            3 
  236000     1.211139   -3.4913567    225.64128  0.079675593  0.082868085            3 
  237000    1.2200917   -3.5199825    226.22168   0.07954349   0.08286527            2 
  238000    1.2202996   -3.5049804    226.30656  0.079238991  0.082857916            1 
  239000    1.2192763   -3.5186944    226.99954  0.079149071  0.082846699            1 
  240000    1.1967186   -3.5023772    229.36508  0.079640654  0.082840023            1 
  241000    1.2265665   -3.4805691    228.57833  0.079038152  0.082833496            1 
  242000    1.2055013   -3.5064949     229.7928  0.079129754  0.082824979       -1e+20 
  243000    1.1877737   -3.5244642     230.0573  0.078894822  0.082809621            2 
  244000    1.2301452   -3.4996579    231.75803  0.079152333  0.082798238            3 
  245000    1.2189867   -3.4975434    231.98376  0.078906042  0.082784825            1 
  246000    1.1938378   -3.5062762    234.44211  0.079418058  0.082770785            1 
  247000     1.208539   -3.4988273    235.66986   0.07951075  0.082754469            1 
  248000    1.2023886   -3.4820428    236.30035  0.079401998    0.0827414            2 
  249000    1.1903996   -3.4837036    236.98004   0.07931059  0.082730739            4 
  250000    1.2084396   -3.5135477     237.6617  0.079220566  0.082717974            2 
  251000    1.2205278   -3.4891256    237.56996  0.078874488  0.082703544            2 
  252000    1.1966909   -3.5256516    238.86069  0.078988322  0.082691802            1 
  253000    1.2173104   -3.4998348    240.55285  0.079233482   0.08268179            1 
  254000    1.2292312   -3.5197144    240.82043  0.079009328  0.082670938            2 
  255000    1.2118809   -3.4985003    242.66883  0.079303538  0.082657807            2 
  256000    1.2145126   -3.5032161    244.16817  0.079481827  0.082643804            1 
  257000    1.2299495   -3.5382598    244.16357  0.079171068  0.082635138            2 
  258000    1.1948033   -3.4961278    245.94597  0.079439912  0.082626657            2 
  259000    1.2308487   -3.5270037    246.03618   0.07916222  0.082613567            2 
  260000    1.2152251    -3.495026    247.88985  0.079451875  0.082597997            1 
  261000    1.1991519   -3.5048533    247.42678  0.078999611  0.082582928            1 
  262000    1.2186586   -3.4946592     247.9995  0.078880247  0.082570944            1 
  263000    1.2191372   -3.5518449    249.30419  0.078993724  0.082555378            1 
  264000     1.211718   -3.5525351    250.50458  0.079073414  0.082541776            2 
  265000    1.2130138   -3.5380907    250.32483  0.078718498  0.082524437            1 
  266000     1.213869   -3.4852001    252.83005  0.079207408  0.082512624            2 
  267000    1.2167751    -3.503507     253.6259  0.079159145  0.082498774            1 
  268000    1.2164828   -3.5418022    253.16903  0.078721714  0.082486547            5 
  269000    1.2414448   -3.5001045    255.32707  0.079097606  0.082470706            2 
  270000    1.2026294   -3.4967805    255.45886  0.078845328  0.082454643            2 
  271000      1.22706   -3.5139551    258.60952  0.079523222  0.082440448            3 
  272000    1.2117305   -3.4848954    258.63723  0.079239347   0.08242433            1 
  273000    1.2263052   -3.5140666    259.63953  0.079255046  0.082408525            5 
  274000    1.2020169   -3.5249196    259.83344  0.079024768  0.082394766            2 
  275000    1.1982371   -3.5128549    261.15665  0.079138377  0.082379184            1 
  276000    1.2208612   -3.5414581    262.53505  0.079267828  0.082362801            2 
  277000    1.2083442   -3.5060883    261.36823  0.078630634  0.082342607            3 
  278000    1.1993456    -3.513476    263.92822  0.079115175  0.082320685            1 
  279000    1.1996388   -3.4878199    264.45816  0.078989894  0.082300539            1 
  280000    1.1865195   -3.5046352     264.1437  0.078614196  0.082279344            1 
  281000    1.2110629   -3.5603495    264.59692  0.078468838  0.082256375            2 
  282000    1.2086095   -3.4957929     266.2636  0.078683096  0.082236326            2 
  283000    1.2159757   -3.4830874    267.04013  0.078633725  0.082212657            5 
  284000     1.227212   -3.5078158    267.38435  0.078457848  0.082189686            2 
  285000    1.1774958   -3.5318721     267.8628  0.078322457  0.082167106            2 
  286000    1.2414385   -3.5518999    269.52245  0.078532181  0.082144884            2 
  287000    1.1942655   -3.5463316    272.23149  0.079045147  0.082128133            2 
  288000    1.2148498   -3.5490625    273.28566  0.079075713  0.082110985            1 
  289000    1.2107631    -3.509126    273.69901  0.078921283   0.08209577            1 
  290000    1.1927683   -3.5060641    275.17805  0.079074151  0.082080964            3 
  291000    1.2110927   -3.4727885    276.07766  0.079060039  0.082068079            1 
  292000    1.1995044    -3.555863    275.43665   0.07860635  0.082052649            1 
  293000    1.2186626    -3.506453    276.49781  0.078639876  0.082032712            2 
  294000    1.2052226   -3.5031109    278.32744  0.078890997   0.08201322            2 
  295000    1.2049511   -3.5054172    279.21605   0.07887459  0.081993111            2 
  296000    1.2234784   -3.5391381    278.99069  0.078544676  0.081972406            3 
  297000    1.1984844   -3.5246949    280.25986  0.078636326  0.081948756            2 
  298000    1.2060997   -3.5053267    280.48242  0.078434681  0.081924219            1 
  299000    1.2242701   -3.5424611    280.78227  0.078255927  0.081900552            2 
  300000    1.2031097   -3.5293982    281.51427  0.078198409  0.081874467       -1e+20 
  301000    1.1642658   -3.5588032    282.35135  0.078170362  0.081846425            2 
  302000    1.1917071   -3.5070206    285.03494  0.078652025  0.081821773            3 
  303000    1.2011298   -3.5410843    286.61938  0.078828213  0.081800424            3 
  304000    1.1888617   -3.5070654    287.62512  0.078844606  0.081781928            2 
  305000    1.2068461   -3.5096642    289.03032  0.078970034  0.081763638            1 
  306000     1.221209    -3.516395    290.05664  0.078991458  0.081746007            4 
  307000    1.1960493   -3.5302835    290.29072  0.078797699   0.08172879            2 
  308000    1.2097899   -3.5193334    289.63685  0.078364948   0.08171006            2 
  309000    1.1965604   -3.5265811    290.81728  0.078429687  0.081687081            4 
  310000    1.2163013   -3.5057933     292.0761  0.078515081  0.081665794            2 
  311000    1.2261518   -3.5345764    292.93875   0.07849377  0.081646561            1 
  312000    1.1927728   -3.5176425    295.33186  0.078881374  0.081629616            3 
  313000     1.200511   -3.5591579    293.16128  0.078051458  0.081613837            4 
  314000    1.1841465   -3.5164138    297.20721  0.078876647  0.081597715            2 
  315000     1.220505   -3.5451489    296.92773  0.078552308  0.081583003            2 
  316000    1.1843826   -3.5188701    298.51998  0.078723623  0.081569402            1 
  317000    1.1991869   -3.5450225    300.41916  0.078974542  0.081556543            1 
  318000     1.178785   -3.5392287    300.61583  0.078777734  0.081545476            1 
  319000    1.2036022   -3.5312591     302.5968  0.079048277   0.08153436            1 
  320000    1.1820622   -3.5542006    303.25132  0.078971698  0.081522701            2 
  321000    1.1932422    -3.508508    305.54128  0.079320165  0.081511045            1 
  322000     1.199184   -3.5087069    305.63322  0.079097623  0.081501449            5 
  323000    1.2266613   -3.5079218    307.47951   0.07932908  0.081493718            2 
  324000    1.1787503   -3.5033596    307.53355  0.079098136  0.081486345            2 
  325000    1.2142504   -3.4974282     307.7737  0.078916332  0.081474705            3 
  326000    1.2078104    -3.535119    307.47081  0.078596834  0.081464195            3 
  327000    1.1776239   -3.5370678    310.45823  0.079117795  0.081452837            3 
  328000    1.2342823   -3.5527207    309.73984  0.078694066  0.081442117            1 
  329000    1.1870417   -3.5152005    311.74893  0.078963762  0.081432051            1 
  330000    1.2011399   -3.5196183    311.49663  0.078660765  0.081418989            2 
  331000     1.168327   -3.4975892    315.18164  0.079350867  0.081407053            1 
  332000    1.1565081   -3.5150437       314.04    0.0788253  0.081398394            1 
  333000    1.1926978   -3.5252733    315.52677  0.078960653  0.081388913            3 
  334000    1.1685625   -3.5212661    315.88366  0.078813289  0.081376536            3 
  335000    1.2194207   -3.5361753    317.20316  0.078906259  0.081365497            2 
  336000    1.1938041   -3.5428813    318.42194  0.078973696  0.081354886            2 
  337000    1.1903193   -3.5410397    318.83786    0.0788422  0.081342377            2 
  338000    1.1979025   -3.5274382    319.21261  0.078701333  0.081326569            1 
  339000    1.1949986   -3.5203729    320.05279  0.078675709  0.081310759            3 
  340000    1.2165668   -3.5085211    321.50226  0.078799574  0.081293029            2 
  341000    1.1854864   -3.5222669    321.81969  0.078646062  0.081279087            1 
  342000    1.1708962   -3.5160935    322.43512  0.078566063  0.081266137            2 
  343000    1.2159486   -3.4941267    324.61378  0.078866322  0.081253283            2 
  344000    1.2013392   -3.5219798    325.21565  0.078782861  0.081242568            1 
  345000     1.206059   -3.5189493    325.52622  0.078629522  0.081226578            2 
  346000    1.1882223    -3.503199    327.74515  0.078936693  0.081218642            2 
  347000    1.1871253   -3.5318909    327.89869  0.078746083  0.081209336            2 
  348000    1.2155979   -3.5265181    330.78506  0.079210982  0.081201607            1 
  349000    1.2076841   -3.5349077    331.76768  0.079218643  0.081193596            4 
  350000    1.2184038    -3.535444    331.57231  0.078945788  0.081186105            2 
  351000    1.2111114    -3.509446     332.3831  0.078913366  0.081179156            3 
  352000    1.2040465   -3.5228159    333.36915   0.07892262  0.081171834            3 
  353000    1.2016006   -3.5335779    334.68013  0.079008529   0.08116367            3 
  354000    1.2070859   -3.5306472    335.66982  0.079018319  0.081154451            1 
  355000    1.2061861   -3.5297593    336.12901  0.078903524  0.081145268            1 
  356000    1.1812913     -3.50936    336.12306  0.078680491  0.081133708            1 
  357000    1.1732224   -3.5446441    337.86869  0.078867575  0.081122137            2 
  358000    1.2052034   -3.5220927    336.87997  0.078417125  0.081107797            4 
  359000    1.1928014   -3.5163952    340.77124  0.079101959  0.081092955            2 
  360000    1.1802881   -3.5842726    338.71617  0.078406522  0.081077871            4 
  361000    1.2049887   -3.5234622     341.3011  0.078786034  0.081063579            2 
  362000    1.2114436   -3.5093933    341.80796  0.078685073  0.081048301            2 
  363000    1.1940838   -3.5305674    342.79975  0.078695994  0.081033661            2 
  364000    1.2137226   -3.5430003    344.32702  0.078829445  0.081017843            3 
  365000    1.2035579   -3.5261323    343.99105   0.07853677  0.081005401            3 
  366000    1.1913432   -3.5406145    345.37232  0.078636686  0.080991221            2 
  367000    1.1907803   -3.5448173    345.48906  0.078448923  0.080975181            1 
  368000    1.2115865   -3.5418369    346.98442  0.078574371  0.080959712            5 
  369000    1.1771641   -3.5338668    349.00907  0.078818669  0.080945664            2 
  370000    1.1985237    -3.516356    349.53555  0.078724224  0.080931387            1 
  371000      1.18981   -3.5743372    348.40704  0.078258544  0.080916663            2 
  372000    1.1931351   -3.5593308    349.37137  0.078264197  0.080900596            2 
  373000    1.2206645   -3.5340676    351.48164  0.078525836  0.080885794            3 
  374000    1.2037967   -3.5333233    352.72431  0.078592761  0.080873811            2 
  375000    1.2183826   -3.5026632    354.29964  0.078733254  0.080864406            5 
  376000    1.1980487   -3.5493335    355.18984  0.078721151  0.080854838            7 
  377000    1.2124195   -3.5601862    355.69849  0.078624776  0.080844134            2 
  378000     1.217002   -3.5401854    358.97513  0.079139139  0.080835313            1 
  379000    1.2080124   -3.5311374    357.90889  0.078695887  0.080825976            3 
  380000    1.1798373   -3.5277198    359.00669  0.078729537  0.080814153            2 
  381000    1.1757545   -3.4968361    359.81078   0.07869877  0.080804521            4 
  382000    1.1777803   -3.5527892    362.53274  0.079086549  0.080796417            4 
  383000    1.1820355   -3.5300833    361.50319  0.078656048  0.080786933            3 
  384000    1.2024709   -3.5187194    363.29839  0.078840796  0.080777009            2 
  385000    1.1561114    -3.531642    363.25242  0.078626064  0.080764818            1 
  386000    1.1923776   -3.5528334    363.04779  0.078378194  0.080752604            1 
  387000    1.2051033   -3.5232396    364.46781  0.078481441  0.080740226            1 
  388000     1.193268   -3.5260026    366.91218  0.078804161  0.080728861            3 
  389000    1.1996034   -3.5165365    369.75467  0.079210512  0.080717287            2 
  390000    1.2063783   -3.5705422    367.58811  0.078544467  0.080705399            2 
  391000    1.1771362   -3.5484392    369.70095  0.078793894   0.08069729            2 
  392000    1.1965521   -3.5719361    370.38087   0.07873743  0.080685725            2 
  393000    1.1780216   -3.5491272    370.39078  0.078539181   0.08067518            2 
  394000    1.2064149   -3.5396516    372.53683  0.078793746  0.080664385            1 
  395000    1.1729748   -3.5672912    373.65718   0.07883063  0.080656417            2 
  396000    1.1686512   -3.5685174    374.85972  0.078884621  0.080646216            4 
  397000    1.1918767   -3.4939464    376.92112  0.079118623  0.080637272            3 
  398000     1.185041   -3.5499206    377.16769  0.078971459  0.080627616            2 
  399000    1.1908428   -3.5433162    376.78123  0.078692821  0.080619789            1 
  400000    1.2183233   -3.5394208    378.73372  0.078902857   0.08061246            2 
  401000    1.1773534   -3.5437663    381.07337  0.079192305  0.080605854            1 
  402000    1.2166592   -3.5322432    380.86156  0.078951402   0.08059783            2 
  403000    1.1840571   -3.5158289    380.71409  0.078724998  0.080586531            3 
  404000     1.177626    -3.550987    380.52998  0.078492159  0.080572752            2 
  405000    1.1850356   -3.5282876    380.70817  0.078335014  0.080559966            1 
  406000    1.1808621   -3.5545876    383.47726  0.078710439  0.080548073            3 
  407000    1.1963644   -3.5318661    383.11362  0.078442593  0.080536722            3 
  408000    1.1887406    -3.532783    383.95407  0.078421991  0.080525399            3 
  409000    1.1893744   -3.5201198    386.45051  0.078738899  0.080512118            5 
  410000    1.1771913   -3.5400097    385.76042   0.07840659  0.080499324            3 
  411000    1.1657905   -3.5562469    386.85621  0.078437998  0.080487056            2 
  412000    1.1747952   -3.5834848    385.29757  0.077932357  0.080474513            2 
  413000    1.1809406   -3.5514598    389.20705  0.078532497  0.080461382            2 
  414000    1.1735445   -3.5326233    389.73388  0.078448849  0.080448196            2 
  415000    1.1660788   -3.5461081    388.23024   0.07795788  0.080434861            1 
  416000    1.1924369   -3.5264723    389.73447  0.078071809  0.080418925            1 
  417000    1.2191676    -3.582729    390.01687   0.07794102  0.080400826            1 
  418000    1.2100537   -3.5600466    391.21097  0.077992618  0.080382271            1 
  419000    1.1884068   -3.5699809    391.23712  0.077811678  0.080363646            2 
  420000     1.187205   -3.5474151     393.2129  0.078018432  0.080346879            2 
  421000    1.2013809    -3.528993    394.87614   0.07816234  0.080329698            2 
  422000    1.1980856   -3.5770356    395.08953   0.07801926  0.080315707            2 
  423000    1.1871443   -3.5296078    397.69261  0.078347637  0.080299414            4 
  424000    1.1724852   -3.5107132    399.31381  0.078481488  0.080287784            1 
  425000    1.1933904   -3.5535316    398.62352  0.078161474   0.08027411            2 
  426000    1.1694071   -3.5344432    400.39464   0.07832446  0.080259818            1 
  427000    1.1744078   -3.5402642    402.42413  0.078537105   0.08024638            2 
  428000    1.1631506   -3.5209001    403.30712  0.078525529  0.080234014            2 
  429000    1.1898283   -3.5158061    404.15193  0.078506591  0.080221698            2 
  430000    1.1971629   -3.5137431    403.80448  0.078256681  0.080210178            4 
  431000    1.1829289   -3.5193655    406.34996  0.078567277  0.080199109            2 
  432000    1.1920441      -3.5374    406.62628  0.078438712  0.080187715            2 
  433000    1.1554432    -3.547647    407.26782  0.078381028  0.080174966            1 
  434000    1.1863812   -3.5329161    408.23075   0.07838532  0.080162841            2 
  435000    1.1665259   -3.5785052    406.49792  0.077873165  0.080149801            3 
  436000    1.1930868   -3.5382787    409.82028  0.078329564  0.080136224            1 
  437000    1.1988685   -3.5663573    409.84802  0.078155611  0.080122832            2 
  438000    1.1735447   -3.5356234    412.38017  0.078458937  0.080110215            2 
  439000    1.1766433   -3.5710376     411.3381  0.078082403  0.080098619            2 
  440000    1.1583882    -3.525821    412.54432  0.078133393  0.080086381            1 
  441000    1.1983011   -3.5406623    413.70631  0.078175795  0.080074226            3 
  442000    1.1785652   -3.5540129    415.12023  0.078265504   0.08006296            4 
  443000    1.1907212   -3.5876452    415.33039  0.078128364  0.080052209            3 
  444000     1.174135    -3.575249    415.76891  0.078034705    0.0800381            1 
  445000    1.1759725   -3.5848095    417.43682  0.078171689  0.080023522            5 
  446000    1.1624805   -3.5420442    418.36838  0.078170474  0.080010908            2 
  447000    1.1768613   -3.5634972    418.30078  0.077982993  0.079997802            3 
  448000    1.1833958   -3.5340628     420.2654  0.078174368  0.079985131            2 
  449000    1.1812365   -3.5609496     422.3831  0.078393299  0.079972235            1 
  450000    1.1850226    -3.562042    421.12435  0.077985991  0.079961278            1 
  451000    1.1717468   -3.5639451    423.86831  0.078320087  0.079948909            1 
  452000    1.1847079   -3.5602825    424.55805  0.078273977   0.07993642            1 
  453000    1.1753825   -3.5369415    424.89638  0.078163424  0.079925774            2 
  454000    1.1687572   -3.5394151    426.49711  0.078285079  0.079912989            3 
  455000    1.1895032   -3.5847507    427.24923  0.078250774  0.079902333            2 
  456000    1.1924073   -3.5575401    426.92282  0.078019521   0.07989226            2 
  457000    1.1824146   -3.5567015    427.93569  0.078033495  0.079881464            2 
  458000    1.1925232   -3.5449054    430.86381  0.078395889  0.079870319            1 
  459000     1.163688   -3.5614975     429.8053  0.078032915  0.079859754            1 
  460000    1.1773023   -3.5509577    430.10281  0.077917175  0.079849427            2 
  461000    1.1886538   -3.5637032    430.55471  0.077829846  0.079835389            2 
  462000    1.1635457   -3.5801226    433.16145  0.078131574  0.079822795            2 
  463000    1.1639462    -3.562652     434.6548  0.078231605  0.079809602            1 
  464000    1.1806426   -3.5658703    435.36706  0.078190923  0.079799002            2 
  465000    1.1715392   -3.5433591    437.98092  0.078491205  0.079787943            5 
  466000    1.1877384   -3.5624766     436.5127  0.078060211  0.079776607            3 
  467000    1.1965389   -3.5392068    437.60681  0.078088295   0.07976689            2 
  468000    1.1666571     -3.57521    437.89622  0.077972974  0.079755342            3 
  469000    1.1635069   -3.5550012    437.60859  0.077755614  0.079742747            4 
  470000    1.1781508   -3.5718905    438.77343  0.077796707  0.079730375            2 
  471000    1.1897218   -3.5458451    440.71128  0.077974395   0.07971974            3 
  472000    1.1801635   -3.5298159    442.10955  0.078056065  0.079708644            1 
  473000    1.2138934   -3.5602282    443.47206   0.07813109   0.07969852            2 
  474000    1.1837243   -3.5820939    445.17642  0.078265897  0.079687061            2 
  475000    1.1692001   -3.5433595    446.40131  0.078316019  0.079678706            2 
  476000    1.2111368   -3.5516622    447.78488  0.078393712  0.079671298            2 
  477000    1.1667261   -3.5849432    448.85698  0.078416663  0.079664417            2 
  478000    1.1647343   -3.5662568    448.85817  0.078252819  0.079660785            5 
  479000    1.1804373   -3.5315703    449.51909  0.078204434  0.079654945            2 
  480000    1.1704367   -3.5811789     451.0057    0.0782996  0.079648833            1 
  481000     1.159067   -3.5327738    453.13932  0.078506466  0.079642112            1 
  482000    1.1719399    -3.556221     453.7706  0.078452732  0.079635387            2 
  483000    1.1708034   -3.5593378    453.95675  0.078322421  0.079628777            3 
  484000    1.1733516   -3.5697684    455.14786  0.078365678   0.07962233            2 
  485000    1.1614158    -3.557161    454.91207  0.078163585  0.079617186            1 
  486000    1.1933333   -3.5345314     458.5593  0.078628138  0.079611826            1 
  487000    1.1631042   -3.6158048    458.39218  0.078438087  0.079607029            3 
  488000    1.1710823   -3.5842714    459.36654   0.07844374  0.079602813            1 
  489000     1.178517   -3.5557866    460.11188  0.078410341  0.079598642            2 
  490000    1.1588834   -3.5595028    461.02569   0.07840573  0.079594404            1 
  491000    1.1741509   -3.5534103     461.3002  0.078292635  0.079589548            2 
  492000    1.1918014   -3.5698149    462.83959  0.078394239  0.079582971            3 
  493000    1.1883643   -3.5473237    464.55984  0.078526004  0.079576341            3 
  494000    1.1833557   -3.6045838    463.33787   0.07816091  0.079570153            1 
  495000    1.1742063   -3.5772873    466.26312  0.078495474  0.079563371            1 
  496000      1.17173   -3.5259856    467.35812  0.078521189  0.079560454            2 
  497000    1.1869724   -3.5905638    466.41852  0.078205654  0.079555708            1 
  498000    1.1697288   -3.5998291    468.38774  0.078378135  0.079549878            3 
  499000    1.1663086   -3.5809491    471.14275  0.078681154  0.079544493            2 
  500000    1.1951515   -3.5693888    469.76488  0.078294146   0.07954021            3 
  501000    1.1696461   -3.5511352    472.44933  0.078584386  0.079536151            4 
  502000    1.1906598   -3.5828784    470.95301  0.078179451  0.079530884            2 
  503000    1.1873495   -3.5481599    473.32617  0.078417192  0.079525004            1 
  504000    1.1661742   -3.5721676    473.83419    0.0783456  0.079519291            4 
  505000    1.1772539   -3.5701928    475.69704  0.078497862  0.079513021            2 
  506000    1.1576225   -3.5462057    475.68099  0.078340084  0.079505559            1 
  507000    1.1771239   -3.5273312    477.22465  0.078439291  0.079499187            2 
  508000    1.1877729   -3.5773493    477.52156  0.078333589   0.07949375            3 
  509000    1.1687598   -3.5708089    477.26021  0.078136904  0.079485761            4 
  510000    1.1535891   -3.5411987     477.7155  0.078058089  0.079477244            2 
  511000    1.1886745   -3.5628299     479.0564  0.078124005  0.079468431            2 
  512000    1.1543165   -3.5328838    480.76017  0.078248726  0.079461209            1 
  513000    1.1783813   -3.5738883    479.56904  0.077902704  0.079453013            2 
  514000     1.175765   -3.5472131    482.47803  0.078222767  0.079443704            1 
  515000    1.1768751   -3.5617432    483.11958  0.078174689  0.079435359            2 
  516000    1.1667444   -3.5700414    484.45697  0.078239175  0.079425778            3 
  517000     1.171084    -3.568775    485.97969  0.078333283  0.079417716            2 
  518000    1.1609678   -3.5914988    484.75782  0.077985492  0.079409345            2 
  519000    1.1486207    -3.579783    484.98428  0.077871593  0.079401161            4 
  520000    1.1603927   -3.5900291    485.21252  0.077758416  0.079393807            2 
  521000    1.1580266   -3.5666387    486.35296  0.077791579  0.079384332            1 
  522000    1.1724364   -3.6116878    485.45701  0.077499522  0.079375141            3 
  523000    1.1494321   -3.5830771    488.90429   0.07790062  0.079365389            3 
  524000    1.1602054   -3.5602038    490.33933  0.077980173  0.079354971            1 
  525000    1.1784296   -3.5615365    491.73619  0.078053364  0.079345609            1 
  526000    1.1762882   -3.5653369    491.03276  0.077793529  0.079334251            2 
  527000     1.179533   -3.5423453    491.87094  0.077778453  0.079324553            1 
  528000    1.1619498   -3.5550902     490.9651  0.077488179  0.079313196            2 
  529000    1.1253305   -3.6315812    490.30923   0.07723838  0.079300964            1 
  530000     1.149157   -3.5763755     492.9457  0.077507185  0.079286097            3 
  531000    1.1740969   -3.5840002    493.66966  0.077474836  0.079272705            5 
  532000    1.1514149   -3.5402374    495.89025  0.077677043   0.07925922            1 
  533000    1.1773523   -3.5449711    496.05081  0.077556411   0.07924606            1 
  534000    1.1510752   -3.5901587    495.70849  0.077357754  0.079231689            4 
  535000    1.1542772   -3.5565724    497.29368  0.077460075   0.07921674            5 
  536000    1.1766051   -3.6033137     496.0899  0.077128405  0.079201095            2 
  537000    1.1757932   -3.5725084    498.41077  0.077344936  0.079185548            2 
  538000     1.182376   -3.5807596    500.14066  0.077469123  0.079170877            1 
  539000    1.1409778   -3.5689398    502.12782  0.077632626  0.079155947            2 
  540000    1.1680384   -3.5789655    500.88536  0.077297123  0.079142058            1 
  541000    1.1553367   -3.5633578    502.34286  0.077378752  0.079128221            5 
  542000    1.1568382   -3.5765981    505.19923  0.077675158  0.079114654            2 
  543000    1.1648631   -3.5426156    506.38369  0.077713887  0.079101766            1 
  544000    1.1710396   -3.5528941    504.70103  0.077313271  0.079088675            2 
  545000    1.1825022   -3.5808364    508.56256   0.07776186  0.079076471            2 
  546000    1.1587436   -3.5649938    508.67548  0.077636673  0.079064537            3 
  547000     1.178874    -3.564229    507.61518  0.077333208  0.079054373            1 
  548000     1.159169   -3.5845957    510.17524  0.077581393  0.079043861            1 
  549000    1.1501106    -3.574795    510.80312  0.077535385  0.079032145            4 
  550000    1.1608156   -3.5541808    510.65649  0.077372195  0.079020194            1 
  551000    1.1664431   -3.5812826    511.83934  0.077410668  0.079007927            1 
  552000    1.1448569   -3.5688585    512.48888   0.07736849  0.078996026            1 
  553000    1.1528874   -3.5762885    514.70274  0.077562197  0.078986523            2 
  554000     1.164092   -3.5678984    516.43342  0.077682524   0.07897635            2 
  555000    1.1669745   -3.5969556     516.3138  0.077524595  0.078967179            5 
  556000    1.1569463   -3.5869449     516.7915  0.077456759  0.078957092            1 
  557000     1.139415    -3.608968    517.37502  0.077404999  0.078948002            2 
  558000    1.1656151   -3.5836272    519.05878  0.077517738  0.078936015            2 
  559000    1.1631601   -3.6032487    518.10211  0.077236451  0.078924042            1 
  560000    1.1622894   -3.6001568    519.51053  0.077308115  0.078911584            1 
  561000    1.1593889   -3.5802488     519.8265  0.077217246   0.07889931            2 
  562000    1.1611106   -3.5732451    522.71612  0.077508322  0.078886825            4 
  563000    1.1450687   -3.5994789    520.58692  0.077055495  0.078875666            3 
  564000     1.162284   -3.5286497     525.7547  0.077682431  0.078863375            2 
  565000    1.1732903   -3.5757393    526.37222   0.07763602  0.078852896            1 
  566000     1.168851   -3.5566372    528.06809  0.077748541  0.078843619            2 
  567000    1.1472105   -3.5824758     528.0734  0.077612198  0.078835141            2 
  568000    1.1453399   -3.5737063    530.95007  0.077897604  0.078827007            3 
  569000     1.148291   -3.6078431    528.20837  0.077359164  0.078818762            2 
  570000     1.157715    -3.622334     530.6626  0.077582251  0.078810115            2 
  571000    1.1657865   -3.5592797    529.14366  0.077224703  0.078800682            2 
  572000     1.156229   -3.5799082    531.93585  0.077496482  0.078790965            3 
  573000     1.173312   -3.5764921      533.137  0.077535922  0.078781241            3 
  574000    1.1508007   -3.5859508    535.18087  0.077697571  0.078772799            1 
  575000    1.1687777   -3.5880967    535.00984  0.077537658  0.078762048            1 
  576000    1.1632048   -3.5863776    534.73055  0.077362637  0.078750971            2 
  577000    1.1720533   -3.5778624    535.65969  0.077362752  0.078740333            1 
  578000    1.1669582   -3.5870392      535.914  0.077265572  0.078728744            1 
  579000    1.1566861   -3.5948049    536.85501  0.077267561  0.078716417            2 
  580000    1.1533061   -3.5642127    539.28129  0.077482944  0.078704043            2 
  581000    1.1690135   -3.5727449    539.46492  0.077375921  0.078693225            4 
  582000    1.1656738   -3.5369205     541.5257  0.077538045  0.078681867            1 
  583000    1.1510532   -3.5803701    541.55782  0.077409637  0.078670731            1 
  584000    1.1487494   -3.6012132    539.51665  0.076985824  0.078659761            2 
  585000    1.1419391   -3.5797426    542.66777  0.077303101  0.078648884            2 
  586000    1.1746569   -3.5773882    542.97421  0.077214762  0.078638671            2 
  587000    1.1475527   -3.5557089     546.5166  0.077586116  0.078626878            2 
  588000    1.1596533   -3.5955616    543.15879  0.076978287  0.078614895            1 
  589000    1.1402522   -3.5742467     548.2106  0.077562337  0.078604014            2 
  590000    1.1683673   -3.6310354     545.3283  0.077023771  0.078593366            2 
  591000    1.1675602   -3.5930391    547.22292  0.077160593  0.078582867            3 
  592000    1.1503728   -3.5711338    550.36952  0.077473186  0.078571822            1 
  593000    1.1578697   -3.5881597    549.16842  0.077173752  0.078561589            6 
  594000    1.1428496   -3.6044437    551.81996  0.077415819  0.078550554            3 
  595000    1.1656857   -3.5725929    550.36945  0.077082557  0.078541217            2 
  596000    1.1640741   -3.6016406    553.90082  0.077446983  0.078531399            2 
  597000    1.1594697   -3.5602161    554.77008  0.077438593  0.078521232            1 
  598000    1.1558186   -3.5961228    552.57125  0.077002682  0.078512287            2 
  599000    1.1748296    -3.575875    557.42112  0.077548848  0.078502207            2 
  600000    1.1752797   -3.5500839    555.80263  0.077194809    0.0784926            2 
  601000    1.1283369   -3.5912896    557.49471  0.077300986   0.07848426            1 
  602000    1.1706094   -3.5945064    557.56652   0.07718252  0.078476269            1 
  603000    1.1207465   -3.5804967    561.15544  0.077550503  0.078466881            2 
  604000    1.1570595   -3.5664896    561.66618  0.077492574  0.078458521            2 
  605000    1.1379693   -3.6002498    562.12305  0.077427417  0.078450985            2 
  606000    1.1661432    -3.589955    563.75134  0.077523562  0.078442563            1 
  607000    1.1694366   -3.5954427    562.97628   0.07728944  0.078434583            3 
  608000    1.1780674   -3.5963471    562.78109  0.077135566  0.078426721            2 
  609000    1.1638894   -3.5992555    564.93617  0.077303799  0.078418386            3 
  610000    1.1414118   -3.5798562    567.29759  0.077499671  0.078410454            2 
  611000     1.175704   -3.5809351    569.72119  0.077703381  0.078403166            2 
  612000    1.1416169   -3.6085384    566.30456  0.077111188  0.078395389            1 
  613000    1.1311929   -3.5729014     570.1648  0.077510169  0.078387214            1 
  614000    1.1669293   -3.5753697    571.72301  0.077595414   0.07837992            4 
  615000    1.1483439   -3.6032167     570.6806  0.077327995  0.078372239            2 
  616000    1.1311171   -3.5827433    571.80756  0.077354919  0.078363544            2 
  617000    1.1616233   -3.5903701    571.67413  0.077211525  0.078354309            2 
  618000    1.1532057   -3.6020223    572.70778  0.077225968  0.078344493            4 
  619000    1.1501483   -3.5984105    574.88381  0.077394159  0.078333391            2 
  620000     1.180433   -3.5647087    572.39901   0.07693535   0.07832194            3 
  621000    1.1489186   -3.6395957    574.02568  0.077029748  0.078310594            2 
  622000    1.1581151   -3.5845058    576.60139  0.077250991  0.078299029            1 
  623000    1.1431136   -3.5881637    574.85343  0.076893182  0.078286711            2 
  624000    1.1561246   -3.6086917    576.96144  0.077051474  0.078275151            3 
  625000    1.1494114   -3.6161553    574.15106  0.076553475  0.078263325            3 
  626000    1.1356006   -3.5997618    574.16332  0.076432817  0.078250518            3 
  627000    1.1340341   -3.5884882    577.49257  0.076753398  0.078237636            3 
  628000    1.1295949   -3.6399876     575.4798  0.076364092  0.078224743            1 
  629000    1.1735786   -3.6041077     579.2804  0.076746211  0.078211935            2 
  630000     1.148186   -3.5941939    580.19736  0.076745682  0.078199225            3 
  631000     1.144759   -3.6328919     578.5618  0.076408056  0.078185624            3 
  632000    1.1565304   -3.5934059    580.04768  0.076483079  0.078172857            2 
  633000    1.1449942   -3.5945842    582.19602  0.076645079  0.078160123            2 
  634000    1.1842273   -3.5813985    584.73052  0.076857324  0.078147098            2 
  635000    1.1393074   -3.5716846    585.54048  0.076842582  0.078133235            2 
  636000    1.1588148   -3.5971105    587.22289  0.076942203  0.078120862            1 
  637000    1.1670535   -3.5958813    583.71489  0.076362492  0.078109511            3 
  638000    1.1432056   -3.6069506     589.2824   0.07697001  0.078097275            2 
  639000    1.1502957   -3.6046963    590.74757  0.077040633  0.078085006            3 
  640000     1.143468    -3.577324    591.17468   0.07697587  0.078071845            1 
  641000    1.1393865   -3.5941949    590.59351  0.076780228  0.078059732            2 
  642000    1.1407253   -3.5844684    591.44123  0.076770668  0.078048081            2 
  643000    1.1312333   -3.6537525    588.44396  0.076262825   0.07803478            1 
  644000    1.1342643   -3.5737189     589.7587  0.076314532  0.078020117            3 
  645000    1.1338215   -3.5570129    595.63828   0.07695585  0.078006375            3 
  646000    1.1562552   -3.5790082    591.88924    0.0763531  0.077992371            1 
  647000    1.1458625   -3.6175753    591.23965  0.076151423  0.077977488            3 
  648000    1.1122438   -3.5773735    594.30664  0.076428323  0.077963585            1 
  649000     1.109382   -3.5882355    596.84951  0.076637071  0.077950305            3 
  650000    1.1128819   -3.5926722    594.45377  0.076212021  0.077937088            2 
  651000    1.1545765   -3.6058984    598.29822  0.076587074   0.07792288            3 
  652000    1.1477863   -3.5913089     599.8521  0.076668213  0.077908789            2 
  653000    1.1419641    -3.577008    600.43722  0.076625475  0.077896888            1 
  654000     1.136834   -3.5659442    601.07251  0.076589259  0.077884347            6 
  655000    1.1321636   -3.6011763    602.46315  0.076649256  0.077871514            2 
  656000    1.1415726   -3.6241912    601.79161  0.076447105  0.077859373            2 
  657000    1.1317754   -3.5936295    603.46327  0.076542779  0.077846661            3 
  658000    1.1221328   -3.5917825    603.48384  0.076429058  0.077833693            2 
  659000    1.1349336   -3.5614926    603.59368  0.076326971  0.077821387            4 
  660000    1.1591325   -3.6164513    605.63847  0.076469504  0.077809842            1 
  661000    1.1480026   -3.5968523    608.15217  0.076670722  0.077798063            2 
  662000    1.1489718   -3.5735192    608.39902  0.076585979  0.077786724            1 
  663000    1.1658377   -3.6104001    610.99525  0.076796788  0.077774782            3 
  664000    1.1340062   -3.5904337    612.21983  0.076834818  0.077764253            2 
  665000    1.1446568   -3.5646026    613.36326  0.076862564  0.077754544            3 
  666000    1.1589557   -3.6217077    612.73736  0.076668839  0.077743114            4 
  667000    1.1209151   -3.5835598     613.3039  0.076624675   0.07773337            3 
  668000    1.1524493    -3.626185    613.75227  0.076565902  0.077722842            2 
  669000     1.126286   -3.6391689    614.24931  0.076513367  0.077712603            4 
  670000    1.1872041   -3.5599415    615.71873  0.076581932  0.077701893            3 
  671000    1.1282083   -3.5511342    621.76011  0.077218096  0.077692774            4 
  672000    1.1388566   -3.5922746    618.25028  0.076667941  0.077683335            1 
  673000    1.1263203   -3.5839298     619.8004  0.076745963  0.077673432            2 
  674000    1.1380424   -3.6030758    620.68795  0.076741834  0.077664368            1 
  675000    1.1564807   -3.6189065    620.98301  0.076664569  0.077655895            3 
  676000    1.1532788   -3.5928207    621.89164  0.076663171  0.077646877            2 
  677000    1.1505771   -3.5661711    623.98445  0.076807539  0.077638968            2 
  678000    1.1097268    -3.591241    624.94123  0.076811852  0.077630089            2 
  679000    1.1670735   -3.6103521    626.04668  0.076834399  0.077620563            3 
  680000     1.116376   -3.6039229    624.29094  0.076506242  0.077612467            5 
  681000    1.1271101   -3.6256981    623.26885  0.076268827  0.077603487            2 
  682000    1.1637141   -3.6087739    627.04601  0.076618525  0.077594589            3 
  683000    1.1668251   -3.5847281    630.04477  0.076872226  0.077586561            2 
  684000    1.1569274    -3.618108    629.83596    0.0767344  0.077578413            3 
  685000    1.1314675   -3.6141447    631.80868   0.07686237  0.077570958            2 
  686000    1.1407075   -3.5793874    632.64343  0.076851729  0.077563814            2 
  687000    1.1249664   -3.6101189    634.42923  0.076956481  0.077556541            2 
  688000     1.138515   -3.6143725    632.60592  0.076623779  0.077548932            1 
  689000    1.1248166   -3.6148996    633.98604  0.076679492  0.077541907            2 
  690000    1.1264487   -3.6079023    632.80986  0.076426311  0.077535085            1 
  691000    1.1823052   -3.5930865    638.81567  0.077039999  0.077529132            3 
  692000    1.1465097   -3.6112336    637.38702  0.076756625  0.077522539            2 
  693000    1.1507699   -3.6163099    638.57006  0.076788126  0.077516094            4 
  694000    1.1460545   -3.6179815    641.03774  0.076973792  0.077509567            1 
  695000    1.1807837   -3.5998464    641.86884   0.07696269  0.077503032            2 
  696000    1.1546882   -3.6448623    644.47413  0.077164048  0.077496725            2 
  697000    1.0957736   -3.6400279    640.75121  0.076608227  0.077489292            2 
  698000    1.1337035   -3.6129846     646.5749  0.077193756   0.07748111            2 
  699000     1.115242   -3.6095331    640.68053  0.076380607  0.077473068            3 
  700000    1.1536476    -3.593159    644.32555  0.076705423  0.077464114            1 
  701000    1.1509622   -3.6094217    643.59623    0.0765093  0.077456532            1 
  702000    1.1413316    -3.607279    647.40476  0.076852416  0.077447843            3 
  703000    1.1322768   -3.5849909    647.51832  0.076756558  0.077440194            1 
  704000    1.1329798   -3.6100747     650.5433  0.077005599  0.077432846            3 
  705000    1.1291834   -3.6142003     648.4762  0.076652033  0.077425807            3 
  706000    1.1382688   -3.5837373     650.5681   0.07679038  0.077419032            1 
  707000    1.1333953   -3.5980359    652.79081  0.076943754  0.077412979            1 
  708000    1.1382537   -3.6258936    651.76136  0.076713907  0.077406194            3 
  709000    1.1090649   -3.6492516    650.83883  0.076497277  0.077400625            2 
  710000    1.1539832   -3.6195168    653.84707  0.076742614   0.07739426            3 
  711000    1.1510685   -3.6094737    657.82164   0.07710052  0.077388764            4 
  712000    1.1608677   -3.6474779    654.10371  0.076557083  0.077382247            8 
  713000    1.1369752   -3.5791592    660.23126  0.077165878  0.077375469            4 
  714000    1.1453922   -3.6124912    657.12563  0.076695335  0.077369272            1 
  715000    1.1223148   -3.6038786    661.07411  0.077048264  0.077363665            1 
  716000    1.1333863   -3.6097381    660.40885  0.076863227  0.077358263            3 
  717000    1.1595014   -3.6124337    659.86239  0.076692514  0.077353312            1 
  718000    1.1444837   -3.6297705    660.04883  0.076607338    0.0773479            2 
  719000    1.1356264   -3.6090896     659.7719  0.076468695  0.077341705            2 
  720000    1.1355443   -3.6456442     661.3658  0.076546968  0.077335259            5 
  721000    1.1471903   -3.6199989    664.05094  0.076751148  0.077328574            2 
  722000    1.1365915   -3.6404533    664.81726  0.076733294  0.077322063            3 
  723000     1.134631   -3.6228744    662.35372  0.076343213  0.077314925            7 
  724000    1.1440762   -3.6068206    665.32498  0.076579763  0.077306676            3 
  725000    1.1116136    -3.644896    665.50816  0.076495191  0.077299119            3 
  726000    1.1267123    -3.617156    667.15101  0.076578399  0.077291516            1 
  727000    1.1372738   -3.6412859    668.93973  0.076678098  0.077282949            2 
  728000    1.1304815    -3.582073    668.34164  0.076504309  0.077275329            7 
  729000    1.1454204   -3.6178745     671.3333  0.076741346   0.07726769            2 
  730000    1.1400874   -3.6132244     673.6573  0.076901518  0.077260122            1 
  731000     1.135279   -3.6264838    670.75178  0.076465091  0.077251928            2 
  732000     1.117454   -3.6383467    669.39718  0.076206418  0.077244071            2 
  733000     1.140916   -3.6094544    673.21027  0.076535956  0.077235555            2 
  734000    1.1154411   -3.6477038    672.65284  0.076368397  0.077226299            4 
  735000    1.1222025   -3.6328861      671.328  0.076114285  0.077216065            2 
  736000    1.1523729   -3.6158863    673.19339  0.076222077  0.077206209            3 
  737000    1.1221103   -3.6215401    673.06075  0.076103658  0.077195751            5 
  738000    1.1484135   -3.5946677    674.39631  0.076151344  0.077185734            1 
  739000    1.1540125     -3.59552    677.73332  0.076424596   0.07717512            2 
  740000    1.1231185   -3.6231861    674.97733   0.07601096  0.077164463            2 
  741000    1.1250015   -3.6554474    675.86981   0.07600875  0.077153985            2 
  742000    1.1306055   -3.5965549    680.37657  0.076412462  0.077143261            2 
  743000       1.1199   -3.6404571    678.47718  0.076096588  0.077132841            2 
  744000    1.1279138   -3.6098551    677.28859  0.075861177  0.077121181            3 
  745000    1.1453424   -3.6336037     676.9931  0.075726298  0.077110215            1 
  746000    1.1123673   -3.6423246    681.23276  0.076098387  0.077099553            1 
  747000    1.1362876   -3.6716558    679.05371  0.075753426  0.077088205            3 
  748000    1.1345471   -3.6348179     681.2174  0.075893204  0.077077203            3 
  749000    1.1298114   -3.6260361    683.54838  0.076051222  0.077066699            3 
  750000    1.1344025   -3.6288936    685.69993  0.076188881  0.077056349            2 
  751000    1.1568564   -3.6022914    686.10726   0.07613263  0.077046914            2 
  752000    1.1219954   -3.6336963    688.01731  0.076243052  0.077037025            2 
  753000    1.1376093   -3.5660852     687.9165  0.076130644  0.077026741            2 
  754000    1.1333004   -3.5908707    689.32734  0.076185603  0.077017577            3 
  755000    1.1222696   -3.6016829    690.01139  0.076160197  0.077006978            3 
  756000    1.1226746   -3.6122357    689.87973  0.076044944  0.076997066            2 
  757000    1.1238364   -3.6005553    692.46404  0.076228978  0.076987683            1 
  758000    1.1351727   -3.6168551     693.1192   0.07620044  0.076977564            2 
  759000     1.135596     -3.63028    690.20853  0.075780471  0.076966946            1 
  760000    1.1367937   -3.6200025    690.89208  0.075755711  0.076956144            3 
  761000    1.1486042   -3.6028553    696.11185  0.076227754  0.076945206            2 
  762000    1.1455709   -3.6345037     690.4305  0.075506398  0.076934023            2 
  763000    1.1329823   -3.6107774    694.54113  0.075856393  0.076921662            2 
  764000    1.1361066   -3.6099706    694.49778  0.075752376  0.076909342            2 
  765000    1.1343439   -3.6185911    693.51554  0.075546355  0.076896766            2 
  766000    1.0931927   -3.6032955    693.65384  0.075462776  0.076883751            1 
  767000    1.1272503   -3.6214756    697.99724  0.075836293  0.076871014            1 
  768000    1.1237063   -3.6588201    696.75426  0.075602675  0.076858558            3 
  769000    1.1242555   -3.6632801    696.19868  0.075444157  0.076845362            2 
  770000    1.1090025   -3.6077195    698.61754  0.075607959  0.076831551            1 
  771000    1.1252242   -3.6168448    698.36213  0.075482288  0.076817964            1 
  772000    1.1367641    -3.640155    697.97482  0.075342705   0.07680518            4 
  773000    1.1401349   -3.6431458    698.08555  0.075257175  0.076791458            1 
  774000    1.1157635   -3.6185092    700.03043   0.07536934  0.076778321            4 
  775000    1.1161899   -3.6327805    702.83734  0.075573908   0.07676458            3 
  776000    1.1515591   -3.6216322    703.17391  0.075512662  0.076751073            4 
  777000    1.1438223    -3.644055    704.06026  0.075510538  0.076737425            1 
  778000    1.1561506   -3.6282755    703.33841  0.075336162  0.076723867            3 
  779000    1.1290917    -3.634587    702.54213  0.075154272  0.076711263            2 
  780000    1.1357611    -3.643712    705.56172  0.075380525  0.076697937            4 
  781000    1.1229836   -3.6340421    704.40993  0.075161111    0.0766843            2 
  782000    1.1106944   -3.6419685    706.77378  0.075316899  0.076670229            3 
  783000     1.126187   -3.5996768    707.91605  0.075342279  0.076657381            2 
  784000    1.1150129   -3.6333964    709.10583  0.075372644  0.076644513            2 
  785000     1.138397   -3.6343762    710.53868  0.075428735   0.07663126            4 
  786000    1.1343459   -3.6029301    712.09582   0.07549786  0.076618161            1 
  787000    1.1181963   -3.6240601    711.23938  0.075311243  0.076605203            1 
  788000    1.0974738   -3.6082715    711.22755  0.075214419  0.076591865            3 
  789000     1.138338   -3.6374847    709.28908  0.074914352  0.076579285            2 
  790000    1.1000887   -3.6367653    712.61343  0.075170193  0.076564953            2 
  791000    1.1279758   -3.6258427    714.55808  0.075280033  0.076551489            2 
  792000    1.1315565   -3.6020564     716.1762   0.07535524  0.076537432            3 
  793000    1.1151601   -3.5995324    714.40098  0.075073663  0.076523771            2 
  794000    1.0942332   -3.6234277    713.73631  0.074909352  0.076509485            2 
  795000    1.1111144   -3.6230887    717.85426  0.075246778  0.076495091            2 
  796000    1.1430709   -3.6236821    713.08015  0.074652444  0.076481036            3 
  797000    1.1440607   -3.6253111    717.82384  0.075054772  0.076466182            2 
  798000    1.1260029   -3.6143196    715.33169  0.074700469  0.076451433            2 
  799000    1.1155034   -3.6403675    718.76345  0.074964899  0.076436857            2 
  800000    1.1326269   -3.6608925    721.56365   0.07516288  0.076422757            1 
  801000     1.134622   -3.6296936    720.14578  0.074921533  0.076408983            2 
  802000    1.1222636   -3.6191226    723.62811  0.075189953   0.07639479            1 
  803000     1.134943   -3.6370512    720.48497  0.074770129  0.076381521            3 
  804000     1.126799   -3.6285289    725.61325   0.07520867   0.07636804            4 
  805000    1.0897779   -3.6758282    724.41516  0.074991217  0.076355073            2 
  806000    1.1244638   -3.6337244    723.19527   0.07477205  0.076341524            2 
  807000     1.115305   -3.6229341    726.64444  0.075035568  0.076328783            3 
  808000    1.1193649   -3.6074234     727.7746  0.075059261  0.076315546       -1e+20 
  809000    1.1205649    -3.626145    726.76488  0.074862472  0.076301847            4 
  810000    1.1283637   -3.6445528    729.07608  0.075007828  0.076287428            2 
  811000    1.1058796   -3.6334481    730.73784  0.075086091  0.076274035            1 
  812000    1.1157084   -3.6390829    732.25638  0.075149465   0.07626017            2 
  813000    1.1206452   -3.6195733    732.53594  0.075085685  0.076246698            2 
  814000    1.1203103   -3.6570286    729.56482  0.074689273  0.076232804            3 
  815000    1.1319194   -3.6508845    733.29834   0.07497938  0.076218478            3 
  816000    1.1594578    -3.613128     733.7723  0.074935897  0.076204517            2 
  817000    1.1177702   -3.6312276    735.66441   0.07503717  0.076190965            2 
  818000    1.0915271   -3.6669261    732.80808   0.07465445  0.076177225            6 
  819000    1.1324642   -3.6190439    735.44862  0.074831972  0.076163031            4 
  820000    1.1329101   -3.6591259    731.67477  0.074357192  0.076149163            6 
  821000    1.1269686   -3.6599566    733.31992  0.074433609  0.076134309            2 
  822000    1.1543036   -3.6195754     737.9659  0.074814062  0.076119114            4 
  823000    1.1104028   -3.6406389     737.4084  0.074666707  0.076104037            2 
  824000     1.126035   -3.6383685    735.74438  0.074407805  0.076088715            1 
  825000    1.1166309   -3.6517073    737.92877   0.07453826  0.076073706            1 
  826000    1.1111995   -3.6445108    735.48657  0.074201631  0.076057456            2 
  827000    1.0841809   -3.6328448    742.90712  0.074859645  0.076042712            3 
  828000    1.1221574   -3.6235853    739.95132  0.074471751  0.076027309            2 
  829000    1.0990046   -3.6461456    739.47713  0.074334251  0.076011509            2 
  830000    1.0790983   -3.6483974    740.85932  0.074383466  0.075995744            2 
  831000    1.1217234   -3.6571981    741.67365  0.074375617  0.075980848            3 
  832000    1.1370494    -3.675487    741.62352  0.074281202  0.075965515            2 
  833000    1.1367124     -3.61146    744.82918  0.074512723  0.075949321            2 
  834000    1.1110277   -3.6651292    744.77977  0.074418443  0.075933699            2 
  835000    1.1058187   -3.6541301    744.26561  0.074278005  0.075918379            3 
  836000     1.124613   -3.6399285    745.23775   0.07428606  0.075903016            2 
  837000    1.1117344   -3.6355989    744.38922  0.074112826  0.075886661            3 
  838000    1.1407881   -3.6425572    749.23484  0.074506249  0.075870423            2 
  839000    1.1204765   -3.6355144    746.19736  0.074115749  0.075854101            2 
  840000    1.1311491   -3.6837436    748.11752  0.074218008  0.075838579            3 
  841000    1.1181989   -3.6834894    750.70216  0.074385866  0.075823155            2 
  842000    1.1374429   -3.6717037    750.66322  0.074293668  0.075808043            3 
  843000    1.1204002   -3.6342087    753.36606  0.074472723  0.075792668            2 
  844000     1.139963   -3.6371871    751.50068  0.074200304  0.075777143            1 
  845000    1.1395982   -3.6638707    752.32708  0.074193992  0.075761303            3 
  846000    1.1251945   -3.6615327    752.50989    0.0741243  0.075745135            2 
  847000    1.1129764   -3.6362773    756.86998   0.07446576  0.075729439            2 
  848000    1.1124313   -3.6144554    757.40986  0.074431001  0.075713418            2 
  849000    1.1138403   -3.6673158    753.77413  0.073986468  0.075697626            4 
  850000     1.114401   -3.6247892    758.46422  0.074359237  0.075682376            3 
  851000    1.1273181   -3.6533598     757.0846   0.07413676  0.075666448            2 
  852000    1.1199147   -3.6643042    758.11089  0.074150126  0.075650661            2 
  853000    1.1100885   -3.6722124    756.23752   0.07388018  0.075634752            1 
  854000    1.1189425   -3.6349387    753.74626  0.073550572  0.075618078            2 
  855000     1.094151   -3.6442751    761.25325  0.074196223  0.075601745            2 
  856000    1.1166286   -3.6294429    757.95504  0.073788458  0.075586331            2 
  857000    1.1154804   -3.6237029     763.5858  0.074249883  0.075570554            1 
  858000    1.1079028   -3.6347484    763.19301  0.074125195  0.075554735            2 
  859000     1.126014   -3.6657386    761.01679  0.073827783  0.075539139            2 
  860000    1.0898793   -3.6302477    764.69909  0.074098749  0.075522929            2 
  861000    1.1465744   -3.6497205    765.16684  0.074057959  0.075506951            2 
  862000     1.133559   -3.6143475    767.31165  0.074179394  0.075491216            2 
  863000    1.0956804   -3.6566197    763.52706   0.07372799  0.075475257            1 
  864000    1.1291882    -3.628377    766.53781  0.073933045  0.075459392            1 
  865000    1.1206311   -3.6151989    766.76724  0.073869676   0.07544283            1 
  866000     1.098797    -3.654283    765.62002  0.073673982  0.075426137            4 
  867000    1.1089817   -3.6653812    767.60707  0.073779995   0.07540907            3 
  868000    1.1119638   -3.6402738    770.72394  0.073994234  0.075392431            3 
  869000    1.0859498   -3.6607223    768.74979  0.073719773  0.075377259            1 
  870000    1.1196924   -3.6336014    774.06291  0.074143957  0.075361336            7 
  871000    1.1225358   -3.6452569    774.05388  0.074057968  0.075346681            2 
  872000    1.1407737   -3.6519395     772.8547  0.073858438  0.075331507            3 
  873000    1.1103558   -3.6422507    774.05201  0.073888126  0.075316803            1 
  874000    1.0955242   -3.6281546    774.51714  0.073847935  0.075301794            3 
  875000    1.1248394    -3.643181    775.80012  0.073885725  0.075286526            3 
  876000    1.1377114   -3.6567271    777.02502  0.073917905  0.075271448            2 
  877000    1.1259695   -3.6309173    778.39885  0.073964163  0.075257187            4 
  878000    1.1360547   -3.6406288    778.97516   0.07393462  0.075242903            3 
  879000    1.1306437   -3.6490608    777.81581  0.073740596  0.075228921            2 
  880000    1.0921612   -3.6149789    780.89654  0.073948536  0.075214298            6 
  881000    1.1065211   -3.6617256    783.47581  0.074108571  0.075199615            2 
  882000    1.1107996   -3.6190287    782.76696  0.073957574  0.075184193            2 
  883000    1.1144957   -3.6414862    782.09946  0.073810821  0.075168242            1 
  884000    1.1124946   -3.6563182    782.12406  0.073729644  0.075153623            2 
  885000    1.1124569   -3.6710144    781.45671  0.073583494  0.075138063            3 
  886000    1.1111127   -3.6750779    782.21313  0.073571589  0.075121838            1 
  887000     1.085754   -3.6419332    784.23236   0.07367835  0.075105313            5 
  888000     1.119446   -3.6214043    783.64951  0.073540682  0.075089397            2 
  889000    1.1168345   -3.6833862    782.77411  0.073375901  0.075073849            3 
  890000    1.0947687   -3.6287637     784.9393  0.073496189  0.075058048            3 
  891000    1.1406994   -3.6747722     788.6464  0.073760419  0.075042417            4 
  892000    1.1142243   -3.6543383     786.8442  0.073509361  0.075026305            1 
  893000    1.1192478   -3.6479755     790.0339  0.073724701  0.075010897            3 
  894000    1.0916713   -3.6573787    788.43191  0.073492907   0.07499481            3 
  895000    1.1043901   -3.6418063    793.00133   0.07383625  0.074979861            2 
  896000    1.1064147   -3.6630187    791.10401  0.073577381  0.074964012            3 
  897000    1.1227866   -3.6619694     790.0995  0.073402034  0.074948467            1 
  898000    1.1080001    -3.662545    789.01226  0.073219401  0.074931848            1 
  899000    1.1079549   -3.6432625    792.62376  0.073472725  0.074915446            2 
  900000    1.0947018   -3.6949979    793.31595  0.073455181  0.074900361            2 
  901000    1.1080996   -3.6555846    792.63661  0.073310822  0.074884452            2 
  902000    1.1024354    -3.646547    797.32707  0.073662885  0.074869233            2 
  903000    1.1103534   -3.6516972    796.03753  0.073462304  0.074853515            2 
  904000    1.1086538    -3.632941     797.9372  0.073556158  0.074837381            1 
  905000    1.1093989    -3.681237    796.41647  0.073334849  0.074822078            4 
  906000    1.0952485   -3.6608015    796.44364  0.073256405  0.074806713            2 
  907000     1.109719   -3.6481845    800.35985  0.073535451  0.074791335            7 
  908000     1.086968   -3.6738937     800.8878  0.073502918  0.074775386            1 
  909000     1.122507   -3.6373556    799.52696  0.073297301  0.074760145            5 
  910000    1.0850575   -3.6420214    803.96289  0.073622975  0.074744328            1 
  911000    1.0889312   -3.6641808    802.15956  0.073377201  0.074729019            2 
  912000    1.0999415   -3.6256837    806.50621  0.073693915  0.074714027            3 
  913000    1.1047362   -3.6550523    803.58523  0.073346589  0.074698751            3 
  914000    1.0950544   -3.6264147    805.77713  0.073466186  0.074682871            2 
  915000    1.1315234   -3.6495673    805.27129  0.073339826  0.074667886            4 
  916000    1.0993932   -3.6425311    806.71685  0.073391271   0.07465293            1 
  917000    1.1107668     -3.67776    809.26853  0.073543123  0.074638563            2 
  918000    1.0933423   -3.6574495    808.04698  0.073352122  0.074624584            5 
  919000    1.1024935   -3.6572399    807.92626  0.073261358  0.074610521            2 
  920000    1.1053814   -3.6706934    808.35012   0.07322012  0.074596354            3 
  921000    1.0896079   -3.6628884    811.48147  0.073423948  0.074582057            3 
  922000    1.0972987   -3.6724716    814.03371  0.073574992  0.074567683            1 
  923000    1.1069183   -3.6526295    813.17444    0.0734177   0.07455364            1 
  924000    1.0918443   -3.6336229    814.00169  0.073412851  0.074540048            4 
  925000    1.1083485   -3.6426497    815.81681   0.07349701   0.07452614            2 
  926000    1.0799703   -3.6350867    817.44661  0.073564309  0.074511725            6 
  927000    1.1087551   -3.6423515    818.64884  0.073593027  0.074498125            7 
  928000    1.0923235   -3.6798332    820.02573  0.073637368  0.074484452            5 
  929000    1.0818794   -3.6360491    824.11345   0.07392478   0.07447145            3 
  930000    1.1147659   -3.6826724    816.78493  0.073188614  0.074458421            7 
  931000    1.1043185   -3.6761962    820.04868  0.073402138  0.074445574            1 
  932000    1.0931212   -3.6426497     816.1747  0.072976994  0.074432438            5 
  933000    1.1154501   -3.6690038    820.34043   0.07327085  0.074419314            2 
  934000    1.0851309   -3.6745111    824.11349   0.07352904  0.074406237            7 
  935000    1.1000935   -3.6157828    827.73679  0.073773333  0.074394272            1 
  936000    1.0977435   -3.6627796    824.46412  0.073403144  0.074382201            3 
  937000    1.1033429   -3.6710283    825.63224  0.073428694  0.074368861            2 
  938000     1.070994   -3.6798572    824.88496  0.073284022  0.074356681            1 
  939000    1.0845103   -3.6359149    825.86561  0.073293007   0.07434428            2 
  940000    1.0907166   -3.6887967    827.35139  0.073346754  0.074331834            4 
  941000    1.1157281   -3.6835343    827.70867  0.073300449  0.074319387            3 
  942000    1.1010503   -3.6560047     830.9678  0.073510952  0.074306149            3 
  943000    1.1148147   -3.6876145    829.70375  0.073321293  0.074293078            2 
  944000    1.0946961   -3.6476171     828.4761  0.073135249  0.074281357            2 
  945000    1.1035135     -3.65196    835.77367  0.073701381  0.074268862            2 
  946000    1.0876667   -3.6612734    833.64168  0.073435666  0.074256583            3 
  947000    1.1070932    -3.667101    832.74449   0.07327917  0.074244524            2 
  948000    1.1221525    -3.695946    833.82881  0.073297188  0.074231289            2 
  949000    1.0799225   -3.6677776    836.08437  0.073418016  0.074219128            2 
  950000    1.1253092   -3.6657779    836.31678  0.073361121  0.074207163            2 
  951000    1.1006027   -3.6483021    839.69141  0.073579689  0.074194611            1 
  952000    1.1308877   -3.6932077    836.71187  0.073241585   0.07418265            2 
  953000    1.1079422   -3.6617262    841.26386  0.073562772  0.074170289            4 
  954000    1.1028005   -3.6678406    840.26759  0.073398637  0.074157398            1 
  955000    1.0920395   -3.6407139    837.55746  0.073085293  0.074144576            3 
  956000     1.118642   -3.6243842    840.24236  0.073242884  0.074131779            1 
  957000    1.0784779   -3.6608734    841.15294  0.073245641  0.074119082            1 
  958000    1.1098002   -3.6324355    844.37089  0.073449104  0.074107004            2 
  959000    1.0958705   -3.6646046    843.54262  0.073300541  0.074094991            3 
  960000    1.0907613   -3.6833684    846.33147  0.073466273  0.074083369            2 
  961000    1.1106508   -3.6627645    846.81742  0.073431965  0.074071204            3 
  962000    1.0935471   -3.6896349    843.49065  0.073067451   0.07405915            2 
  963000    1.1323411   -3.6585583    848.11365  0.073391628  0.074047191            1 
  964000    1.0586308   -3.6610759    846.87943  0.073208803  0.074034905            3 
  965000    1.1075888   -3.6911928    844.71938  0.072946406   0.07402206            2 
  966000    1.0824299   -3.6814479    846.48624  0.073023313  0.074008809            2 
  967000    1.0732138   -3.6794358    847.74428  0.073056211  0.073996227            2 
  968000    1.1075455   -3.6473543     852.3888  0.073380579  0.073983947            5 
  969000    1.1030305   -3.6754825    847.00685  0.072842006  0.073971031            3 
  970000    1.1123406   -3.6509031    853.13182  0.073293111  0.073958292            2 
  971000    1.1150028   -3.6753526    852.17414   0.07313544  0.073946316            2 
  972000    1.0950946   -3.6677367    855.36934  0.073334134   0.07393418            1 
  973000    1.0889674   -3.6922999    850.72679   0.07286115  0.073922303            5 
  974000    1.0992372   -3.7298549     852.6413  0.072950145  0.073909863            2 
  975000    1.0906337   -3.6502313      856.368  0.073193846  0.073898604            1 
  976000     1.116598   -3.6584552    859.73709  0.073406514  0.073887141            2 
  977000    1.0993584   -3.6683868    857.85062  0.073170472   0.07387595            2 
  978000    1.1016444   -3.6523766    856.88647  0.073013503    0.0738643            2 
  979000    1.1389751   -3.6579343    856.46285  0.072902864  0.073852665            3 
  980000    1.1101232   -3.6659812    858.56647  0.073007353  0.073840387            2 
  981000    1.1042068   -3.6616993    861.48668  0.073180996  0.073828392            2 
  982000    1.1292796   -3.7143095    858.37215  0.072842172  0.073815575            3 
  983000    1.0922725   -3.6748852    859.85568  0.072893835  0.073803175            3 
  984000    1.0969688   -3.6589689    864.22959  0.073190175  0.073789969            4 
  985000    1.0880358   -3.6581181    862.21249  0.072945219  0.073777388            5 
  986000     1.093094   -3.6695132     862.2512   0.07287451  0.073764628            2 
  987000    1.1081859   -3.6978562    864.48043  0.072988891  0.073752888            4 
  988000    1.1101717   -3.7013812    861.57065  0.072669589  0.073740777            4 
  989000    1.0850592   -3.6798106    865.09161  0.072892788  0.073728598            2 
  990000     1.086067   -3.6736201    866.13205  0.072906738  0.073715585            2 
  991000    1.1025008   -3.6802768    866.08807  0.072829471  0.073702374            1 
  992000    1.0915902   -3.6863353    865.68308  0.072722033  0.073689204            2 
  993000    1.0961846   -3.6561976    868.92745  0.072921068  0.073676624            2 
  994000     1.104959   -3.6860731    868.94834  0.072849458  0.073664263            1 
  995000    1.0956862   -3.6834527    869.63523  0.072833771  0.073651173            1 
  996000    1.0835723    -3.694592    872.03325  0.072961282  0.073638268            1 
  997000    1.0904975   -3.6855895    872.69507   0.07294342   0.07362687            4 
  998000    1.1041192   -3.6749665    872.94191  0.072890941  0.073615287            5 
  999000    1.1100747   -3.6839924    872.11084  0.072748652  0.073603127            1 
 1000000    1.0540519   -3.6713769      876.583  0.073048583  0.073591485            3 
 1001000    1.0949074   -3.6933982    876.25188  0.072948042  0.073579748            3 
 1002000    1.0973571   -3.6734869      877.172  0.072951763  0.073568551            2 
 1003000    1.0696645   -3.6789557    877.18005  0.072879699  0.073557658            1 
 1004000    1.0932716   -3.6834752    881.09302   0.07313189  0.073546557            3 
 1005000    1.0944101   -3.6702168    882.66804  0.073189722  0.073535317            3 
 1006000    1.1143381   -3.6523958    883.15806   0.07315756  0.073525244            2 
 1007000      1.07852   -3.6819744    885.70147  0.073295388  0.073515103            2 
 1008000    1.1233918   -3.6492292    883.15884   0.07301247  0.073505477            1 
 1009000    1.0591258   -3.7164149    883.94158  0.073004755  0.073495554            4 
 1010000    1.1053886   -3.6951813    887.72221  0.073244407  0.073485191            2 
 1011000    1.1016418   -3.6711192    889.40448  0.073310623  0.073475436            2 
 1012000    1.0916356   -3.6755964    887.83489  0.073108934  0.073465674            2 
 1013000     1.075404   -3.7023871    891.08647   0.07330425  0.073456348            4 
 1014000    1.0696489   -3.6961817    889.22196  0.073078728  0.073447215            1 
 1015000    1.0963867   -3.6860771    892.51448  0.073277051  0.073438343            3 
 1016000    1.0975686   -3.7077716    885.81229  0.072655208  0.073428903            2 
 1017000    1.0665989    -3.689743    891.23115   0.07302779   0.07341909            2 
 1018000    1.0966615   -3.6833706    893.71788  0.073159617  0.073409471            3 
 1019000    1.0982465    -3.700332    891.75038   0.07292692  0.073400658            2 
 1020000    1.1018379   -3.6901041    892.99013   0.07295671  0.073391463            3 
 1021000    1.0517121   -3.6971728    895.38111  0.073080404  0.073382452            2 
 1022000    1.0764936   -3.7012234     898.2465  0.073242539  0.073373057            2 
 1023000    1.0986142   -3.6851484    897.53857  0.073113275  0.073363576            1 
 1024000    1.0508189   -3.6993125    896.08451  0.072923544  0.073354496            1 
 1025000     1.082174   -3.6856229    896.91451  0.072919879   0.07334508            3 
 1026000     1.077595   -3.6893476    898.97637  0.073016274  0.073335734            3 
 1027000    1.1065369   -3.6632781    901.07503  0.073115468  0.073326531            3 
 1028000    1.0864047   -3.6782998    896.85855  0.072702542  0.073316282            4 
 1029000    1.0966656   -3.6774744    901.57083  0.073013511  0.073306143            1 
 1030000    1.0954889   -3.6967826    899.87693  0.072805577  0.073295791            2 
 1031000    1.0929906   -3.6609312     902.8065  0.072971751  0.073285178            4 
 1032000    1.0886773   -3.6915062    901.05109  0.072759294  0.073274651            9 
 1033000    1.1012849   -3.6899486    899.73659  0.072582816  0.073263743            5 
 1034000    1.0897848   -3.7174512    898.00944  0.072373423   0.07325321            2 
 1035000    1.0833477   -3.6939345    902.69969  0.072681134  0.073241758            3 
 1036000    1.1008411   -3.6808114    898.99176  0.072312722   0.07322991            2 
 1037000    1.0946881   -3.6646814    904.71951  0.072703271  0.073218169            4 
 1038000    1.0744612   -3.7027538    902.48318  0.072453691  0.073206594            2 
 1039000    1.0876673   -3.6953608    902.69258  0.072400752  0.073194985            3 
 1040000    1.0989683   -3.6937989    906.10827  0.072604829  0.073184044            6 
 1041000    1.0794396   -3.6887201    908.21886  0.072704039  0.073173371            4 
 1042000    1.0701185   -3.6921527    908.29755  0.072640559  0.073162892            5 
 1043000    1.0798767   -3.6855074    908.44046  0.072582331  0.073151776            4 
 1044000    1.0889521   -3.6916828    908.85928  0.072546239   0.07314085            2 
 1045000     1.054649   -3.6685036    912.88169  0.072797583  0.073130398            3 
 1046000    1.0813206   -3.6906149    912.17157  0.072671413  0.073119871            5 
 1047000    1.0837836   -3.6983454    912.49793  0.072627979   0.07310924            3 
 1048000    1.0879261   -3.7160993    913.96463  0.072675304  0.073098631            2 
 1049000     1.081116   -3.6767442    914.57311  0.072654362  0.073088002            5 
 1050000    1.0990414   -3.6809862    915.10032   0.07262701  0.073078038            2 
 1051000     1.095903   -3.6713393     915.6427  0.072600911  0.073067916            1 
 1052000    1.0973223   -3.6851391    913.70422  0.072378344   0.07305752            7 
 1053000    1.1123796   -3.6946853    920.14936  0.072819671  0.073047078            3 
 1054000    1.0696488   -3.6907571    919.14909  0.072671497  0.073036941            2 
 1055000    1.0800801   -3.6898207    915.81943  0.072339607   0.07302653            2 
 1056000    1.0491771   -3.6711952    921.37313   0.07270937  0.073016081            1 
 1057000    1.1075538   -3.6823387    920.82956  0.072597726  0.073005845            2 
 1058000    1.0859568   -3.7196366    921.41815  0.072575469  0.072995053            3 
 1059000    1.0689126   -3.6832761     919.2167  0.072333703  0.072983985            1 
 1060000    1.0818679   -3.6878122    921.32307  0.072431059  0.072972975            3 
 1061000    1.0856768   -3.6917586    920.46204  0.072295165  0.072962166            2 
 1062000    1.0720815   -3.7212175    921.92098  0.072341571   0.07295109            2 
 1063000    1.0735662   -3.7037236    923.00282  0.072358327  0.072940254            1 
 1064000    1.0775874   -3.6947734    926.60259  0.072572258   0.07293018            2 
 1065000    1.0787409   -3.6772048    922.76481  0.072203819  0.072919858            2 
 1066000    1.0922417   -3.7146043    918.12787  0.071773598  0.072908985            2 
 1067000    1.0999342   -3.6840049     926.2641  0.072341776  0.072898326            4 
 1068000    1.0764382   -3.7202278    927.17045  0.072344761  0.072887518            2 
 1069000    1.0804665   -3.7077603    927.68648  0.072317312  0.072877153            1 
 1070000    1.0835142   -3.6867882     928.5129  0.072314089  0.072866371            2 
 1071000    1.0719558   -3.7179565    925.57714   0.07201814  0.072855537            2 
 1072000    1.0801943   -3.6676648    930.37055  0.072323581  0.072844576            2 
 1073000    1.0718198   -3.7197304    933.21679  0.072477228  0.072833822            3 
 1074000    1.0898786   -3.7173015    930.70118  0.072214554  0.072822723            2 
 1075000    1.0878424   -3.6959675    931.64949   0.07222089  0.072811657            4 
 1076000    1.0683511   -3.6814825    931.56069  0.072146894  0.072800923            3 
 1077000    1.0757364   -3.7228289    932.22896  0.072131613  0.072790292            1 
 1078000    1.0593296   -3.7143391    931.52261  0.072010096  0.072779085            2 
 1079000    1.0876266   -3.6714224    936.85206  0.072354963  0.072768242            1 
 1080000    1.0892809   -3.6844926    939.81256  0.072516401   0.07275756            3 
 1081000    1.0519644    -3.724978    937.30951   0.07225636  0.072746752            2 
 1082000    1.0551818   -3.6924783    934.34343  0.071961139  0.072735629            2 
 1083000    1.0717722   -3.7181365    939.79682  0.072314314  0.072724536            2 
 1084000    1.0820936   -3.6570716    943.97913  0.072569121  0.072713922            1 
 1085000    1.0729818    -3.693269    943.87199  0.072494008  0.072702794            5 
 1086000     1.056621   -3.6938684    938.56416  0.072019963  0.072691672            1 
 1087000    1.0850355   -3.7207974    937.25402  0.071853267  0.072679795            2 
 1088000    1.0818298   -3.7020399    942.71283  0.072205333  0.072668124            4 
 1089000    1.0691725   -3.7046048    943.24389  0.072179667  0.072657479            3 
 1090000    1.0647881   -3.7267096    943.76944  0.072153627  0.072646378            3 
 1091000    1.0534325    -3.703504    945.22612  0.072198756  0.072634939            2 
 1092000    1.0655757   -3.7116296    943.53816  0.072003828  0.072624027            2 
 1093000     1.104963   -3.7310809    944.39992  0.072003653  0.072612596            4 
 1094000     1.081154   -3.6940291    948.07416  0.072217715  0.072601136            3 
 1095000    1.0807132    -3.729993    947.11244  0.072078572  0.072589347            2 
 1096000    1.0935158   -3.6982464    946.49114  0.071965567  0.072577844            2 
 1097000    1.0823339   -3.6966791    944.76539  0.071768869  0.072566291            2 
 1098000    1.0697174   -3.6978484    947.31707  0.071897167   0.07255464            5 
 1099000    1.0885721   -3.6958305    947.13472  0.071817919  0.072542708            1 
 1100000    1.0729034   -3.6947756    947.75687  0.071799762  0.072530931            2 
 1101000    1.1080236   -3.7028118    954.29595  0.072229484  0.072519643            3 
 1102000    1.0634228   -3.7056667     951.7965  0.071974932  0.072508945            2 
 1103000    1.0569553   -3.7372266    950.16252  0.071786228  0.072497173            1 
 1104000     1.067879   -3.7019312     952.1377  0.071870297  0.072485435            2 
 1105000    1.0619045    -3.692055     950.1241  0.071653401  0.072473279            2 
 1106000    1.0740232   -3.7060468      954.333  0.071905741  0.072460926            2 
 1107000    1.0687933   -3.6836805    954.01029  0.071816493  0.072449037            3 
 1108000    1.0730083   -3.7030023    954.42827  0.071783113  0.072436688            2 
 1109000    1.0707982   -3.7037283    953.36963  0.071638836  0.072424724            2 
 1110000    1.0674341   -3.6899846    955.69829  0.071749121  0.072412567            2 
 1111000    1.0650226    -3.712945    954.81434  0.071618237   0.07240089            2 
 1112000    1.0977646   -3.7127944    957.35288  0.071744071  0.072389503            1 
 1113000    1.0543283   -3.7040438    960.02812  0.071879913  0.072379239            4 
 1114000      1.08291   -3.6967448    957.03083  0.071591175  0.072368441            1 
 1115000    1.0707981    -3.707897    962.31418  0.071921837  0.072357464            1 
 1116000    1.0732562   -3.7222667    965.22328  0.072074618  0.072346979            6 
 1117000     1.067909   -3.6999357    967.73039  0.072197134   0.07233667            3 
 1118000     1.069819   -3.6994118    962.47562  0.071740878  0.072326273            4 
 1119000    1.0628872   -3.7363653    965.81867  0.071925728  0.072315877            3 
 1120000    1.0503429   -3.7063277    963.13162  0.071661579  0.072305511            1 
 1121000    1.0614268   -3.7218617    970.09372  0.072115204  0.072295244            4 
 1122000    1.0915763    -3.730679    966.56843  0.071789099  0.072284946            3 
 1123000    1.0641515   -3.6998123    969.42581  0.071937208  0.072274826            1 
 1124000    1.0649431   -3.7029435    972.15869  0.072075822  0.072265111            2 
 1125000     1.099441   -3.7235203    969.44373  0.071810646  0.072254531            3 
 1126000    1.0845549   -3.7320527    969.11019  0.071722187  0.072244417            6 
 1127000    1.0849382   -3.6980765    970.77519  0.071781662  0.072234085            1 
 1128000    1.0568928   -3.7245732    967.84408  0.071501483  0.072223471            5 
 1129000    1.0834031   -3.6904174    974.24647  0.071910722  0.072212802            2 
 1130000    1.0658112   -3.6973196    972.51717  0.071719555  0.072202193            3 
 1131000    1.0775515   -3.7009984    973.98932  0.071764613  0.072191356            4 
 1132000    1.0796271    -3.713495    975.52963  0.071814607  0.072180473            4 
 1133000    1.0660373   -3.7077129    975.94646  0.071781881  0.072169383            2 
 1134000    1.0578344   -3.7095461    974.88676  0.071640708  0.072158636            2 
 1135000    1.0508548   -3.7095494    971.64119  0.071339295  0.072147698            1 
 1136000    1.0812689   -3.7161493    978.28932  0.071764181  0.072137469            2 
 1137000     1.062015   -3.7067041    982.33108  0.071997294  0.072126847            2 
 1138000    1.0754173   -3.7241181    976.23445  0.071487584  0.072116807            2 
 1139000    1.0863676   -3.7068702    978.41709   0.07158451  0.072106339            2 
 1140000    1.0720123   -3.7181268    983.38572  0.071884921  0.072095838            1 
 1141000    1.0725714   -3.6804358    982.39896  0.071749851  0.072085345            1 
 1142000    1.0763368    -3.687266    985.00363  0.071877089  0.072074904            5 
 1143000    1.0766914   -3.7043222    984.19731  0.071755418  0.072064264            2 
 1144000    1.0906903   -3.7116145    982.87949  0.071596699   0.07205356            3 
 1145000    1.0706503   -3.7309947    978.36632    0.0712057  0.072042355            4 
 1146000    1.0711405   -3.7159938    984.34981  0.071578666   0.07203144            4 
 1147000    1.0567814   -3.7222765    986.89737  0.071701349  0.072020886            2 
 1148000    1.0592458   -3.6711724    987.71813  0.071698471  0.072010624            3 
 1149000    1.0668656   -3.7211969    991.03407  0.071876564  0.071999977            3 
 1150000     1.065669   -3.7487597     985.4975  0.071412862  0.071989277            2 
 1151000    1.0829606   -3.7491199    984.63904  0.071288665  0.071978654            2 
 1152000    1.0629279   -3.7464487    990.21958  0.071630467  0.071968372            1 
 1153000    1.0497079   -3.6981016    991.77012  0.071680408   0.07195808            2 
 1154000     1.086823   -3.7139341    991.17441  0.071575275  0.071947678            1 
 1155000    1.0691283   -3.7310663    990.40887  0.071458072  0.071937755            4 
 1156000     1.047521   -3.7256348    990.35911  0.071392669  0.071927419            5 
 1157000    1.0615632   -3.7042458    993.47653  0.071555497  0.071916857            4 
 1158000    1.0600479   -3.7044719    996.63176  0.071720766  0.071906296            4 
 1159000    1.0695527   -3.7044813    994.12327  0.071478521   0.07189595            3 
 1160000    1.0763279   -3.7474032    993.27423  0.071355908  0.071886035            2 
 1161000    1.0533716   -3.7091382    995.95777  0.071487064  0.071876337            6 
 1162000    1.0535531   -3.7703988    995.07534  0.071362259  0.071865915            3 
 1163000    1.0384947   -3.7034682    997.67292  0.071487025  0.071855481            6 
 1164000     1.057095    -3.731616     995.6362  0.071279797  0.071844976            2 
 1165000    1.0606182   -3.7219148    997.84358  0.071376508  0.071834494            2 
 1166000    1.0675839   -3.7510279    996.03674  0.071186159  0.071824523            3 
 1167000    1.0641444   -3.7367885    997.34224  0.071218383  0.071814016            3 
 1168000    1.0650367   -3.6900472      1003.75   0.07161458  0.071804506            2 
 1169000    1.0559397    -3.702829    1004.7782  0.071626619  0.071794228            3 
 1170000    1.0709633   -3.7236324    1003.8814  0.071501524  0.071784103            3 
 1171000    1.0695891   -3.7176577    1006.8318  0.071650429  0.071774367            6 
 1172000    1.0678354   -3.7034297    1005.3643  0.071484945  0.071764792            2 
 1173000    1.0692321   -3.7213312    1009.0813  0.071688069  0.071754868            3 
 1174000    1.0596258   -3.7130293    1010.2346  0.071708874  0.071745363            2 
 1175000    1.0578505   -3.7206669    1012.2819  0.071793043  0.071736178            2 
 1176000    1.0784176   -3.6964513    1015.2659  0.071943447  0.071727325            3 
 1177000    1.0689275   -3.7045181    1012.3163  0.071673484  0.071717999            3 
 1178000    1.0734792   -3.7170682    1012.0416  0.071593212  0.071709041            4 
 1179000    1.0506409   -3.7155277    1012.6073  0.071572472  0.071699814            2 
 1180000    1.0365697   -3.7289728    1011.3958  0.071426256  0.071690397            2 
 1181000    1.0608146   -3.7482659    1009.4613  0.071229273  0.071680548            3 
 1182000    1.0724473   -3.7211795    1013.5706  0.071458726  0.071670628            3 
 1183000    1.0831073   -3.7269647    1014.2078  0.071443213  0.071660777            2 
 1184000    1.0459157   -3.7624317     1015.259  0.071456856  0.071651104            2 
 1185000     1.066452   -3.7110039    1017.1127   0.07152691  0.071641462            4 
 1186000    1.0316717   -3.7219084    1015.7957  0.071374067  0.071631416            2 
 1187000    1.0785148   -3.6967446    1013.6691  0.071164638  0.071621544            1 
 1188000    1.0676395   -3.7429915    1015.6982  0.071247066  0.071611829            3 
 1189000    1.0470709   -3.7165924    1018.5654  0.071388099  0.071601984            3 
 1190000    1.0483938   -3.7078573    1021.1832  0.071511425  0.071592187            2 
 1191000    1.0664857   -3.7337771    1017.0826   0.07116447  0.071582147            3 
 1192000    1.0544897   -3.7248514     1022.208  0.071463084  0.071572075            1 
 1193000    1.0467557   -3.7137236    1019.9956  0.071248646  0.071562303            1 
 1194000    1.0515869   -3.6867669    1022.5852  0.071369711  0.071551921            2 
 1195000    1.0868352   -3.7482349     1020.044  0.071132779  0.071542277            5 
 1196000    1.0844345   -3.7081873    1020.4165  0.071099254  0.071532496            2 
 1197000    1.0701822   -3.6803244    1027.3239  0.071520742  0.071523059            4 
 1198000    1.0569638   -3.7594193    1019.0877  0.070888124  0.071513037            4 
 1199000    1.0661758   -3.7324367    1020.7257  0.070942849   0.07150268            2 
 1200000    1.0427605     -3.72087    1023.5752   0.07108161  0.071492587            2 
 1201000    1.0569417   -3.7203028    1025.8017  0.071176915  0.071482889            2 
 1202000    1.0305901   -3.7262433    1026.5175  0.071167327  0.071472367            4 
 1203000    1.0477421    -3.702148    1026.0225  0.071073881  0.071462308            3 
 1204000    1.0656334   -3.7259685    1024.5531   0.07091314  0.071452465            4 
 1205000    1.0743708   -3.7526529    1024.1788  0.070828407  0.071442387            2 
 1206000    1.0595218   -3.7266163    1029.4301   0.07113254   0.07143219            1 
 1207000    1.0689293   -3.7263282    1030.4527  0.071144205  0.071422771            1 
 1208000    1.0761173   -3.7529513    1028.0716  0.070921056  0.071412716            1 
 1209000    1.0457066    -3.768133    1034.1248  0.071279626  0.071403195            4 
 1210000    1.0562825   -3.7372751     1035.239  0.071297449  0.071394076            3 
 1211000    1.0729857   -3.7217623    1034.7264  0.071203306  0.071384757            3 
 1212000    1.0638725   -3.7128316    1034.6634  0.071140225  0.071375237            2 
 1213000    1.0617746   -3.7440265    1032.4918  0.070932388  0.071364962            2 
 1214000    1.0798266   -3.7147623    1036.9281  0.071178478  0.071354797            3 
 1215000    1.0627826   -3.7108043    1039.6034  0.071303386  0.071344821            2 
 1216000    1.0385455    -3.722275    1039.6989  0.071251295  0.071335068            2 
 1217000     1.055334   -3.7199612    1038.2179  0.071091336  0.071324972            3 
 1218000     1.091403   -3.7305167    1034.8809  0.070804659  0.071314969            2 
 1219000      1.07707   -3.6984574    1041.8518   0.07122312  0.071304946            2 
 1220000    1.0626229    -3.768551    1035.2561  0.070714213  0.071295193            2 
 1221000    1.0574791   -3.7352211    1039.0532   0.07091545   0.07128488            3 
 1222000    1.0708207   -3.7148132    1040.1368  0.070931312  0.071275068            5 
 1223000    1.0531284   -3.7439891    1040.0363  0.070866471   0.07126479            3 
 1224000    1.0517803   -3.7356038    1038.7729  0.070722555  0.071254074            2 
 1225000    1.0550011   -3.7410397    1042.7337  0.070934262  0.071243805            3 
 1226000    1.0619621   -3.7056065    1044.2594   0.07098011  0.071233718            3 
 1227000    1.0362629   -3.7216191    1047.4603  0.071139658  0.071223533            2 
 1228000     1.047124   -3.7263171    1045.4895  0.070947986  0.071213303            3 
 1229000    1.0458932   -3.6957425     1044.831  0.070845603  0.071203324            1 
 1230000    1.0344152    -3.742697    1043.9011  0.070725006  0.071193451            2 
 1231000     1.065031   -3.7326981    1048.1676   0.07095638  0.071183712            2 
 1232000    1.0458508   -3.6949636    1044.2022  0.070630563  0.071173953            3 
 1233000    1.0449607   -3.7386547    1050.7089  0.071013037    0.0711638            2 
 1234000    1.0650341   -3.7290484    1050.7068  0.070955349  0.071153809            3 
 1235000    1.0530076   -3.7627109    1052.5659  0.071023337  0.071143967            1 
 1236000    1.0444971   -3.7384734    1055.5347  0.071166037  0.071134105            2 
 1237000    1.0412729   -3.7341183    1055.9666  0.071137601  0.071124562            3 
 1238000    1.0568145   -3.7327394    1055.6861   0.07106126  0.071115681            3 
 1239000    1.0646609   -3.7126211    1059.5581  0.071264336  0.071106745            1 
 1240000    1.0474344   -3.7391189    1059.4071  0.071196711  0.071097876            3 
 1241000    1.0322182   -3.7468838     1054.794  0.070829573  0.071088849            1 
 1242000    1.0426071   -3.7306982    1057.3108   0.07094141  0.071079879            3 
 1243000     1.038539   -3.7255868    1066.1286  0.071475503  0.071071548            1 
 1244000    1.0523719   -3.7463769    1059.2979  0.070960467  0.071062584            4 
 1245000    1.0592713   -3.7136458    1062.4394  0.071113751  0.071054356            1 
 1246000    1.0467992   -3.7385631    1062.8474   0.07108396  0.071045718            2 
 1247000    1.0689032     -3.71285    1064.6338  0.071146336  0.071037441            2 
 1248000    1.0481206   -3.7208996    1063.6841  0.071025913  0.071028954            2 
 1249000    1.0473696   -3.7552481     1065.261  0.071074258  0.071019748            1 
 1250000    1.0331599   -3.7449996    1065.7909  0.071052725  0.071010751            2 
 1251000    1.0510535   -3.7337056    1066.6753  0.071054843  0.071001729            2 
 1252000     1.042629   -3.7213792     1069.727  0.071201208  0.070992777            2 
 1253000    1.0456299   -3.7464876    1067.0868  0.070968796  0.070983802            2 
 1254000    1.0288168    -3.725726    1067.3932  0.070932562  0.070974921            3 
 1255000     1.035011   -3.7382735    1066.3523  0.070806927  0.070965978            1 
 1256000    1.0556587   -3.7109615    1070.4634  0.071023315  0.070957261            2 
 1257000    1.0532036   -3.7544104    1069.7117  0.070916981  0.070948117            3 
 1258000    1.0635911    -3.768489    1067.9103  0.070741277  0.070939431            1 
 1259000    1.0550797   -3.7535275    1071.9328  0.070951339  0.070930909            3 
 1260000    1.0440457   -3.7383535    1076.1897  0.071176569  0.070922297            1 
 1261000    1.0577027   -3.7593358    1074.7196  0.071022969  0.070914053            2 
 1262000    1.0684312    -3.745215    1070.2941  0.070674468  0.070905885            6 
 1263000    1.0557034    -3.777565    1074.3909   0.07088882   0.07089714            2 
 1264000    1.0568276   -3.7245151    1076.3513  0.070961979  0.070888758            4 
 1265000    1.0685813     -3.76045    1074.5569  0.070787676  0.070879982            2 
 1266000     1.040306   -3.7319001    1079.7714  0.071075002  0.070871766            2 
 1267000    1.0412574    -3.709794    1080.8197  0.071087854  0.070863669            1 
 1268000     1.056518   -3.7547542     1078.088  0.070852261  0.070855356            3 
 1269000    1.0226314   -3.7601118    1076.0787  0.070664482  0.070846437            2 
 1270000     1.044726   -3.7272046    1079.9861  0.070865232   0.07083728            3 
 1271000     1.036315   -3.7512787    1079.3486  0.070767677  0.070828428            2 
 1272000    1.0331706   -3.7312655    1083.2498  0.070967626  0.070819645            5 
 1273000    1.0419411   -3.7246432    1083.9912  0.070960408  0.070810824            4 
 1274000     1.054624   -3.7466342    1076.6096  0.070421873  0.070802591            2 
 1275000    1.0308266   -3.7252041    1082.3261  0.070740265  0.070793682            2 
 1276000    1.0558404   -3.7390628    1078.0633   0.07040643  0.070784319            1 
 1277000    1.0602228   -3.7471085    1079.3357  0.070434329  0.070774821            4 
 1278000    1.0342036   -3.7147914    1081.3561  0.070510958   0.07076509            3 
 1279000    1.0512717   -3.7819405    1079.6708  0.070346023  0.070755147            3 
 1280000    1.0673184   -3.7563371     1077.169  0.070128192  0.070744475            3 
 1281000    1.0471499   -3.7251352    1080.7742  0.070307978  0.070734121            2 
 1282000     1.069045   -3.7703004    1082.2564  0.070349483  0.070723791            4 
 1283000    1.0275669    -3.770135    1079.1794  0.070094789  0.070713451            3 
 1284000    1.0578344   -3.7389748    1083.3017  0.070307745  0.070702898            2 
 1285000    1.0520169   -3.7689485    1080.1537   0.07004888  0.070692617            3 
 1286000    1.0484771   -3.7341171    1083.7278  0.070226009   0.07068199            5 
 1287000    1.0377116   -3.7536995    1084.3056  0.070208859  0.070671691            1 
 1288000    1.0863178   -3.7579985    1080.7873  0.069926716  0.070661084            3 
 1289000    1.0565482   -3.7233988    1085.3617  0.070168199  0.070649827            2 
 1290000    1.0232114   -3.7541139    1082.6978  0.069941719  0.070638578            3 
 1291000    1.0628424   -3.7325178     1086.556   0.07013659  0.070627378            2 
 1292000    1.0363535   -3.7086936    1091.3776  0.070393294  0.070616417            3 
 1293000    1.0557987   -3.7236254    1088.3774  0.070145486  0.070605775            3 
 1294000    1.0533622    -3.730816    1091.3241  0.070281048  0.070594992            4 
 1295000    1.0256379   -3.7509816    1089.6066  0.070116252  0.070584017            2 
 1296000    1.0229267    -3.743667    1093.6771  0.070323886  0.070573611            3 
 1297000    1.0547243   -3.7206774    1095.1555  0.070364654  0.070563524            4 
 1298000    1.0301695   -3.7276802    1097.6754  0.070472227   0.07055383            3 
 1299000    1.0749022   -3.7523882    1093.1571  0.070128119  0.070543368            2 
 1300000    1.0299425   -3.7303768    1096.6607  0.070298761   0.07053306            3 
 1301000    1.0265604   -3.7368447     1095.265  0.070155328  0.070522876            3 
 1302000     1.030472   -3.7501572    1096.6105  0.070187566  0.070512384            8 
 1303000    1.0526237   -3.7761501    1096.8709  0.070150349  0.070501605            2 
 1304000    1.0518206   -3.7315363    1095.1043   0.06998366  0.070491177            4 
 1305000    1.0448363   -3.7241976    1095.3492  0.069945672  0.070480981            1 
 1306000    1.0467739   -3.7433375    1097.7614   0.07004603  0.070470379            3 
 1307000     1.017897   -3.7673084    1097.5889  0.069981439  0.070460078            2 
 1308000      1.04207   -3.7280456    1099.1376  0.070026608  0.070449298            3 
 1309000    1.0387901   -3.7407696    1105.6951  0.070390572  0.070438815            3 
 1310000    1.0548275   -3.7406375    1102.3083  0.070121392  0.070428405            5 
 1311000    1.0513078   -3.7603318    1100.9903  0.069984125  0.070417882            2 
 1312000    1.0341207   -3.7453885    1106.1088  0.070255892  0.070407402            2 
 1313000    1.0351512    -3.735335     1100.981  0.069876934  0.070397057            1 
 1314000    1.0439854   -3.7243782    1104.7699  0.070064049  0.070386837            4 
 1315000    1.0305415   -3.7420619    1105.1869  0.070037193  0.070376845            2 
 1316000    1.0247313    -3.776832    1103.1095  0.069852424   0.07036631            4 
 1317000    1.0327256   -3.7315495    1105.1943    0.0699313  0.070356288            3 
 1318000     1.036933   -3.7608131    1105.4758  0.069896043  0.070345936            3 
 1319000    1.0606366   -3.7216613    1110.2198  0.070142773  0.070335157            4 
 1320000    1.0300619   -3.7602902    1109.0877  0.070018161  0.070324935            1 
 1321000    1.0363366   -3.7756895    1106.9223   0.06982856  0.070314459            1 
 1322000    1.0364201   -3.7727521    1104.4749  0.069621464  0.070304309            2 
 1323000    1.0243251   -3.7340249    1107.7187  0.069773158  0.070294057            2 
 1324000    1.0467626   -3.7329886     1112.775  0.070038709  0.070283684            2 
 1325000    1.0345175   -3.7435972    1111.0902  0.069879885  0.070273637            2 
 1326000    1.0296552   -3.7670739    1113.7615  0.069995067  0.070263396            3 
 1327000    1.0393292   -3.7551224    1115.6446  0.070060576   0.07025336            4 
 1328000    1.0494665   -3.7382815    1116.2429  0.070045363  0.070243272            3 
 1329000    1.0531038   -3.7851459    1114.7434  0.069898632  0.070232851            1 
 1330000    1.0339739   -3.7438049    1112.0657  0.069678302  0.070222605            2 
 1331000    1.0377012   -3.7509667    1113.6717  0.069726501  0.070212566            2 
 1332000    1.0569092   -3.7670781    1112.6898  0.069612728  0.070202553            2 
 1333000    1.0382717   -3.7891764     1117.592  0.069866968   0.07019228            3 
 1334000    1.0233029   -3.7959952    1117.1808  0.069788906  0.070181971            6 
 1335000    1.0289025   -3.7559984    1116.6962  0.069706379  0.070171838            3 
 1336000    1.0544778   -3.7720232    1120.4132  0.069886052  0.070161722            3 
 1337000    1.0401414   -3.7705777     1121.408  0.069895786  0.070151695            2 
 1338000      1.03872   -3.7677532    1120.4301  0.069782644  0.070141828            3 
 1339000    1.0359302   -3.7561173      1125.64   0.07005477  0.070132411            2 
 1340000    1.0486386   -3.7412792    1125.8821  0.070017546  0.070122793            4 
 1341000    1.0415052   -3.7711023    1125.7825  0.069959139  0.070113093            3 
 1342000     1.022318    -3.728512    1134.0614    0.0704211  0.070103756            2 
 1343000    1.0374162   -3.7779077    1125.5173  0.069838504  0.070093992            2 
 1344000    1.0347035   -3.7790547    1124.2417  0.069707447  0.070084613            3 
 1345000    1.0188554   -3.7422865    1130.1612  0.070022377  0.070074926            2 
 1346000    1.0270493   -3.7469165    1129.1951  0.069910541  0.070065243            2 
 1347000    1.0582715   -3.7459991    1132.3986  0.070056829  0.070055645            2 
 1348000    1.0284397    -3.729693    1132.8336  0.070031748  0.070046393            4 
 1349000    1.0279321   -3.7561968    1128.4998  0.069712118  0.070037299            2 
 1350000    1.0233085   -3.7613895    1131.3234  0.069834779  0.070027493            2 
 1351000    1.0418995   -3.7674085    1134.3819  0.069971743  0.070017656            2 
 1352000    1.0507798   -3.7400869     1135.489  0.069988229  0.070008147            4 
 1353000    1.0430217   -3.7690597    1133.9008  0.069838682  0.069998354            6 
 1354000    1.0283238   -3.7467169    1134.9135   0.06984943  0.069988886            2 
 1355000    1.0353116   -3.8013658     1130.184   0.06950701  0.069979419            3 
 1356000    1.0181574   -3.7885625     1136.524  0.069845379  0.069969766            3 
 1357000    1.0411021   -3.7812297    1136.1891  0.069773342   0.06996001            2 
 1358000    1.0264112   -3.7490584    1136.2109  0.069723302  0.069950639            2 
 1359000    1.0417139   -3.7872029    1132.1882  0.069425324  0.069940669            3 
 1360000    1.0408195   -3.7391527    1137.6816  0.069710882  0.069930738            2 
 1361000     1.018002   -3.7426703    1141.3282  0.069882943  0.069921176            2 
 1362000    1.0296904   -3.7584172    1138.6336  0.069666767  0.069911195            3 
 1363000    1.0399533   -3.7717466    1138.9204  0.069633189   0.06990147            3 
 1364000    1.0237767   -3.7671805    1139.8083  0.069636382  0.069891193            3 
 1365000    1.0339649   -3.7609704    1139.8094  0.069585433  0.069881019            3 
 1366000     1.058632   -3.7742208    1138.2765  0.069440979   0.06987085            3 
 1367000    1.0407959   -3.7464701    1141.9019  0.069611184   0.06986048            3 
 1368000    1.0462161     -3.75926    1144.6717  0.069729028  0.069850164            2 
 1369000    1.0454647   -3.7538958    1147.0459  0.069822612  0.069839969            1 
 1370000    1.0239026   -3.7728612    1139.7554  0.069328188  0.069829689            2 
 1371000    1.0838562   -3.7701083    1144.5525  0.069569202  0.069819004            4 
 1372000    1.0398804   -3.7492334    1144.0704  0.069489216  0.069808692            3 
 1373000    1.0439781   -3.7569359    1147.0593   0.06962001  0.069798243            3 
 1374000    1.0224386   -3.7902853    1145.7658  0.069490892  0.069787811            1 
 1375000    1.0129473   -3.7609065    1148.5401  0.069608493  0.069777483            7 
 1376000    1.0295149   -3.7776846    1148.5185  0.069556598  0.069767479            2 
 1377000    1.0343474   -3.7606576    1143.3198  0.069191468  0.069757374            3 
 1378000    1.0452279   -3.7597731    1144.3011  0.069200597  0.069747291            3 
 1379000    1.0286592   -3.7910228    1149.8646  0.069486618  0.069737435            4 
 1380000    1.0150404   -3.7533514    1149.3455  0.069404922  0.069726734            2 
 1381000     1.015965    -3.769852    1152.2376  0.069529183   0.06971681            3 
 1382000    1.0297955   -3.7603333    1149.4018  0.069307874  0.069706889            4 
 1383000    1.0279826   -3.7579664    1150.1544  0.069303108  0.069697099            1 
 1384000     1.018292   -3.7752866    1155.7738  0.069591392   0.06968704            3 
 1385000    1.0176917   -3.7884903    1151.1617  0.069263642  0.069677065            4 
 1386000    1.0192679   -3.7428195    1153.0052  0.069324507  0.069666703            3 
 1387000     1.011554    -3.771281    1152.0837  0.069219163  0.069656447            2 
 1388000    1.0228117   -3.7998292    1153.2769  0.069240926  0.069645983            2 
 1389000    1.0030768   -3.7789165    1156.9596  0.069412022   0.06963592            1 
 1390000    1.0289727   -3.8097655     1156.255  0.069319844   0.06962534            5 
 1391000     1.019937   -3.7957374    1156.6753  0.069295192     0.069615            2 
 1392000    1.0508441   -3.7712571    1158.6888  0.069365949  0.069604969            3 
 1393000    1.0114608   -3.7568414    1164.8252  0.069683249  0.069594878            3 
 1394000    1.0145161   -3.7867235      1164.74  0.069628166  0.069584864            3 
 1395000    1.0340687    -3.761234    1158.3353  0.069195656  0.069575198            3 
 1396000   0.99050268   -3.7599052    1164.7071  0.069526452   0.06956578            2 
 1397000    1.0452914   -3.7838593     1160.077  0.069200488  0.069555764            2 
 1398000    1.0100973     -3.76964    1159.9982  0.069146295  0.069545525            2 
 1399000    1.0204218   -3.7627907    1167.5142  0.069544567  0.069535477            4 
 1400000    1.0027324   -3.7819192    1161.7825  0.069153718  0.069525046            2 
 1401000    1.0188373   -3.7598369     1166.927  0.069410361  0.069514959            2 
 1402000    1.0191807   -3.7862193    1162.3557  0.069089143  0.069505008            3 
 1403000    1.0258797   -3.7576834    1168.0308   0.06937698  0.069495262            4 
 1404000    1.0269043    -3.780546     1163.589  0.069063924  0.069485299            2 
 1405000    1.0290707   -3.7868847    1167.0192  0.069218221  0.069475665            3 
 1406000     1.028465   -3.8035869    1168.0691  0.069231219  0.069466078            2 
 1407000     1.017085   -3.7947702    1172.0223  0.069416154  0.069456838            3 
 1408000    1.0431495   -3.7428956     1171.728  0.069349432  0.069447459            1 
 1409000    1.0388777    -3.792588    1166.5242  0.068992441  0.069437933            7 
 1410000    1.0312831   -3.7676531    1170.7274  0.069191924  0.069428118            2 
 1411000    1.0388384   -3.7667268     1171.228  0.069172454  0.069418611            2 
 1412000    1.0385856   -3.7568839    1181.0518  0.069703249  0.069408962            5 
 1413000   0.99303675   -3.7798391    1174.1926  0.069249384  0.069399453            2 
 1414000    1.0188047    -3.777681     1176.369  0.069328678   0.06938979            7 
 1415000    1.0285323   -3.7844353    1172.6365  0.069059863  0.069380337            3 
 1416000    1.0236313   -3.7459709     1176.728  0.069251883  0.069370598            2 
 1417000    1.0007458   -3.8071721    1178.3683  0.069299477  0.069361099            4 
 1418000    1.0258331   -3.7782976    1178.5979  0.069264099  0.069351757            4 
 1419000    1.0024478   -3.7838086    1181.5098  0.069386293  0.069342137            2 
 1420000    1.0317809   -3.8095227     1177.848  0.069122537  0.069332428            3 
 1421000    1.0634645   -3.7584942    1180.7291  0.069242852  0.069322664            1 
 1422000    1.0304213   -3.7580162    1175.4803  0.068886561  0.069312859            2 
 1423000    1.0314029   -3.7949495     1179.037   0.06904644  0.069303004            1 
 1424000    1.0098917   -3.7803718    1181.1233  0.069120041  0.069293129            2 
 1425000    1.0199528   -3.7946258    1180.4891  0.069034448  0.069283095            1 
 1426000    1.0236215   -3.7878962    1177.6819  0.068821989  0.069272839            3 
 1427000     1.030991   -3.7805532      1181.19  0.068978626  0.069262818            4 
 1428000    1.0203161   -3.7683114    1182.0194  0.068978721  0.069252648            4 
 1429000    1.0318807   -3.7998973    1180.3177  0.068831218  0.069242509            1 
 1430000    1.0100131   -3.7838702    1185.8401  0.069104899  0.069232246            3 
 1431000    1.0232973   -3.7587234    1180.8441   0.06876567  0.069221912            9 
 1432000   0.99978738    -3.783973    1181.9333  0.068781036   0.06921137            2 
 1433000    1.0183435   -3.7564362    1188.5619  0.069118508  0.069200686            2 
 1434000    1.0188406   -3.8092036    1181.5945  0.068665415  0.069190032            3 
 1435000    1.0083113   -3.7912677     1183.371  0.068720734   0.06917933            5 
 1436000    1.0282478   -3.7817935    1187.6463  0.068920981  0.069168401            2 
 1437000    1.0259063   -3.8091782    1177.4722  0.068283011  0.069157516            4 
 1438000   0.99204873   -3.7940376    1182.2101  0.068510087  0.069146161            3 
 1439000    1.0190996   -3.8013715    1183.6165  0.068543927   0.06913507            2 
 1440000    1.0205554   -3.7920723    1184.1836  0.068529143  0.069124043            3 
 1441000    1.0295859   -3.8072264    1181.1995  0.068309015  0.069112996            2 
 1442000    1.0162222   -3.7638724    1189.7312  0.068754695  0.069101939            3 
 1443000    1.0303373   -3.7928952    1186.9404  0.068545875   0.06909083            2 
 1444000    1.0176274   -3.7906868    1190.2985  0.068692201  0.069079773            4 
 1445000    1.0446903   -3.7727575    1183.0528  0.068226805  0.069068436            2 
 1446000    1.0330279   -3.8241723    1186.8609  0.068399085  0.069057158            4 
 1447000    1.0262495   -3.7880877    1192.3316  0.068666876  0.069045579            3 
 1448000     1.015154   -3.7829394    1191.4927  0.068571175  0.069034211            4 
 1449000    1.0025948   -3.7742308     1197.276   0.06885645  0.069023523            1 
 1450000    1.0275637   -3.7979812    1189.1598  0.068342517  0.069012981            4 
 1451000    1.0196469    -3.801077    1195.5558  0.068662752  0.069002284            5 
 1452000     1.026686   -3.7880051     1195.198  0.068594924  0.068991455            2 
 1453000     1.009084   -3.7797091    1199.0416  0.068768159   0.06898074            4 
 1454000    1.0057072   -3.7440928    1201.2338  0.068846501  0.068970243            2 
 1455000    1.0185208   -3.7895367    1201.8544   0.06883473  0.068960167            3 
 1456000    1.0295949   -3.8115699    1193.8968  0.068332008  0.068949747            3 
 1457000    1.0288724   -3.8215682    1196.9554  0.068460044  0.068939247            2 
 1458000     1.015883   -3.7999577    1195.4066  0.068324568  0.068928561            1 
 1459000    1.0273809   -3.7687165    1199.7824  0.068527668  0.068917401            2 
 1460000    1.0315005   -3.7756495    1201.2319  0.068563467  0.068906923            2 
 1461000    1.0186554   -3.8037201    1205.3626  0.068752143  0.068896442            1 
 1462000    1.0419986    -3.770246    1202.1132  0.068519904  0.068886194            2 
 1463000    1.0222581   -3.8092139    1199.9412   0.06834935  0.068875719            3 
 1464000    1.0370866   -3.7979942    1205.6062  0.068625124  0.068865164            5 
 1465000    1.0431903   -3.7853143    1200.9329  0.068312453  0.068854961            4 
 1466000    1.0034543    -3.764266    1204.5483   0.06847137  0.068844736            3 
 1467000    1.0228081   -3.7741354     1208.565  0.068652864  0.068834668            2 
 1468000     1.003149   -3.8122436    1209.3874  0.068652782  0.068824697            2 
 1469000   0.99293365   -3.7863121    1212.9532   0.06880833  0.068814724            4 
 1470000    1.0065986   -3.7819015    1209.1722  0.068547178  0.068804548            4 
 1471000   0.99317332    -3.777723    1210.4626  0.068573682   0.06879478            3 
 1472000    1.0179845   -3.7586039    1213.1132   0.06867715  0.068785194            5 
 1473000    1.0138495   -3.7705126    1212.1829  0.068577897  0.068775407            3 
 1474000    1.0416207    -3.809964    1214.0764  0.068638422  0.068765603            3 
 1475000    1.0059093   -3.7587662    1212.3958  0.068496938  0.068756004            2 
 1476000    1.0166037   -3.7976815    1211.9228  0.068423825  0.068745923            2 
 1477000    1.0418206   -3.7721981    1213.9682  0.068492901   0.06873597            3 
 1478000    1.0074817   -3.7612757    1219.0453  0.068732822  0.068726554            4 
 1479000    1.0140536   -3.8371884    1211.9129  0.068284475  0.068716731            3 
 1480000    1.0092378   -3.7873277    1220.2247  0.068706345  0.068707155            2 
 1481000     1.000544   -3.7831235    1217.6329  0.068514118  0.068697894            5 
 1482000    1.0361841   -3.7868508    1223.0584  0.068772964  0.068688209            3 
 1483000    1.0210423   -3.7984598    1224.6588  0.068816519  0.068678804            2 
 1484000    1.0195243   -3.8113739    1222.7221  0.068661392  0.068669185            7 
 1485000   0.99593695   -3.7820988    1218.5204  0.068379369  0.068659534            2 
 1486000    1.0107944   -3.7821499    1222.3749  0.068549511  0.068650101            4 
 1487000     1.004787    -3.782707    1219.1415  0.068322207  0.068640136            2 
 1488000    1.0279428   -3.7890205    1224.3424   0.06856756   0.06863061            3 
 1489000    1.0252395   -3.8141326    1224.9933   0.06855794  0.068621232            1 
 1490000    1.0181266   -3.7806167    1222.2465  0.068358306   0.06861158            2 
 1491000    1.0005257   -3.8030565    1224.6467  0.068446605  0.068602597            5 
 1492000     1.019963    -3.787943    1227.0179  0.068533169  0.068593269            3 
 1493000    1.0016419   -3.7889776     1225.251  0.068388646   0.06858365            7 
 1494000    1.0084785   -3.8067991    1228.1233  0.068503082  0.068574245            3 
 1495000    1.0060748   -3.8242692    1226.0466  0.068341505  0.068564848            3 
 1496000    1.0072653   -3.7878997      1230.18  0.068526071    0.0685548            6 
 1497000    1.0007403   -3.8228277    1228.2606  0.068373449  0.068544962            5 
 1498000    1.0087337   -3.7948032    1229.2129  0.068380779  0.068534939            1 
 1499000   0.99686938    -3.811795      1229.04  0.068325548  0.068524978            4 
 1500000   0.99049954   -3.7726426    1229.9807  0.068332259  0.068515304            3 
 1501000   0.99739476   -3.8218975    1227.8041  0.068165898  0.068505688            2 
 1502000    1.0153838   -3.7934788     1236.277    0.0685906  0.068496251            3 
 1503000   0.99067821   -3.7984932    1232.7164  0.068347548  0.068486623            2 
 1504000   0.99275791   -3.7788467    1241.4447  0.068785722  0.068477292            2 
 1505000     1.007237     -3.77995    1233.4982  0.068300011   0.06846768            2 
 1506000    1.0204798    -3.836173    1233.8421  0.068273686  0.068458044            2 
 1507000    1.0146867   -3.8279862    1233.0847  0.068186501  0.068448404            2 
 1508000    1.0139022   -3.8122056    1238.1827  0.068423006  0.068439097            3 
 1509000    1.0277277   -3.8043748    1235.1194  0.068208495  0.068429543            3 
 1510000   0.99926026   -3.8019214    1234.0963  0.068106861  0.068420126            2 
 1511000    1.0169753   -3.7650169    1236.9697  0.068220258  0.068410446            2 
 1512000    1.0355614   -3.8248671    1237.9214  0.068227592   0.06840077            2 
 1513000    1.0385098   -3.7954676    1238.5167  0.068215285  0.068390951            2 
 1514000    1.0306146   -3.8045912    1237.1466  0.068094814  0.068381062            4 
 1515000    1.0127923   -3.8060237    1238.0284  0.068098372  0.068370724            2 
 1516000     1.041576   -3.8139495    1240.0052  0.068162116  0.068360879            6 
 1517000    1.0038681   -3.8286073    1235.0343  0.067844117  0.068350833            6 
 1518000     1.018762   -3.8272538    1241.3457    0.0681459  0.068340814            2 
 1519000    1.0057044   -3.7984501     1244.857  0.068293668  0.068331431            3 
 1520000    1.0255712   -3.7909662    1246.1376  0.068318948  0.068322097            2 
 1521000    1.0070756   -3.8069667    1240.5765  0.067969348  0.068312305            3 
 1522000     1.025653   -3.7886916    1245.3503  0.068186066  0.068302475            3 
 1523000    1.0040094   -3.7882426    1246.4114  0.068199353  0.068292818            2 
 1524000    1.0246859   -3.7881926    1248.6768  0.068278478  0.068283188            3 
 1525000    1.0357621   -3.8125844    1247.5227  0.068170638  0.068273491            2 
 1526000    1.0104546   -3.8159212    1243.6889  0.067916607  0.068263114            6 
 1527000    1.0227547   -3.8163036    1245.3931  0.067965133  0.068253092            7 
 1528000   0.99713866   -3.8080346    1246.5003  0.067981036  0.068242911            2 
 1529000     1.017233   -3.8024462    1248.1572  0.068026883  0.068232779            3 
 1530000   0.99935466   -3.7870223    1253.6296  0.068280478  0.068222494            2 
 1531000   0.99004325   -3.7785529    1246.3787  0.067841212  0.068212787            3 
 1532000    1.0360586   -3.8206638    1251.7833  0.068090911  0.068202733            4 
 1533000   0.99942611   -3.8412001    1247.7016  0.067824615  0.068192468            5 
 1534000   0.98243559   -3.8058479    1256.3303  0.068249146  0.068182691            1 
 1535000    1.0361185   -3.7958735    1252.7941  0.068012708  0.068172992            6 
 1536000    1.0145917   -3.8030465    1254.7815  0.068076256  0.068163612            2 
 1537000    1.0280207   -3.8046319    1255.2861  0.068059322  0.068154004            2 
 1538000    1.0084363   -3.8044402    1254.8019  0.067988831   0.06814406            3 
 1539000   0.98919666   -3.7843114    1256.8483  0.068055462  0.068134217            3 
 1540000    1.0103103   -3.7668577    1262.5061   0.06831743  0.068124828            2 
 1541000    0.9979235   -3.8296495    1257.3381  0.067993624  0.068115082            5 
 1542000    1.0048482   -3.8281654    1251.8033  0.067650418  0.068105414            3 
 1543000   0.98752144    -3.798709    1259.4902  0.068021722  0.068095546            2 
 1544000    1.0215516   -3.8399507    1252.7828  0.067615653  0.068085968            3 
 1545000    1.0224815   -3.8062994    1261.7506  0.068055587  0.068076159            4 
 1546000    1.0032315   -3.8077097    1255.8265  0.067692244   0.06806638            3 
 1547000    1.0437999   -3.8003526    1254.5549  0.067579989  0.068056365            2 
 1548000   0.98635086   -3.7877116    1261.7009  0.067921024   0.06804639            3 
 1549000    1.0184481   -3.8139947    1261.3285   0.06785714  0.068036489            4 
 1550000    1.0057878   -3.8010743    1261.4282  0.067818718   0.06802642            3 
 1551000    1.0036167   -3.7990384    1261.7004  0.067789618  0.068016385            2 
 1552000    1.0065052   -3.8171861      1260.03  0.067656251  0.068006468            2 
 1553000    1.0023443   -3.7890804    1260.3642  0.067630617   0.06799647            5 
 1554000    1.0040078   -3.8019434     1262.576  0.067705708  0.067986424            8 
 1555000    1.0185966   -3.8109393    1261.2911  0.067593307  0.067975945            2 
 1556000    1.0122933   -3.7956085    1264.9013  0.067743217  0.067965642            4 
 1557000    1.0244507   -3.8094866    1265.0971  0.067710186  0.067955834            2 
 1558000   0.99148793   -3.8210185    1268.4959   0.06784852   0.06794557            2 
 1559000   0.99811448   -3.8070046    1266.8571  0.067717401  0.067935211            4 
 1560000   0.97913933   -3.8153469    1265.4416  0.067598378  0.067924725            2 
 1561000     1.026774   -3.8081093    1268.6765  0.067727767  0.067914621            3 
 1562000   0.98502934    -3.780932     1266.367  0.067561193  0.067904196            1 
 1563000   0.98625355   -3.8094723    1268.9463  0.067655486  0.067893827            2 
 1564000   0.97180811   -3.8095085    1270.0622  0.067671684  0.067883599            5 
 1565000   0.99663599   -3.8233717    1267.2671  0.067479613  0.067873233            2 
 1566000    1.0242128   -3.8005194    1269.3112  0.067545293  0.067862638            2 
 1567000    1.0044418   -3.8588675    1268.0419  0.067434691  0.067852172            5 
 1568000   0.98335516   -3.7903862    1274.1076  0.067714053   0.06784153            3 
 1569000    0.9977379    -3.840082    1269.7703  0.067440531  0.067830734            3 
 1570000   0.99609995   -3.8004374      1272.11  0.067521764  0.067820231            2 
 1571000   0.99694541   -3.8151082     1273.095  0.067531033  0.067810212            3 
 1572000    1.0048021   -3.8466046    1270.0763  0.067328049   0.06779991            3 
 1573000    1.0198214   -3.7946403    1277.2625  0.067665952   0.06778979            3 
 1574000   0.99415109   -3.8245873     1272.647  0.067378601  0.067779918            4 
 1575000    0.9938143   -3.8096321    1277.9973  0.067618904   0.06776981            2 
 1576000    1.0016817   -3.7994641    1277.8933  0.067570499  0.067759259            3 
 1577000   0.98786294   -3.8134175    1270.3337   0.06712818  0.067748935            4 
 1578000   0.99103684   -3.8197424    1275.7686  0.067372653  0.067738287            9 
 1579000   0.99307505   -3.8278952    1279.7576  0.067540511   0.06772753            2 
 1580000   0.99888399   -3.8255856    1276.1951   0.06730987  0.067716568            1 
 1581000    1.0044256   -3.8192303    1276.6738  0.067292525  0.067705837            2 
 1582000    1.0015565   -3.7964514    1274.7477  0.067148532  0.067695273            2 
 1583000   0.99076386   -3.8095865    1272.3384  0.066979281  0.067684558            5 
 1584000   0.98654839   -3.7956681     1281.384  0.067412878  0.067673767            7 
 1585000    1.0383046   -3.8229992    1277.6955  0.067176419  0.067662994            2 
 1586000   0.99184796   -3.8117955    1276.0187  0.067045957  0.067651988            3 
 1587000    1.0010716   -3.8031945    1281.1458  0.067272937  0.067640875            3 
 1588000    1.0312359   -3.8283921    1281.0361  0.067224814  0.067630088            5 
 1589000   0.99109053   -3.8356841    1281.3179  0.067197286  0.067619308            3 
 1590000    1.0037729   -3.8075462    1279.4297  0.067056062  0.067608744            3 
 1591000   0.99777739   -3.8537213    1277.2531  0.066899912  0.067597837            2 
 1592000     1.008956   -3.8105612    1283.3197  0.067175447  0.067586832            5 
 1593000   0.98785947   -3.8169129    1284.8523  0.067213447  0.067575932            2 
 1594000    1.0038945   -3.8169111     1286.587  0.067261971  0.067565143            2 
 1595000    1.0237405   -3.8186559    1285.9024  0.067184034  0.067554547            4 
 1596000    1.0004409   -3.8193242    1288.7594  0.067291111  0.067543978            2 
 1597000    1.0165441   -3.8281533    1288.8097  0.067251602  0.067533616            4 
 1598000   0.97712664   -3.8573814    1289.3489  0.067237633  0.067522942            5 
 1599000   0.97410442   -3.8171068    1288.2609  0.067138882  0.067512481            2 
 1600000   0.97376656   -3.8272024    1292.0573   0.06729465  0.067502101            2 
 1601000    1.0026562   -3.8240705    1291.5292  0.067225132  0.067491769            2 
 1602000   0.98565339   -3.8313888    1293.3183  0.067276231  0.067481126            3 
 1603000   0.98435881   -3.8361776    1288.8987  0.067004507  0.067470577            7 
 1604000    0.9811156   -3.8209266    1288.2822  0.066930705  0.067460115            2 
 1605000   0.97628841   -3.8134159    1297.5202   0.06736865   0.06744975            2 
 1606000   0.99125779   -3.8190444    1294.6354  0.067177014  0.067439538            4 
 1607000   0.98293703   -3.8318961    1297.8512  0.067301969  0.067429197            4 
 1608000    1.0011531    -3.816518    1295.4574   0.06713606  0.067419059            2 
 1609000   0.98779417   -3.8073141    1301.1053  0.067386852  0.067408759            3 
 1610000   0.98095738   -3.8279707    1293.8521  0.066969572  0.067398557            1 
 1611000   0.98294155   -3.8548515    1300.4561  0.067269612  0.067388275            7 
 1612000   0.98882562   -3.8274423    1297.8471  0.067093007   0.06737793            6 
 1613000   0.99915131   -3.8416203     1298.644  0.067092583  0.067367569            2 
 1614000   0.99966519   -3.8443927    1297.9232  0.067013795  0.067357476            2 
 1615000    1.0098942    -3.839392    1295.6998  0.066857576  0.067347636            1 
 1616000   0.98971134   -3.8282944    1302.4348   0.06716351   0.06733739            2 
 1617000   0.99664122   -3.8495295    1300.6089  0.067027874  0.067327264            2 
 1618000     1.004853   -3.8382335    1303.3435  0.067127291  0.067317336            3 
 1619000     1.000872   -3.8396936    1301.9013  0.067011599  0.067307359            3 
 1620000    1.0099296   -3.8053754    1305.9849  0.067180295  0.067297666            3 
 1621000    1.0013362   -3.8127677     1308.939  0.067290713  0.067287863            5 
 1622000   0.99426563    -3.831125    1308.3499  0.067218961  0.067278212            2 
 1623000     1.012597   -3.8129268    1310.7311  0.067299811  0.067268453            4 
 1624000   0.99241094   -3.8073542    1309.5888  0.067199751  0.067258575            2 
 1625000   0.96738448   -3.8228141    1310.9755  0.067229512  0.067248733            4 
 1626000   0.99415774   -3.8268987    1309.5072  0.067112915  0.067238807            7 
 1627000    1.0012625    -3.808849    1307.4834  0.066968009  0.067228785            5 
 1628000    1.0120742   -3.8296798     1309.833  0.067047144  0.067218992            2 
 1629000   0.98350711   -3.8409088     1306.507  0.066835841  0.067208937            2 
 1630000   0.98182048   -3.7818154    1311.5156  0.067050899     0.067199            5 
 1631000   0.99312473   -3.8406001     1314.555  0.067165085  0.067189123            2 
 1632000   0.98248942   -3.7990278    1313.0262  0.067045864  0.067179528            4 
 1633000   0.98215015   -3.8462555    1315.2925  0.067120459  0.067170231            2 
 1634000     1.006452   -3.8200625    1313.4086  0.066983304  0.067160707            3 
 1635000   0.98256881   -3.8506125    1311.0098  0.066820069  0.067151008            2 
 1636000   0.99887212    -3.855581    1317.3541   0.06710239  0.067141389            2 
 1637000   0.96538848   -3.8107196    1319.2348  0.067157136  0.067131973            2 
 1638000   0.98693143   -3.8377873    1317.7065  0.067038385  0.067122494            2 
 1639000   0.99051368   -3.8524608     1317.922   0.06700844  0.067113038            9 
 1640000   0.99510491   -3.8256037    1323.4996  0.067250995  0.067103762            2 
 1641000   0.96147227   -3.8364807    1316.5777  0.066858505   0.06709415            2 
 1642000    0.9978054   -3.8393788    1315.0932  0.066742447  0.067084466            2 
 1643000   0.98989537   -3.8234352    1316.1474  0.066755295  0.067074777            6 
 1644000   0.99926007   -3.8515314    1322.5129  0.067037355  0.067065309            5 
 1645000   0.97810433   -3.8149124    1323.9217  0.067067971  0.067055938            6 
 1646000    1.0014395   -3.8292406    1327.0484  0.067185518  0.067046617            3 
 1647000    1.0114117   -3.8257379    1320.7235  0.066824707  0.067037388            2 
 1648000   0.99395903   -3.8327665    1324.6783  0.066984139  0.067028089            4 
 1649000    1.0241514   -3.8606406    1328.0873  0.067115793  0.067018783            3 
 1650000   0.97790983   -3.8188853    1322.1136  0.066773414   0.06700936            4 
 1651000    1.0058918   -3.8377523    1326.7653  0.066967762  0.067000111            2 
 1652000   0.98087613   -3.8262634    1326.0229  0.066889775  0.066990876            9 
 1653000   0.99868873    -3.812918    1330.7853  0.067089396  0.066981822            3 
 1654000   0.99057349   -3.8022473    1336.2488  0.067324102     0.066973            2 
 1655000   0.99054155   -3.8240041    1329.0155  0.066919211  0.066964029            4 
 1656000   0.99757312   -3.8471153    1330.9436  0.066975824  0.066954933            4 
 1657000   0.99037346   -3.8207129    1337.3705  0.067258625  0.066945852            3 
 1658000    1.0016961    -3.838916    1335.9532  0.067146824  0.066936725            3 
 1659000    0.9836932   -3.8244835    1329.3781  0.066776075  0.066927336            2 
 1660000     1.001195   -3.8558402    1330.8825  0.066811372  0.066918199            2 
 1661000   0.97088296   -3.8334031    1336.7883  0.067067446  0.066908959            5 
 1662000   0.98339406    -3.832608    1336.4512  0.067010186  0.066899954            2 
 1663000   0.99058928   -3.8472018     1334.059   0.06685002  0.066890683            4 
 1664000   0.98417276   -3.8377232    1335.0503  0.066859491  0.066881504            2 
 1665000   0.99704552   -3.8394595    1329.9664  0.066564884  0.066872188            3 
 1666000   0.98245403   -3.8910231    1330.8587  0.066569563  0.066862437            3 
 1667000   0.98270252   -3.8558628    1333.7747  0.066675402  0.066852581            3 
 1668000   0.99549863   -3.8439528    1336.6164  0.066777397   0.06684299            2 
 1669000   0.98224558   -3.8066804    1340.4266  0.066927632  0.066833324            2 
 1670000    0.9771143   -3.7865508    1338.6828  0.066800541  0.066823569            2 
 1671000    0.9812883   -3.8359474    1340.4504  0.066848715  0.066814054            1 
 1672000    0.9792389    -3.854495    1335.2859  0.066551328  0.066804596            5 
 1673000   0.98774327   -3.8470156    1343.2649  0.066908991  0.066795072            2 
 1674000    1.0071143   -3.8242612    1341.6706  0.066789657  0.066785351            2 
 1675000   0.96134251   -3.8558071    1336.6001  0.066497515  0.066775637            4 
 1676000   0.95597973   -3.8387536    1341.5979  0.066706341  0.066766024            5 
 1677000   0.96821742   -3.8412498    1342.8884   0.06673069  0.066756563            4 
 1678000   0.96823213   -3.8514914    1336.5302  0.066375159  0.066746651            2 
 1679000   0.98590687   -3.8400785    1344.0253  0.066707627  0.066736997            3 
 1680000   0.98053385   -3.8571834    1343.8364  0.066658554  0.066727239            2 
 1681000   0.97153225   -3.8485283    1348.4788  0.066849037   0.06671757            3 
 1682000   0.96863468   -3.8294695    1345.1817  0.066645942  0.066707762            1 
 1683000   0.99478995   -3.8247975    1346.9413  0.066693471  0.066697764            3 
 1684000   0.98439982   -3.8159647     1345.113  0.066563388  0.066688117            3 
 1685000   0.97021533   -3.8116498    1348.7536  0.066703937  0.066678261            4 
 1686000   0.97448358   -3.8617626     1344.102  0.066434458  0.066668311            2 
 1687000   0.97173271   -3.8201432     1346.172  0.066497335  0.066658591            2 
 1688000    1.0012904   -3.8443803    1347.4058  0.066518848  0.066648942            4 
 1689000   0.99586035   -3.8475323    1351.9645  0.066704388  0.066639453            3 
 1690000   0.97099754   -3.8489117    1348.7265  0.066505252  0.066629913            2 
 1691000   0.97476925   -3.8290898    1351.1209  0.066583919  0.066620321            2 
 1692000   0.96822457   -3.8349276    1345.8123  0.066283113   0.06661067            3 
 1693000   0.99162824   -3.8463611    1350.3155  0.066465619  0.066601015            2 
 1694000   0.98715249   -3.8326745    1355.2497  0.066669114  0.066591152            3 
 1695000   0.97887988   -3.8436706     1352.895  0.066514014  0.066581279            2 
 1696000   0.98823265   -3.8256038    1355.5614  0.066605806  0.066571047            3 
 1697000   0.97973948   -3.8567755    1352.4396  0.066413257  0.066561407            2 
 1698000   0.98037291   -3.8327875    1353.0532   0.06640426  0.066551402            2 
 1699000    0.9826386    -3.848635    1348.4383   0.06613882  0.066541702            4 
 1700000    0.9592451   -3.8580739    1355.3572   0.06643908  0.066531645            3 
 1701000   0.97259832   -3.8570673    1353.6051  0.066314183   0.06652173            2 
 1702000   0.99496668   -3.8631437     1357.135   0.06644805  0.066511737            4 
 1703000   0.97448588   -3.8387788    1358.8844  0.066494636  0.066502029            5 
 1704000   0.96601285    -3.854294    1353.3019  0.066182604  0.066491983            4 
 1705000   0.97903642   -3.8595271    1351.6136  0.066061271  0.066481935            2 
 1706000   0.99240261   -3.8452082    1359.3344  0.066399685  0.066471824            5 
 1707000   0.96199631   -3.8304271    1356.6173  0.066228144  0.066461801            3 
 1708000   0.99153465   -3.8563068    1356.5768  0.066187395  0.066452016            6 
 1709000    1.0025673   -3.8646372     1352.394  0.065944704  0.066441711            2 
 1710000   0.98528223   -3.8542239    1355.5061  0.066057802   0.06643148            6 
 1711000   0.96299537   -3.8531351     1353.255  0.065909557   0.06642113            4 
 1712000   0.99769371   -3.8434259    1356.9757  0.066052168  0.066411155            3 
 1713000   0.98873063   -3.8540259    1362.1578  0.066265705  0.066401296            3 
 1714000   0.97283995   -3.8338249    1366.6832  0.066447066  0.066391348            2 
 1715000   0.98306379   -3.8562727    1360.3911  0.066102582  0.066381495            3 
 1716000   0.98345875   -3.8495807    1357.0928  0.065903886  0.066371623            3 
 1717000   0.97697616    -3.863096    1362.3451  0.066120417  0.066361455            7 
 1718000   0.95431905   -3.8828231    1362.0746  0.066068812  0.066351519            5 
 1719000   0.97699245   -3.8215671    1365.4583   0.06619441  0.066341468            3 
 1720000   0.98291462   -3.8701478    1364.4109  0.066105178   0.06633157            4 
 1721000   0.96700941   -3.8455185    1367.9312  0.066237229  0.066321965            1 
 1722000    0.9521074   -3.8493855    1367.9632  0.066200309  0.066312312            3 
 1723000   0.95744317   -3.8401056    1366.9437  0.066112579  0.066302584            3 
 1724000   0.97765203   -3.8412314    1371.0672  0.066273552  0.066293094            3 
 1725000    0.9903256   -3.8456986    1372.8006   0.06631887  0.066283417            2 
 1726000   0.96117477   -3.8593121    1368.5635  0.066075873  0.066274035            3 
 1727000    1.0033395   -3.8494626    1374.4914  0.066323656  0.066264543            5 
 1728000   0.98511567   -3.8492613    1373.4846  0.066236721  0.066255196            4 
 1729000    0.9766184   -3.8394102    1376.5601  0.066346641  0.066246012            2 
 1730000   0.96771143   -3.8310057    1373.8379  0.066177165  0.066236601            3 
 1731000   0.98949462   -3.8454255    1371.0048   0.06600254  0.066227352            1 
 1732000   0.97469811   -3.8413931    1379.8518  0.066390099  0.066218028            3 
 1733000   0.96973789    -3.868495    1373.1887  0.066031387  0.066208797            4 
 1734000     0.968034    -3.867623    1378.2825  0.066238107   0.06619977            3 
 1735000   0.97329628   -3.8758196     1378.086  0.066190489  0.066190464            3 
 1736000   0.97395519   -3.8770798    1381.1413  0.066299024  0.066181277            4 
 1737000    0.9597951   -3.8609848    1376.6789  0.066046771  0.066171716            3 
 1738000   0.96532665   -3.8774072    1379.0204  0.066121038  0.066162185            5 
 1739000   0.97884204   -3.8647294    1380.3858  0.066148446  0.066152903            3 
 1740000   0.96535353   -3.8153362    1385.6461  0.066362359  0.066143726            4 
 1741000    0.9678556   -3.8679091    1383.1004  0.066202393  0.066134377            7 
 1742000   0.97322303   -3.8423501     1386.155  0.066310513  0.066125323            5 
 1743000   0.97697089    -3.876796    1384.9664  0.066215644  0.066116137            3 
 1744000   0.95888873   -3.8558168    1383.4636   0.06610587  0.066106656            2 
 1745000   0.99159049   -3.8666004    1385.7773  0.066178479  0.066097311            2 
 1746000   0.98970381   -3.8498991    1384.2457  0.066067474  0.066087801            1 
 1747000   0.96945802   -3.8510246    1383.3584  0.065987331  0.066078318            2 
 1748000   0.98999882   -3.8593468    1377.6124   0.06567565  0.066068513            4 
 1749000   0.97929889   -3.8625446    1384.0988   0.06594715   0.06605839            2 
 1750000   0.99055068   -3.8511327    1383.1567  0.065864603  0.066048536            1 
 1751000   0.99954515   -3.8596772    1380.2435  0.065688345  0.066038407            3 
 1752000   0.95962679   -3.8456942    1379.3575   0.06560871  0.066028389            3 
 1753000   0.97307045   -3.8617465    1385.8674  0.065880747  0.066018391            6 
 1754000   0.96999856   -3.8513415    1386.9998  0.065896986  0.066008607            3 
 1755000   0.96207973   -3.8628496     1390.364  0.066019182  0.065998583            2 
 1756000   0.96764706   -3.8606833    1384.8177  0.065718379  0.065988418            2 
 1757000   0.96453589   -3.8662158    1388.9719  0.065878008  0.065978323            1 
 1758000   0.96914637   -3.8541223     1390.769  0.065925719   0.06596805            4 
 1759000   0.96912184    -3.857164    1394.1068  0.066046371  0.065958107            3 
 1760000   0.96021631   -3.8395186     1388.918  0.065763161  0.065948118            3 
 1761000    0.9708945   -3.8610926    1389.3036  0.065744066  0.065937898            5 
 1762000   0.97325867   -3.8694175    1392.2591  0.065846534  0.065927537            4 
 1763000   0.96263354   -3.8873585    1393.8775  0.065885683   0.06591728            5 
 1764000   0.96963411   -3.8552523    1390.3773  0.065682977  0.065907117            1 
 1765000     0.968215   -3.8713569     1391.477  0.065697687  0.065896495            3 
 1766000   0.95524032   -3.8893177    1395.6784  0.065858737   0.06588608            2 
 1767000   0.98118477   -3.8890342    1383.1941  0.065232695  0.065875714            4 
 1768000   0.97030684   -3.8330356    1399.5879   0.06596851  0.065865234            2 
 1769000   0.96256526   -3.8811617    1385.7233  0.065278092  0.065854827            3 
 1770000   0.96624677   -3.8625953    1394.2677  0.065643487  0.065844609            2 
 1771000   0.96335213   -3.8624789    1392.9613  0.065544953  0.065834559            3 
 1772000   0.97200852   -3.8862843    1389.3868   0.06533986  0.065824165            3 
 1773000   0.97674769   -3.8823938     1396.485  0.065636632  0.065813824            4 
 1774000    0.9587365   -3.8605932    1397.0298  0.065625224  0.065803383            1 
 1775000   0.96713535   -3.8428689    1396.4188  0.065559568  0.065792781            4 
 1776000   0.95867387   -3.8614503    1399.0833  0.065647676   0.06578254            4 
 1777000    0.9625426   -3.8607845     1400.758  0.065689269  0.065772089            3 
 1778000   0.97880038   -3.8754825    1395.0176  0.065383277  0.065761867            2 
 1779000   0.97336207   -3.8787661    1395.9178  0.065388692  0.065751203            5 
 1780000   0.96158941   -3.8727796    1396.8413  0.065395194  0.065740749            2 
 1781000   0.97367131   -3.8330125    1402.7598    0.0656354  0.065730609            2 
 1782000   0.98129634   -3.8658155    1399.7238  0.065456593  0.065720265            1 
 1783000   0.95675285   -3.8705576    1400.0075  0.065433144  0.065710005            6 
 1784000   0.97414109   -3.8744843    1392.5576  0.065048467  0.065699231            1 
 1785000   0.97401136   -3.8413632     1403.787  0.065536272  0.065688821            5 
 1786000   0.95957821   -3.8580604    1400.3069  0.065337203  0.065678378            2 
 1787000   0.97909789   -3.8714449    1401.3066  0.065347259  0.065668016            3 
 1788000   0.98113577   -3.8523537    1401.8494   0.06533601  0.065657606            5 
 1789000   0.96582734   -3.8565223    1403.1585  0.065360468  0.065647587            4 
 1790000   0.96887438    -3.898592    1409.1276  0.065601845  0.065637629            2 
 1791000    1.0074568   -3.8685621    1405.5647  0.065399436  0.065627658            4 
 1792000    0.9697982   -3.8855856    1405.1172  0.065342132  0.065617702            3 
 1793000   0.96191269     -3.87347    1410.9754   0.06557796  0.065607892            3 
 1794000    0.9745559   -3.9143214    1407.6452  0.065386714  0.065597674            6 
 1795000   0.94279198    -3.887606    1406.2505  0.065285537  0.065587623            2 
 1796000   0.96734257   -3.8801598    1411.3672  0.065486602  0.065577734            3 
 1797000   0.98539392    -3.880302    1410.0548  0.065389298  0.065567709            6 
 1798000   0.96004733   -3.8637638    1410.5642   0.06537654  0.065557901            8 
 1799000   0.96825871   -3.8668027    1410.4473  0.065334784  0.065548068            5 
 1800000   0.97009796   -3.8725131     1414.896  0.065504444  0.065538329            3 
 1801000   0.96518671   -3.8798896    1411.8293  0.065326173  0.065528528            2 
 1802000   0.95997181   -3.8873003    1415.5497  0.065461971  0.065518594            3 
 1803000   0.95435177    -3.861761    1416.1895  0.065455237  0.065508793            2 
 1804000   0.96906281   -3.8487828    1417.7285  0.065490047  0.065499198            3 
 1805000   0.96915413    -3.858973    1418.7144   0.06549928  0.065489548            6 
 1806000   0.97266461   -3.8663931    1417.4367  0.065404054  0.065479762            6 
 1807000    0.9711107   -3.8698041    1417.6457    0.0653775  0.065470154            2 
 1808000   0.97983133    -3.858087    1422.6256   0.06557087  0.065460701            5 
 1809000   0.97275079   -3.8621825    1417.5019  0.065298595  0.065451393            7 
 1810000   0.94844177   -3.8732557    1424.6252  0.065590479  0.065441955            3 
 1811000   0.95528419   -3.8835734    1419.7914  0.065331834  0.065432365            3 
 1812000   0.95857496   -3.8938775    1421.6352  0.065380575  0.065422739            4 
 1813000   0.96801198   -3.8902506    1423.7559  0.065441987  0.065413288            2 
 1814000   0.97547573   -3.8770056    1423.7586  0.065406035  0.065404049            5 
 1815000   0.97308294   -3.8787614    1425.0112  0.065427513  0.065394572            4 
 1816000   0.95104466   -3.8781787    1423.7699  0.065334521  0.065384639            3 
 1817000    0.9588095   -3.8675248    1424.6947  0.065340978  0.065375059            2 
 1818000   0.97134145   -3.8993468    1425.2733  0.065331559  0.065365293            3 
 1819000   0.95931789    -3.877072    1421.0479  0.065102065  0.065355476            3 
 1820000   0.96303492   -3.8846642    1423.7304  0.065189119  0.065345867            2 
 1821000   0.96177129   -3.8830912    1424.8052   0.06520251  0.065336067            2 
 1822000   0.96614256    -3.882614    1427.8715  0.065306964  0.065326329            3 
 1823000    0.9497176   -3.8801277    1430.0607  0.065371216  0.065316741            3 
 1824000   0.94738459   -3.9032744     1426.588  0.065176719  0.065307364            2 
 1825000   0.95437098   -3.8830242    1426.1278  0.065119992  0.065297843            2 
 1826000    0.9867049    -3.834724    1433.0823   0.06540171  0.065288494            1 
 1827000   0.95784825   -3.8890432    1432.1522  0.065323492  0.065279038            4 
 1828000   0.96371874   -3.9059166    1428.6305  0.065127209  0.065269159            2 
 1829000   0.94285737   -3.8845691    1429.1861  0.065116917  0.065259295            3 
 1830000   0.97309455   -3.8948021    1428.0596  0.065030038  0.065249363            2 
 1831000   0.94938077   -3.8560527    1432.2366  0.065184628  0.065239558            4 
 1832000   0.94284276   -3.8844873    1432.2335  0.065148904  0.065229858            4 
 1833000   0.95387756   -3.8681724    1429.6903   0.06499774  0.065219614            3 
 1834000   0.96027133   -3.8748991    1428.3106  0.064899608  0.065209658            3 
 1835000   0.96709211   -3.8678317    1426.8271  0.064796873  0.065199604            3 
 1836000   0.94549475   -3.9030155    1429.6714  0.064890679  0.065189389            4 
 1837000   0.94854776   -3.8742766    1432.8478  0.064999444  0.065179195           11 
 1838000   0.95671899   -3.8800595    1431.7879  0.064916028  0.065169189            3 
 1839000   0.95387229    -3.868897    1431.7891  0.064880783  0.065159051            3 
 1840000   0.96941844   -3.8988223    1435.8102  0.065027634  0.065149218            3 
 1841000   0.95221124   -3.8884423    1435.7325  0.064988798  0.065139355            3 
 1842000   0.95016262    -3.880505    1437.0597   0.06501356  0.065129431            7 
 1843000   0.96479385   -3.8909629    1437.4307  0.064995057  0.065119643            3 
 1844000   0.97425455   -3.8830634    1437.2267  0.064950593  0.065109484            4 
 1845000   0.95853596   -3.8718274    1435.1118  0.064819865  0.065099451            3 
 1846000    0.9473032   -3.8906852    1440.9532  0.065048449  0.065089462            9 
 1847000   0.93976512   -3.8832235    1437.7171   0.06486722  0.065079346            2 
 1848000   0.93859499   -3.8811607     1440.422  0.064954093  0.065069391            7 
 1849000   0.94946572   -3.8872326    1442.3695  0.065006737  0.065059377            3 
 1850000   0.95777185   -3.8679848    1442.9603   0.06499821  0.065049447            3 
 1851000   0.96423977   -3.8695771    1441.6539   0.06490428  0.065039685            7 
 1852000   0.95400111   -3.8862224    1445.1443   0.06502629  0.065029771            3 
 1853000   0.96092729   -3.8862428    1439.1911  0.064723471  0.065019724            6 
 1854000   0.94586041   -3.9013508    1443.2514  0.064871061  0.065009712            5 
 1855000   0.95538409   -3.8891064    1440.1062  0.064694798   0.06499972           10 
 1856000   0.96119696   -3.9018843    1442.9699  0.064788519  0.064989676            4 
 1857000   0.95195937   -3.9014098    1445.1433  0.064851164  0.064979724            4 
 1858000   0.95277583   -3.8658436     1451.821   0.06511576  0.064969934            3 
 1859000    0.9654333   -3.9234387    1444.1082  0.064734991  0.064960099            3 
 1860000      0.94145   -3.8863284    1446.9604  0.064827974   0.06495007            4 
 1861000   0.93182029   -3.8723364    1445.8179  0.064741978  0.064940277            3 
 1862000   0.95704084   -3.8799496    1449.1866  0.064857976  0.064930278            3 
 1863000    0.9530812   -3.8637396    1447.4497   0.06474547  0.064920523            3 
 1864000   0.94920209   -3.8886307    1448.9748  0.064778915  0.064910638            5 
 1865000    0.9415664   -3.8568272    1454.5693  0.064994158  0.064900994            2 
 1866000   0.94167179   -3.8734133     1456.385  0.065040415  0.064891333            3 
 1867000   0.98463653   -3.8764017    1455.7374  0.064976674  0.064881639            5 
 1868000   0.94660218   -3.9052414    1451.7373  0.064763439  0.064872149            6 
 1869000   0.96132336   -3.9148772    1444.8387  0.064421203  0.064862419            3 
 1870000   0.95533674   -3.9085716    1451.5826  0.064687282  0.064852598            4 
 1871000   0.95843995    -3.862734    1452.8578  0.064709505  0.064843046            2 
 1872000   0.97498808     -3.89056    1451.8057  0.064628103  0.064833429            3 
 1873000   0.94712705   -3.8986963    1453.3776  0.064663534  0.064823812            3 
 1874000   0.95832217   -3.8786738    1453.2983  0.064625504  0.064814457            2 
 1875000   0.96497248   -3.8892919     1456.502  0.064733421  0.064804725            5 
 1876000   0.95293532   -3.8890739    1460.4951  0.064876295  0.064795159            2 
 1877000   0.94553351   -3.9228033    1457.3939  0.064704043  0.064785542            6 
 1878000   0.95309008   -3.9016996     1456.785  0.064642573  0.064775822            3 
 1879000   0.96454639   -3.9137295    1453.6715  0.064470086  0.064766327            5 
 1880000   0.95381366   -3.9128337    1456.8232  0.064575495  0.064756481            2 
 1881000   0.94646306   -3.8917041    1456.9442  0.064546528  0.064746928            2 
 1882000   0.94958185   -3.8952516     1465.713  0.064900503  0.064737297            6 
 1883000   0.94622369   -3.8961313    1462.3797   0.06471852  0.064727231            3 
 1884000   0.94869775   -3.8867914    1463.1351  0.064717583  0.064717533            2 
 1885000   0.96037335   -3.8956302    1455.8427  0.064360862  0.064707718            3 
 1886000   0.95382701   -3.9089888      1454.04  0.064247085  0.064697541            2 
 1887000   0.93081759   -3.8669104    1463.8899  0.064648028  0.064687699            2 
 1888000   0.94569751   -3.9151623    1463.1643  0.064581757   0.06467772            2 
 1889000   0.96222729   -3.8736451    1463.3051  0.064553782  0.064667787            6 
 1890000   0.93543215   -3.8960815    1468.4828  0.064747918  0.064657767            2 
 1891000   0.95823133   -3.9149981    1461.1795  0.064391836  0.064647885            2 
 1892000    0.9651355   -3.8988696     1463.166  0.064445295  0.064637859            3 
 1893000    0.9326369   -3.9229157    1463.8961  0.064443394  0.064627537            8 
 1894000   0.95173321   -3.9273091    1460.6476  0.064266436  0.064617375            4 
 1895000   0.95873119   -3.9019976      1460.92  0.064244503  0.064607558            4 
 1896000    0.9604515   -3.8835075    1462.4446   0.06427763  0.064597526            4 
 1897000   0.94357538   -3.9237379    1467.0942  0.064447996  0.064587115            4 
 1898000   0.96199571   -3.9256948     1465.571  0.064347163  0.064576873            2 
 1899000    0.9556674   -3.8971775    1470.4875  0.064529027  0.064566796            2 
 1900000    0.9631377   -3.9014593    1465.6464  0.064282737  0.064556645            1 
 1901000   0.95457396   -3.9274142    1462.3847  0.064105939  0.064546297            3 
 1902000   0.95722715   -3.8999186    1465.4852  0.064208078  0.064535733            3 
 1903000   0.95139513   -3.8879611    1467.8202  0.064276588  0.064525342            3 
 1904000   0.94864148   -3.8945569    1466.3595  0.064178899  0.064515112            4 
 1905000   0.94451241   -3.8879641    1468.9807  0.064259873   0.06450459            3 
 1906000   0.93787187   -3.9289851     1464.293  0.064021205  0.064494101            4 
 1907000   0.94796778   -3.8987278     1465.338  0.064033299  0.064483302            7 
 1908000   0.94623913   -3.8995096    1466.4064  0.064046399  0.064472704            3 
 1909000   0.92634077   -3.9153685    1465.6069  0.063977951  0.064462333            2 
 1910000   0.94588556   -3.9223456    1472.8134  0.064258876  0.064451748            2 
 1911000   0.94825556   -3.9186505    1465.9334   0.06392523  0.064441243            7 
 1912000   0.94633241   -3.9156704    1473.0915  0.064203777  0.064430178            2 
 1913000   0.95250861   -3.8958442     1465.051  0.063819962  0.064419459            3 
 1914000   0.95889126   -3.9241628    1467.9041  0.063910836  0.064408705            2 
 1915000      0.93665   -3.9210009    1468.1019   0.06388607  0.064397871            4 
 1916000   0.93084744   -3.9051072     1473.603  0.064091989  0.064387177            5 
 1917000   0.93345965   -3.9094537    1473.7563  0.064065218  0.064376621            6 
 1918000   0.94806466   -3.9102928    1473.2828  0.064011244  0.064366124            4 
 1919000   0.93901454   -3.9051168    1473.3735  0.063981828   0.06435562            8 
 1920000   0.92511436   -3.9269642    1476.5622    0.0640869  0.064345043            3 
 1921000   0.94350525   -3.9066196    1479.1921  0.064167625  0.064334438            5 
 1922000    0.9412671   -3.9075375    1474.0954  0.063913259  0.064323984            6 
 1923000   0.95964745   -3.9540391    1474.8102  0.063910997  0.064313824            4 
 1924000   0.92527125   -3.8977596    1483.2718  0.064244276  0.064303456            8 
 1925000   0.94988024   -3.9238704    1477.6497   0.06396752  0.064293052            2 
 1926000   0.91956062   -3.9257878    1477.3169  0.063919908   0.06428257            4 
 1927000   0.93050874   -3.9281293    1479.7361  0.063991354  0.064272192            3 
 1928000   0.95073899   -3.8774228    1482.3288  0.064070229  0.064261818            4 
 1929000   0.93085943   -3.9078904    1479.6615  0.063921787  0.064251355            2 
 1930000      0.91799   -3.9169486    1483.4814    0.0640536  0.064241115           16 
 1931000   0.94849225   -3.9291367     1481.472  0.063933711  0.064230828            3 
 1932000   0.93370218   -3.9055299    1488.8648  0.064219497  0.064220749            3 
 1933000   0.93028075   -3.8955271    1486.9238  0.064102597  0.064210626            4 
 1934000   0.96840463   -3.9108093    1486.5625  0.064053884  0.064200556            6 
 1935000   0.94581108   -3.8914025    1484.6431   0.06393812  0.064190133            2 
 1936000   0.93194581   -3.8942604     1486.205  0.063972321  0.064179799            2 
 1937000   0.93871264   -3.9013817     1491.211  0.064154662  0.064169358            3 
 1938000   0.95139595   -3.8833091    1490.1102  0.064074227  0.064159008            3 
 1939000   0.93598026   -3.8894124    1486.7861   0.06389832  0.064148695            3 
 1940000    0.9459546    -3.945731    1485.7853  0.063822393  0.064138328            3 
 1941000   0.93680738   -3.8823696    1487.7852  0.063875375  0.064128116            3 
 1942000   0.95066617   -3.9034273    1491.1203  0.063985594  0.064118285            6 
 1943000   0.92207303   -3.8652042    1487.4145  0.063793726  0.064108399            3 
 1944000   0.92805028   -3.9280023    1485.5226  0.063679808  0.064098353            3 
 1945000   0.93755002   -3.9177241     1488.481  0.063773823   0.06408781            3 
 1946000   0.95976087   -3.9130319    1498.0187  0.064149482  0.064077632            6 
 1947000   0.96006344   -3.9235213    1491.5047   0.06383773  0.064067586            4 
 1948000   0.94887103   -3.8874046    1496.8746  0.064034676  0.064057395            2 
 1949000   0.92242212   -3.9226779     1488.162  0.063629297  0.064047327            3 
 1950000   0.93475187   -3.9145634    1496.8666   0.06396866  0.064037348            2 
 1951000   0.94857218   -3.8861946    1499.6574  0.064055073   0.06402725            3 
 1952000   0.93240861   -3.9298785    1491.5676  0.063676895  0.064017063            3 
 1953000   0.92107678     -3.92098    1496.8317  0.063868905  0.064006927            2 
 1954000   0.93001905   -3.8983281    1493.7048  0.063702866  0.063996981            3 
 1955000   0.92839469   -3.9235179    1493.7785  0.063673424  0.063986788            2 
 1956000   0.93062207   -3.9238513    1498.7331  0.063851955  0.063976519            2 
 1957000    0.9450935   -3.9058331    1498.0344  0.063789577  0.063966072            7 
 1958000   0.93671133   -3.9289311    1492.3174  0.063513678  0.063955949            4 
 1959000   0.92794725   -3.9248226    1495.2247  0.063604931  0.063945534            2 
 1960000   0.95117716   -3.9164948    1498.2701  0.063701961  0.063935392            2 
 1961000   0.93263376   -3.9068255    1497.9279  0.063654935  0.063924987            2 
 1962000   0.94759171   -3.9338142    1495.0394  0.063499806  0.063914402            8 
 1963000   0.93465639    -3.915887    1498.7973  0.063626989  0.063903739            3 
 1964000   0.92280231   -3.9273557    1498.4509  0.063579892  0.063893175            3 
 1965000   0.92626904    -3.878558    1504.2393  0.063793015  0.063882661            2 
 1966000   0.94172488   -3.9070433    1499.8809  0.063575828  0.063872243            2 
 1967000   0.92483375   -3.9330323    1499.8792  0.063543435  0.063861949            2 
 1968000   0.93691707   -3.9141129    1501.5235  0.063580772  0.063851433            6 
 1969000   0.93218953   -3.9155249    1502.0068  0.063568934  0.063840794            4 
 1970000    0.9340621   -3.9214641    1501.2353   0.06350403  0.063830136            7 
 1971000   0.94135545   -3.9453104    1498.3493  0.063349791  0.063819247            3 
 1972000   0.92720265   -3.9229424    1499.5308  0.063367597  0.063808515            3 
 1973000   0.95187626   -3.9234183    1501.6552  0.063425207   0.06379743            6 
 1974000   0.93761684    -3.953225    1501.6351  0.063392229  0.063786563            2 
 1975000    0.9291961   -3.8945827    1504.9441  0.063499752  0.063775557            2 
 1976000   0.94190143   -3.9014286    1505.5538   0.06349333  0.063764856            3 
 1977000   0.93291726   -3.9316958    1497.3478  0.063115316  0.063753975            3 
 1978000   0.92385619   -3.9458426    1500.9238  0.063234065   0.06374299            2 
 1979000   0.93967079   -3.8910342    1507.1259  0.063463276  0.063732002            2 
 1980000   0.94471982   -3.9424101    1502.3121  0.063228623  0.063721113            4 
 1981000    0.9213283   -3.9360328    1501.0968  0.063145582  0.063710211            3 
 1982000   0.92293173    -3.929433    1502.1545  0.063158194  0.063699283            3 
 1983000   0.91318889   -3.9334999    1507.4635   0.06334945  0.063688606            2 
 1984000   0.92427201    -3.950794    1504.2407  0.063182155  0.063677686            3 
 1985000   0.95259544   -3.9282483    1506.8525  0.063259973  0.063666897            4 
 1986000   0.93002916   -3.9422605    1508.7029   0.06330576  0.063656248            6 
 1987000   0.92615582   -3.9456498    1510.1194  0.063333308  0.063645449            3 
 1988000   0.93407356   -3.9388542    1502.7385  0.062992056  0.063634401            4 
 1989000   0.92014285    -3.913406    1510.1241  0.063269821  0.063623553            5 
 1990000   0.94432092   -3.9300865     1509.991  0.063232454  0.063612749            4 
 1991000   0.92532042    -3.917383    1512.7407  0.063315782  0.063602014            3 
 1992000    0.9108662   -3.9311453    1506.7714   0.06303428  0.063591146            1 
 1993000   0.94339182   -3.9393017    1508.8397  0.063089131  0.063580396            5 
 1994000   0.93413623   -3.9086673    1513.6676  0.063259263   0.06356951            3 
 1995000   0.92993733   -3.9152455    1513.9651   0.06323998  0.063558586            4 
 1996000   0.92630397   -3.9331176      1507.39  0.062933784  0.063547682            3 
 1997000   0.93092153   -3.9425877    1512.1061  0.063099069  0.063536717            8 
 1998000    0.9227249   -3.9388462    1512.9779  0.063103848  0.063525951            5 
 1999000   0.94444201   -3.9296479    1509.2515  0.062916938  0.063515057            4 
 2000000   0.93400792   -3.9387587    1512.3309  0.063013786  0.063503979            2 
 2001000   0.92260912   -3.9239495    1513.5039  0.063031148  0.063492889            1 
 2002000   0.91925537   -3.9043461    1519.6114  0.063253886  0.063482151            3 
 2003000   0.93750331   -3.9063284    1516.0656  0.063074787  0.063471357            3 
 2004000   0.92131465   -3.8991029    1521.8534   0.06328399  0.063460602            7 
 2005000   0.92766831   -3.9391995    1520.3378  0.063189434  0.063449844            5 
 2006000   0.93826673   -3.9079113     1519.929  0.063140952  0.063438878            3 
 2007000   0.92762533   -3.9095878     1519.775  0.063103098  0.063427907            3 
 2008000     0.940725   -3.8849191    1521.6648  0.063150099  0.063417163            3 
 2009000   0.93257591   -3.9506828    1517.7125  0.062954726  0.063406519            3 
 2010000   0.91892902   -3.9325217     1520.588  0.063042618  0.063395491            5 
 2011000   0.94437614    -3.916252    1524.3095  0.063165487  0.063384694            8 
 2012000   0.92497197   -3.9484492    1520.3105  0.062968462  0.063373841            3 
 2013000   0.96337232   -3.9315115    1522.0289  0.063008315  0.063362923            5 
 2014000   0.90648778   -3.9068327     1524.654  0.063085651  0.063352016            3 
 2015000   0.92382102   -3.9415906    1518.9688  0.062819222  0.063340942            3 
 2016000   0.93975301   -3.9174734    1519.8709  0.062825352  0.063329751            3 
 2017000   0.93432871   -3.9222981    1530.3782   0.06322832  0.063318734            3 
 2018000   0.91819141    -3.931345    1519.3135   0.06274007  0.063307915            4 
 2019000    0.9256183    -3.920462    1526.6226  0.063010673  0.063296737            4 
 2020000   0.92348692   -3.9361436    1522.9617  0.062828455  0.063285708            3 
 2021000   0.92419738   -3.9408372    1518.2297  0.062602248   0.06327467            6 
 2022000    0.9276244   -3.9462729    1520.3643  0.062659262  0.063263347            2 
 2023000   0.89997233   -3.9403615    1518.4013  0.062547426  0.063251945            4 
 2024000   0.93911669   -3.9455366     1525.736  0.062818513  0.063240948            5 
 2025000   0.92968439   -3.9374456    1524.1662  0.062722887  0.063229752            3 
 2026000   0.93398032   -3.9345178     1523.998  0.062685013  0.063218827            3 
 2027000   0.95206387   -3.9512652    1527.8439  0.062812196  0.063207714            8 
 2028000   0.95091904    -3.931045    1524.0834    0.0626267  0.063196723            7 
 2029000   0.95023917   -3.9331844    1532.1773   0.06292826  0.063185852            3 
 2030000   0.91929866   -3.9086566    1531.1315  0.062854331   0.06317518            2 
 2031000   0.88824283   -3.9371884     1529.473  0.062755333  0.063164257            4 
 2032000   0.93947496   -3.9186806    1528.2147  0.062672848  0.063153224            4 
 2033000   0.94478702   -3.9429437    1526.4199   0.06256845  0.063142091            5 
 2034000   0.91863586   -3.9445681    1526.0196  0.062521287  0.063130927            4 
 2035000   0.91086909   -3.9425837    1528.7328   0.06260167  0.063119863            4 
 2036000   0.89983396   -3.9608091    1533.7656  0.062776915  0.063108878            5 
 2037000   0.92820929   -3.9128289    1535.9481  0.062835382   0.06309774            5 
 2038000   0.92241597   -3.9661975    1529.9675  0.062560008  0.063086578            3 
 2039000    0.9221924   -3.9450945    1525.2978  0.062338475  0.063075366            8 
 2040000   0.93444186    -3.921877     1534.361  0.062678144  0.063064429            4 
 2041000   0.91760054   -3.9492454    1535.5018  0.062694015  0.063053077            4 
 2042000   0.91715088   -3.9500999    1528.0429  0.062358916   0.06304205            3 
 2043000    0.9265527   -3.9403132     1532.292  0.062501712  0.063030855            4 
 2044000   0.94049942   -3.9609106    1535.8715  0.062617069  0.063019748            3 
 2045000   0.94071294   -3.9781006     1529.602  0.062330969  0.063008459            3 
 2046000    0.9352663   -3.9114803    1533.6753  0.062466408  0.062997332            2 
 2047000   0.93024724   -3.9423558    1530.8279  0.062319975   0.06298619            3 
 2048000   0.93936046   -3.9346089    1536.2295  0.062509338  0.062975072            3 
 2049000   0.93735555   -3.9326707    1532.1429   0.06231263  0.062963776            2 
 2050000   0.92618705   -3.9374702    1536.7294  0.062468673  0.062952745            2 
 2051000   0.94249916   -3.9091237    1543.0432  0.062694751  0.062941471            6 
 2052000   0.91390239   -3.9258727    1534.0052  0.062297158  0.062930119            3 
 2053000   0.92880297    -3.952763    1533.9967  0.062266469  0.062918537            2 
 2054000   0.95234082   -3.9319193    1538.1677  0.062405375  0.062907263            3 
 2055000   0.94075172   -3.9592644     1537.849  0.062362083  0.062895891            5 
 2056000   0.91842409   -3.9392708      1536.08  0.062260054  0.062884506            2 
 2057000   0.92874608   -3.9170512    1537.1203  0.062271929  0.062872976            4 
 2058000   0.91866837   -3.9362316    1532.0078  0.062034654  0.062861755            5 
 2059000   0.92446485   -3.9344966    1538.5906   0.06227095  0.062850615            4 
 2060000   0.91435689   -3.9337262    1542.9322  0.062416352  0.062839341            4 
 2061000   0.93809759   -3.9632113    1542.6205  0.062373462  0.062827995            3 
 2062000   0.90889627   -3.9163458    1539.7198  0.062225984  0.062816839            5 
 2063000   0.93264093   -3.9385177    1543.9964  0.062368574  0.062805808            4 
 2064000   0.90396233   -3.9449492    1539.5625  0.062159338  0.062794717            4 
 2065000   0.92271556    -3.934363    1542.1261  0.062232693    0.0627835            8 
 2066000   0.91665921   -3.9482154    1547.4652  0.062417925  0.062772261            4 
 2067000   0.91663426   -3.9466876    1540.9887  0.062126622  0.062760979            4 
 2068000   0.93873642   -3.9579209    1540.6167  0.062081589  0.062749897            7 
 2069000   0.92500445   -3.9206485    1541.6735  0.062094149  0.062738643            2 
 2070000   0.91513702   -3.9394406    1537.3314  0.061889346  0.062727245            6 
 2071000   0.91832081   -3.9270979    1543.7569  0.062118013  0.062715909            3 
 2072000   0.93145015   -3.9535923    1544.8416  0.062131662  0.062704591            7 
 2073000   0.92152539   -3.9661976    1539.4074  0.061883238  0.062693231            3 
 2074000   0.90524368   -3.9129249    1547.0558  0.062160711  0.062682167            2 
 2075000   0.90915967   -3.9051144    1549.6692  0.062235712   0.06267076            2 
 2076000   0.91977897   -3.9165509    1551.6478  0.062285156  0.062659467            5 
 2077000   0.94032424   -3.9401865    1547.3778  0.062083848  0.062648366            2 
 2078000   0.91368646   -3.9419583     1540.664  0.061784729   0.06263723            4 
 2079000   0.90227857   -3.9661821    1554.4156  0.062306219  0.062625928            6 
 2080000   0.92573637   -3.9320379    1550.1781  0.062106493  0.062614822            4 
 2081000   0.91846761   -3.9499661    1548.3936   0.06200519  0.062603346            4 
 2082000   0.91939324   -3.9528424    1545.1854     0.061847  0.062592129            3 
 2083000   0.92411926   -3.9271573    1548.2597    0.0619403  0.062580659            4 
 2084000   0.92639526   -3.9468949    1547.4677  0.061878908  0.062569189            5 
 2085000   0.91319232   -3.9465048    1549.6846  0.061937833  0.062557554            2 
 2086000   0.91943367   -3.9567253    1549.5525  0.061902865  0.062545933            4 
 2087000   0.92758296    -3.941288    1552.9654  0.062009481  0.062534446            2 
 2088000   0.92375726   -3.9343184    1553.9191  0.062017843  0.062523108            2 
 2089000   0.89278599   -3.9171049    1552.7273  0.061940614  0.062511504            4 
 2090000   0.92589465   -3.9708232    1549.8653  0.061796861  0.062500079            3 
 2091000   0.90243686   -3.9579306    1551.1579  0.061818823  0.062488483            2 
 2092000   0.91885033   -3.9614014    1553.8367  0.061895979  0.062476883            3 
 2093000   0.90252253   -3.9731692    1552.3564  0.061807469  0.062465251            3 
 2094000   0.91271122   -3.9492138    1553.4231  0.061820405  0.062453752            4 
 2095000   0.90834045   -3.9636827    1555.1738  0.061860532  0.062442268            2 
 2096000    0.9025785   -3.9554119    1557.9383  0.061940932  0.062430661            4 
 2097000   0.91481795   -3.9340078    1557.2123  0.061882542   0.06241903            1 
 2098000   0.90212887   -3.9272994    1555.3202  0.061777893  0.062407361            5 
 2099000   0.90038588   -3.9459126    1556.6439  0.061801011  0.062395581            2 
 2100000   0.91651743   -3.9236454    1555.1025  0.061710416  0.062384059            6 
 2101000   0.92057965   -3.9368613    1556.7617  0.061746856  0.062372204           10 
 2102000   0.93090015   -3.9477315    1556.6673  0.061713735  0.062360688            5 
 2103000    0.9177532   -3.9756286    1558.0002  0.061737208  0.062348989            6 
 2104000   0.90998409   -3.9719714    1556.3201  0.061641323  0.062337296            3 
 2105000   0.90582687   -3.9767945    1559.3671  0.061732665  0.062325736            4 
 2106000   0.90398773   -3.9351362    1559.6849  0.061715927  0.062314096            4 
 2107000   0.90809743   -3.9410034    1563.1518  0.061823754   0.06230249            5 
 2108000   0.92399865   -3.9900497    1557.6168  0.061575616  0.062290933            3 
 2109000   0.90213755   -3.9648949    1562.6121  0.061743799  0.062279406            3 
 2110000   0.92753602   -3.9423537    1563.1243  0.061734769  0.062267753            3 
 2111000   0.91103107   -3.9685914     1567.151  0.061864481   0.06225641            3 
 2112000   0.90213686   -3.9463866    1560.1356   0.06155838  0.062244926            2 
 2113000    0.9215284   -3.9351239     1564.334  0.061694824  0.062233498            7 
 2114000   0.90623055   -3.9440823    1565.5916  0.061715214  0.062222239            4 
 2115000   0.91243821   -3.9183108    1566.4426  0.061719568  0.062210992            5 
 2116000   0.90673378   -3.9438392    1562.3454   0.06152904  0.062199394            2 
 2117000   0.89946242   -3.9381727    1567.7942   0.06171446  0.062187615            3 
 2118000   0.92251523   -3.9543769     1563.136  0.061502044  0.062175907            3 
 2119000   0.89394532   -3.9551034    1562.7257  0.061456885  0.062164231            6 
 2120000   0.89466561    -3.968616    1565.8222  0.061549614  0.062152281            5 
 2121000   0.91440523   -3.9538871    1559.5951  0.061275935  0.062140521            3 
 2122000   0.93061811   -3.9506389    1567.1045   0.06154196  0.062128644            2 
 2123000   0.93293355   -3.9746865     1562.439  0.061329839  0.062116851            3 
 2124000   0.92272371    -3.980897    1567.0075  0.061480206  0.062105208            2 
 2125000   0.95068296   -3.9659561    1565.8987  0.061407792  0.062093378            5 
 2126000   0.90384276   -3.9632178    1566.6449  0.061408156  0.062081754            3 
 2127000   0.90548882   -3.9812593    1572.2581  0.061599206  0.062070177            4 
 2128000   0.93483314   -3.9545301    1568.1046  0.061407605  0.062058483            3 
 2129000   0.89502146   -3.9239594     1566.304  0.061308284  0.062046834            4 
 2130000   0.90896046   -3.9450102    1567.2912  0.061318121  0.062035068            2 
 2131000   0.91614869     -3.93209    1576.5644  0.061651979  0.062023534            2 
 2132000   0.90699049   -3.9288528    1570.4037   0.06138226   0.06201208            7 
 2133000   0.91426094   -3.9635972    1571.6846  0.061403525  0.062000365            4 
 2134000   0.90566878   -3.9512289    1569.4022  0.061285621  0.061988784            4 
 2135000   0.90208047    -3.946195    1573.0776  0.061400374  0.061976863            4 
 2136000   0.91474951   -3.9412247    1571.1897  0.061297975  0.061965051            3 
 2137000   0.90224783   -3.9641051    1568.1542  0.061150921  0.061953451            3 
 2138000    0.9106851   -3.9518114    1568.7756  0.061146537  0.061941708            3 
 2139000    0.9198795   -3.9803586    1570.1608  0.061171917  0.061930013            3 
 2140000    0.9149086   -3.9415643    1581.3169  0.061577759  0.061918331            2 
 2141000   0.90515997   -3.9920436       1572.2  0.061194145  0.061906707            2 
 2142000   0.88217672   -3.9616404    1571.7151  0.061146712  0.061894737            6 
 2143000     0.894501   -3.9843554    1579.1701  0.061408077  0.061882931            4 
 2144000   0.91810438   -3.9640287    1570.6484  0.061048212  0.061871084            5 
 2145000   0.91254322    -3.973728    1573.2551  0.061121021  0.061859418            7 
 2146000   0.91936558   -3.9538039    1577.5772  0.061260377  0.061847686            2 
 2147000   0.94985351   -3.9650427    1577.3973  0.061224861  0.061835765            4 
 2148000   0.89767193     -3.93637    1579.1834   0.06126565  0.061824107            8 
 2149000    0.9147926   -3.9580782    1580.1164  0.061273322  0.061812358            5 
 2150000    0.9042369   -3.9604511    1576.6462  0.061110316  0.061800757            3 
 2151000    0.9077993   -3.9534651    1581.3163  0.061262835    0.0617889            5 
 2152000   0.92145478   -3.9486744    1574.1969  0.060958678  0.061777227            3 
 2153000   0.89672665    -3.946992    1583.2649  0.061281346  0.061765616           13 
 2154000   0.90984539   -3.9602956    1582.5275  0.061224369  0.061754063            3 
 2155000   0.90521363   -3.9759965    1575.6916  0.060931615  0.061742272            4 
 2156000    0.8925445   -3.9525963    1580.1674  0.061076354  0.061730583            3 
 2157000   0.88205942   -3.9551528     1581.949  0.061116868     0.061719            8 
 2158000   0.91802979   -3.9602988    1579.8561  0.061007727  0.061707305            6 
 2159000   0.92064878   -3.9525478    1579.1734   0.06095312  0.061695473            5 
 2160000   0.92832124   -3.9534675     1583.706  0.061099767  0.061683549            1 
 2161000   0.90681397   -3.9665183    1588.9502  0.061273725  0.061671848            4 
 2162000   0.92040205    -3.941222    1587.6203  0.061194123  0.061660265            2 
 2163000   0.89801905   -3.9720544    1580.0634  0.060874687  0.061648606            3 
 2164000    0.8997597   -3.9453295    1586.1241  0.061079948  0.061636813            6 
 2165000   0.90258842   -3.9759343    1583.3884  0.060946436  0.061625079            3 
 2166000   0.89957618   -3.9548374    1590.1669  0.061179089  0.061613473            3 
 2167000   0.88583892   -3.9580903    1583.2793   0.06088599  0.061601872            3 
 2168000   0.91084314   -4.0052572    1583.9827  0.060884942  0.061590175            3 
 2169000   0.91000109   -3.9786811    1594.2781  0.061252423  0.061578613            5 
 2170000   0.91692896   -3.9723664    1589.1739  0.061028183  0.061566945            2 
 2171000   0.89610896   -3.9855964    1583.8353  0.060795154  0.061555275            5 
 2172000   0.88820789   -3.9479487    1586.1473  0.060855865  0.061543507            3 
 2173000   0.94451022   -3.9887392    1585.2083  0.060791851  0.061531869            6 
 2174000   0.91181226    -3.958497    1584.5333  0.060738013  0.061520194            5 
 2175000   0.91320307   -3.9814224    1591.0552   0.06095997   0.06150856            4 
 2176000   0.90221468   -3.9558146    1589.2183  0.060861608  0.061497121            4 
 2177000   0.88301797   -3.9787107    1590.8307  0.060895371  0.061485283            2 
 2178000   0.89857738   -3.9866172    1588.0516  0.060761079  0.061473556            2 
 2179000   0.88631366   -3.9945566    1589.5179  0.060789273  0.061461708            4 
 2180000   0.89468869   -3.9689953    1588.6865  0.060729607  0.061449869            4 
 2181000   0.91953761   -3.9653222    1595.6228  0.060966789  0.061438048            2 
 2182000    0.9102708   -3.9936021    1595.2843   0.06092592  0.061426222            6 
 2183000   0.90618779   -3.9678505    1589.5815  0.060680316  0.061414222            3 
 2184000   0.89620177   -3.9826348    1590.0418  0.060670093  0.061402373            4 
 2185000   0.88413106   -3.9558356    1594.4949  0.060812161  0.061390542            2 
 2186000   0.88926802   -3.9284975    1595.7852  0.060833532  0.061378722            3 
 2187000   0.89721022    -3.991955    1586.9251  0.060468112  0.061366859            1 
 2188000   0.91626705   -3.9673275    1595.9607  0.060784608  0.061354934            6 
 2189000   0.91393305   -3.9707271    1590.3867  0.060544645  0.061343238            3 
 2190000   0.92444453   -3.9915382     1589.114  0.060468569  0.061331407            6 
 2191000   0.91496919   -3.9830912    1591.1126  0.060516986  0.061319506            3 
 2192000    0.8848374   -3.9779836    1589.5842  0.060431274  0.061307424            5 
 2193000   0.90949414   -3.9713486    1593.9427  0.060569338  0.061295489            6 
 2194000   0.88915195   -3.9676437    1597.0107  0.060658263  0.061283655            7 
 2195000   0.88349077   -3.9793118    1593.1891  0.060485539  0.061271541            4 
 2196000    0.9051924   -3.9619869    1600.2224  0.060724895  0.061259658            2 
 2197000   0.89709603   -3.9629486    1599.7203  0.060678208  0.061247885            4 
 2198000   0.91340874   -3.9847175    1593.8467  0.060427916  0.061236016            5 
 2199000    0.8947586   -3.9637482    1593.0402  0.060369873  0.061224105            5 
 2200000   0.89760644   -3.9835496     1598.186   0.06053735  0.061212018            4 
 2201000   0.88749153    -3.985369     1600.772  0.060607755   0.06120015            4 
 2202000   0.91281831   -3.9852707     1596.434  0.060416061  0.061188345            3 
 2203000   0.89287562   -3.9598672    1601.8321  0.060592833  0.061176457            3 
 2204000   0.87728271   -3.9947826    1598.3948  0.060435376  0.061164548            2 
 2205000   0.89618892   -3.9749888    1598.2989  0.060404344  0.061152675            3 
 2206000   0.89933498   -3.9727056    1599.7053  0.060430087   0.06114069            6 
 2207000   0.88289139   -3.9667356    1603.2155  0.060535247  0.061128867            2 
 2208000    0.8890505   -3.9917451    1603.7334  0.060527379    0.0611173            3 
 2209000   0.89019273    -3.962174    1610.0622  0.060738728  0.061105518            4 
 2210000   0.88133459   -3.9720726    1606.1071  0.060562107  0.061093818            4 
 2211000   0.88755072   -3.9777975    1605.7947  0.060522943  0.061082485            3 
 2212000   0.88340177    -3.973399    1609.4568  0.060633543  0.061071049            4 
 2213000   0.90332093   -3.9967759    1605.7841  0.060467846  0.061059369            5 
 2214000   0.89489345   -3.9853535    1608.5994  0.060546501  0.061047785            3 
 2215000   0.89253558   -3.9747817    1606.5828  0.060443297  0.061036322            2 
 2216000    0.8950116   -3.9695592    1607.8035  0.060461924  0.061024765            5 
 2217000   0.89504441   -3.9580262     1611.294  0.060565854  0.061013235            3 
 2218000   0.89167721   -3.9815303    1608.9379  0.060450027  0.061001755            3 
 2219000   0.89267639   -3.9992318    1609.6561  0.060449755  0.060990337            3 
 2220000   0.91053875   -3.9751554    1611.4545  0.060490032  0.060978816            4 
 2221000   0.88590272   -3.9953487    1610.6418  0.060432307  0.060967312            5 
 2222000   0.88939226   -3.9892813    1604.4142   0.06017155  0.060955743            4 
 2223000   0.88816564   -3.9825613    1613.5849  0.060488262  0.060944104            5 
 2224000   0.89054361   -4.0218444    1609.1989  0.060296722   0.06093249            2 
 2225000   0.88877418   -4.0105733    1608.9406  0.060259946  0.060920822            3 
 2226000   0.90114024   -3.9628697    1611.1019  0.060313786   0.06090912            3 
 2227000    0.9007323   -3.9752027    1609.8574  0.060240137  0.060897513            5 
 2228000   0.88912237   -3.9935107    1607.5009  0.060124958  0.060885987            5 
 2229000   0.92211055   -3.9979004    1611.2932  0.060239765  0.060874481            8 
 2230000   0.91657368   -3.9779063    1615.3891  0.060365812  0.060863151            6 
 2231000   0.91386678   -3.9998159     1614.453  0.060303786  0.060851798            3 
 2232000   0.87468855   -4.0041042    1615.2368  0.060306034  0.060840221            4 
 2233000   0.90180821   -3.9966628    1616.2454  0.060316666  0.060828856            6 
 2234000   0.87613074   -4.0142313    1615.5221  0.060262687  0.060817358            4 
 2235000   0.89818331   -3.9716984    1623.8489  0.060546193  0.060806057            5 
 2236000   0.90086751   -3.9866252    1618.6301  0.060324617  0.060794705            6 
 2237000   0.88990124   -3.9883831    1618.0376  0.060275578  0.060783361            2 
 2238000   0.90034495   -3.9862858    1616.7994  0.060202538  0.060772006            5 
 2239000   0.90859965   -4.0059336     1617.808  0.060213192  0.060760576            3 
 2240000   0.90084087   -3.9833452    1622.2286  0.060350766  0.060749298            4 
 2241000   0.89170446   -3.9672783    1621.6634  0.060302818   0.06073799           11 
 2242000   0.88353283   -3.9904179      1621.93  0.060285832  0.060726684            5 
 2243000   0.88671034   -3.9804325    1625.7786  0.060401938  0.060715439            6 
 2244000   0.88964418   -3.9887906    1618.8425  0.060117444   0.06070416            3 
 2245000   0.91267347   -3.9928776    1620.9181  0.060167709  0.060692675            7 
 2246000    0.8765311   -3.9734906    1620.2395  0.060115744   0.06068129            7 
 2247000   0.90348448   -3.9950847     1624.754  0.060256415   0.06066988            3 
 2248000   0.88431935   -3.9869271    1622.0741  0.060130266    0.0606587            4 
 2249000   0.90676642   -3.9883227    1623.5689  0.060158918  0.060647302            3 
 2250000   0.90453862    -4.010408    1622.9714  0.060110052  0.060635812            6 
 2251000   0.92268373   -3.9736923      1623.71  0.060110691  0.060624336            4 
 2252000    0.8897247   -3.9920474    1621.0154   0.05998429  0.060612762            3 
 2253000   0.88354379   -4.0054236    1623.9917  0.060067751  0.060601517            2 
 2254000   0.88425167    -3.983792    1622.6283  0.059990694   0.06059028            3 
 2255000   0.89562473   -3.9944093    1624.6749  0.060039721  0.060578897            3 
 2256000   0.88577941   -3.9996192    1626.6334  0.060085452  0.060567558            6 
 2257000   0.87839571   -3.9859176    1631.3148  0.060231681  0.060556281            4 
 2258000   0.87254315   -3.9916582    1628.6491  0.060106625   0.06054472            1 
 2259000   0.89121547   -3.9956128    1631.1538  0.060172416  0.060533258            2 
 2260000   0.88067666   -4.0045041    1622.2319  0.059816809  0.060521867            7 
 2261000   0.88949478   -4.0047594    1624.4796  0.059873199   0.06051035            2 
 2262000   0.88623789   -3.9838466    1631.0678  0.060089441   0.06049891            4 
 2263000   0.90186305    -4.003433    1633.4734  0.060151472  0.060487485            3 
 2264000   0.88438189   -3.9983836    1627.8656  0.059918492  0.060475984            3 
 2265000   0.88989019   -4.0064341    1624.6682  0.059774399  0.060464466            8 
 2266000   0.88338919   -3.9966673    1631.6676  0.060005427  0.060452877            3 
 2267000    0.8839843   -3.9960171    1632.3003  0.060002217  0.060441334            2 
 2268000    0.8972829   -4.0009654     1630.751  0.059918836  0.060429885            3 
 2269000    0.8837567   -3.9929364     1624.937  0.059678896  0.060418459            2 
 2270000    0.8985528   -3.9474197    1636.0368  0.060060088  0.060407172            4 
 2271000   0.90577565   -4.0001765    1627.8903   0.05973471     0.060396            4 
 2272000    0.8864428   -3.9985066     1630.074  0.059788514  0.060384565            4 
 2273000   0.87184363     -3.98463    1630.9002  0.059792499  0.060373105            4 
 2274000   0.89904771   -4.0099103    1634.7181  0.059906116  0.060361647            4 
 2275000   0.86494249   -3.9866285    1634.0105  0.059853866  0.060350239            3 
 2276000   0.88660514   -3.9917096    1630.9884  0.059716916  0.060338848            4 
 2277000    0.8825274    -3.985376    1635.7018  0.059863191  0.060327285            4 
 2278000   0.89721222   -4.0131784     1629.513  0.059610515  0.060315777            4 
 2279000   0.88620408   -4.0095068    1634.5345  0.059767972  0.060304317            3 
 2280000   0.88906829   -4.0191361    1640.7763  0.059969896  0.060292928            4 
 2281000   0.87870117   -3.9904837    1637.1842  0.059812371  0.060281754            2 
 2282000   0.89112444   -3.9971458    1642.2753  0.059972075  0.060270484            3 
 2283000   0.88015954   -4.0142908    1638.9744  0.059825318  0.060259115            6 
 2284000   0.87364051   -4.0028773    1645.1826  0.060025634  0.060247962            2 
 2285000   0.87517501    -3.988083    1639.1717  0.059780151  0.060236782            3 
 2286000   0.91453424   -4.0206427    1639.6491  0.059771402   0.06022544            3 
 2287000   0.88160916   -4.0317265    1637.3337  0.059660899  0.060214071            5 
 2288000   0.88856754   -3.9936532    1638.2088  0.059666695  0.060202817            5 
 2289000   0.88831553   -3.9783887    1644.3127  0.059862849  0.060191532            4 
 2290000   0.88952367   -3.9918442    1643.7401   0.05981587  0.060180451            6 
 2291000   0.89355429   -3.9781756     1648.457  0.059961335  0.060169318            2 
 2292000   0.87540894   -3.9976943    1644.8533   0.05980415  0.060158295            8 
 2293000   0.87940292   -3.9862667    1646.1967  0.059826891  0.060147215            4 
 2294000   0.89692502   -4.0073614    1647.6952  0.059855245  0.060136155            5 
 2295000   0.87159259   -3.9992382    1648.5483  0.059860141  0.060124922            3 
 2296000    0.8640909   -3.9930249    1647.6304  0.059800756  0.060113715            2 
 2297000   0.90059961   -4.0146266     1649.649  0.059847955  0.060102468            3 
 2298000   0.87228263   -4.0085934     1642.804  0.059573689  0.060091053            5 
 2299000   0.88186877    -3.980807    1650.1003  0.059812249  0.060079606            3 
 2300000    0.8861869    -4.035648    1645.4667  0.059618357  0.060068279            4 
 2301000   0.88045291   -3.9886078    1649.8056  0.059749587  0.060056897            2 
 2302000   0.87788421   -4.0158661     1647.766  0.059649798  0.060045542            7 
 2303000   0.87960701   -3.9918253    1647.9773  0.059631544  0.060034313            5 
 2304000    0.8737488   -3.9979041    1645.8603  0.059529091    0.0600231            2 
 2305000   0.86075019   -4.0160539    1648.8791  0.059612404  0.060011794            9 
 2306000   0.88267942   -4.0211689    1644.1242  0.059414722  0.060000477            6 
 2307000   0.88467361   -3.9871519    1651.1598   0.05964311    0.0599891            2 
 2308000   0.87129801   -3.9945825    1651.1287  0.059616143  0.059977849            4 
 2309000    0.9023009   -3.9866022    1645.1615  0.059374964  0.059966389            2 
 2310000     0.878462   -3.9686011    1646.0514  0.059381365  0.059954843           12 
 2311000   0.89277066   -4.0022996    1646.1344  0.059358662  0.059943465            4 
 2312000   0.86557952   -4.0356304     1640.827  0.059141687  0.059931934            5 
 2313000   0.90294889     -4.00916    1650.0979  0.059450133  0.059920343            8 
 2314000    0.9064061   -4.0135373     1647.363  0.059325952  0.059908597            2 
 2315000   0.87671637   -4.0144255    1646.4328   0.05926684  0.059896945            2 
 2316000   0.90258666   -4.0140147    1646.6005  0.059247282  0.059885386            8 
 2317000   0.88235867    -4.011658    1648.2715  0.059281813  0.059873671            7 
 2318000   0.88246615   -4.0215796    1644.3759  0.059116188  0.059861938            8 
 2319000   0.89881197   -3.9930145    1654.0855  0.059439612  0.059850473            3 
 2320000   0.90431506   -4.0121009    1654.8887   0.05944284  0.059838912            3 
 2321000   0.87636051   -3.9931014    1650.0168   0.05924231   0.05982744            4 
 2322000   0.88666725   -3.9916986    1650.1164  0.059220371  0.059815997            3 
 2323000   0.88267496   -4.0279601    1651.6493  0.059249866  0.059804617            7 
 2324000   0.88289733   -4.0052577    1653.6349  0.059295572  0.059793296            3 
 2325000   0.89610972   -3.9911199    1661.3546  0.059546762  0.059781936            3 
 2326000   0.90551352   -4.0082502    1652.0363  0.059187312    0.0597706            6 
 2327000   0.87156622   -3.9941371    1653.2977  0.059207051  0.059759218            4 
 2328000   0.88346381   -4.0234519    1656.7665  0.059305788  0.059747815            8 
 2329000   0.89202719   -4.0193961    1653.2349   0.05915396  0.059736403            5 
 2330000   0.87589653   -4.0267693    1651.4853  0.059065998  0.059724945            3 
 2331000   0.90370177   -4.0243554    1651.2934  0.059033797  0.059713462            7 
 2332000   0.88499686   -4.0046186    1657.5347  0.059231513  0.059702056            2 
 2333000   0.88160662   -4.0512737    1652.1203  0.059012727  0.059690586            3 
 2334000    0.8985821    -3.988962    1666.8381  0.059512927  0.059679295            6 
 2335000   0.88111201   -4.0224115    1652.5653  0.058978063  0.059667963            3 
 2336000    0.8827849   -3.9649403    1663.0635  0.059327323  0.059656679            4 
 2337000   0.87407174   -4.0117397    1654.1093  0.058982643   0.05964544            5 
 2338000   0.86190145   -4.0418515    1662.0136   0.05923915  0.059633921            5 
 2339000   0.86471539   -4.0521554    1650.9232  0.058818698  0.059622425            3 
 2340000   0.88919499   -4.0450727    1656.2749  0.058984148   0.05961091            3 
 2341000   0.87870274   -4.0108413    1662.0178  0.059163385  0.059599523           10 
 2342000   0.88130156   -4.0204009    1657.8508  0.058989851  0.059588033            5 
 2343000    0.8686827   -4.0261288    1664.0685  0.059185821  0.059576434            5 
 2344000   0.87231218   -4.0429193    1660.9962  0.059051345  0.059564992            3 
 2345000   0.88157617   -4.0173403    1665.8093  0.059197204  0.059553347            5 
 2346000   0.89250028   -4.0227129    1661.9482  0.059034818  0.059541788            4 
 2347000   0.90074104   -4.0091183    1662.7083  0.059036653  0.059530227            8 
 2348000   0.88146613   -4.0079412    1661.5481  0.058970333  0.059518747            8 
 2349000   0.87778494    -3.990748    1660.2388  0.058898779  0.059507078            3 
 2350000   0.85919919   -4.0329542    1656.8925  0.058755054   0.05949529            6 
 2351000   0.85201823   -4.0163005     1668.372  0.059136962  0.059483476            5 
 2352000   0.87474037   -4.0020716    1664.1003   0.05896047  0.059471899            6 
 2353000   0.87948108   -4.0144829    1655.7131  0.058638374  0.059460308            3 
 2354000   0.87148341   -4.0222995    1656.0445  0.058625196  0.059448763            7 
 2355000   0.89050278   -4.0295472    1667.3186  0.058999243  0.059437026            4 
 2356000   0.86904999   -4.0296901    1663.7049  0.058846382  0.059425495            4 
 2357000     0.870676   -4.0087585    1672.1373  0.059119548  0.059413969            5 
 2358000   0.89189372   -4.0420622    1667.6916  0.058937362  0.059402377            6 
 2359000   0.87635935   -4.0012485    1664.8747   0.05881287   0.05939088            4 
 2360000   0.87811109   -4.0147411    1666.4482   0.05884351  0.059379392            5 
 2361000   0.87368588    -4.001121    1672.5077   0.05903246  0.059367787            3 
 2362000   0.86521306   -3.9971828    1662.5925  0.058657652  0.059356242            4 
 2363000   0.86761165   -4.0224184    1667.1416  0.058793258  0.059344742            4 
 2364000   0.85293995   -4.0276002    1665.2522  0.058701785  0.059333181            6 
 2365000    0.8648083   -4.0445523    1672.6535  0.058937754  0.059321822            3 
 2366000   0.86989283    -4.011949    1674.4193  0.058975038  0.059310629            4 
 2367000   0.88411058   -4.0189896    1676.3293  0.059017368  0.059299334            5 
 2368000   0.88009584   -4.0418209    1669.2349  0.058742782  0.059287781            3 
 2369000   0.89388635   -4.0246198    1666.4147   0.05861878  0.059276289            7 
 2370000   0.85455489   -4.0310645    1671.1751   0.05876143  0.059264687            3 
 2371000   0.87201662   -4.0073739     1672.839  0.058795128  0.059253169            5 
 2372000   0.87957185   -4.0086186    1669.0957  0.058638831  0.059241537            7 
 2373000   0.87273172   -4.0294348    1675.5887  0.058842136  0.059230123            5 
 2374000   0.88559011    -4.027886    1675.6988  0.058821218  0.059218872            2 
 2375000   0.87462854   -4.0162263    1681.3639  0.058995224  0.059207505            2 
 2376000   0.86564207   -4.0255224    1678.5508   0.05887173  0.059196226            5 
 2377000    0.8651164    -4.008632    1672.3962  0.058631195  0.059184754            4 
 2378000    0.8677332   -4.0375587     1676.005  0.058733004  0.059173283            3 
 2379000   0.87212544    -4.022006    1678.3892  0.058791832  0.059162045            3 
 2380000   0.86521515   -4.0111159    1678.2434  0.058762025  0.059150886            2 
 2381000   0.86519276   -4.0021357    1676.3778  0.058672049  0.059139636            2 
 2382000   0.87925002   -4.0385214     1676.404  0.058648336   0.05912826            2 
 2383000   0.88449336   -4.0259217     1677.971  0.058678521  0.059116996            3 
 2384000   0.86040499   -4.0416154    1679.6947  0.058714162  0.059105577            3 
 2385000   0.86009203   -4.0347788    1683.1055  0.058808716  0.059094219            4 
 2386000   0.87219261   -4.0175499     1679.452  0.058656469  0.059082698            9 
 2387000   0.88581075   -4.0405459    1677.9351  0.058578938  0.059071341            3 
 2388000   0.87486334   -4.0189532    1679.1511  0.058596842  0.059059832            3 
 2389000    0.8649998   -4.0420507    1676.9026  0.058493882  0.059048267            3 
 2390000   0.89541314   -4.0095119    1682.4258  0.058661988  0.059036809            4 
 2391000   0.86272038   -4.0234418    1679.1056  0.058521736  0.059025286            4 
 2392000   0.86335933   -4.0280933    1671.6371   0.05823708  0.059013684            3 
 2393000    0.8621808   -4.0374961    1679.2145  0.058476617  0.059002048            3 
 2394000   0.86004147   -4.0108392    1679.7884  0.058472168   0.05899018            5 
 2395000   0.85902911   -3.9869181    1678.1484   0.05839069  0.058978532            7 
 2396000    0.8503593   -4.0412135    1683.1348  0.058539747  0.058966863            3 
 2397000    0.8711726   -4.0293627    1676.7613  0.058293746  0.058955061            4 
 2398000   0.88791263   -3.9872437    1681.9884  0.058451083  0.058943371            2 
 2399000   0.87278288   -4.0287356    1679.4034  0.058336924  0.058931618            3 
 2400000   0.86288695   -4.0290515    1678.5543  0.058283136  0.058919608            8 
 2401000   0.86108825   -4.0194041    1681.2361  0.058351942  0.058907809            9 
 2402000    0.8632904   -4.0265492    1678.3303  0.058226837   0.05889609            3 
 2403000   0.86936459   -4.0533123    1676.6803  0.058145384  0.058884214            2 
 2404000   0.86026713   -4.0568615     1673.291  0.058003708  0.058872203            4 
 2405000   0.85837336   -4.0230512    1677.9173  0.058139892  0.058860172            8 
 2406000    0.8659512   -4.0379392    1678.9409  0.058151181  0.058848295            5 
 2407000   0.85061795   -4.0382735    1682.0641  0.058235152  0.058836465            4 
 2408000   0.85061023   -4.0283925    1680.4164  0.058153944  0.058824676            5 
 2409000   0.85849412   -4.0182806    1685.3851  0.058301684  0.058812843            5 
 2410000   0.86723799   -4.0401516    1685.1712  0.058270097  0.058801002            4 
 2411000   0.85286726   -4.0479119     1681.946  0.058134454   0.05878918            4 
 2412000    0.8615089   -4.0308717    1680.4245  0.058057782  0.058777249            3 
 2413000    0.8682203   -4.0374222    1683.0484  0.058124342    0.0587654            5 
 2414000   0.85203118    -4.027929    1685.4983  0.058184834  0.058753709            4 
 2415000    0.8567758   -4.0371855    1684.1137  0.058112964  0.058741915            2 
 2416000   0.89204456   -4.0178277    1685.7794  0.058146364  0.058730014            2 
 2417000   0.85092671   -4.0344695    1689.6983  0.058257422  0.058718246            5 
 2418000    0.8807601   -4.0445649     1683.997  0.058036841  0.058706438            4 
 2419000   0.85521798   -4.0353772    1686.0506  0.058083594  0.058694548            4 
 2420000    0.8498875   -4.0094437     1686.865  0.058087636  0.058682754            2 
 2421000    0.8775733   -4.0291367    1682.4012  0.057909998  0.058670838            4 
 2422000   0.86780549   -4.0208614    1687.9484  0.058076949  0.058659008            2 
 2423000   0.87388255   -4.0512594    1689.7973  0.058116566  0.058647316            3 
 2424000   0.85975678   -4.0474973    1687.4412  0.058011593   0.05863552            4 
 2425000   0.87595792   -4.0255578    1689.7643  0.058067502  0.058623967            3 
 2426000   0.87321404   -4.0174107    1686.8382  0.057943054  0.058612326            2 
 2427000   0.88019313   -4.0486037    1686.8529  0.057919684  0.058600576            3 
 2428000    0.8698477    -4.055806    1687.8605  0.057930414  0.058588916            5 
 2429000   0.87327708   -4.0253849    1694.6871  0.058140767  0.058577304            3 
 2430000   0.85849455   -4.0375963     1683.354  0.057728188    0.0585656            5 
 2431000   0.86989059   -4.0165595    1693.6182  0.058056295  0.058553857            2 
 2432000   0.83727941   -4.0412152    1694.8747  0.058075477  0.058542267            4 
 2433000   0.85387816   -4.0528546    1693.5952  0.058007782   0.05853057            3 
 2434000   0.88075387   -4.0254395    1699.2893  0.058178899  0.058518919            3 
 2435000   0.85935861   -4.0148098    1695.4613  0.058024001  0.058507384           10 
 2436000   0.85951068   -4.0512295    1688.6855  0.057768386  0.058495689            5 
 2437000   0.86679451   -4.0391285    1696.9306  0.058026626  0.058484168            4 
 2438000   0.87130579   -4.0355863    1696.8086  0.057998652  0.058472399            2 
 2439000   0.86096735   -4.0355781    1700.7852  0.058110743  0.058460603            4 
 2440000   0.86081428   -4.0346286     1702.404  0.058142214  0.058449082            5 
 2441000   0.86267541   -4.0790165     1691.408  0.057743003  0.058437392            5 
 2442000   0.86424646   -4.0330485    1693.7488  0.057799237  0.058425669            5 
 2443000   0.84375977   -4.0220668    1694.7895  0.057811076  0.058413902            3 
 2444000   0.84182663   -4.0233489    1693.4258  0.057740922  0.058402235            6 
 2445000   0.88754556   -4.0508461    1697.9824   0.05787261  0.058390544            4 
 2446000   0.85190311    -4.034789    1699.2504   0.05789215  0.058378935            3 
 2447000   0.85551576   -4.0255738     1695.041  0.057725138  0.058367337            5 
 2448000   0.84843691   -4.0492191     1697.077  0.057770869  0.058355702            7 
 2449000   0.86871223   -4.0686516    1693.3213  0.057619481  0.058344065            2 
 2450000   0.86031243   -4.0303852    1695.1389  0.057657786  0.058332444            2 
 2451000   0.87101412   -4.0175117    1700.4719  0.057815583  0.058320702            5 
 2452000   0.85209385   -4.0618781    1702.7634  0.057869882  0.058309141            3 
 2453000   0.85302386   -4.0246544    1705.0063  0.057922486  0.058297498            4 
 2454000   0.86917531   -4.0568746    1698.4492  0.057676214  0.058285838            3 
 2455000   0.84361317   -4.0401063    1699.2828   0.05768102  0.058274044            3 
 2456000   0.84837145   -4.0478976    1703.8908  0.057813886  0.058262406            7 
 2457000   0.86950335   -4.0412956     1706.975   0.05789496   0.05825087            2 
 2458000   0.87442758   -4.0339946    1709.7066  0.057964017  0.058239433            5 
 2459000   0.87384997   -4.0245524    1708.6641  0.057905114  0.058228057            2 
 2460000   0.86706055    -4.062671    1704.5568  0.057742439  0.058216573            4 
 2461000    0.8540765   -4.0336464    1704.4923  0.057716794  0.058205146            3 
 2462000   0.87043283   -4.0841103    1705.6957  0.057734083  0.058193662            2 
 2463000   0.86343321   -4.0706997    1707.6729  0.057777537   0.05818217            6 
 2464000   0.85010155   -4.0497373    1708.2838   0.05777475  0.058170701            7 
 2465000   0.85531701   -4.0481954    1711.4455  0.057858199  0.058159316            5 
 2466000   0.85426969   -4.0261765    1711.2463  0.057828004  0.058147889            4 
 2467000    0.8645519   -4.0590109    1704.1191  0.057563813  0.058136743            3 
 2468000   0.86237804   -4.0485404    1708.6201  0.057692466  0.058125366            3 
 2469000    0.8590837   -4.0274506     1710.838   0.05774396   0.05811399            5 
 2470000   0.84266162   -4.0661149    1706.3011  0.057567512  0.058102613            7 
 2471000     0.854493   -4.0424351    1711.3101  0.057713141  0.058091171            4 
 2472000   0.87713158   -4.0218319     1710.825  0.057673444  0.058079757            3 
 2473000   0.85511659   -4.0439584    1713.5382  0.057741548  0.058068471            4 
 2474000   0.86949273   -4.0627598    1706.1116  0.057468054  0.058057086            4 
 2475000   0.86723681   -4.0714572    1708.2844  0.057517992  0.058045744            4 
 2476000   0.87587938   -4.0258074    1706.6886  0.057441055   0.05803426            5 
 2477000   0.83786728   -4.0586348    1709.1096  0.057499314  0.058022805            2 
 2478000   0.87617729   -4.0351899    1714.4356  0.057655221  0.058011466            3 
 2479000   0.86079133   -4.0488446    1713.9433  0.057615412  0.058000147            3 
 2480000   0.86596361   -4.0385421    1708.3447  0.057404055  0.057988663            3 
 2481000   0.86203873   -4.0328637     1709.413  0.057416801  0.057977142            5 
 2482000   0.84185282   -4.0298884    1710.4207    0.0574275  0.057965646            3 
 2483000   0.85106959   -4.0417026    1712.0517   0.05745911  0.057954206            5 
 2484000    0.8511507   -4.0614264    1709.0666  0.057335835  0.057942676            3 
 2485000   0.86049868    -4.065207    1713.5976  0.057464709  0.057931006            4 
 2486000   0.85785834   -4.0490854    1712.5921  0.057407887  0.057919471            4 
 2487000   0.83996846   -4.0708261    1715.1671  0.057471087  0.057908089            7 
 2488000   0.87639299   -4.0093228    1723.4557  0.057725607  0.057896678            4 
 2489000   0.85453432   -4.0412436    1712.8613  0.057347707  0.057885554            2 
 2490000   0.84317722   -4.0308221    1716.9245   0.05746066  0.057874024            6 
 2491000     0.847709   -4.0440205    1720.8341  0.057568382   0.05786273            3 
 2492000   0.84276267   -4.0667786    1714.8834  0.057346287   0.05785122            3 
 2493000   0.86452676   -4.0596955    1711.5048  0.057210349  0.057839762            5 
 2494000   0.84269198   -4.0386524    1721.5239  0.057522183  0.057828194            2 
 2495000   0.86110773   -4.0485714    1718.2287  0.057389068   0.05781663            4 
 2496000   0.87594343   -4.0656894    1714.7252  0.057249106  0.057805142            3 
 2497000   0.83947334   -4.0636948    1716.6781  0.057291354  0.057793652            2 
 2498000    0.8543319   -4.0473348    1720.6616  0.057401308  0.057782235            7 
 2499000   0.84212644   -4.0545635    1721.0767  0.057392181  0.057770787           13 
 2500000   0.84993228   -4.0568291    1722.2822  0.057409408  0.057759504            2 
 2501000    0.8583422   -4.0649096    1714.8407    0.0571385  0.057748066            4 
 2502000   0.85437961   -4.0356256    1720.0454  0.057289015  0.057736778            5 
 2503000   0.84328941   -4.0308262    1726.5506  0.057482709   0.05772541            1 
 2504000   0.84563944   -4.0490752    1719.7611  0.057233797  0.057714195            6 
 2505000   0.85257708   -4.0420853    1720.6556  0.057240704  0.057702973            3 
 2506000   0.85847724   -4.0391086    1720.7269  0.057220236  0.057691602            4 
 2507000   0.83639563   -4.0569693    1720.4238  0.057187337  0.057680399           10 
 2508000   0.85369914   -4.0906228    1722.7425  0.057241576   0.05766887            3 
 2509000   0.85723756     -4.06197    1719.0662  0.057096659  0.057657389            6 
 2510000   0.86000055   -4.0523535    1725.4512  0.057285897   0.05764604            5 
 2511000   0.84084501   -4.0655663    1723.3171  0.057192257  0.057634682            4 
 2512000    0.8568555    -4.063692    1724.7356  0.057216547  0.057623463            3 
 2513000   0.83814192   -4.0373715    1728.7829   0.05732799  0.057612194            3 
 2514000   0.85005173   -4.0587478    1728.0175  0.057279818  0.057600831            4 
 2515000   0.84039727   -4.0479228    1727.3215  0.057233979  0.057589593            4 
 2516000   0.85335431   -4.0474786    1724.9344  0.057132167  0.057578264            7 
 2517000   0.86774686   -4.0628352    1723.0949  0.057048566  0.057566796            5 
 2518000    0.8411901   -4.0726075    1729.2397  0.057229274  0.057555303            5 
 2519000   0.84281602    -4.069534    1728.1463  0.057170382  0.057544009            3 
 2520000   0.84962566   -4.0569723     1728.195  0.057149306  0.057532784            3 
 2521000   0.83901948   -4.0542488    1731.5153   0.05723639  0.057521575            2 
 2522000   0.84617353   -4.0592719    1726.0396  0.057032764  0.057510247            4 
 2523000   0.86217984   -4.0605574    1727.0973  0.057045096  0.057498855            3 
 2524000    0.8513999   -4.0637381    1729.0095  0.057085628  0.057487614            3 
 2525000   0.86517979   -4.0430118    1724.8764  0.056926613  0.057476229            4 
 2526000   0.86289091   -4.0554077    1730.7424    0.0570976   0.05746499            2 
 2527000   0.84449342   -4.0830997    1728.9225  0.057014989  0.057453899            4 
 2528000   0.86062251   -4.0832244    1724.2848  0.056839557  0.057442559            3 
 2529000   0.83973585   -4.0682807    1729.2662  0.056981225  0.057431393            4 
 2530000   0.85190175   -4.0736055    1733.2755  0.057090761  0.057420219            3 
 2531000   0.84476691   -4.0540646    1731.8171  0.057020187  0.057408804            8 
 2532000    0.8349844   -4.0511169    1735.8415  0.057130117  0.057397616            5 
 2533000   0.84905479    -4.053967     1737.319  0.057156171  0.057386656            5 
 2534000   0.86030766    -4.074621    1734.5792  0.057043514  0.057375384            4 
 2535000   0.85204622   -4.0602938    1736.9147  0.057097787  0.057364166            3 
 2536000   0.84470488   -4.0698925    1734.8514  0.057007471  0.057353077            5 
 2537000   0.85140744   -4.0778586    1733.9993  0.056957014  0.057341788            2 
 2538000   0.84290421   -4.0692966    1737.3015  0.057042997  0.057330375            5 
 2539000   0.85186318    -4.072657     1731.891  0.056842951  0.057319139            2 
 2540000   0.85352794   -4.0532606    1735.4927  0.056938738  0.057307961            2 
 2541000   0.85361038   -4.0621277    1731.5742  0.056787818   0.05729659            2 
 2542000   0.86163406   -4.0777355    1732.1057  0.056782905  0.057285254            7 
 2543000   0.82847723   -4.0375238    1734.2449  0.056830675  0.057274019            4 
 2544000   0.85553134   -4.0864628     1736.787  0.056891608  0.057262807            4 
 2545000   0.85860713   -4.0426369    1739.2243  0.056949061  0.057251416            2 
 2546000   0.85728727   -4.0648467    1734.6734  0.056777737  0.057239965            6 
 2547000   0.80939165   -4.0614184    1735.5322  0.056783541  0.057228473            5 
 2548000    0.8296947   -4.0453462    1736.7435  0.056800873   0.05721713            6 
 2549000   0.83149807   -4.0604929    1739.0896   0.05685529  0.057205755           12 
 2550000   0.84499606   -4.0576611     1737.297  0.056774411  0.057194439            3 
 2551000    0.8381927   -4.0667711    1737.9581  0.056773752  0.057183071            3 
 2552000   0.83336774   -4.0439753    1737.4058   0.05673347  0.057171645            5 
 2553000   0.84279232   -4.0669588    1734.2583  0.056608509  0.057160285            5 
 2554000   0.83380148   -4.0699016    1739.8357  0.056768327  0.057149046            4 
 2555000    0.8430832   -4.0725929     1747.201  0.056986332  0.057137767            5 
 2556000   0.83223372   -4.0747851    1739.9835  0.056728726  0.057126507            4 
 2557000   0.84493667   -4.0650759    1742.0576  0.056774136  0.057115276            3 
 2558000   0.84012841   -4.0599274    1744.1763  0.056820964  0.057104062            4 
 2559000    0.8711239   -4.0912834    1741.7506  0.056719766  0.057092739            2 
 2560000   0.85088042   -4.0861917    1735.3395  0.056488916  0.057081327           10 
 2561000   0.83516572   -4.0792322    1741.3407  0.056662134  0.057069942            7 
 2562000   0.84680072   -4.0719911    1744.6133  0.056746465  0.057058476            4 
 2563000   0.84609066   -4.1057912    1744.1743   0.05671005  0.057047139            2 
 2564000   0.84156458   -4.1011832     1739.517  0.056536564  0.057035974            5 
 2565000   0.83965675   -4.0763627     1736.522  0.056417219  0.057024525            6 
 2566000   0.85286598   -4.0767855    1746.7049  0.056725932  0.057013274            6 
 2567000   0.83660786   -4.0416491    1750.8149  0.056837257  0.057002051            3 
 2568000   0.83631326   -4.0606657    1744.6106  0.056613792  0.056990861            6 
 2569000   0.85327668   -4.0732573    1742.3594  0.056518729    0.0569796            3 
 2570000   0.86016603   -4.1010302    1747.4805  0.056662793  0.056968418            3 
 2571000   0.84485177   -4.0762759    1741.2213  0.056437875  0.056957162            2 
 2572000   0.84822652   -4.0797827     1749.657   0.05668925  0.056946028            4 
 2573000    0.8461708   -4.0955651    1745.4564  0.056531169  0.056934774            7 
 2574000   0.81509996   -4.0966532    1741.5474  0.056382655  0.056923514            4 
 2575000   0.83799866   -4.0860695    1742.9665  0.056406681  0.056912359            4 
 2576000   0.84033861   -4.0738925    1748.8864  0.056576293  0.056901105            4 
 2577000   0.83160678   -4.1020944    1742.1573  0.056336739  0.056889909            4 
 2578000   0.81679517   -4.0730001    1747.6662  0.056492958  0.056878834            4 
 2579000   0.83206056    -4.054212    1748.9839  0.056513633  0.056867751            6 
 2580000   0.84402989   -4.0750883    1748.8483  0.056487348  0.056856782            4 
 2581000   0.82462448   -4.0548168    1753.2898  0.056608866  0.056845589            2 
 2582000   0.85607003   -4.0421847    1756.3286  0.056685019  0.056834547            6 
 2583000   0.82587978   -4.1011139    1745.6683  0.056319147  0.056823557            2 
 2584000   0.81906059    -4.097694     1750.446  0.056451431  0.056812351            5 
 2585000   0.84211406   -4.0742354    1754.2261  0.056551454  0.056801271            5 
 2586000   0.86163072   -4.0757724    1761.5385  0.056765227  0.056790193            5 
 2587000   0.82007631   -4.0534186    1756.7907  0.056590345   0.05677912            3 
 2588000   0.84200568   -4.0683227    1753.2375  0.056454068  0.056768073            2 
 2589000   0.82472546   -4.0778913      1757.71  0.056576219  0.056757099            6 
 2590000   0.81550838   -4.0845925    1759.6029  0.056615279  0.056746218            2 
 2591000   0.84251261   -4.0822083      1754.55  0.056430914  0.056735221            3 
 2592000   0.83747295   -4.0843588    1759.3839  0.056564556  0.056724206            5 
 2593000   0.86690731   -4.0521091    1758.5453  0.056515789  0.056713316            5 
 2594000   0.84523778   -4.0599847    1761.5881  0.056591754  0.056702394            5 
 2595000   0.84604778    -4.081289    1759.3467  0.056497968  0.056691517            2 
 2596000   0.83376621   -4.1034502    1753.3623  0.056284101  0.056680501            6 
 2597000   0.84288868   -4.0626906    1754.4881  0.056298553   0.05666955            2 
 2598000   0.85266802   -4.0419778    1761.1396  0.056490237  0.056658556            5 
 2599000   0.83013507   -4.0797385    1759.7386   0.05642358  0.056647623            3 
 2600000   0.83315003   -4.0789509    1760.7222  0.056433403  0.056636681            3 
 2601000   0.82973786   -4.0650826    1755.4677  0.056243357  0.056625832            2 
 2602000   0.82870748   -4.0869539    1767.1503  0.056595898  0.056614959            2 
 2603000   0.84991735   -4.0865995    1759.4841  0.056328726  0.056604276            3 
 2604000   0.83556927   -4.1109205    1761.5521  0.056373275  0.056593511            4 
 2605000   0.81572084   -4.0910668    1759.9038  0.056298907  0.056582677            2 
 2606000   0.82701333   -4.0789849    1766.5531   0.05648993  0.056572022            6 
 2607000   0.82862636   -4.0837753    1765.9345  0.056448487  0.056561318            3 
 2608000   0.82517701   -4.0918489    1763.4168  0.056346397  0.056550638            3 
 2609000   0.83133107   -4.0816639    1766.6156  0.056426971  0.056539892            3 
 2610000   0.84751908   -4.0812298    1757.3314  0.056108921   0.05652908            4 
 2611000    0.8429179   -4.1087647    1760.5676   0.05619072  0.056518358            4 
 2612000   0.83669571   -4.0758899    1763.7974   0.05627225  0.056507615            6 
 2613000   0.84421151   -4.0920326    1765.5221  0.056305718   0.05649675            5 
 2614000   0.83480543   -4.0982995    1761.0838  0.056142687    0.0564859            6 
 2615000   0.85412193   -4.1056539    1772.3977  0.056481763  0.056475027            4 
 2616000   0.84871044   -4.0806439    1771.5051  0.056431738  0.056464351            6 
 2617000   0.83068036   -4.1144331    1770.6409  0.056382656  0.056453717            4 
 2618000   0.82276825   -4.0889456    1773.8838  0.056464344  0.056443134            3 
 2619000    0.8345982    -4.099231    1766.7775   0.05621667  0.056432476            8 
 2620000   0.82505137   -4.0774683    1766.5923  0.056189323  0.056421598            3 
 2621000   0.82063244   -4.0952237    1774.4222  0.056416832  0.056411002            4 
 2622000   0.83262738   -4.0850169    1773.4214  0.056363506  0.056400366            3 
 2623000   0.82675357   -4.0946307    1774.1219  0.056364274  0.056389699            5 
 2624000   0.82174033   -4.0873319    1771.4188  0.056256948  0.056378953            8 
 2625000    0.8406094   -4.1072458     1769.987  0.056190063  0.056368262            3 
 2626000   0.84932862   -4.0878288    1769.1157  0.056141016  0.056357523            5 
 2627000    0.8182185   -4.0801301    1772.7952  0.056236365  0.056346886            6 
 2628000   0.81953892   -4.0996412    1774.0214   0.05625385  0.056336269            6 
 2629000   0.83528742   -4.0735344    1776.8309  0.056321508  0.056325587           10 
 2630000   0.81474679   -4.0790671    1774.8323  0.056236764  0.056314799            4 
 2631000   0.82119883   -4.1033719    1775.1663  0.056225968  0.056304057            3 
 2632000   0.85194684   -4.1063426    1772.9422  0.056134189  0.056293275            6 
 2633000   0.81773985   -4.1089197    1775.7598  0.056202046   0.05628247            5 
 2634000   0.81155578   -4.1069069    1774.7037  0.056147296  0.056271649            5 
 2635000   0.81687535   -4.0957911    1774.6479  0.056124222  0.056261008            6 
 2636000   0.81758711   -4.0732027     1776.246  0.056153452  0.056250367            2 
 2637000    0.8205871   -4.1109761    1779.1514  0.056223972  0.056239795            5 
 2638000   0.83245268   -4.0889376    1782.3227  0.056302839   0.05622924            5 
 2639000   0.84794538   -4.0924245     1777.636   0.05613351  0.056218515           18 
 2640000   0.83206739   -4.0989767    1775.5028  0.056044911   0.05620794            3 
 2641000   0.83331737   -4.1183163    1777.4281   0.05608444  0.056197346            3 
 2642000   0.81301188   -4.0794493    1780.1404  0.056148763  0.056186717            5 
 2643000   0.83484314   -4.1038035    1776.4198  0.056010208  0.056176092            3 
 2644000   0.83066606   -4.1139721    1782.0817  0.056167477  0.056165385            4 
 2645000   0.84886731   -4.1058197    1782.7113  0.056166078  0.056154701            7 
 2646000   0.79699683    -4.075152    1779.2544  0.056035978  0.056144118            3 
 2647000   0.81886133    -4.087846    1783.4996  0.056148459  0.056133465            3 
 2648000   0.82158813   -4.0888789    1785.5355  0.056191323  0.056122967           10 
 2649000   0.83876862   -4.0881952    1784.2237  0.056128843  0.056112391            4 
 2650000   0.83547904   -4.1120385    1783.6987  0.056091153  0.056101857            4 
 2651000   0.80801022    -4.084248    1785.6749  0.056132117  0.056091189            3 
 2652000   0.82545833   -4.1222834    1782.3945  0.056007872  0.056080564            5 
 2653000   0.82623349    -4.083269    1783.2703   0.05601427  0.056069922            4 
 2654000   0.82852944    -4.123554    1778.2128  0.055834363  0.056059322            3 
 2655000   0.83330023   -4.0702516    1784.8725  0.056022362  0.056048612           10 
 2656000   0.82877495   -4.0929702    1782.1102  0.055914603  0.056038092            4 
 2657000   0.82153376   -4.1119773    1786.7719  0.056039765  0.056027552            2 
 2658000   0.82490538   -4.0876541     1788.653  0.056077658  0.056016995            5 
 2659000   0.83418916   -4.1059441    1786.0152  0.055973899  0.056006482            3 
 2660000   0.81366403   -4.1044699    1785.3521  0.055932083  0.055995871            5 
 2661000   0.82537939   -4.1019373    1784.2748  0.055877327  0.055985211            2 
 2662000   0.84249316   -4.0856987    1781.0406   0.05575509  0.055974586            4 
 2663000   0.81635185   -4.1407625    1780.9255   0.05573055  0.055963982            3 
 2664000    0.8033505   -4.1003071    1781.7811  0.055736395  0.055953291            8 
 2665000   0.81729623   -4.0996973    1794.1296  0.056101614  0.055942852            4 
 2666000   0.81308557    -4.089778    1788.8682  0.055916111   0.05593235            9 
 2667000   0.81092145   -4.0884984    1792.1274  0.055996982  0.055921856            4 
 2668000   0.81490812   -4.0881425    1797.8104  0.056153498  0.055911427            3 
 2669000    0.8104863    -4.068134    1796.1145  0.056079509   0.05590102            7 
 2670000   0.82574359   -4.0980239    1790.3194  0.055877633  0.055890541           10 
 2671000   0.81838502   -4.0971808    1795.1448  0.056007264  0.055880083            5 
 2672000   0.82173879   -4.1147753    1788.8437  0.055789786  0.055869481            3 
 2673000   0.84298159   -4.0714578    1786.5946  0.055698798  0.055858813            5 
 2674000   0.83837062   -4.1101371    1791.9915  0.055846157  0.055848148            5 
 2675000   0.83253676   -4.0946106    1792.5001  0.055841125  0.055837556            5 
 2676000   0.81905555   -4.1087321    1796.5978  0.055947865  0.055827056            4 
 2677000   0.83731284   -4.1062207    1792.2189   0.05579065  0.055816555            2 
 2678000   0.83977609   -4.1108265    1797.6875  0.055939988  0.055806022            4 
 2679000   0.83619551   -4.1135429    1796.9566  0.055896375  0.055795574            6 
 2680000   0.81708058   -4.1065084    1796.3208  0.055855747  0.055785053            4 
 2681000   0.81132356   -4.1033238    1797.1873  0.055861846  0.055774489            6 
 2682000   0.81809041   -4.0760255    1803.9859   0.05605226  0.055764127            7 
 2683000   0.81733537   -4.1044237    1792.8088   0.05568421  0.055753787            6 
 2684000   0.81585386   -4.1157202    1794.0614  0.055702352  0.055743522            5 
 2685000   0.82579619   -4.1033514    1798.3958  0.055816134  0.055733273            3 
 2686000    0.8148472   -4.1095418    1802.7877  0.055931611  0.055723065            5 
 2687000   0.80260822   -4.0825214    1797.0608  0.055733183  0.055712764            8 
 2688000   0.81768411   -4.0875731    1801.0009  0.055834603   0.05570253            6 
 2689000   0.82734489   -4.0969681    1802.7127  0.055866885  0.055692389            4 
 2690000   0.80281946   -4.0968243    1801.0591  0.055794892  0.055682156            3 
 2691000   0.81433958   -4.1233721    1799.5607  0.055727757  0.055671751            4 
 2692000    0.8228139   -4.1166006    1799.9734   0.05571983  0.055661298            4 
 2693000    0.8249741   -4.1103395     1803.941  0.055821915  0.055650916            6 
 2694000   0.82460326   -4.1162662    1795.3076  0.055534138  0.055640566            9 
 2695000   0.82144796   -4.0925339    1800.4684   0.05567311   0.05563028            4 
 2696000   0.81083675   -4.1106215    1798.6812  0.055597219  0.055619911            3 
 2697000   0.82557807    -4.082046    1805.7552  0.055795179  0.055609562            8 
 2698000     0.835567   -4.1071048    1808.1012   0.05584696  0.055599267            7 
 2699000   0.82089375   -4.1043754    1797.9102  0.055511615  0.055589001           17 
 2700000   0.82305734   -4.1126021    1800.0086  0.055555822  0.055578662            6 
 2701000   0.79497814    -4.104961    1799.7167  0.055526247  0.055568319            4 
 2702000   0.83813242   -4.1091044    1800.4672  0.055528844  0.055558004            3 
 2703000    0.8209372   -4.1336895    1807.3287  0.055719838  0.055547613            3 
 2704000   0.81006194   -4.1192707    1796.6428  0.055369909  0.055537228            6 
 2705000   0.80429323   -4.1128942    1804.5013  0.055591538  0.055526996            3 
 2706000   0.81372964    -4.121616    1800.7103  0.055454247  0.055516517            5 
 2707000   0.81688061   -4.1130329    1804.3077  0.055544504  0.055506033            7 
 2708000   0.83786472   -4.1334328    1806.6107  0.055594865  0.055495633            5 
 2709000   0.82224278   -4.1040175     1799.975  0.055370217  0.055485179            5 
 2710000   0.81156183   -4.1118482    1802.4169  0.055424873  0.055474824            5 
 2711000   0.80980633   -4.0975682    1808.3587  0.055587076  0.055464384            4 
 2712000   0.83545062   -4.0817913    1806.8852    0.0555213  0.055454017            4 
 2713000   0.81181068   -4.0910619    1808.5569  0.055552185  0.055443766            6 
 2714000   0.82367989   -4.1148792    1806.2921  0.055462175  0.055433399            5 
 2715000   0.81701518   -4.1214307    1806.7181  0.055454823  0.055423008            6 
 2716000   0.81259833   -4.1531757    1804.5557  0.055368055  0.055412635            3 
 2717000   0.81114579   -4.1108524    1811.4152  0.055558065  0.055402314            3 
 2718000   0.81169536   -4.1114921    1804.5295   0.05532651  0.055391764            3 
 2719000   0.81375626   -4.1124243    1807.1919  0.055387761  0.055381448            5 
 2720000   0.80618757    -4.124567    1803.8685  0.055265578  0.055370992            5 
 2721000   0.82843911   -4.1191671    1807.6319  0.055360526  0.055360403            2 
 2722000   0.82980581   -4.1137521    1804.4948  0.055244145  0.055350004            6 
 2723000   0.81983194   -4.1208646    1807.5788   0.05531824  0.055339692            6 
 2724000   0.80776143   -4.0930335    1808.8348  0.055336354  0.055329388            2 
 2725000   0.82959611   -4.1338796    1808.7461  0.055313336  0.055319069            7 
 2726000   0.81578374   -4.1046694    1809.8264  0.055326069  0.055308822            4 
 2727000    0.8088438    -4.117921    1811.5813   0.05535941  0.055298584            4 
 2728000   0.82496075   -4.1092016    1814.7758  0.055436699  0.055288322            4 
 2729000   0.83362036   -4.1075583    1812.7969  0.055355957  0.055278141            3 
 2730000   0.82872391    -4.138532    1815.3237  0.055412811  0.055267818            4 
 2731000   0.83604765   -4.1333112    1812.9136   0.05531898  0.055257589            8 
 2732000   0.82449932    -4.107464    1816.5848  0.055410713  0.055247316            2 
 2733000   0.80265302   -4.1105335    1820.0717  0.055496757  0.055237106            3 
 2734000   0.82673581    -4.123593    1813.0037  0.055261025  0.055226755            4 
 2735000   0.81707576   -4.1085583    1812.2372  0.055217466  0.055216522            9 
 2736000   0.81830749   -4.1156619     1817.013  0.055342746  0.055206177            5 
 2737000   0.82451814   -4.1320538    1813.8984  0.055227693  0.055195856            6 
 2738000   0.80993125   -4.1034419    1815.1356  0.055245179   0.05518548            3 
 2739000   0.80554997   -4.1368769     1814.754    0.0552134  0.055175017            3 
 2740000   0.81847429   -4.1315459     1814.435  0.055183547  0.055164554            3 
 2741000   0.80801127   -4.1446586       1809.3  0.055007295  0.055153937            5 
 2742000   0.81656927    -4.142719    1812.9894  0.055099362  0.055143318            4 
 2743000   0.80115835    -4.132486    1812.8013  0.055073559  0.055132865            3 
 2744000   0.79430763   -4.1086926    1814.5439  0.055106412  0.055122397            5 
 2745000    0.8041443   -4.1226903    1816.2139  0.055137035  0.055111898            6 
 2746000   0.81486306   -4.1451007    1816.9429  0.055139078  0.055101361            5 
 2747000    0.7901481   -4.1317615    1811.1718  0.054943934  0.055090768            3 
 2748000   0.80025209   -4.1429147    1815.0404  0.055041254  0.055080253            4 
 2749000   0.81996237   -4.1299613    1815.9526  0.055048883   0.05506981            8 
 2750000   0.82424475   -4.1263422    1812.2155  0.054915621    0.0550593            2 
 2751000   0.79312905   -4.1367292    1817.3399  0.055050888   0.05504871            6 
 2752000   0.81550125   -4.1539383    1816.8356  0.055015614  0.055038257            4 
 2753000   0.80297016   -4.1110864    1820.6279  0.055110421     0.055028            3 
 2754000   0.80231893   -4.1276837    1815.3932  0.054932015  0.055017637            3 
 2755000   0.82494917   -4.1490654     1813.186  0.054845311  0.055007115            5 
 2756000   0.81701098   -4.1364834    1821.5825  0.055079296  0.054996519            3 
 2757000   0.81459324    -4.115304    1816.8872  0.054917398  0.054986015            4 
 2758000   0.82558102   -4.1290232    1814.5934  0.054828179  0.054975514            3 
 2759000   0.83132489   -4.1357261    1814.9302   0.05481848  0.054965042            7 
 2760000   0.79791709   -4.1249266    1824.3584  0.055083284    0.0549546            4 
 2761000   0.82006441   -4.1365982    1821.6164  0.054980576  0.054944105            9 
 2762000   0.82842872    -4.123235    1820.7111  0.054933353  0.054933629            4 
 2763000   0.81371235   -4.1250457    1817.0861  0.054804141   0.05492316            4 
 2764000   0.81449977   -4.0912792    1826.1301  0.055056986   0.05491279            5 
 2765000   0.80812722   -4.1333079    1827.6238  0.055082091  0.054902471            6 
 2766000    0.8030227   -4.1295173    1819.7079   0.05482369  0.054892065            6 
 2767000   0.81576205   -4.1241488     1824.948  0.054961692  0.054881602            6 
 2768000   0.78893777   -4.1276244    1821.1867  0.054828597  0.054871152            4 
 2769000   0.81815625   -4.1422637     1821.102  0.054806247  0.054860664            5 
 2770000   0.82554579   -4.1493192    1823.4149  0.054856044  0.054850116           11 
 2771000   0.80316924    -4.148632    1825.3045  0.054893073  0.054839531            2 
 2772000    0.8161485    -4.132811    1823.9989  0.054834023  0.054829063            3 
 2773000   0.80438703   -4.1264319    1824.5693  0.054831389  0.054818687            5 
 2774000    0.8033323   -4.1283703    1830.4985   0.05498974  0.054808365            6 
 2775000   0.78438477   -4.1420405     1823.322  0.054754413  0.054797876            6 
 2776000   0.81120742   -4.1600451    1828.5716   0.05489228  0.054787496            4 
 2777000   0.82540632   -4.1156257    1827.1061  0.054828536  0.054777108            3 
 2778000   0.81086549   -4.1359489    1825.9992  0.054775595  0.054766744            6 
 2779000   0.80927977   -4.1093099    1825.9322  0.054753874  0.054756416            5 
 2780000   0.80846854    -4.152322     1829.404  0.054838251  0.054745932            4 
 2781000   0.80316249   -4.1505209    1826.8254  0.054741263  0.054735415           13 
 2782000   0.81939328   -4.1474975     1826.341  0.054707075  0.054724847            7 
 2783000    0.7972538   -4.1199657    1828.5476  0.054753492  0.054714448            4 
 2784000   0.79902244   -4.1253659    1828.9694   0.05474645  0.054704045            6 
 2785000   0.78743336   -4.1484149    1830.2716  0.054765756  0.054693691            6 
 2786000   0.79510305   -4.1430699    1826.7538  0.054640878  0.054683329            5 
 2787000   0.79956393   -4.1383937    1827.0008  0.054628657  0.054672803            4 
 2788000   0.81010527   -4.1419316    1828.3188  0.054648457  0.054662421            3 
 2789000   0.80970351     -4.11218    1828.8779   0.05464557  0.054651948            3 
 2790000   0.79392808   -4.1531106    1823.5941  0.054468163  0.054641397            6 
 2791000    0.8055816   -4.1134005    1835.9973   0.05481898  0.054630986            5 
 2792000   0.80985208   -4.1671365    1824.6636  0.054461069  0.054620589            5 
 2793000   0.81297945   -4.1225321    1835.9069   0.05477703  0.054610046            4 
 2794000   0.78875341   -4.1236392    1836.4362  0.054773211  0.054599617            3 
 2795000   0.79487282    -4.154208    1827.5162  0.054487663  0.054589168            4 
 2796000   0.80494123   -4.1427629    1830.4041  0.054554246  0.054578734            3 
 2797000   0.80916944   -4.1340909    1830.8559  0.054548204  0.054568182            8 
 2798000   0.78349288   -4.1264361    1832.0143  0.054563208  0.054557852            5 
 2799000    0.7972384   -4.1535349    1826.6096  0.054382802  0.054547439            9 
 2800000   0.79180934   -4.1392042    1827.4299  0.054387794  0.054536987            4 
 2801000   0.80556413   -4.1482407    1835.3536  0.054604119  0.054526518            4 
 2802000   0.81523699   -4.1541268    1827.6886  0.054356667  0.054515998            3 
 2803000   0.80285738   -4.1382645    1832.5991  0.054483264  0.054505369            5 
 2804000   0.79071266   -4.1394686    1828.0993  0.054330102  0.054494794            5 
 2805000   0.79466502   -4.1451239    1827.3783  0.054289313  0.054484277            2 
 2806000    0.7949992   -4.1110668      1835.08  0.054498693   0.05447378            2 
 2807000   0.82189197   -4.1342307    1835.9061  0.054503804   0.05446326            5 
 2808000   0.78601495   -4.1595954    1826.9922  0.054219854  0.054452691            4 
 2809000   0.81738366   -4.1252508    1835.0483  0.054439549  0.054442015            8 
 2810000   0.80245792   -4.1414941    1832.9377  0.054357582  0.054431421            3 
 2811000   0.79618425   -4.1370437    1830.6744   0.05427115  0.054420829            4 
 2812000   0.80935702   -4.1606506    1839.2727  0.054506658  0.054410279            5 
 2813000   0.80767352   -4.1435899    1838.9656  0.054478185  0.054399571            3 
 2814000   0.79281827   -4.1418933    1837.9795  0.054429621  0.054389022            5 
 2815000   0.80170437   -4.1617486    1830.2439  0.054181287   0.05437841            5 
 2816000   0.80839351   -4.1509485    1840.4571  0.054464284  0.054367894            6 
 2817000   0.81077098   -4.1641502    1836.6399  0.054332029  0.054357272           15 
 2818000   0.80114695   -4.1380298    1839.1788  0.054387829  0.054346698            3 
 2819000   0.80363447   -4.1547932    1836.4959  0.054289224  0.054336134            4 
 2820000   0.79999659   -4.1656667    1834.8996  0.054222802   0.05432552            3 
 2821000   0.80442251   -4.1677815    1836.1197  0.054239623  0.054314929            6 
 2822000    0.7988569   -4.1493255    1837.6506  0.054265611  0.054304526            4 
 2823000   0.79550702   -4.1599763    1839.1535  0.054290753  0.054293984            3 
 2824000   0.80896125   -4.1407666    1841.6573   0.05434541  0.054283502            7 
 2825000   0.78172998   -4.1659548    1840.6965  0.054297833  0.054272906            5 
 2826000    0.7939163   -4.1374244    1842.0876  0.054319638  0.054262276            5 
 2827000   0.79764093   -4.1384261    1847.4201  0.054457614  0.054251839            5 
 2828000   0.79488853   -4.1483752    1837.7037  0.054152043  0.054241337            4 
 2829000   0.78607465   -4.1444773    1836.8435  0.054107562  0.054230852            4 
 2830000   0.80447642   -4.1375402    1842.0358  0.054241338  0.054220292            3 
 2831000   0.78980166   -4.1458465    1841.7715  0.054214396  0.054209747            5 
 2832000   0.79570804   -4.1486623    1842.5843   0.05421917  0.054199213            4 
 2833000   0.76941577   -4.1686728    1843.7225  0.054233512  0.054188756            3 
 2834000   0.79256012   -4.1669892    1843.7405  0.054214906   0.05417826            4 
 2835000    0.8039942   -4.1463659    1850.6937  0.054400168  0.054167942            3 
 2836000   0.79448121   -4.1650057    1841.3765  0.054107208  0.054157507           24 
 2837000   0.79680185   -4.1540556    1847.2198  0.054259775  0.054147043            4 
 2838000   0.80785508   -4.1543498    1842.2262  0.054094028  0.054136613            4 
 2839000   0.80371235   -4.1438514     1847.815  0.054239021  0.054126254            3 
 2840000   0.78389484   -4.1376094    1850.5956  0.054301514  0.054115897           10 
 2841000   0.79297709    -4.146817    1850.5144  0.054280018  0.054105541            5 
 2842000   0.79617538   -4.1459952    1850.7735  0.054268518  0.054095195            4 
 2843000   0.80975633   -4.1533402     1843.147  0.054025882  0.054084768            3 
 2844000   0.79952605   -4.1670863     1851.645   0.05425589  0.054074263            6 
 2845000    0.8023606    -4.153073    1841.3893  0.053936419  0.054063672            5 
 2846000   0.80861555   -4.1822222    1850.2293   0.05417631  0.054053025            4 
 2847000   0.80288243   -4.1759948    1842.0883  0.053918988  0.054042438            4 
 2848000   0.79500312   -4.1864891    1836.9765  0.053750483  0.054031805            3 
 2849000   0.77512447   -4.1646663    1845.0255  0.053967051  0.054021197            6 
 2850000   0.81100734   -4.1450613    1845.0174  0.053947877  0.054010558            6 
 2851000   0.81130658   -4.1307902    1843.8993  0.053896272   0.05399991            5 
 2852000   0.79495026   -4.1416392    1847.3737  0.053978894  0.053989143            6 
 2853000   0.78940724   -4.1528569    1843.5071  0.053847036  0.053978489            3 
 2854000    0.7995109   -4.1308195    1842.7003  0.053804612  0.053967832            6 
 2855000   0.78733274   -4.1431273    1848.4345  0.053953137  0.053957264            3 
 2856000   0.80186941   -4.1470758    1847.6224  0.053910551  0.053946587            4 
 2857000   0.79998931    -4.150309    1842.9041  0.053754056  0.053936087            3 
 2858000   0.77824612   -4.1330016    1853.7608  0.054051807   0.05392553            7 
 2859000   0.78194056   -4.1724789    1842.3806  0.053701196  0.053914933            6 
 2860000   0.80720527   -4.1691862    1846.7256  0.053809021  0.053904173            4 
 2861000   0.79370318   -4.1421423    1851.8659  0.053939938  0.053893548            3 
 2862000   0.79149635   -4.1400242    1850.7172  0.053887643  0.053882958            7 
 2863000   0.81910888   -4.1608325    1851.8146  0.053900764  0.053872332            2 
 2864000   0.80589881   -4.1808123    1852.0257  0.053888085  0.053861655            4 
 2865000   0.79395923   -4.1458551     1848.634  0.053770622  0.053851009           15 
 2866000   0.78002363   -4.1438608    1850.6482  0.053810427  0.053840378            6 
 2867000   0.79224154   -4.1673496    1849.6474  0.053762567  0.053829783            6 
 2868000   0.80268309   -4.1973174    1846.2565  0.053645295  0.053819184            7 
 2869000   0.80549964   -4.1414107    1849.4866  0.053720418  0.053808417            4 
 2870000   0.80186589   -4.1449152    1850.6096  0.053734309  0.053797797            6 
 2871000   0.78086049   -4.1544542    1853.2877  0.053793327  0.053787104            5 
 2872000    0.7752626   -4.1738028     1850.506  0.053693884  0.053776325            9 
 2873000   0.80287623   -4.1606794    1851.8346  0.053713733  0.053765646            4 
 2874000   0.80414061   -4.1497923    1847.3093  0.053563827  0.053754805            3 
 2875000   0.79160901   -4.1524636    1853.5596  0.053726364  0.053744168            6 
 2876000   0.79818406   -4.1640059     1855.234    0.0537562  0.053733529            2 
 2877000   0.80458823   -4.1706802    1845.5008  0.053455591  0.053722788            3 
 2878000   0.80387693   -4.1747243    1853.9428  0.053681456  0.053712147            9 
 2879000   0.80421344   -4.1679922    1847.4218   0.05347406  0.053701435            5 
 2880000   0.79373029   -4.1547751     1852.235  0.053594763   0.05369078            6 
 2881000   0.78972119   -4.1785862    1847.4962   0.05343909  0.053680284            4 
 2882000   0.79397549   -4.1556509    1854.7063  0.053629028  0.053669624            6 
 2883000   0.80691622   -4.1453174      1853.85  0.053585675  0.053658989            3 
 2884000   0.79154275   -4.1748161    1854.1048  0.053574456  0.053648251            4 
 2885000   0.79744646   -4.1654102    1852.2937  0.053503572  0.053637539            5 
 2886000   0.80302549   -4.1820021     1853.823  0.053529194  0.053626827            5 
 2887000   0.80883447   -4.1558055    1853.7668  0.053509029  0.053616258            6 
 2888000   0.78040399   -4.1734713    1857.3299  0.053593314  0.053605694            4 
 2889000   0.81227009   -4.1764204    1854.1628  0.053483408  0.053595152            3 
 2890000   0.79538316   -4.1593038    1860.7168  0.053653887  0.053584564            2 
 2891000   0.78700825   -4.1436652    1857.8814  0.053553599  0.053573988            3 
 2892000   0.78608174   -4.1765686     1857.305   0.05351847  0.053563623            5 
 2893000   0.77061809   -4.1630815    1851.7854  0.053340979  0.053552983            9 
 2894000   0.77988599   -4.1742787    1856.9414  0.053471016   0.05354241           13 
 2895000   0.77631559    -4.177606     1857.371  0.053464912  0.053531888            3 
 2896000   0.77423574   -4.1619585    1860.3385  0.053531839  0.053521335            4 
 2897000   0.79375887   -4.1692603    1854.4251   0.05334326  0.053510676            4 
 2898000   0.80203843   -4.1883297    1855.9742  0.053369399  0.053500058            5 
 2899000   0.79633353    -4.181444    1859.7285  0.053458909  0.053489513            4 
 2900000   0.79143157    -4.174583    1859.8603  0.053444261   0.05347898            9 
 2901000   0.78654262   -4.1523688    1862.9183  0.053513683  0.053468428            2 
 2902000   0.79971074   -4.1837175    1860.4438  0.053424184  0.053457859            5 
 2903000   0.78581329   -4.1718706    1859.8228  0.053387954  0.053447188            9 
 2904000   0.79838967   -4.1918842    1861.4175  0.053415332  0.053436354            7 
 2905000   0.77797138   -4.1675057    1852.3375  0.053136475  0.053425589           12 
 2906000   0.79702555   -4.1847623    1857.0552  0.053253475  0.053414865            5 
 2907000   0.78237428   -4.1756049    1865.5434  0.053478483  0.053404229            3 
 2908000   0.76839368   -4.1782128    1857.7441  0.053236593   0.05339359            6 
 2909000   0.77624966   -4.1806347    1861.9048  0.053337481  0.053382859            5 
 2910000   0.78382752   -4.1663344    1861.1877  0.053298617  0.053372299            3 
 2911000   0.78834469   -4.1893453    1855.0474  0.053104529  0.053361605            6 
 2912000   0.77682656   -4.1719539    1858.8585  0.053195357  0.053350855            8 
 2913000   0.78842721   -4.1804367     1860.757  0.053231405   0.05334015            6 
 2914000   0.76962915   -4.1560538    1856.6958  0.053096997  0.053329401            4 
 2915000   0.79646224   -4.1998401    1855.3883  0.053041404    0.0533186            5 
 2916000   0.78614467   -4.1852457    1861.9274  0.053210089  0.053307894            9 
 2917000   0.80442145   -4.1842046    1861.3647  0.053175771  0.053297178            2 
 2918000   0.77478323   -4.1678588    1864.2738  0.053240626  0.053286651            3 
 2919000   0.77854744   -4.1775012    1865.2308   0.05324971  0.053276015           13 
 2920000   0.77455414   -4.1499048      1865.44  0.053237443  0.053265309            6 
 2921000   0.77361448    -4.204234    1861.0638  0.053094367  0.053254623            6 
 2922000   0.78730499   -4.1656155    1869.5108  0.053317101   0.05324393           10 
 2923000    0.7740593   -4.1553759    1867.4081  0.053238912  0.053233201            5 
 2924000   0.78519197   -4.2223531     1860.483  0.053023343  0.053222573            4 
 2925000   0.79183169   -4.1852395    1863.6615   0.05309577  0.053211918            4 
 2926000   0.78911223    -4.192582    1861.0041  0.053001941  0.053201158            9 
 2927000   0.77645272   -4.1533967    1864.9018  0.053094801  0.053190445           16 
 2928000   0.77693099   -4.1686683    1865.7387  0.053100486  0.053179774           11 
 2929000   0.77797219   -4.1836174    1863.9768  0.053032231  0.053169105            8 
 2930000    0.7854045   -4.1909854    1870.9357  0.053212051  0.053158424            5 
 2931000   0.78634194   -4.1770023    1864.7595  0.053018296  0.053147799            3 
 2932000   0.77659454   -4.1855466    1862.5427  0.052937208  0.053137034            3 
 2933000   0.77681996   -4.1709493    1871.7533  0.053180852  0.053126505            3 
 2934000     0.801184   -4.1905974    1868.6909  0.053075747  0.053115853           13 
 2935000   0.78151604   -4.1787794    1867.9826  0.053037554  0.053105071           14 
 2936000   0.77819126   -4.1792826    1866.4735  0.052976654  0.053094316            8 
 2937000   0.78333624   -4.1681391    1869.8898   0.05305555  0.053083619            4 
 2938000   0.77948683   -4.1850836    1871.0628  0.053070762  0.053072874            6 
 2939000   0.77580867   -4.1868876    1868.8579  0.052990186  0.053062202            4 
 2940000   0.79286077   -4.1908579    1864.0593  0.052836147  0.053051337            5 
 2941000   0.78201945   -4.1703783     1865.798   0.05286745  0.053040552            5 
 2942000   0.78676647   -4.1756452    1874.8609   0.05310619  0.053029796            6 
 2943000   0.78212166   -4.2037671    1869.9321  0.052948582   0.05301914            6 
 2944000   0.78283847   -4.1935352    1867.7129  0.052867778  0.053008481            5 
 2945000   0.79491876    -4.183724    1866.4848  0.052815077  0.052997685            5 
 2946000   0.76812525   -4.1876984    1865.1346  0.052758956  0.052986905            3 
 2947000   0.76964703    -4.184219    1874.3163  0.053000688  0.052976113            3 
 2948000   0.77524526   -4.2058274     1864.211  0.052697055  0.052965289            5 
 2949000   0.78241821   -4.2095805    1872.5201  0.052913985  0.052954582            6 
 2950000   0.77636187   -4.1527917    1878.1165  0.053054137  0.052943927            3 
 2951000   0.78537933   -4.1833808    1868.7372  0.052771297   0.05293318            3 
 2952000   0.79213223   -4.1851999    1867.4725  0.052717719  0.052922387            7 
 2953000   0.79031311   -4.1944871    1869.3223   0.05275207   0.05291153            9 
 2954000   0.78968032   -4.1816675    1871.2387  0.052788274  0.052900724            5 
 2955000   0.79214657   -4.1561738    1873.8126  0.052842995  0.052890016            9 
 2956000   0.78025846   -4.1629004    1871.6989  0.052765531  0.052879354            4 
 2957000   0.78460662   -4.1709254    1869.6535  0.052690042  0.052868733            4 
 2958000   0.76834752   -4.1880784    1874.2531  0.052801811  0.052857931            7 
 2959000   0.77797633   -4.2062058    1870.4424  0.052676649  0.052847115            5 
 2960000   0.78156528   -4.1805553    1874.5577  0.052774709  0.052836318            7 
 2961000    0.7935359   -4.1890303    1877.0028  0.052825701  0.052825624            3 
 2962000   0.77947212   -4.1799149    1876.7063  0.052799524  0.052814951            3 
 2963000   0.79245414   -4.1822916    1875.7464  0.052754709  0.052804224            5 
 2964000   0.78224677    -4.185696    1868.9466  0.052545733  0.052793428            4 
 2965000   0.78993338   -4.1681391    1877.5247  0.052769104  0.052782757            7 
 2966000   0.77778138   -4.2017606    1871.2674  0.052575506  0.052772035            4 
 2967000   0.78815272   -4.2210817    1871.3233  0.052559355  0.052761162            6 
 2968000   0.77776936   -4.1862736    1878.8785  0.052753775  0.052750316            4 
 2969000   0.77233231    -4.154483    1876.2256  0.052661546  0.052739631            2 
 2970000   0.77030602   -4.1833314    1871.5096  0.052511492  0.052728896            3 
 2971000   0.77450203    -4.179908    1873.5068  0.052549836  0.052718167            4 
 2972000   0.77964914   -4.2032773    1869.5171  0.052420286  0.052707375            5 
 2973000   0.76399725   -4.1818489    1874.4137  0.052539906  0.052696571            4 
 2974000   0.77094637   -4.1697898     1874.589  0.052527153  0.052685825            4 
 2975000   0.77122757   -4.1828373    1873.0169   0.05246546  0.052675019            9 
 2976000   0.78255891   -4.1978568    1875.0284  0.052504154  0.052664142            2 
 2977000   0.78425756   -4.2021085    1866.5948  0.052250442  0.052653357            5 
 2978000   0.78727456   -4.1889098    1873.2115  0.052418052   0.05264229            3 
 2979000   0.75638524    -4.208606    1874.3387  0.052431989  0.052631284            4 
 2980000   0.77505563   -4.1790992     1878.223  0.052523015  0.052620376            4 
 2981000   0.78086174   -4.1762963    1870.8879  0.052300345  0.052609484            5 
 2982000   0.76427625   -4.1867118    1878.9074  0.052506913  0.052598608            4 
 2983000   0.76413509   -4.1797984    1875.0561  0.052381722  0.052587651            3 
 2984000   0.75969049    -4.206315    1874.9829  0.052362124  0.052576556            5 
 2985000   0.76443162   -4.1774052    1877.7074  0.052420643  0.052565607            2 
 2986000   0.77295589    -4.196835     1870.941  0.052214249   0.05255456            6 
 2987000   0.76821601   -4.1613522    1874.1096   0.05228517  0.052543498           10 
 2988000   0.77844923   -4.1873552    1874.1823  0.052269699  0.052532642            4 
 2989000   0.79270348   -4.2179823    1873.5168  0.052233657  0.052521623            4 
 2990000   0.77374506   -4.2188837    1866.6982  0.052026149  0.052510562            7 
 2991000   0.76053935   -4.1868669    1872.5208   0.05217098  0.052499583            5 
 2992000   0.77302423   -4.1807807    1871.6021  0.052127955  0.052488647            4 
 2993000   0.75975069   -4.1947216    1873.0919  0.052152018  0.052477595            8 
 2994000   0.76073036   -4.2030567     1875.314  0.052196449  0.052466663            4 
 2995000   0.76772161   -4.1884229    1883.7552  0.052413889  0.052455773            9 
 2996000   0.75916371    -4.160242    1887.3333   0.05249592  0.052444931            3 
 2997000   0.76671187   -4.1957482    1876.4449  0.052175644  0.052434029            5 
 2998000   0.76784351   -4.1871817    1878.4762  0.052214706  0.052423061            4 
 2999000   0.76376854   -4.1898386      1880.35   0.05224936  0.052412198            6 
 3000000   0.77294535   -4.2187952    1878.8254  0.052189593  0.052401292            5 
 3001000   0.77324003     -4.18182    1879.4004   0.05218817  0.052390377            9 
 3002000    0.7719805   -4.1824684     1881.023  0.052215827  0.052379421            3 
 3003000   0.76017858   -4.2060671    1879.8838  0.052166826  0.052368506            3 
 3004000   0.76049912   -4.1954566    1879.2481  0.052131826   0.05235759            6 
 3005000   0.77576908   -4.2060783    1887.3045  0.052337896  0.052346674            3 
 3006000   0.77266783   -4.1989965      1879.18  0.052095253  0.052335781            4 
 3007000   0.77242859   -4.1948747    1887.7732  0.052316073  0.052324746            6 
 3008000   0.77021315   -4.1726167    1876.7442  0.051993134  0.052313808            6 
 3009000   0.76461289   -4.1927733    1878.5763  0.052026594  0.052302806            6 
 3010000   0.76771717   -4.1890878    1872.8916  0.051851927  0.052291844            4 
 3011000   0.77921005   -4.2103394    1878.9334  0.052001919  0.052280849           13 
 3012000   0.75173463   -4.2061916    1878.0562  0.051960387  0.052269738            6 
 3013000   0.77155075   -4.2098503    1878.8627  0.051965446   0.05225887            7 
 3014000   0.78043824   -4.1854331    1879.1625  0.051956494  0.052247871            7 
 3015000   0.77489332   -4.1921547     1879.418  0.051946325  0.052236837            8 
 3016000   0.76490739   -4.2179572    1881.2254  0.051979039  0.052225858            6 
 3017000   0.77332335   -4.2075666    1883.1053  0.052013737  0.052214915            3 
 3018000   0.78505998   -4.1840791    1887.0325   0.05210494  0.052203952            3 
 3019000   0.78565286   -4.2014582    1882.8331  0.051971765  0.052193059            7 
 3020000   0.76343649   -4.1950533     1883.857  0.051982809  0.052182105            6 
 3021000   0.77868777   -4.2217367    1884.5328  0.051984243  0.052171121            3 
 3022000   0.74864772   -4.1951189    1886.1266  0.052010992  0.052160124            4 
 3023000   0.77190161   -4.2322091    1880.8925  0.051849501  0.052149238            9 
 3024000   0.75952094   -4.2012843    1887.1187  0.052003932  0.052138308            4 
 3025000   0.76054229   -4.2046573    1884.8266  0.051923598  0.052127486            7 
 3026000   0.75863098   -4.1878155    1884.8651    0.0519075   0.05211665            7 
 3027000   0.77759743   -4.2143939     1882.893  0.051836058   0.05210573            2 
 3028000   0.76546336   -4.2067891    1885.1892  0.051882134  0.052094854            4 
 3029000   0.77428588   -4.1794226    1891.9513  0.052051042  0.052084004            8 
 3030000    0.7797271   -4.1942659    1890.9149   0.05200536  0.052073161            5 
 3031000   0.77233833   -4.2147423    1886.6315  0.051870437  0.052062417            4 
 3032000    0.7474372   -4.2019465    1889.1429  0.051922354  0.052051736            5 
 3033000   0.77606713   -4.1973735    1891.1057  0.051959162  0.052040951           12 
 3034000   0.77412311   -4.1971229    1887.7222  0.051849106  0.052030303            5 
 3035000    0.7668376   -4.2118805    1892.3954  0.051960334    0.0520196            4 
 3036000   0.75833845   -4.2100039    1890.5507  0.051892586  0.052009006            4 
 3037000    0.7800029   -4.2144644    1889.0067  0.051833132   0.05199828            3 
 3038000   0.78774738    -4.193068    1891.6061  0.051887375   0.05198761            5 
 3039000   0.75416139   -4.2045466     1891.139  0.051857491  0.051976948            2 
 3040000   0.76412091   -4.2146827    1888.6244  0.051771502  0.051966189           14 
 3041000   0.75896599   -4.1922272    1898.4906  0.052024844  0.051955353            8 
 3042000   0.76574842     -4.20401    1889.5747  0.051763498  0.051944605           11 
 3043000   0.75975165   -4.2231392    1894.3876  0.051878289  0.051933837           11 
 3044000   0.75460703   -4.2239142    1886.0137  0.051632001  0.051922982            8 
 3045000   0.75778317   -4.1973636    1896.3154  0.051896972  0.051912175            4 
 3046000   0.78404087   -4.1848157    1892.1913  0.051767108  0.051901458            4 
 3047000   0.75392696   -4.2193008    1887.3795   0.05161852  0.051890765            6 
 3048000    0.7683925   -4.2246443    1895.7369  0.051830077  0.051880022            7 
 3049000   0.76522312   -4.2207643    1893.2816  0.051745972   0.05186925            2 
 3050000   0.74990033   -4.2159302    1894.8609  0.051772154  0.051858579            5 
 3051000   0.77381201   -4.2009978    1900.9923  0.051922655  0.051847944            6 
 3052000   0.74881179   -4.2163244    1892.1104  0.051663127  0.051837307           10 
 3053000   0.75839674   -4.1904076    1897.6605  0.051797699  0.051826671            6 
 3054000   0.75069279   -4.2119439    1897.3713  0.051772846  0.051816075            6 
 3055000   0.77847513   -4.2190736    1897.1992  0.051751207  0.051805422            5 
 3056000   0.74852169   -4.2217743    1894.1416  0.051650895  0.051794697            3 
 3057000   0.77703801   -4.2268647    1893.0158   0.05160331  0.051784101           15 
 3058000   0.76587386   -4.2376926    1898.4386   0.05173421  0.051773463            4 
 3059000   0.76585608   -4.2081191    1896.5673   0.05166632  0.051762823            8 
 3060000   0.76179518   -4.2001355     1903.454  0.051836983   0.05175208            5 
 3061000   0.76633035   -4.2166885    1898.5346   0.05168612   0.05174161            5 
 3062000   0.75558083   -4.2287504    1897.4236  0.051639005  0.051731015            4 
 3063000    0.7707206   -4.2203822    1902.2404  0.051753193  0.051720403            5 
 3064000   0.74747771    -4.212745    1900.4447  0.051687464  0.051709772            5 
 3065000   0.76269567   -4.2168666    1900.5922  0.051674612  0.051699202            5 
 3066000   0.77985473   -4.2097109    1899.9839  0.051641223  0.051688583           12 
 3067000   0.77116049   -4.2245866    1901.8021  0.051673787  0.051678092            5 
 3068000   0.76011563   -4.2226443    1905.6888  0.051762516  0.051667532            5 
 3069000    0.7595379    -4.210195    1906.7758  0.051775165  0.051657079           19 
 3070000    0.7576651   -4.2117336    1911.1249  0.051876354  0.051646515            4 
 3071000   0.75847972    -4.236331    1898.1597  0.051507645  0.051635989           14 
 3072000   0.74649177    -4.223255    1902.5365  0.051609605  0.051625457            2 
 3073000   0.74746997   -4.2294369    1904.6448  0.051649983  0.051614849            5 
 3074000   0.74903363   -4.2104071    1901.1725  0.051539051  0.051604238            9 
 3075000   0.75904173   -4.2024074    1904.5358  0.051613435  0.051593535            9 
 3076000   0.74155546   -4.1901407    1902.2501  0.051534733  0.051582964           11 
 3077000   0.76148501   -4.2152611    1901.3401   0.05149334  0.051572356            5 
 3078000   0.76907018   -4.2337505    1905.3439  0.051585009  0.051561825            7 
 3079000   0.75384181   -4.2055677    1904.5641  0.051547151  0.051551177            6 
 3080000   0.74953203   -4.2131062    1901.6162  0.051450655  0.051540587            6 
 3081000   0.76046946   -4.2409247    1899.5359   0.05137769  0.051529882            8 
 3082000   0.77163915   -4.2184254    1904.2044  0.051487248  0.051519126            6 
 3083000   0.73821693   -4.2230895    1903.9086  0.051462553  0.051508538            5 
 3084000   0.74663909   -4.2266649    1902.6238  0.051411149  0.051497811            4 
 3085000    0.7600387   -4.2119902    1898.4342  0.051281313  0.051487055            5 
 3086000   0.76244808   -4.2330712     1901.985   0.05136058  0.051476459            5 
 3087000   0.76077548   -4.2368987    1908.4876  0.051519481  0.051465809            3 
 3088000   0.74036253   -4.2153237    1913.1461  0.051628511  0.051455404            4 
 3089000   0.75135677   -4.2169525    1909.2944  0.051507889  0.051444899            5 
 3090000   0.75602805   -4.2072784    1905.7977  0.051396918  0.051434412            4 
 3091000   0.74369057   -4.2376722    1911.1863  0.051525566  0.051423966            5 
 3092000   0.74676203   -4.2422784    1901.6349   0.05125148  0.051413373            4 
 3093000   0.75287384    -4.213303    1906.7547   0.05137285  0.051402689            4 
 3094000   0.76768002   -4.2201256    1910.2411  0.051450148  0.051392151            2 
 3095000   0.76366306   -4.2423741    1906.4341  0.051331022  0.051381577            5 
 3096000    0.7435143   -4.2437207     1905.797  0.051297293  0.051371044            4 
 3097000   0.76764837   -4.2433261    1911.0271  0.051421459  0.051360603            7 
 3098000   0.78049697   -4.2327302     1909.695  0.051369028  0.051350136            5 
 3099000   0.76009864   -4.2205857    1911.1006  0.051390249  0.051339576            5 
 3100000   0.75241785   -4.2383652    1911.6503  0.051388449  0.051329119            6 
 3101000    0.7557461   -4.2062079    1908.5837  0.051289469  0.051318626            4 
 3102000   0.75597341   -4.2318004    1906.9973  0.051230315  0.051308121            5 
 3103000   0.75645864   -4.2324653    1909.1498  0.051271614  0.051297531           10 
 3104000   0.74576056   -4.2524364    1908.5143  0.051238035  0.051286873           13 
 3105000   0.75525573    -4.196441    1914.5859  0.051384486  0.051276333            9 
 3106000   0.74925131   -4.2156828    1908.6355  0.051208293  0.051265807           13 
 3107000    0.7708936   -4.2356804    1913.3831  0.051319147  0.051255291            9 
 3108000   0.75375701   -4.2322472    1910.2556   0.05121878  0.051244645            4 
 3109000   0.74002136   -4.2321894    1913.3681  0.051285732  0.051233901            9 
 3110000   0.74219053    -4.248642    1909.4458  0.051164142  0.051223256            6 
 3111000   0.75533011   -4.2049201    1919.2298  0.051409777  0.051212588           10 
 3112000   0.73987415   -4.2382861    1908.7519  0.051112679  0.051202035            4 
 3113000   0.73710845    -4.223848    1909.2098  0.051108519  0.051191382            6 
 3114000   0.76141815   -4.2026094    1909.1557  0.051090657  0.051180917            6 
 3115000    0.7687335   -4.2258301    1912.9616  0.051176072  0.051170263            6 
 3116000     0.748053   -4.2244607    1916.6985  0.051259587  0.051159599            4 
 3117000   0.77140382   -4.2516732     1914.996  0.051197626  0.051149038            6 
 3118000   0.75158227    -4.252193    1906.9777  0.050966906  0.051138463            4 
 3119000   0.75738649   -4.2098503    1911.7208  0.051077289  0.051127902            5 
 3120000   0.76059223   -4.2071267    1915.9102  0.051172814   0.05111744            4 
 3121000   0.76648605   -4.2374473    1911.6658   0.05104309   0.05110703            6 
 3122000   0.76567816   -4.2345873    1912.7059  0.051054503  0.051096488            6 
 3123000    0.7701585   -4.2418781     1913.445  0.051057876   0.05108601            7 
 3124000   0.74874768   -4.2107972    1915.0204  0.051083557  0.051075568           12 
 3125000   0.75132638   -4.2729091    1910.6384  0.050950358  0.051065114            9 
 3126000   0.74765804   -4.2507384    1915.0518  0.051051711  0.051054579            5 
 3127000   0.74536314   -4.2332918    1914.2122   0.05101301  0.051044079            4 
 3128000   0.73604157   -4.2412242     1914.659  0.051008606    0.0510336            4 
 3129000   0.74078172   -4.2387161    1913.1904  0.050953191  0.051023012            4 
 3130000   0.75969293   -4.2507272    1910.2219  0.050857879   0.05101235            8 
 3131000   0.74311533   -4.2318208     1916.654  0.051012827  0.051001784            9 
 3132000   0.73482151   -4.2229507    1915.4147  0.050963568  0.050991186            3 
 3133000   0.75477285   -4.2232908    1918.2377  0.051022388  0.050980667            4 
 3134000   0.73451577    -4.255034    1913.3309  0.050875636  0.050970068           11 
 3135000   0.74316341   -4.2323138     1918.007  0.050983706  0.050959506            5 
 3136000   0.76878265   -4.2222548    1919.2797  0.051001267  0.050948971            7 
 3137000    0.7461219    -4.228232    1916.9173  0.050922254  0.050938337            5 
 3138000   0.75258515   -4.2043388     1915.785  0.050875957  0.050927748            5 
 3139000   0.76080215   -4.2166855    1911.2981  0.050740631  0.050917186            4 
 3140000   0.75001972   -4.2443266    1922.1436  0.051012304  0.050906625            5 
 3141000   0.77238175   -4.2202124    1920.7818  0.050959932  0.050896081            8 
 3142000   0.73442193   -4.2311509     1921.835  0.050971648  0.050885604            4 
 3143000   0.75640961   -4.2399719    1917.1548   0.05083134  0.050875049            7 
 3144000   0.76238988   -4.2319093    1919.7897  0.050885012  0.050864451            7 
 3145000   0.74436504   -4.2675398    1913.0083  0.050689144  0.050853754            5 
 3146000    0.7438355   -4.2400954    1915.5505  0.050740372  0.050843016            3 
 3147000   0.73841792   -4.2263844    1912.3101  0.050638442  0.050832381            6 
 3148000   0.75110485   -4.2283627    1919.9449  0.050824464  0.050821759            4 
 3149000   0.75998032   -4.2424333    1918.6497  0.050774048  0.050811189            6 
 3150000   0.74359214   -4.2549073    1918.5261  0.050754659  0.050800595           11 
 3151000   0.74909084   -4.2594309    1912.5759  0.050581187  0.050789881            8 
 3152000   0.73000322   -4.2097345    1918.8125  0.050730027  0.050779361            7 
 3153000   0.74417187   -4.2643949    1920.8604  0.050768062  0.050768844            5 
 3154000   0.75464221   -4.2300512    1919.2225  0.050708691  0.050758266            5 
 3155000   0.74548027    -4.250874    1921.1326   0.05074307  0.050747596            7 
 3156000   0.74293904   -4.2703075    1914.9763  0.050564435  0.050736866            4 
 3157000   0.75178351   -4.2264186    1924.4667  0.050798931  0.050726193            5 
 3158000     0.732925   -4.2284293    1917.8941  0.050609408  0.050715619            6 
 3159000   0.77127743   -4.2279893    1922.8456  0.050724006   0.05070507            5 
 3160000   0.75025141    -4.232504    1916.8909   0.05055092  0.050694491            6 
 3161000   0.74574003   -4.2612866    1918.7915  0.050585034  0.050683758            5 
 3162000   0.75556854   -4.2644073    1916.4517  0.050507371  0.050672975            7 
 3163000   0.73636454   -4.2677458    1915.5591  0.050467888  0.050662198            6 
 3164000   0.75364612   -4.2407769    1918.2807  0.050523616  0.050651509            7 
 3165000   0.74682907   -4.2463382    1919.4573  0.050538632  0.050640783            9 
 3166000    0.7326085   -4.2455876    1923.5825  0.050631251  0.050630083            5 
 3167000   0.74871989   -4.2461994    1926.6617  0.050696286  0.050619466            5 
 3168000      0.74637   -4.2520392    1922.0879  0.050559971  0.050608815           10 
 3169000   0.72858809   -4.2411362    1928.1934  0.050704571  0.050598136            9 
 3170000   0.72590801   -4.2272215    1920.0786  0.050475252  0.050587504            4 
 3171000   0.74088219   -4.2608081    1921.0917  0.050485958  0.050576829           11 
 3172000   0.74930804   -4.2669966    1921.9877  0.050493581  0.050566125            3 
 3173000   0.74630227   -4.2562348    1920.4769  0.050437991  0.050555402            2 
 3174000    0.7428535   -4.2444574    1929.3492  0.050655041   0.05054478            5 
 3175000   0.73648172   -4.2751765     1924.105  0.050501444  0.050534208           14 
 3176000   0.74620482   -4.2497137    1924.1438  0.050486561  0.050523684            9 
 3177000   0.75961451   -4.2248732    1927.8722  0.050568465   0.05051314            5 
 3178000   0.74284876   -4.2170728    1929.7782  0.050602533   0.05050266            4 
 3179000   0.74918497   -4.2601292     1926.006  0.050487731  0.050492052           12 
 3180000   0.74175713   -4.2471584    1924.4966    0.0504323   0.05048146            6 
 3181000   0.74657002   -4.2504022    1927.3516  0.050491239  0.050470889            4 
 3182000    0.7601834   -4.2545625    1927.8635  0.050488779  0.050460331            5 
 3183000   0.73723634   -4.2516113    1926.9517  0.050449044  0.050449671            6 
 3184000   0.73787275     -4.26333    1921.6388  0.050294149   0.05043907            5 
 3185000   0.74309715   -4.2304291    1930.0511  0.050498459  0.050428543            4 
 3186000   0.74916654   -4.2483203    1932.2514  0.050540161  0.050418052           10 
 3187000   0.72679514   -4.2477203    1930.1086  0.050468273  0.050407417            6 
 3188000   0.74212025   -4.2329718    1925.8149  0.050340205  0.050396799            4 
 3189000   0.73657234   -4.2650502    1919.9149  0.050170245  0.050386073            6 
 3190000   0.75855184   -4.2438696    1923.3845  0.050245154  0.050375411            5 
 3191000   0.74728354   -4.2575451    1922.3695  0.050202902  0.050364807           12 
 3192000   0.73568705    -4.257741    1926.8048  0.050302967  0.050354158            9 
 3193000   0.72911992   -4.2610451    1931.1796  0.050401389  0.050343586            7 
 3194000   0.72159775   -4.2657613    1933.9297  0.050457361  0.050333128            5 
 3195000   0.73041123    -4.252398    1927.4451  0.050272435  0.050322568            6 
 3196000   0.73820452   -4.2588452    1928.9708  0.050296485  0.050312109            4 
 3197000   0.73172739   -4.2940839    1929.0271   0.05028222  0.050301563           11 
 3198000   0.74480443   -4.2633066    1933.4438  0.050381586  0.050290987            9 
 3199000   0.73685692     -4.25896    1931.7083   0.05032063  0.050280513           14 
 3200000   0.72756194   -4.2597396    1925.8639  0.050152706  0.050269979            5 
 3201000    0.7273544   -4.2503038    1926.8189  0.050161901   0.05025941            5 
 3202000   0.74730533   -4.2608665    1929.1605  0.050207175  0.050248852            4 
 3203000   0.73453222   -4.2697298    1932.3281  0.050273913  0.050238337           10 
 3204000   0.73505898   -4.2499248    1929.7615  0.050191467  0.050227763           12 
 3205000   0.75630126   -4.2602872    1928.9388  0.050154414    0.0502172            3 
 3206000    0.7243101   -4.2782463    1929.2541  0.050146968  0.050206645            5 
 3207000   0.73882687   -4.2531705    1931.8004  0.050197495  0.050196078            7 
 3208000   0.73335835   -4.2509511     1934.167  0.050243323  0.050185503            5 
 3209000   0.72703148   -4.2481892    1932.3644  0.050180855  0.050174957            2 
 3210000   0.74027957   -4.2663941    1932.6845  0.050173533  0.050164413            8 
 3211000   0.72165501   -4.2530142    1934.1322  0.050195479  0.050153902            3 
 3212000   0.73409326   -4.2564844    1936.8117  0.050249371  0.050143363            6 
 3213000   0.73801999   -4.2662363    1934.1999   0.05016599  0.050132804            7 
 3214000   0.71763463   -4.2796152     1926.498  0.049950684  0.050122252           11 
 3215000   0.74187634   -4.2691003    1933.0981  0.050106223  0.050111746            4 
 3216000   0.73917255   -4.2422356    1932.7709  0.050082166   0.05010125            8 
 3217000   0.74803483   -4.2577104    1935.5859  0.050139516  0.050090666            5 
 3218000   0.72695092   -4.2427269    1938.2307  0.050192424  0.050080053            7 
 3219000   0.73852342   -4.2619216    1931.6146  0.050005556  0.050069495            4 
 3220000   0.73550377   -4.2749006    1935.2395  0.050083838  0.050058847            4 
 3221000   0.73591255   -4.2448674    1932.3557   0.04999368  0.050048345            8 
 3222000   0.72512181   -4.2802778     1931.427  0.049954144  0.050037746            6 
 3223000   0.75597793   -4.2695821      1934.84  0.050026889  0.050027156            6 
 3224000   0.72163605   -4.2590556    1929.8582  0.049882605  0.050016603            9 
 3225000   0.72369411   -4.2694354    1936.0877  0.050028106     0.050006           11 
 3226000   0.72252891   -4.2694985    1931.8091  0.049902075  0.049995318            4 
 3227000   0.72820661   -4.2737053    1932.0793  0.049893589  0.049984784            6 
 3228000   0.74750433   -4.2745549    1931.7038  0.049868439  0.049974144            3 
 3229000   0.72400676   -4.2380628    1932.6243  0.049876749  0.049963466            9 
 3230000   0.73197336   -4.2574415    1933.7196  0.049889567  0.049952935            4 
 3231000   0.74666537   -4.2627846    1934.3887  0.049891384  0.049942422            4 
 3232000   0.73534978   -4.2748418    1935.0658  0.049893404  0.049931957            3 
 3233000   0.74503258   -4.2786311      1938.87  0.049976028  0.049921346            5 
 3234000   0.73205152   -4.2565671     1940.415  0.050000387  0.049910772            6 
 3235000   0.72060249   -4.2534228    1941.1519  0.050003913  0.049900147            8 
 3236000   0.73557699   -4.2744435    1934.3067  0.049812182  0.049889566            5 
 3237000    0.7291201    -4.258495    1936.7901  0.049860728   0.04987892            5 
 3238000   0.73638827   -4.2485752    1938.2111  0.049881901  0.049868274            3 
 3239000   0.72199109   -4.2337356    1941.5344  0.049952001  0.049857828            9 
 3240000   0.73459239   -4.2708052    1938.0705  0.049847493  0.049847327            4 
 3241000   0.71063285   -4.2767069    1937.3942  0.049814722  0.049836804            9 
 3242000   0.72847681   -4.2521496    1936.5459  0.049777552  0.049826297            9 
 3243000   0.71854662   -4.2779616    1936.3932   0.04975828  0.049815721            5 
 3244000   0.73726173   -4.2709593    1934.2332  0.049687455  0.049805066            2 
 3245000   0.71613779   -4.2601646    1950.3385  0.050085734  0.049794508            4 
 3246000   0.73722781    -4.292474    1938.6538  0.049770326  0.049783961            6 
 3247000    0.7444146   -4.2555715    1940.1231  0.049792708  0.049773431            7 
 3248000   0.73082337   -4.2240256    1946.1742  0.049932629  0.049762955            6 
 3249000   0.73693927   -4.2657625    1938.7148  0.049725937  0.049752534            4 
 3250000   0.71921856   -4.2358187    1937.4259  0.049677586  0.049742057            8 
 3251000    0.7308172   -4.2708494     1940.498  0.049741053  0.049731497            7 
 3252000   0.72768535   -4.2487895    1946.4637  0.049878631  0.049721013            6 
 3253000   0.72161775   -4.2763559    1945.5431  0.049839714  0.049710559            3 
 3254000   0.73722091   -4.2933674    1941.8115  0.049728834  0.049700136            4 
 3255000   0.72576278   -4.2751195    1944.3682  0.049779013    0.0496896            7 
 3256000   0.71804334   -4.2559574    1945.2122  0.049785324  0.049679092            3 
 3257000   0.73018447   -4.2675346    1936.5887  0.049549398  0.049668607            7 
 3258000   0.73583638   -4.2587422    1940.0072   0.04962163  0.049658061            8 
 3259000   0.72093519   -4.2722487    1938.7759  0.049574917  0.049647495           15 
 3260000   0.71867844   -4.2723209    1942.8823  0.049664682  0.049636923            3 
 3261000   0.73640104   -4.2750252    1941.1659  0.049605588  0.049626366            6 
 3262000      0.71195   -4.2799227    1943.2652  0.049644012  0.049615752            6 
 3263000   0.74049416    -4.265252    1947.5349   0.04973784  0.049605143            7 
 3264000   0.73298874   -4.2889129    1942.0627  0.049582893  0.049594555            5 
 3265000   0.73141506    -4.253279    1946.1692  0.049672517  0.049583918            5 
 3266000   0.74297497   -4.2881504    1947.0791  0.049680524  0.049573313            6 
 3267000   0.72448345   -4.2826307    1941.0274  0.049510952  0.049562821            7 
 3268000   0.73353944   -4.2873037    1946.6678  0.049639631  0.049552297            4 
 3269000   0.72244093   -4.2742636     1939.877  0.049451337  0.049541631            4 
 3270000   0.73099095    -4.281376    1945.1535  0.049570681   0.04953099           14 
 3271000    0.7118837   -4.3004514    1941.9991  0.049475164  0.049520361            4 
 3272000   0.74509851   -4.3088372    1944.6023  0.049526342  0.049509789            6 
 3273000   0.74188531   -4.2844053    1941.1366   0.04942297  0.049499279            6 
 3274000   0.72995724   -4.2940576    1938.1142  0.049330946  0.049488826            6 
 3275000    0.7208411    -4.298054    1943.5516  0.049454239  0.049478338            6 
 3276000   0.73385877   -4.2750273    1939.1935  0.049328285  0.049467721            5 
 3277000   0.72098708   -4.2708231    1942.7717  0.049404223  0.049457144            8 
 3278000   0.73575387   -4.2896487      1940.91  0.049341825  0.049446577            4 
 3279000   0.72581815   -4.2792474     1945.399  0.049440861   0.04943598            6 
 3280000   0.72117906   -4.2996802    1944.1176  0.049393232  0.049425407            9 
 3281000   0.70589411   -4.2696037    1950.0445  0.049528714  0.049414887            6 
 3282000   0.73220309   -4.2976991    1942.5939  0.049324443  0.049404365            5 
 3283000   0.72385253   -4.2834315    1949.6756  0.049489175  0.049393766            8 
 3284000   0.72894288   -4.2664615    1951.8199  0.049528519  0.049383283            8 
 3285000   0.72080221   -4.2731213    1946.2463  0.049372053  0.049372831            4 
 3286000   0.73540089     -4.28549    1954.5619  0.049567911  0.049362426            6 
 3287000   0.72156169   -4.2721533    1944.3152  0.049293054  0.049351968            8 
 3288000   0.72212862    -4.283915    1946.2595  0.049327338  0.049341546            9 
 3289000   0.70754522   -4.2928112    1943.5522  0.049243746  0.049331059            9 
 3290000   0.72200442   -4.2781908    1943.2922  0.049222193  0.049320585            7 
 3291000   0.71429827   -4.2968765    1942.0844  0.049176655  0.049310094            5 
 3292000    0.7251035   -4.2950453    1948.2472   0.04931772  0.049299526            6 
 3293000   0.73549826   -4.2933717    1944.9133  0.049218376  0.049288966            5 
 3294000   0.73511922   -4.2846106    1950.0503  0.049333393  0.049278355           19 
 3295000   0.72616538   -4.2702272    1943.4902  0.049152508  0.049267828            5 
 3296000   0.72209771   -4.2741099    1946.8523    0.0492226  0.049257301            7 
 3297000   0.71830931   -4.2895622    1945.1431   0.04916447  0.049246666           14 
 3298000   0.72595034   -4.2777554    1945.4918  0.049158374  0.049236051            7 
 3299000   0.72920348   -4.2826481    1946.1582  0.049160305  0.049225568           14 
 3300000   0.72133087   -4.2789967    1948.2518  0.049198277  0.049215028            6 
 3301000   0.72774717   -4.2836958    1952.5517  0.049291925  0.049204456            5 
 3302000   0.72586794   -4.3034021    1944.1111  0.049063979  0.049193825            9 
 3303000   0.72604422   -4.2772303    1944.9017   0.04906907  0.049183174            3 
 3304000    0.7220785   -4.2733696    1947.0973  0.049109597  0.049172593            8 
 3305000   0.71742428   -4.2757684    1950.1273  0.049171137  0.049161967           10 
 3306000   0.72928729   -4.2804146    1943.0817  0.048978667  0.049151308            4 
 3307000   0.72641465   -4.2832527    1943.6954  0.048979322  0.049140534            5 
 3308000   0.71190805   -4.3123659    1945.3313  0.049005726  0.049129785            6 
 3309000   0.73384435    -4.297085    1945.5906  0.048997446  0.049119045            5 
 3310000    0.7223687   -4.2938662    1948.5086  0.049056109  0.049108234            6 
 3311000   0.72060771   -4.2904167    1943.6983  0.048920224  0.049097448            5 
 3312000    0.7366227   -4.2968609    1945.8998  0.048960845  0.049086687            9 
 3313000   0.73613288   -4.2786722    1942.3778  0.048857476   0.04907601            8 
 3314000   0.70548314   -4.2759449    1944.1056  0.048886179  0.049065386            6 
 3315000   0.71240303   -4.2949705    1947.6266  0.048959945    0.0490547            5 
 3316000   0.73124624   -4.3086189    1946.1984  0.048909289  0.049043985            4 
 3317000   0.71801618   -4.2869319     1943.509  0.048826978  0.049033274            3 
 3318000   0.73108857   -4.2971088    1947.7124  0.048917832   0.04902261            7 
 3319000    0.7170866   -4.2894212    1951.2689   0.04899239  0.049012015            4 
 3320000   0.74505983   -4.2954825    1947.3164  0.048878424  0.049001316            7 
 3321000   0.73565457    -4.301065    1951.3654  0.048965307  0.048990585            7 
 3322000   0.70806628   -4.2815277    1949.6654  0.048907922  0.048980026            5 
 3323000   0.72504989   -4.3140414    1948.7529  0.048870321  0.048969367           11 
 3324000   0.71985524   -4.2863867    1953.3192  0.048970096  0.048958745            6 
 3325000   0.71892032   -4.2953889    1951.9777  0.048921747  0.048948098            6 
 3326000   0.72490561    -4.266584    1956.9375  0.049031307  0.048937517            6 
 3327000   0.71325737    -4.315856    1946.6865  0.048759807    0.0489269            8 
 3328000   0.72461428   -4.2751622    1949.8668   0.04882479  0.048916333            3 
 3329000   0.70610515   -4.2888663     1948.322  0.048771454  0.048905732            4 
 3330000   0.72429847   -4.2808617    1951.3892  0.048833565  0.048895086            7 
 3331000   0.70895909   -4.2974345    1952.9328  0.048857519  0.048884522            7 
 3332000   0.70827864   -4.2925162    1952.1424   0.04882309  0.048874003            6 
 3333000   0.70497854   -4.3120742    1948.7745  0.048724235  0.048863368            8 
 3334000   0.72824223    -4.296961    1952.4254  0.048800875  0.048852729            9 
 3335000   0.71236967   -4.3126257    1946.5086  0.048638396  0.048842015           12 
 3336000   0.71496732   -4.2807676    1952.8513  0.048782256  0.048831433            5 
 3337000     0.718129   -4.2873984    1958.8851  0.048918317   0.04882086            6 
 3338000   0.71048703   -4.2832741    1956.1111   0.04883441  0.048810261            3 
 3339000   0.71384668   -4.2941006    1958.1212   0.04886995  0.048799665            8 
 3340000   0.72914743   -4.2958699     1957.844  0.048848403  0.048789129            5 
 3341000   0.73819748   -4.3136941    1948.1123  0.048591048  0.048778586           13 
 3342000   0.72515631   -4.2934147    1955.1945  0.048753104  0.048767927            6 
 3343000   0.70952857   -4.2941458    1954.1735  0.048713069  0.048757365            7 
 3344000   0.70951368   -4.2868164    1950.4264  0.048605124  0.048746741            4 
 3345000   0.73083559   -4.2811334    1953.1024   0.04865726  0.048736111            5 
 3346000   0.71183763   -4.2910317    1955.2927  0.048697268  0.048725553            6 
 3347000   0.70797103   -4.2870623    1959.0201  0.048775524  0.048715016            7 
 3348000   0.71448024   -4.2989947    1953.6615  0.048627576   0.04870449           13 
 3349000   0.70246556   -4.3171776    1955.0082  0.048646565  0.048694034            9 
 3350000   0.72717816   -4.3213112    1956.8121  0.048676918  0.048683457            5 
 3351000   0.71672632   -4.3192261    1957.3162  0.048674929  0.048672909            8 
 3352000   0.72110333    -4.320148     1955.627  0.048618412  0.048662334           15 
 3353000   0.71952091   -4.3223696    1952.1086  0.048516469  0.048651722            5 
 3354000   0.69766933   -4.3067622    1958.5382  0.048661751  0.048641085            4 
 3355000   0.70117326   -4.2956203     1957.873  0.048630724  0.048630531            6 
 3356000   0.70724365   -4.2919664    1959.6436  0.048660201  0.048620017            4 
 3357000   0.72098751   -4.3193255    1961.7028  0.048696823  0.048609525            4 
 3358000   0.69953503   -4.3045758    1955.8248  0.048536451  0.048598951            9 
 3359000   0.72048164   -4.2874524     1957.734  0.048569365  0.048588492            4 
 3360000   0.71698188   -4.3238989    1958.6086  0.048576602  0.048577958           11 
 3361000   0.70967695   -4.3261179    1958.9853  0.048571488  0.048567296            6 
 3362000    0.7225261   -4.3037291    1959.0357  0.048558291  0.048556643           10 
 3363000   0.70296369   -4.3001439     1966.813   0.04873657  0.048546082            4 
 3364000   0.71428684   -4.3075856    1956.1955  0.048459065  0.048535462            6 
 3365000   0.71415066   -4.3013885    1957.5821  0.048479001  0.048524847            6 
 3366000   0.70636091   -4.3019156    1957.3528  0.048458923   0.04851422            4 
 3367000   0.71617198   -4.3210491    1949.9614  0.048261594  0.048503521            6 
 3368000   0.70062173   -4.3123514    1954.1989  0.048352111  0.048492855            4 
 3369000   0.70127788   -4.3168189    1958.9568  0.048455447  0.048482173            7 
 3370000   0.71132395   -4.2846638    1955.3132  0.048350969  0.048471476            5 
 3371000   0.71168423   -4.3011229    1957.8525  0.048399399  0.048460727            8 
 3372000    0.7272116   -4.3185389    1960.7404  0.048456416  0.048449976            7 
 3373000   0.70368859   -4.3272674    1956.1911  0.048329655  0.048439284           30 
 3374000   0.69841936    -4.294743    1955.4925  0.048298075  0.048428535            5 
 3375000   0.71244192   -4.3133426    1959.0088  0.048370587  0.048417827            5 
 3376000   0.70694092   -4.3179632    1958.1312  0.048334596   0.04840709            9 
 3377000   0.71292552   -4.3045035    1953.7294  0.048211663  0.048396358            7 
 3378000   0.70633601   -4.3148956    1957.9197  0.048300762  0.048385594            4 
 3379000   0.70266769   -4.2966684    1960.7529   0.04835634  0.048374788            7 
 3380000   0.70667868   -4.2980523    1954.7678  0.048194473  0.048364022           10 
 3381000   0.69921135   -4.3177818    1957.6258   0.04825066  0.048353313           10 
 3382000   0.68269362   -4.2976906    1957.2419  0.048226934  0.048342401            7 
 3383000   0.69306067   -4.2999906    1954.5438  0.048146216  0.048331545            6 
 3384000   0.72988043   -4.3295971     1946.998  0.047946167    0.0483207            8 
 3385000   0.70378023   -4.2987251      1955.86  0.048150173  0.048309812            5 
 3386000   0.70587432   -4.3165648    1961.7464  0.048280824  0.048298901            5 
 3387000   0.70308133   -4.2912038    1958.4356  0.048185111  0.048288077           10 
 3388000   0.70950842   -4.3045117    1957.8653  0.048156861  0.048277304            4 
 3389000   0.70975792   -4.3302594    1957.8226  0.048141599  0.048266461            8 
 3390000   0.71434555    -4.311536    1960.9215  0.048203576   0.04825552            4 
 3391000   0.71568443   -4.3248111    1958.4623  0.048128928  0.048244725           12 
 3392000   0.72744082   -4.3134003    1951.6607  0.047947639  0.048233813            7 
 3393000   0.70664299   -4.3006458    1959.7532  0.048132262  0.048222989            3 
 3394000   0.71528538   -4.3317705    1952.5814  0.047941992  0.048212105            7 
 3395000   0.69683507   -4.2957966    1959.6411  0.048101156  0.048201187            5 
 3396000   0.70931571   -4.3099216    1960.8699  0.048117145  0.048190272            5 
 3397000   0.71197543   -4.3266122    1950.7453  0.047854609  0.048179348           10 
 3398000    0.7035279   -4.3290359    1957.1953  0.047998708  0.048168423            8 
 3399000   0.69866937   -4.3181346    1955.5781  0.047944936   0.04815756            3 
 3400000   0.70068666    -4.325445    1953.4213  0.047877974  0.048146581            6 
 3401000   0.70673165   -4.3215671    1955.4402  0.047913364  0.048135618            7 
 3402000   0.71057563   -4.3297585    1959.2652  0.047992974  0.048124772            2 
 3403000    0.7084717   -4.3155621    1952.0527  0.047802251  0.048113806           17 
 3404000   0.69849141    -4.304425    1957.5635  0.047923118  0.048102895            7 
 3405000   0.72358333   -4.3232869     1951.599   0.04776307  0.048091951            8 
 3406000   0.72791814   -4.3027243    1958.7613  0.047924282  0.048081113            5 
 3407000   0.71770649    -4.334409    1958.6418  0.047907293  0.048070249           10 
 3408000   0.68821458   -4.3106211    1954.9655  0.047803342   0.04805935            6 
 3409000   0.70803815   -4.3052989    1956.9382  0.047837543  0.048048379            6 
 3410000   0.70951197   -4.3222655    1956.6873  0.047817382  0.048037509            5 
 3411000   0.69984453   -4.3155349     1959.671  0.047876259  0.048026651            8 
 3412000   0.69759156   -4.3226502     1959.313  0.047853482  0.048015776            5 
 3413000   0.70315083     -4.31567    1956.0848   0.04776064  0.048004865            9 
 3414000   0.71242072   -4.3137649    1961.5731  0.047880616  0.047993965            7 
 3415000   0.70082293    -4.307705    1955.6132  0.047721162  0.047983087            9 
 3416000   0.70724635   -4.2982712    1964.1346   0.04791507    0.0479722            6 
 3417000   0.70545401   -4.3131573    1963.7752  0.047892283  0.047961236            8 
 3418000   0.69762329   -4.3257239     1962.892  0.047856739  0.047950383            6 
 3419000    0.7007817   -4.3224813    1963.3693  0.047854375  0.047939381            3 
 3420000   0.70594902   -4.3195994    1960.2606  0.047764636  0.047928395            6 
 3421000   0.70813343   -4.3114158    1961.8055  0.047788305  0.047917465            7 
 3422000   0.70307158   -4.3247903    1960.0277  0.047731046  0.047906521            8 
 3423000   0.68347676   -4.3331635    1961.6756  0.047757222  0.047895688            4 
 3424000   0.71035867   -4.3297412    1963.4407  0.047786232  0.047884805            4 
 3425000   0.70351892   -4.3471507     1957.531  0.047628492  0.047873885            6 
 3426000   0.68966949   -4.3143193    1965.1577    0.0478001  0.047862916           10 
 3427000   0.69977684   -4.3461985    1961.5667   0.04769883  0.047851946            7 
 3428000   0.68768111   -4.3363438    1962.6351  0.047710888  0.047840942            3 
 3429000   0.72603427   -4.3230026    1959.0626  0.047610153  0.047829949            4 
 3430000   0.70902874   -4.3345254    1953.0084  0.047449184  0.047818991           11 
 3431000   0.71614651   -4.3253513    1960.9469  0.047628167  0.047808016            6 
 3432000   0.70686736   -4.3410988    1965.2947  0.047719859  0.047797131            4 
 3433000   0.69980874   -4.3281209    1953.0026  0.047407578  0.047786262            7 
 3434000   0.69771965   -4.3085571    1967.9069  0.047755457   0.04777526           11 
 3435000   0.69547833   -4.3351308    1961.2343  0.047579678  0.047764342           10 
 3436000   0.71960668   -4.3191368    1963.1113  0.047611353  0.047753373            5 
 3437000   0.70805012   -4.3193304    1955.4293  0.047411242  0.047742415           12 
 3438000   0.70439504   -4.3325428    1959.3174  0.047491695  0.047731419            5 
 3439000    0.7070748      -4.3275    1957.6346   0.04743711   0.04772049            4 
 3440000   0.70624056   -4.3091254    1960.4268  0.047490958  0.047709538            7 
 3441000   0.67620659   -4.3233397    1960.4607  0.047477978  0.047698566            7 
 3442000   0.70149466    -4.327381    1962.7579  0.047519801  0.047687615            7 
 3443000   0.69025123   -4.3156076    1966.2019  0.047589357  0.047676659            6 
 3444000    0.6958369   -4.3346817    1959.9834  0.047425071  0.047665671            9 
 3445000   0.70610267   -4.3258252    1963.5263  0.047497008  0.047654704            7 
 3446000   0.68464211   -4.3150402    1964.9709  0.047518158  0.047643807            5 
 3447000     0.695754   -4.3191034    1962.8858  0.047453965  0.047632844            6 
 3448000   0.68933124   -4.3144907    1957.4304  0.047308351  0.047621862            6 
 3449000   0.70495352   -4.3323863    1961.6344  0.047396212  0.047610919            7 
 3450000   0.69668959   -4.3402375     1958.017  0.047295096  0.047599951           13 
 3451000   0.68216394   -4.3135284    1959.6389  0.047320557  0.047589026            4 
 3452000   0.70236453   -4.3072354    1959.5493  0.047304685  0.047578083           10 
 3453000   0.69280292   -4.3264475    1956.5188  0.047217849  0.047567098            6 
 3454000    0.7071555   -4.3232282    1961.0642  0.047313844   0.04755618            5 
 3455000   0.69358986   -4.3410455     1963.619   0.04736177  0.047545285            7 
 3456000   0.70895921   -4.3236988    1964.9051  0.047379078  0.047534337           10 
 3457000   0.69801836   -4.3388361    1961.8601   0.04729197   0.04752341            6 
 3458000   0.69799254   -4.3567066    1956.8478  0.047157504  0.047512348            6 
 3459000   0.70718634    -4.317585    1964.5964  0.047330549  0.047501431            3 
 3460000   0.68937917   -4.3381623    1963.3777  0.047287516  0.047490438            8 
 3461000   0.69792382   -4.3391284    1960.9822  0.047216175  0.047479451            5 
 3462000   0.70602838   -4.3299572    1963.0327  0.047251893  0.047468441            4 
 3463000   0.68935829   -4.3451821    1961.7625  0.047207684  0.047457396            9 
 3464000   0.68534335    -4.328087    1956.4574  0.047066431  0.047446333            4 
 3465000   0.71225996   -4.3408756    1966.5783  0.047296255   0.04743531           11 
 3466000   0.69422323   -4.3367315    1960.9382  0.047147005  0.047424259            4 
 3467000   0.71985287   -4.3479475    1959.6402  0.047102207  0.047413248           14 
 3468000   0.69378847   -4.3397321    1963.7542   0.04718748  0.047402182           13 
 3469000   0.68701127   -4.3468401    1958.7132  0.047052781  0.047391133            6 
 3470000   0.69514988    -4.329739    1964.0416  0.047167185  0.047380095           10 
 3471000    0.7035908   -4.3201205    1965.5717  0.047190331  0.047369129            4 
 3472000   0.69461175   -4.3153567     1960.658  0.047058803  0.047358062           22 
 3473000    0.7067318   -4.3540619    1963.7966  0.047120563  0.047347048            4 
 3474000   0.68143053   -4.3386378    1963.7132  0.047104999  0.047336002           14 
 3475000   0.70694242   -4.3373273    1960.7483  0.047020342   0.04732495            5 
 3476000   0.67822069   -4.3550584    1967.8924  0.047178088  0.047313932            4 
 3477000    0.6942977   -4.3491578    1968.8005  0.047186283  0.047302969            6 
 3478000   0.68402757   -4.3417419     1959.882  0.046959028  0.047292012           13 
 3479000   0.69281665   -4.3342028    1964.8195  0.047063799   0.04728103           11 
 3480000   0.70358538    -4.336969    1964.2186  0.047035887   0.04727013            6 
 3481000   0.71152717    -4.365133     1963.102  0.046995643   0.04725913            8 
 3482000   0.68422064   -4.3071018    1967.1728  0.047079572  0.047248178            5 
 3483000   0.69955122    -4.362126    1961.0801  0.046920281  0.047237196            8 
 3484000    0.6946751   -4.3470215    1956.9825  0.046808804  0.047226178            9 
 3485000   0.68772574   -4.3392113    1965.2716  0.046993581  0.047215123            5 
 3486000   0.68188459   -4.3466276    1965.6343  0.046988771  0.047204079            9 
 3487000   0.67356657   -4.3402214    1968.1034  0.047034303  0.047193138            5 
 3488000   0.68957109   -4.3409939     1959.321  0.046810996  0.047182112            9 
 3489000   0.68942489   -4.3099292    1973.3046   0.04713157  0.047171069            7 
 3490000   0.69819048   -4.3581291    1962.1219  0.046851048  0.047160054            7 
 3491000   0.69020918   -4.3717279    1962.6788  0.046850921  0.047149028            7 
 3492000   0.70337197   -4.3597272    1963.8209   0.04686476  0.047138038            9 
 3493000   0.69211506   -4.3566005    1963.3056  0.046839049  0.047126978            2 
 3494000   0.70531357   -4.3534336      1966.26  0.046896108  0.047115969            6 
 3495000   0.69340692   -4.3408836    1964.9687    0.0468519  0.047105043           10 
 3496000   0.69180746   -4.3433867    1971.3543   0.04699071  0.047094148            5 
 3497000   0.68405798   -4.3474857    1964.8142  0.046821423  0.047083212            7 
 3498000   0.70309082   -4.3664057    1959.8674  0.046690189  0.047072231            6 
 3499000   0.70629815   -4.3528568    1967.4581  0.046857628  0.047061297            4 
 3500000   0.68583035   -4.3531506    1968.8577  0.046877564   0.04705044            5 
 3501000    0.6805734   -4.3527182    1964.9593  0.046771383  0.047039435           13 
 3502000   0.68862744   -4.3452544    1965.8193  0.046778492  0.047028502            7 
 3503000   0.69388728   -4.3270091    1969.2183  0.046845996    0.0470176            9 
 3504000   0.68595185   -4.3557013    1972.2816  0.046905479  0.047006742           13 
 3505000   0.70126189   -4.3496407    1965.7707  0.046737297  0.046995744           11 
 3506000   0.68727782   -4.3441581    1972.5132  0.046884228  0.046984757            9 
 3507000   0.67983899   -4.3830278    1966.4801  0.046727499   0.04697385            5 
 3508000   0.69707277   -4.3828728    1965.3405  0.046687108  0.046962952           17 
 3509000   0.68168786   -4.3308142    1971.7708  0.046826512  0.046952103            7 
 3510000   0.69140851   -4.3348529    1975.1946  0.046894459  0.046941252            7 
 3511000   0.69189256   -4.3418683    1973.8329  0.046848783  0.046930474            3 
 3512000   0.68792954   -4.3587452     1975.225  0.046868475   0.04691965            5 
 3513000   0.70148881   -4.3447295    1969.1612  0.046711292  0.046908845           10 
 3514000   0.69653237   -4.3452987    1972.1759  0.046769492  0.046897987            5 
 3515000   0.67249018   -4.3640817     1967.809  0.046652656  0.046887075           11 
 3516000   0.67158922   -4.3550244     1968.282  0.046650598  0.046876188            8 
 3517000   0.70121942   -4.3466827    1973.3665  0.046757808  0.046865358            5 
 3518000   0.69561536   -4.3497979    1966.0282  0.046570689  0.046854529            7 
 3519000   0.69915113   -4.3404736    1975.0677  0.046771519   0.04684371           13 
 3520000   0.68672206   -4.3211378    1978.1181  0.046830446  0.046832829            5 
 3521000   0.69671425   -4.3141542    1978.2433   0.04682011  0.046822035           13 
 3522000   0.69073147   -4.3365204    1973.7638  0.046700827   0.04681125            6 
 3523000   0.67778675   -4.3490695    1975.3864  0.046725953  0.046800386            6 
 3524000   0.69240471   -4.3364991    1974.0392  0.046680837  0.046789576            6 
 3525000   0.68252644   -4.3265376    1973.2795  0.046649635  0.046778644            4 
 3526000   0.69046381   -4.3400788    1972.3454  0.046614326  0.046767825           14 
 3527000   0.68211229   -4.3510055     1970.568  0.046559114  0.046756984            6 
 3528000   0.66497567   -4.3424859    1974.7048  0.046643633  0.046746117            7 
 3529000   0.67682508   -4.3483726    1975.1053  0.046639873  0.046735337            4 
 3530000    0.6739784   -4.3439445    1965.9005  0.046409361  0.046724526           11 
 3531000   0.70395113   -4.3513554    1974.6397  0.046602465  0.046713617            8 
 3532000   0.68216994   -4.3753523    1975.9586   0.04662039  0.046702758            7 
 3533000   0.69357119    -4.349888    1971.9625  0.046512938  0.046691904            5 
 3534000   0.67638962   -4.3532592    1974.0091  0.046548035  0.046681056           10 
 3535000   0.68175835   -4.3692885    1972.0302  0.046488218  0.046670154            5 
 3536000   0.69278267   -4.3652289     1975.844  0.046564951  0.046659338            7 
 3537000   0.68446968   -4.3701475    1971.1012  0.046440044   0.04664846           12 
 3538000   0.68185905   -4.3707403    1972.0194  0.046448545   0.04663752            9 
 3539000   0.69454927   -4.3672856    1970.3881  0.046397007   0.04662668            8 
 3540000   0.68662401   -4.3613213     1973.625  0.046460099  0.046615807            5 
 3541000   0.69585775    -4.369636    1969.4674  0.046349134   0.04660493            9 
 3542000   0.68170707   -4.3988971    1970.5799  0.046362221  0.046593932           13 
 3543000   0.68227965    -4.362869    1974.4412  0.046439957  0.046583018            6 
 3544000   0.68461356   -4.3480484    1976.5187  0.046475704  0.046572175           12 
 3545000   0.69618953    -4.367165    1975.8736  0.046447428  0.046561348            7 
 3546000   0.69265552   -4.3635343    1968.7827   0.04626769  0.046550492           10 
 3547000   0.68667311   -4.3861425    1970.7169  0.046300088  0.046539602            7 
 3548000   0.69008147    -4.358729    1977.9533  0.046457002  0.046528706            5 
 3549000   0.67368435   -4.3634449    1974.6099  0.046365405  0.046517821            6 
 3550000   0.69057622   -4.3427857    1976.6513  0.046400265   0.04650702            8 
 3551000   0.68938559   -4.3413627    1980.5703  0.046479167  0.046496153            5 
 3552000   0.69440911   -4.3589468    1975.3947  0.046344659  0.046485308           10 
 3553000    0.6846498   -4.3755236    1971.3423  0.046236567  0.046474465            9 
 3554000   0.67790584   -4.3724372    1974.8688  0.046306247  0.046463554            8 
 3555000   0.68620636   -4.3595573    1974.1333   0.04627598   0.04645269           10 
 3556000   0.66983699   -4.3903186    1970.7909  0.046184639  0.046441713            9 
 3557000    0.6736666   -4.4046603    1975.1892  0.046274697  0.046430709            6 
 3558000   0.68355702   -4.3734867    1974.1631   0.04623766  0.046419754            4 
 3559000   0.68404116    -4.383608    1970.5071  0.046139063  0.046408845            6 
 3560000   0.70050311   -4.3461417    1978.3396  0.046309447  0.046397893            6 
 3561000   0.68033149   -4.3560222    1975.1852  0.046222624  0.046386997            2 
 3562000   0.69557547   -4.3543458     1975.406  0.046214815   0.04637605            3 
 3563000   0.68391044   -4.3571795    1974.1591   0.04617268  0.046365146           18 
 3564000   0.68422886   -4.3574791    1976.3106  0.046210031  0.046354186           11 
 3565000   0.68822267   -4.3789411    1969.0262  0.046026792  0.046343246           11 
 3566000   0.68199736   -4.3480878    1971.6042   0.04607413   0.04633233           10 
 3567000   0.67753016    -4.391932    1973.5719  0.046107185  0.046321441            8 
 3568000   0.69563457   -4.3989936    1969.0335  0.045988263  0.046310431            9 
 3569000   0.68956893   -4.3799983     1968.607   0.04596542  0.046299421           16 
 3570000   0.68041662   -4.3692645    1974.6973  0.046094709  0.046288402           13 
 3571000   0.68402858   -4.3603195    1973.2401  0.046047795  0.046277414           10 
 3572000   0.66902485   -4.3690293    1980.9092  0.046213821  0.046266495            4 
 3573000   0.67721662   -4.3779602    1969.8787   0.04594362  0.046255419            7 
 3574000   0.68255341   -4.3451765    1980.6504  0.046181926  0.046244518            9 
 3575000    0.6950018   -4.3454927    1973.5361  0.046003173  0.046233627            6 
 3576000   0.70349379   -4.3602162    1971.8288  0.045950522  0.046222681           12 
 3577000   0.68177452   -4.3794606    1973.1438  0.045968311  0.046211663            6 
 3578000    0.6790232   -4.3584817    1977.5842  0.046058883  0.046200782           16 
 3579000   0.68367529   -4.3653373    1973.2714  0.045945594  0.046189872            3 
 3580000   0.67782936    -4.379439    1974.6962  0.045965926  0.046178927            6 
 3581000   0.66695944   -4.3821758    1977.6557  0.046021962  0.046167995            7 
 3582000    0.6738896   -4.3733996    1979.8613  0.046060424  0.046157125            6 
 3583000   0.67781256   -4.3821523    1971.3767  0.045850234  0.046146241            3 
 3584000   0.66903342   -4.3797821    1975.7975  0.045940231  0.046135406           10 
 3585000   0.68638946   -4.3728996    1979.2907  0.046008618  0.046124567            7 
 3586000   0.68488184   -4.3667534    1972.2725  0.045832695  0.046113677           15 
 3587000   0.68368882   -4.3937173    1973.1797  0.045840992  0.046102742           10 
 3588000   0.68731616   -4.3964352    1975.0041  0.045870588  0.046091731            9 
 3589000   0.67180632   -4.3917907    1973.6857  0.045827197  0.046080827           11 
 3590000   0.67065755   -4.3667957    1977.1484  0.045894809   0.04606993           12 
 3591000   0.67301565   -4.3677464     1979.286  0.045931635  0.046059026            7 
 3592000   0.67105173   -4.3893066    1977.2012  0.045870482  0.046048117           11 
 3593000   0.68217598   -4.3836221     1979.199  0.045904049  0.046037267            9 
 3594000   0.69474407    -4.374734    1975.8288  0.045813133  0.046026368            8 
 3595000   0.68238298   -4.3633135    1981.7507   0.04593766   0.04601542            4 
 3596000   0.66016376   -4.3657168    1974.6071  0.045759341  0.046004588           11 
 3597000    0.6864196   -4.3646023    1981.3875  0.045903705  0.045993731           18 
 3598000    0.6690049   -4.3849477    1982.9363  0.045926818  0.045982879           10 
 3599000   0.67551999   -4.3795781    1982.5115  0.045904222  0.045971993           10 
 3600000   0.67111048   -4.3679878    1979.5777  0.045823557  0.045961162            5 
 3601000   0.67957986   -4.3741749    1977.3575  0.045759452  0.045950272            4 
 3602000   0.67462981   -4.3718807    1978.1744   0.04576565  0.045939285            6 
 3603000   0.65968914   -4.3680734    1978.2057  0.045753671  0.045928367            3 
 3604000   0.67952145   -4.4077615     1977.917    0.0457343  0.045917479            4 
 3605000    0.6777109   -4.3665215    1978.8278  0.045742668  0.045906586            7 
 3606000   0.67777012   -4.3852644    1985.4327   0.04588262  0.045895669            5 
 3607000   0.68614101    -4.381607     1978.406   0.04570756   0.04588478            7 
 3608000   0.68310274   -4.3875084    1975.7042  0.045632489  0.045873853            9 
 3609000   0.68270671   -4.3841333    1974.5363  0.045592877  0.045862862            8 
 3610000   0.67612058   -4.3843213    1973.4462  0.045555083   0.04585191           10 
 3611000   0.68122683   -4.3868017    1975.2457  0.045583995  0.045840956            8 
 3612000    0.6878747   -4.3871505    1980.2763  0.045687437  0.045830039            9 
 3613000   0.68231807   -4.3998966     1975.778  0.045571041  0.045819109            5 
 3614000   0.66420065    -4.388118    1983.8193   0.04574385  0.045808168            3 
 3615000   0.67375641   -4.3592834    1981.5799  0.045679573   0.04579728            5 
 3616000   0.68030537   -4.3854662    1980.0135  0.045630842  0.045786448            9 
 3617000   0.66789618   -4.3822333    1977.1409  0.045552044  0.045775573           13 
 3618000   0.68908214      -4.3741    1981.8953  0.045648962  0.045764632            3 
 3619000    0.6699081   -4.3837467    1983.5898  0.045675367  0.045753757           11 
 3620000   0.67791559   -4.3775371     1976.079  0.045489848   0.04574287            8 
 3621000   0.66326129   -4.3674678    1982.1129  0.045616149  0.045732008            9 
 3622000   0.66156384   -4.3714932    1982.9469  0.045622743  0.045721196            9 
 3623000   0.67629686   -4.3858756    1972.5516  0.045371047   0.04571029            4 
 3624000   0.67606811   -4.3870542    1982.6487  0.045590707  0.045699376            9 
 3625000   0.67692601   -4.3855329     1978.588  0.045484782  0.045688537            7 
 3626000   0.67130267   -4.4013759    1977.6298  0.045450216  0.045677602            6 
 3627000   0.67399642   -4.3995964    1977.0888  0.045425256  0.045666752            8 
 3628000   0.67444578   -4.3951816    1979.9626  0.045478745  0.045655865            8 
 3629000     0.665361   -4.3735933    1981.3968  0.045499146  0.045644991            9 
 3630000   0.67167186   -4.3909486    1981.1971  0.045482028  0.045633991           16 
 3631000   0.66106333   -4.3698351    1985.4371  0.045566811  0.045623028            5 
 3632000   0.68078195   -4.3713968    1985.7321  0.045561033  0.045612153           10 
 3633000   0.67638917    -4.399776    1979.3276  0.045401588  0.045601249            5 
 3634000   0.66567275   -4.3930294    1982.6428  0.045465116  0.045590371            4 
 3635000   0.66820762   -4.3728352    1977.8481  0.045342689  0.045579519            5 
 3636000   0.65735736   -4.3764711     1986.098  0.045519299  0.045568703            8 
 3637000   0.65813138   -4.4289458    1970.4561  0.045148384  0.045557787            6 
 3638000   0.67978759   -4.3965365    1980.3619   0.04536288  0.045546789            7 
 3639000    0.6732116   -4.3869258    1979.4091  0.045328596  0.045535839            7 
 3640000   0.69613627   -4.4013149     1975.718  0.045231639  0.045524944            9 
 3641000   0.66553551    -4.390251    1981.9678   0.04536226  0.045513994            7 
 3642000   0.67472767   -4.4114259    1980.6731  0.045320179  0.045502995            7 
 3643000   0.67911607   -4.4173304     1976.695  0.045216741  0.045491902           12 
 3644000    0.6776443   -4.3809776     1986.073  0.045418792  0.045480886            7 
 3645000    0.6703265   -4.3726881    1978.9091  0.045242549  0.045469947            5 
 3646000   0.66568341   -4.3982293    1981.3228  0.045285308  0.045459062            5 
 3647000   0.66435813   -4.4002642    1979.1453  0.045223136   0.04544811           10 
 3648000   0.68089943   -4.3898473    1972.7311  0.045064215  0.045437224            8 
 3649000   0.65409056   -4.3907067    1983.6905  0.045302149    0.0454263           12 
 3650000   0.67512874   -4.3812621    1985.2125  0.045324487   0.04541533            8 
 3651000   0.67349751   -4.3967031    1975.6844  0.045094596   0.04540433           19 
 3652000   0.65351882   -4.3628373    1981.9161  0.045224446  0.045393395            7 
 3653000   0.66801094   -4.3873457     1975.683  0.045069875  0.045382499            5 
 3654000   0.67876281   -4.3818532    1979.6419  0.045147827  0.045371581            4 
 3655000    0.6727561   -4.4066349    1980.6689  0.045158891  0.045360675            4 
 3656000    0.6764663   -4.3830742     1981.478   0.04516498  0.045349779            9 
 3657000   0.66512913   -4.3990435     1985.172  0.045236806   0.04533883            5 
 3658000   0.67610677   -4.3886878    1984.9602  0.045219614   0.04532793            5 
 3659000   0.66749167   -4.3988096    1982.3576  0.045147982  0.045317079            7 
 3660000     0.675675   -4.3882156    1979.8776  0.045079181  0.045306213            9 
 3661000   0.66897772   -4.3973141    1982.7432  0.045132095  0.045295309            3 
 3662000   0.67685644   -4.3937473    1990.7378  0.045301697  0.045284486            5 
 3663000    0.6719662   -4.3683715    1987.0812  0.045206143  0.045273664           10 
 3664000   0.66742061   -4.3957497    1987.8195  0.045210596  0.045262834            3 
 3665000    0.6631664    -4.397917    1983.0917  0.045090763  0.045252073            5 
 3666000   0.66507634   -4.4261477    1982.7802  0.045071381  0.045241173            6 
 3667000   0.66218524   -4.3962239    1986.8954  0.045152609  0.045230316           10 
 3668000   0.65490471   -4.3889881    1981.0723  0.045008004   0.04521952            8 
 3669000   0.67003599   -4.4123761    1984.4119  0.045071589  0.045208736            8 
 3670000   0.67495285   -4.3964363     1982.935  0.045025771  0.045197919           17 
 3671000    0.6545495   -4.3873065    1991.1013  0.045198885  0.045187084            7 
 3672000   0.66138255   -4.3943387    1988.7098  0.045132304  0.045176314            9 
 3673000   0.65433647   -4.3841057    1989.0879  0.045128595  0.045165555            7 
 3674000   0.67816612   -4.4083313    1980.6021  0.044923836   0.04515471           10 
 3675000   0.66225156   -4.4153011    1983.8113  0.044984384  0.045143965            6 
 3676000   0.66288085   -4.3837428      1985.29  0.045005668  0.045133168            6 
 3677000   0.66353405   -4.3895824    1988.0338  0.045055611    0.0451224            4 
 3678000   0.66046517   -4.4077515    1989.5684  0.045078131  0.045111677            7 
 3679000   0.66574421   -4.4292718    1985.6964  0.044978174  0.045100939            6 
 3680000   0.65165452   -4.3819448    1988.0155  0.045018467  0.045090159            6 
 3681000   0.65783059   -4.4196333    1983.1202  0.044895412  0.045079331            6 
 3682000   0.65678789   -4.4021225    1984.1153  0.044905741  0.045068629            4 
 3683000   0.66298902   -4.3983454    1996.1122  0.045164997  0.045057944            9 
 3684000   0.65318684    -4.413981    1982.2213  0.044838521  0.045047196           11 
 3685000   0.66220231   -4.4194569    1987.7124  0.044950528  0.045036412           12 
 3686000   0.64373421   -4.4032458    1983.5519  0.044844272   0.04502564            7 
 3687000   0.67038857   -4.4004537    1982.8656  0.044816598  0.045014919            5 
 3688000    0.6652057   -4.3972616    1985.8793  0.044872544   0.04500417            6 
 3689000   0.66407924   -4.3960364    1990.4389   0.04496338  0.044993351           19 
 3690000   0.66286239   -4.3857311    1995.8125   0.04507255  0.044982661            5 
 3691000   0.66090174   -4.4142435    1986.9061  0.044859255  0.044971993            3 
 3692000   0.66363854   -4.3979071    1988.4754  0.044882526  0.044961319            9 
 3693000    0.6591063   -4.4072479    1987.5789  0.044850143  0.044950579            6 
 3694000   0.65341858   -4.4192901     1988.873  0.044867194  0.044939781            8 
 3695000   0.65938163   -4.3900934    1986.1386  0.044793382  0.044929009            9 
 3696000   0.66318464   -4.4239116    1989.5814  0.044858887   0.04491823            6 
 3697000   0.67177891   -4.4111493    1981.2762  0.044659547  0.044907445           10 
 3698000   0.65803429   -4.4350454    1984.8131  0.044727174  0.044896625           11 
 3699000   0.67013036   -4.3584269    1995.1586  0.044948153  0.044885848           12 
 3700000   0.65145249   -4.4171541    1987.5274  0.044764131  0.044875087            6 
 3701000   0.65988251   -4.4105612    1984.9544    0.0446941  0.044864287           12 
 3702000   0.64787886   -4.4183813    1988.7194  0.044766779  0.044853439            4 
 3703000   0.66609456   -4.4127817    1987.6987   0.04473172   0.04484266            8 
 3704000   0.65210227   -4.3930161    1984.6073  0.044650093  0.044831916           19 
 3705000   0.64996828   -4.4378974    1983.6511  0.044616534  0.044821132            8 
 3706000   0.66089298   -4.4064165    1990.3374  0.044754844   0.04481032           10 
 3707000   0.65263154   -4.4102865    1988.4715  0.044700824   0.04479955            5 
 3708000   0.65033165   -4.3881057    1990.7062  0.044738993  0.044788832           12 
 3709000   0.64979417   -4.3948383      1995.05  0.044824527  0.044778131           10 
 3710000   0.65314108   -4.4198836    1989.6046  0.044690131  0.044767384            6 
 3711000   0.66285432   -4.4237129    1992.0675  0.044733394  0.044756683           14 
 3712000   0.65882643   -4.4109552    1998.4917  0.044865565  0.044745925           14 
 3713000   0.66165694   -4.4223227    1988.4165  0.044627355  0.044735212           11 
 3714000    0.6798192   -4.4406608    1993.1567    0.0447217   0.04472447           11 
 3715000   0.66223827   -4.4197451    1991.1147  0.044663856  0.044713772            8 
 3716000   0.65443573   -4.4036484    1993.9743  0.044715965  0.044703171           10 
 3717000    0.6701886   -4.4317733    1994.7773  0.044721937  0.044692518           13 
 3718000   0.65800207   -4.3973683    1997.5552  0.044772172  0.044681868           15 
 3719000   0.66747062   -4.4174332    1992.5888  0.044648849  0.044671235           13 
 3720000   0.66200291   -4.4069961    1994.7744  0.044685808  0.044660602            6 
 3721000   0.66084244   -4.4226292    1990.9698  0.044588592  0.044649936            9 
 3722000   0.67308796   -4.4021455    1992.1917  0.044603969  0.044639321            4 
 3723000   0.64012546    -4.418811     1984.909  0.044428977  0.044628654            4 
 3724000    0.6509564    -4.422054    1993.7209  0.044614234  0.044618047            8 
 3725000   0.65300714   -4.4339431    1993.7292  0.044602443  0.044607458            6 
 3726000   0.65557037   -4.4015471    1995.6614  0.044633686  0.044596922            8 
 3727000   0.65459972   -4.4174532    1995.6683  0.044621864  0.044586292            7 
 3728000   0.64408485   -4.4090245    1989.5458  0.044473037  0.044575631           12 
 3729000   0.65526518   -4.4191733    1993.9741  0.044560072   0.04456506            7 
 3730000   0.65591373    -4.417541    1995.8314  0.044589621  0.044554487            9 
 3731000   0.66931438   -4.4129688    1994.0359  0.044537565  0.044543882            8 
 3732000   0.65743203   -4.4263145    1991.8274  0.044476317  0.044533293           11 
 3733000   0.65746118   -4.4138312    1998.8209  0.044620522  0.044522729           11 
 3734000   0.64565592    -4.427265    1993.8442  0.044497504  0.044512171           18 
 3735000    0.6456528   -4.4178756    1998.3501  0.044586124  0.044501635            7 
 3736000   0.64129029   -4.3985207    1998.1899  0.044570618  0.044491147            5 
 3737000   0.66165284   -4.4108458    1999.6981  0.044592321  0.044480712           14 
 3738000   0.65458712   -4.4209365    1996.6582  0.044512623  0.044470177            4 
 3739000   0.66030557   -4.4077484    1996.8169  0.044504255   0.04445973           15 
 3740000   0.65147826   -4.4206822    1991.8621  0.044381955  0.044449147            6 
 3741000    0.6582668   -4.4393523    1993.6672    0.0444103  0.044438517            8 
 3742000   0.65324419   -4.4386846    1997.3831  0.044481184  0.044427871            6 
 3743000   0.65461108   -4.4248489    1996.7165   0.04445446  0.044417215            7 
 3744000   0.65042615    -4.432815    2000.2198  0.044520563  0.044406619            7 
 3745000   0.63385834    -4.404026    1990.8031  0.044299135  0.044396094            5 
 3746000   0.66072251   -4.4127091    1994.7615  0.044375367  0.044385524           12 
 3747000   0.64561201   -4.4155793    2002.2118  0.044529219  0.044374966            6 
 3748000   0.65822044   -4.4476208    1998.5448  0.044435805  0.044364459           11 
 3749000   0.65237082   -4.4177909    1999.8216  0.044452334   0.04435399            6 
 3750000   0.64582847   -4.4189628    1998.9638  0.044421418  0.044343487            6 
 3751000   0.66190306   -4.4274879     2000.688  0.044447882  0.044332989           17 
 3752000   0.64155522   -4.4001364    1999.3568  0.044406468  0.044322468            9 
 3753000   0.65351748   -4.4216473    2001.2508  0.044436691  0.044311984            6 
 3754000   0.66329619   -4.4461262    1993.7859  0.044259144  0.044301419           20 
 3755000   0.64620097   -4.4262228    1998.6859  0.044356101  0.044290851            8 
 3756000   0.65296379   -4.4351974    1998.8314  0.044347519  0.044280294            8 
 3757000   0.64999704   -4.4265121    2000.1848  0.044365735  0.044269753            9 
 3758000   0.65450957   -4.4516194     1996.168  0.044264856  0.044259197            9 
 3759000   0.64108129   -4.4190692    2002.5838  0.044395314  0.044248723            6 
 3760000   0.65340273   -4.4471816    1997.2922  0.044266229  0.044238149           11 
 3761000   0.65413982   -4.4357483    1998.3483  0.044277858  0.044227676            7 
 3762000   0.63429424   -4.4256171    2003.0995  0.044371334  0.044217162            6 
 3763000   0.64552261   -4.4310432    1994.8072  0.044175905   0.04420663            4 
 3764000   0.65986177   -4.4324492    2002.1597   0.04432695  0.044196121           12 
 3765000   0.64524415   -4.4463077    1995.4858  0.044167459  0.044185598            5 
 3766000   0.65176179   -4.4245307     1999.232  0.044238627   0.04417509           10 
 3767000   0.66246293   -4.4318369    1999.0684  0.044223263  0.044164588            9 
 3768000   0.64983737   -4.4112853    1998.0116  0.044188154  0.044154024            8 
 3769000   0.66534368   -4.4351325    2002.0102  0.044264841  0.044143514            8 
 3770000    0.6467548    -4.410547    1993.6584  0.044068488  0.044133023            3 
 3771000   0.64428212   -4.4315197     2001.999  0.044241117   0.04412253           10 
 3772000   0.65432863   -4.4375885    1998.4931  0.044151933  0.044112012            6 
 3773000   0.65479515   -4.4477068    2003.3929  0.044248453  0.044101552           12 
 3774000    0.6481151   -4.4360322    2004.4108  0.044259203  0.044091096           16 
 3775000   0.64143885   -4.4085293    2002.1395  0.044197341   0.04408066           10 
 3776000   0.64778774   -4.4197696    2001.1366  0.044163502  0.044070217            9 
 3777000   0.65910949   -4.4220776    2001.1158  0.044151351  0.044059702            4 
 3778000   0.63482082    -4.423629    1999.6893  0.044108199  0.044049246           10 
 3779000   0.64533523   -4.4227052    2005.5217   0.04422514  0.044038826            8 
 3780000   0.64758429   -4.4227352    2000.5508  0.044103853  0.044028368           10 
 3781000   0.64679293   -4.4267255    2002.6214  0.044137825  0.044017901           10 
 3782000   0.66977723   -4.4290381    2002.3485  0.044120142  0.044007448            9 
 3783000   0.65453383   -4.4275345    2001.8737   0.04409802  0.043997067            4 
 3784000   0.65004562   -4.4127741    2011.3892  0.044295922  0.043986651            7 
 3785000   0.64461949   -4.4505498    1998.0314  0.043990123  0.043976226            3 
 3786000   0.64859256   -4.4196978      2002.99  0.044087648  0.043965823            5 
 3787000   0.63816277   -4.4377228    2002.2482  0.044059683  0.043955407           18 
 3788000   0.64941976   -4.4407071    1999.0632  0.043977983  0.043945036           11 
 3789000    0.6384009   -4.4326956    2004.4649  0.044085179  0.043934569           14 
 3790000   0.63409781   -4.4391604    2003.6442  0.044055501  0.043924024           12 
 3791000    0.6353214   -4.4488259     2005.255  0.044079289  0.043913479           16 
 3792000   0.65984852    -4.427005    1996.6331  0.043878188  0.043902984            6 
 3793000   0.64090836   -4.4052324    2003.6532  0.044020853  0.043892518           18 
 3794000    0.6428246    -4.416833    2003.2104  0.043999527  0.043882094            9 
 3795000   0.65597983   -4.4317874    2006.7668  0.044066025  0.043871568            7 
 3796000   0.64173281   -4.4442769    2000.2805  0.043912023  0.043860992            8 
 3797000   0.65040817   -4.4341079    2000.5557  0.043906498  0.043850401            9 
 3798000    0.6378218   -4.4298642    2001.0639  0.043906089   0.04383987            6 
 3799000    0.6551493   -4.4585314    1992.7152  0.043711398  0.043829362           17 
 3800000   0.65488702   -4.4565273    2000.5344  0.043871369  0.043818826           11 
 3801000   0.64709145   -4.4546416    2001.6005    0.0438832  0.043808272           17 
 3802000   0.64138876   -4.4550371    1998.5738  0.043805317  0.043797697           13 
 3803000    0.6463224   -4.4348191    2001.9366  0.043867487  0.043787221            7 
 3804000   0.64288782   -4.4453697    1997.4914  0.043758574   0.04377673           15 
 3805000   0.64432045   -4.4477787    2004.1095  0.043892016  0.043766141            5 
 3806000   0.65480402   -4.4411297    2003.3496  0.043863847  0.043755616            5 
 3807000   0.64689399   -4.4323871    2004.3761  0.043874794  0.043745064            5 
 3808000   0.65127873   -4.4306314    2004.3231  0.043862113  0.043734537           12 
 3809000   0.64379521   -4.4360946    2002.8587  0.043818559  0.043724066            3 
 3810000   0.63020723   -4.4486611    1998.0536  0.043701961  0.043713598            5 
 3811000    0.6483963   -4.4352959    2008.5515  0.043920045  0.043703165           12 
 3812000   0.64872016   -4.4485446    2003.3527  0.043794874  0.043692669            5 
 3813000   0.65461087   -4.4693385    2000.9298  0.043730436   0.04368216            7 
 3814000   0.64024833   -4.4558109    2005.8429  0.043826317  0.043671701            8 
 3815000   0.63730496   -4.4452302    2001.9163  0.043729059  0.043661206            6 
 3816000   0.63511112   -4.4619353    1999.6152  0.043667349  0.043650737            6 
 3817000   0.63834133   -4.4605557    2002.9191  0.043728039  0.043640237            8 
 3818000   0.63119253   -4.4406935    2007.7122  0.043821201  0.043629715            7 
 3819000   0.64576594   -4.4430816    2000.6741  0.043656152  0.043619234            6 
 3820000   0.63755061   -4.4396548    2000.1313  0.043632881  0.043608778            6 
 3821000   0.63876278   -4.4298731    2007.3044  0.043777902  0.043598251           10 
 3822000   0.63377995   -4.4537976    2004.6619  0.043708832   0.04358774           17 
 3823000   0.64219231   -4.4685301    2004.6202  0.043696491  0.043577208           17 
 3824000   0.64160891   -4.4343751    2002.5374  0.043639675   0.04356668           17 
 3825000   0.64110996   -4.4365275    2001.2805  0.043600881  0.043556195           11 
 3826000   0.62889433    -4.455418    2006.8154  0.043710042  0.043545721           14 
 3827000   0.64269475   -4.4368513    2007.5474  0.043714558  0.043535265           10 
 3828000   0.66120496   -4.4450193    2004.8311  0.043644007  0.043524803            8 
 3829000   0.63612482   -4.4229998    2008.3361   0.04370889   0.04351435            7 
 3830000   0.63292021   -4.4371437    2006.8542  0.043665234  0.043503908            9 
 3831000   0.63126885   -4.4500726    2001.9885  0.043547997  0.043493501            6 
 3832000   0.64107144   -4.4657237    2002.3031  0.043543474  0.043483113           12 
 3833000   0.63239206   -4.4312456    2003.0569  0.043548501  0.043472697           14 
 3834000   0.63866276   -4.4476288    2007.0775  0.043624533  0.043462285            9 
 3835000   0.64683365   -4.4299081    2009.7992  0.043672299  0.043451914            6 
 3836000   0.62390547    -4.455211     2005.862  0.043575382  0.043441512           12 
 3837000   0.64776848    -4.444286     2005.678  0.043560029  0.043431145           12 
 3838000     0.638095   -4.4497428    2005.3456  0.043541462  0.043420773           12 
 3839000   0.63865548   -4.4515063    2005.2399  0.043527826  0.043410426            6 
 3840000   0.63630552   -4.4348287     2012.547  0.043675065  0.043400085           17 
 3841000   0.63909035   -4.4636685    2006.9534  0.043542338  0.043389739           16 
 3842000   0.64924977   -4.4566222    2006.1786  0.043514197  0.043379288           10 
 3843000   0.64436664   -4.4537275    2003.4301  0.043443275  0.043368851            7 
 3844000   0.64003115   -4.4667441    2005.4713  0.043476224  0.043358415           22 
 3845000    0.6446056   -4.4451453    2003.8354  0.043429462   0.04334806            7 
 3846000   0.62535515   -4.4464142    2006.4858  0.043475597  0.043337635            8 
 3847000   0.64847682   -4.4389207    2003.9814  0.043410047  0.043327194            9 
 3848000   0.63904279   -4.4303207    2011.3585  0.043558527  0.043316851            4 
 3849000   0.62459597   -4.4451575    2005.6934  0.043424557  0.043306439           14 
 3850000   0.63348418   -4.4590676    2010.7023  0.043521694  0.043295994            8 
 3851000   0.62182438   -4.4591394    2006.3329  0.043415843  0.043285574            7 
 3852000   0.64436261   -4.4633745    2005.6024  0.043388768  0.043275126           17 
 3853000   0.62050962   -4.4609734    2011.7252  0.043509932  0.043264716            9 
 3854000   0.63150547   -4.4607465    2008.7883  0.043435139  0.043254319           11 
 3855000   0.63416407   -4.4733874    2006.3771  0.043371748  0.043243902            4 
 3856000   0.63799984   -4.4593175    2008.1011   0.04339776  0.043233436           12 
 3857000   0.63516345   -4.4557988    2010.2031  0.043431923  0.043223044           14 
 3858000   0.63847775   -4.4500184    2009.5914  0.043407452  0.043212688           10 
 3859000   0.63691859   -4.4492868    2006.5729   0.04333102  0.043202335           11 
 3860000   0.63981296   -4.4637467    2004.1647  0.043267804  0.043191994            8 
 3861000   0.63077375    -4.461594    2008.5986  0.043352296  0.043181608           10 
 3862000   0.62925632   -4.4764835    2007.7793  0.043323392  0.043171148           10 
 3863000   0.64070804   -4.4627133    2005.5392  0.043263853  0.043160748            8 
 3864000   0.64011565   -4.4630789    2007.5837  0.043296751  0.043150408            4 
 3865000   0.62862113   -4.4618211    2010.3685  0.043345591  0.043139981            9 
 3866000   0.63302193   -4.4718824    2007.3291  0.043268864  0.043129589            9 
 3867000   0.62123155   -4.4424033    2007.6961  0.043265582  0.043119187           13 
 3868000   0.63243454   -4.4701497    2007.4196  0.043248441  0.043108877           24 
 3869000   0.63306212   -4.4676763    2009.0614  0.043272624  0.043098479            7 
 3870000   0.63418036   -4.4512118    2007.8214  0.043234743  0.043088166           17 
 3871000   0.63404351   -4.4665721    2006.3118  0.043191075  0.043077801           16 
 3872000   0.62661564   -4.4630547     2010.478  0.043269584  0.043067459            6 
 3873000   0.63052815    -4.461034    2007.0453  0.043184553  0.043057079            9 
 3874000   0.62744405   -4.4493198    2010.0573  0.043238197  0.043046732            5 
 3875000   0.64345867    -4.464823    2012.9715   0.04328971  0.043036333           12 
 3876000   0.63871022   -4.4653214    2006.8358  0.043146624  0.043025935           13 
 3877000   0.63609203   -4.4762844    2008.8693  0.043179203  0.043015542            9 
 3878000   0.64024747     -4.45375    2010.7197  0.043207833  0.043005162            8 
 3879000   0.61925063   -4.4301105    2008.8727  0.043157015   0.04299483            6 
 3880000   0.62278702   -4.4704996    2011.2687  0.043197352  0.042984458           21 
 3881000   0.64252909   -4.4893971    2003.2179  0.043013354  0.042974068            8 
 3882000   0.63739924   -4.4500938    2006.7608  0.043078327  0.042963658            8 
 3883000   0.63866839   -4.4635509    2010.2276  0.043141635  0.042953253           12 
 3884000   0.63970169   -4.4669401    2005.5703  0.043030601  0.042942862            7 
 3885000   0.62398228   -4.4620487    2005.0024  0.043007344   0.04293248            9 
 3886000   0.63057406   -4.4670015     2009.332  0.043089124  0.042922051            5 
 3887000   0.62192651   -4.4756503    2010.8306  0.043110165  0.042911687            8 
 3888000   0.62987961   -4.4518917    2012.3544  0.043131739  0.042901326           20 
 3889000   0.62986396    -4.490335    2010.2496  0.043075546  0.042890955           10 
 3890000    0.6412555   -4.4710615     2008.548  0.043028021  0.042880562           14 
 3891000   0.63413758    -4.430025    2011.1547  0.043072791  0.042870159            8 
 3892000   0.63045789   -4.4605456    2012.5232  0.043091024  0.042859823            7 
 3893000   0.62106956   -4.4762522    2012.0346  0.043069496  0.042849465            9 
 3894000   0.62619752    -4.462299    2011.1451    0.0430394  0.042839096            6 
 3895000   0.62848687   -4.4768908    2007.2007   0.04294396  0.042828748           16 
 3896000   0.62760768   -4.4896694     2009.821  0.042988984  0.042818329            7 
 3897000   0.63851309   -4.4755683    2008.2915  0.042945246  0.042807929           15 
 3898000   0.62970827   -4.4632135    2007.0963  0.042908678  0.042797537            8 
 3899000   0.61235481    -4.467279    2007.9019  0.042914891  0.042787211            9 
 3900000   0.62453285    -4.462142    2010.9567   0.04296916  0.042776788           10 
 3901000   0.63305033   -4.4576237    2013.8786  0.043020562  0.042766441            8 
 3902000   0.62080334   -4.4745293    2011.2215  0.042952791  0.042756137            4 
 3903000   0.61565188   -4.4608018    2004.5633  0.042799627    0.0427458            6 
 3904000   0.62156806   -4.4608003     2012.226  0.042952228  0.042735466            8 
 3905000   0.61202449   -4.4854258    2014.9108  0.042998523  0.042725146            7 
 3906000   0.62332963   -4.4698853    2005.9918  0.042797232   0.04271478           10 
 3907000   0.60890073   -4.4932332    2008.0594  0.042830377  0.042704405           18 
 3908000   0.63776514   -4.4721992    2012.2619  0.042909031  0.042693988            8 
 3909000   0.62156958   -4.4662031    2012.2404  0.042897595  0.042683675            9 
 3910000   0.62901624   -4.4669142    2014.6011  0.042936937  0.042673356            7 
 3911000   0.63369315   -4.4739981     2015.275  0.042940319  0.042663083            6 
 3912000   0.63182886   -4.4723457      2004.66  0.042703221  0.042652763            8 
 3913000   0.63210345   -4.4918597    2004.5044  0.042688995  0.042642426            7 
 3914000   0.62806498   -4.4901503    2014.8204  0.042897727  0.042632119           15 
 3915000   0.62633885   -4.4872295    2011.8106  0.042822703  0.042621765           21 
 3916000   0.62170494   -4.4534642    2011.9751  0.042815269  0.042611421            7 
 3917000   0.63044748   -4.4724314     2011.899  0.042802719  0.042601145            9 
 3918000   0.62322411   -4.4905691    2014.8384  0.042854314  0.042590809           12 
 3919000   0.60794305   -4.4627707    2012.9196  0.042802578  0.042580504           14 
 3920000   0.62077054   -4.4828068    2014.7347  0.042830245  0.042570195           25 
 3921000   0.62472342   -4.4837219    2009.3696  0.042705297  0.042559892           12 
 3922000    0.6362785   -4.4923175    2010.9149  0.042727241  0.042549618           11 
 3923000   0.62078552   -4.4666644    2011.1065   0.04272042  0.042539328           10 
 3924000   0.62457527   -4.4547973    2014.6153  0.042784048  0.042529043            5 
 3925000    0.6214702   -4.4596176    2009.0807   0.04265564  0.042518776            9 
 3926000   0.62900718   -4.5003565    2005.6285  0.042571499  0.042508473            4 
 3927000   0.62714535   -4.4821888     2010.495  0.042663929  0.042498155            9 
 3928000    0.6203098   -4.4939805    2010.7508  0.042658494  0.042487857            9 
 3929000   0.60877283   -4.4764469    2010.8427  0.042649587  0.042477504            5 
 3930000   0.62820629   -4.4863868    2015.9513   0.04274706  0.042467189           10 
 3931000     0.626869   -4.4870207    2014.3985  0.042703267  0.042456803            5 
 3932000   0.62584252   -4.4967352    2010.6598   0.04261317  0.042446485           13 
 3933000   0.63558175   -4.4631695    2009.1102  0.042569501  0.042436085           13 
 3934000   0.61289265    -4.481058    2009.6602  0.042570331  0.042425696            9 
 3935000   0.61998899   -4.4623403    2010.2564   0.04257214  0.042415355            9 
 3936000    0.6169338   -4.4767755    2010.9574  0.042576165  0.042405065           12 
 3937000   0.61651438   -4.4919253    2009.5653  0.042535883  0.042394736            8 
 3938000   0.62390516   -4.4800981    2010.3067  0.042540771  0.042384461           12 
 3939000   0.62568952   -4.4874421     2015.878  0.042647838  0.042374144            6 
 3940000   0.62156677   -4.4893326    2012.1957  0.042559131   0.04236386            8 
 3941000   0.61268678   -4.4918091    2006.5283  0.042428493  0.042353516            6 
 3942000   0.63650759   -4.4848719    2014.3512  0.042583106  0.042343166            8 
 3943000   0.62240809   -4.4764296    2009.2604  0.042464714  0.042332859           15 
 3944000   0.62821709   -4.4792547    2012.7042  0.042526711  0.042322532           13 
 3945000   0.60606213   -4.4915503    2009.6336  0.042451068  0.042312194           12 
 3946000   0.61880436   -4.4749743    2013.6937  0.042526054  0.042301872           12 
 3947000   0.61831913   -4.5007152    2010.6142  0.042450261  0.042291522           10 
 3948000   0.61193201   -4.4879292    2014.5332   0.04252223  0.042281215            8 
 3949000   0.62032319   -4.4800271    2014.5451  0.042511713  0.042270905           13 
 3950000    0.6138621   -4.4838095    2010.3329  0.042412087  0.042260563           18 
 3951000   0.62172658   -4.4813672    2013.3737  0.042465488  0.042250242           14 
 3952000   0.60566196   -4.4739883    2018.7385  0.042567867  0.042239923           11 
 3953000   0.61530886   -4.5024326     2009.067  0.042353213  0.042229604           10 
 3954000   0.61750069   -4.4839676    2012.8403  0.042422026  0.042219256            9 
 3955000   0.60612483   -4.4671138    2013.3531  0.042422106  0.042208956           11 
 3956000   0.61319886   -4.4890018    2018.0057  0.042509389  0.042198674           13 
 3957000   0.61740382   -4.5023084     2016.369  0.042464177   0.04218838           12 
 3958000   0.62611578   -4.4716931    2017.2462  0.042471918  0.042178056           12 
 3959000   0.60441111   -4.4874927     2012.936  0.042370463  0.042167882           15 
 3960000   0.61157046   -4.4918623    2018.5272  0.042477424  0.042157648           10 
 3961000   0.62438322   -4.4859328     2012.454  0.042338929  0.042147454            7 
 3962000   0.61557845   -4.4613038    2016.7746  0.042419118  0.042137247           22 
 3963000   0.61107291   -4.4868519    2010.8811  0.042284487  0.042127009            4 
 3964000   0.61857392    -4.481953    2019.6533  0.042458234  0.042116707           14 
 3965000   0.62071967    -4.491419    2012.3124  0.042293241  0.042106413           18 
 3966000   0.62030349   -4.4938001     2016.672   0.04237418  0.042096143           11 
 3967000   0.61921175    -4.482951    2011.8636   0.04226249   0.04208585           18 
 3968000   0.62166689   -4.4875972    2014.8716  0.042315012  0.042075581            6 
 3969000   0.60681577   -4.4689713    2017.3683   0.04235677  0.042065306            9 
 3970000   0.62865384   -4.5010025     2017.751  0.042354135  0.042055081           10 
 3971000   0.63330803   -4.4830267    2010.9284  0.042200294  0.042044839            9 
 3972000   0.61894394   -4.4516592    2016.0507  0.042297137  0.042034618           10 
 3973000   0.60850374   -4.4819113    2017.9853  0.042327068  0.042024434            7 
 3974000   0.61881107   -4.4708536    2019.5071  0.042348329  0.042014178            7 
 3975000   0.61524035   -4.4769776    2010.4764  0.042148353  0.042003886            5 
 3976000   0.60114696   -4.4972684    2010.9335  0.042147332  0.041993574            7 
 3977000   0.61591478   -4.4842236    2012.1745  0.042162738   0.04198326           18 
 3978000   0.61288331   -4.4916714    2010.0693  0.042108037  0.041972965            9 
 3979000   0.61248017   -4.4981772    2016.6944  0.042236207   0.04196264            6 
 3980000   0.61106286   -4.4759578    2014.6162   0.04218208  0.041952286            8 
 3981000   0.60973651    -4.508084    2014.1732  0.042162211  0.041941973           13 
 3982000   0.62082851   -4.5129788    2009.1981  0.042047507  0.041931622           12 
 3983000   0.61176405   -4.5051877    2012.8228  0.042112788  0.041921303            5 
 3984000   0.61298095   -4.5117336    2012.1027  0.042087156  0.041910983           10 
 3985000   0.61453414    -4.487819    2016.9272  0.042177483  0.041900658           20 
 3986000   0.61863592   -4.4991599    2015.4116  0.042135215  0.041890346            8 
 3987000   0.61712925   -4.5153748    2007.9144  0.041967945  0.041880035           12 
 3988000   0.60399927   -4.5253528    2013.0867  0.042065503  0.041869677            9 
 3989000    0.6040574    -4.500747    2007.7183  0.041942808  0.041859331           10 
 3990000   0.60596319    -4.508206    2015.3489  0.042091665  0.041849005           21 
 3991000   0.61144698   -4.5048634    2015.7651  0.042089809  0.041838679           11 
 3992000   0.60906339   -4.5113526    2014.0842  0.042044175  0.041828398           12 
 3993000   0.60903974   -4.4886401    2018.5072  0.042125954  0.041818101           13 
 3994000    0.6165696   -4.5051456    2014.3336  0.042028326  0.041807776           10 
 3995000   0.61190575   -4.4923118    2019.4479  0.042124486  0.041797493            7 
 3996000   0.60820099   -4.5224041    2004.9669  0.041811956  0.041787184           16 
 3997000   0.61530522   -4.5430921    2008.4968   0.04187509  0.041776787           34 
 3998000   0.61734055   -4.5325602     2007.372   0.04184117  0.041766392            9 
 3999000   0.60815927   -4.4988898    2014.6475   0.04198232  0.041756049           16 
 4000000   0.61338067   -4.4941781    2012.4149   0.04192531  0.041745748           13 
 4001000   0.61648727   -4.5128225     2016.064  0.041990835  0.041735419            9 
 4002000   0.60689508   -4.5089827     2011.206  0.041879184  0.041725062            8 
 4003000   0.62500623    -4.517538    2014.8852  0.041945316  0.041714738           11 
 4004000   0.60701615   -4.4849527    2013.2726  0.041901277  0.041704385           12 
 4005000   0.61544508   -4.5068448    2015.1955  0.041930826  0.041694028            4 
 4006000   0.59959239   -4.5100058    2010.8084  0.041829098  0.041683691           13 
 4007000   0.60422396    -4.492563    2017.2204  0.041952009  0.041673391           13 
 4008000   0.61076273   -4.5137169    2009.6259  0.041783639  0.041663075           11 
 4009000   0.61433482    -4.497793    2010.4465  0.041790274  0.041652767            8 
 4010000   0.59077282   -4.4905809    2010.6105   0.04178326  0.041642418           14 
 4011000   0.60989778   -4.4928751     2014.569  0.041855085   0.04163206            5 
 4012000    0.6021982   -4.4857188    2011.0542  0.041771647  0.041621755           12 
 4013000   0.60799315   -4.5323783    2016.6243  0.041876906  0.041611469           15 
 4014000   0.61794136     -4.49683    2014.7106  0.041826743   0.04160115            6 
 4015000   0.62628354   -4.5123169    2010.3881  0.041726611  0.041590835           18 
 4016000   0.61796529   -4.5143574    2014.1433  0.041794143  0.041580508           10 
 4017000   0.61839371    -4.510633    2013.1434  0.041762995   0.04157021           17 
 4018000   0.60589012   -4.5236322    2012.8522  0.041746561  0.041559891           20 
 4019000   0.62060969   -4.5007839    2017.8476  0.041839754  0.041549648            8 
 4020000   0.60104708   -4.5209526    2015.3287   0.04177713  0.041539378           17 
 4021000   0.60654833   -4.5337365    2016.0518  0.041781725   0.04152907           13 
 4022000   0.61380791   -4.5234516    2013.3501   0.04171536  0.041518766            6 
 4023000   0.61222579   -4.5355808    2011.2423  0.041661328  0.041508396           10 
 4024000   0.61025739    -4.533068    2012.4744  0.041676491  0.041497986           16 
 4025000   0.60434278   -4.5194959       2018.6   0.04179296  0.041487678            7 
 4026000    0.6008789   -4.5356471    2011.6193  0.041638087  0.041477388           13 
 4027000   0.60410312   -4.5251286    2013.1784  0.041660012  0.041467096            9 
 4028000    0.6152506   -4.5284259    2014.4717  0.041676425  0.041456817            8 
 4029000    0.6014376   -4.5172192    2010.7077  0.041588228  0.041446491           12 
 4030000      0.61376   -4.5225553     2013.192   0.04162928  0.041436163           14 
 4031000    0.6016648   -4.4933906    2014.5077  0.041646152  0.041425888            6 
 4032000    0.6119088   -4.5139139    2020.8687  0.041767294  0.041415582            5 
 4033000   0.60967567   -4.5297842    2016.2407  0.041661308  0.041405269            8 
 4034000   0.60143074   -4.5377474    2011.7284  0.041557767  0.041394984            5 
 4035000   0.60906499   -4.5229739    2014.3782  0.041602194  0.041384679           22 
 4036000   0.60509586   -4.5116622    2013.4299  0.041572306  0.041374366            4 
 4037000   0.60572944   -4.5319623    2010.0814  0.041492887  0.041364008            8 
 4038000   0.61598432   -4.5304956    2017.5833   0.04163743   0.04135374            9 
 4039000   0.61124246   -4.5328613     2013.273   0.04153819  0.041343462           12 
 4040000   0.60253541   -4.5040075    2015.4776  0.041573383  0.041333147           10 
 4041000   0.60602574   -4.5054488     2015.192  0.041557204  0.041322822           23 
 4042000   0.58932808     -4.51144    2013.9346  0.041521001  0.041312532            5 
 4043000   0.60270997   -4.5205516    2011.7429  0.041465557  0.041302232            6 
 4044000    0.5984569   -4.5329821    2014.4171  0.041510408  0.041291981           11 
 4045000   0.59543713   -4.5031675    2015.5109   0.04152268   0.04128169           13 
 4046000   0.60901706   -4.5171888    2012.0828  0.041441811  0.041271394           10 
 4047000   0.59308565   -4.5067315    2018.2825  0.041559232  0.041261087           16 
 4048000   0.60047038   -4.5309473    2012.7252  0.041434561  0.041250798           12 
 4049000   0.60072026   -4.5008537    2017.0987  0.041514339  0.041240508            7 
 4050000    0.5975031   -4.5262907    2017.1303  0.041504738   0.04123023            7 
 4051000   0.59361813   -4.5131335    2020.5907  0.041565678  0.041219995           18 
 4052000   0.60266079   -4.5201381    2010.7806  0.041353664  0.041209711           13 
 4053000   0.61109217   -4.5072556    2015.0256  0.041430742  0.041199352           16 
 4054000   0.59707055   -4.5215384    2013.4893  0.041388943  0.041189086           15 
 4055000   0.60211981   -4.5046862     2014.778   0.04140522   0.04117884           15 
 4056000   0.59964006   -4.5212714    2015.1173  0.041401984  0.041168587           14 
 4057000   0.59855159   -4.5007838    2018.9185  0.041469857  0.041158338           12 
 4058000   0.60685562   -4.5448643     2014.324  0.041365287  0.041148096            7 
 4059000   0.60092274   -4.5016913    2017.3646   0.04141752   0.04113788           14 
 4060000    0.5981718   -4.5377434    2016.1916  0.041383243  0.041127707           10 
 4061000   0.60526804   -4.4879311       2018.9   0.04142863   0.04111751           11 
 4062000   0.60339745   -4.5082138    2016.3831  0.041366795  0.041107322           19 
 4063000   0.60970422   -4.5322065    2020.2276  0.041435467  0.041097131           13 
 4064000     0.595055   -4.5133611    2016.0728  0.041340075  0.041086918           23 
 4065000   0.60045501   -4.5198206     2017.268  0.041354408  0.041076721            7 
 4066000   0.59566625   -4.5262526    2014.8445  0.041294567  0.041066498           13 
 4067000   0.60760452   -4.5343087    2014.2208  0.041271633  0.041056251            7 
 4068000   0.60115068   -4.5169619    2015.8232  0.041294314  0.041046054           17 
 4069000   0.60331847   -4.5132408    2017.5589  0.041319712  0.041035832            8 
 4070000    0.6078344   -4.5189706    2013.1624  0.041219541  0.041025569            9 
 4071000     0.606399   -4.5291106    2013.5269  0.041216877  0.041015354           12 
 4072000   0.58510074   -4.5331909    2014.7859   0.04123252  0.041005054           11 
 4073000   0.60606427   -4.5470938     2016.044  0.041248139  0.040994806           16 
 4074000   0.59558003   -4.5275368      2016.53  0.041247954  0.040984598           23 
 4075000   0.60269365   -4.5321384    2016.6017  0.041239299  0.040974364            7 
 4076000   0.59475078   -4.5047755    2012.9762  0.041155058  0.040964145           17 
 4077000    0.5935644   -4.5432425    2015.4273  0.041195064  0.040953921           14 
 4078000   0.59767858   -4.5333418    2016.8857  0.041214764  0.040943686            7 
 4079000   0.59126297    -4.499145     2019.432   0.04125668  0.040933526            9 
 4080000   0.60481147   -4.5189317    2020.6315  0.041271069  0.040923374            5 
 4081000   0.58903933   -4.5215159    2018.1596   0.04121048  0.040913224           10 
 4082000   0.59601841   -4.5338482    2016.7667  0.041171949  0.040903041           16 
 4083000   0.60261954   -4.5497458    2018.8096  0.041203559  0.040892859           26 
 4084000   0.60242267   -4.5319279    2016.5758   0.04114789  0.040882686            9 
 4085000   0.60362998   -4.5187077    2020.9224  0.041226488  0.040872505            5 
 4086000   0.59430293   -4.5375747    2011.9922  0.041034268  0.040862323           19 
 4087000   0.58090018   -4.5083016    2015.0187  0.041085937  0.040852144           13 
 4088000   0.59670437   -4.5454215    2013.4202  0.041043302  0.040841931           11 
 4089000   0.57806436   -4.5236853    2016.5652  0.041097359  0.040831742           11 
 4090000   0.59349561   -4.5375944    2016.0524  0.041076863   0.04082149           10 
 4091000   0.60190185   -4.5156919     2013.911  0.041023201  0.040811291            8 
 4092000   0.61134698    -4.524552    2011.3739  0.040961509  0.040801106           12 
 4093000   0.59027398   -4.5319825    2017.4103  0.041074402  0.040790881            8 
 4094000   0.59791305    -4.546478    2019.1887  0.041100568  0.040780667           12 
 4095000   0.59485193   -4.5430598     2011.556  0.040935206   0.04077041           19 
 4096000   0.59086373   -4.5424617     2013.045  0.040955506  0.040760076           16 
 4097000   0.60131241   -4.5431208    2015.2373    0.0409901  0.040749774           15 
 4098000   0.61157617    -4.534515    2015.4149  0.040983709  0.040739543            8 
 4099000   0.58993635   -4.5260042    2011.0004  0.040883963  0.040729275            9 
 4100000   0.59191447   -4.5187494      2012.85  0.040911586  0.040718982            5 
 4101000   0.59434829   -4.5367932    2018.5693  0.041017827  0.040708768            8 
 4102000   0.58518121   -4.5414971    2014.7053   0.04092933  0.040698552            7 
 4103000   0.59676564   -4.5314846    2011.2946  0.040850081  0.040688364            6 
 4104000    0.5999183   -4.5184629    2014.4924  0.040905059   0.04067814            5 
 4105000   0.59764238   -4.5478258    2015.9863  0.040925422  0.040667918            5 
 4106000   0.59206337   -4.5197303     2011.264  0.040819613  0.040657679            5 
 4107000   0.59472921   -4.5513399    2019.4598  0.040975973  0.040647398            8 
 4108000   0.59920862   -4.5348195    2010.3265  0.040780723   0.04063708           12 
 4109000    0.5889053   -4.5580253    2012.3559  0.040811956   0.04062675            9 
 4110000   0.58471715   -4.5410068     2011.221  0.040779015  0.040616462           16 
 4111000   0.59476559   -4.5487037    2016.9541   0.04088531  0.040606178           18 
 4112000   0.58131269   -4.5239004    2012.7694  0.040790561   0.04059591           10 
 4113000   0.59825764   -4.5234998    2015.9718  0.040845527  0.040585644            8 
 4114000    0.6000577   -4.5397979    2014.5644   0.04080709  0.040575346           30 
 4115000   0.60130145    -4.548016    2013.5994  0.040777631  0.040565055           16 
 4116000   0.59059742   -4.5321483    2014.1213  0.040778291  0.040554792            5 
 4117000   0.58601003   -4.5217071     2017.227  0.040831249   0.04054454            9 
 4118000   0.59939343    -4.540784    2015.6545  0.040789512  0.040534324           11 
 4119000   0.57777093    -4.523471    2015.1473  0.040769347  0.040524072            7 
 4120000   0.59049371   -4.5276119    2015.9609  0.040775907  0.040513799            9 
 4121000   0.59902534   -4.5310836    2011.3456  0.040672685  0.040503526           10 
 4122000   0.58955139   -4.5348244    2013.4058  0.040704468  0.040493266            7 
 4123000    0.5947557   -4.5361459    2018.5122  0.040797806  0.040483071            7 
 4124000   0.58805047   -4.5510965    2015.1944   0.04072087  0.040472844            6 
 4125000   0.58825698    -4.538896    2019.6924  0.040801866  0.040462652           14 
 4126000   0.59634425    -4.533041    2015.8514    0.0407144  0.040452469            8 
 4127000   0.59471398   -4.5376031    2014.1111  0.040669394  0.040442288           16 
 4128000   0.59121413   -4.5484452     2017.958  0.040737201  0.040432039           11 
 4129000   0.59380726   -4.5457741     2016.701  0.040701966  0.040421827           12 
 4130000   0.58432279   -4.5533032    2016.0183  0.040678336  0.040411582           13 
 4131000   0.57674879   -4.5412972    2014.4674  0.040637203  0.040401344           16 
 4132000   0.58362277   -4.5398697    2015.7023  0.040652272  0.040391055            9 
 4133000   0.59282809   -4.5392033    2006.0438  0.040447693  0.040380756           11 
 4134000   0.58016787   -4.5348122    2011.1906  0.040541659  0.040370493            7 
 4135000   0.58813246   -4.5552532    2014.5677  0.040599914  0.040360248           14 
 4136000   0.57437282   -4.5226833    2016.6711  0.040632477  0.040350032           16 
 4137000   0.59001227   -4.5424259    2013.9847  0.040568543  0.040339777           35 
 4138000   0.58868126   -4.5466806    2014.6181  0.040571493  0.040329488           11 
 4139000   0.58148974   -4.5508939    2016.1131  0.040591791  0.040319158           23 
 4140000   0.59338902   -4.5388467     2016.415  0.040588065  0.040308924           20 
 4141000   0.58596942   -4.5439139    2015.9576  0.040569057  0.040298722           10 
 4142000    0.5909908   -4.5588175    2014.6172  0.040532296  0.040288501            8 
 4143000   0.58799073   -4.5538705    2020.0283  0.040631352  0.040278312           11 
 4144000   0.58244552   -4.5421352    2014.5702  0.040511788  0.040268097           10 
 4145000    0.5961154    -4.546658    2015.5638  0.040521989  0.040257899           11 
 4146000   0.57835468   -4.5432735    2016.4353  0.040529734  0.040247696           14 
 4147000   0.59617685    -4.542862    2016.0375  0.040511966    0.0402375           22 
 4148000   0.58150133   -4.5492868    2011.0578  0.040402157  0.040227235           10 
 4149000   0.57092765   -4.5579418    2016.1079  0.040493852  0.040217068            6 
 4150000   0.58953351   -4.5557431    2018.9879  0.040541925  0.040206872            9 
 4151000   0.58891551   -4.5506844    2018.5647  0.040523663  0.040196701           15 
 4152000   0.58895873   -4.5265596    2019.0711  0.040524066  0.040186467           13 
 4153000   0.58303943   -4.5304853      2019.08  0.040514488   0.04017625            8 
 4154000   0.58445522   -4.5292611    2017.7734  0.040478522  0.040166034            6 
 4155000   0.58040577    -4.544334    2016.0334  0.040433882  0.040155883           17 
 4156000   0.58827795   -4.5734367    2012.8315  0.040359952  0.040145649            9 
 4157000   0.59035197   -4.5601929    2015.2393  0.040398511  0.040135431           24 
 4158000   0.58315296   -4.5777905    2012.2434  0.040328751  0.040125123            7 
 4159000    0.5909091   -4.5676852    2015.3718  0.040381739  0.040114892            5 
 4160000    0.5850649   -4.5660678    2016.5901  0.040396436  0.040104705            7 
 4161000   0.57799595   -4.5729726    2016.4969  0.040384862  0.040094522           13 
 4162000   0.58074864   -4.5597531    2016.4808  0.040374835  0.040084324            9 
 4163000    0.5846323   -4.5621559    2012.1702   0.04027885  0.040074126           10 
 4164000   0.58551495   -4.5611765    2014.8046  0.040321898  0.040063954           20 
 4165000   0.58586733   -4.5628912     2019.458  0.040405322  0.040053793           14 
 4166000     0.581601   -4.5696471    2016.4767  0.040335987  0.040043644            8 
 4167000   0.60097769   -4.5494088    2018.7759  0.040372288  0.040033505           10 
 4168000   0.59659006   -4.5616211    2018.1547  0.040350183   0.04002332           10 
 4169000   0.57649008   -4.5441146    2014.9978  0.040277401  0.040013116            8 
 4170000   0.58691725   -4.5619417    2013.1263  0.040230342  0.040002916           12 
 4171000   0.57903166   -4.5757726    2014.8307   0.04025475  0.039992699            8 
 4172000   0.58589279   -4.5689139     2017.098  0.040290389  0.039982505           15 
 4173000   0.58072026   -4.5520912    2013.2315  0.040203521  0.039972289            7 
 4174000   0.59171816   -4.5502502    2017.4569  0.040278249  0.039962141           11 
 4175000   0.58674393   -4.5493725    2012.1382  0.040162439  0.039951994           17 
 4176000    0.5974103   -4.5681188    2018.7383  0.040284529  0.039941824           12 
 4177000   0.57489436   -4.5736625    2011.4884  0.040130246  0.039931646           14 
 4178000   0.58587149    -4.565807    2011.4114  0.040119105  0.039921474           18 
 4179000   0.57236792   -4.5327341    2020.3189  0.040287129  0.039911304           13 
 4180000   0.57860354   -4.5437564    2012.8204  0.040127999   0.03990118           24 
 4181000   0.58617164   -4.5689951     2018.481  0.040231224  0.039891002            7 
 4182000   0.58332581   -4.5554352    2017.8475  0.040208981  0.039880811           15 
 4183000   0.57771595   -4.5433331    2011.3579  0.040070084  0.039870645           15 
 4184000    0.5872986    -4.544841     2016.612  0.040165152  0.039860484           16 
 4185000   0.58986054   -4.5528873    2015.3218  0.040129864  0.039850296           15 
 4186000   0.58560591   -4.5579052    2014.8978  0.040111838  0.039840114           10 
 4187000   0.58787494   -4.5554319    2016.4802  0.040133752  0.039829979           12 
 4188000    0.5776764   -4.5607028    2014.5757  0.040086272  0.039819787           14 
 4189000    0.6002404   -4.5718905    2012.1139   0.04002773  0.039809566           24 
 4190000   0.58411164   -4.5677188    2017.4984  0.040125266  0.039799371           12 
 4191000   0.56590216   -4.5656442    2011.6029  0.039998467  0.039789178           14 
 4192000   0.58634757   -4.5505786    2013.9696  0.040035974  0.039778994           15 
 4193000   0.58192284   -4.5752005    2017.4678  0.040095949  0.039768842           11 
 4194000   0.59284666   -4.5797647    2010.9064  0.039956017  0.039758599           23 
 4195000    0.5832735   -4.5622214    2015.6022  0.040039773  0.039748378           18 
 4196000   0.59296798   -4.5703723    2010.5349  0.039929594  0.039738177           16 
 4197000   0.57918554     -4.59182    2016.4675  0.040037873  0.039727982           18 
 4198000   0.58275986   -4.5751406    2012.7379  0.039954302  0.039717839           14 
 4199000   0.58926629   -4.5643075    2020.1733   0.04009235  0.039707723            8 
 4200000   0.57852959   -4.5569725    2015.0507  0.039981164  0.039697602           12 
 4201000   0.57885886   -4.5767208    2016.1849  0.039994147  0.039687477           10 
 4202000   0.58028802   -4.5602477    2014.8799  0.039958748  0.039677366           17 
 4203000   0.58262932   -4.5734288    2019.7036   0.04004488   0.03966723            7 
 4204000    0.5698995   -4.5674427    2014.1532  0.039925333  0.039657077           27 
 4205000   0.58789849      -4.5608    2019.4495  0.040020798  0.039646933            9 
 4206000   0.57770378   -4.5596407     2014.604  0.039915279   0.03963677           19 
 4207000   0.58591626   -4.5746894    2006.9069  0.039753325    0.0396266           13 
 4208000    0.5821506   -4.5812779    2019.4443  0.039992164  0.039616444           13 
 4209000   0.57226273   -4.5548556    2018.6827  0.039967584  0.039606344           12 
 4210000   0.57634582   -4.5682415     2021.352  0.040010927  0.039596239           12 
 4211000   0.59137238   -4.5558462    2019.3991  0.039962778  0.039586152            9 
 4212000   0.58735081   -4.5733634    2017.6365  0.039918417  0.039576067           12 
 4213000   0.58107411   -4.5538135    2017.6053  0.039908325  0.039565955           13 
 4214000   0.57510413   -4.5705975     2018.743  0.039921354  0.039555803            9 
 4215000   0.57762969   -4.5829822    2017.8951  0.039895119  0.039545704           13 
 4216000   0.57036204   -4.5633919    2020.2828  0.039932852  0.039535625            4 
 4217000   0.56862464   -4.5626461    2021.8765  0.039954874  0.039525565            9 
 4218000   0.58670934   -4.5763918     2014.616  0.039801961  0.039515472           13 
 4219000   0.59044613    -4.573957    2017.3464  0.039846457   0.03950542            8 
 4220000   0.58088736   -4.5721187    2016.9937  0.039830049  0.039495356           11 
 4221000   0.57469175   -4.5765239    2014.6297  0.039773942  0.039485291            7 
 4222000    0.5712992   -4.5713789    2020.1598  0.039873673  0.039475188           22 
 4223000   0.58471126   -4.5779262    2018.1288  0.039824154  0.039465128            7 
 4224000   0.58392663   -4.5807653    2020.8888  0.039869177  0.039455059           10 
 4225000   0.58225349   -4.5760525    2022.4065  0.039889675  0.039444997            7 
 4226000   0.57003292    -4.570529    2015.5386  0.039744805  0.039434922            6 
 4227000   0.57122834   -4.5849849    2019.3854  0.039811242  0.039424851           16 
 4228000   0.59887539   -4.5531793    2019.1317  0.039796825    0.0394148           30 
 4229000   0.57910079   -4.5784773    2015.9621  0.039724956  0.039404718           27 
 4230000   0.57235828    -4.566179     2017.703  0.039749862   0.03939462           28 
 4231000   0.58385298   -4.5679372    2016.1667  0.039710208  0.039384548            9 
 4232000   0.57036436   -4.5734966    2020.0312  0.039776921    0.0393745           11 
 4233000   0.59003032    -4.584972    2012.4194  0.039617674  0.039364397           18 
 4234000   0.57308823   -4.5620782    2018.5856   0.03972968  0.039354324           10 
 4235000   0.57509323   -4.5607348    2018.2735  0.039714158  0.039344288           14 
 4236000   0.57441211   -4.5805502    2016.2173  0.039664332  0.039334212           17 
 4237000   0.56957313   -4.5783768    2015.6676  0.039644158  0.039324136           10 
 4238000   0.55630684   -4.5884148    2019.6458   0.03971303  0.039314105           21 
 4239000   0.57404068   -4.5841551    2017.8323  0.039668009  0.039304029           11 
 4240000   0.57394751   -4.5729523    2020.1409  0.039704027  0.039294004            6 
 4241000   0.58220386   -4.5623917    2018.3326  0.039659134  0.039283979            6 
 4242000   0.56655155   -4.5897915    2016.8444  0.039620548  0.039273951           13 
 4243000   0.56631053   -4.5870629    2016.0559  0.039595725  0.039263927           11 
 4244000   0.57011763   -4.5961719    2019.3836  0.039651736  0.039253859           41 
 4245000   0.57208445   -4.5991577    2014.8938  0.039554256  0.039243785           14 
 4246000   0.57923059   -4.5805313    2017.3475  0.039593098  0.039233753           19 
 4247000    0.5708056    -4.567028    2023.0506  0.039695679  0.039223769            6 
 4248000   0.55603039   -4.6129941    2020.4617  0.039635547   0.03921377            8 
 4249000   0.56560645   -4.5928123    2019.2169  0.039601806  0.039203716           15 
 4250000   0.57266095   -4.6157063    2015.3339   0.03951635  0.039193637           10 
 4251000   0.56423189   -4.5458606    2025.6636  0.039709551  0.039183651           13 
 4252000   0.56037765    -4.597711    2020.4824  0.039598667  0.039173676           13 
 4253000   0.56872695    -4.577509    2018.1164  0.039542998   0.03916371            6 
 4254000   0.56448197   -4.5859285    2018.7333  0.039545787  0.039153731           20 
 4255000   0.57624283   -4.5822018     2018.344  0.039528867  0.039143745            9 
 4256000   0.57827772   -4.6000564     2021.345  0.039578341  0.039133791           14 
 4257000   0.57129778   -4.5938275    2015.4544  0.039453731  0.039123787           17 
 4258000   0.57672209   -4.5783319    2018.2548  0.039499273  0.039113773           15 
 4259000   0.56283158   -4.5949343    2019.6769  0.039517822  0.039103798            9 
 4260000   0.57100941   -4.5702167    2018.3193  0.039481989  0.039093805           15 
 4261000   0.56480069   -4.5842249    2018.3919  0.039474143  0.039083836           26 
 4262000   0.56052073    -4.579442    2021.4908  0.039525474  0.039073873           15 
 4263000   0.56725851   -4.5975194    2014.9161  0.039387678  0.039063896           17 
 4264000    0.5785334   -4.5889721    2017.4912  0.039428767   0.03905391           17 
 4265000   0.57646686   -4.5845016    2019.4137  0.039457086  0.039043884           19 
 4266000   0.56826825    -4.611776    2021.3448   0.03948556  0.039033888            6 
 4267000   0.56947423   -4.5863561    2018.9199  0.039428949  0.039023887           12 
 4268000   0.56767041   -4.6019751    2018.8203  0.039417766  0.039013875           13 
 4269000   0.57766619    -4.589967    2020.2197   0.03943585  0.039003845            9 
 4270000   0.56276186   -4.5672858    2024.0642  0.039501642  0.038993872            7 
 4271000   0.56316581   -4.5900011    2019.2024  0.039397533  0.038983921           15 
 4272000   0.56104966   -4.6032142    2018.6956  0.039378426  0.038973927           17 
 4273000   0.55956208   -4.6130539    2019.5575  0.039386018  0.038963934           23 
 4274000   0.56937651   -4.5931349    2018.1909  0.039350158  0.038953956           17 
 4275000   0.55262714   -4.5959635    2018.7209  0.039351284  0.038943971            9 
 4276000   0.55525738    -4.594128    2018.1642  0.039331232  0.038933995            7 
 4277000   0.57018737   -4.5879804    2022.9222  0.039414741  0.038924018           19 
 4278000   0.56757377   -4.5851964    2016.6425  0.039283203   0.03891407           24 
 4279000   0.56841564   -4.6014119    2021.0018   0.03935892  0.038904116           24 
 4280000   0.55763445   -4.5814529    2022.6338  0.039381499  0.038894201           10 
 4281000    0.5692148   -4.5957817    2018.7835   0.03929735  0.038884315           10 
 4282000    0.5660933   -4.5912374    2023.5778  0.039381477  0.038874377            8 
 4283000   0.55122347   -4.5892322    2018.2991  0.039269575  0.038864441           13 
 4284000   0.57154836   -4.6161773    2019.0302   0.03927463  0.038854433           13 
 4285000   0.56506384   -4.5877974    2024.1654  0.039365332   0.03884444           14 
 4286000   0.57992836   -4.5833113    2021.5948  0.039306167  0.038834464           17 
 4287000   0.57504996    -4.596407    2016.6587  0.039201047  0.038824527           13 
 4288000   0.57170076   -4.5893653    2021.9782  0.039295285  0.038814598           17 
 4289000   0.57322767    -4.579166    2023.1339  0.039308577  0.038804661           10 
 4290000   0.55888689   -4.5890023    2023.0123  0.039297053  0.038794743            5 
 4291000    0.5528872   -4.5968716    2019.9233  0.039227906  0.038784839            7 
 4292000   0.56333707   -4.5930708     2018.156  0.039184452  0.038774894           12 
 4293000   0.55503375   -4.6134202    2019.5473  0.039202331  0.038764997           15 
 4294000   0.56702428   -4.5639455    2024.2832  0.039285112  0.038755109            7 
 4295000   0.56197088   -4.5857954    2017.5146  0.039144637   0.03874528            6 
 4296000   0.56313745   -4.5959527    2026.3707  0.039307316  0.038735438            7 
 4297000   0.56114085   -4.6022961    2022.3283  0.039219772  0.038725571           10 
 4298000   0.56462247   -4.6135414    2020.7071  0.039179213   0.03871568           18 
 4299000   0.57125011   -4.5906231    2018.9545  0.039136126  0.038705772            8 
 4300000   0.56032138   -4.6050095    2021.0119  0.039166897  0.038695875           13 
 4301000   0.56129559   -4.5880456    2025.5827  0.039246351  0.038686048           15 
 4302000   0.55823211   -4.5932502     2021.286  0.039153999  0.038676181           42 
 4303000   0.56114874   -4.5845885    2022.7537  0.039173322  0.038666314           10 
 4304000    0.5630672   -4.5986238    2022.0115  0.039149852  0.038656439           22 
 4305000   0.56711077    -4.596591    2021.9312  0.039139202  0.038646576           18 
 4306000   0.56626479   -4.5864673    2022.7784  0.039146509  0.038636689           22 
 4307000   0.57076755    -4.617495    2028.0765  0.039239929  0.038626819           20 
 4308000   0.55769439   -4.6046491     2022.613  0.039125135  0.038616954           15 
 4309000   0.57813535   -4.6169827    2020.7818  0.039080642  0.038607055           12 
 4310000   0.55993275    -4.601007    2022.2544  0.039100047  0.038597179            7 
 4311000   0.56600436   -4.6011676     2020.243  0.039052096  0.038587275           21 
 4312000    0.5564741   -4.5844032     2022.586   0.03908832  0.038577414           23 
 4313000   0.55863576   -4.6031284     2026.114  0.039147423  0.038567579           18 
 4314000   0.55943332   -4.5903453    2020.6339   0.03903249   0.03855769           15 
 4315000   0.56169704   -4.6185739    2019.9645  0.039010516  0.038547776           12 
 4316000   0.56132713   -4.6111671    2022.5893  0.039052156  0.038537892           12 
 4317000   0.56578392   -4.6007103    2017.8549   0.03895172  0.038527984           10 
 4318000   0.56969087   -4.6156607    2020.2686  0.038989282  0.038518072            7 
 4319000   0.56075415   -4.5899177    2016.0473  0.038898806  0.038508151            8 
 4320000   0.55902028   -4.5971057    2020.5212  0.038976104  0.038498303            8 
 4321000   0.55682724    -4.599142     2020.002   0.03895707  0.038488407           23 
 4322000   0.55902438   -4.6087171     2019.882  0.038945742  0.038478532           14 
 4323000    0.5606579   -4.6042087    2022.9317  0.038995522  0.038468653           15 
 4324000   0.57826606   -4.6131003    2020.1535  0.038932962  0.038458764           19 
 4325000   0.55735095   -4.6003829      2018.71  0.038896147  0.038448899            9 
 4326000   0.57171987    -4.614503    2021.4735   0.03894039  0.038439025           10 
 4327000   0.56297508   -4.5950947    2021.3782  0.038929555  0.038429161           18 
 4328000   0.54821846   -4.5996501    2015.2576  0.038802711  0.038419288            9 
 4329000   0.56098134   -4.5813779    2020.7726  0.038899912  0.038409457           24 
 4330000    0.5504466   -4.5928298    2025.0858  0.038973937  0.038399605           18 
 4331000   0.55537102   -4.5984508    2018.8791  0.038845515  0.038389755            6 
 4332000   0.55769265   -4.6087299    2022.1015  0.038898536  0.038379858            9 
 4333000   0.56005224   -4.6202809    2017.9362   0.03880945  0.038369996           14 
 4334000   0.55525045   -4.5970425    2025.7958  0.038951619  0.038360153           24 
 4335000   0.55789543   -4.6027726    2017.3794  0.038780842  0.038350304           10 
 4336000   0.56277183   -4.6022654    2025.0536  0.038919388   0.03834048           18 
 4337000   0.55404314   -4.5965036     2022.286  0.038857236  0.038330672            8 
 4338000   0.56872066   -4.6134405    2022.6641  0.038855543  0.038320869            8 
 4339000   0.55485009   -4.6102607    2026.9777  0.038929433   0.03831108           12 
 4340000    0.5576937   -4.5982778    2018.3586  0.038754965  0.038301301           16 
 4341000     0.546855   -4.6042459    2025.6891  0.038886759  0.038291508           15 
 4342000    0.5579803   -4.6122493    2023.8512   0.03884253  0.038281769           18 
 4343000   0.55293509   -4.6135036    2023.4767  0.038826401   0.03827201           18 
 4344000   0.57309707   -4.6031298      2024.54  0.038837861  0.038262221           15 
 4345000   0.55332223   -4.6233144    2021.2295  0.038765429  0.038252449           21 
 4346000   0.56340718   -4.6219895    2023.3931  0.038797997  0.038242672           12 
 4347000   0.54830615    -4.605154    2021.4919  0.038752624  0.038232901           10 
 4348000    0.5571022   -4.6262393    2026.3033  0.038835926  0.038223098           16 
 4349000   0.54576197   -4.6249215    2021.8547  0.038741754  0.038213347           16 
 4350000   0.56259373   -4.6134705    2022.7981  0.038750921  0.038203554           14 
 4351000   0.57027708   -4.6191324    2023.9154  0.038763414  0.038193733           10 
 4352000   0.56154541   -4.6076274    2017.6454  0.038634448  0.038183944           11 
 4353000   0.55741699   -4.6434718    2019.4491  0.038660103  0.038174187           13 
 4354000   0.55763821   -4.6048152    2021.9699  0.038699469  0.038164407           13 
 4355000   0.56794522   -4.6141261    2024.5556  0.038740061   0.03815464            6 
 4356000    0.5714959   -4.6297617    2021.5171   0.03867304  0.038144847            9 
 4357000   0.55464839    -4.635951    2018.4893  0.038606253  0.038135029            4 
 4358000   0.55204224   -4.6226669    2020.5403  0.038636613  0.038125224            5 
 4359000   0.56595698   -4.6347903    2026.9912  0.038751074  0.038115426           16 
 4360000   0.55193861   -4.6099234    2022.3404  0.038653294  0.038105616           23 
 4361000   0.55708731    -4.622091    2024.0452  0.038677009  0.038095783           15 
 4362000   0.55347182   -4.6010919    2024.1859   0.03867083   0.03808603           35 
 4363000   0.54236004   -4.6142064    2025.8239  0.038693252  0.038076269           12 
 4364000   0.55120755   -4.6055949    2021.1397  0.038594938  0.038066576           14 
 4365000   0.54193926   -4.6249948    2023.6281  0.038633603  0.038056885           17 
 4366000   0.57226493   -4.6311676    2022.1602  0.038596736  0.038047138           16 
 4367000   0.56427433   -4.6358152    2028.6576  0.038711885  0.038037417           34 
 4368000   0.56285302   -4.6228799    2023.1041  0.038597072  0.038027667           26 
 4369000   0.55780347   -4.6271476    2024.3635  0.038612259  0.038017947           10 
 4370000   0.55929494   -4.6324036     2026.056  0.038635698  0.038008241           10 
 4371000   0.54412847   -4.6266871    2025.8852  0.038623602  0.037998512           17 
 4372000   0.55259982   -4.6320013    2027.7575  0.038650455  0.037988788           10 
 4373000   0.56739894   -4.6358446    2030.1636  0.038687468  0.037979054           11 
 4374000   0.54576626   -4.6244671    2023.7078  0.038555627  0.037969314           14 
 4375000   0.54993221   -4.6147622    2027.2512  0.038614308  0.037959588           13 
 4376000   0.53979325   -4.6220113     2026.703  0.038595045  0.037949879           24 
 4377000   0.55208189    -4.634159    2020.8994  0.038475732  0.037940133           19 
 4378000   0.55916423   -4.5986182    2023.3554  0.038513693  0.037930429            9 
 4379000   0.54724166   -4.6047939     2027.009  0.038574427  0.037920724           13 
 4380000   0.55165483   -4.6203587    2021.9478  0.038469327  0.037911016           14 
 4381000   0.56547743    -4.619624    2026.4464  0.038546116  0.037901275           17 
 4382000   0.55011607   -4.6336264    2025.3338  0.038516161  0.037891547            6 
 4383000   0.55340884   -4.6455605    2026.3591  0.038526868  0.037881805           23 
 4384000   0.54838955   -4.6374134    2027.0502  0.038531216  0.037872087            9 
 4385000   0.54958636   -4.6247848    2022.3504  0.038433113  0.037862402           18 
 4386000    0.5465846   -4.6311712    2024.1554  0.038458644  0.037852699           13 
 4387000   0.54561799   -4.6474881    2020.2533  0.038375757  0.037842959           13 
 4388000   0.54623784   -4.6319957    2021.3782  0.038388373   0.03783322           12 
 4389000   0.55361924   -4.6277572    2022.8766  0.038408078  0.037823486            8 
 4390000   0.54076456   -4.6331213    2028.2959  0.038502199  0.037813772            6 
 4391000   0.53601992    -4.612375    2023.8293  0.038408663  0.037804092           12 
 4392000   0.55110766   -4.6261821    2024.2045  0.038407038  0.037794401           12 
 4393000   0.54960075   -4.6311652    2022.7744  0.038371166  0.037784742           19 
 4394000   0.53385754   -4.6247607    2024.9073  0.038402885  0.037775077           11 
 4395000   0.55262445   -4.6359614    2026.5552  0.038425393  0.037765365           11 
 4396000    0.5336866   -4.6343265     2028.356  0.038450788  0.037755683           20 
 4397000    0.5456791   -4.6334527    2023.8506  0.038356656  0.037746017            8 
 4398000   0.55226998   -4.6364723    2024.1611  0.038353818  0.037736381           25 
 4399000   0.56709583   -4.6207905    2028.7394  0.038431829   0.03772671            9 
 4400000    0.5439052   -4.6165036    2028.1697  0.038412305  0.037717097           15 
 4401000    0.5431703   -4.6277638    2024.2504  0.038329364  0.037707439            8 
 4402000    0.5375863   -4.6307726    2026.5553  0.038364291  0.037697793           11 
 4403000   0.54035316   -4.6227367    2025.6281  0.038338029  0.037688138           13 
 4404000   0.54696875   -4.6288443    2026.9262  0.038353887  0.037678513           12 
 4405000   0.54170618   -4.6327691    2021.7004  0.038246319  0.037668822           14 
 4406000    0.5604211   -4.6458918    2025.6111  0.038311603  0.037659144           16 
 4407000   0.53946523   -4.6507032    2026.6352  0.038322276   0.03764946           10 
 4408000   0.54697498   -4.6487928    2019.4387  0.038177531  0.037639767           14 
 4409000   0.54172506   -4.6431167    2023.5588  0.038246745  0.037630086            8 
 4410000   0.55415201   -4.6445151    2023.7113  0.038240954   0.03762041           10 
 4411000     0.549891   -4.6344069    2024.2797  0.038243023  0.037610766           13 
 4412000   0.55820324   -4.6366078    2025.2346   0.03825239  0.037601131           39 
 4413000   0.55287631   -4.6541759    2024.3146   0.03822635  0.037591485           12 
 4414000   0.53708393   -4.6605585    2022.2445  0.038178608  0.037581834           23 
 4415000    0.5376022   -4.6328447    2023.7239  0.038197884  0.037572188           15 
 4416000   0.54436369   -4.6357457    2022.0765  0.038158146  0.037562539           15 
 4417000   0.54185165   -4.6309528    2026.7487  0.038237656  0.037552964           12 
 4418000   0.54341096   -4.6519611    2024.4323  0.038185309  0.037543329            6 
 4419000   0.55161774   -4.6327448    2026.8265  0.038221817   0.03753368           12 
 4420000   0.53923429   -4.6482013    2026.3263  0.038203738  0.037524058           11 
 4421000   0.54236316   -4.6545379    2023.7721  0.038146952  0.037514394           39 
 4422000   0.54939262   -4.6550803    2021.6773  0.038098848  0.037504713           16 
 4423000   0.55225375   -4.6627404    2024.2012  0.038137788  0.037495061           14 
 4424000   0.54414586    -4.636349    2023.1732  0.038109803  0.037485426           14 
 4425000   0.54218896   -4.6447673    2027.1663  0.038176391  0.037475778           41 
 4426000   0.54221797   -4.6452905    2020.8634  0.038049092   0.03746611           23 
 4427000   0.54214209   -4.6191489     2027.061  0.038157162  0.037456462            7 
 4428000   0.55802808   -4.6449432    2023.6525  0.038084398  0.037446805           19 
 4429000   0.54805893   -4.6481024    2023.6382  0.038075529  0.037437161           11 
 4430000   0.54252315   -4.6370819    2021.5196   0.03802708  0.037427579           11 
 4431000   0.53128893   -4.6504314    2026.4803  0.038111794   0.03741798           11 
 4432000   0.54059438   -4.6365073    2020.8419  0.037997178  0.037408329           10 
 4433000   0.54174916   -4.6542875    2028.1063  0.038125165  0.037398707            8 
 4434000   0.52656703   -4.6395408    2028.4407  0.038122851  0.037389094            9 
 4435000   0.53744771   -4.6498232    2022.3317  0.037999468  0.037379489           13 
 4436000   0.54517269    -4.665008     2023.865  0.038019706  0.037369888           14 
 4437000   0.53333683   -4.6453133      2025.61  0.038043911  0.037360279           13 
 4438000   0.52862011   -4.6419619    2028.7407  0.038094124   0.03735074           13 
 4439000   0.54731836   -4.6234723    2027.9074  0.038069899   0.03734118           23 
 4440000   0.54319439     -4.64648    2024.4351  0.037996154  0.037331634            7 
 4441000   0.54416053   -4.6443884    2026.6724  0.038029581  0.037322092           12 
 4442000   0.54509505   -4.6279214    2030.8857  0.038100061  0.037312526           26 
 4443000   0.55709078   -4.6296634    2023.3203   0.03794959  0.037302974           20 
 4444000   0.55003948    -4.646791    2024.7485   0.03796783  0.037293394           19 
 4445000   0.53116278    -4.642532    2027.1038  0.038003447  0.037283836           13 
 4446000   0.53958999   -4.6399989    2027.7277  0.038006593  0.037274274            9 
 4447000    0.5356578   -4.6429158    2026.6495   0.03797784  0.037264731           16 
 4448000   0.53848695   -4.6525559     2028.813  0.038009837  0.037255184           19 
 4449000   0.53379837   -4.6562456    2025.1773  0.037933193  0.037245629           11 
 4450000   0.53753406   -4.6704518    2032.3267  0.038058552  0.037236077           29 
 4451000   0.54102801   -4.6612769    2024.1434   0.03789679   0.03722656           13 
 4452000   0.54042818    -4.630544    2026.5723  0.037933744  0.037217063           17 
 4453000   0.53147825   -4.6380911    2030.7499  0.038003405  0.037207598           25 
 4454000    0.5457575   -4.6661741    2029.1245  0.037964461    0.0371981           13 
 4455000   0.54043746   -4.6655808    2025.6148  0.037890289  0.037188552           12 
 4456000   0.53869358   -4.6520488    2031.0405  0.037983252  0.037179071           15 
 4457000   0.54076042   -4.6430867    2029.4874  0.037945692  0.037169603            8 
 4458000   0.53769523   -4.6543753    2029.8721  0.037944372  0.037160109           11 
 4459000   0.53803155   -4.6489917    2025.8517  0.037860726  0.037150635            8 
 4460000   0.54055229    -4.668923    2031.6042  0.037959721  0.037141147           11 
 4461000   0.54014947    -4.657818    2026.6797  0.037859219   0.03713166           13 
 4462000   0.53962419   -4.6632422     2028.551  0.037885683  0.037122189           14 
 4463000   0.54048079   -4.6459677    2032.9603  0.037959525  0.037112743           20 
 4464000   0.54047914   -4.6822046     2024.257  0.037788549  0.037103238           11 
 4465000   0.53654847   -4.6715818    2025.4215  0.037801821  0.037093734           16 
 4466000   0.53943447   -4.6504085    2035.1659  0.037975182  0.037084303            9 
 4467000   0.52736282    -4.658885    2024.9307   0.03777574  0.037074809           17 
 4468000   0.54251766   -4.6418504    2031.3752  0.037887481  0.037065329           11 
 4469000   0.53247196    -4.660831    2024.9769  0.037759695  0.037055837            9 
 4470000   0.54047253   -4.6457497    2030.0318  0.037845484  0.037046377            6 
 4471000   0.54542141   -4.6579015     2031.484  0.037864088   0.03703693            7 
 4472000   0.52599762   -4.6503615    2025.3376  0.037741086   0.03702745           10 
 4473000      0.55152   -4.6557175    2031.9765  0.037856332  0.037018018           11 
 4474000   0.54332101   -4.6381725    2030.3925  0.037818368   0.03700857            6 
 4475000   0.54063546   -4.6447846    2028.1567   0.03776828  0.036999092           12 
 4476000   0.53005741   -4.6622651    2027.9227  0.037755487  0.036989621           33 
 4477000    0.5381603    -4.640352    2030.4739   0.03779454  0.036980173           22 
 4478000   0.54545208   -4.6467032    2026.4548  0.037711308  0.036970788            9 
 4479000    0.5366521   -4.6462664    2027.9197  0.037730143  0.036961346           13 
 4480000   0.52620459   -4.6666951    2027.5613  0.037715054  0.036951889           20 
 4481000   0.52696756   -4.6435486    2028.1256  0.037717131  0.036942416           17 
 4482000   0.53634856   -4.6684688    2025.6364  0.037662434  0.036932939           17 
 4483000   0.53004119   -4.6584463    2032.2915  0.037777743  0.036923514           11 
 4484000   0.53016462   -4.6670782    2027.2675  0.037675949  0.036914074           18 
 4485000   0.54425463   -4.6540439    2023.9245  0.037605435  0.036904629           23 
 4486000   0.53368647   -4.6692319    2033.2254  0.037769829  0.036895154           35 
 4487000   0.52768082   -4.6733245    2025.5847  0.037619506  0.036885728           18 
 4488000   0.53110471   -4.6843848     2027.003   0.03763746  0.036876252           13 
 4489000    0.5333892   -4.6530013    2035.4034  0.037785019  0.036866808           21 
 4490000   0.53969924   -4.6640648    2032.1079  0.037715439  0.036857385           14 
 4491000   0.53765557   -4.6704436    2023.5769  0.037548744  0.036847957           21 
 4492000   0.52976989   -4.6532105    2031.1584  0.037681033   0.03683858           18 
 4493000   0.53241957   -4.6637514    2036.2034  0.037766217  0.036829236           11 
 4494000   0.54666539   -4.6648188    2030.3526  0.037649322  0.036819874           41 
 4495000   0.54547568   -4.6552512    2027.4145  0.037586476  0.036810478           25 
 4496000   0.53100938   -4.6576884    2027.9435   0.03758792  0.036801121           16 
 4497000   0.54476414   -4.6506539    2029.0002  0.037599145  0.036791729           22 
 4498000   0.53039638   -4.6706644    2033.2397  0.037669329  0.036782378           26 
 4499000   0.53344347   -4.6716315    2033.5809  0.037667277  0.036773021           15 
 4500000   0.52812432    -4.656747    2029.2186  0.037578122  0.036763663           11 
 4501000   0.51803135   -4.6592553     2033.163  0.037642802  0.036754311           10 
 4502000   0.53222358    -4.640298    2031.1638  0.037597435   0.03674496           19 
 4503000   0.52980264   -4.6711915    2026.1084  0.037495528  0.036735587            8 
 4504000   0.53763657   -4.6837472    2025.4491  0.037475005  0.036726206           26 
 4505000   0.52429688   -4.6729106    2028.1035  0.037515788  0.036716806           10 
 4506000   0.53639471   -4.6592667    2027.3881  0.037494232  0.036707443           13 
 4507000   0.53952977   -4.6864108    2028.4184  0.037504962  0.036698073           10 
 4508000   0.52798446   -4.6644406    2026.2194  0.037455993  0.036688649           24 
 4509000   0.52483734   -4.6525914    2030.8018  0.037532377  0.036679266           24 
 4510000   0.52407099   -4.6664344    2027.1312  0.037456231  0.036669906           19 
 4511000   0.53496085   -4.6768556    2028.5514  0.037474163  0.036660526           48 
 4512000   0.53347403   -4.6768576    2030.9158  0.037509527  0.036651133           17 
 4513000   0.53755074   -4.6633794    2030.2212  0.037488389  0.036641773           26 
 4514000   0.54032593   -4.6967122    2028.5494  0.037449222  0.036632387           32 
 4515000   0.52825652   -4.6768513    2024.0743   0.03735833  0.036622991           28 
 4516000    0.5164289   -4.6671505      2033.67  0.037527125  0.036613586           15 
 4517000   0.53722648   -4.6799395    2029.1013  0.037434531  0.036604186            8 
 4518000   0.53152592   -4.6669342     2026.512  0.037378486  0.036594795           11 
 4519000   0.53495324   -4.6683644    2029.2835  0.037421322  0.036585395           10 
 4520000   0.53449025   -4.6556388    2025.4781  0.037342885  0.036576032           10 
 4521000   0.52952924   -4.6673881    2032.1195  0.037457042  0.036566639           14 
 4522000   0.52311055   -4.6722746    2029.6375   0.03740302  0.036557199           23 
 4523000   0.52899036   -4.6559092    2029.5491  0.037393122  0.036547807           13 
 4524000   0.53271744   -4.6779714    2021.8362  0.037242783  0.036538409           37 
 4525000   0.53164976   -4.6690637    2027.4321  0.037337607  0.036528967           13 
 4526000   0.53876666   -4.6738285    2027.6567  0.037333493  0.036519543           26 
 4527000   0.51950993   -4.6688967    2026.3793  0.037301732  0.036510129           42 
 4528000   0.53985066    -4.673747    2029.7057  0.037354714  0.036500722           25 
 4529000   0.52525745   -4.6800912    2029.8494  0.037349109  0.036491305           30 
 4530000   0.52660455   -4.6785624    2029.3841  0.037332306  0.036481894           45 
 4531000   0.51669402   -4.6696731    2030.0873  0.037336999  0.036472444           28 
 4532000   0.53142914   -4.6802681    2027.9447  0.037289362  0.036463033           13 
 4533000   0.53163752   -4.6895039    2029.3043  0.037306131  0.036453597           35 
 4534000    0.5165591   -4.6931524    2020.4601   0.03713535  0.036444161           17 
 4535000   0.53655949   -4.6776615    2028.4613  0.037274187  0.036434725           13 
 4536000   0.52104593   -4.6978745    2024.2804   0.03718916  0.036425332           19 
 4537000   0.53082386   -4.6722962    2027.8012  0.037245632   0.03641595           33 
 4538000   0.53899823    -4.676947    2028.5404  0.037250999  0.036406545           25 
 4539000   0.51157851   -4.6947978    2027.4911  0.037223528  0.036397147           18 
 4540000   0.51591441   -4.7029491    2028.6837   0.03723722  0.036387761           35 
 4541000   0.52454851    -4.678106    2029.3403  0.037241068  0.036378365           34 
 4542000   0.51637305   -4.6640322    2029.1924  0.037230156  0.036369033            7 
 4543000   0.53650974   -4.6774196    2024.1604  0.037129657  0.036359683           22 
 4544000   0.51068794   -4.7028699    2025.1625  0.037139863  0.036350337           12 
 4545000   0.51176062   -4.6846245    2024.9842  0.037128424  0.036340983           13 
 4546000   0.52572804   -4.6657036    2025.1568   0.03712342  0.036331647           20 
 4547000   0.51530618   -4.6945453    2027.9131   0.03716577  0.036322299           14 
 4548000   0.52025431    -4.688973    2029.7859  0.037191913   0.03631294           50 
 4549000    0.5223398   -4.6789725     2028.955  0.037168518  0.036303592           21 
 4550000   0.52274271   -4.6929054    2025.8438  0.037103366  0.036294233           10 
 4551000   0.52336356   -4.6757384    2027.2865   0.03712163  0.036284907           17 
 4552000   0.52380415   -4.6726931    2027.8247  0.037123329  0.036275562           31 
 4553000   0.51890119   -4.6869199    2026.8124  0.037096648  0.036266212           27 
 4554000   0.53403253   -4.6983716    2023.5695   0.03702916  0.036256863           13 
 4555000    0.5129157   -4.6864107    2026.6951  0.037078213  0.036247516            7 
 4556000    0.5228165   -4.6668847    2032.3399  0.037173322  0.036238227            9 
 4557000   0.51430039   -4.6445148    2025.7995  0.037045561  0.036228962            8 
 4558000   0.52619481   -4.6756249    2029.8219  0.037110974  0.036219711           15 
 4559000   0.52182493   -4.6793948    2025.4814  0.037023495  0.036210428           52 
 4560000   0.51432967   -4.6666971    2033.6352  0.037164385   0.03620113            7 
 4561000   0.52769488   -4.6790682    2031.3393  0.037114289  0.036191847           26 
 4562000   0.52281486   -4.6880808    2027.5552  0.037037031  0.036182562           11 
 4563000   0.52926746   -4.6755527    2027.4091  0.037026245  0.036173266            9 
 4564000   0.52753578   -4.6972155    2029.0653  0.037048374  0.036163971           30 
 4565000    0.5064931   -4.7003644    2028.9478  0.037038112  0.036154666           15 
 4566000   0.52480064   -4.6713681    2031.7486  0.037081117   0.03614537           15 
 4567000   0.51667387    -4.682182    2025.9757  0.036967661  0.036136093           11 
 4568000   0.52292578   -4.7047183    2028.4605  0.037004897  0.036126816            9 
 4569000   0.51016923   -4.6791458    2033.4112  0.037087094  0.036117551           17 
 4570000   0.51384674   -4.6943503    2027.7096  0.036975012  0.036108298           19 
 4571000   0.52415829   -4.6751531     2024.657  0.036911271  0.036099034           33 
 4572000   0.50623101    -4.674391    2027.0032  0.036945961  0.036089786           42 
 4573000   0.51163647   -4.6853797    2028.6985  0.036968774  0.036080512           48 
 4574000   0.52911725   -4.6804215    2026.9041  0.036928001  0.036071225           12 
 4575000   0.52812036   -4.6794839    2032.8904  0.037028969  0.036061958           17 
 4576000   0.52713295    -4.686496    2030.2527  0.036972842   0.03605269           16 
 4577000   0.51073851   -4.6858748    2029.2153  0.036945876  0.036043379           10 
 4578000   0.52658142   -4.6920823    2026.5193  0.036888731  0.036034072           20 
 4579000   0.52424346   -4.6821335    2029.5038  0.036934989  0.036024787           13 
 4580000   0.51970117   -4.6845755    2028.8079  0.036914262  0.036015534           20 
 4581000   0.51987124   -4.7127549    2032.5299  0.036973912  0.036006289            8 
 4582000   0.51369937   -4.7013321    2026.3199  0.036852901  0.035996984           14 
 4583000   0.51690031   -4.6838292      2029.97   0.03691123    0.0359877           16 
 4584000   0.50867474   -4.6823965    2029.2512  0.036890111  0.035978414           10 
 4585000   0.50724333   -4.7109432     2025.874  0.036820683  0.035969125           21 
 4586000   0.52847271   -4.6954058    2026.5739  0.036825373  0.035959841           43 
 4587000    0.5247989   -4.6881494    2026.6153  0.036818097  0.035950575           19 
 4588000   0.50750863   -4.7019094    2023.9191  0.036761099  0.035941267           17 
 4589000   0.51931492   -4.7009767    2026.5552  0.036800959  0.035931953           20 
 4590000   0.51133544    -4.693535     2025.496  0.036773711  0.035922656           30 
 4591000   0.51635385   -4.7015234    2031.7476  0.036879177   0.03591339            9 
 4592000   0.52334818   -4.6978764    2028.7545  0.036816828  0.035904123           11 
 4593000   0.51190268   -4.7105277    2027.0883  0.036778582  0.035894832           21 
 4594000   0.51996006   -4.7141943    2023.0654  0.036697602  0.035885529           12 
 4595000     0.518241   -4.6822216    2029.7983  0.036811721  0.035876276           21 
 4596000   0.51057997   -4.7021127    2027.8119  0.036767695  0.035867009           15 
 4597000   0.51100171    -4.691911    2028.1975  0.036766687  0.035857728            8 
 4598000   0.51823653   -4.6868408    2025.4291  0.036708516  0.035848453           23 
 4599000   0.51600892    -4.694942    2030.2949  0.036788701  0.035839229           16 
 4600000   0.51754404   -4.6909709    2027.1185  0.036723162  0.035829974           24 
 4601000    0.5087568    -4.691857    2029.0648  0.036750432   0.03582071           27 
 4602000   0.51672758   -4.6902616    2026.7516  0.036700558  0.035811493           16 
 4603000   0.51855087   -4.6899482    2028.7096  0.036728032  0.035802233           17 
 4604000   0.53087319    -4.691892    2029.6348  0.036736802  0.035792979           29 
 4605000   0.51956712   -4.6919073    2027.6942  0.036693706  0.035783738           47 
 4606000   0.51324921    -4.688883    2029.1054  0.036711272  0.035774506           38 
 4607000   0.50867719   -4.7038042    2023.2861   0.03659804  0.035765229           14 
 4608000   0.50273816   -4.6865061    2026.3805  0.036646059  0.035755954           20 
 4609000   0.52062188   -4.6936225    2030.3913  0.036710625  0.035746691           21 
 4610000   0.52097526   -4.6993899    2027.5179  0.036650722  0.035737468            8 
 4611000     0.512192   -4.6975525    2023.6165  0.036572265   0.03572821            7 
 4612000   0.51436805   -4.7098082    2027.9897  0.036643352  0.035718929            9 
 4613000   0.50243221   -4.7030124    2023.7856  0.036559463  0.035709649           15 
 4614000   0.51153869   -4.6979429    2028.1946  0.036631169  0.035700381           15 
 4615000   0.51187445   -4.6902402    2023.9087  0.036545842  0.035691124           27 
 4616000   0.51585388   -4.7129583     2028.896  0.036627961  0.035681845            9 
 4617000   0.51929724    -4.687576    2029.8387  0.036637043  0.035672559           10 
 4618000   0.51067917   -4.7163128    2027.0705  0.036579155  0.035663309           11 
 4619000   0.50778026   -4.7004218    2024.3195  0.036521604  0.035654022           13 
 4620000   0.51049747   -4.6858751    2026.8408  0.036559177   0.03564476           21 
 4621000   0.51831765   -4.7025793     2029.835  0.036605263  0.035635491           16 
 4622000   0.52002401   -4.6923055    2028.8043  0.036578759   0.03562624           12 
 4623000   0.51502699   -4.6966765    2026.1476  0.036522958  0.035616994           11 
 4624000   0.50868228    -4.709115    2027.5139  0.036539683  0.035607728           41 
 4625000   0.51890929    -4.696314    2028.5961  0.036551281  0.035598472           31 
 4626000   0.51337661   -4.7044336    2025.7889   0.03649281  0.035589203           19 
 4627000   0.51513473    -4.699953    2023.8573  0.036450134  0.035579952           27 
 4628000    0.5062647   -4.7070297    2023.1504   0.03642953  0.035570692           20 
 4629000    0.5194811   -4.7001055    2028.1472  0.036511615  0.035561427           22 
 4630000   0.51635482    -4.697241    2029.4764  0.036527652  0.035552181           24 
 4631000    0.5154111   -4.7082172    2023.5513  0.036413145  0.035542931           21 
 4632000   0.51852182   -4.7085115     2023.137   0.03639783  0.035533674           10 
 4633000   0.52090937   -4.6915688    2027.9622  0.036476765   0.03552442           18 
 4634000   0.51347043   -4.6870838    2022.0794  0.036363102  0.035515185           18 
 4635000   0.50292989   -4.7014986    2027.5509   0.03645363  0.035505946           17 
 4636000   0.50510884   -4.7109153     2026.627  0.036429159  0.035496719            7 
 4637000   0.50856422   -4.7137497    2021.8024  0.036334599  0.035487484           11 
 4638000   0.51402153   -4.7031221    2024.7322  0.036379405  0.035478258           19 
 4639000   0.51295232   -4.7242373     2027.596  0.036423008  0.035469022           18 
 4640000   0.51163708   -4.7220185    2026.6099  0.036397448  0.035459797           33 
 4641000   0.50690899   -4.7136895    2023.1532  0.036327537  0.035450546           15 
 4642000   0.50553678   -4.6937764    2025.6835  0.036365136   0.03544129           26 
 4643000   0.52007434   -4.7242126    2023.0032  0.036309197  0.035432052           20 
 4644000   0.51528978   -4.7117293    2024.1911  0.036322694  0.035422765           31 
 4645000   0.51379226   -4.7060864    2026.4175  0.036354816  0.035413489           31 
 4646000    0.5009329   -4.7264326    2025.9563  0.036338719  0.035404226           28 
 4647000   0.52065212   -4.7119953    2024.3051   0.03630129     0.035395           16 
 4648000   0.52207983   -4.7199758    2026.0942  0.036325556  0.035385794           28 
 4649000   0.50845132   -4.7180304    2028.7018  0.036364483  0.035376593           21 
 4650000   0.50100402   -4.6996668    2027.3434  0.036332318  0.035367373           15 
 4651000   0.51181996   -4.7127201    2024.0748  0.036265942  0.035358163           39 
 4652000   0.50822289   -4.7096671    2027.5819  0.036320971  0.035348924           10 
 4653000   0.51308716   -4.7028946    2021.6025  0.036206077  0.035339702           18 
 4654000   0.50465787   -4.7223587    2023.4817  0.036231946  0.035330503           15 
 4655000   0.52144305   -4.7183293    2027.0545  0.036288122  0.035321284           21 
 4656000   0.49441252   -4.7501001    2024.8565  0.036240988  0.035312065           36 
 4657000   0.51015928   -4.7204183    2026.7901  0.036267806  0.035302863           19 
 4658000   0.50867061    -4.730441     2032.575  0.036363514  0.035293692           10 
 4659000   0.50932315   -4.7187738    2023.8446  0.036199552  0.035284516           26 
 4660000   0.50523685   -4.7118965     2025.321  0.036218187   0.03527533           16 
 4661000   0.50174924   -4.7275545    2024.4431  0.036194721  0.035266203           20 
 4662000    0.5073812   -4.6990145    2027.9369  0.036249409   0.03525707           16 
 4663000   0.50783765    -4.709582    2028.2222  0.036246733  0.035247933           16 
 4664000   0.49747928   -4.7158534    2024.0841  0.036165024  0.035238798            9 
 4665000   0.51594449   -4.7300991    2026.7112  0.036204201  0.035229661           29 
 4666000   0.51035418   -4.7231789    2028.8391  0.036234447  0.035220548           26 
 4667000   0.50240516   -4.7386792    2025.1058   0.03616002  0.035211415           55 
 4668000    0.5112394   -4.7238755    2027.6324  0.036197379   0.03520229           19 
 4669000   0.51382984   -4.7390912     2023.725  0.036119886  0.035193138           18 
 4670000    0.5046965   -4.7260012    2024.8159  0.036131619  0.035183993           29 
 4671000   0.50391199   -4.7219674    2028.6759  0.036192747  0.035174877           38 
 4672000   0.50407801   -4.7088613    2027.2827   0.03616015  0.035165784           19 
 4673000   0.49476318   -4.7160656    2027.3998    0.0361545  0.035156707           29 
 4674000   0.51138965   -4.7289397    2027.2072  0.036143331    0.0351476           51 
 4675000   0.50580269   -4.7381663    2026.9412  0.036130859  0.035138488           16 
 4676000   0.50080751   -4.7289266    2031.6887   0.03620774  0.035129395           42 
 4677000   0.49274642   -4.7283122    2027.4315  0.036124145  0.035120282           30 
 4678000   0.50383045   -4.7366176    2025.6375  0.036084465  0.035111211           42 
 4679000   0.49871824   -4.7262498    2030.2078   0.03615815  0.035102129           35 
 4680000   0.49577317   -4.7162983     2028.609  0.036121955  0.035093067           30 
 4681000   0.50366383   -4.7152042    2034.7432  0.036223442  0.035083969           31 
 4682000   0.50096602   -4.7413793    2028.7741  0.036109463  0.035074873           17 
 4683000   0.50666111   -4.7373841    2026.0076  0.036052524  0.035065754           19 
 4684000   0.50517336   -4.7401681    2026.0652  0.036045852  0.035056639           23 
 4685000   0.50304255   -4.7383676    2025.0108  0.036019402   0.03504753           13 
 4686000   0.50965495   -4.7353878    2024.4589  0.036001901  0.035038433           17 
 4687000   0.50068595   -4.7228957    2024.1099  0.035988015  0.035029329           45 
 4688000   0.50139673   -4.7221725    2032.5588  0.036130524  0.035020277           27 
 4689000   0.49630851   -4.7258335     2028.336  0.036047772  0.035011228           13 
 4690000   0.49986196   -4.7203662    2028.5754  0.036044339   0.03500217           15 
 4691000   0.50287045   -4.7316095    2024.7469  0.035968644  0.034993093           28 
 4692000   0.50312822   -4.7238978    2024.5075  0.035956727  0.034984036           40 
 4693000    0.5006539   -4.7111532    2029.7902  0.036042868  0.034974982           14 
 4694000   0.50378166   -4.7259563     2029.087  0.036022707  0.034965942            8 
 4695000   0.49106349    -4.734604    2025.8716  0.035957962   0.03495688           16 
 4696000   0.48735275   -4.7362657    2030.8129  0.036037991  0.034947808           20 
 4697000   0.49558322   -4.7431387    2026.2371  0.035949136   0.03493876           14 
 4698000   0.50461043   -4.7445209    2033.0016  0.036061472  0.034929705           43 
 4699000   0.49799524   -4.7245692     2027.609  0.035958164  0.034920703           56 
 4700000   0.50033283   -4.7387295    2031.8914  0.036026443  0.034911674           51 
 4701000   0.49105034   -4.7390882    2026.0404   0.03591506  0.034902595           10 
 4702000   0.49862071   -4.7517767    2025.1697  0.035891991  0.034893516           14 
 4703000   0.49854946   -4.7436488    2027.5274  0.035926136  0.034884454           12 
 4704000   0.50705189    -4.718068    2036.3297  0.036074435  0.034875437           20 
 4705000   0.49706837   -4.7252098    2029.4961  0.035945733  0.034866422           36 
 4706000   0.50968782   -4.7384326    2025.8574  0.035873662  0.034857395           19 
 4707000   0.50922312   -4.7306095    2031.5672  0.035967126  0.034848363           25 
 4708000   0.49413236   -4.7296511    2026.4652   0.03586918   0.03483933           32 
 4709000   0.49240273   -4.7407167    2027.2397  0.035875269  0.034830291           28 
 4710000   0.49792431   -4.7452203    2027.4272  0.035870969  0.034821239           26 
 4711000   0.50686992   -4.7342921    2022.9811  0.035784707  0.034812161           18 
 4712000   0.48540066   -4.7358298    2026.1394  0.035832969  0.034803101           63 
 4713000   0.49646456   -4.7266653    2023.3005   0.03577517  0.034794025           34 
 4714000   0.50206663   -4.7212186    2023.6459  0.035773687  0.034784993           24 
 4715000    0.4821027   -4.7411332    2025.1947  0.035793472  0.034775918           24 
 4716000   0.48880801   -4.7326605    2029.9023  0.035869068  0.034766852           18 
 4717000   0.49176507   -4.7138217    2026.2931  0.035797702  0.034757814           22 
 4718000     0.500261    -4.736935    2024.2071   0.03575327  0.034748766           13 
 4719000   0.50834015   -4.7403799     2021.956   0.03570594  0.034739719           30 
 4720000   0.50008395   -4.7300843    2033.9845  0.035910744  0.034730684            9 
 4721000   0.49508658   -4.7480683    2025.5295  0.035753892  0.034721684           16 
 4722000   0.50158333   -4.7306075    2025.7181   0.03574965  0.034712667           14 
 4723000   0.49353204   -4.7452661    2026.4451  0.035754907  0.034703619            9 
 4724000   0.49552689   -4.7172926    2029.2708  0.035797185   0.03469456           18 
 4725000   0.49434833   -4.7445079    2026.8037  0.035746096  0.034685524           30 
 4726000   0.51168058   -4.7415277    2028.2018  0.035763186  0.034676496           12 
 4727000    0.4884933   -4.7419828    2026.7266  0.035729613  0.034667476            6 
 4728000   0.49813306   -4.7473287    2025.1083  0.035693534  0.034658463           12 
 4729000   0.49299865   -4.7419653     2021.969  0.035630665  0.034649416           15 
 4730000   0.49701641   -4.7534889      2024.01  0.035659091  0.034640391           14 
 4731000    0.4760104   -4.7515632    2026.0109  0.035686799  0.034631364           18 
 4732000   0.49542198   -4.7393539    2025.9286  0.035677807  0.034622349           24 
 4733000   0.49553397   -4.7447254    2027.7264  0.035701923  0.034613333           22 
 4734000    0.5016857   -4.7527365    2025.8217  0.035660853  0.034604296           35 
 4735000   0.49330793   -4.7489616    2023.0205  0.035604021  0.034595259           23 
 4736000   0.50136577   -4.7466245    2025.7589  0.035644688  0.034586248           17 
 4737000   0.49629594   -4.7356707    2027.7991  0.035673054  0.034577251           14 
 4738000   0.49972037    -4.735788    2025.2258  0.035620265  0.034568232           13 
 4739000   0.47897819   -4.7544303    2026.7169   0.03563897  0.034559234           11 
 4740000   0.49055093   -4.7267737    2028.7943  0.035667972  0.034550227           32 
 4741000   0.50353658   -4.7386019    2029.8082  0.035678271  0.034541236           20 
 4742000   0.48919461    -4.751202    2026.7669  0.035617301  0.034532268           10 
 4743000   0.49504097   -4.7561748    2033.8881  0.035734909  0.034523266           12 
 4744000   0.49762955   -4.7475464    2026.9679  0.035605816  0.034514275           23 
 4745000   0.49815628   -4.7426339    2024.7327  0.035559056  0.034505282           21 
 4746000    0.4876291   -4.7348247    2028.3738  0.035615497  0.034496274           20 
 4747000   0.48915401   -4.7431546    2030.0787  0.035637924  0.034487283           35 
 4748000   0.49997074   -4.7536098    2033.5552  0.035691435   0.03447827           55 
 4749000   0.49189279    -4.741358    2025.5438  0.035543339   0.03446926           41 
 4750000    0.5047521   -4.7438133    2027.8199  0.035575787  0.034460275           22 
 4751000   0.49256554   -4.7486537    2025.4596    0.0355269  0.034451299           19 
 4752000   0.48341244   -4.7448518    2029.8375  0.035596197  0.034442312           29 
 4753000   0.48926668   -4.7501178    2024.0825  0.035487806  0.034433331           27 
 4754000   0.49632899   -4.7394428    2026.6832  0.035525929   0.03442436           15 
 4755000   0.47924355   -4.7345482    2029.7428  0.035572078  0.034415373           34 
 4756000   0.48883361   -4.7519586    2024.0505  0.035464861  0.034406393           18 
 4757000   0.48703064   -4.7501689    2025.8799  0.035489452  0.034397385           27 
 4758000   0.48698565   -4.7632986    2022.3198  0.035419641  0.034388381           25 
 4759000    0.4984942   -4.7408037    2025.1872  0.035462409    0.0343794           11 
 4760000   0.49802436   -4.7420723    2027.7021  0.035498987   0.03437042           23 
 4761000   0.49522965   -4.7478269    2024.4272  0.035434209  0.034361467           17 
 4762000   0.48117672   -4.7470161    2032.9826  0.035576484  0.034352525           10 
 4763000    0.4902446   -4.7453616    2024.8682  0.035427045  0.034343566           17 
 4764000   0.48187252   -4.7321637    2025.8785  0.035437281  0.034334624           22 
 4765000   0.48731916    -4.746677    2028.5006  0.035475702   0.03432568            8 
 4766000    0.4958541   -4.7441522    2026.9064  0.035440383  0.034316734           22 
 4767000   0.49014988   -4.7502694    2027.7672  0.035447996  0.034307762           20 
 4768000   0.49978272   -4.7628791    2028.7697  0.035458083    0.0342988           16 
 4769000    0.4823981   -4.7493118    2026.1567  0.035404989  0.034289841           22 
 4770000   0.48930084   -4.7468006    2025.9276  0.035393563  0.034280888           22 
 4771000   0.49020339   -4.7686625    2029.4247  0.035447228  0.034271939           32 
 4772000    0.4921499   -4.7372417    2027.4311  0.035404986  0.034262998           23 
 4773000   0.48781441   -4.7608163    2025.6121   0.03536581   0.03425407           28 
 4774000   0.49150951    -4.758718    2025.3403  0.035353658  0.034245129           15 
 4775000   0.48858993   -4.7636309    2024.7604  0.035336132  0.034236195           25 
 4776000   0.48741958   -4.7500966    2032.5377  0.035464435  0.034227287           12 
 4777000   0.48983289   -4.7379845    2026.6635  0.035354538  0.034218404           18 
 4778000   0.48717297   -4.7553849    2026.4746  0.035343844  0.034209527           16 
 4779000   0.47525454   -4.7460646    2027.9182  0.035361621  0.034200654           21 
 4780000     0.483137   -4.7512311    2027.1106  0.035340142  0.034191754           24 
 4781000   0.48874363   -4.7464988     2031.255  0.035404988  0.034182849           41 
 4782000   0.48874102   -4.7497776    2028.8189  0.035355133  0.034173962           12 
 4783000   0.49196944    -4.745318    2025.7726  0.035294666  0.034165067           14 
 4784000   0.48802155   -4.7494106    2027.3855  0.035315383   0.03415619           16 
 4785000   0.49207249   -4.7582056    2030.0459  0.035354336  0.034147321           13 
 4786000   0.48658222   -4.7612707    2028.6071  0.035321896  0.034138447            8 
 4787000    0.4899332    -4.758833    2025.0579  0.035252732  0.034129547           31 
 4788000   0.49114299   -4.7672066     2025.257  0.035248833  0.034120658           21 
 4789000   0.48898335    -4.746014    2028.4249  0.035296597   0.03411178           29 
 4790000   0.48893607   -4.7581911    2030.6418  0.035327798  0.034102884           45 
 4791000   0.48272556   -4.7584458    2027.0205  0.035257436  0.034093984           25 
 4792000   0.47953061    -4.757595    2029.5267  0.035293661  0.034085112           25 
 4793000   0.49593389   -4.7673181    2027.9952  0.035259671  0.034076261           15 
 4794000   0.48313863   -4.7499689    2025.7786  0.035213785  0.034067417            9 
 4795000   0.48726534   -4.7575993    2028.1254  0.035247226  0.034058568           10 
 4796000   0.48860954   -4.7539045    2029.2231   0.03525895    0.0340497           14 
 4797000   0.47227245   -4.7747887     2024.375  0.035167379  0.034040824           26 
 4798000   0.47808899    -4.761193    2025.1567  0.035173627  0.034031942           33 
 4799000   0.49017867   -4.7726208    2024.2936   0.03515131  0.034023041           45 
 4800000   0.48164458   -4.7609245     2023.283  0.035126441  0.034014149           32 
 4801000   0.48638992   -4.7772422    2025.3498  0.035154999  0.034005235           29 
 4802000   0.47957748   -4.7640258    2024.9132  0.035140101  0.033996341           19 
 4803000   0.48956223   -4.7773445    2027.5475  0.035178492  0.033987446           27 
 4804000   0.49459142   -4.7688294     2027.325  0.035167308  0.033978547           19 
 4805000    0.4882207   -4.7474307    2025.6671  0.035131237  0.033969677           20 
 4806000   0.47804897   -4.7772903    2028.3677  0.035170753  0.033960798           13 
 4807000    0.4656413   -4.7660455    2023.2493  0.035074706  0.033951931           37 
 4808000   0.48186341   -4.7790969    2029.4241  0.035174433   0.03394306           40 
 4809000   0.48657798   -4.7775414    2019.4281  0.034993901  0.033934152           38 
 4810000   0.48007258   -4.7860587    2024.5704  0.035075717  0.033925236           55 
 4811000   0.48536612   -4.7885873    2021.1541  0.035009251  0.033916349           49 
 4812000   0.48981235   -4.7889816    2023.5757  0.035043912  0.033907453           73 
 4813000   0.48492817   -4.7939165      2024.12  0.035046056  0.033898548           67 
 4814000   0.48624205   -4.7796948    2027.2535  0.035093018  0.033889637           45 
 4815000   0.47878292   -4.7807754    2022.0828  0.034996242  0.033880746           59 
 4816000   0.47870229   -4.7759001    2027.4204  0.035081334  0.033871866           64 
 4817000   0.48091212   -4.7673146    2024.1491  0.035017458  0.033862995           33 
 4818000   0.47393013   -4.7810222    2028.0214  0.035077165  0.033854143           49 
 4819000   0.47864618   -4.7840872    2026.6899  0.035046861  0.033845309           60 
 4820000   0.48134075   -4.7672713    2029.2899  0.035084542  0.033836453           25 
 4821000   0.49268503   -4.7740992    2024.3576  0.034992007  0.033827612           16 
 4822000   0.47423672   -4.7658201    2025.2953  0.035000956  0.033818792           21 
 4823000   0.47144748   -4.7680383    2029.5468  0.035067157  0.033809958           16 
 4824000   0.48007224   -4.7653212    2025.9651  0.034998015  0.033801139           40 
 4825000     0.479212   -4.7706756    2024.3065  0.034962116  0.033792315           41 
 4826000   0.48063044   -4.7763754    2024.7947  0.034963301   0.03378347           52 
 4827000   0.48016231   -4.7573819    2021.4423  0.034898181  0.033774627           27 
 4828000     0.481864   -4.7620979    2030.6665  0.035050167  0.033765781           25 
 4829000   0.48567244   -4.7807901    2026.5674  0.034972172  0.033756956           57 
 4830000    0.4847456   -4.7759283     2020.971  0.034868375  0.033748125           61 
 4831000   0.47953803   -4.7679089     2027.514  0.034974023  0.033739308           23 
 4832000   0.48720547   -4.7988569    2024.4017  0.034913108  0.033730476           18 
 4833000   0.48047944   -4.7702693    2026.5348  0.034942666  0.033721643           34 
 4834000   0.47629266   -4.7672938    2022.9955  0.034874423  0.033712827           27 
 4835000   0.48051203   -4.7712828    2029.3989  0.034977575  0.033703981           17 
 4836000    0.4702756   -4.7700102    2024.8161  0.034891371   0.03369515           16 
 4837000   0.47971411   -4.7734075    2022.0362  0.034836266  0.033686316           35 
 4838000   0.48194182    -4.766291     2028.145  0.034934287  0.033677508           13 
 4839000   0.48039983   -4.7792779    2026.6444  0.034901227   0.03366866           19 
 4840000    0.4775166   -4.7740271       2019.9  0.034777893  0.033659813           14 
 4841000   0.47753969   -4.7790417    2025.2119  0.034862148  0.033650978           18 
 4842000   0.48162066   -4.7701209    2030.6346  0.034948276  0.033642171            9 
 4843000    0.4859483   -4.7793544    2027.8398  0.034892969  0.033633362           27 
 4844000   0.48999661   -4.7633822    2025.0506  0.034837782  0.033624535           40 
 4845000    0.4906551   -4.7736559    2026.8162   0.03486096  0.033615717           22 
 4846000   0.47331212   -4.7856477    2029.1874  0.034894542  0.033606908           66 
 4847000   0.46934817   -4.7685394    2025.8572  0.034830088  0.033598112           45 
 4848000   0.47988012   -4.7693249    2025.4187  0.034815365  0.033589321           38 
 4849000   0.48531201   -4.7751938    2024.4987  0.034792375  0.033580496           40 
 4850000   0.48448517   -4.7886353    2025.4798  0.034802058  0.033571683           46 
 4851000   0.47762616   -4.7922534    2025.7286  0.034799159  0.033562859           56 
 4852000   0.47211777   -4.7645389    2024.3244   0.03476787   0.03355406           58 
 4853000   0.47377136   -4.7697452    2028.7417  0.034836557  0.033545294           12 
 4854000   0.46872372   -4.7824693    2026.0043  0.034782385  0.033536529           31 
 4855000   0.47819361   -4.7835869    2022.8121  0.034720427  0.033527742           57 
 4856000   0.47923827   -4.7822846    2023.0118  0.034716705  0.033518936           76 
 4857000   0.47205084   -4.7738047    2024.6034  0.034736865  0.033510155           32 
 4858000   0.47464405   -4.7888972    2018.5054  0.034625109  0.033501321           22 
 4859000   0.45836707   -4.7929972     2023.115   0.03469704  0.033492508           54 
 4860000   0.47706727   -4.7975321     2026.744  0.034752126  0.033483685           60 
 4861000   0.47221459   -4.7739173     2027.054  0.034750291  0.033474897           24 
 4862000    0.4787452   -4.7733829     2028.851  0.034773944  0.033466128           35 
 4863000   0.47593898   -4.7799364    2027.2747  0.034739781  0.033457357           11 
 4864000   0.47251754   -4.7821872     2019.261  0.034595343  0.033448575           22 
 4865000   0.47392658   -4.7904054    2027.6355  0.034731681  0.033439801           30 
 4866000   0.46848701   -4.7797336    2026.6481  0.034707634  0.033431011           47 
 4867000   0.48070853   -4.7804495    2023.1025  0.034639794  0.033422241           28 
 4868000   0.47587401   -4.7885529    2027.5023  0.034707996  0.033413461           37 
 4869000   0.47442839   -4.7976029    2025.4394  0.034665561  0.033404692           25 
 4870000   0.46171859   -4.7627641    2024.4991  0.034642353  0.033395942           36 
 4871000   0.46913194   -4.7789851     2026.437  0.034668394  0.033387199           49 
 4872000   0.47059366   -4.7953118    2022.5829  0.034595357  0.033378447           36 
 4873000   0.46777105   -4.7904354    2024.2759  0.034617209  0.033369684           33 
 4874000   0.47983347   -4.7926279    2023.6496  0.034599397  0.033360916           81 
 4875000   0.47690541    -4.772225     2020.314  0.034535282  0.033352152           85 
 4876000   0.47340069    -4.811295    2021.5579  0.034549459  0.033343382           69 
 4877000   0.48047389   -4.7854615    2022.7663  0.034563022  0.033334603           48 
 4878000   0.47154279   -4.8063413    2021.7871  0.034539208  0.033325814          145 
 4879000   0.47546723   -4.7904617    2022.8565  0.034550395  0.033317023           92 
 4880000   0.46061967   -4.8180843    2018.7088  0.034472487  0.033308222           51 
 4881000   0.46238177   -4.7981728     2017.981  0.034452997  0.033299419          105 
 4882000   0.46463315   -4.8046611    2021.6522  0.034508607  0.033290609          122 
 4883000   0.46967061   -4.8074634    2019.5398  0.034465489  0.033281811           65 
 4884000   0.47561277   -4.7869348     2022.073  0.034501655  0.033273047           45 
 4885000   0.47433464   -4.7936669    2018.9538  0.034441382  0.033264297           80 
 4886000   0.46420577   -4.7989758    2015.6253  0.034377563  0.033255516           71 
 4887000   0.46639106   -4.8289185    2020.2589  0.034449541  0.033246717           88 
 4888000   0.47649579   -4.7938643    2016.6414  0.034380821  0.033237924           78 
 4889000   0.46315933    -4.815388     2017.129  0.034382099  0.033229117           85 
 4890000   0.46043976   -4.8130395    2020.9674   0.03444048  0.033220314          130 
 4891000   0.47762197   -4.8170615    2022.9014  0.034466391  0.033211526           72 
 4892000   0.46701723   -4.7916825    2021.2084  0.034430505  0.033202759           44 
 4893000   0.46514948   -4.7885686    2022.2119   0.03444056  0.033193998           82 
 4894000    0.4662448   -4.8060705    2020.7058  0.034407876  0.033185246           32 
 4895000   0.46846279   -4.7991574    2019.8277  0.034385899  0.033176496           90 
 4896000   0.45526591    -4.800244     2025.001  0.034466929  0.033167744           41 
 4897000   0.45899061   -4.7951654    2023.1981  0.034429211  0.033158994           39 
 4898000     0.465622   -4.8108961    2020.9994  0.034384774  0.033150258           69 
 4899000    0.4618477   -4.7916386    2021.6229   0.03438836  0.033141535           54 
 4900000   0.47538429   -4.7907243    2023.9052  0.034420156    0.0331328           57 
 4901000   0.47605205   -4.8034129    2021.1314  0.034365969  0.033124058           50 
 4902000   0.46024431   -4.7995313    2029.2534  0.034497031  0.033115327           38 
 4903000    0.4670054    -4.790713    2022.4493   0.03437435  0.033106598           29 
 4904000   0.46622572   -4.7998103    2021.8672   0.03435745  0.033097852           30 
 4905000   0.46763093   -4.7871511    2025.8108  0.034417445  0.033089136           26 
 4906000   0.47584344   -4.8124429    2022.3389  0.034351456  0.033080404           23 
 4907000   0.46947749   -4.8005832    2017.9586  0.034270066   0.03307168           27 
 4908000   0.46993083   -4.8176795    2020.6528  0.034308829  0.033062953           39 
 4909000   0.47586572   -4.8228235    2023.5933  0.034351757  0.033054219           26 
 4910000    0.4554478   -4.8060989     2021.423  0.034307927  0.033045492           30 
 4911000   0.46513656   -4.8078988    2026.2094  0.034382159  0.033036784           36 
 4912000   0.47474179   -4.7954071    2022.2451  0.034307904  0.033028095           36 
 4913000   0.46714849   -4.7961472    2024.8677  0.034345405  0.033019406           20 
 4914000   0.46062874   -4.8154302    2021.3044  0.034277987   0.03301073           21 
 4915000   0.46910204    -4.808372    2024.2361  0.034320721   0.03300205           22 
 4916000   0.46360788   -4.7965443    2022.4842  0.034284042  0.032993346           23 
 4917000   0.46541889   -4.7993085     2024.419  0.034309861  0.032984644           47 
 4918000   0.46793531   -4.8094317    2021.0668  0.034246083  0.032975946           14 
 4919000   0.47431367   -4.8155225     2019.947   0.03422015  0.032967263           51 
 4920000    0.4719025   -4.8187898    2020.5483  0.034223379  0.032958562           39 
 4921000   0.46268754   -4.8108089    2023.4547  0.034265643  0.032949855           43 
 4922000   0.46636895   -4.8092511    2024.5165  0.034276657   0.03294117           29 
 4923000   0.47013683   -4.7981126    2022.7707  0.034240144  0.032932487           31 
 4924000   0.47422156   -4.8051756      2019.47  0.034177329  0.032923802           39 
 4925000   0.46600404   -4.8166328    2022.9005  0.034228436  0.032915129           42 
 4926000   0.45861288   -4.7987724    2020.0254  0.034172849  0.032906449           16 
 4927000   0.47325086   -4.8022671    2026.4138  0.034273963   0.03289778           40 
 4928000   0.45305985   -4.8013157    2024.8744  0.034240977   0.03288912           29 
 4929000   0.46387197   -4.7898714    2021.3496  0.034174437  0.032880458           28 
 4930000   0.47146413    -4.801307    2022.5351  0.034187544  0.032871805           15 
 4931000   0.47037462   -4.8061882    2021.9103  0.034170052  0.032863168           21 
 4932000   0.46052473   -4.8080132    2022.2999  0.034169706  0.032854508           35 
 4933000   0.46547304   -4.8128659    2023.2965  0.034179616  0.032845855           47 
 4934000   0.46781367   -4.7995121    2020.9888  0.034133711  0.032837214           15 
 4935000   0.45893317   -4.8060143    2022.1809  0.034146925  0.032828589           15 
 4936000   0.46780863   -4.7976802    2023.9348  0.034169618  0.032819959           15 
 4937000   0.46756502   -4.8251512    2019.7726  0.034092441  0.032811294           21 
 4938000   0.45857686   -4.8131282    2020.3951  0.034096043  0.032802633           18 
 4939000   0.46204989    -4.808779    2023.7938  0.034146484  0.032793989           34 
 4940000   0.45977735   -4.8116627    2023.3937  0.034132823   0.03278534           10 
 4941000   0.45910383   -4.8129253    2020.6441   0.03407954   0.03277671           45 
 4942000   0.46401408   -4.8051408    2024.1719   0.03413213  0.032768087           22 
 4943000   0.45979729   -4.8080762    2023.1954  0.034108764  0.032759457           15 
 4944000   0.45801904   -4.8045155    2023.1575  0.034101225  0.032750834           58 
 4945000   0.46413777   -4.7968819    2018.8039  0.034020963  0.032742209           61 
 4946000   0.45434734   -4.8096771    2023.9677  0.034101087  0.032733605           82 
 4947000   0.46270039    -4.785391    2019.5578  0.034019908  0.032725015           33 
 4948000   0.45574352   -4.8014195    2025.1917  0.034107917  0.032716424           36 
 4949000   0.45770656   -4.8091524    2017.9369  0.033978866  0.032707825           26 
 4950000   0.45809785   -4.8106844    2026.7016  0.034119555  0.032699213           28 
 4951000   0.46114286    -4.799174    2023.9589  0.034066501  0.032690606           53 
 4952000   0.47103858   -4.8119998    2020.4097  0.033999894  0.032681999           53 
 4953000   0.46392266   -4.8321598    2020.5566  0.033995501  0.032673397           27 
 4954000   0.45959071   -4.8206072    2021.2277  0.033999928  0.032664763           24 
 4955000   0.46554016   -4.8130595    2024.5121  0.034048303  0.032656151           51 
 4956000   0.46439281   -4.7972175    2021.3287  0.033987905  0.032647534           44 
 4957000   0.45539196    -4.822046    2019.0862   0.03394335  0.032638943           31 
 4958000   0.46525951   -4.8186963    2022.4576  0.033993169  0.032630335           39 
 4959000   0.45992043   -4.8182465    2022.0341  0.033979198  0.032621736           86 
 4960000   0.45966508   -4.8120553    2021.9188   0.03397041  0.032613105           58 
 4961000   0.46628887    -4.834674    2020.5833  0.033941129  0.032604505           55 
 4962000   0.46404562   -4.8407655      2022.87  0.033972693  0.032595894           78 
 4963000   0.45586688    -4.816999    2019.3664  0.033907019  0.032587289           50 
 4964000   0.45568867   -4.8169573    2025.3545  0.034000713  0.032578696           82 
 4965000   0.46192993   -4.8346437    2016.7589  0.033849596  0.032570058           74 
 4966000   0.45185871   -4.8303312    2019.4037  0.033887161  0.032561431           54 
 4967000    0.4668458   -4.8327979    2024.0229  0.033957836  0.032552792           76 
 4968000   0.46083807    -4.834559    2013.0249  0.033766521   0.03254415          118 
 4969000   0.45724282   -4.8465888     2017.307  0.033831539  0.032535527          168 
 4970000   0.46747994   -4.8404142    2019.9679  0.033869347    0.0325269          296 
 4971000   0.46389039   -4.8294679    2018.5895  0.033839427  0.032518257          141 
 4972000   0.45813808    -4.833644     2018.675  0.033834055  0.032509633          166 
 4973000   0.45667532   -4.8191525    2014.4095  0.033755773  0.032501015          225 
 4974000   0.44486536   -4.8274391    2016.3923  0.033782206  0.032492389          122 
 4975000   0.44802465     -4.83414    2022.1433  0.033871747  0.032483779           73 
 4976000   0.45792765   -4.8334828    2020.2115  0.033832588  0.032475159           44 
 4977000    0.4620175   -4.8321087    2024.0518  0.033890091  0.032466554           88 
 4978000   0.45145824   -4.8277394    2019.7416   0.03381113  0.032457956           26 
 4979000   0.46347245   -4.8107245     2021.954  0.033841368  0.032449364           29 
 4980000   0.46117406   -4.8311139    2017.9797  0.033768067  0.032440773           43 
 4981000   0.45627014   -4.8260426    2016.7944  0.033741457  0.032432181           36 
 4982000   0.45845112   -4.8467216    2022.3117  0.033826972  0.032423604           33 
 4983000    0.4672935   -4.8276772    2020.9947  0.033798158  0.032415027           25 
 4984000   0.45248688   -4.8468821    2015.9407  0.033706874  0.032406431           63 
 4985000   0.44610479   -4.8461389    2017.1237  0.033719888  0.032397826           91 
 4986000   0.45601267   -4.8480797    2019.7153  0.033756439  0.032389226           75 
 4987000   0.45181574   -4.8517771     2020.694  0.033766025  0.032380656           31 
 4988000   0.45795696   -4.8260625    2019.6457  0.033741743  0.032372066           67 
 4989000    0.4589098   -4.8410829    2022.1283  0.033776446  0.032363484           75 
 4990000   0.45859107   -4.8280365    2024.0317  0.033801465  0.032354929           31 
 4991000   0.44401629   -4.8303906    2022.4402  0.033768119  0.032346377           42 
 4992000   0.46475625   -4.8311071    2022.6674  0.033765148  0.032337819           44 
 4993000    0.4619344   -4.8429076    2022.0453  0.033748002  0.032329261           30 
 4994000   0.45135532   -4.8153901    2018.5527  0.033682964    0.0323207          103 
 4995000   0.45152698   -4.8361127    2018.4312  0.033674194  0.032312115           43 
 4996000   0.46690528   -4.8412605    2017.2634  0.033647975  0.032303559           20 
 4997000   0.45313842   -4.8361395    2020.6566  0.033697829  0.032294997           48 
 4998000   0.45070568   -4.8387246    2017.9402  0.033645796  0.032286425           33 
 4999000   0.45403978   -4.8442293    2018.0373  0.033640682   0.03227783           71 
 5000000   0.45593738   -4.8578235    2020.5111  0.033675186  0.032269239           42 
 5001000   0.45292183   -4.8646869      2017.99  0.033626441  0.032260641           39 
 5002000   0.44589035   -4.8447017     2015.966  0.033585999  0.032252056           69 
 5003000    0.4597859   -4.8335984    2012.3225  0.033518598  0.032243491           55 
 5004000   0.45179707   -4.8614764    2015.4407  0.033563827  0.032234908           46 
 5005000   0.44576503    -4.844271     2017.814  0.033596637  0.032226355           85 
 5006000   0.45386819   -4.8391029    2011.4431  0.033483872  0.032217787           68 
 5007000   0.45032967   -4.8420646    2019.0497  0.033603784  0.032209229           51 
 5008000   0.45536016   -4.8362148    2016.7867  0.033559416  0.032200687           40 
 5009000    0.4418184   -4.8429206    2019.3038  0.033594593  0.032192135           39 
 5010000   0.44757455   -4.8496181    2017.7079  0.033561342  0.032183596          122 
 5011000   0.44136534   -4.8448723    2015.8143  0.033523154  0.032175036           70 
 5012000   0.44467509   -4.8425338    2014.5818  0.033495974  0.032166487           41 
Loop time of 12369.7 on 48 procs for 5000000 steps with 4000 atoms

Performance: 69847.961 tau/day, 404.213 timesteps/s
99.4% CPU use with 48 MPI tasks x no OpenMP threads

MPI task timing breakdown:
Section |  min time  |  avg time  |  max time  |%varavg| %total
---------------------------------------------------------------
Pair    | 864.12     | 913.42     | 979.55     |  92.2 |  7.38
Neigh   | 83.738     | 86.808     | 90.287     |  19.8 |  0.70
Comm    | 793.34     | 860.41     | 915.42     | 101.0 |  6.96
Output  | 14.316     | 14.32      | 14.398     |   0.3 |  0.12
Modify  | 10363      | 10383      | 10401      |   8.1 | 83.94
Other   |            | 112.2      |            |       |  0.91

Nlocal:        83.3333 ave          91 max          78 min
Histogram: 5 4 7 12 4 5 6 1 1 3
Nghost:        2282.85 ave        2307 max        2262 min
Histogram: 1 3 6 5 13 8 7 2 1 2
Neighs:        15338.3 ave       17198 max       13802 min
Histogram: 2 4 5 9 10 8 3 3 2 2
FullNghs:      30675.9 ave       33845 max       28468 min
Histogram: 6 4 9 5 9 4 5 2 2 2

Total # of neighbors = 1472443
Ave neighs/atom = 368.11075
Neighbor list builds = 270085
Dangerous builds = 0

#clear
#
#next RN
#
#jump SELF
Total wall time: 3:26:13
