
units lj                  # Use reduced LJ style units
atom_style atomic         # Uncharged point particles
atom_modify map hash      # Needed for indexing of clusters etc
                          # Used to be able to find where atoms are in relation to each other.

lattice fcc 1.0 spacing 1 1 1
Lattice spacing in x,y,z = 1.5874011 1.5874011 1.5874011
region box block 0 10 0 10 0 10 units lattice
create_box 2 box
Created orthogonal box = (0.0000000 0.0000000 0.0000000) to (15.874011 15.874011 15.874011)
  3 by 4 by 4 MPI processor grid
create_atoms 1 box
Created 4000 atoms
  using lattice units in orthogonal box = (0.0000000 0.0000000 0.0000000) to (15.874011 15.874011 15.874011)
  create_atoms CPU = 0.003 seconds
set type 1 type/fraction 2 0.09 78393
Setting atom values ...
  390 settings made for type/fraction
mass 1 1.0
mass 2 1.0
pair_style lj/cut  3.5
pair_modify tail  yes
pair_coeff 1  1  1.0  1.0   # Intearaction between 1 and 1 set with epsilon = 1 and sigma = 1
pair_coeff 1  2  1.5  0.8
pair_coeff 2  2  0.5  0.88

write_data data.0
System init for write_data ...
Neighbor list info ...
  update every 1 steps, delay 10 steps, check yes
  max neighbors/atom: 2000, page size: 100000
  master list distance cutoff = 3.8
  ghost atom cutoff = 3.8
  binsize = 1.9, bins = 9 9 9
  1 neighbor lists, perpetual/occasional/extra = 1 0 0
  (1) pair lj/cut, perpetual
      attributes: half, newton on
      pair build: half/bin/atomonly/newton
      stencil: half/bin/3d
      bin: standard
WARNING: Not all mixed pair coeffs generated from mixing. Use write_data with 'pair ij' option to store all pair coeffs. (../write_data.cpp:312)


#############################
#   M E L T   S Y S T E M   #
#############################

velocity all create 2.4 6229865 mom yes dist gaussian # Assign velocities
                                                    # Temperature 2.4, random number seed, zero linear momentum
                                                                                # Gaussian distribution

timestep 0.002   # simulation timestep
thermo 1000       # output thermodynamic data every 1000 steps bf 100

# Define a fix  in this case with index 1 applied to all
# particles in the simulation. This fix is for simulations
# in the anisotropic NPT ensemble. Note that we use the MTK
# correction.
fix 1 all npt temp 2.4 2.4 0.1 iso 5.68 5.68 0.5 mtk yes tchain 5 pchain 5 # Use NPT ensemble
                                                                         # Set temperature and pressure and damping
                                                                         # Numbers of thermostats in chain and in barostat
run 10000          # run for 10000 steps
Per MPI rank memory allocation (min/avg/max) = 3.642 | 3.644 | 3.648 Mbytes
Step Temp E_pair E_mol TotEng Press Volume 
       0          2.4   -7.7460071            0   -4.1469071   -2.9736732         4000 
    1000    2.4108628   -4.5703714            0  -0.95498127    5.7057209    4882.7465 
    2000     2.456414   -4.5333721            0  -0.84967221    5.9145081    4869.6525 
    3000    2.4489395   -4.5589199            0  -0.88642899    5.7841921    4876.9672 
    4000     2.391431   -4.6244308            0   -1.0381811    5.3896129    4890.2265 
    5000    2.4553348   -4.5907129            0  -0.90863148    6.0718212    4828.4215 
    6000    2.4080142   -4.5541619            0  -0.94304365    5.9110251    4852.2929 
    7000    2.3828967   -4.6171729            0   -1.0437214    5.8185294    4829.2206 
    8000    2.3729505   -4.6155378            0    -1.057002    5.8527321    4831.7769 
    9000    2.3851314    -4.604439            0   -1.0276364    5.5013634    4882.9968 
   10000    2.4310846   -4.6309515            0   -0.9852362    5.7100836    4842.5579 
Loop time of 2.14595 on 48 procs for 10000 steps with 4000 atoms

Performance: 805237.115 tau/day, 4659.937 timesteps/s
99.7% CPU use with 48 MPI tasks x no OpenMP threads

MPI task timing breakdown:
Section |  min time  |  avg time  |  max time  |%varavg| %total
---------------------------------------------------------------
Pair    | 0.90204    | 0.95697    | 1.0224     |   2.5 | 44.59
Neigh   | 0.19288    | 0.19884    | 0.20472    |   0.6 |  9.27
Comm    | 0.66386    | 0.73992    | 0.80764    |   3.3 | 34.48
Output  | 0.00026025 | 0.00026803 | 0.00033027 |   0.0 |  0.01
Modify  | 0.22066    | 0.23539    | 0.25419    |   2.3 | 10.97
Other   |            | 0.01457    |            |       |  0.68

Nlocal:        83.3333 ave          90 max          76 min
Histogram: 1 2 5 7 5 12 3 9 0 4
Nghost:        1442.98 ave        1464 max        1419 min
Histogram: 2 2 2 4 11 9 6 6 4 2
Neighs:        7857.73 ave        8515 max        6966 min
Histogram: 1 3 2 4 7 11 4 6 6 4

Total # of neighbors = 377171
Ave neighs/atom = 94.292750
Neighbor list builds = 907
Dangerous builds = 217

# Equilibrate just above the melting temperature to avoid step fn in T

fix 1 all npt temp 1.25 1.25 0.1 iso 5.68 5.68 0.5 mtk yes tchain 5 pchain 5
run 2000
Per MPI rank memory allocation (min/avg/max) = 3.642 | 3.644 | 3.648 Mbytes
Step Temp E_pair E_mol TotEng Press Volume 
   10000    2.4310846   -4.6309515            0   -0.9852362    5.7100836    4842.5579 
   11000    1.2360675   -6.1584387            0   -4.3048011    5.8948758    4003.1089 
   12000     1.248268   -6.1836459            0    -4.311712    5.6811189    4011.1425 
Loop time of 0.478 on 48 procs for 2000 steps with 4000 atoms

Performance: 723013.097 tau/day, 4184.104 timesteps/s
99.7% CPU use with 48 MPI tasks x no OpenMP threads

MPI task timing breakdown:
Section |  min time  |  avg time  |  max time  |%varavg| %total
---------------------------------------------------------------
Pair    | 0.20981    | 0.22735    | 0.24966    |   1.8 | 47.56
Neigh   | 0.032298   | 0.033732   | 0.036462   |   0.5 |  7.06
Comm    | 0.14085    | 0.16258    | 0.17738    |   2.2 | 34.01
Output  | 5.3585e-05 | 5.4686e-05 | 6.8203e-05 |   0.0 |  0.01
Modify  | 0.04408    | 0.049674   | 0.05842    |   1.6 | 10.39
Other   |            | 0.004607   |            |       |  0.96

Nlocal:        83.3333 ave          91 max          75 min
Histogram: 1 1 1 13 7 9 9 2 2 3
Nghost:        1641.04 ave        1662 max        1627 min
Histogram: 5 5 8 3 16 0 5 2 2 2
Neighs:        9509.50 ave       10812 max        8511 min
Histogram: 2 2 8 12 7 9 2 2 3 1

Total # of neighbors = 456456
Ave neighs/atom = 114.11400
Neighbor list builds = 142
Dangerous builds = 9

#############################
# L I N E A R  Q U E N C H  #
#############################

# Define solid atoms. This closely follows ten Wolde  Ruiz-Montero and Frenkel  Faraday Discuss  1996  104  93-110
# Compute components of the per-atom q6 vector
compute q6 all orientorder/atom degrees 1 6 components 6 nnn NULL cutoff 1.3 # compute the Q6 parameter.
                                                                             # Use all neighbours within 1.3 unit cell.

# get number of connections
compute coord_number all coord/atom orientorder q6 0.5

# An atom is solid if it has 8 or more connections (of a possible 14)
variable is_solid atom c_coord_number>=8
group solid dynamic all var is_solid    # Must be dynamic to update
dynamic group solid defined

# do clustering
compute cluster solid cluster/atom 1.3 # Create a cluster where all atoms within are solid and max 1.3 units from another member

# define chunks one chunk per cluster
compute clus_chunks solid chunk/atom c_cluster nchunk every compress yes  # Says which atoms are in which chunk

# count the size of each chunk
compute size_chunks solid property/chunk clus_chunks count


# Find the maximum entry in the vector of chunk sizes
variable max_n equal max(c_size_chunks)


# Thermo style which includes this variable
# thermo_style custom step temp pe vol v_max_n

thermo ${N}  # Print the thermo information every 100 steps
thermo 1000  

# Reset the npt fix at a lower temperature (below freezing)
fix 1  all npt temp  ${temp} ${temp}  0.1  iso  5.68  5.68  0.5  mtk yes tchain  5  pchain  5
fix 1  all npt temp  0.45 ${temp}  0.1  iso  5.68  5.68  0.5  mtk yes tchain  5  pchain  5
fix 1  all npt temp  0.45 0.45  0.1  iso  5.68  5.68  0.5  mtk yes tchain  5  pchain  5

dump dmp2 all dcd ${N} traj.dcd
dump dmp2 all dcd 1000 traj.dcd


compute msd all msd com yes
variable twopoint equal c_msd[4]/6/(step*dt+1.0e-6)
fix 9 all vector 10 c_msd[4]
variable fit equal slope(f_9)/6/(10*dt)
thermo_style custom step temp pe c_msd[4] v_twopoint v_fit v_max_n

fix 1 all npt temp 1.25 ${temp} 0.1 iso 5.68 5.68 0.5 mtk yes tchain 5 pchain 5
fix 1 all npt temp 1.25 0.45 0.1 iso 5.68 5.68 0.5 mtk yes tchain 5 pchain 5
run 2000000 # 5000000  # Run for this many steps
Neighbor list info ...
  update every 1 steps, delay 10 steps, check yes
  max neighbors/atom: 2000, page size: 100000
  master list distance cutoff = 3.8
  ghost atom cutoff = 3.8
  binsize = 1.9, bins = 9 9 9
  4 neighbor lists, perpetual/occasional/extra = 1 3 0
  (1) pair lj/cut, perpetual
      attributes: half, newton on
      pair build: half/bin/atomonly/newton
      stencil: half/bin/3d
      bin: standard
  (2) compute orientorder/atom, occasional
      attributes: full, newton on
      pair build: full/bin/atomonly
      stencil: full/bin/3d
      bin: standard
  (3) compute coord/atom, occasional
      attributes: full, newton on
      pair build: full/bin/atomonly
      stencil: full/bin/3d
      bin: standard
  (4) compute cluster/atom, occasional
      attributes: full, newton on
      pair build: full/bin/atomonly
      stencil: full/bin/3d
      bin: standard
Per MPI rank memory allocation (min/avg/max) = 9.749 | 9.753 | 9.757 Mbytes
Step Temp PotEng c_msd[4] v_twopoint v_fit v_max_n 
   12000     1.248268   -6.1836459 7.8886091e-34 5.4782005e-36 8.3333333e+20            3 
   13000    1.2479925   -6.1627319   0.56724261 0.0036361704  0.046689418            3 
   14000    1.2419553   -6.1897393    1.1066663 0.0065872994  0.045713131            3 
   15000    1.2752933   -6.2078005    1.6806776 0.0093370975  0.046095624            1 
   16000    1.2387244   -6.1229718    2.2143807  0.011533232  0.046378602            2 
   17000    1.2430007   -6.2173721     2.783089  0.013642593  0.046368518            4 
   18000    1.2609211    -6.187936    3.3363737  0.015446174  0.046418015            3 
   19000    1.2008855   -6.1478314    3.8163776  0.016738498  0.045905251            2 
   20000    1.2353944   -6.1571477    4.3258241  0.018024267  0.045291076            2 
   21000     1.251195   -6.1935752    4.8567906  0.019272978  0.044831633            3 
   22000    1.2652533   -6.1598768    5.3914684  0.020422228  0.044759171            4 
   23000    1.2445171   -6.1602525     5.905309  0.021396047  0.044583142            4 
   24000    1.2578672    -6.201033    6.4980427  0.022562648  0.044450099            2 
   25000    1.2541036   -6.1789721     7.084509  0.023615029  0.044573485            2 
   26000    1.2360751     -6.17733     7.657497  0.024543259  0.044806468            6 
   27000    1.1960646   -6.1922147    8.1858131  0.025264855   0.04498357            1 
   28000    1.2354895   -6.1952736    8.6930898  0.025872291  0.045012148            3 
   29000    1.2606148   -6.1910265    9.2665972  0.026628152  0.045104176            4 
   30000    1.2646552    -6.195834    9.7480665  0.027077962  0.045052661            1 
   31000    1.2382614   -6.1637196     10.24039  0.027527929  0.044997178            2 
   32000    1.2543429   -6.2332398    10.710802  0.027892713  0.044909679            3 
   33000    1.2796711   -6.1670831    11.313584  0.028569656   0.04481468            1 
   34000    1.2703799    -6.183157    11.971958  0.029343034  0.044848743            1 
   35000    1.2379376   -6.1812134    12.398555  0.029520368  0.044858548            3 
   36000    1.2285995   -6.1882707    12.891686  0.029841865  0.044814583            4 
   37000    1.2102059   -6.2067761    13.252224  0.029847351  0.044648333            2 
   38000    1.2212837   -6.1876288    13.686945  0.030015229  0.044462276            2 
   39000    1.2254823   -6.1867395    14.281205  0.030515394  0.044322113            2 
   40000    1.2270972   -6.2023736    14.704764  0.030634924  0.044161802            4 
   41000    1.2320676   -6.1986202    15.143433  0.030779335  0.044011418            2 
   42000    1.2728541   -6.2158174    15.750602  0.031251194  0.043900559            3 
   43000     1.220141   -6.1928521    16.264702  0.031520741  0.043818845            2 
   44000     1.224698   -6.1822704    16.780989  0.031782175  0.043711861            3 
   45000    1.2038151   -6.1542553    17.283894   0.03200721  0.043619435            4 
   46000    1.2178516   -6.2163095    17.726212  0.032112702  0.043514666            2 
   47000    1.2257902   -6.1879281       18.232  0.032326241  0.043427426            2 
   48000    1.2390533     -6.16298    18.875527  0.032770012  0.043375764            2 
   49000    1.2168493   -6.2173797    19.383019  0.032964318   0.04333337            1 
   50000    1.2364263   -6.2284048    19.872279  0.033120464  0.043298716            3 
   51000     1.215971    -6.237843    20.409163  0.033348306  0.043263743            5 
   52000    1.2376355   -6.2393009    20.918486  0.033523215  0.043235028            3 
   53000     1.242562   -6.2136217    21.599315  0.033961187   0.04322031            2 
   54000    1.2472719   -6.2428786    22.035113  0.034004804  0.043243743            3 
   55000    1.2297994   -6.2147318    22.576226  0.034206403  0.043263336            3 
   56000    1.2295448   -6.2386761    23.203285  0.034528697  0.043274946            3 
   57000    1.2011865   -6.2123898    23.702836  0.034653269  0.043293536            2 
   58000    1.2421989   -6.2144295    24.224644  0.034805523  0.043310898            3 
   59000    1.2170709   -6.2172742    24.802846  0.035032268  0.043330197            2 
   60000    1.1983043   -6.1974518    25.295515   0.03513266  0.043356272            5 
   61000    1.2438425   -6.2121557    25.779791  0.035218293  0.043377829            3 
   62000    1.2345829   -6.2354527    26.370829  0.035444663  0.043390373            3 
   63000    1.2474706   -6.1862556    26.833522  0.035494076  0.043404663            4 
   64000    1.2448764   -6.2514164    27.486055  0.035789134  0.043425973            2 
   65000    1.2147457   -6.1862716    27.798853  0.035639555  0.043440722            2 
   66000    1.1935028   -6.2476989    28.267385  0.035691143  0.043431053            2 
   67000    1.2159808   -6.2437681    28.778296    0.0357939  0.043426904            5 
   68000    1.1991822    -6.242539    29.206757  0.035792594  0.043412647            2 
   69000     1.227595   -6.2103138     29.60216  0.035751401  0.043378557            3 
   70000    1.2565284   -6.1932381    30.236627  0.035995984  0.043364971            2 
   71000    1.2163322   -6.2223919     30.81823  0.036171631  0.043348034            3 
   72000    1.2380705   -6.2355877    31.389236  0.036330134  0.043343304            2 
   73000    1.2211477   -6.2256194    32.082728  0.036624119  0.043342617            2 
   74000    1.2236054   -6.1921487    32.410609  0.036498433  0.043341628            4 
   75000     1.233731   -6.2315316    32.945851    0.0366065  0.043335306            2 
   76000    1.2272886   -6.2197397    33.383316  0.036604513  0.043321364            3 
   77000    1.2294568   -6.2150532    33.926634  0.036717136  0.043299949            1 
   78000    1.2169897   -6.2252369    34.319282    0.0366659  0.043276989            1 
   79000     1.192364   -6.1912997    34.765254  0.036672209  0.043243292            1 
   80000    1.2202842   -6.2330421    35.171267  0.036636736   0.04321891            2 
   81000    1.2115594   -6.2168107    35.799362   0.03683062  0.043187131            2 
   82000    1.2290528   -6.2700175      36.3604  0.036951626  0.043161098            2 
   83000    1.1919279   -6.2386425    36.573847   0.03672073  0.043135499            3 
   84000    1.2185488   -6.2259803    37.150072   0.03685523  0.043101312            7 
   85000    1.2422659   -6.2229965    37.786727  0.037045811  0.043073852            4 
   86000    1.2456437   -6.2206393     38.35746  0.037168081  0.043049653            1 
   87000    1.2332674   -6.1904866    38.979649  0.037336828  0.043030727            2 
   88000    1.2037895   -6.2312097    39.252037  0.037170489  0.043016618            1 
   89000    1.2075698    -6.218523      39.6829  0.037156273  0.042989878            3 
   90000    1.2234135   -6.2203821    40.266366  0.037283672  0.042966876            6 
   91000    1.2390975   -6.1956498    41.047705  0.037589473   0.04295123            2 
   92000    1.2292177   -6.2021331    41.269331   0.03738164  0.042935437            2 
   93000     1.200875   -6.2598966     41.58797  0.037265206  0.042902714            2 
   94000    1.2071183   -6.2541779    42.094956  0.037318223  0.042867303            2 
   95000    1.2295391   -6.2316701    42.724774  0.037477872  0.042838015            6 
   96000    1.2486166   -6.2376927    43.037019  0.037358523  0.042804288            3 
   97000    1.2381973   -6.2641488    43.555723  0.037419006  0.042778684            4 
   98000    1.2015021   -6.2530891     43.93666  0.037361106  0.042742148            3 
   99000    1.2284206   -6.2351865    44.459913  0.037424169    0.0427091            2 
  100000    1.2198614   -6.2425331    44.925297  0.037437748  0.042677886            4 
  101000     1.222772    -6.249325    45.433386  0.037486292   0.04263998            2 
  102000    1.2160103   -6.2513792    45.967957   0.03755552  0.042609642            2 
  103000    1.2095276   -6.2593653    46.364276   0.03751155   0.04257724            9 
  104000    1.2148686   -6.2831153    47.088827  0.037731432  0.042545513            1 
  105000    1.2157811   -6.2507874    47.704576  0.037860775  0.042528541            2 
  106000    1.2113115   -6.2101985    48.581323  0.038192864  0.042522869            3 
  107000    1.2063381   -6.2350995    49.182562  0.038304176  0.042522693            3 
  108000    1.2163278   -6.2439595    49.518794  0.038208946  0.042525362            3 
  109000    1.2179726   -6.3006155    49.769768  0.038050281  0.042524844            2 
  110000    1.2038672   -6.2540389    50.387058  0.038172013  0.042517389            3 
  111000    1.2178646   -6.2540648    50.758048  0.038106643  0.042510748            3 
  112000    1.2104475   -6.2467506    51.237624  0.038123232   0.04250129            1 
  113000    1.2104128   -6.2702852    51.562396  0.038025366  0.042486023            3 
  114000    1.2398591   -6.2247767    52.070938  0.038063551  0.042470326            3 
  115000    1.2002497   -6.2585523    52.912953   0.03834272   0.04246306            3 
  116000     1.212899   -6.2791525    53.107149  0.038151687  0.042448395            3 
  117000    1.1860239   -6.2697475    53.472105  0.038085545   0.04242866            2 
  118000    1.1905435   -6.1940559    54.214205  0.038286868  0.042410919            2 
  119000     1.178083   -6.2221117    54.872431  0.038426072  0.042398589            5 
  120000    1.1998459   -6.2740559    55.163137  0.038307734  0.042389751            2 
  121000    1.2004879   -6.2442844    55.814119  0.038439476  0.042380966            2 
  122000    1.2305479   -6.2406141    56.032903  0.038273841  0.042368654            5 
  123000    1.1999324   -6.2297622    56.491821  0.038273591  0.042349895            2 
  124000    1.2347435   -6.2691626    56.900945  0.038239882  0.042330169            4 
  125000    1.2015866    -6.238282    57.426795   0.03828453  0.042306768            6 
  126000    1.2029044    -6.250944    57.664268  0.038137743  0.042278343            4 
  127000    1.2033383   -6.2675526    58.019454  0.038070507  0.042245623            1 
  128000    1.2453787   -6.2683883      58.4626  0.038061589  0.042216847            3 
  129000    1.2178914    -6.233123    58.828671  0.038003017  0.042183843            2 
  130000    1.2006372   -6.2708504    59.429186  0.038095632  0.042151315            3 
  131000    1.1711022   -6.2672091    59.695966  0.037974533  0.042120884            4 
  132000    1.1943784   -6.2519881    60.520256  0.038207232  0.042088509            2 
  133000    1.2032197   -6.2641679    60.800172  0.038095345  0.042057396            2 
  134000    1.2077001   -6.2411046    61.300826  0.038122404  0.042027711            1 
  135000    1.1901803    -6.263029    62.037567  0.038294794  0.042000022            2 
  136000     1.237308   -6.2508609    62.543766  0.038323386  0.041976539            2 
  137000    1.1937101   -6.2837438    62.736426  0.038160843  0.041948954            1 
  138000    1.2012104   -6.2851394     62.99938  0.038043104  0.041917578            3 
  139000    1.1818487   -6.2599325    63.560263  0.038105673  0.041886475            2 
  140000    1.1886284   -6.2732528    63.988999   0.03808869    0.0418541            2 
  141000    1.1909008   -6.3172703    64.493455  0.038116699  0.041819386            3 
  142000    1.1908179   -6.2641118    65.079361  0.038192113  0.041788696            3 
  143000    1.1908679   -6.2566089    65.301244  0.038054338  0.041755612            3 
  144000    1.1880384   -6.2299925     66.03048  0.038212083  0.041722018            3 
  145000    1.2020078   -6.2666086    66.115394  0.037997352  0.041692589            3 
  146000    1.2030114   -6.2946552    66.830184  0.038145082  0.041664741            2 
  147000    1.1658483   -6.2805119    67.125945  0.038053256  0.041634348            1 
  148000    1.2074369   -6.2558635    67.986938  0.038280934  0.041610271            4 
  149000    1.1891239    -6.265446    68.536095  0.038331149  0.041585408            4 
  150000    1.2252978   -6.2497718     68.68262  0.038157011  0.041558648            2 
  151000    1.2041918   -6.2669803    69.262557  0.038224369  0.041535399            3 
  152000    1.1854323   -6.2678488    69.733169  0.038230904  0.041511469            3 
  153000    1.2019736   -6.3054211    70.438994  0.038365465     0.041492            5 
  154000    1.1709091    -6.312726    70.662057  0.038237044  0.041471678            5 
  155000    1.1998491   -6.3183942    71.380456  0.038376589  0.041449428            2 
  156000     1.213222   -6.2374303    72.110013  0.038520306   0.04143187            3 
  157000    1.2055422   -6.2902514    72.142713  0.038292311  0.041414549            4 
  158000    1.1914806   -6.2693753    73.088947  0.038549023  0.041396958            5 
  159000    1.2030909   -6.2613823    73.692568  0.038622939  0.041384888            2 
  160000    1.1827666   -6.3168636    74.100133  0.038593819  0.041375634            2 
  161000    1.1848163   -6.2802482    74.577181  0.038601025  0.041365391            2 
  162000    1.2050915   -6.2636701    75.080544  0.038621679  0.041357291            2 
  163000     1.183947    -6.313373    75.210484  0.038451168  0.041344593            2 
  164000    1.2026713    -6.283649    75.850518   0.03854193   0.04132955            3 
  165000    1.1774338   -6.2518956    76.545818  0.038659504  0.041317084            3 
  166000    1.1836047   -6.2456795    77.196876  0.038753452  0.041310076            3 
  167000    1.1868793   -6.2787447    76.989578  0.038417953  0.041298067            2 
  168000    1.2134178   -6.3056845    77.802185  0.038592354   0.04128477            6 
  169000    1.1710531   -6.2774583    78.341666  0.038630013  0.041272884            2 
  170000    1.1993601   -6.2523269    78.690571  0.038573809  0.041256681            2 
  171000    1.1830476   -6.2928319     78.68499  0.038345512  0.041238659            3 
  172000    1.1750848   -6.2936816    79.009393  0.038279745  0.041216709            3 
  173000    1.2257972   -6.2600507    79.702057  0.038392127  0.041193043            4 
  174000    1.1773284    -6.290682    80.052695  0.038339413  0.041169918            2 
  175000    1.1986338   -6.2677876    80.587113  0.038374816  0.041146903            2 
  176000     1.175158   -6.3018485    80.739181  0.038228779  0.041122723            2 
  177000    1.1717896   -6.2861488    81.456493  0.038350515  0.041099697            4 
  178000    1.1521501   -6.2910987    81.793149  0.038292672  0.041074061            4 
  179000    1.1773432   -6.2893618    82.227955  0.038281171  0.041048805            2 
  180000    1.1783826   -6.3159509    82.184262  0.038048269  0.041024954            6 
  181000    1.1774879   -6.3163357    83.304443  0.038353795  0.041001901            2 
  182000    1.1959703   -6.2967506    83.761406  0.038352292  0.040979638            2 
  183000    1.1886121   -6.2992508    84.239382  0.038360374  0.040957773            2 
  184000    1.1883289   -6.3022485    84.255001  0.038158968  0.040931212            4 
  185000    1.1722725   -6.2818057    84.882676   0.03823544  0.040906627            7 
  186000    1.1991301   -6.3031679    85.171145  0.038159115  0.040883489            2 
  187000    1.1838129   -6.3070206    85.866402  0.038264885  0.040861755            2 
  188000    1.1657001   -6.3261087    86.388383  0.038292723  0.040839451            2 
  189000    1.1682606   -6.2819035    86.793435   0.03826871  0.040818946            1 
  190000    1.1782559   -6.2894368    87.361818  0.038316587  0.040798429            4 
  191000    1.1823072   -6.2798539     87.49123  0.038172439  0.040777192            4 
  192000    1.1948788   -6.2880317    88.128356  0.038250154   0.04075544            1 
  193000    1.1820838   -6.3185053    88.285062  0.038119629  0.040732799            3 
  194000    1.1655651   -6.3055564    88.602078  0.038059312  0.040708393            3 
  195000    1.1706572    -6.305268    89.233992  0.038134185  0.040684774            2 
  196000    1.1481618   -6.2557208     89.69495  0.038135608  0.040661483            3 
  197000    1.1753138   -6.3037093     90.30915   0.03820184   0.04063821            3 
  198000    1.1618895   -6.2917946    90.682041  0.038165842  0.040614881            2 
  199000    1.1728015   -6.3053428     91.12026  0.038157563  0.040593022            3 
  200000    1.2010427   -6.3035593     91.91981  0.038299921  0.040573245            3 
  201000    1.2130417   -6.3143908    92.665833   0.03841867  0.040556881            3 
  202000    1.1898356   -6.3336405    92.817914  0.038291219  0.040540241            3 
  203000    1.1916643    -6.329428      93.5511  0.038403571  0.040524772            1 
  204000    1.1958073   -6.3063188    93.964611  0.038384237   0.04050939            2 
  205000    1.1793311   -6.3061548    94.199152  0.038292338  0.040492988            3 
  206000    1.1668813   -6.3276964    94.817411  0.038356558  0.040476955            4 
  207000    1.1703751    -6.326468    95.001179  0.038245241  0.040461088            3 
  208000    1.1502924   -6.3072489    95.857045  0.038404265  0.040445709            3 
  209000    1.1768176   -6.3299681     96.13962  0.038333182  0.040432072            4 
  210000    1.1569127   -6.2676373    96.805885  0.038415034  0.040419038            5 
  211000    1.1696569   -6.3122165    96.916809  0.038276781  0.040406466            2 
  212000    1.1438119   -6.3401776    97.552602  0.038346149  0.040392323            2 
  213000    1.1778231    -6.320915     97.93408  0.038315368  0.040377555            6 
  214000    1.1472025   -6.3287469    98.285551   0.03827319  0.040363958            2 
  215000    1.1641557   -6.3380837     99.08982  0.038406907  0.040349359            4 
  216000    1.1714647    -6.327832    99.297444  0.038309199  0.040335719            2 
  217000    1.1592282   -6.3357759    99.986939  0.038397442  0.040320109            7 
  218000    1.1665687   -6.3576445    100.36635  0.038366342   0.04030791            2 
  219000    1.1774458   -6.3365318    100.80365  0.038357554  0.040295275            5 
  220000    1.1886146   -6.2943515    101.72224   0.03853115  0.040284933            4 
  221000    1.1580834   -6.3187843    102.19602  0.038535452  0.040277361            2 
  222000    1.1702323   -6.3320494    102.09652  0.038324519  0.040267487            5 
  223000    1.1729908   -6.3466986     102.5263  0.038313268  0.040255487            5 
  224000    1.1460531   -6.3080944    102.99476  0.038316503  0.040241937            5 
  225000    1.1447876   -6.3465478    103.42447  0.038305359  0.040227936            4 
  226000      1.16967   -6.3651554    103.69714  0.038236409  0.040213926            4 
  227000    1.1590184   -6.3343009    104.64884  0.038417341  0.040200152            1 
  228000    1.1503589   -6.3033386     105.1505    0.0384322  0.040186919            1 
  229000    1.1504898   -6.3136387    105.53306  0.038403587  0.040174959            6 
  230000    1.1309954   -6.3322539    105.52755   0.03823462  0.040162663            2 
  231000    1.1745421   -6.3218859    106.18841  0.038307507  0.040147393            3 
  232000    1.1490984   -6.3269026    107.18054  0.038498758   0.04013634            2 
  233000    1.1348061   -6.3527606    107.36443  0.038399295  0.040126402            4 
  234000    1.1636557   -6.3133477    107.70299  0.038355764  0.040115997            2 
  235000     1.144945   -6.3114037    108.72443  0.038554763  0.040107032            3 
  236000    1.1828204   -6.3225498    108.56655  0.038335648  0.040095511            3 
  237000    1.1733538    -6.276761     109.1801  0.038389629  0.040083393            2 
  238000      1.14841   -6.3161386    109.00061   0.03816548  0.040070004            4 
  239000    1.1598713   -6.3454584     109.4985  0.038179392   0.04005567            4 
  240000    1.1579094   -6.3901438    109.95027  0.038177176  0.040039897            8 
  241000    1.1564294   -6.3738393    110.29009   0.03813627  0.040024469            3 
  242000     1.155265   -6.3318388     110.7939  0.038152171  0.040007838            2 
  243000    1.1359155    -6.306806    111.13961  0.038113722  0.039990004            2 
  244000    1.1632872   -6.3468269    111.39764  0.038045643  0.039971987            1 
  245000    1.1636824   -6.3274675    112.12642  0.038138236  0.039952498            2 
  246000    1.1519103   -6.3408119    111.99608  0.037939053  0.039932658            2 
  247000    1.1307493   -6.3377981    112.38873  0.037917924   0.03991451            2 
  248000    1.1526156   -6.3336941    113.11045  0.038007545  0.039896159            2 
  249000    1.1573205   -6.3833844    113.17878  0.037877772  0.039877326            2 
  250000    1.1435064    -6.402278    113.32284   0.03777428  0.039856368            3 
  251000    1.1858926   -6.3726876    114.20292  0.037915975  0.039837452            2 
  252000    1.1555678     -6.34708    114.58082  0.037890483  0.039818044            1 
  253000    1.1436507   -6.3201462    114.96349  0.037866762  0.039797537            2 
  254000    1.1575436   -6.3532113    115.65262  0.037943773  0.039776863            2 
  255000    1.1221533   -6.3616972    115.62942  0.037787391  0.039755583            3 
  256000     1.154725   -6.3462333    116.19979  0.037825452  0.039734494            5 
  257000    1.1497778   -6.3492782    116.30911  0.037713719  0.039713684            2 
  258000    1.1264994   -6.3519938     117.1959  0.037853974  0.039692826            3 
  259000    1.1585725   -6.3948826     117.4936  0.037803605  0.039670101            2 
  260000    1.1486803    -6.352912    117.59395  0.037690368  0.039647352            3 
  261000    1.1578725   -6.3429794    118.34879   0.03778697  0.039623658            4 
  262000    1.1507895   -6.3558833    118.44665  0.037673871  0.039601353            5 
  263000    1.1727761   -6.3317172    119.13192  0.037747757  0.039580879            2 
  264000    1.1562607   -6.3626167    119.33292   0.03766822  0.039559375            2 
  265000    1.1552732     -6.32342    119.61826  0.037615804  0.039537195            2 
  266000    1.1453474   -6.3272203    119.77898  0.037524745  0.039513904            4 
  267000    1.1350531   -6.4205417    119.79373  0.037388805  0.039489378            4 
  268000    1.1526303   -6.3601682    120.51971  0.037475033  0.039464497            3 
  269000    1.1454338   -6.3199584    121.02899  0.037493492  0.039439431            3 
  270000    1.1712184   -6.3338793    121.81396    0.0375969  0.039416134            4 
  271000     1.148458   -6.3262711    122.43193  0.037648195  0.039393077            3 
  272000    1.1378365   -6.3364802    123.09054  0.037711564  0.039370385            2 
  273000    1.1357889   -6.3441545    123.41677  0.037673007  0.039350074            2 
  274000    1.1287271   -6.3460648    123.91576  0.037687274  0.039329779            2 
  275000     1.137719   -6.3440808    123.87307  0.037537295  0.039309564            2 
  276000    1.1382819   -6.3202006    124.59474  0.037619186  0.039288856            2 
  277000    1.1567619   -6.3778189    124.79404  0.037543334  0.039268883            4 
  278000    1.1261194   -6.3603248    125.25652  0.037546919  0.039249681            1 
  279000    1.1325129   -6.3866155    126.09029  0.037661376  0.039231381            7 
  280000    1.1257432   -6.3640351    126.45359  0.037634996   0.03921256            4 
  281000    1.1392731   -6.3953115    126.80776  0.037606097  0.039194715            3 
  282000    1.1539775   -6.3772178    127.68076  0.037730721  0.039176618            7 
  283000    1.1297963   -6.3687223    127.89235  0.037659702  0.039159752            4 
  284000    1.1034532   -6.3598692    128.13354  0.037597869  0.039141127            2 
  285000    1.1443655   -6.3542731    128.50662  0.037575034  0.039122944            2 
  286000    1.1491359   -6.3805387    128.81383  0.037533168  0.039105135            5 
  287000    1.1401447   -6.3454017    129.22533  0.037521872  0.039087086            5 
  288000    1.1617056   -6.3148352     129.7847  0.037553445  0.039069562            4 
  289000    1.1355604   -6.3881228    130.31593  0.037576681   0.03905179            3 
  290000    1.1357642   -6.4061736    130.33581  0.037452818   0.03903447            3 
  291000    1.1454719   -6.3760392    130.72091  0.037434395  0.039016971            3 
  292000    1.1624645   -6.3509778    131.67447  0.037578331  0.038999729            4 
  293000    1.1452854   -6.3627195    131.77831  0.037479609  0.038982135            3 
  294000    1.1198303   -6.3814401    132.05973  0.037431895  0.038963979            2 
  295000    1.1264527   -6.3602442    132.21682  0.037349384  0.038945072            3 
  296000    1.1397932   -6.3885803    132.69437  0.037357648  0.038925137            2 
  297000    1.1567135   -6.3775636    132.66799  0.037224464  0.038905172            3 
  298000    1.1286208    -6.409257    133.86234  0.037433541  0.038885307            3 
  299000    1.1322121   -6.3795829     133.9734  0.037339296  0.038864256            2 
  300000    1.1456905   -6.4183033    133.61544  0.037115401  0.038843641            5 
  301000    1.1289932   -6.3877089    134.25866  0.037170173  0.038823656            4 
  302000    1.1198528   -6.3777727    135.07981  0.037273678  0.038803683            5 
  303000    1.1133793   -6.3768088    135.60416  0.037294875  0.038782496            4 
  304000    1.1313324   -6.3645051    136.04444  0.037292885  0.038762857            4 
  305000    1.1385926   -6.3636776    136.16234  0.037202825  0.038743134            1 
  306000    1.1219975   -6.3593041    136.66076  0.037216984  0.038722429            6 
  307000    1.1517743   -6.4071747    136.43026  0.037033188  0.038702957            6 
  308000    1.1287749   -6.3754602    137.28006  0.037142874  0.038681524            2 
  309000    1.0976445   -6.3850435    137.35528  0.037042956  0.038660836            8 
  310000    1.1320896   -6.3569991    138.43699  0.037214244  0.038639611            3 
  311000     1.134406   -6.4058033    138.16378  0.037021376  0.038618953            5 
  312000    1.1292185   -6.3582453    138.78397  0.037068367  0.038597793            3 
  313000    1.1164522   -6.3272756    139.29711  0.037086557  0.038576739            2 
  314000    1.1247123   -6.4114056    139.19651  0.036941749  0.038555933            2 
  315000    1.1095543   -6.4016724     140.3247  0.037122937   0.03853481            2 
  316000    1.1294727   -6.3868655     140.2018  0.036973048  0.038515724            2 
  317000    1.1408717   -6.4228838    140.36182  0.036898481  0.038495526            7 
  318000    1.1294661   -6.3830741     141.1739  0.036995258  0.038474437            3 
  319000    1.1355919   -6.3891625    142.08983  0.037118556  0.038454616            2 
  320000    1.1194856   -6.4024102     142.1679   0.03702289  0.038434899            2 
  321000    1.1106163   -6.4468697    142.37008  0.036960041  0.038415387            5 
  322000    1.1383222   -6.4012234    142.73583  0.036939915  0.038395593            4 
  323000     1.105262   -6.4132687     142.9507  0.036880986   0.03837547            8 
  324000    1.1176603    -6.414737    143.10665  0.036807267  0.038355523            4 
  325000    1.1087566   -6.3987354    143.77044  0.036864217  0.038335952            3 
  326000    1.0810742   -6.3914268    144.86532  0.037031012  0.038316327            2 
  327000    1.1186496   -6.3842517    145.37755  0.037048306  0.038298793            2 
  328000    1.1176452   -6.3993687    145.92171  0.037073604  0.038282355            2 
  329000    1.1419363   -6.4107176    146.23445  0.037040135  0.038266266            2 
  330000    1.0978312   -6.4226112    147.09154  0.037144327  0.038250562            2 
  331000    1.1401198   -6.4220943    147.20874  0.037061617  0.038235121            2 
  332000    1.1177219   -6.4058249    146.95632  0.036886626   0.03822039            3 
  333000    1.1343489   -6.4333843     148.8235  0.037243117  0.038206408            8 
  334000    1.1134787   -6.4360842    148.76102  0.037116023  0.038194302            3 
  335000    1.1274132   -6.4242435    149.37678  0.037158403  0.038182328            1 
  336000    1.1264197   -6.4144654    150.24571   0.03726332  0.038171267            5 
  337000    1.1446708   -6.4086577    150.26461  0.037157421  0.038159983            2 
  338000    1.1260822   -6.4530513    150.94153   0.03721438  0.038149511            4 
  339000    1.1025166   -6.4353247    151.29158  0.037190653  0.038138258            6 
  340000    1.1340322   -6.4453073    151.60163  0.037157262  0.038126606            3 
  341000    1.1501147   -6.4230245    152.22913  0.037201644  0.038114056            2 
  342000    1.1294645   -6.4314078    151.78648   0.03698501  0.038102173           11 
  343000    1.1240755   -6.4110108     152.8175  0.037127672  0.038089387            2 
  344000    1.1121663    -6.424557    152.95487   0.03705302  0.038076041           10 
  345000    1.1214937   -6.4177899    153.25438  0.037017966  0.038062225            3 
  346000     1.136775   -6.4245377    153.40423  0.036947068  0.038047869            3 
  347000    1.1261539   -6.4427117    153.94029   0.03696933  0.038033436            6 
  348000    1.1077603    -6.405839     153.9892  0.036874808  0.038018171            4 
  349000    1.0965039   -6.4541476    154.40199  0.036867715  0.038003285            3 
  350000    1.0991934   -6.3840288    155.30845  0.036978203  0.037987646            3 
  351000    1.1034319   -6.4422343    155.71976  0.036970502  0.037973101            4 
  352000    1.1139516   -6.4538718    155.80911  0.036886626  0.037957512            3 
  353000    1.0978604   -6.4463732    155.87696  0.036798149  0.037940606            2 
  354000    1.1128855   -6.4613737     156.3546  0.036806638  0.037924197            2 
  355000    1.1175902   -6.4554598    156.73202  0.036791553  0.037908264            7 
  356000    1.1147249   -6.4550539    157.71813  0.036919038  0.037893077            4 
  357000    1.1305126   -6.4347631    157.67719  0.036806066  0.037878245            8 
  358000     1.104585   -6.4147184    158.39284  0.036869842  0.037864821            3 
  359000    1.1229909   -6.4192813    159.44921  0.037012351  0.037851968            3 
  360000    1.1083471   -6.4218801    160.23738  0.037091987  0.037839237            2 
  361000    1.1108238   -6.4164942    159.94732  0.036922281   0.03782757            2 
  362000    1.1218142    -6.415989    160.08534  0.036852058  0.037815004            2 
  363000    1.1197153   -6.4435846    161.14746  0.036994366  0.037802153            4 
  364000    1.1128849   -6.4324027    160.39665  0.036720846  0.037788744            5 
  365000    1.1156136   -6.4309238    161.75175  0.036929624  0.037776053            4 
  366000    1.0982554   -6.3916378    161.84504  0.036849963   0.03776347            9 
  367000    1.0855641    -6.416912    162.22697  0.036836278   0.03775049            5 
  368000    1.0973079   -6.4099378    163.09225  0.036932123  0.037737538            2 
  369000    1.1265566   -6.4223019    162.95363   0.03680073  0.037724266            3 
  370000    1.1010665   -6.4477734    163.19466  0.036755555  0.037710855            3 
  371000    1.0984888   -6.4413755    163.79312  0.036790906  0.037697308            1 
  372000    1.1097049   -6.4236597    164.37824  0.036823082  0.037685559            3 
  373000    1.1091429   -6.4064436    164.73446  0.036803946  0.037673289            4 
  374000    1.1122697   -6.4833106    165.14665  0.036797381  0.037661576            2 
  375000    1.1001926   -6.4496601    165.77195  0.036838212   0.03764995            2 
  376000    1.0907454   -6.4500992    165.84808   0.03675711  0.037637702            4 
  377000     1.084621   -6.4363097    166.30053  0.036759623  0.037625819            2 
  378000    1.1260219   -6.4634465    166.83824  0.036780916  0.037613375            2 
  379000    1.1166674   -6.4454818    166.72884  0.036659816  0.037601027            4 
  380000     1.136966   -6.4221139    167.49925  0.036732291  0.037588209            2 
  381000    1.0943861   -6.4756752    167.66908  0.036673028  0.037575785            4 
  382000    1.0947591   -6.5083088    167.76323  0.036597564  0.037562245            3 
  383000    1.0959146   -6.4484029    168.53641  0.036670237  0.037548473            2 
  384000    1.0829645   -6.4326305    169.00413  0.036676243  0.037534544            6 
  385000    1.0959033   -6.4840495     168.4868  0.036469003  0.037519826            3 
  386000    1.0789685   -6.4464073    168.70095  0.036420758  0.037504127            4 
  387000    1.1108019   -6.4438288    169.45197  0.036488367  0.037487975            5 
  388000    1.1165926    -6.435111    169.60959  0.036428176  0.037471877            6 
  389000    1.1174081    -6.393775    170.65806  0.036559138  0.037456292            5 
  390000    1.1050583   -6.4730696    170.38826  0.036407748  0.037441404            4 
  391000    1.1110428   -6.4414618    170.76175  0.036394235   0.03742603            5 
  392000    1.1205298   -6.4457733    171.42059  0.036441451  0.037409901            2 
  393000     1.084967   -6.4721636    171.67436  0.036402536  0.037393685            2 
  394000    1.1070593   -6.4065676    171.97795  0.036374354  0.037377775            2 
  395000     1.092767   -6.4686469    172.21961  0.036333251  0.037361722            1 
  396000    1.0925302   -6.4413265    172.74204  0.036351439  0.037345643            2 
  397000    1.1006599   -6.4644543    172.98877  0.036311664   0.03733009            3 
  398000     1.097641    -6.433632    173.52957  0.036333663  0.037313761            3 
  399000    1.1082794    -6.502217     173.3933  0.036214139  0.037296858            2 
  400000    1.0824956   -6.4801381    173.88311  0.036225648  0.037280446            2 
  401000    1.0945053    -6.464918     174.9269  0.036352224  0.037264651            3 
  402000    1.0752809   -6.4445857    175.95604  0.036475133  0.037249869            3 
  403000    1.1198179   -6.4709848    175.53543   0.03629765  0.037234451            3 
  404000    1.0850801   -6.4951497    175.37347  0.036174396  0.037218583           18 
  405000    1.0810954   -6.4873676    175.95856  0.036205466  0.037202524            3 
  406000    1.0752198   -6.4554324    176.35175  0.036196993  0.037187178            6 
  407000    1.0933599   -6.4551961    176.20251    0.0360775  0.037170315            5 
  408000     1.059488   -6.4540805    176.60324  0.036070924  0.037153505            3 
  409000    1.0838947   -6.4730157     176.6886  0.036000122  0.037136207            4 
  410000     1.105784   -6.4826049    177.80497  0.036139222  0.037119461            5 
  411000    1.0933114   -6.4515648    178.60344  0.036213187  0.037103399            5 
  412000    1.0853601   -6.4358339    178.79623  0.036164285  0.037087562            3 
  413000    1.0612375   -6.4345473    178.82903  0.036083339  0.037070814            3 
  414000    1.0980116   -6.4481625    178.57581  0.035945212   0.03705376           11 
  415000    1.0650639   -6.4554151    179.71718  0.036087787   0.03703657            4 
  416000    1.0749945   -6.5003779    179.07715  0.035872826  0.037019702            5 
  417000    1.0768122   -6.4954063     179.8059  0.035932433  0.037002088            3 
  418000    1.0882382   -6.4568521    179.59299  0.035804024  0.036985112            4 
  419000    1.0807147    -6.461768    180.34251  0.035867643   0.03696705            5 
  420000    1.0986193   -6.4730039      180.767  0.035866468  0.036948407            3 
  421000    1.1046201   -6.4630424    181.29733  0.035886249  0.036929906            2 
  422000    1.1016078   -6.4608696    181.35739   0.03581307  0.036911724            2 
  423000    1.0722367   -6.4692466    182.36046  0.035926016  0.036893792            4 
  424000    1.0631532   -6.4606489    182.03275  0.035776877  0.036875004            3 
  425000    1.0654831   -6.4792559    182.75657  0.035834622  0.036857293            3 
  426000    1.0758202   -6.4590367    182.67418  0.035734387  0.036839828            3 
  427000    1.0940425   -6.4891468    182.89464  0.035693724  0.036822356            4 
  428000    1.0483752    -6.478164    184.05795  0.035836827  0.036804649            4 
  429000    1.1189212   -6.4812854    184.71111  0.035880169  0.036787544            4 
  430000     1.070693   -6.4931047    184.88282  0.035830004  0.036770468            3 
  431000    1.0978093   -6.4973743    184.63991  0.035699905  0.036753379            3 
  432000    1.0771901   -6.4639541    185.09598  0.035705243  0.036735669            5 
  433000    1.1050263   -6.4968384    185.97999  0.035792917  0.036717714            7 
  434000    1.0836393   -6.4967902    184.98384   0.03551917  0.036699792            2 
  435000    1.0715872   -6.4962648    185.42365  0.035521772  0.036680613            3 
  436000    1.0782029   -6.4364747    185.94484  0.035539916  0.036661307            2 
  437000    1.0791313   -6.4929337    186.13941  0.035495693  0.036642256            3 
  438000    1.0855945   -6.4856656    186.70282  0.035521845  0.036624557            4 
  439000    1.0650167   -6.4887536    187.34591  0.035563004  0.036606606            4 
  440000    1.0649924   -6.4838826    188.02965  0.035611675  0.036587852            9 
  441000    1.0756661   -6.5103318    188.02673  0.035530372   0.03656868            3 
  442000    1.0994077   -6.4637949    188.82024  0.035599593  0.036550492            3 
  443000    1.0927643   -6.5142606    189.01832  0.035556493  0.036532885            4 
  444000    1.0955162   -6.5249233    188.36557  0.035353899   0.03651408            5 
  445000    1.0615028   -6.4709546     189.2328  0.035436853  0.036494315            7 
  446000    1.0837202   -6.4925169    189.48803  0.035405087  0.036474672            6 
  447000    1.0960627   -6.5559155    188.88776  0.035213974  0.036454794            3 
  448000    1.0634748   -6.4833435    189.40452  0.035231495  0.036434973            2 
  449000    1.0527414   -6.4588716    190.11258  0.035284442   0.03641494            3 
  450000    1.0764864   -6.5039359    190.73787  0.035321827  0.036394968            2 
  451000    1.0656135   -6.4826644    191.14306  0.035318378  0.036375297            2 
  452000     1.059729   -6.4986552    190.80362  0.035177658  0.036355424            5 
  453000    1.0773939   -6.4798577    191.43845  0.035216785  0.036335915            2 
  454000     1.076434   -6.5138034    191.59557  0.035168056  0.036315953            6 
  455000    1.0613027   -6.4859619    191.61759  0.035094796  0.036296089            3 
  456000    1.0921951    -6.490586    192.74297  0.035223495  0.036275802            2 
  457000    1.0593904   -6.4982821    192.73659  0.035145257  0.036256239            4 
  458000    1.0562506   -6.5190365     192.4542   0.03501714  0.036236623            2 
  459000    1.0545371   -6.5346528    192.82398  0.035007985  0.036216197            3 
  460000    1.0609186   -6.4990099     194.2872  0.035196956  0.036195459            4 
  461000     1.051389   -6.5039814    194.09442   0.03508576  0.036175402            8 
  462000    1.0673613   -6.4947382    194.29569  0.035046119  0.036155546            3 
  463000    1.0785584   -6.4696214    194.47764  0.035003175  0.036135151            5 
  464000     1.071263   -6.4872568    194.51974  0.034935297  0.036115319            3 
  465000    1.0672866   -6.5056423    196.21032   0.03516314   0.03609573            3 
  466000    1.0655304   -6.5175743    196.09468  0.035067002  0.036077377            3 
  467000    1.0759448   -6.5053363    195.97402  0.034970383  0.036057644            4 
  468000    1.0828473    -6.548745    196.04675   0.03490861    0.0360371            8 
  469000    1.0749638   -6.5166313    196.31306  0.034881495  0.036016423            2 
  470000    1.0439466   -6.5569767    196.19587  0.034786501  0.035995155            2 
  471000    1.0900572   -6.5010474    196.06184  0.034688931  0.035973081            2 
  472000    1.0653386   -6.5219503    196.54057   0.03469996  0.035950688            4 
  473000    1.0598965   -6.5067711    196.69454  0.034653724  0.035928283            4 
  474000     1.064762   -6.5456865    197.01047  0.034636159  0.035905716            1 
  475000    1.0645977   -6.4987928    197.31128  0.034616013   0.03588332            6 
  476000    1.0525241   -6.5386303    197.50038  0.034576396   0.03586084            4 
  477000     1.057521    -6.539061    198.53214  0.034684162  0.035838683            3 
  478000    1.1000961    -6.514365    198.89879  0.034675521  0.035817093            4 
  479000    1.0955271   -6.5192242    199.55202  0.034716774  0.035795855            5 
  480000    1.0609741   -6.5157657    199.38952  0.034616237  0.035774672            4 
  481000    1.0792002   -6.5057078    200.23496  0.034690741  0.035753657            3 
  482000    1.0709763   -6.5359729    200.34092  0.034637088  0.035732331            1 
  483000    1.0614836   -6.5467645    200.89737  0.034661383  0.035711443            2 
  484000    1.0588074     -6.49262     201.4272  0.034680991  0.035690905            7 
  485000     1.052567   -6.5286469    202.04827  0.034716197  0.035670027            1 
  486000    1.0618144   -6.5506128    201.22398  0.034503426  0.035648975            5 
  487000    1.0798926   -6.5010442    202.19603  0.034598911  0.035628218            7 
  488000    1.0547458    -6.501322    201.73117  0.034448629  0.035607218            2 
  489000    1.0594469   -6.4969464    202.56554  0.034520372  0.035586316            8 
  490000    1.0609109   -6.5105326    202.28106   0.03440154  0.035564899            3 
  491000    1.0614008    -6.501065    203.38313  0.034518522  0.035542949            9 
  492000    1.0563131   -6.5572389    202.95355  0.034375601  0.035521175            4 
  493000    1.0488395   -6.5228926     203.6009  0.034415298  0.035499369            3 
  494000    1.0465646   -6.4859026    203.29322  0.034293728  0.035478005            3 
  495000    1.0443939   -6.5105304    204.94654  0.034502785  0.035456662            6 
  496000    1.0526121    -6.561702    204.67604  0.034387775  0.035435773            3 
  497000    1.0721114   -6.5381021    205.03923  0.034379481  0.035415203            3 
  498000    1.0505889   -6.5338197    205.20569  0.034338302  0.035394181            7 
  499000    1.0427108     -6.53194    206.12469  0.034422961  0.035373754            6 
  500000      1.05926   -6.5130224    205.96548   0.03432758  0.035353565            3 
  501000    1.0504249   -6.5406196      206.805  0.034398702  0.035333171            5 
  502000    1.0448527   -6.5392878     206.7749  0.034325183  0.035312964            5 
  503000    1.0537717   -6.5199689    207.22769  0.034331956  0.035292274            5 
  504000    1.0431373   -6.5422137    207.46144  0.034302486  0.035272054            3 
  505000    1.0529677   -6.5485083    207.41432  0.034226785   0.03525182            4 
  506000    1.0397902   -6.5554296    207.61188  0.034191679  0.035231274            2 
  507000    1.0693924   -6.5505834    207.53625  0.034111809  0.035210092            4 
  508000     1.036635   -6.5491415    208.06467  0.034131343  0.035188624            6 
  509000     1.031023   -6.5175906    208.08805  0.034068115  0.035167269            2 
  510000    1.0586267   -6.5539697    208.56829  0.034079786  0.035146442            3 
  511000    1.0674167   -6.5288936      209.005  0.034084312  0.035125396            3 
  512000    1.0333828   -6.5397844    209.55604  0.034107429  0.035104142            4 
  513000    1.0314878   -6.5050383    209.93247  0.034102091  0.035082861            9 
  514000       1.0395   -6.5562985    209.79684  0.034013755  0.035062061            3 
  515000    1.0382014   -6.5026372    210.30087  0.034029267  0.035041094            7 
  516000    1.0638105   -6.5583461    210.69708  0.034027306  0.035020369            5 
  517000    1.0261107   -6.5299991    210.51525   0.03393218  0.034999501            3 
  518000    1.0507934   -6.5701485    210.86163  0.033922399  0.034978839            3 
  519000    1.0441065   -6.5491331    210.99125  0.033877851  0.034957627            3 
  520000    1.0681712   -6.6036152    210.97899  0.033810735   0.03493646            2 
  521000    1.0620743   -6.5145287     211.7166  0.033863819  0.034915155            4 
  522000    1.0197549    -6.564206    212.07111  0.033855541  0.034894094            2 
  523000    1.0267473   -6.5288042    212.70062  0.033891112  0.034872878            4 
  524000    1.0396821   -6.5461891    213.39414  0.033936727  0.034852194            3 
  525000    1.0585481   -6.5476191    213.50833  0.033890211  0.034831436            5 
  526000    1.0261447   -6.5994706    212.87832   0.03372597  0.034810402            4 
  527000    1.0633501   -6.5560674    213.69078  0.033790447   0.03478909            3 
  528000    1.0890221   -6.5525887    214.55003  0.033862063  0.034768834            2 
  529000    1.0526706   -6.5090833    214.23157  0.033747884  0.034748668            4 
  530000    1.0109095   -6.5588866    214.70261  0.033758271  0.034728027            4 
  531000    1.0721504   -6.5377355    215.03665   0.03374712  0.034707481            2 
  532000    1.0451074   -6.5566283    214.64024  0.033621592  0.034687283            6 
  533000    1.0512403    -6.548196    216.90657  0.033912847   0.03466741            3 
  534000    1.0468536    -6.562794    216.01322  0.033709928  0.034647902            6 
  535000    1.0523063   -6.5278864    216.65885  0.033747484  0.034628293            6 
  536000    1.0619158   -6.5433261    217.68077  0.033843404  0.034608841            7 
  537000    1.0309532   -6.5656635    217.33291  0.033726397  0.034589526            4 
  538000    1.0530746   -6.6003274    217.42233   0.03367756  0.034569729            3 
  539000     1.038927   -6.5471069    218.57049  0.033792592  0.034549706            4 
  540000    1.0557631   -6.5560669    218.24661  0.033680033  0.034530138            6 
  541000    1.0178867   -6.5259546    218.40542   0.03364224  0.034510734            3 
  542000    1.0560966   -6.5765117    218.53662  0.033600341  0.034491421            4 
  543000    1.0240682   -6.5743294    219.70554  0.033717854   0.03447169            4 
  544000    1.0517582    -6.545658    219.16027  0.033572345  0.034452342            5 
  545000    1.0505585   -6.5641249    219.81289  0.033610534  0.034432816            6 
  546000    1.0129975   -6.5914449    219.89698  0.033561811  0.034413319            2 
  547000    1.0515878   -6.5520399    220.18965  0.033545041  0.034393417            6 
  548000    1.0503649   -6.5503168    220.47976  0.033527943  0.034373198            5 
  549000    1.0456524   -6.5881429    220.66181  0.033494507  0.034353007            7 
  550000    1.0336853   -6.5602757    220.75397   0.03344757  0.034332625            3 
  551000     1.057147   -6.5830283     221.0324  0.033428978  0.034312361            7 
  552000    1.0424786   -6.6240699    221.43809  0.033429663  0.034292122            5 
  553000    1.0374968       -6.586    221.48341  0.033376041  0.034272249            6 
  554000    1.0549086   -6.5941339    221.90325  0.033378948  0.034252791            2 
  555000    1.0427192   -6.5761374    222.26322  0.033372856  0.034233389            4 
  556000    1.0269761   -6.5686992    222.95861  0.033417058  0.034214055            3 
  557000    1.0341075   -6.5910714    223.29628  0.033407582  0.034194907            3 
  558000    1.0424916   -6.6072775    223.42937  0.033367588  0.034175922            3 
  559000    1.0316989    -6.557314    224.39581  0.033451969   0.03415751            7 
  560000    1.0173968   -6.5832427    224.93888  0.033473047  0.034139051            6 
  561000    1.0234169   -6.6580242    224.65882   0.03337178  0.034120406            5 
  562000    1.0192152   -6.5850115    225.52476  0.033440801  0.034101385            3 
  563000    1.0626921   -6.5940376    225.63706  0.033398025  0.034083081            3 
  564000    1.0320132   -6.5927316     224.9421  0.033236126   0.03406449            4 
  565000    1.0326943   -6.5290501    225.98999  0.033331857  0.034046155            4 
  566000    1.0398283   -6.6151866     226.0536  0.033282332  0.034028067            5 
  567000    1.0292297   -6.5782021     226.6005  0.033304013  0.034009507            8 
  568000    1.0270016   -6.5813201    227.20289  0.033333757  0.033990749            3 
  569000    1.0376008    -6.596541    227.32107  0.033292482  0.033971905            3 
  570000    1.0389182   -6.5696296    227.47431  0.033256479  0.033953111            3 
  571000    1.0272671   -6.6057131    227.99717  0.033274543  0.033935209            5 
  572000     1.008037   -6.5993225     228.0024  0.033217133  0.033916997            2 
  573000    1.0230582   -6.5873697    228.27311  0.033198532  0.033899187            4 
  574000    1.0339906   -6.5846083    229.57584  0.033329826  0.033881796            4 
  575000    1.0445903   -6.6181439    229.94058  0.033324722  0.033863865            3 
  576000    1.0293848   -6.5962254    228.99375  0.033129883  0.033845483            3 
  577000    1.0267109   -6.5851384    229.87724  0.033200063  0.033827412            6 
  578000    1.0134029   -6.5962983    229.31874  0.033062102  0.033809292            3 
  579000    1.0185125   -6.5698242      230.419  0.033163357  0.033790897           10 
  580000    1.0107187   -6.6344414    230.49811  0.033117545  0.033773006            3 
  581000    1.0326533   -6.6038117    230.70581  0.033090334  0.033754983           11 
  582000    1.0352279   -6.5968081    231.43934  0.033138508   0.03373685            7 
  583000    1.0262251   -6.5923658    231.12861  0.033037251  0.033718931            4 
  584000     1.018844   -6.5667013     231.9138  0.033092723  0.033701141            6 
  585000    1.0039427   -6.5900805    232.00935  0.033049766  0.033683384            3 
  586000    1.0375568   -6.5978971    232.29603  0.033034134  0.033665802            6 
  587000    1.0341897   -6.6453171    232.45942  0.033001053  0.033647818            6 
  588000    1.0232226   -6.6085101    233.54455  0.033098717  0.033629847            7 
  589000     1.011465   -6.5977326    233.59525  0.033049696  0.033612423            3 
  590000    1.0121179   -6.6228881    234.24048  0.033084814  0.033594898            5 
  591000    1.0132886   -6.6302173    234.12768  0.033012927  0.033576952            4 
  592000    1.0230493   -6.6130519    234.60081  0.033023762  0.033559274            4 
  593000     1.027181   -6.6099378    234.09253  0.032896646  0.033541474            5 
  594000    1.0121918   -6.5882556    235.45394  0.033032259  0.033524469            4 
  595000    1.0331417   -6.5986195    235.90471  0.033039875  0.033507204            5 
  596000    1.0210055   -6.5894873     235.3671   0.03290927  0.033489942            3 
  597000    1.0153802   -6.6403702    235.25813  0.032838935  0.033472589            7 
  598000    1.0000004   -6.5926629    235.94612  0.032879894  0.033455287            4 
  599000    1.0168424   -6.5919598    236.07153  0.032842449  0.033437801            5 
  600000    1.0228968   -6.5979407    236.98742  0.032914919  0.033420388            3 
  601000     1.045373   -6.6129661    237.51177  0.032932858  0.033402906            2 
  602000    1.0247411   -6.5981609    237.24199  0.032840807  0.033385474            8 
  603000    1.0257059    -6.616933    237.89772  0.032876965  0.033368429            2 
  604000    1.0062888   -6.5949813    238.03592    0.0328416  0.033351331            5 
  605000    1.0082614   -6.6375301    237.47433  0.032709962  0.033333753            4 
  606000    1.0098349   -6.5922619    238.62032  0.032813575  0.033316016            2 
  607000    1.0144522   -6.6093889    238.13587  0.032693009  0.033298475            4 
  608000    1.0301344   -6.6218657    239.15997  0.032779601  0.033280959            6 
  609000    1.0152731   -6.5897595     238.1884   0.03259283  0.033263264            5 
  610000     1.009655   -6.6418947    239.03384  0.032654897  0.033245529            9 
  611000     1.010039   -6.6359025    239.10052  0.032610545  0.033228163            6 
  612000    1.0181906   -6.6227994    239.63631  0.032630217  0.033210648            1 
  613000    1.0064458   -6.6080098    240.33911  0.032672527   0.03319318            9 
  614000    1.0036737   -6.5946493    241.32462  0.032753071  0.033175865            6 
  615000    1.0017984    -6.613539    240.66929  0.032611015   0.03315863            6 
  616000   0.98905585   -6.6597115    241.14976  0.032623074   0.03314126            5 
  617000    1.0216904   -6.6188985    241.91555  0.032673629   0.03312388            5 
  618000   0.98708631   -6.6272452    241.77355  0.032601612  0.033106458            5 
  619000    1.0082633   -6.6128995    241.70584  0.032539827  0.033088921            4 
  620000     1.014634    -6.630258    241.66994  0.032482518  0.033071188            3 
  621000    1.0056841   -6.5648938    242.65059  0.032561808  0.033053547            4 
  622000    1.0235774   -6.6203529    243.00967  0.032557566  0.033036364            6 
  623000    1.0028714   -6.6501768    242.89565  0.032490054  0.033019283            3 
  624000     1.001922    -6.600105    243.50688  0.032519615   0.03300201            5 
  625000    1.0264607   -6.6284917    244.01138  0.032534851  0.032984566            3 
  626000    1.0083968   -6.6345904    242.72755  0.032311974  0.032966858            5 
  627000    1.0173851   -6.6187812    243.43814  0.032354883  0.032949083            4 
  628000    1.0065584   -6.6591295    244.32109  0.032420526  0.032931091            4 
  629000    1.0232289    -6.640856    243.97009  0.032322482  0.032913313            5 
  630000    1.0117171   -6.6228153    245.08076   0.03241809  0.032895797            3 
  631000    1.0214824   -6.6396554    244.92244  0.032345806  0.032878232            4 
  632000   0.99991276   -6.5967277    245.32763  0.032348053   0.03286048            5 
  633000   0.97762945   -6.5697878    245.91506  0.032374283  0.032842636            4 
  634000   0.99959359   -6.6372045    244.93428  0.032194306  0.032824459            4 
  635000   0.99404166   -6.6148789    246.12053  0.032299282  0.032806596            5 
  636000    1.0154601   -6.6436172    245.83517  0.032211108  0.032788656            8 
  637000    1.0029702   -6.6507675    246.78045  0.032284204  0.032770794            4 
  638000    1.0157634   -6.6508184    246.56575  0.032205558  0.032753132            4 
  639000    0.9903222   -6.6411687    246.28021   0.03211792   0.03273559            5 
  640000   0.99668131   -6.6351641    247.66247  0.032247718  0.032718192            4 
  641000     1.010443   -6.6458752    247.59142  0.032188172   0.03270044            5 
  642000      0.99133   -6.6600766     247.8224  0.032168017  0.032682471            3 
  643000   0.99392529   -6.6361688    247.96474  0.032136435  0.032664586            6 
  644000   0.99862909   -6.6720231    248.15531  0.032111194  0.032646697            4 
  645000   0.98286485    -6.609513    248.60819  0.032119922   0.03262909            4 
  646000   0.98816327   -6.6632884    248.88903  0.032106428  0.032611308            4 
  647000    1.0137819   -6.6573685    248.79108  0.032044188  0.032593405            4 
  648000    1.0023207   -6.6624576    249.18155  0.032044952  0.032575595            7 
  649000    1.0099525   -6.6374101    249.70217  0.032062426  0.032557786            4 
  650000   0.99492427   -6.6678726    250.26119  0.032084768  0.032539986            4 
  651000    1.0237849   -6.6281914      249.711  0.031965054  0.032522504            5 
  652000    0.9847409   -6.6477846     250.2518  0.031985148  0.032504675            8 
  653000    1.0057146   -6.6170307     250.9984  0.032031445  0.032486522            6 
  654000    1.0119872   -6.6598131    250.37092  0.031902513  0.032468488            5 
  655000    1.0089887   -6.6230673    251.04206  0.031939194   0.03245061            3 
  656000   0.98226569   -6.6469067    250.93399  0.031876777  0.032432944            5 
  657000     1.001728   -6.6418572    251.47232   0.03189654     0.032415            7 
  658000    0.9779195    -6.660995     252.0162  0.031916945  0.032397478            4 
  659000   0.98552673   -6.6358701    252.75819  0.031962341  0.032379809            3 
  660000   0.99150472   -6.6631383    252.79252  0.031918248  0.032362399            9 
  661000    1.0188352   -6.6431505    253.36586  0.031942241  0.032344906            4 
  662000   0.97561296   -6.6261299    253.43367  0.031902527  0.032327717            5 
  663000   0.96234552   -6.6675882    252.52891  0.031740687  0.032310061            6 
  664000   0.95605957   -6.6479082    252.79295  0.031726023  0.032292532            7 
  665000   0.97381694   -6.6338595    254.20527  0.031855298  0.032274794            3 
  666000    0.9982642   -6.6965011    253.46057  0.031714286  0.032256559            3 
  667000   0.97711555    -6.650424     252.7965  0.031583771  0.032238363            5 
  668000   0.99027604   -6.6685113    254.45813  0.031743778  0.032220051            4 
  669000   0.99839077    -6.636171    254.49285  0.031700654   0.03220219           12 
  670000   0.99663861    -6.657326    254.62869  0.031670235  0.032184217            6 
  671000   0.98849149   -6.6849012    254.39661  0.031594214  0.032166225            4 
  672000    0.9966457    -6.649467    255.22405  0.031649808  0.032148215           12 
  673000   0.98783917   -6.6587901    255.64487  0.031654888  0.032130769            3 
  674000   0.98915514   -6.6698285    256.00683  0.031652674  0.032113354            6 
  675000   0.96859582   -6.6856927    256.19846  0.031629439  0.032095742            3 
  676000   0.96763582   -6.6726451    256.72181  0.031647166  0.032078116            2 
  677000   0.98101916   -6.6882221    257.05658  0.031641628  0.032060485            4 
  678000   0.98977558   -6.6710727    257.59524  0.031661165  0.032043321            5 
  679000    0.9881635   -6.6812272    256.95128  0.031535503   0.03202564            5 
  680000   0.99501516   -6.6803044    256.66766   0.03145437  0.032008059            3 
  681000    0.9869986   -6.6664704    257.31093  0.031486898  0.031990263           14 
  682000   0.96767903   -6.6593714    258.11388  0.031538842   0.03197313            7 
  683000   0.97528587   -6.6860788    258.97712   0.03159799   0.03195624            6 
  684000   0.95955947   -6.6616495    258.65248  0.031512241  0.031939874            3 
  685000   0.97952734   -6.6751146    259.46815  0.031565469  0.031923223            3 
  686000   0.97261722   -6.6479216     258.9712  0.031459086  0.031906434            6 
  687000   0.96555934    -6.682255    259.98321  0.031536051   0.03188969            5 
  688000    0.9712358   -6.6842614    260.15889  0.031511494  0.031872856            4 
  689000   0.97342737   -6.6767916    259.91406  0.031436146  0.031856018            3 
  690000    1.0011852   -6.7285534    260.51881  0.031463624  0.031839407            3 
  691000   0.96475103   -6.6600122    260.62561  0.031430971  0.031822775            8 
  692000   0.97996403    -6.689142     261.9143   0.03154074  0.031806359            3 
  693000   0.96148956   -6.6883908     262.1277  0.031520887  0.031790026            3 
  694000   0.98877982    -6.678618    260.93852  0.031332675  0.031773304            4 
  695000   0.98826788   -6.6833183    261.50375  0.031355366  0.031756304            6 
  696000   0.96734875   -6.6697885    262.88485  0.031475676  0.031739671            7 
  697000   0.96677746   -6.6725294     262.3133  0.031362183  0.031722888            2 
  698000   0.96723741   -6.6908642    262.20084  0.031303826   0.03170595            5 
  699000   0.98366748   -6.7046737    262.59764  0.031306347  0.031688517            6 
  700000   0.98439735   -6.6632615    262.52022  0.031252407  0.031671311            3 
  701000   0.95566259   -6.6794664    262.53418  0.031209484  0.031654351           17 
  702000   0.97915593   -6.6857683    264.08906  0.031349604  0.031637732            3 
  703000    0.9924678   -6.7324154     263.0781  0.031185171  0.031620682            5 
  704000   0.98550487   -6.6637286    264.15662  0.031268539  0.031603777            6 
  705000   0.97207139   -6.6657979    263.67741  0.031167543  0.031586817            3 
  706000   0.97475699   -6.6472987    264.03974  0.031166164  0.031569805            4 
  707000   0.97300474   -6.7106485    264.26978  0.031149196  0.031552815            5 
  708000   0.97946332   -6.7049812    264.87694  0.031176665  0.031535964            6 
  709000   0.95517066   -6.6927106    264.74762  0.031117491  0.031518947            5 
  710000   0.96764973   -6.6793965    265.13203  0.031118783  0.031502104            3 
  711000   0.97264644   -6.6954983    266.32232  0.031214524  0.031485424            4 
  712000    0.9694094   -6.6535152    265.76712  0.031105702   0.03146904            3 
  713000   0.94650686   -6.6946271    266.14422  0.031106151  0.031452361            6 
  714000   0.96060028   -6.7000381    265.98058  0.031043485  0.031435737            6 
  715000   0.94727826    -6.687883    266.43138  0.031052608  0.031419087            5 
  716000   0.98549751   -6.6847106    266.77148  0.031048822  0.031402222            7 
  717000   0.98017736   -6.6931511    266.19103  0.030938056  0.031385201            3 
  718000   0.94197546    -6.715685    266.35715  0.030914247  0.031367951            6 
  719000   0.94997484   -6.7505506     266.7913  0.030921569  0.031350493            6 
  720000   0.97876167     -6.71648    267.46657  0.030956779  0.031333264            5 
  721000   0.98768571   -6.6763336    267.61443  0.030930933  0.031316137            4 
  722000    0.9631209   -6.6916032    267.42117  0.030865786  0.031298911            3 
  723000   0.97336312   -6.7184185     267.6062  0.030844422  0.031281284            4 
  724000   0.95705863   -6.7296359    267.57138  0.030797811  0.031263701            6 
  725000   0.96608657   -6.7286155    267.40087  0.030735733  0.031246059            4 
  726000   0.97760986   -6.7069592    268.41707   0.03081004  0.031228631            8 
  727000   0.95102386   -6.7104642    268.81757  0.030813569  0.031211534            5 
  728000   0.97708588   -6.7170381    268.89426   0.03078002  0.031194265            7 
  729000   0.97405694   -6.6911742    269.24363  0.030777735  0.031177342           11 
  730000   0.97352481   -6.6718375    268.81686  0.030686856  0.031159954            4 
  731000   0.97021008   -6.7269689     269.2219  0.030691051  0.031142278            7 
  732000   0.94927591   -6.7160804     269.3775  0.030666838   0.03112448            6 
  733000   0.96731291   -6.7082068    269.66932  0.030658176  0.031106578            8 
  734000   0.96351496   -6.7059124    269.80523  0.030631838  0.031088802            4 
  735000   0.94916798   -6.7095741    270.86556  0.030710381  0.031071142            3 
  736000   0.96480552   -6.6613698    271.31702  0.030719771  0.031053887            3 
  737000   0.94969703   -6.7128987    270.32503  0.030565924  0.031036384            6 
  738000   0.98032607   -6.7155563     271.6601  0.030675259  0.031019246            4 
  739000   0.96932833   -6.7040263    271.58224  0.030624971  0.031002102            6 
  740000   0.93835043   -6.7168321    271.84046  0.030612665  0.030984625            9 
  741000   0.94240777   -6.7024593    271.40944  0.030522879   0.03096718            7 
  742000   0.95279591    -6.725212    271.78128  0.030523504  0.030949658            4 
  743000   0.94268492   -6.7314948    272.46416  0.030559013  0.030932169            4 
  744000   0.95763704   -6.6952399    272.60499  0.030533713  0.030914997            7 
  745000   0.95231167   -6.7375199    272.21407  0.030449002  0.030897419            3 
  746000   0.97117598   -6.7393577    273.01217  0.030497338  0.030879704            4 
  747000   0.96928899   -6.6692394    272.96686  0.030451457  0.030862366            7 
  748000   0.94602458   -6.7592654    272.26492  0.030332545  0.030844785            6 
  749000   0.97628953   -6.7233216    273.84905  0.030468297  0.030827154            5 
  750000    0.9515058   -6.7271109    273.82604  0.030425116  0.030809958            4 
  751000   0.95308754   -6.7073535     274.3278   0.03044028  0.030792464            4 
  752000   0.93607973   -6.7422627    274.67178  0.030437919  0.030775299            3 
  753000   0.95741926   -6.7039598    274.63909  0.030393879  0.030757961            5 
  754000   0.93857527   -6.7118474    275.54055    0.0304532  0.030740756            6 
  755000    0.9538308   -6.7478499    274.81842  0.030333159  0.030723506            5 
  756000   0.94210729   -6.7427335    274.12026  0.030216079  0.030706329            6 
  757000   0.94677534   -6.7097933    275.36144  0.030312797  0.030688972            6 
  758000   0.95512143   -6.7687616    274.92268  0.030224569   0.03067184            7 
  759000    0.9613933   -6.7223093    276.06136  0.030309767  0.030654657            6 
  760000   0.93586527   -6.7138145    275.78167  0.030239218  0.030637421            7 
  761000   0.94482909   -6.7048323    277.32592  0.030368586  0.030620372            4 
  762000   0.94993284   -6.7225109    276.63972  0.030253688  0.030603148            4 
  763000   0.93209668   -6.7333896    276.34013  0.030181316  0.030585631            4 
  764000   0.96498959   -6.7437702    277.12809  0.030227759  0.030568242            7 
  765000   0.94897881   -6.7466261    277.01802  0.030176255  0.030551005            4 
  766000   0.93683069   -6.7519345    277.46056  0.030185005  0.030533757            6 
  767000   0.94092731   -6.7179244    277.68155   0.03016966  0.030516735            4 
  768000   0.94091926   -6.7158697    278.73761  0.030244967  0.030500065            6 
  769000   0.94173664   -6.7219837    279.12291  0.030247389  0.030483435            2 
  770000   0.91609242   -6.7334842    279.11531  0.030207285  0.030466814            5 
  771000   0.94253517   -6.7736208    277.93446  0.030040474  0.030449991            4 
  772000   0.97057033   -6.7273222     278.5623  0.030069332  0.030433187            7 
  773000   0.95340474   -6.7298901     279.5668  0.030138724  0.030416344            3 
  774000   0.94466097   -6.7305376    280.15298  0.030162897  0.030399884            5 
  775000   0.94147314   -6.7763588    279.74635  0.030080252  0.030383115            3 
  776000   0.94596973   -6.7496663    280.37086  0.030108554  0.030366554            2 
  777000   0.92782581   -6.7344946    280.69434  0.030104498  0.030350072            3 
  778000   0.91869832   -6.7342674    281.20242  0.030120225  0.030333744            6 
  779000   0.95003784    -6.731367    280.60605  0.030017763  0.030317273           11 
  780000   0.94298686   -6.7208921    280.87883  0.030008422  0.030300792            4 
  781000   0.90976786   -6.7514147    280.49274  0.029928803  0.030284189            3 
  782000   0.94481942   -6.7120629    281.23644  0.029969783  0.030267548            7 
  783000    0.9209149   -6.7516165    281.60121  0.029970329  0.030251197            7 
  784000   0.93850947   -6.7516698    281.28966  0.029898986  0.030234691           10 
  785000   0.93320832   -6.7786144    282.02684  0.029939155  0.030218049            3 
  786000   0.93376468   -6.7558672    282.01057   0.02989934  0.030201438            3 
  787000   0.93989527   -6.7714712    282.22435  0.029883985  0.030184606            7 
  788000   0.95332679    -6.756526    283.43966  0.029974583  0.030168377            5 
  789000   0.93026019   -6.7447544    283.01488  0.029891728  0.030151881            7 
  790000   0.92542765   -6.7417564    283.45483  0.029900299  0.030135447            9 
  791000   0.93010433   -6.7525075    283.80525  0.029899416  0.030119098            6 
  792000   0.95517161   -6.7942832    283.99052  0.029881157  0.030102694            6 
  793000   0.93766421   -6.7806683    283.85142  0.029828859  0.030086108           17 
  794000   0.94885042    -6.779359     283.5875  0.029763591  0.030069615            8 
  795000   0.95798712   -6.7642995    284.39093   0.02981037   0.03005305            5 
  796000   0.95285296   -6.7672526    284.77675  0.029813312  0.030036884            5 
  797000   0.93020389   -6.7496493    285.25045  0.029825434  0.030020454            2 
  798000   0.91785009    -6.749976    285.31639  0.029794945  0.030004204            4 
  799000   0.94941776   -6.7848044    285.83934  0.029812197  0.029987831            6 
  800000   0.90373146   -6.7472565    286.09948  0.029802029  0.029971402            4 
  801000   0.93873975   -6.8040122     285.3745  0.029689399  0.029955117            6 
  802000   0.93615016   -6.7499559    286.36112  0.029754896  0.029938915            4 
  803000   0.91307517   -6.7632119    286.18252  0.029699307  0.029922812           16 
  804000   0.93190632   -6.7452733    286.74026  0.029720177  0.029906752            6 
  805000   0.93484048   -6.7636799    286.36613  0.029644527  0.029890659            4 
  806000    0.9233685   -6.7870043     287.2402  0.029698118  0.029874737           11 
  807000   0.91436946   -6.7620696    287.65522  0.029704174  0.029858852            4 
  808000    0.9188802   -6.7719384    286.80927  0.029580164  0.029842959            9 
  809000   0.93013483   -6.7659298    287.97086  0.029663253     0.029827            5 
  810000   0.93117676   -6.7448756    289.59298  0.029793516  0.029811331            6 
  811000   0.93425267   -6.7635763    288.82554  0.029677922   0.02979569            4 
  812000    0.9594199   -6.7792105    289.30155  0.029690225  0.029779939            3 
  813000   0.94459252   -6.8026024     288.7396  0.029596105  0.029764296            3 
  814000    0.9185568   -6.7605135    290.27329  0.029716758  0.029748751            7 
  815000   0.95817539   -6.7775492      289.981  0.029650409   0.02973353            4 
  816000   0.93400041   -6.7536371    290.49629  0.029666696  0.029718257            9 
  817000   0.95046438   -6.8057491    289.75651  0.029554928  0.029702935            5 
  818000   0.92356974   -6.7574027    290.37163  0.029581462  0.029687675            5 
  819000   0.91826704   -6.7762767    290.78535  0.029587439  0.029672299            5 
  820000   0.93970013   -6.7741241    290.72545   0.02954527  0.029656836            6 
  821000   0.91830792   -6.7710636    291.31098  0.029568715  0.029641263            5 
  822000   0.92008614   -6.7657419    291.68717  0.029570881  0.029625938            3 
  823000   0.92520534   -6.7705715    291.97042  0.029563631  0.029610631            8 
  824000   0.93569469   -6.7769865    291.78129  0.029508626  0.029595337            6 
  825000   0.92748337   -6.7682838    292.00148  0.029495099  0.029580088            5 
  826000   0.93203606   -6.7726481    292.31363  0.029490882  0.029564572            4 
  827000   0.92897653   -6.8027427    292.20398  0.029444173  0.029548989            4 
  828000   0.94457541   -6.7965558    292.23971   0.02941221  0.029533408            5 
  829000   0.92410038   -6.7608552    293.25065  0.029478353  0.029518127           10 
  830000   0.93134268   -6.7928626    292.33193  0.029350595  0.029502718            6 
  831000   0.91106208   -6.7810058    293.37102  0.029419477  0.029487318            4 
  832000   0.90944484   -6.7735888    293.58186  0.029405235  0.029471872            6 
  833000    0.9277273   -6.8106033    292.53705  0.029265412  0.029456213            5 
  834000   0.91615633   -6.8118155     292.8031  0.029256905  0.029440534            4 
  835000   0.92907289   -6.7773211    293.63309  0.029304699  0.029424996            5 
  836000   0.92793478   -6.7906957    294.64101  0.029370117  0.029409606            7 
  837000   0.90534599   -6.7922721     294.4163  0.029312654  0.029394091            4 
  838000   0.92673361   -6.8050678    293.81044  0.029217427  0.029378563            6 
  839000   0.95435947   -6.8141503    294.19274  0.029220574  0.029362688           10 
  840000   0.93285305   -6.8063469    293.41138  0.029108272  0.029347011            5 
  841000   0.91180264    -6.803866    294.33428  0.029165109    0.0293315            7 
  842000   0.91743881   -6.7562055     294.9669  0.029193082  0.029315824           11 
  843000   0.91480105   -6.8012227    295.17941  0.029179459  0.029300155            4 
  844000   0.93038457   -6.8092275     294.2227  0.029050424  0.029284383            6 
  845000    0.9364249   -6.7982505    296.00481  0.029191796  0.029268369            3 
  846000   0.91626061   -6.7845096    295.65816  0.029123144  0.029252511            8 
  847000   0.91683078   -6.7926626    296.45141  0.029166805   0.02923669            4 
  848000   0.91780106   -6.7960384    296.54435  0.029141544   0.02922106            3 
  849000    0.9113336   -6.8062294    295.91285  0.029045234  0.029205447            9 
  850000    0.9064772   -6.7868016     296.9028  0.029108118  0.029190033            3 
  851000   0.91366678   -6.8096828    296.61784  0.029046009  0.029174528            4 
  852000   0.92859894   -6.8090407    296.64472  0.029014546  0.029158813            6 
  853000   0.88343663   -6.8374642    296.44656  0.028961172  0.029142923            7 
  854000    0.9022262   -6.8184576    297.08643  0.028989698  0.029127165            4 
  855000   0.92179968   -6.8186735    297.05148  0.028952386  0.029111591           15 
  856000   0.90805259   -6.8051917    297.34262  0.028946906  0.029095753            6 
  857000   0.92749638   -6.8218176    297.19778  0.028899045  0.029079783            6 
  858000   0.92465427   -6.8082903    297.70188  0.028914324  0.029063771            4 
  859000   0.90829559   -6.7787017    297.92119  0.028901939  0.029047863            6 
  860000    0.9039593   -6.8119043    297.69356  0.028846276   0.02903207            3 
  861000   0.91750525   -6.7778608    299.03633  0.028942734  0.029016501            9 
  862000   0.90489907   -6.8013752    298.63007  0.028869883  0.029000864            5 
  863000   0.89684223   -6.8046335    298.94227  0.028866577  0.028985077            7 
  864000   0.90715612   -6.8076714    298.28143  0.028769428  0.028969154            4 
  865000   0.92203325   -6.8511452    297.68681  0.028678883  0.028953194            2 
  866000   0.89468953   -6.7840846    299.20648  0.028792001  0.028937076            5 
  867000   0.91919897   -6.7986048    299.19659  0.028757842  0.028921058            3 
  868000   0.91312699   -6.8122443    299.25671  0.028730483  0.028905035            4 
  869000   0.90188669   -6.8254366    299.33448   0.02870488  0.028888884            9 
  870000   0.88751951   -6.8461064    298.72858  0.028613849  0.028872754            6 
  871000   0.89805456     -6.85506    300.47365  0.028747958  0.028856489            5 
  872000   0.91459732   -6.8134597    299.61274  0.028632716  0.028840327            7 
  873000   0.90868813    -6.843218    300.26937  0.028662597  0.028824207            6 
  874000   0.91657906   -6.8290965    299.75941  0.028581179  0.028808101            3 
  875000   0.90704898   -6.7934559    301.77799  0.028740761  0.028792229            7 
  876000    0.9146941   -6.8405414    300.66348  0.028601929  0.028776348           10 
  877000    0.9109248   -6.8489315    300.97146   0.02859858  0.028760476            7 
  878000   0.89994937   -6.8467686    301.17748  0.028585562  0.028744418            8 
  879000   0.90582323   -6.8347459     300.4161  0.028480859  0.028728369            6 
  880000   0.90182441   -6.8083783    301.78089  0.028577736  0.028712223            4 
  881000   0.91052788   -6.8407613     301.5784  0.028526144  0.028696196            4 
  882000   0.89710595   -6.7871159    301.98651  0.028532361  0.028680006            3 
  883000   0.90503804   -6.7989289    301.29055  0.028434367  0.028663773            8 
  884000   0.88086823   -6.8286177    301.19682  0.028393366  0.028647249            4 
  885000   0.89596714   -6.8180804    302.15874  0.028451858  0.028630801           10 
  886000   0.89528765   -6.8741406    301.31805  0.028340674  0.028614199            4 
  887000   0.89654649   -6.8183768    301.53229  0.028328851   0.02859735            6 
  888000   0.89451449   -6.8216956     301.7974  0.028321828  0.028580637            9 
  889000   0.90950446   -6.8147751    302.49659  0.028355511  0.028563954           11 
  890000   0.88340643    -6.799549    302.12665  0.028289012  0.028547401            7 
  891000   0.88969437   -6.8386229     301.8587  0.028232201  0.028530674            7 
  892000   0.91122663   -6.8263182    302.44227  0.028255071  0.028513985            8 
  893000   0.91051462   -6.8737061    302.03183  0.028185128  0.028497185            7 
  894000    0.9308894   -6.8481407    303.13561  0.028256488  0.028480414            4 
  895000   0.90608886    -6.817608    303.14228  0.028225538  0.028463457           13 
  896000   0.89407991    -6.853857    302.76411  0.028158864  0.028446609            6 
  897000   0.90440456   -6.8725303    302.91807  0.028141776   0.02842947            4 
  898000   0.91197442   -6.8502271    303.93865  0.028205145  0.028412337            2 
  899000   0.88989905   -6.8603068    302.89774  0.028077284  0.028395245            8 
  900000   0.90283208   -6.8804381    302.86571  0.028043122   0.02837807            6 
  901000   0.89008572   -6.8550887    303.13941  0.028037312   0.02836093            6 
  902000   0.87677874   -6.8607539    302.90202  0.027984296  0.028343854            5 
  903000   0.87830007   -6.8326392    304.23859  0.028076651  0.028326881            3 
  904000   0.89419455   -6.8712581    303.71937   0.02799773  0.028309937            6 
  905000   0.91045102   -6.8736497    303.28366  0.027926672  0.028292791            6 
  906000   0.89326124   -6.8404723    304.78458  0.028033901  0.028275672           11 
  907000    0.8914454   -6.8597199    304.52537  0.027979178  0.028258456            6 
  908000   0.89096219   -6.8356578    304.07605  0.027907127  0.028241417            7 
  909000   0.90501131   -6.8500415    304.38767  0.027904994  0.028224107            5 
  910000   0.88021133   -6.8600196    304.08834  0.027846917  0.028206721            5 
  911000   0.89814581   -6.8707557    303.67806   0.02777882  0.028189326            8 
  912000   0.88549803   -6.8385184    304.66877  0.027838886  0.028172149            5 
  913000    0.9019956   -6.8310471    305.42541  0.027877456   0.02815522            5 
  914000   0.88945912   -6.8690763    305.23359  0.027829466  0.028138228            9 
  915000   0.91582898   -6.8438354    306.23353  0.027890121   0.02812126            6 
  916000   0.87432276   -6.8641785    305.87507  0.027827062  0.028104289           16 
  917000   0.89386294   -6.8426003    306.04174  0.027811863  0.028087251           12 
  918000   0.88790217   -6.8585569    306.50507  0.027823627  0.028070161            5 
  919000   0.87243813   -6.8565585    306.51636  0.027794375  0.028053243           10 
  920000   0.90353047   -6.8836695    306.49984  0.027762667  0.028036459            6 
  921000    0.8900934   -6.8927877     307.3615  0.027810487   0.02801975            4 
  922000   0.89852329   -6.7989165    307.77515  0.027817711  0.028003136            9 
  923000   0.85182105   -6.8528384    306.56745  0.027678535  0.027986442            9 
  924000   0.87172222   -6.8603732    307.72288  0.027752785  0.027969818            5 
  925000   0.88944181    -6.853357    308.04311  0.027751632  0.027953218           12 
  926000   0.89492355   -6.8317584    308.84473  0.027793802  0.027936658            6 
  927000   0.87437296   -6.8621669    307.58358  0.027650448  0.027919892            5 
  928000   0.89968374   -6.8600205    307.97237  0.027655565  0.027903061            5 
  929000   0.87218553   -6.8620568    307.65321  0.027597166  0.027886233            5 
  930000   0.88155954    -6.875421    307.83959  0.027584192  0.027869509            5 
  931000   0.87913805   -6.8535148    308.63653  0.027625898  0.027852838            8 
  932000   0.88420691   -6.8732899    308.75191  0.027606573  0.027836112            6 
  933000   0.89050942   -6.8822911    307.47979  0.027463361  0.027819161           11 
  934000   0.88703273   -6.8578217    308.64489   0.02753791  0.027802102            3 
  935000   0.88288486   -6.8619765    308.70568  0.027513875   0.02778518            5 
  936000   0.87618883    -6.880182    308.53314  0.027469119  0.027768245           11 
  937000   0.86647837   -6.8537789    309.07607  0.027488089  0.027751396            5 
  938000   0.87884957   -6.8697709    309.80896  0.027523895  0.027734428            6 
  939000   0.84750127   -6.9132943    310.10046  0.027520453  0.027717506            4 
  940000   0.89545491   -6.9040304    309.39047  0.027428233  0.027700493            3 
  941000   0.88588651   -6.8797631    310.09511  0.027461487  0.027683507            3 
  942000   0.85549507   -6.8985759    309.15182  0.027348887  0.027666385            4 
  943000   0.88797332   -6.9019167    309.49179  0.027349928  0.027649176           12 
  944000   0.87426205   -6.8745792    310.55163  0.027414515   0.02763207           12 
  945000   0.89327346   -6.8861681    309.93483  0.027331114  0.027615036            5 
  946000   0.87842343   -6.8509873     310.6282  0.027363302  0.027598118            5 
  947000   0.88202796   -6.9034771    310.63595  0.027335089  0.027581065            6 
  948000   0.86924653   -6.8631831    310.61751  0.027304634  0.027564083            5 
  949000   0.86655801    -6.878001    311.11875  0.027319877  0.027547049            3 
  950000   0.89328758   -6.8894292    311.09659  0.027289174   0.02753026           11 
  951000   0.87376969   -6.8665847    311.48139  0.027294198  0.027513343            9 
  952000   0.85901803   -6.8901985    311.31652  0.027251096  0.027496265            9 
  953000   0.87665032   -6.8337891    311.14812  0.027207775   0.02747942           11 
  954000   0.87621719   -6.8561932    311.43085  0.027203952  0.027462448            8 
  955000   0.87213814   -6.8789627    311.25081  0.027159756  0.027445605            3 
  956000   0.88396419   -6.8938808    311.62244  0.027163741  0.027428576            8 
  957000   0.87137991   -6.8932291    311.31976     0.027109  0.027411639            8 
  958000   0.87373942   -6.9052334     311.4436  0.027091476  0.027394623            5 
  959000   0.86755326   -6.9011511    311.52261  0.027070091   0.02737746           10 
  960000   0.84935367   -6.9217327    311.94665  0.027078702  0.027360237           10 
  961000   0.86642813   -6.9035267    313.01656  0.027143302  0.027343213            6 
  962000   0.87699049   -6.8887559     312.0808  0.027034026  0.027326189            4 
  963000   0.86811951   -6.8709297    313.23646  0.027105959  0.027309158            8 
  964000   0.88312698   -6.8991435    312.15392   0.02698426  0.027292363            6 
  965000   0.87150331   -6.8853114    312.68189   0.02700189  0.027275569            5 
  966000   0.87565911   -6.9095391    312.82488  0.026986273   0.02725865           12 
  967000   0.86268662   -6.8925026    313.58006  0.027023445   0.02724187            4 
  968000   0.87031631   -6.8617713    314.06142  0.027036968  0.027225179            2 
  969000   0.86556581   -6.8699586    314.21273  0.027022079  0.027208576            6 
  970000    0.8758031   -6.9301226    313.61816  0.026943141  0.027191711            5 
  971000   0.86731207   -6.9363382    313.54198  0.026908855  0.027174862            2 
  972000    0.8605324   -6.8955508     314.7021  0.026980633  0.027158029            4 
  973000   0.87441908   -6.8976512    314.46362  0.026932478  0.027141162           13 
  974000   0.86572777   -6.9088409    315.01713  0.026952184  0.027124392            6 
  975000   0.86495726   -6.8764948    314.50145  0.026880466  0.027107789            6 
  976000   0.85955645   -6.9107252    314.81108  0.026879361  0.027091206           12 
  977000   0.86663439   -6.8958878    314.40129  0.026816896  0.027074472           10 
  978000    0.8586125   -6.9219145    315.75724  0.026905013  0.027057885            4 
  979000   0.85564378      -6.8829    314.64357  0.026782735  0.027041357            5 
  980000   0.84494819   -6.8898661    316.23506  0.026890737  0.027024771            5 
  981000    0.8737323   -6.8746283    316.51219  0.026886866  0.027008212            5 
  982000   0.87308676   -6.9185121    315.47104  0.026771134  0.026991561            5 
  983000   0.85964295    -6.941392    315.39194  0.026737194  0.026974803           10 
  984000   0.85504479   -6.9270875    316.15369  0.026774533  0.026958125            5 
  985000   0.87441867   -6.9155614     315.6026  0.026700728   0.02694158            4 
  986000   0.88626842    -6.917952    316.29906   0.02673251   0.02692509           11 
  987000   0.87050826   -6.9033784    316.08999  0.026687774  0.026908533           13 
  988000    0.8846136   -6.9055597    316.44564  0.026690759  0.026891853            8 
  989000    0.8545193   -6.9027641    316.24361  0.026646749  0.026875036            5 
  990000     0.862784    -6.926024    315.77285  0.026580206   0.02685818            5 
  991000   0.84553261   -6.9292558    316.21128  0.026590253  0.026841268            9 
  992000    0.8705376   -6.9247135     317.1283  0.026640482  0.026824536            7 
  993000   0.85288337   -6.9541526    316.81399  0.026587277   0.02680786           11 
  994000   0.87135782   -6.9194643    317.79365   0.02664266  0.026791131           28 
  995000   0.85959549   -6.9180515    317.38381  0.026581558  0.026774335            7 
  996000   0.86595222   -6.9204999    317.94294  0.026601651  0.026757658            6 
  997000   0.85816382   -6.9212812    317.60127  0.026546412  0.026741008            5 
  998000   0.84782487   -6.9236033    317.43596  0.026506009  0.026724085            6 
  999000   0.84073953   -6.9111673    318.85808  0.026598105  0.026707334            8 
 1000000   0.85437045   -6.9493434    317.80531  0.026483776  0.026690685           13 
 1001000   0.88881422   -6.9259407    318.59388  0.026522967  0.026673896            5 
 1002000   0.85778788   -6.8999217    318.71197  0.026506319  0.026657255           17 
 1003000   0.85119821   -6.8905271    318.49089  0.026461523  0.026640679            9 
 1004000   0.84245922   -6.9345198    318.13304  0.026405465  0.026623987            5 
 1005000   0.82896629    -6.932399    318.90277  0.026443016  0.026607244           14 
 1006000   0.85396078     -6.93109    318.79003  0.026407392  0.026590572            5 
 1007000   0.85637901   -6.9510716    319.69007  0.026455649  0.026573786            5 
 1008000   0.86294681   -6.9137522    319.56246  0.026418854  0.026557074            5 
 1009000   0.84324355   -6.9268893    318.95983    0.0263429  0.026540391            6 
 1010000    0.8439894   -6.9182533    319.38476  0.026351878  0.026523784            6 
 1011000   0.83844423   -6.9389407    319.39742  0.026326856  0.026507127            6 
 1012000   0.84329091   -6.9055243    319.82624  0.026336152  0.026490429            5 
 1013000   0.84671202   -6.9208699    319.06592  0.026247608  0.026473734            6 
 1014000   0.86808464   -6.9597347    318.64067  0.026186774   0.02645688           12 
 1015000   0.85733959   -6.9444502    319.06888  0.026196132  0.026439933           13 
 1016000   0.86264969   -6.9296835    318.90066   0.02615655  0.026423073            6 
 1017000   0.84613472   -6.9196197    318.25387  0.026077833  0.026406076            5 
 1018000   0.84957466   -6.9864539    319.29115  0.026137128  0.026389086            6 
 1019000   0.84601298   -6.9603983    318.99043  0.026086885  0.026371967            4 
 1020000   0.85971107   -6.9303308    320.22334  0.026162038  0.026354716            4 
 1021000   0.83771194   -6.9406493    318.88568  0.026027235  0.026337505            6 
 1022000   0.87055622    -6.943236    318.72572  0.025988725  0.026320153            5 
 1023000    0.8435842   -6.9622753     318.7088  0.025961942   0.02630275            7 
 1024000   0.83516557   -6.9516209    319.33715  0.025987724  0.026285351            3 
 1025000   0.86205081   -6.9372335     318.3592  0.025882861   0.02626794            6 
 1026000   0.83359784   -6.9198467    319.28613  0.025932921   0.02625051            8 
 1027000   0.83896346   -6.9412001     319.5338  0.025927767  0.026233223            6 
 1028000   0.86081662   -6.9584059    320.05511  0.025944805  0.026215831            5 
 1029000   0.84565853   -6.9418829    320.67902  0.025970118  0.026198482            3 
 1030000   0.84212113   -6.9468796    319.55282  0.025853788  0.026181206            5 
 1031000   0.83852158   -6.9772674    319.74104  0.025843925  0.026163834            5 
 1032000   0.84630977   -6.9416296    320.17183  0.025853669  0.026146368            5 
 1033000   0.84339534   -6.9395015    320.50378   0.02585542  0.026128876            6 
 1034000   0.83818863   -6.9663686    320.17637  0.025804027  0.026111488            7 
 1035000    0.8336955   -6.9727175    320.07863  0.025771226  0.026094086            4 
 1036000   0.84490112   -6.9895073    320.25553   0.02576058  0.026076701            5 
 1037000   0.83432812   -6.9135738    320.86018  0.025784328  0.026059361            3 
 1038000   0.82670617   -6.9331984    319.70093   0.02566642  0.026041984            3 
 1039000   0.83452374   -6.9547112    321.14509  0.025757547   0.02602468           14 
 1040000   0.84987124   -6.9308573    320.95736  0.025717737  0.026007245           10 
 1041000   0.84847732   -6.9710074    320.62792  0.025666661  0.025989854            5 
 1042000   0.83449184    -6.968052    321.50396  0.025712089  0.025972461            8 
 1043000   0.85273452   -6.9723732    321.18176  0.025661694  0.025955002            5 
 1044000   0.84886408   -6.9436072    321.78354  0.025685149  0.025937602            4 
 1045000   0.83072462   -6.9298191    322.51505  0.025718904  0.025920149            7 
 1046000   0.82879311   -6.9748604    321.15853  0.025586243  0.025902764            4 
 1047000   0.82741637   -6.9663058    321.63137   0.02559944  0.025885515            5 
 1048000   0.83965559   -6.9758111    321.83245  0.025591002  0.025868324            4 
 1049000   0.81869508   -6.9951315    322.03281  0.025582524  0.025851139            5 
 1050000   0.83937495   -6.9699084    322.03787  0.025558561   0.02583382           13 
 1051000   0.80996192   -6.9459301    322.09163  0.025538506  0.025816603            8 
 1052000   0.85704049   -6.9581076    322.86528  0.025575513   0.02579945            7 
 1053000   0.84594203   -6.9702284      323.493  0.025600902  0.025782575            9 
 1054000   0.82815246   -6.9577781    323.27832   0.02555964  0.025765669            3 
 1055000   0.81387126   -6.9222655    324.32284  0.025617918  0.025748788           12 
 1056000   0.83926691   -6.9864389    323.25594  0.025509465  0.025731824           17 
 1057000   0.83074925   -7.0158142    323.48519  0.025503405  0.025714908           15 
 1058000   0.83448688   -6.9693051    322.76284  0.025422404  0.025697884           11 
 1059000   0.84678094    -6.990113    324.11608  0.025504885  0.025680903           14 
 1060000   0.83084842   -6.9515297    324.73508  0.025529487  0.025663933            6 
 1061000   0.82739229   -6.9490303    323.87717  0.025438043  0.025647091            6 
 1062000   0.82114302   -6.9593626    323.72377  0.025402053  0.025630196            9 
 1063000   0.82518292   -6.9716148    323.59599   0.02536814  0.025613102           12 
 1064000   0.82375592   -6.9812577    323.76751  0.025357731  0.025596043            4 
 1065000   0.82964348   -6.9469714    324.50797   0.02539186  0.025579099            4 
 1066000    0.8412085   -7.0035426    324.47533  0.025365489  0.025562109            5 
 1067000   0.82553019   -6.9580944     323.8688  0.025294346  0.025545089            5 
 1068000   0.83007964   -6.9825753    324.68486  0.025334336  0.025527981            7 
 1069000   0.82254148   -6.9883311    323.98298  0.025255923  0.025510813           11 
 1070000    0.8243919   -6.9782909    324.21703  0.025250548  0.025493659            5 
 1071000   0.83516945   -6.9947643    323.47124  0.025168942  0.025476555            9 
 1072000   0.82343811   -6.9915215    323.92993   0.02518112  0.025459472            9 
 1073000   0.81949692   -7.0075077     323.9629  0.025160213  0.025442345            9 
 1074000   0.82493565   -6.9930246    324.73993  0.025197077  0.025425288            9 
 1075000   0.81128042   -6.9662143    324.66525  0.025167849  0.025408142            5 
 1076000   0.81698648   -6.9796357    325.19716  0.025185653  0.025390967           10 
 1077000   0.80973306   -6.9864895    325.37495  0.025176025  0.025373919            6 
 1078000   0.82957749   -6.9743808     326.0423  0.025204259  0.025356919            5 
 1079000   0.81838462   -6.9940431    326.08455  0.025184164  0.025339983            7 
 1080000   0.82786128   -6.9804674    325.19985  0.025092581  0.025322932           14 
 1081000   0.80711893   -6.9707562    325.35775  0.025081541  0.025305825            8 
 1082000   0.83503435   -6.9996144    325.72642  0.025086755  0.025288622            7 
 1083000   0.84309084   -7.0026918    326.36321  0.025112589   0.02527158            6 
 1084000   0.80975385    -6.983426    325.68401  0.025037208  0.025254562            6 
 1085000   0.79957471   -6.9943551    325.43527  0.024995028   0.02523757           10 
 1086000    0.8365264   -6.9878299    326.59092  0.025060691  0.025220501           11 
 1087000   0.81947642   -7.0109102    325.99934  0.024992283  0.025203355           17 
 1088000   0.80729354   -7.0029009    325.05053   0.02489664  0.025186127           14 
 1089000   0.80931678   -7.0214457    325.65383  0.024919944  0.025168947           23 
 1090000   0.80863129   -7.0016297    325.78023  0.024906745  0.025151742            5 
 1091000   0.81467098   -7.0223257    325.67155  0.024875615  0.025134685            7 
 1092000   0.82268032   -7.0279425    326.01672  0.024879176  0.025117481           13 
 1093000    0.8063528   -7.0240082    325.78873  0.024839031  0.025100347           11 
 1094000    0.8090777    -6.984817    326.04892  0.024836146  0.025083207           11 
 1095000   0.81553867   -7.0217719    326.44562  0.024843654  0.025066071            7 
 1096000   0.81491513   -7.0186405    326.81255  0.024848886  0.025049103           13 
 1097000   0.82029445   -6.9829624    326.33874  0.024790241  0.025032003           16 
 1098000   0.80548164   -7.0103614    326.23216  0.024759575  0.025014975            6 
 1099000   0.79971169   -6.9757618    327.68769  0.024847413  0.024997996            9 
 1100000   0.81088814   -6.9905045    327.65677  0.024822483  0.024981039            6 
 1101000   0.79644109   -7.0216763     327.8737  0.024816357   0.02496402           11 
 1102000   0.81746515   -6.9961239    326.99731  0.024727564  0.024946977           16 
 1103000   0.80950856   -7.0186879    326.81331  0.024691245  0.024929869           10 
 1104000   0.79967584   -7.0001656    328.21696  0.024774831  0.024912817           11 
 1105000   0.81868242   -7.0048335    326.74255  0.024641218  0.024895759           13 
 1106000   0.82309471   -7.0063238    327.75582  0.024695285  0.024878838            5 
 1107000   0.81820283   -7.0041041    327.64917  0.024664948  0.024861831            6 
 1108000   0.82511301   -7.0078294    326.99419  0.024593426   0.02484471            6 
 1109000   0.81095946   -6.9983947    327.44402  0.024605051   0.02482762            7 
 1110000   0.81087974   -7.0176937    326.96968  0.024547273  0.024810431           12 
 1111000   0.80660671   -7.0121674    327.75999  0.024584458  0.024793201            5 
 1112000   0.80900729   -7.0567277    327.16794  0.024517981  0.024775918            8 
 1113000   0.80353835   -7.0527152     326.8862  0.024474858  0.024758658           16 
 1114000   0.81046813   -7.0504164    326.27848  0.024407427  0.024741283           10 
 1115000   0.82135939   -6.9976382    327.20482   0.02445477  0.024723903            6 
 1116000   0.81026855   -7.0482605    327.03305  0.024420031  0.024706536           11 
 1117000   0.80372281   -7.0340866    327.62663  0.024442452  0.024689218            5 
 1118000   0.83958647   -7.0139578    327.42714   0.02440572   0.02467192           12 
 1119000   0.81054794   -7.0399573    327.59937  0.024396736  0.024654639            7 
 1120000   0.81788499   -7.0302422    326.76134  0.024312599  0.024637224            4 
 1121000    0.8171043   -7.0257175    326.99164  0.024308031  0.024619839           13 
 1122000   0.80483219   -7.0298278    327.59593  0.024331249  0.024602428            4 
 1123000   0.80611143   -7.0516111    327.67522  0.024315466  0.024584974            6 
 1124000   0.80075478   -7.0081792    327.56223  0.024285456  0.024567568           11 
 1125000   0.80127838   -7.0244674    328.28587  0.024317472  0.024550208            5 
 1126000   0.81209183   -7.0198349    328.80201  0.024334074  0.024532938           18 
 1127000   0.81391826   -7.0116625     327.4523  0.024212681  0.024515737           14 
 1128000   0.81165974   -7.0524373     327.8444  0.024220183  0.024498402           15 
 1129000   0.80479401    -7.025858    328.02761  0.024212254  0.024481193            6 
 1130000   0.81437669   -7.0011537    329.36245  0.024289266  0.024464035           14 
 1131000   0.80349967   -7.0197809    328.91208  0.024234606  0.024446965            4 
 1132000   0.80989868   -7.0358313    329.04693  0.024223125  0.024429916            8 
 1133000   0.81936977   -7.0269758    329.37784  0.024226084  0.024412788            5 
 1134000   0.80470908   -7.0148015    329.76736  0.024233345  0.024395738            5 
 1135000    0.7698209   -7.0077995    329.41211  0.024185911  0.024378762            5 
 1136000   0.78900899   -7.0336887    329.46644  0.024168606  0.024361799           19 
 1137000   0.77892766   -7.0544115    329.97864   0.02418489  0.024344847           16 
 1138000   0.78449524   -7.0261212    330.23101  0.024182119  0.024327968            7 
 1139000   0.81094721   -7.0250958    330.43867  0.024176081  0.024311107            8 
 1140000   0.80268289   -7.0309148    330.56849  0.024164363  0.024294274           16 
 1141000   0.79050959   -7.0740777    330.84162  0.024163134  0.024277417           13 
 1142000   0.79840162   -7.0291215    330.80992  0.024139662  0.024260719           11 
 1143000   0.80269969    -7.047612    330.77036  0.024115658  0.024243967            5 
 1144000    0.8008319   -7.0455329    330.60371  0.024082438  0.024227181            4 
 1145000   0.81092005   -7.0563155    330.86239  0.024080232  0.024210463            9 
 1146000   0.80168323   -7.0329312    331.17131  0.024081683  0.024193755           10 
 1147000    0.8000988   -7.0392119    331.38008  0.024075856  0.024177051           10 
 1148000    0.8069891   -7.0730933    330.86814  0.024017722  0.024160291            6 
 1149000   0.80327056   -7.0589806    330.21722   0.02394961  0.024143419            7 
 1150000   0.79789222   -7.0602126    329.92352  0.023907502  0.024126631            9 
 1151000   0.79603456   -7.0408463    331.33877  0.023989196    0.0241098           12 
 1152000   0.79118886   -7.0488835    331.16827  0.023956038  0.024093046           10 
 1153000   0.78476987   -7.0251971    330.36861  0.023877465  0.024076198           17 
 1154000   0.78533421   -7.0748519    330.78021  0.023886497  0.024059369           11 
 1155000    0.7875523   -7.0868007    330.56802  0.023850506  0.024042444           13 
 1156000   0.80945391   -7.0991359    330.22722  0.023805307  0.024025509           13 
 1157000   0.80283598   -7.0418323    330.74755  0.023822209  0.024008649            8 
 1158000   0.78498676   -7.0632075    332.21634  0.023907336  0.023991894           16 
 1159000   0.80610663   -7.0329955    331.70194  0.023849722  0.023975245            8 
 1160000   0.80379878   -7.0595002    331.75722  0.023833133   0.02395851            7 
 1161000   0.78472708   -7.0517362    331.29794  0.023779639  0.023941746            6 
 1162000   0.79455388   -7.0504449    332.18153  0.023822542  0.023925081            4 
 1163000   0.79528005   -7.0759262    330.62377  0.023690439  0.023908224            4 
 1164000   0.78098929   -7.0536867    332.01041  0.023769359  0.023891427            4 
 1165000   0.77203481   -7.0669657    331.71608  0.023727903   0.02387468            6 
 1166000   0.77602932   -7.0581939     332.5748  0.023768925  0.023857933            6 
 1167000    0.8012832   -7.0544432    332.22719  0.023723736  0.023841248           15 
 1168000   0.78833042    -7.082864    331.74419  0.023668963  0.023824446            5 
 1169000   0.78826665   -7.0813057    332.56477  0.023707212  0.023807616            6 
 1170000   0.78598777   -7.0700291    332.72138  0.023698104  0.023790952            8 
 1171000   0.79767535   -7.0305289    332.41539  0.023656091  0.023774322            5 
 1172000   0.79329771   -7.0586361    332.78508  0.023662193   0.02375765            9 
 1173000    0.7758456   -7.0303237      333.309  0.023679241  0.023741005           12 
 1174000   0.79042289   -7.0517852    332.84932  0.023626442  0.023724496            6 
 1175000   0.80236041   -7.0889722    333.14256  0.023627132   0.02370789           12 
 1176000   0.77775908   -7.0573125    333.41669  0.023626466   0.02369139            7 
 1177000   0.76944294   -7.0593288    333.50385  0.023612563  0.023674852           13 
 1178000   0.77262777   -7.0671791    333.34674  0.023581405  0.023658362           11 
 1179000   0.77668281   -7.0514046    333.64018  0.023582145  0.023641848           12 
 1180000   0.77779485   -7.0871919    333.45449  0.023549046  0.023625256           11 
 1181000   0.76799673   -7.0826405    333.41451  0.023526285  0.023608696           23 
 1182000   0.76505709   -7.0796435    332.29263  0.023427286  0.023592056           21 
 1183000   0.77744667    -7.067543    333.00971  0.023457996  0.023575456           10 
 1184000   0.77100325   -7.0542519    333.75941   0.02349095   0.02355889            6 
 1185000   0.77051473   -7.0651114    333.22677  0.023433668  0.023542366            8 
 1186000   0.76872413   -7.0839947    332.84422  0.023387031  0.023525907            5 
 1187000   0.78874317   -7.0590846    333.79556  0.023434117  0.023509423            9 
 1188000    0.7723074   -7.0895603    333.93999  0.023424522  0.023492938            6 
 1189000   0.78434012   -7.0611877    333.70836  0.023388587  0.023476502           16 
 1190000   0.78519469    -7.076172    333.62623  0.023363181  0.023459967            7 
 1191000   0.76624309   -7.0671141    334.14518  0.023379876  0.023443481            9 
 1192000   0.81188031   -7.0779054    333.15309  0.023290904  0.023426907           13 
 1193000   0.77936641     -7.10037    333.66026  0.023306808  0.023410325            9 
 1194000   0.77365337   -7.0942875     333.6431   0.02328609  0.023393663           15 
 1195000   0.76799265   -7.0836644    334.38187  0.023318122  0.023377108            9 
 1196000   0.76142554   -7.1047068    334.39173  0.023299312   0.02336049            7 
 1197000   0.78387096   -7.0991629    334.92099  0.023316694  0.023344018            9 
 1198000    0.7838888   -7.0868099    334.38884  0.023260214  0.023327686            7 
 1199000   0.76336571   -7.0643824    334.70369  0.023262697   0.02331128            6 
 1200000   0.75951194   -7.0672576    335.10922  0.023271473  0.023294921            7 
 1201000   0.76848214   -7.0900775    336.18432  0.023326694  0.023278643           16 
 1202000   0.77729662   -7.1027724     335.1533  0.023235808  0.023262424            7 
 1203000   0.79145155   -7.1133815    335.84136  0.023264156  0.023246205            8 
 1204000   0.78273431     -7.10657    335.02994  0.023188672  0.023230096            7 
 1205000   0.77791006   -7.1118549    335.24858  0.023184549   0.02321394           10 
 1206000   0.75872693   -7.0994646    335.35449  0.023172643  0.023197794           19 
 1207000   0.77971454   -7.1174917    335.41534  0.023157646    0.0231816           11 
 1208000   0.77634016   -7.1000956    336.04689  0.023182042   0.02316553            6 
 1209000   0.78100335   -7.1000356    335.72585   0.02314074   0.02314947           11 
 1210000   0.77671206   -7.0953484    335.70775  0.023120368  0.023133396            8 
 1211000   0.78028403   -7.0814243    336.62531  0.023164417  0.023117375            8 
 1212000   0.76932041   -7.1260219    335.63704  0.023077354  0.023101345           13 
 1213000   0.75803735   -7.0981382    336.56898  0.023122353  0.023085312           14 
 1214000    0.7666728   -7.1263783    336.54702    0.0231018   0.02306929           13 
 1215000   0.77251825   -7.1182848    337.10415  0.023120998  0.023053218           22 
 1216000   0.77798874   -7.0899173    336.23483  0.023042409  0.023037202           10 
 1217000   0.76998711   -7.1220287    337.06657  0.023080428  0.023021134           14 
 1218000   0.76497994   -7.1139638    336.17028  0.023000156  0.023005081           14 
 1219000   0.78981489   -7.1061899    335.82483  0.022957673  0.022988984           18 
 1220000    0.7623074    -7.093623    336.21601  0.022965574  0.022972924            5 
 1221000   0.74463406   -7.1047575    336.14895  0.022942188   0.02295689            6 
 1222000   0.76073396   -7.1080474    336.15202  0.022923624  0.022940848            7 
 1223000   0.75938864   -7.1171025     336.2777  0.022913444  0.022924717            6 
 1224000    0.7703056   -7.1293908    336.01342  0.022876731  0.022908616            7 
 1225000   0.75176945   -7.1003339    335.99689  0.022856931  0.022892486            7 
 1226000   0.76613746   -7.1185176    336.59537  0.022878967   0.02287637            7 
 1227000   0.76421408   -7.1057611    336.91852  0.022882269  0.022860245            3 
 1228000   0.73934765    -7.144922    336.97809  0.022867677  0.022844139            9 
 1229000   0.75842828   -7.1308625    337.03416  0.022852872  0.022827964           18 
 1230000   0.76547595   -7.1139905    336.91875  0.022826474  0.022811893           27 
 1231000   0.76107507    -7.132319    337.15817  0.022824138  0.022795822           20 
 1232000   0.77669893   -7.1367963    337.08626  0.022800748   0.02277979           11 
 1233000   0.76313754   -7.1156457    337.37558   0.02280181  0.022763822           17 
 1234000   0.76373475   -7.1093935    337.89838  0.022818637  0.022747953           18 
 1235000   0.76192927   -7.1051924    337.79343  0.022793079  0.022731979            7 
 1236000   0.75848721   -7.0947716    337.25713   0.02273848  0.022716059            7 
 1237000    0.7684713   -7.1226543       337.74  0.022752628  0.022700174           19 
 1238000   0.75124545   -7.1209913    337.59948   0.02272479  0.022684323            9 
 1239000   0.76964905   -7.1004945    338.19874  0.022746754  0.022668417            8 
 1240000    0.7496493   -7.1033302    337.43289  0.022676942  0.022652558            7 
 1241000    0.7619856   -7.1217628    337.80959  0.022683964   0.02263671            7 
 1242000   0.77344484   -7.1120938    337.51647  0.022646033  0.022620932           15 
 1243000   0.74147551   -7.1347421    337.70929  0.022640741  0.022605025           10 
 1244000   0.74136118   -7.1069972    337.22449  0.022590065  0.022589059           13 
 1245000   0.74163832   -7.1170969    338.37092  0.022648656   0.02257307            8 
 1246000   0.74970917   -7.1219262     338.0988  0.022612279  0.022557082           11 
 1247000   0.75023453   -7.1211074    337.82572  0.022575897  0.022541111            9 
 1248000   0.76062503   -7.1220318    337.92648  0.022564535  0.022525147           11 
 1249000   0.76949903   -7.1129442    338.11909   0.02255932  0.022509266            6 
 1250000   0.74226541   -7.1099929    337.85298  0.022523532  0.022493327            6 
 1251000   0.75990341    -7.133683     338.2774    0.0225338   0.02247742            7 
 1252000   0.76707252   -7.1048647    338.33811  0.022519842  0.022461464           16 
 1253000    0.7724157   -7.1250987    338.14372  0.022488941   0.02244555           11 
 1254000   0.75385471   -7.1286303    337.80946  0.022448794  0.022429582            7 
 1255000   0.73576623   -7.1220504    338.22594  0.022458562  0.022413702            8 
 1256000   0.74334339   -7.1245007    338.90222  0.022485551   0.02239788            6 
 1257000   0.75395489   -7.1288718    338.01133  0.022408601  0.022382001           12 
 1258000   0.75707754   -7.1016295    338.37468  0.022414857  0.022366208           10 
 1259000   0.77102106   -7.1438643    338.94461  0.022434777  0.022350391           10 
 1260000   0.75672726   -7.0998705    338.74418  0.022403715  0.022334619            8 
 1261000   0.75268474   -7.1451065    338.65684  0.022380177  0.022318856            8 
 1262000    0.7531376   -7.1476311    338.87742  0.022377009  0.022303048           11 
 1263000    0.7476285   -7.1330642    338.91888  0.022362027  0.022287209           22 
 1264000   0.76417539   -7.1510229    339.86153  0.022406482  0.022271429            8 
 1265000   0.74616705   -7.1347007    338.54421   0.02230199  0.022255631           21 
 1266000    0.7424585   -7.1533854     338.9301  0.022309775  0.022239821            9 
 1267000   0.76358581   -7.1503833    338.47501  0.022262234  0.022224025           13 
 1268000   0.73932919   -7.1255809    339.28723  0.022298057   0.02220826           10 
 1269000   0.76279572   -7.1393144    339.51732  0.022295595  0.022192501           10 
 1270000   0.76005811   -7.1358382    339.05895  0.022247963  0.022176715           16 
 1271000   0.73432381   -7.1369853    339.16697   0.02223754  0.022160915            7 
 1272000   0.75349774    -7.143152    339.32201  0.022230215  0.022145182            8 
 1273000   0.74322253   -7.1614257    339.64757  0.022234064  0.022129486           11 
 1274000   0.77030592   -7.1425604    340.27458  0.022257625  0.022113793            6 
 1275000   0.73141679    -7.157825     340.4635  0.022252517  0.022098176           13 
 1276000   0.74626364   -7.1446427    340.58163  0.022242792  0.022082533            5 
 1277000   0.73498816   -7.1442856    339.93778  0.022183358  0.022066997            4 
 1278000   0.75028744   -7.1477103    339.46811  0.022135375  0.022051392           15 
 1279000   0.74312414    -7.142714    339.95699  0.022149921  0.022035777           15 
 1280000   0.73016435   -7.1572617    339.58779   0.02210858  0.022020107           12 
 1281000   0.74569048   -7.1480651    340.21684  0.022132243  0.022004414           17 
 1282000   0.72375819    -7.165129    340.58763  0.022139081  0.021988671            6 
 1283000   0.73472057   -7.1328411    339.66667  0.022062008  0.021973013           11 
 1284000   0.73545166   -7.1414115    339.74617  0.022049985  0.021957253            9 
 1285000   0.73211168   -7.1465141    339.52212  0.022018296  0.021941573           10 
 1286000   0.73223711   -7.1705019    339.71926  0.022013949  0.021925869           12 
 1287000   0.72624392   -7.1617077    340.25534  0.022031555  0.021910145            5 
 1288000    0.7349151   -7.1491881    339.62556  0.021973704  0.021894457           17 
 1289000   0.75834954   -7.1951584    339.49826  0.021948426  0.021878626           11 
 1290000    0.7361825   -7.1407098    339.01033  0.021899892  0.021862796           11 
 1291000   0.74608441   -7.1806933    338.88094  0.021874576  0.021846912            9 
 1292000   0.73728464   -7.1696688    338.90984   0.02185951  0.021831071           11 
 1293000   0.75147067   -7.1866342    339.71845  0.021894719   0.02181527            8 
 1294000   0.73782086   -7.1717902    338.71468  0.021813156  0.021799443           13 
 1295000    0.7370601   -7.1582437     339.0618  0.021818649  0.021783595           20 
 1296000   0.74206698   -7.1772976    339.55909  0.021833789  0.021767798           12 
 1297000   0.75528908   -7.1634361    339.53138  0.021815175  0.021752008            8 
 1298000   0.73529946   -7.2031521     339.3758  0.021788379  0.021736252           14 
 1299000    0.7307145   -7.1897003    339.74514    0.0217953  0.021720411            8 
 1300000   0.73976623   -7.1810731    340.37804  0.021819105  0.021704706            7 
 1301000   0.73076754   -7.1563532    339.94454  0.021774567  0.021689077            8 
 1302000   0.73688925   -7.1645092    340.51439  0.021794316  0.021673537            6 
 1303000   0.73302177   -7.1756695    340.11067   0.02175177   0.02165803            9 
 1304000   0.73179713   -7.1381907    340.87024   0.02178363  0.021642477           10 
 1305000   0.72735249   -7.1692655    340.62199  0.021751085    0.0216269            6 
 1306000   0.75175079   -7.1933853    340.48204    0.0217255  0.021611354           13 
 1307000   0.74492022   -7.1781917    341.52087  0.021775113  0.021595805            7 
 1308000   0.72665771   -7.1366161    341.27496  0.021742798  0.021580231            5 
 1309000    0.7184126   -7.1822386    340.61759  0.021684339  0.021564656            8 
 1310000   0.72298919   -7.1569169    341.07347  0.021696785  0.021549045           15 
 1311000   0.72778491   -7.1771628    340.45446  0.021640889  0.021533488           16 
 1312000   0.71432792   -7.1827796    340.33398  0.021616741  0.021517878           11 
 1313000   0.71553927   -7.1508577     340.6953   0.02162321  0.021502266            9 
 1314000   0.72807341   -7.1761044    341.15216  0.021635728  0.021486662           22 
 1315000   0.72737951   -7.2056235    340.79687   0.02159676  0.021471088           16 
 1316000   0.73011532   -7.1893818    341.43509  0.021620763  0.021455605           22 
 1317000   0.74778616   -7.1795085    341.39716  0.021601947  0.021440168           15 
 1318000   0.75025221   -7.1963184     341.6085  0.021598919  0.021424706           18 
 1319000    0.7349781   -7.1676264    341.61442  0.021582918  0.021409316            7 
 1320000   0.74198965   -7.1518024    341.64046  0.021568211  0.021393978            9 
 1321000   0.71815315   -7.2001622    341.07771  0.021516384  0.021378629            9 
 1322000   0.72969538   -7.1978555    342.06776  0.021562516   0.02136321           19 
 1323000   0.71933942   -7.1758101    341.38577  0.021503261  0.021347843            9 
 1324000   0.71974397   -7.1947235    341.28033  0.021480383  0.021332434           14 
 1325000   0.71962096   -7.1972423    340.97724   0.02144511   0.02131703           15 
 1326000   0.72673747   -7.2065115     341.4086  0.021456046  0.021301696            6 
 1327000   0.73719358    -7.186635    342.07169  0.021481518  0.021286374           17 
 1328000     0.714238    -7.208329    342.18312  0.021472334   0.02127109           18 
 1329000    0.7256696   -7.1931019    341.99685  0.021444498  0.021255783           16 
 1330000   0.71931275   -7.1825988    342.18763  0.021440328  0.021240468           28 
 1331000   0.72543413   -7.2060903    342.00283  0.021412649   0.02122514           15 
 1332000   0.72358415    -7.207227    341.95495  0.021393578   0.02120982            9 
 1333000   0.70423029   -7.1989784    340.96651  0.021315736  0.021194481           13 
 1334000   0.71792912   -7.2206555    341.49999  0.021333083  0.021179097           44 
 1335000   0.72013303   -7.2161256    341.40832  0.021311381  0.021163679           33 
 1336000   0.73710483   -7.2084766    341.87401  0.021324477  0.021148313           22 
 1337000   0.71046564   -7.2222318    341.99522  0.021316082  0.021132985           17 
 1338000   0.72120638   -7.2100132    341.63814  0.021277911  0.021117677           25 
 1339000   0.70904962    -7.224629    341.77809   0.02127073  0.021102317           20 
 1340000   0.70079189   -7.2087747    342.08499  0.021273942  0.021086973           31 
 1341000   0.71945405   -7.1967765    342.11854  0.021260163  0.021071699           18 
 1342000    0.7204313   -7.2108913    341.93001  0.021232613  0.021056424           29 
 1343000   0.70995352   -7.2176898    342.31867   0.02124092  0.021041084           17 
 1344000   0.70841286   -7.2190087    341.73533  0.021188947  0.021025695           16 
 1345000   0.74530539   -7.2008622     341.4064  0.021152813  0.021010366           20 
 1346000   0.71662829   -7.1929401    341.95976  0.021171357  0.020995076           11 
 1347000    0.7234323   -7.2138346     342.3843  0.021181904  0.020979808           10 
 1348000   0.71264275   -7.2099279     342.4579  0.021170741  0.020964551           10 
 1349000   0.71715684   -7.2204696    342.64347   0.02116651  0.020949308           19 
 1350000   0.70823962   -7.2412766    342.19382  0.021123075  0.020934026           10 
 1351000   0.70306694   -7.2270691    342.54354  0.021129012  0.020918728           24 
 1352000   0.72242103   -7.2207728    342.10762  0.021086515  0.020903455            7 
 1353000   0.72964594   -7.2052616    342.60415  0.021101512   0.02088821            7 
 1354000   0.70551126   -7.2313913    342.31218  0.021067958  0.020873018            8 
 1355000   0.69936944   -7.1962272    343.36197  0.021116973  0.020857882           12 
 1356000   0.71141398   -7.2398923    341.91755  0.021012632  0.020842697           16 
 1357000   0.71548645   -7.2009673    342.75596  0.021048634  0.020827567           16 
 1358000   0.71657359   -7.2110894    343.27006  0.021064682  0.020812542           12 
 1359000   0.69508241    -7.218212    342.68477  0.021013292  0.020797482           16 
 1360000   0.71395246   -7.2305507    342.78534  0.021004004  0.020782364           14 
 1361000    0.7080872   -7.2133484    343.35551  0.021023482  0.020767256           26 
 1362000    0.7116335   -7.2193283    342.92761  0.020981865  0.020752152           11 
 1363000   0.71227713   -7.2116483    342.71817  0.020953667  0.020737085           21 
 1364000   0.72315651   -7.2256566    343.25191  0.020970913  0.020722039           11 
 1365000    0.7020429   -7.2420467    342.68569  0.020920983  0.020706952           13 
 1366000    0.7096755   -7.2179454    343.28026  0.020941939  0.020691979           15 
 1367000   0.71528493    -7.224332    343.30618  0.020928199  0.020677037            9 
 1368000   0.69645776    -7.220367     343.5796  0.020929556  0.020662096           13 
 1369000    0.7088891   -7.2022876    343.30431  0.020897511  0.020647138           13 
 1370000   0.70266865    -7.225255    343.53525  0.020896305   0.02063224           13 
 1371000   0.69746103   -7.2195317    343.66777  0.020889118  0.020617359           15 
 1372000   0.69104196    -7.221269    343.78071  0.020880752   0.02060247           16 
 1373000    0.6990646   -7.2467705    344.19934  0.020890953  0.020587586           13 
 1374000   0.70539203   -7.2264068    343.44368  0.020829918  0.020572696           10 
 1375000   0.71894827   -7.2348584    343.25515  0.020803343  0.020557831           19 
 1376000   0.70616492   -7.2493595    343.19126  0.020784354  0.020542901           28 
 1377000   0.71905874   -7.2521316    343.05649  0.020761105  0.020527984           21 
 1378000    0.6894122   -7.2380512    343.88025  0.020795854  0.020513116           23 
 1379000   0.70909124   -7.2456836     344.5047   0.02081851  0.020498268           17 
 1380000   0.69327522   -7.2404787    344.22221  0.020786365  0.020483452           13 
 1381000   0.69140131   -7.2192892    343.98946  0.020757269  0.020468669           14 
 1382000   0.69901024   -7.2494693    344.33025  0.020762798  0.020453915           39 
 1383000   0.70465681   -7.2373917    344.41333  0.020752792  0.020439178           16 
 1384000   0.68327682   -7.2357942    344.32187   0.02073229  0.020424382           25 
 1385000   0.71228892   -7.2365439    344.65495  0.020737361  0.020409586           18 
 1386000    0.6972427   -7.2138217    344.38581  0.020706217   0.02039482           17 
 1387000   0.70574818   -7.2349147    344.22484  0.020681617  0.020380022           18 
 1388000   0.69985589   -7.2338056    343.78805  0.020640493  0.020365274           11 
 1389000   0.71808858   -7.2065604    343.96918    0.0206365    0.0203505           17 
 1390000   0.69351837   -7.2459197    344.03925  0.020625854  0.020335682            9 
 1391000   0.70873648   -7.2339848    344.43566  0.020634775   0.02032091           26 
 1392000   0.69182982   -7.2452408    344.47537  0.020622328  0.020306105           19 
 1393000   0.69500545   -7.2559002    343.23254  0.020533174  0.020291186           25 
 1394000   0.69397539   -7.2650995     343.4066   0.02052885  0.020276274           16 
 1395000   0.70766213   -7.2751079    342.99143  0.020489333  0.020261326           11 
 1396000   0.70388833   -7.2453213    343.74989  0.020519931  0.020246375            7 
 1397000   0.69540717   -7.2586234    343.07245  0.020464832  0.020231406           15 
 1398000   0.69388196   -7.2820495    343.71092  0.020488253  0.020216462           19 
 1399000   0.68883657   -7.2587432     343.4444  0.020457732  0.020201539           22 
 1400000   0.69899964   -7.2622793    343.94628  0.020472993  0.020186622           19 
 1401000    0.6897011   -7.2520939    343.39131  0.020425369  0.020171693           23 
 1402000   0.69960635   -7.2961838    344.19531   0.02045859  0.020156734           22 
 1403000   0.69044377   -7.2560801    343.84339  0.020423105  0.020141825           13 
 1404000    0.6759175     -7.25479    343.24027   0.02037276  0.020126924           26 
 1405000   0.69249015   -7.2696531    343.40604  0.020368092  0.020111982           48 
 1406000   0.69726108   -7.2490959    343.62774  0.020366746  0.020096979           14 
 1407000   0.68941819   -7.2552372    344.25403  0.020389365  0.020082033           18 
 1408000   0.71478141   -7.2593494    343.75535  0.020345368  0.020067088           15 
 1409000   0.69264676   -7.2583875    343.35809  0.020307434  0.020052125           12 
 1410000   0.69806476   -7.2583289    343.23533  0.020285776  0.020037129           11 
 1411000   0.67030763   -7.2673985    343.24933  0.020272226  0.020022166           33 
 1412000   0.67641672   -7.2678799     344.0564  0.020305501  0.020007211           34 
 1413000    0.6826981   -7.2753418    343.48833  0.020257627  0.019992294           23 
 1414000    0.6950121    -7.286562    343.62715  0.020251482  0.019977356           28 
 1415000   0.67736079    -7.283259    343.21302  0.020212781  0.019962439           36 
 1416000   0.69771694   -7.2741437    343.94156  0.020241382  0.019947595           10 
 1417000    0.6861592   -7.2783056    343.37654  0.020193869   0.01993277           11 
 1418000   0.68768291   -7.2459263    344.47687  0.020244292  0.019917919            8 
 1419000    0.6860604   -7.2893096    344.61395  0.020238075  0.019903052           15 
 1420000   0.68958331   -7.2691966    343.55499  0.020161678  0.019888149           11 
 1421000   0.68721339   -7.2747469    343.85748  0.020165229  0.019873238           12 
 1422000   0.68786317   -7.2644767     343.4359  0.020126342  0.019858373           10 
 1423000   0.68068982   -7.2819006    344.13555  0.020153171  0.019843571           10 
 1424000   0.67269957   -7.2927766    343.70977  0.020114102  0.019828773           20 
 1425000    0.6772518   -7.2897732    343.72347  0.020100788  0.019813967           14 
 1426000   0.67251416   -7.3043087    343.48634  0.020072834  0.019799202           14 
 1427000   0.67793656   -7.2762029    344.03902  0.020091043  0.019784487            8 
 1428000   0.67973777   -7.2678259    343.86058   0.02006656  0.019769788           13 
 1429000   0.68093617   -7.2756321    343.89519  0.020054536  0.019755145           11 
 1430000   0.68206924   -7.2650358    344.59433  0.020081255  0.019740476           17 
 1431000   0.67187972   -7.2833913    343.69165  0.020014654  0.019725837           17 
 1432000   0.68883193   -7.2753142    344.54964  0.020050608  0.019711211           21 
 1433000   0.68200983   -7.2992517    344.41699  0.020028902  0.019696599           11 
 1434000   0.67098038   -7.2749064     344.9285  0.020044659  0.019681954           14 
 1435000   0.67890088   -7.2931954    344.33708  0.019996346  0.019667365           26 
 1436000   0.68638961   -7.2937194    344.67623  0.020002102  0.019652759           14 
 1437000    0.6831399   -7.3337086    344.22135  0.019961804    0.0196382           18 
 1438000   0.69252109   -7.3055508     344.3458  0.019955134   0.01962357           17 
 1439000   0.70319901   -7.2976194    344.76708  0.019965663   0.01960898           17 
 1440000   0.68073682   -7.2907768    344.65711  0.019945435  0.019594421           14 
 1441000    0.6842341   -7.2857369    344.60852  0.019928783  0.019579839           18 
 1442000   0.67130954   -7.2888338    344.36786  0.019901055  0.019565278           35 
 1443000   0.65076031   -7.3311565    344.58356   0.01989972  0.019550732           34 
 1444000   0.67022715   -7.3069471    344.85073  0.019901358  0.019536213           27 
 1445000   0.67687695   -7.3037388    344.50175  0.019867459  0.019521696           24 
 1446000   0.66745505    -7.291395    345.75385  0.019925879  0.019507189           29 
 1447000   0.68792672   -7.3130344    344.47271  0.019838327  0.019492711           61 
 1448000   0.67251826   -7.3050278    345.43494  0.019880003  0.019478249           31 
 1449000   0.67657779   -7.2831764    345.00399  0.019841499  0.019463787           21 
 1450000   0.67325676   -7.3075132    344.31519  0.019788229  0.019449303           24 
 1451000   0.65623692   -7.2872165    345.12771  0.019821256    0.0194348           28 
 1452000   0.67703116   -7.2868326     345.3364  0.019819582   0.01942033           20 
 1453000   0.68164137   -7.2840335    345.35004  0.019806724  0.019405921           36 
 1454000   0.67365031   -7.2809327    344.95051  0.019770203  0.019391499           18 
 1455000    0.6797055   -7.3088125    344.04002  0.019704469  0.019377065           18 
 1456000   0.67150669   -7.3044999    344.04149  0.019691019  0.019362601           20 
 1457000   0.66105223   -7.3314698    344.40693  0.019698406   0.01934813           23 
 1458000   0.65999232   -7.3003622    344.28527  0.019677942  0.019333673            7 
 1459000   0.68022767   -7.3247664    344.19674  0.019659398  0.019319196           16 
 1460000   0.67073315   -7.3065512    344.32724  0.019653381  0.019304687           15 
 1461000   0.65279543    -7.302576    345.13833  0.019686193  0.019290239            8 
 1462000   0.66963649   -7.3082499    345.01587  0.019665747   0.01927583           33 
 1463000   0.65311547   -7.3030613    345.32626  0.019669985  0.019261424           23 
 1464000   0.66786325   -7.3178263    344.79226  0.019626153  0.019247073           29 
 1465000   0.67428369    -7.325089    344.80228  0.019613327  0.019232703           26 
 1466000   0.67356637   -7.3345777    344.67363  0.019592635  0.019218338           18 
 1467000   0.68467948   -7.3082522     344.5383  0.019571591  0.019203969           11 
 1468000   0.67296676   -7.3101132     344.7055  0.019567751  0.019189599           12 
 1469000   0.66813911   -7.3353776    344.87985  0.019564321  0.019175266           11 
 1470000   0.66150218   -7.3116795    344.85199  0.019549432  0.019160933           17 
 1471000   0.67680391   -7.3077726     345.3869  0.019566446  0.019146566           15 
 1472000   0.67583344   -7.3118717    345.11441  0.019537727  0.019132235           16 
 1473000    0.6639971   -7.3280175    344.60163  0.019495453  0.019117904           11 
 1474000   0.65964286   -7.3255949    344.75031  0.019490633  0.019103584           15 
 1475000   0.65819368   -7.3366326    344.91768  0.019486874  0.019089306           21 
 1476000   0.66462964   -7.3218933    345.52126  0.019507749  0.019075058           12 
 1477000   0.65470337   -7.3030518    345.29026  0.019481509  0.019060823           17 
 1478000   0.68073831   -7.3305748    344.97103  0.019450329  0.019046624           28 
 1479000   0.66244965   -7.3208756    345.29984  0.019455704  0.019032432           15 
 1480000   0.65781239   -7.3233924    345.23988  0.019439182  0.019018196            9 
 1481000   0.67906334   -7.3188755    344.75045  0.019398517  0.019003991           13 
 1482000   0.66342171   -7.3329324    345.87516  0.019448671   0.01898979           12 
 1483000   0.65712038   -7.3077419    345.28063  0.019402148  0.018975628           26 
 1484000   0.64978873   -7.3377812     345.4268  0.019397282  0.018961451            7 
 1485000   0.63648281   -7.3279346    345.70516  0.019399841    0.0189473           21 
 1486000   0.67431607   -7.3318772     345.8437  0.019394555   0.01893317            9 
 1487000   0.66451888   -7.3152785    346.32101  0.019408261  0.018919081           19 
 1488000   0.66584494   -7.3333671     346.2829  0.019393084  0.018904981           13 
 1489000   0.67542188   -7.3484919     345.8463  0.019355624  0.018890869           13 
 1490000   0.65311793   -7.3324634    345.24876  0.019309215  0.018876752           27 
 1491000   0.66049447   -7.3313872    345.66593   0.01931958  0.018862644           20 
 1492000   0.67259576   -7.3579373     345.8098  0.019314667  0.018848548           17 
 1493000   0.64919717   -7.3538019    345.59405  0.019289688  0.018834462           18 
 1494000   0.67686254   -7.3121241    345.55922  0.019274834  0.018820399           16 
 1495000   0.67016872   -7.3227495    345.26503  0.019245542  0.018806313           22 
 1496000   0.66413191   -7.3426006    345.16103  0.019226885  0.018792207           21 
 1497000     0.645062   -7.3554044    345.67292  0.019242536  0.018778126           11 
 1498000   0.65969422   -7.3427098    345.91446  0.019243127  0.018764047           10 
 1499000   0.65205815   -7.3386028    345.86767  0.019227689  0.018749989           23 
 1500000   0.65613608   -7.3258159     345.7149  0.019206383   0.01873597           17 
 1501000   0.66721417    -7.355762    345.62697  0.019188706  0.018721917           16 
 1502000   0.64810568    -7.337889    345.65099  0.019177263  0.018707872           19 
 1503000   0.65244721   -7.3323093    345.40377  0.019150797  0.018693809           29 
 1504000   0.65387406   -7.3345122    345.72968  0.019156122  0.018679792           10 
 1505000   0.65512603   -7.3505005    345.85692  0.019150438  0.018665813           29 
 1506000   0.64773446   -7.3525485    344.67716  0.019072441  0.018651821           40 
 1507000   0.63701459   -7.3552594    345.02691  0.019079126  0.018637808           34 
 1508000   0.67639485    -7.345469    345.81151  0.019109831  0.018623797           28 
 1509000   0.66096655   -7.3616261    345.77623  0.019095219  0.018609822           29 
 1510000   0.65991965   -7.3423174    345.57011  0.019071198  0.018595809           25 
 1511000   0.64379798   -7.3605025    345.66185  0.019063636  0.018581802           63 
 1512000   0.65313267   -7.3602471    345.26705  0.019029268  0.018567805           45 
 1513000   0.64845065   -7.3504058     345.1227  0.019008741  0.018553795           76 
 1514000   0.64686521   -7.3637888    344.81723  0.018979372  0.018539815           72 
 1515000   0.65275861   -7.3556619    345.14447  0.018984844  0.018525809           71 
 1516000   0.64355736   -7.3535731    345.06697  0.018968061  0.018511852           51 
 1517000   0.64615339   -7.3594321     345.5996  0.018984817  0.018497885           59 
 1518000   0.65146197   -7.3485091    345.49956  0.018966818  0.018483978           65 
 1519000   0.64514818   -7.3401481    345.30475  0.018943645  0.018470069           43 
 1520000   0.64479687   -7.3644095    345.32047  0.018932043  0.018456162           39 
 1521000   0.64477435   -7.3553876    345.94054  0.018953569   0.01844227           22 
 1522000   0.64497069   -7.3705662    345.79691  0.018933252  0.018428399           25 
 1523000   0.63849215    -7.340099    345.87299  0.018924983  0.018414541           19 
 1524000   0.64088784    -7.363585    345.53964  0.018894337  0.018400697           29 
 1525000   0.64494947   -7.3413116     345.4651  0.018877874  0.018386815           30 
 1526000   0.64772252   -7.3773071    345.74776  0.018880939  0.018372883           18 
 1527000   0.66460721   -7.3652855    345.44367  0.018851979  0.018358984           23 
 1528000   0.63463027   -7.3760959    344.59347  0.018793274  0.018345114           34 
 1529000   0.63488495   -7.3489166    345.53051  0.018832053  0.018331235           26 
 1530000   0.63664183   -7.3841404    344.93092  0.018787087  0.018317358           23 
 1531000    0.6434013   -7.3746498    345.90543  0.018827859  0.018303528           19 
 1532000   0.62794327   -7.3615636    345.79392  0.018809504  0.018289718           32 
 1533000    0.6407574   -7.3795841    344.59247  0.018731924  0.018275858           17 
 1534000   0.63902991    -7.363244    345.39641  0.018763386  0.018262047           12 
 1535000   0.64757573   -7.3671896    345.43403  0.018753205  0.018248286           14 
 1536000   0.63797747   -7.3620907    345.23017  0.018729936  0.018234513           17 
 1537000   0.66046932   -7.3696706    345.85279  0.018751507   0.01822074           17 
 1538000   0.65426612   -7.3746907    345.41339  0.018715507  0.018206989           14 
 1539000   0.64729872   -7.3783786    345.53602  0.018709986  0.018193181           26 
 1540000   0.64847825   -7.3887982    345.32233  0.018686273  0.018179372           18 
 1541000   0.63233488   -7.3714876    345.17107  0.018665967  0.018165577           19 
 1542000      0.64228   -7.3755191    345.16945  0.018653775  0.018151799           25 
 1543000   0.65253765   -7.3894289    345.47563  0.018658221  0.018138016           23 
 1544000   0.63698966   -7.3792436    345.32412   0.01863796  0.018124232           19 
 1545000    0.6395923   -7.3792029    345.05075  0.018611152  0.018110453           26 
 1546000   0.64031913   -7.3860389    345.78004  0.018638424  0.018096656           22 
 1547000   0.64612023   -7.3828947    345.51099  0.018611883  0.018082847           27 
 1548000   0.63339275   -7.3938618    345.29739  0.018588361  0.018069092           14 
 1549000   0.62152202    -7.376476    344.98009   0.01855929  0.018055323           16 
 1550000   0.63393212   -7.3776974     345.8273  0.018592866   0.01804156           20 
 1551000   0.64507176   -7.3990209    345.07678  0.018540553   0.01802781           32 
 1552000   0.63435791   -7.3700163    345.54973  0.018554002  0.018014054           32 
 1553000   0.64226792   -7.3791731    344.77068  0.018500251  0.018000303           35 
 1554000   0.63126367   -7.3952802    345.38488  0.018521283  0.017986569           39 
 1555000   0.63629024   -7.3774826    345.80234  0.018531744  0.017972899           58 
 1556000   0.62695086   -7.4018262    344.97911  0.018475745  0.017959205           29 
 1557000   0.64922389    -7.384181    345.24937  0.018478343  0.017945507           20 
 1558000   0.64539082   -7.3786509    345.37333  0.018473113  0.017931816           11 
 1559000   0.64054295   -7.4002084    345.49793  0.018467925  0.017918125           16 
 1560000   0.63059796   -7.3739208    345.03156  0.018431173  0.017904454           23 
 1561000   0.63997935   -7.4185494    345.09891  0.018422961  0.017890795           12 
 1562000   0.62694834   -7.3903617    345.69382  0.018442906   0.01787714           13 
 1563000   0.62485469   -7.3841143    345.25975  0.018407963    0.0178635           25 
 1564000   0.63486654   -7.3962116    345.46869  0.018407326  0.017849873           23 
 1565000    0.6434714   -7.4084526    345.00472  0.018370858  0.017836224           22 
 1566000   0.62536895   -7.3911608    345.42993  0.018381754  0.017822593           35 
 1567000   0.64246511   -7.4139751    345.79863  0.018389631  0.017808968           28 
 1568000   0.62533574   -7.4028785    344.81178  0.018325456  0.017795304           54 
 1569000    0.6304877     -7.43082    345.06866   0.01832742  0.017781638           14 
 1570000   0.63186794   -7.4217037    344.35635  0.018277938  0.017768006           23 
 1571000    0.6363009   -7.4079223    344.99351  0.018300102  0.017754367           19 
 1572000     0.625634    -7.398295    345.34669  0.018307183  0.017740767           38 
 1573000   0.62654846   -7.4069292    345.24181  0.018289988   0.01772715           42 
 1574000   0.62049802   -7.3809822    345.88832  0.018312596  0.017713578           87 
 1575000   0.62684671   -7.4136511    344.96241  0.018251979  0.017700006           51 
 1576000   0.62484218   -7.4306082    345.08274  0.018246761  0.017686443           92 
 1577000   0.63689254   -7.3968541    344.53632  0.018206316  0.017672877           40 
 1578000   0.62381139   -7.4075289     345.2455  0.018232229  0.017659351           94 
 1579000   0.62596829   -7.4181999    345.79192  0.018249521  0.017645809           39 
 1580000   0.63038545   -7.4126181    345.13513  0.018203329  0.017632269          110 
 1581000   0.62523351   -7.4107501    345.00725  0.018185076  0.017618751           31 
 1582000   0.63064405   -7.3951222    345.22741  0.018185178  0.017605221           67 
 1583000   0.62325584    -7.421588     345.2761  0.018176253  0.017591669           53 
 1584000   0.61122801   -7.4303064    344.95313  0.018147787  0.017578111           83 
 1585000   0.61939318   -7.4124834     345.5436  0.018167382  0.017564553           41 
 1586000    0.6191885   -7.4250615    344.71211  0.018112238  0.017550975           39 
 1587000   0.63448948   -7.4020899     345.0247  0.018117239  0.017537427          102 
 1588000   0.60059037   -7.4212334    344.30042  0.018067822  0.017523873           78 
 1589000   0.62292262   -7.4336075     344.5797  0.018071098  0.017510321           49 
 1590000   0.61249278   -7.4252005     344.8546   0.01807414  0.017496783           50 
 1591000   0.61037846   -7.4196727    344.84447   0.01806225  0.017483276           76 
 1592000   0.61707538   -7.4353209    344.56302  0.018036171  0.017469784           41 
 1593000   0.61723755   -7.4500587    344.39062  0.018015831  0.017456286          148 
 1594000   0.61927773   -7.4356518    345.45686  0.018060271  0.017442813          134 
 1595000   0.61189817   -7.4374339    344.44727    0.0179962  0.017429347          129 
 1596000   0.62160891   -7.4291658    344.29223  0.017976829  0.017415902           91 
 1597000    0.6191621   -7.4455319    344.59413  0.017981326  0.017402424           73 
 1598000   0.61834611   -7.4540432    345.42512  0.018013409  0.017389006           84 
 1599000   0.62359718   -7.4415017    344.87943  0.017973704  0.017375595          129 
 1600000   0.61093025   -7.4422084    345.29406  0.017984066  0.017362218          147 
 1601000   0.60455666    -7.433618    344.98011  0.017956491  0.017348811          130 
 1602000   0.60943155   -7.4418398    345.11114  0.017952098  0.017335446           90 
 1603000   0.60779058   -7.4306437     345.2016  0.017945602  0.017322129           32 
 1604000   0.60106079     -7.43054    345.57011  0.017953559   0.01730882          169 
 1605000   0.62014264   -7.4504922    345.31296  0.017929022  0.017295513          143 
 1606000   0.61439691   -7.4383257    345.25665  0.017914936  0.017282213          193 
 1607000   0.61189806   -7.4268544    345.41289   0.01791189   0.01726893          110 
 1608000   0.61691659   -7.4359268    344.45207  0.017850957  0.017255637          134 
 1609000   0.60127568   -7.4695065    344.51896  0.017843327  0.017242374           78 
 1610000   0.62711411   -7.4259162      344.669   0.01784001  0.017229094          142 
 1611000   0.61868511   -7.4504233    345.06471  0.017849406  0.017215822          127 
 1612000   0.60695904    -7.476377    345.53861  0.017862832  0.017202554           51 
 1613000    0.6195767   -7.4561111    344.98995  0.017823411  0.017189282           58 
 1614000   0.60239107   -7.4321118    345.22744   0.01782463  0.017176042          112 
 1615000   0.61058136   -7.4603617    345.28845  0.017816742  0.017162842          111 
 1616000   0.60782397   -7.4476966    345.47946  0.017815566  0.017149611           97 
 1617000   0.61154059   -7.4429128    345.24363  0.017792395  0.017136436           98 
 1618000    0.5994791   -7.4555173    345.72517    0.0178062  0.017123256          126 
 1619000   0.61444757    -7.463374    344.96042  0.017755838  0.017110088          111 
 1620000   0.60914105   -7.4619569    344.74744  0.017733922  0.017096905          127 
 1621000   0.59219656   -7.4665561    345.49178  0.017761247  0.017083726           85 
 1622000   0.60758994   -7.4732845    344.97682   0.01772384  0.017070561          171 
 1623000   0.60821335   -7.4607617    345.69214  0.017749648  0.017057422          122 
 1624000   0.60931474   -7.4563874    346.04983  0.017757072  0.017044273           55 
 1625000   0.60309492   -7.4497516    345.49866   0.01771788  0.017031139          139 
 1626000   0.60765799    -7.443624    345.38967  0.017701398  0.017018004           53 
 1627000   0.60463317   -7.4703433    345.27268  0.017684526  0.017004904          135 
 1628000    0.5979484   -7.4592291    345.39877  0.017680117  0.016991783          158 
 1629000   0.60353813   -7.4330643    345.17276  0.017657702  0.016978674          145 
 1630000   0.59120915   -7.4558588    344.82979  0.017629335  0.016965575           54 
 1631000   0.62368497   -7.4435777    345.26333  0.017640677  0.016952512           85 
 1632000   0.59999523   -7.4533099    345.24509  0.017628936  0.016939477           99 
 1633000   0.60555363   -7.4689314    345.70626  0.017641675  0.016926421          145 
 1634000   0.60176471   -7.4497362    345.59355   0.01762513  0.016913391          121 
 1635000    0.6058166   -7.4460364    345.93269  0.017631635  0.016900394          154 
 1636000   0.59971048   -7.4587045    345.44881  0.017596211  0.016887418          141 
 1637000    0.6172238   -7.4574698    345.61021  0.017593678  0.016874404          173 
 1638000   0.60454317   -7.4639047    345.72738  0.017588898  0.016861416          164 
 1639000   0.60904558   -7.4732537    345.38004  0.017560507  0.016848426          234 
 1640000   0.59399334   -7.4594491    344.94316    0.0175276  0.016835429          149 
 1641000    0.5999667   -7.4814105    345.09281  0.017524518  0.016822401           85 
 1642000   0.60335716   -7.4701505    344.83651  0.017500838  0.016809406           72 
 1643000    0.5963431   -7.4737881    344.86526  0.017491645  0.016796433           76 
 1644000   0.60126953    -7.479366    344.53074  0.017464048  0.016783479          148 
 1645000   0.59492699   -7.4900397    345.12596  0.017483584  0.016770506           84 
 1646000   0.59659452   -7.4916783    344.70985  0.017451896  0.016757512          182 
 1647000   0.59611934   -7.4727682    344.96856   0.01745439  0.016744541          107 
 1648000   0.60793282    -7.480809    344.70365  0.017430403  0.016731566          154 
 1649000   0.59572679   -7.4637963    345.27391  0.017448651  0.016718603          204 
 1650000   0.59232927   -7.4956224    344.96672  0.017422562  0.016705661          246 
 1651000   0.60145465   -7.4678666    345.25381    0.0174265  0.016692747          191 
 1652000    0.5906999    -7.470499    345.03098  0.017404711  0.016679839          103 
 1653000   0.59208932   -7.4749641    344.97873  0.017391547  0.016666937          227 
 1654000   0.59002676   -7.4800216    344.31026  0.017347353  0.016654012          110 
 1655000   0.59228221   -7.4900038    344.84409  0.017363751   0.01664111          266 
 1656000   0.58445181   -7.4811817    344.32979  0.017327385   0.01662817          243 
 1657000   0.59503189   -7.4880751    344.09624  0.017305182  0.016615245          185 
 1658000   0.59921003   -7.4980325    344.42373  0.017311205  0.016602319          125 
 1659000   0.59374319   -7.4760635    344.14302   0.01728667  0.016589401          115 
 1660000   0.60007805    -7.485841    344.37776   0.01728804  0.016576495          113 
 1661000   0.59195841   -7.5231641    344.50716  0.017284124  0.016563568           82 
 1662000   0.58714615   -7.5135539     344.4488  0.017270798  0.016550653          204 
 1663000   0.58733258   -7.4865469      344.419   0.01725892  0.016537741          171 
 1664000   0.59352398   -7.5057286    344.08219   0.01723168  0.016524831           89 
 1665000   0.59665921   -7.4983501    343.83978  0.017209198  0.016511917          225 
 1666000   0.57723781   -7.5051882    344.32396  0.017223087  0.016499016          109 
 1667000   0.57709406   -7.5079361    344.03444  0.017198282  0.016486122          320 
 1668000   0.57962338   -7.5163189    344.42405  0.017207437  0.016473242          156 
 1669000   0.58635399   -7.5166015    344.14452  0.017183169  0.016460385          279 
 1670000   0.59200946   -7.5316348    344.11761  0.017171537  0.016447536          111 
 1671000   0.58510452   -7.5016696    344.42924  0.017176802  0.016434716          265 
 1672000   0.58594869   -7.5209249    343.76975   0.01713366  0.016421891          237 
 1673000   0.57628996   -7.5052627    344.40412  0.017155017   0.01640909          101 
 1674000   0.58844103   -7.5022624    343.88513  0.017118933  0.016396291          225 
 1675000     0.578306   -7.4972882    344.31341   0.01713002  0.016383497          144 
 1676000   0.57850681   -7.5251677    343.96797  0.017102624  0.016370716           97 
 1677000   0.57734553   -7.5155672    344.01639  0.017094832  0.016357914           98 
 1678000   0.57983623   -7.5229968    343.72028  0.017069938  0.016345128          125 
 1679000   0.58552563   -7.5312263    343.73809  0.017060656  0.016332353          213 
 1680000   0.58103942   -7.5049238    343.85586  0.017056342  0.016319581          285 
 1681000   0.57959901   -7.5017982    344.19354  0.017062936   0.01630684          134 
 1682000   0.58313495   -7.4996612    344.24611  0.017055396  0.016294104          195 
 1683000   0.57241892   -7.5080471    344.20807  0.017043378  0.016281371          126 
 1684000   0.58658917   -7.5422731    344.23458  0.017034569  0.016268662          220 
 1685000   0.58072757    -7.522097    343.78692  0.017002321  0.016255949          199 
 1686000   0.58044999   -7.5137875    344.12866  0.017009127  0.016243253          286 
 1687000    0.5917455   -7.5104776    343.67544  0.016976657   0.01623053          184 
 1688000   0.56409846   -7.5298262    343.72418  0.016969006  0.016217823          310 
 1689000   0.57783026   -7.5026595    343.57578  0.016951637  0.016205119          152 
 1690000   0.58004077   -7.4983065    343.55867  0.016940763  0.016192453          238 
 1691000   0.58285303   -7.4980185    344.05903  0.016955403  0.016179776          499 
 1692000   0.57233225    -7.524398    343.50598  0.016918143  0.016167126          279 
 1693000   0.57668222   -7.5073401    343.84458  0.016924817  0.016154477          235 
 1694000    0.5803812   -7.5452281    344.17687  0.016931172  0.016141835          280 
 1695000   0.57643228   -7.5356212    343.71575  0.016898513  0.016129204          210 
 1696000   0.57302062   -7.5315551    343.61708  0.016883701  0.016116591          449 
 1697000   0.57104531    -7.536601    343.63353   0.01687456  0.016103968          461 
 1698000   0.56823167   -7.5215692    343.47883  0.016857029  0.016091337          563 
 1699000   0.57562463   -7.5180069     343.5883  0.016852477   0.01607873          373 
 1700000   0.56645152   -7.5150669    343.77132  0.016851535  0.016066129          443 
 1701000   0.57004729   -7.5447454    343.76484  0.016841311  0.016053564          390 
 1702000    0.5711708   -7.5338976     343.2333  0.016805391  0.016040971          224 
 1703000   0.56853011   -7.5064553    343.53246  0.016810161  0.016028403          514 
 1704000   0.57278473   -7.5081678    343.46899  0.016797193  0.016015863          182 
 1705000   0.57395685   -7.5257214    343.38026  0.016783004  0.016003347          382 
 1706000   0.56613242   -7.5209734    343.74626  0.016791044  0.015990827          291 
 1707000   0.57112434   -7.5152363    344.12156  0.016799529  0.015978299          129 
 1708000    0.5645174   -7.5263943    343.31565  0.016750373  0.015965785          108 
 1709000   0.57012764   -7.5347279    343.45466   0.01674735  0.015953269          206 
 1710000   0.57131114   -7.5317185    343.35625  0.016732761  0.015940754          380 
 1711000   0.56087951   -7.5476652    343.28534  0.016719527  0.015928235          384 
 1712000   0.57376674   -7.5493686    343.29451  0.016710208  0.015915732          267 
 1713000   0.58941634    -7.538316    343.53858  0.016712326  0.015903231          440 
 1714000   0.58116727   -7.5451521     343.4119  0.016696417  0.015890726          346 
 1715000   0.57564547    -7.548087    343.12695  0.016672835  0.015878221          542 
 1716000   0.56257206   -7.5580588    343.17908  0.016665651  0.015865724          376 
 1717000   0.56329502   -7.5366879    343.55378   0.01667413  0.015853249          575 
 1718000   0.57452859   -7.5408343     343.4897  0.016661317  0.015840791          424 
 1719000   0.56784139   -7.5599265    343.07355   0.01663145  0.015828326          552 
 1720000   0.56260254   -7.5459958    343.62895  0.016648689  0.015815877          209 
 1721000   0.55779281    -7.562773    343.41277  0.016628548  0.015803438          318 
 1722000   0.55680636    -7.562402    343.55221   0.01662564  0.015791013          429 
 1723000   0.55834212   -7.5482442    343.43207  0.016610179  0.015778589          414 
 1724000   0.56999709   -7.5534506    343.67569  0.016612321  0.015766163          357 
 1725000   0.56438225   -7.5280519    343.75503  0.016606523  0.015753777          240 
 1726000   0.55357303   -7.5551765    343.66936  0.016592765    0.0157414          216 
 1727000   0.56596055   -7.5409332    343.39008  0.016569681  0.015729033          292 
 1728000   0.56536858   -7.5501823    343.43119  0.016562075  0.015716674          230 
 1729000   0.55847119    -7.553862    343.50695  0.016556147  0.015704333          385 
 1730000   0.56285392    -7.534567    343.00994  0.016522637  0.015691993          287 
 1731000    0.5536246   -7.5569256    343.57795  0.016540437  0.015679666          334 
 1732000   0.56072026   -7.5404217    343.83486  0.016543248  0.015667346          262 
 1733000   0.54512657   -7.5328591    343.38287  0.016511967  0.015655042          386 
 1734000   0.56178032   -7.5594834     342.9016  0.016479316  0.015642749          281 
 1735000   0.56357163   -7.5566405    343.17957  0.016483168  0.015630449          415 
 1736000   0.55600756   -7.5628231    343.08474  0.016469122  0.015618142          513 
 1737000   0.55207769   -7.5475485    344.24123  0.016515123  0.015605852          476 
 1738000   0.56556638   -7.5402321    342.98669  0.016445468  0.015593577          437 
 1739000   0.55728789   -7.5668336    343.08185  0.016440572  0.015581299          256 
 1740000   0.54981477   -7.5782907    342.36461  0.016396773   0.01556903          471 
 1741000   0.55905573   -7.5607027    343.33462  0.016433784  0.015556757          450 
 1742000   0.55584582    -7.563555    342.85524  0.016401418  0.015544471          527 
 1743000   0.55811996   -7.5727515    343.26538  0.016411617  0.015532212          467 
 1744000   0.55603327   -7.5740448    343.34911  0.016406207  0.015519967          407 
 1745000   0.55514723    -7.583515    342.91138  0.016375902  0.015507726          432 
 1746000   0.55786882   -7.5514539    342.21266  0.016333174  0.015495505          525 
 1747000   0.55830125   -7.5762562    342.89988  0.016356606  0.015483292          448 
 1748000   0.56505148   -7.5656695    342.89845   0.01634718  0.015471102          485 
 1749000   0.54477851   -7.5731471    343.01101  0.016343197  0.015458921          430 
 1750000   0.54549266   -7.5917917    343.42315  0.016353483  0.015446754          377 
 1751000   0.54700415   -7.5708142    342.98969  0.016323515  0.015434605          209 
 1752000   0.55444686   -7.5721058    342.66389  0.016298701  0.015422457          492 
 1753000   0.56586225   -7.5860865    342.75867  0.016293909  0.015410316          490 
 1754000   0.54442025   -7.5677204    343.47667  0.016318732  0.015398209          301 
 1755000   0.56020187   -7.5837089    343.79967  0.016324771  0.015386102          473 
 1756000   0.54214515   -7.5753295    343.33499  0.016293422     0.015374          398 
 1757000   0.54984189    -7.561724    342.50524  0.016244794  0.015361911          210 
 1758000   0.54989054   -7.5725823    342.48503  0.016234596    0.0153498          465 
 1759000    0.5396824   -7.5676374     343.5485  0.016275748   0.01533772          345 
 1760000   0.54769636   -7.5743642    342.93184  0.016237303  0.015325659          532 
 1761000   0.53803044   -7.5697316    342.58652  0.016211741  0.015313603          490 
 1762000   0.55515989   -7.5770474    342.79362  0.016212335  0.015301567          340 
 1763000   0.54247886   -7.5669521    343.03292  0.016214451  0.015289527          522 
 1764000   0.55121012   -7.5739532    342.46437    0.0161784   0.01527751          482 
 1765000   0.56184303   -7.5676957    342.47618  0.016169791  0.015265485          507 
 1766000   0.55408678    -7.574478    342.97412  0.016184132  0.015253457          398 
 1767000   0.55206099   -7.5853942    342.73417  0.016163656  0.015241452          261 
 1768000   0.54919193     -7.58274    342.91289  0.016162938  0.015229453          196 
 1769000   0.55440657     -7.56672    341.96255  0.016109033  0.015217449          217 
 1770000   0.56389716   -7.5756321    342.88161  0.016143202  0.015205465          509 
 1771000   0.56500581   -7.5792928    343.51037  0.016163672  0.015193489          461 
 1772000   0.54351668   -7.5870399     342.6884  0.016115895  0.015181541          342 
 1773000   0.54260174   -7.5790342    343.05785   0.01612417  0.015169578          316 
 1774000    0.5459044   -7.5908746    342.61471  0.016094265  0.015157614          502 
 1775000   0.54429451   -7.5832558    342.92555  0.016099791  0.015145664          516 
 1776000   0.55213215    -7.587884    342.11177  0.016052542  0.015133719          103 
 1777000   0.53475081   -7.5853375    342.72604  0.016072315  0.015121771          477 
 1778000   0.55520672   -7.5903562    342.56468  0.016055712  0.015109845          188 
 1779000   0.55419791   -7.5769375     342.4655  0.016042041  0.015097935          459 
 1780000   0.54425997   -7.5922211    341.71174  0.015997741   0.01508603          454 
 1781000   0.54313563   -7.5960243    342.19789  0.016011505  0.015074135          575 
 1782000    0.5459411   -7.5890139    342.23773  0.016004383  0.015062252          417 
 1783000   0.53353561     -7.58609    342.36565  0.016001386  0.015050381          496 
 1784000   0.52502994   -7.5785738    342.57883  0.016002375  0.015038537          279 
 1785000   0.53414244   -7.6036553    342.92307   0.01600948  0.015026692          514 
 1786000   0.55070245   -7.5947874    342.84315  0.015996788  0.015014864          601 
 1787000   0.52187484   -7.5960089    342.62908  0.015977853  0.015003018          388 
 1788000   0.52960762   -7.5899848      342.431  0.015959685  0.014991187          388 
 1789000   0.52663292   -7.6033676    342.92964  0.015973991  0.014979366          223 
 1790000    0.5489735   -7.5884117    342.41324  0.015941026  0.014967561          402 
 1791000   0.53199507   -7.5908939    342.88112  0.015953895  0.014955768          240 
 1792000   0.54646284   -7.5989266    342.33706  0.015919692  0.014943989          317 
 1793000   0.54713791   -7.6071336    342.49901   0.01591834  0.014932206          351 
 1794000   0.53470532   -7.5901206    342.72096  0.015919777  0.014920437          213 
 1795000   0.53482598   -7.5791474     342.4852  0.015899963  0.014908686          185 
 1796000   0.52580728   -7.6157139    342.79663   0.01590556  0.014896939          282 
 1797000   0.53397385   -7.6173838    342.41416  0.015878973  0.014885205          560 
 1798000   0.54749524   -7.5894279    342.45896  0.015872217  0.014873468          533 
 1799000   0.53801887   -7.6025837    342.81839  0.015880044  0.014861736          190 
 1800000   0.53884886    -7.590631    342.25155  0.015844979  0.014850041          220 
 1801000   0.53309802   -7.5805804    342.19171  0.015833412  0.014838354          216 
 1802000   0.53074242   -7.6058512    342.60529  0.015843752  0.014826671          174 
 1803000   0.53010819   -7.5868603    342.01967  0.015807897  0.014815009          414 
 1804000   0.53518244   -7.5928603    342.38467  0.015815996   0.01480336          309 
 1805000   0.54426098   -7.5925136    343.19526  0.015844656   0.01479172          477 
 1806000   0.53211618   -7.6025109    342.14026  0.015787203  0.014780081          367 
 1807000   0.54695244   -7.6055464     341.7936  0.015762479  0.014768451          290 
 1808000   0.52425753   -7.6098531    342.50668  0.015786628  0.014756818          516 
 1809000   0.53191398    -7.605933    341.97456  0.015753388  0.014745194          362 
 1810000   0.52261282   -7.6004988    342.16501  0.015753453  0.014733584          390 
 1811000   0.52203822    -7.614122    342.54687  0.015762326  0.014721976          242 
 1812000   0.52456502   -7.6013858    342.37888  0.015745901  0.014710386          431 
 1813000   0.52451847    -7.617584    341.76879  0.015709174   0.01469881          458 
 1814000   0.52824066   -7.6145092    342.13045  0.015717128  0.014687229          446 
 1815000   0.52487153   -7.6169762    342.35297  0.015718685  0.014675647          374 
 1816000   0.52199344   -7.6162529    342.24407  0.015705033  0.014664097          448 
 1817000   0.52523122   -7.6085586     341.3627  0.015655967  0.014652561          218 
 1818000    0.5320893   -7.6160101    342.44512  0.015696971  0.014641025          499 
 1819000   0.51953109   -7.6349022    342.18904   0.01567661  0.014629501          548 
 1820000   0.51415007   -7.6102602    342.47539  0.015681107  0.014617991          588 
 1821000   0.54023849   -7.6154915    342.08877  0.015654804  0.014606484          457 
 1822000   0.51800227   -7.6209054    342.27473  0.015654717  0.014594996          487 
 1823000   0.52502232   -7.5917368    341.62117  0.015616254  0.014583514          154 
 1824000   0.51694698   -7.6070575    342.30408  0.015638892  0.014572063          492 
 1825000   0.53352901   -7.6023278    342.01529  0.015617137  0.014560616          457 
 1826000   0.52425718   -7.6282433    341.77284  0.015597519  0.014549171          478 
 1827000   0.50887156   -7.6084735    342.40142  0.015617653  0.014537759          541 
 1828000   0.52286366   -7.6252086     342.0602  0.015593554  0.014526333          493 
 1829000   0.52708429    -7.623562    342.19323  0.015591089  0.014514933          199 
 1830000   0.51941051    -7.628949     341.9424  0.015571147  0.014503538          458 
 1831000   0.52170983   -7.6265452    342.23121  0.015575788  0.014492145          427 
 1832000   0.52439486   -7.6150078    342.28329  0.015569655  0.014480756          414 
 1833000   0.51581221   -7.6341044     341.9015  0.015543803  0.014469375          200 
 1834000   0.51489234   -7.6324043    341.84205  0.015532627  0.014458005          253 
 1835000    0.5291798   -7.6165352    342.18674  0.015539816  0.014446641          316 
 1836000   0.53588532   -7.6111505    341.65672  0.015507295  0.014435288          533 
 1837000   0.52687187   -7.6314516    341.72651  0.015502019  0.014423942          461 
 1838000    0.5048871   -7.6498817     342.2813  0.015518739  0.014412607          466 
 1839000   0.51474936    -7.632646    342.04345  0.015499522  0.014401273          505 
 1840000   0.50258036    -7.620547    342.44314    0.0155092  0.014389957          420 
 1841000   0.51760369   -7.6348844    341.74533  0.015469189  0.014378664          422 
 1842000   0.52018464   -7.6354301    341.69192  0.015458375  0.014367368          474 
 1843000   0.51622945   -7.6203285    341.93595  0.015461022  0.014356082          570 
 1844000   0.51499838   -7.6444775    342.15231  0.015462414  0.014344819          443 
 1845000   0.51354927   -7.6370477    341.89808  0.015442551  0.014333556          317 
 1846000   0.51731361   -7.6329061    342.21176  0.015448346  0.014322303          506 
 1847000   0.51388201   -7.6448137    342.24717   0.01544158  0.014311049          531 
 1848000   0.51145833   -7.6154635    342.15489  0.015429062   0.01429982          551 
 1849000   0.51658652   -7.6357083    341.69489  0.015399986  0.014288586          537 
 1850000   0.51978255    -7.626609    341.55005  0.015385137  0.014277373          437 
 1851000   0.51290863    -7.650852    342.67939  0.015427669  0.014266174          562 
 1852000   0.50637035   -7.6378284    341.53468  0.015367831  0.014254983          307 
 1853000   0.51906215   -7.6340723    342.38363  0.015397717  0.014243788          417 
 1854000   0.51299613   -7.6464055    342.22668  0.015382357  0.014232607          286 
 1855000   0.51398672   -7.6437096    341.41535  0.015337617  0.014221442          518 
 1856000   0.50201777   -7.6421776    341.75396  0.015344556  0.014210289          472 
 1857000    0.5133849   -7.6639172    341.74737  0.015335998  0.014199144          483 
 1858000   0.50916481   -7.6562827    341.90081  0.015334625  0.014188003          502 
 1859000   0.50837198   -7.6537429    341.93579  0.015327945  0.014176886          581 
 1860000   0.50298139   -7.6336309    341.20156  0.015286808  0.014165761          565 
 1861000   0.50849078   -7.6435799    341.82684  0.015306593  0.014154647          573 
 1862000   0.52185866   -7.6457383    341.95265  0.015304003  0.014143549          415 
 1863000    0.5089696   -7.6486494    341.69147  0.015284106  0.014132458          493 
 1864000   0.51570334    -7.648191    341.56918  0.015270439  0.014121377          516 
 1865000    0.5083353   -7.6511418    341.59751  0.015263517  0.014110307          439 
 1866000   0.50143355   -7.6565448    341.74187  0.015261784   0.01409926          552 
 1867000   0.51051051   -7.6541502    341.38655   0.01523775  0.014088202          573 
 1868000   0.51556541   -7.6489013    341.55949  0.015237308  0.014077148          552 
 1869000   0.50873909   -7.6405486    341.13966  0.015210436  0.014066109          490 
 1870000   0.51513768   -7.6303033    341.41344  0.015214503  0.014055067          417 
 1871000   0.50893532    -7.670959    341.91123  0.015228542  0.014044048          596 
 1872000   0.50505792   -7.6612817    341.83676  0.015217092  0.014033035          498 
 1873000   0.51255688   -7.6663542    341.80778  0.015207678  0.014022034          659 
 1874000   0.50693856   -7.6666359    341.54597  0.015187921  0.014011043          605 
 1875000   0.51025541   -7.6542252    341.35665  0.015171406  0.014000063          566 
 1876000   0.50654348   -7.6616784    341.35778   0.01516337  0.013989091          619 
 1877000   0.51547812   -7.6580731    341.75503  0.015172928  0.013978146          570 
 1878000   0.50020631    -7.656285    340.49441   0.01510891   0.01396721          548 
 1879000   0.50209176   -7.6653268    341.37274  0.015139823  0.013956272          605 
 1880000   0.50328323    -7.651798    340.89815  0.015110734  0.013945358          598 
 1881000   0.50097344   -7.6687365    341.39236  0.015124595  0.013934446          370 
 1882000   0.49609999   -7.6406125    341.33366   0.01511396  0.013923542          576 
 1883000   0.49543632   -7.6569477    341.26096  0.015102715   0.01391264          601 
 1884000   0.49611735   -7.6482982    341.43198  0.015102264  0.013901756          599 
 1885000    0.5026332   -7.6759012    341.45781  0.015095394   0.01389088          526 
 1886000   0.50403734   -7.6641291    341.50087  0.015089293  0.013880015          592 
 1887000   0.49687377   -7.6598942    341.30024  0.015072436   0.01386917          546 
 1888000   0.51106751    -7.666245    341.82923  0.015087801  0.013858327          548 
 1889000   0.49252004   -7.6587357    341.46743  0.015063853  0.013847502          529 
 1890000    0.5101132   -7.6634718    341.62602  0.015062876  0.013836679          361 
 1891000   0.51027393   -7.6517291       341.19  0.015035696  0.013825877          597 
 1892000   0.49335989    -7.666091      341.637  0.015047437  0.013815082          310 
 1893000   0.48628112   -7.6718851    340.93744  0.015008692   0.01380428          575 
 1894000   0.49582737   -7.6816684    341.13589  0.015009499  0.013793495          533 
 1895000   0.49568399   -7.6530748    341.59226  0.015021647  0.013782718          486 
 1896000   0.48869288   -7.6751083    341.45714  0.015007786  0.013771951          565 
 1897000   0.49139197   -7.6517028    341.79352  0.015014651  0.013761201          547 
 1898000   0.49928405   -7.6630037    341.60143  0.014998307   0.01375045          480 
 1899000   0.49670185   -7.6666684    341.25599   0.01497525  0.013739716          572 
 1900000   0.49749038   -7.6673275    341.05796  0.014958683  0.013728986          533 
 1901000   0.48568522   -7.6656018    341.44482  0.014967772  0.013718264          510 
 1902000   0.49396543   -7.6873125    340.46649  0.014917038  0.013707549          559 
 1903000   0.49895482   -7.6698175    341.16811  0.014939924   0.01369685          557 
 1904000   0.48941416   -7.6673739    341.52568  0.014947727  0.013686164          478 
 1905000   0.48911848   -7.6710883    341.68904  0.014947027  0.013675476          526 
 1906000   0.49110817    -7.673445    341.12096  0.014914348  0.013664801          515 
 1907000   0.48453236   -7.6932905    341.20088  0.014910019  0.013654141          623 
 1908000    0.4986956   -7.6717401     341.9028  0.014932861  0.013643487          445 
 1909000   0.49381708    -7.681383    341.39247  0.014902762  0.013632854          562 
 1910000   0.49594137   -7.6810832    341.52601  0.014900786  0.013622226          369 
 1911000   0.48420456   -7.6896697    341.78825  0.014904424  0.013611599          550 
 1912000   0.49565123   -7.6669541    341.60668  0.014888715  0.013600985          487 
 1913000   0.49802878   -7.6806965    341.22117  0.014864139  0.013590382          497 
 1914000   0.48178428   -7.6564902    340.86914  0.014841046  0.013579769          267 
 1915000   0.49255364   -7.6716394    341.16095  0.014845994  0.013569173          321 
 1916000     0.501956   -7.6721359    341.01534  0.014831913  0.013558581          560 
 1917000    0.4774128   -7.6828569    341.11627  0.014828563  0.013548013          532 
 1918000   0.48303276   -7.6741235    341.29739  0.014828701  0.013537445          445 
 1919000   0.48924387   -7.6840392    340.93732  0.014805338  0.013526892          586 
 1920000   0.48335606   -7.6837114    340.66001  0.014785591  0.013516337          337 
 1921000   0.48656551   -7.6952484     340.8158  0.014784652  0.013505798          548 
 1922000   0.48258206   -7.6741936     341.3503  0.014800134  0.013495276          427 
 1923000   0.48109012   -7.6740838    341.15611  0.014784023  0.013484772          443 
 1924000   0.48104958   -7.6784344    340.93301  0.014766676  0.013474264          553 
 1925000   0.48532805   -7.6999612     340.8693  0.014756247  0.013463767          516 
 1926000   0.49228464    -7.691739    341.69833  0.014784455  0.013453287          547 
 1927000   0.47963713   -7.6745845    341.10809  0.014751258  0.013442808          533 
 1928000   0.48197244   -7.6952005    341.26099  0.014750216  0.013432337          629 
 1929000   0.47383964   -7.6966802    341.41855  0.014749376  0.013421873          417 
 1930000   0.48128315   -7.6967636    341.28919  0.014736148  0.013411423          639 
 1931000   0.49377598    -7.674334    340.94629  0.014713719  0.013400982          364 
 1932000   0.47420424   -7.7053918    341.14918  0.014714854  0.013390546          533 
 1933000    0.4792416   -7.6902137    341.24885  0.014711539  0.013380115          211 
 1934000   0.48334298    -7.711573    341.66214   0.01472174  0.013369712          587 
 1935000   0.47863865   -7.6761563    340.87329  0.014680159  0.013359316          603 
 1936000   0.49205789   -7.6852991    340.86434  0.014672191  0.013348937          494 
 1937000   0.48075845   -7.6842255    340.93045  0.014667461  0.013338576          584 
 1938000   0.47785246   -7.6881194    341.43837  0.014681732  0.013328219          366 
 1939000   0.48103772   -7.6895969    340.67312  0.014641272  0.013317863          578 
 1940000   0.48290223   -7.6928861    341.58801  0.014673025  0.013307523          368 
 1941000   0.47722256   -7.6855748    341.48588   0.01466108  0.013297182          413 
 1942000   0.49223124    -7.680922    341.02784  0.014633876  0.013286866          373 
 1943000   0.47648147   -7.7018003    340.98813  0.014624641  0.013276554          325 
 1944000   0.47132635   -7.6962743     341.3816  0.014633985   0.01326625          323 
 1945000   0.47360577   -7.7044114    340.72194  0.014598198  0.013255949          585 
 1946000   0.47466982   -7.6880248    340.42545     0.014578  0.013245663          580 
 1947000   0.47205112   -7.6963658    340.90687  0.014591118  0.013235393          576 
 1948000   0.47691798   -7.7065314    340.54015  0.014567939  0.013225127          449 
 1949000   0.47838316   -7.6904902    340.15357  0.014543936  0.013214858          542 
 1950000   0.48094205   -7.7068097    340.63079  0.014556871  0.013204605          258 
 1951000   0.47456023    -7.686023    340.67328  0.014551225  0.013194371          485 
 1952000   0.46710254    -7.689136    341.35495  0.014572872  0.013184137          384 
 1953000   0.46859134   -7.6882976    340.72609  0.014538577  0.013173913          590 
 1954000   0.47728209   -7.7052806    341.10753  0.014547404  0.013163706          606 
 1955000   0.47875188   -7.6997069    341.01623  0.014536071  0.013153497          565 
 1956000   0.47095413   -7.7184367    341.03199  0.014529311  0.013143298          581 
 1957000   0.46648937   -7.6896941    340.70765  0.014508076  0.013133111          521 
 1958000   0.46561071   -7.7029498    340.72149  0.014501255  0.013122934          595 
 1959000   0.47026556   -7.7109608    340.72273  0.014493906  0.013112757          549 
 1960000   0.47654175   -7.7003597    341.16822  0.014505451  0.013102588          518 
 1961000   0.46713648   -7.6948986    339.91225  0.014444682  0.013092434          337 
 1962000    0.4744742   -7.6980647    340.91594   0.01447995  0.013082279          512 
 1963000   0.46845091   -7.7120341    340.69875  0.014463353  0.013072134          265 
 1964000   0.46419792   -7.6999083    340.87592  0.014463506  0.013062004          470 
 1965000   0.47989093   -7.7002717    340.70115  0.014448734  0.013051891          504 
 1966000   0.46599624   -7.7157381    340.91653  0.014450514  0.013041774          371 
 1967000   0.46795066   -7.6979642    340.89596  0.014442296   0.01303167          306 
 1968000   0.46572941    -7.703653    341.08435  0.014442935  0.013021586          409 
 1969000    0.4680083    -7.716576    340.78808  0.014423061  0.013011499          502 
 1970000   0.46881287    -7.690055    340.91004  0.014420899  0.013001421          376 
 1971000   0.46229652   -7.6965853    340.72046  0.014405567  0.012991364          335 
 1972000   0.46483625   -7.6997499    341.05692   0.01441248  0.012981316          494 
 1973000   0.46025793   -7.7025236    341.03222  0.014404131  0.012971274          368 
 1974000   0.46246099   -7.7047723    340.50906  0.014374749  0.012961238          566 
 1975000   0.46229189   -7.6993667    340.40007  0.014362872  0.012951223          237 
 1976000   0.45933094   -7.7067084     340.3351  0.014352863  0.012941223          217 
 1977000   0.46266728   -7.7103635    340.66414  0.014359473  0.012931227          375 
 1978000   0.46562925   -7.7009932    340.65476  0.014351818  0.012921234          189 
 1979000   0.46559402   -7.7056075    340.35096  0.014331774  0.012911248          528 
 1980000   0.46850522   -7.6998427    340.22659  0.014319301  0.012901266          392 
 1981000   0.46548108    -7.698931    340.51269  0.014324108  0.012891294          396 
 1982000    0.4645637    -7.702589     340.3836  0.014311453  0.012881338          432 
 1983000    0.4565174   -7.7071922    340.66414  0.014316025  0.012871393          552 
 1984000    0.4684181    -7.723436    340.89929  0.014318687  0.012861456          333 
 1985000   0.46604131   -7.7250112    340.43128  0.014291825  0.012851523          478 
 1986000   0.47201126   -7.7088247    340.82692   0.01430123  0.012841607          510 
 1987000   0.45209918   -7.7141054    340.66313  0.014287164  0.012831695          425 
 1988000   0.46276926   -7.7196603    340.72401  0.014282529  0.012821787          251 
 1989000   0.45315685   -7.7053164    340.38918   0.01426132  0.012811895          530 
 1990000   0.45309084   -7.7050764    340.30774  0.014250743  0.012801997          517 
 1991000   0.45052471   -7.7170419    340.38434  0.014246791  0.012792107          394 
 1992000   0.45979274   -7.7082633    340.35674  0.014238485  0.012782227          367 
 1993000   0.45950743   -7.7208155    340.73616  0.014247205  0.012772345          488 
 1994000   0.44808079   -7.7129946     340.5635  0.014232845  0.012762473          312 
 1995000   0.46529327   -7.7270961    340.35655  0.014217066  0.012752609          404 
 1996000   0.46089242   -7.7213599    340.71498  0.014224907  0.012742775          568 
 1997000   0.46375232   -7.6961099    340.42597  0.014205724  0.012732941          448 
 1998000   0.45975019   -7.7187136    340.71331  0.014210598  0.012723125          502 
 1999000   0.45799898    -7.717683    340.38827   0.01418994  0.012713307          317 
 2000000   0.45502557   -7.7356328    340.42295   0.01418429    0.0127035          535 
 2001000   0.44734834   -7.7238123    340.44953  0.014178308  0.012693702          404 
 2002000   0.44803956   -7.7267181    340.20141  0.014160898  0.012683921          451 
 2003000   0.45001925   -7.7145359    340.60627  0.014170672  0.012674145          280 
 2004000   0.46035173   -7.7236708    340.44888  0.014157056  0.012664372          254 
 2005000   0.45432053   -7.7271464    340.23079  0.014140931  0.012654617          479 
 2006000   0.45294037   -7.7263029    339.94379  0.014121959  0.012644865          575 
 2007000   0.45356685   -7.7375091    339.95867   0.01411554  0.012635118          419 
 2008000   0.45036539   -7.7376904    340.40669  0.014127104  0.012625377          500 
 2009000    0.4604476   -7.7325738    340.04668  0.014105138  0.012615646          343 
 2010000   0.44838129   -7.7323273    339.90038  0.014092056  0.012605929          492 
 2011000   0.45151411    -7.717076    340.70444  0.014118367  0.012596215          627 
 2012000    0.4542795   -7.7311298    340.42416  0.014099741  0.012586515          505 
Loop time of 4313.09 on 48 procs for 2000000 steps with 4000 atoms

Performance: 80128.126 tau/day, 463.704 timesteps/s
99.4% CPU use with 48 MPI tasks x no OpenMP threads

MPI task timing breakdown:
Section |  min time  |  avg time  |  max time  |%varavg| %total
---------------------------------------------------------------
Pair    | 279.92     | 301.49     | 324.55     |  60.1 |  6.99
Neigh   | 27.194     | 27.767     | 28.62      |   5.3 |  0.64
Comm    | 230        | 252.44     | 272.61     |  61.2 |  5.85
Output  | 4.1898     | 4.1921     | 4.23       |   0.3 |  0.10
Modify  | 3665.5     | 3680.2     | 3696.3     |  12.7 | 85.33
Other   |            | 46.97      |            |       |  1.09

Nlocal:        83.3333 ave          93 max          74 min
Histogram: 3 1 5 5 13 8 5 4 3 1
Nghost:        1806.54 ave        1827 max        1784 min
Histogram: 4 1 3 7 11 2 9 1 6 4
Neighs:        11068.7 ave       12712 max        9613 min
Histogram: 2 6 4 5 8 10 5 5 2 1
FullNghs:      22137.9 ave       24856 max       19383 min
Histogram: 3 2 3 5 11 10 6 2 5 1

Total # of neighbors = 1062617
Ave neighs/atom = 265.65425
Neighbor list builds = 107827
Dangerous builds = 1

#clear
#
#next RN
#
#jump SELF
Total wall time: 1:11:55
