
units lj                  # Use reduced LJ style units
atom_style atomic         # Uncharged point particles
atom_modify map hash      # Needed for indexing of clusters etc
                          # Used to be able to find where atoms are in relation to each other.

lattice fcc 1.0 spacing 1 1 1
Lattice spacing in x,y,z = 1.5874011 1.5874011 1.5874011
region box block 0 10 0 10 0 10 units lattice
create_box 2 box
Created orthogonal box = (0.0000000 0.0000000 0.0000000) to (15.874011 15.874011 15.874011)
  3 by 4 by 4 MPI processor grid
create_atoms 1 box
Created 4000 atoms
  using lattice units in orthogonal box = (0.0000000 0.0000000 0.0000000) to (15.874011 15.874011 15.874011)
  create_atoms CPU = 0.002 seconds
set type 1 type/fraction 2 0.68 78393
Setting atom values ...
  2740 settings made for type/fraction
mass 1 1.0
mass 2 1.0
pair_style lj/cut  3.5
pair_modify tail  yes
pair_coeff 1  1  1.0  1.0   # Intearaction between 1 and 1 set with epsilon = 1 and sigma = 1
pair_coeff 1  2  1.5  0.8
pair_coeff 2  2  0.5  0.88

write_data data.0
System init for write_data ...
Neighbor list info ...
  update every 1 steps, delay 10 steps, check yes
  max neighbors/atom: 2000, page size: 100000
  master list distance cutoff = 3.8
  ghost atom cutoff = 3.8
  binsize = 1.9, bins = 9 9 9
  1 neighbor lists, perpetual/occasional/extra = 1 0 0
  (1) pair lj/cut, perpetual
      attributes: half, newton on
      pair build: half/bin/atomonly/newton
      stencil: half/bin/3d
      bin: standard
WARNING: Not all mixed pair coeffs generated from mixing. Use write_data with 'pair ij' option to store all pair coeffs. (../write_data.cpp:312)


#############################
#   M E L T   S Y S T E M   #
#############################

velocity all create 2.4 9580093 mom yes dist gaussian # Assign velocities
                                                    # Temperature 2.4, random number seed, zero linear momentum
                                                                                # Gaussian distribution

timestep 0.002   # simulation timestep
thermo 1000       # output thermodynamic data every 1000 steps bf 100

# Define a fix  in this case with index 1 applied to all
# particles in the simulation. This fix is for simulations
# in the anisotropic NPT ensemble. Note that we use the MTK
# correction.
fix 1 all npt temp 2.4 2.4 0.1 iso 5.68 5.68 0.5 mtk yes tchain 5 pchain 5 # Use NPT ensemble
                                                                         # Set temperature and pressure and damping
                                                                         # Numbers of thermostats in chain and in barostat
run 10000          # run for 10000 steps
Per MPI rank memory allocation (min/avg/max) = 3.642 | 3.644 | 3.648 Mbytes
Step Temp E_pair E_mol TotEng Press Volume 
       0          2.4   -4.2819815            0  -0.68288149   -3.8317514         4000 
    1000    2.3724781   -3.9140124            0   -0.3561849     5.699056    3651.4771 
    2000    2.3934975   -3.9687464            0   -0.3793977    5.7249537    3623.3762 
    3000    2.3765072   -3.9467595            0  -0.38288984    5.3407877    3661.2179 
    4000    2.4103691   -3.9188694            0  -0.30421958    5.7240708    3650.7764 
    5000    2.4076977   -3.9103293            0  -0.29968554     5.922407    3635.6342 
    6000    2.4551581   -3.8904507            0  -0.20863423    6.0378663    3643.7023 
    7000    2.3652805   -3.9321837            0  -0.38514988    5.5040437    3658.7843 
    8000    2.4171402    -3.931382            0  -0.30657813    5.6828918    3653.5212 
    9000    2.4010967   -3.9318272            0  -0.33108249    5.9290024    3622.1267 
   10000     2.409563   -3.9465678            0  -0.33312691    5.6709894    3632.9378 
Loop time of 2.71846 on 48 procs for 10000 steps with 4000 atoms

Performance: 635654.714 tau/day, 3678.557 timesteps/s
99.5% CPU use with 48 MPI tasks x no OpenMP threads

MPI task timing breakdown:
Section |  min time  |  avg time  |  max time  |%varavg| %total
---------------------------------------------------------------
Pair    | 1.2027     | 1.2629     | 1.344      |   2.6 | 46.46
Neigh   | 0.21327    | 0.22175    | 0.23728    |   0.9 |  8.16
Comm    | 0.83871    | 0.9247     | 1.0138     |   5.0 | 34.02
Output  | 0.00024817 | 0.00025327 | 0.00032626 |   0.0 |  0.01
Modify  | 0.24657    | 0.29317    | 0.36467    |   6.8 | 10.78
Other   |            | 0.0157     |            |       |  0.58

Nlocal:        83.3333 ave          94 max          75 min
Histogram: 4 4 5 5 11 9 5 3 1 1
Nghost:        1745.02 ave        1780 max        1719 min
Histogram: 3 6 7 7 3 11 6 2 2 1
Neighs:        10499.1 ave       11838 max        9184 min
Histogram: 2 4 5 5 7 9 7 4 3 2

Total # of neighbors = 503958
Ave neighs/atom = 125.98950
Neighbor list builds = 900
Dangerous builds = 166

# Equilibrate just above the melting temperature to avoid step fn in T

fix 1 all npt temp 1.25 1.25 0.1 iso 5.68 5.68 0.5 mtk yes tchain 5 pchain 5
run 2000
Per MPI rank memory allocation (min/avg/max) = 3.644 | 3.646 | 3.650 Mbytes
Step Temp E_pair E_mol TotEng Press Volume 
   10000     2.409563   -3.9465678            0  -0.33312691    5.6709894    3632.9378 
   11000    1.2527284   -5.7952486            0   -3.9166258    5.5581612    2783.7579 
   12000     1.248129   -5.7780858            0   -3.9063603     5.379321    2796.8914 
Loop time of 0.665629 on 48 procs for 2000 steps with 4000 atoms

Performance: 519208.306 tau/day, 3004.678 timesteps/s
99.6% CPU use with 48 MPI tasks x no OpenMP threads

MPI task timing breakdown:
Section |  min time  |  avg time  |  max time  |%varavg| %total
---------------------------------------------------------------
Pair    | 0.2968     | 0.32297    | 0.36892    |   2.5 | 48.52
Neigh   | 0.040864   | 0.043515   | 0.050545   |   0.8 |  6.54
Comm    | 0.19805    | 0.24853    | 0.27783    |   3.1 | 37.34
Output  | 4.9966e-05 | 5.2628e-05 | 6.7067e-05 |   0.0 |  0.01
Modify  | 0.042179   | 0.045674   | 0.048979   |   0.9 |  6.86
Other   |            | 0.004887   |            |       |  0.73

Nlocal:        83.3333 ave          92 max          76 min
Histogram: 3 4 3 10 7 4 10 5 1 1
Nghost:        2087.96 ave        2110 max        2065 min
Histogram: 3 2 6 2 11 9 5 1 8 1
Neighs:        13658.2 ave       15109 max       11807 min
Histogram: 3 0 3 7 9 5 5 5 7 4

Total # of neighbors = 655592
Ave neighs/atom = 163.89800
Neighbor list builds = 143
Dangerous builds = 9

#############################
# L I N E A R  Q U E N C H  #
#############################

# Define solid atoms. This closely follows ten Wolde  Ruiz-Montero and Frenkel  Faraday Discuss  1996  104  93-110
# Compute components of the per-atom q6 vector
compute q6 all orientorder/atom degrees 1 6 components 6 nnn NULL cutoff 1.3 # compute the Q6 parameter.
                                                                             # Use all neighbours within 1.3 unit cell.

# get number of connections
compute coord_number all coord/atom orientorder q6 0.5

# An atom is solid if it has 8 or more connections (of a possible 14)
variable is_solid atom c_coord_number>=8
group solid dynamic all var is_solid    # Must be dynamic to update
dynamic group solid defined

# do clustering
compute cluster solid cluster/atom 1.3 # Create a cluster where all atoms within are solid and max 1.3 units from another member

# define chunks one chunk per cluster
compute clus_chunks solid chunk/atom c_cluster nchunk every compress yes  # Says which atoms are in which chunk

# count the size of each chunk
compute size_chunks solid property/chunk clus_chunks count


# Find the maximum entry in the vector of chunk sizes
variable max_n equal max(c_size_chunks)


# Thermo style which includes this variable
# thermo_style custom step temp pe vol v_max_n

thermo ${N}  # Print the thermo information every 100 steps
thermo 1000  

# Reset the npt fix at a lower temperature (below freezing)
fix 1  all npt temp  ${temp} ${temp}  0.1  iso  5.68  5.68  0.5  mtk yes tchain  5  pchain  5
fix 1  all npt temp  0.45 ${temp}  0.1  iso  5.68  5.68  0.5  mtk yes tchain  5  pchain  5
fix 1  all npt temp  0.45 0.45  0.1  iso  5.68  5.68  0.5  mtk yes tchain  5  pchain  5

dump dmp2 all dcd ${N} traj.dcd
dump dmp2 all dcd 1000 traj.dcd


compute msd all msd com yes
variable twopoint equal c_msd[4]/6/(step*dt+1.0e-6)
fix 9 all vector 10 c_msd[4]
variable fit equal slope(f_9)/6/(10*dt)
thermo_style custom step temp pe c_msd[4] v_twopoint v_fit v_max_n

fix 1 all npt temp 1.25 ${temp} 0.1 iso 5.68 5.68 0.5 mtk yes tchain 5 pchain 5
fix 1 all npt temp 1.25 0.45 0.1 iso 5.68 5.68 0.5 mtk yes tchain 5 pchain 5
run 2000000 # 5000000  # Run for this many steps
Neighbor list info ...
  update every 1 steps, delay 10 steps, check yes
  max neighbors/atom: 2000, page size: 100000
  master list distance cutoff = 3.8
  ghost atom cutoff = 3.8
  binsize = 1.9, bins = 8 8 8
  4 neighbor lists, perpetual/occasional/extra = 1 3 0
  (1) pair lj/cut, perpetual
      attributes: half, newton on
      pair build: half/bin/atomonly/newton
      stencil: half/bin/3d
      bin: standard
  (2) compute orientorder/atom, occasional
      attributes: full, newton on
      pair build: full/bin/atomonly
      stencil: full/bin/3d
      bin: standard
  (3) compute coord/atom, occasional
      attributes: full, newton on
      pair build: full/bin/atomonly
      stencil: full/bin/3d
      bin: standard
  (4) compute cluster/atom, occasional
      attributes: full, newton on
      pair build: full/bin/atomonly
      stencil: full/bin/3d
      bin: standard
Per MPI rank memory allocation (min/avg/max) = 9.842 | 9.847 | 9.853 Mbytes
Step Temp PotEng c_msd[4] v_twopoint v_fit v_max_n 
   12000     1.248129   -5.7780858 1.9721523e-34 1.3695501e-36 8.3333333e+20            7 
   13000    1.2601307   -5.8662642   0.60359125 0.0038691745  0.051383391            3 
   14000    1.2675981   -5.8714148     1.149684 0.0068433572  0.048054868            1 
   15000    1.2416025   -5.8308699    1.6912757 0.0093959757  0.046880615            1 
   16000    1.2292207   -5.8043826    2.2592035  0.011766684  0.046224347            2 
   17000    1.2415953   -5.8731018    2.8552893  0.013996516   0.04659613            1 
   18000    1.2757084   -5.9012271    3.4552907  0.015996716  0.047207892            3 
   19000    1.2140445   -5.8567051     4.078518  0.017888236  0.047873387            2 
   20000    1.2275806   -5.8426009    4.6736651  0.019473604  0.048151806            2 
   21000    1.2473606   -5.8730272    5.1545806  0.020454685  0.048147247            2 
   22000    1.2262315   -5.8750882    5.7219031  0.021673875  0.047936591            3 
   23000    1.2281347   -5.8672854    6.3113104  0.022867066  0.047801933            3 
   24000    1.2461648   -5.8790589    6.8155004  0.023664932   0.04774079            5 
   25000    1.2535528   -5.8575191    7.3474738  0.024491579  0.047448042            1 
   26000    1.2309709   -5.8722308    7.9732388  0.025555252  0.047326733            3 
   27000    1.2299525   -5.8853925    8.5448427  0.026372971   0.04728076            2 
   28000    1.2410607   -5.8421138    9.1270766  0.027163918  0.047258439            5 
   29000    1.2264451   -5.8871838    9.6302867  0.027673237  0.047189168            1 
   30000    1.2459466   -5.9020375    10.251811  0.028477252  0.047093501            4 
   31000    1.2434658   -5.8849505    10.792769  0.029012818  0.047122746            4 
   32000    1.2075355   -5.8395513    11.336035  0.029520923  0.047092493            3 
   33000    1.2499521   -5.8634737    11.882434  0.030006146  0.047018036            4 
   34000    1.2363527   -5.9124828    12.460507  0.030540459   0.04703918            6 
   35000    1.2240664   -5.8776214    12.971602  0.030884766  0.047020602            3 
   36000    1.2217888   -5.9153521    13.517897  0.031291427   0.04696088            2 
   37000    1.2329931   -5.9003973    14.118934    0.0317994  0.046943113            5 
   38000    1.2761995   -5.8859726    14.702368  0.032242035  0.046938769            6 
   39000    1.2524031   -5.8504747     15.31493  0.032724209  0.046945025            2 
   40000    1.2439012   -5.9194347    15.831473  0.032982234  0.046953808            3 
   41000    1.2406436   -5.8798605    16.444929  0.033424652  0.046959371            2 
   42000     1.195908   -5.8579923    17.044031  0.033817522  0.046980954            4 
   43000    1.2271789   -5.9092462    17.674985  0.034253847  0.047026296            2 
   44000    1.2358337   -5.9181519    18.288712  0.034637711  0.047100554            2 
   45000    1.2240118   -5.8846503    19.159567   0.03548068  0.047278651            2 
   46000    1.2393534   -5.8817723    19.675937  0.035644814   0.04743043            2 
   47000    1.2422331   -5.8962209    20.347728  0.036077531  0.047581179            2 
   48000    1.2167361   -5.9233184    21.125194  0.036675683  0.047754736            1 
   49000    1.2488775   -5.8759803     21.71197  0.036925119  0.047951329            4 
   50000    1.2256706    -5.867921    22.275208  0.037125346  0.048121365            2 
   51000    1.2554689   -5.8866467    22.799879  0.037254704  0.048245336            2 
   52000    1.2346054   -5.9313316    23.295979  0.037333299  0.048338002            3 
   53000    1.2194516   -5.8800844    24.122301  0.037928145  0.048435236            2 
   54000    1.2126434   -5.9078815    24.681767  0.038089147  0.048546841            2 
   55000    1.2235487   -5.9048375    25.273053  0.038292504  0.048667211            1 
   56000    1.2278741   -5.8833826    26.133053  0.038888472  0.048786393            3 
   57000    1.2334363   -5.9203443    26.591254  0.038876102  0.048914242            2 
   58000     1.239227    -5.895479     26.98804  0.038775919  0.048997338            4 
   59000    1.2076217   -5.8767022    27.702535  0.039127874  0.049053591            2 
   60000    1.2271445    -5.921251    28.132038  0.039072275  0.049079627            2 
   61000    1.2228665   -5.9275064    28.809315  0.039356987  0.049108048            4 
   62000    1.2369976   -5.9466397    29.372616  0.039479323  0.049146951            3 
   63000     1.235488   -5.8718889    29.928796  0.039588354   0.04916281            3 
   64000    1.2151795    -5.919318    30.443604  0.039640109  0.049175898            1 
   65000    1.2263889   -5.8849513    31.018883  0.039767799  0.049184149            1 
   66000    1.2204216   -5.8727152    31.599609  0.039898496  0.049178702            1 
   67000    1.2021302   -5.8367483    32.178688  0.040023244  0.049171767            3 
   68000    1.2121844   -5.9155269    32.458787  0.039777924  0.049145894            4 
   69000    1.2321812   -5.9440039    32.895821  0.039729252  0.049108729            1 
   70000    1.2555405   -5.8956194     33.61056  0.040012571   0.04907087            5 
   71000    1.2142762   -5.8727656    34.174892  0.040111375  0.049026993            3 
   72000    1.2056896   -5.9433243    34.875205   0.04036482  0.048993018            4 
   73000    1.2369139   -5.9199462    35.338024   0.04034021  0.048954667            1 
   74000    1.2096517   -5.8922176    35.887822  0.040414213  0.048908017            4 
   75000    1.2219923   -5.9569282    35.965709  0.039961898  0.048846197            2 
   76000    1.2120242    -5.918103    36.601791  0.040133543  0.048757809            2 
   77000    1.2265968   -5.9138068    37.102627  0.040154358  0.048673068            2 
   78000    1.2385179   -5.8911706     37.66765  0.040243216  0.048582069            3 
   79000    1.2294636   -5.9889648    38.190773  0.040285625  0.048502001            3 
   80000    1.1983748   -5.8689631     38.87057  0.040490177   0.04844971            5 
   81000    1.2203851   -5.9396841    39.436216  0.040572238  0.048393314            2 
   82000    1.2262521   -5.9207102    40.039089  0.040690131  0.048328973            2 
   83000    1.2308607   -5.8957958    40.515225  0.040677936  0.048263662            3 
   84000    1.2012687   -5.8834369    41.138078  0.040811585  0.048202176            5 
   85000    1.2480699   -5.9061918    41.430847  0.040618478  0.048152105            5 
   86000    1.2187494   -5.9153542    41.951794  0.040650963  0.048086138            2 
   87000     1.227683   -5.9244548    42.420692  0.040632847  0.048008859            5 
   88000    1.2308187   -5.9206266    42.973388  0.040694496  0.047936908            3 
   89000     1.214385   -5.9402466    43.621181  0.040843802  0.047873964            1 
   90000    1.2194821    -5.995589    43.957477  0.040701367  0.047811775            3 
   91000    1.1774147   -5.9202263    44.731164  0.040962604  0.047758046            3 
   92000    1.2098478   -5.9527305    45.255554   0.04099235  0.047711894            2 
   93000    1.2075406   -5.9340043    45.722584  0.040970057  0.047662888            1 
   94000    1.2155819   -5.9215686    46.484067  0.041209279  0.047620024            3 
   95000    1.1933092   -5.9759673    46.827872  0.041077081  0.047574366            2 
   96000    1.2058773   -5.9371026    47.443934   0.04118397   0.04752069            2 
   97000    1.2229307   -5.9385524    47.446207  0.040761346  0.047451374            3 
   98000     1.207626   -5.9308535    48.072841  0.040878266  0.047376987            2 
   99000     1.221315   -5.9583171    48.650971  0.040951995  0.047301034            6 
  100000    1.2381462   -5.9266008    49.192743  0.040993952  0.047238114            2 
  101000    1.2281457   -5.9888354    49.726785    0.0410287  0.047180683            2 
  102000    1.2023466    -5.988846    50.441656  0.041210503  0.047124958            2 
  103000    1.2191357   -5.9597176    51.058249  0.041309263   0.04706921            2 
  104000    1.2216201   -5.9160113    51.792769  0.041500616  0.047030095            1 
  105000    1.2319914   -5.9534788      52.0406  0.041302063  0.046988751            3 
  106000     1.186839   -5.9320214    52.808527  0.041516137  0.046952283            2 
  107000    1.2141674   -5.9155788    53.360113   0.04155772  0.046924556            3 
  108000    1.2170072   -5.9817613    53.529483  0.041303613  0.046889134            2 
  109000    1.2317834   -5.9400515    54.300762  0.041514344  0.046846022            6 
  110000    1.2070444   -5.9681108    55.029573   0.04168907  0.046814291            3 
  111000    1.1862768   -5.9833456    55.575462   0.04172332  0.046787371            2 
  112000    1.2083887   -5.9707267    56.051777  0.041705191  0.046759635            3 
  113000     1.204965   -5.9507188    56.472472  0.041646366  0.046732934            6 
  114000    1.1893184   -5.9741719    56.920415   0.04160849  0.046707967           12 
  115000    1.2180609   -5.9137126    57.827611  0.041904065  0.046677254            2 
  116000    1.2459859   -5.9468706    57.989485  0.041659113  0.046646328            3 
  117000     1.220077   -5.9164605     58.51988  0.041680826  0.046613612            2 
  118000    1.1956379   -5.9513868    59.007869  0.041672224  0.046576722            2 
  119000    1.2093477   -5.9081126    59.615623  0.041747635   0.04654265            2 
  120000    1.1889833   -5.9798013     59.88951  0.041589938  0.046507718            2 
  121000    1.2377132   -5.9364903    60.474053  0.041648797  0.046468703            4 
  122000     1.226772   -5.9319619    60.717846  0.041473938  0.046424958            1 
  123000    1.2216867   -5.9520088     61.28703  0.041522378  0.046378629            4 
  124000    1.2193013   -5.9828792    61.497317  0.041328842  0.046328369            4 
  125000    1.2100952   -5.9162348    62.007185  0.041338123  0.046271316            2 
  126000    1.1840484   -5.9867841    62.262321  0.041178784  0.046213996            1 
  127000    1.2228292   -5.9262963    63.259535  0.041508881  0.046164597            2 
  128000    1.1838701   -5.9793207    63.787203  0.041528127  0.046119403            3 
  129000    1.1667396   -5.9726168    64.253504  0.041507431  0.046076081            2 
  130000    1.2067274   -5.9645272      64.7964  0.041536154  0.046026723            2 
  131000    1.2136865   -5.9459803    65.431974  0.041623393  0.045979179            4 
  132000    1.1625127   -5.9568251    65.361033  0.041263278  0.045928446            3 
  133000    1.1982564    -5.984613    65.751016  0.041197378  0.045870139            3 
  134000    1.2134176    -5.957844    66.497558  0.041354202   0.04582053            2 
  135000    1.2049722   -5.9474596    67.332032  0.041562982  0.045776077            1 
  136000    1.1988497   -5.9480602    67.716293  0.041492826  0.045730212            3 
  137000    1.2046537   -5.9740544    67.913955  0.041310192  0.045687563            3 
  138000    1.1975854   -5.9832693    68.516569   0.04137474  0.045642739            4 
  139000    1.1936684   -5.9443485    69.177402  0.041473263  0.045601357            2 
  140000    1.1754634   -6.0387981    69.211709  0.041197446  0.045552353            4 
  141000    1.1913666   -5.9550263    70.405626   0.04161089  0.045507539            2 
  142000    1.2124328   -5.9992497    70.347062  0.041283487  0.045464615            2 
  143000    1.1974471   -5.9672387    70.986257  0.041367283  0.045418816            2 
  144000    1.1794645   -5.9516991    71.788989  0.041544554   0.04537552            1 
  145000    1.2372839   -5.9814087    72.283307   0.04154213  0.045337305            2 
  146000     1.188798   -5.9603687    72.511876  0.041388057   0.04529378            5 
  147000    1.2101773   -6.0074421    73.062492  0.041418646   0.04525206            2 
  148000    1.2120417    -5.985784    73.408042  0.041333357  0.045214515            2 
  149000    1.2003954    -5.996534    74.066561  0.041424251   0.04517396            1 
  150000    1.1897281    -5.970842    74.550667  0.041417037  0.045135597            2 
  151000     1.191974   -5.9879405    75.591798  0.041717328  0.045104894            4 
  152000     1.202531   -5.9971525    75.547655  0.041418671  0.045074923            2 
  153000    1.1953592   -6.0022148    76.039785  0.041416005  0.045039645            2 
  154000    1.2034866    -6.017303    77.089107  0.041714885  0.045011178            1 
  155000    1.1743269   -5.9734317    77.262398  0.041538924  0.044981215            2 
  156000    1.2210642   -5.9946816    78.159829  0.041752045  0.044952796            5 
  157000    1.1869948   -6.0108548    78.322844  0.041572635  0.044926003            2 
  158000    1.1771887   -5.9618778    79.277148  0.041812842  0.044900281            3 
  159000    1.1774786   -6.0128814    79.596097  0.041717032  0.044882551            4 
  160000    1.2025239   -5.9906906    80.040139  0.041687572  0.044861766            2 
  161000    1.1832053   -6.0326266    80.249492  0.041537004  0.044839981            5 
  162000    1.1956545    -5.986024     80.40282  0.041359475   0.04480843            2 
  163000    1.1603343   -5.9977914    80.988632  0.041405231  0.044776481            4 
  164000    1.2188355     -6.01341    81.669311  0.041498633  0.044744838            3 
  165000    1.1836882   -6.0029237    81.889726  0.041358448  0.044713552            2 
  166000    1.1930481   -6.0184604    82.423988  0.041377504  0.044682458            4 
  167000    1.1908717   -6.0118313    83.117288  0.041475693  0.044648848            2 
  168000    1.2212521   -5.9630815    83.974779  0.041654156  0.044620543            3 
  169000    1.1873673   -5.9744837    83.908972  0.041375232  0.044588425            3 
  170000    1.1842497   -5.9676751    84.672921  0.041506334  0.044554968            4 
  171000    1.1876253   -6.0375449    84.594676  0.041225476  0.044521735            3 
  172000    1.1841303   -5.9973777    85.596863  0.041471348  0.044489543            3 
  173000    1.1664932   -5.9776257    85.980941  0.041416638   0.04445592            2 
  174000    1.1741529   -6.0154454    86.038987  0.041206411  0.044421539            3 
  175000    1.1888901   -6.0094353    86.412726  0.041148917  0.044385635            2 
  176000    1.1920436   -5.9793702     87.01378  0.041199706  0.044349959            2 
  177000     1.169544   -6.0238591    87.334962  0.041118155  0.044312416            1 
  178000    1.1709845   -5.9939903    87.931973  0.041166654  0.044276506            2 
  179000    1.1860002   -6.0372787    88.141081  0.041034023  0.044238586            5 
  180000    1.2045827   -5.9888638    88.756782  0.041091103   0.04419663            4 
  181000    1.1883281   -6.0289156    89.120958  0.041031749  0.044157595            3 
  182000    1.2066611   -6.0313883    89.625987   0.04103754  0.044118282            3 
  183000    1.1747456   -5.9831717    90.133586  0.041044438  0.044077377            2 
  184000    1.1686429   -6.0309889    90.651741  0.041056042  0.044039805            2 
  185000    1.1594212    -6.024801    90.938701  0.040963378  0.044001431            2 
  186000    1.1657838   -5.9622874    92.064083  0.041247349   0.04396593            2 
  187000    1.1774197   -6.0016269    92.131953   0.04105702  0.043931324            3 
  188000    1.1892462   -6.0994225     92.39265  0.040954189  0.043892897            1 
  189000    1.1844274    -6.018609    93.078343  0.041039834  0.043854377            5 
  190000    1.1735466   -5.9884517    93.470072  0.040995646  0.043816711            3 
  191000     1.159593   -6.0119258    94.060107  0.041038441   0.04378225            2 
  192000    1.1786156   -6.0324974    94.395534  0.040970284  0.043751419            2 
  193000    1.1598185   -6.0253499    95.013446  0.041024804  0.043718024            2 
  194000    1.2112448   -6.0483232    95.440396  0.040996734  0.043686727            2 
  195000    1.1549308   -6.0538735    95.514733  0.040818262  0.043654558            4 
  196000    1.1876701   -6.0224247    96.006231  0.040818976  0.043622069            3 
  197000    1.1602807   -6.0359615    96.722722  0.040914857  0.043590097            3 
  198000    1.1779068   -6.0418825    97.419457  0.041001455  0.043557599            4 
  199000    1.1892056   -6.0100372    98.239212  0.041138698  0.043527042            6 
  200000     1.176215   -6.0468534    98.252446  0.040938519  0.043500062            2 
  201000    1.1641707   -6.0266061    98.432464  0.040809479  0.043472174            2 
  202000    1.1854707   -6.0294569    98.748368  0.040737775   0.04344148            3 
  203000    1.1715862   -6.0099911    99.625033  0.040896976  0.043411292            2 
  204000    1.1781266   -6.0637784    99.745124  0.040745557  0.043379167            2 
  205000    1.1658233   -6.0363061    100.61571  0.040900696  0.043346519            2 
  206000    1.1749144   -6.0471919     101.0455   0.04087601  0.043314132            2 
  207000    1.1905453   -6.0747885    101.49086  0.040857833  0.043282291            2 
  208000    1.1741803    -6.037336    101.68042  0.040737348  0.043250475            2 
  209000    1.1720057   -6.0507094    102.12427  0.040719407  0.043219193            3 
  210000    1.1830343   -6.0325763    102.83404  0.040807158   0.04318767            2 
  211000    1.1565656   -6.0483846    103.57937  0.040908123  0.043162129            3 
  212000    1.1718467   -6.0272184    104.12354  0.040929066  0.043137186            3 
  213000    1.1610607   -6.0876282    103.87602   0.04064007  0.043108343            4 
  214000    1.1713303   -6.0521085    104.46259  0.040678577  0.043079565            2 
  215000    1.1643668   -6.0452027    105.21563  0.040781251  0.043053244            2 
  216000    1.1613221   -6.0467133    105.59148  0.040737453  0.043025708            2 
  217000    1.1506864   -6.0483356    105.93124  0.040680199  0.042997352            2 
  218000    1.1807038   -6.0453839     106.3069  0.040637193  0.042967436            3 
  219000    1.1947827   -6.0405787     106.9392  0.040692239  0.042939117            2 
  220000    1.1583167   -6.0529305    107.13901  0.040582959  0.042910478            3 
  221000    1.1597478   -6.0556668    108.22107  0.040807342  0.042879406            4 
  222000    1.1796385     -6.07288     107.9238  0.040511939  0.042851372            3 
  223000    1.1559319   -6.0538371    108.91696  0.040701405   0.04282465            3 
  224000    1.1550993   -6.0891515    108.50712  0.040367233  0.042794758            3 
  225000    1.1766021   -6.0888927    109.25893  0.040466272  0.042762009            3 
  226000    1.1726219    -6.080469    109.61486  0.040418459  0.042730576            2 
  227000    1.1623031   -6.0593456    110.56822  0.040590391  0.042702707            2 
  228000    1.1511028   -6.0462772     111.2389  0.040657494   0.04267581            3 
  229000    1.1619353   -6.0667474    111.77345  0.040674472  0.042650478            6 
  230000    1.1539692   -6.0670201    112.18882  0.040648124  0.042624877            3 
  231000     1.115844   -6.0419487    112.44982  0.040566314  0.042601498            3 
  232000    1.1632915   -6.0125107    112.71312  0.040486034  0.042574098            4 
  233000    1.1760018   -6.0798281    112.79863  0.040342858     0.042545            4 
  234000    1.1578254    -6.038697    113.26802  0.040337612   0.04251461            2 
  235000    1.1537706   -6.0751813    113.38503  0.040207457  0.042481156            2 
  236000    1.1524487   -6.1112864    113.95178  0.040237209  0.042447324            2 
  237000    1.1489939    -6.058307     114.4233  0.040233228  0.042414827            4 
  238000     1.149834   -6.0636536    115.15274  0.040319586  0.042385398            2 
  239000    1.1651175   -6.0768565    115.32871   0.04021224  0.042356204            5 
  240000    1.1489144   -6.1107894     115.9603  0.040263992  0.042324205            4 
  241000    1.1501063   -6.0626448    116.50383  0.040284865  0.042292435            4 
  242000    1.1555915   -6.0554074    116.55299  0.040135326  0.042260431            4 
  243000    1.1770254   -6.0482716    117.20636  0.040194226  0.042229797            6 
  244000    1.1530125   -5.9977995    118.01355  0.040305174  0.042196978            3 
  245000    1.1639663   -6.0664233    117.39357  0.039929784  0.042163749            1 
  246000    1.1330193   -6.1050865    117.59832   0.03983683  0.042128821            2 
  247000    1.1107553    -6.040444    118.73855   0.04006024  0.042096554            2 
  248000    1.1371345   -6.0793346    119.26634  0.040076056  0.042064824            2 
  249000    1.1582496   -6.0401782    119.84394  0.040108412   0.04203301            1 
  250000    1.1747749   -6.0822092    119.79825   0.03993275  0.042001327            3 
  251000    1.1388617   -6.1087053    120.84855   0.04012236  0.041974643            3 
  252000    1.1926376   -6.0641856    121.43395   0.04015673  0.041948488            2 
  253000    1.1589058   -6.1104033     121.6614  0.040072926   0.04192241            4 
  254000    1.1529169   -6.0700961    122.69271  0.040253514  0.041896845            1 
  255000    1.1563865    -6.073929    122.81184  0.040134587  0.041872791            2 
  256000    1.1647897   -6.0447306    123.73594  0.040278625  0.041848708            5 
  257000    1.1368734   -6.0865135     123.7543  0.040127854  0.041825735            2 
  258000    1.1719466    -6.062562    124.53154  0.040223364  0.041801445            4 
  259000    1.1706754   -6.0585563    124.46818  0.040047678  0.041777296            1 
  260000    1.1432367   -6.0911265    124.71211   0.03997183  0.041751675            2 
  261000    1.1471847   -6.0674387    124.92436  0.039886449  0.041726883            2 
  262000     1.148602   -6.0920548    125.60235  0.039949857  0.041701319            4 
  263000    1.1463496   -6.0908299    125.21706  0.039675874  0.041673149            2 
  264000    1.1652561   -6.0847751    125.99323  0.039770591  0.041645294            4 
  265000    1.1643322   -6.0953044    126.28883  0.039713467  0.041615449            4 
  266000    1.1436941   -6.0669041    127.14653  0.039832871  0.041585252            3 
  267000    1.1463212   -6.1003522     127.5352  0.039804993  0.041556936            3 
  268000    1.1459956   -6.1003235    127.68322  0.039702493  0.041527096            3 
  269000    1.1468489   -6.1370489    127.15529  0.039391355  0.041495495            3 
  270000    1.1589369    -6.077501    128.48461  0.039655743  0.041462406            3 
  271000    1.1611387   -6.1213772    128.03939  0.039372505   0.04142842            8 
  272000    1.1357438   -6.1394502    128.53058  0.039378242  0.041394195            3 
  273000    1.1679421   -6.1071963    129.43881  0.039511236    0.0413597            3 
  274000    1.1454604    -6.084108    130.26273  0.039617618  0.041327673            1 
  275000    1.1242657   -6.0854025    130.32526  0.039492503  0.041295851            2 
  276000    1.1664896   -6.0865086    130.87324  0.039514868  0.041264847            2 
  277000     1.155806   -6.0966019    131.32888  0.039509291  0.041237505            3 
  278000    1.1584355   -6.1120839    131.39905  0.039388203     0.041206            2 
  279000    1.1244975   -6.1164996    131.81898  0.039372455  0.041172568            3 
  280000    1.1387092   -6.1489448    131.72204  0.039202988  0.041139568            2 
  281000    1.1480617   -6.1279388    132.70102  0.039353802  0.041106865            4 
  282000    1.1450515   -6.1143833    133.07242     0.039324  0.041075239            2 
  283000    1.1377495    -6.108829    133.27449  0.039244548  0.041042982            3 
  284000    1.1312076   -6.1281422    133.56433  0.039191411  0.041010817            4 
  285000     1.140737    -6.104689     133.9833  0.039176404  0.040978411            3 
  286000    1.1300719   -6.1049172    134.37868  0.039154627  0.040946331            6 
  287000    1.1102575   -6.1386907    134.97699  0.039191925  0.040914772            2 
  288000     1.180886   -6.1122181    135.63197  0.039245361  0.040884113            2 
  289000    1.1336729   -6.1128407    136.20714  0.039275416  0.040854824            3 
  290000    1.1374777    -6.117924    136.31148  0.039169965  0.040826151            2 
  291000    1.1490724   -6.0984577    137.60428  0.039405578  0.040799796            4 
  292000     1.115262   -6.1151101    137.85327  0.039341687  0.040774308           10 
  293000    1.1225534   -6.0984525    138.58981  0.039416896  0.040748969            4 
  294000    1.1540987   -6.1048354    139.10658  0.039429302  0.040724325            3 
  295000    1.1723991   -6.1191687    139.43619  0.039388753   0.04070136            5 
  296000    1.1257978   -6.1127303    140.10626  0.039444329  0.040679228            3 
  297000    1.1442047   -6.1132976    139.96138   0.03927087  0.040654956            3 
  298000    1.1294029   -6.1438667    140.80437  0.039374824  0.040629551            6 
  299000    1.1548662   -6.1324131     140.5257  0.039165469  0.040604411            4 
  300000    1.1132286   -6.1520435    141.23828  0.039232855  0.040580038            1 
  301000    1.1171202   -6.1544059    140.94715  0.039021914  0.040554377            2 
  302000    1.1281074   -6.1183455    142.43359  0.039302868  0.040528388            4 
  303000    1.1462844   -6.1348544    142.41424  0.039167832  0.040504738            2 
  304000    1.1224683   -6.1770114    142.22217  0.038986339   0.04047976            3 
  305000    1.1050088   -6.1284712    142.48912  0.038931453  0.040452419            2 
  306000    1.1403478   -6.1294305    143.58741  0.039103326  0.040424948            2 
  307000    1.1488897   -6.1598116     143.5203  0.038957735  0.040398811            3 
  308000     1.147523   -6.1361449    143.85304  0.038921276  0.040371144            2 
  309000    1.1211481    -6.145869    144.55289  0.038984058  0.040346044            4 
  310000    1.1168014   -6.1298029    144.83302  0.038933607  0.040319221            3 
  311000    1.1030041   -6.1338331    145.23801  0.038916937  0.040291728            4 
  312000    1.1153806   -6.1433688    145.48889  0.038859213  0.040262884            3 
  313000    1.1501964    -6.141801    145.47455  0.038731242  0.040233464            4 
  314000     1.126025   -6.1555212    145.23001  0.038542995  0.040203386            3 
  315000    1.1567827   -6.1298118    146.30138  0.038704068  0.040174159            1 
  316000    1.1335476   -6.1265707    146.72726  0.038693898  0.040145017            6 
  317000    1.1606459   -6.1559376    147.42841  0.038756155  0.040115081            3 
  318000    1.1403556   -6.1316483    147.82324  0.038737747  0.040087486            3 
  319000    1.1189774   -6.1408114    148.08147  0.038683771  0.040060317            4 
  320000    1.1397595   -6.1475459    148.21224  0.038596937  0.040032859            2 
  321000    1.1069796   -6.1115661    148.82674  0.038636225  0.040004938            3 
  322000    1.1206781   -6.1238883    149.07616  0.038580786  0.039976769            3 
  323000    1.1203642   -6.1615141    149.54866  0.038583246  0.039948108            2 
  324000    1.1201286   -6.1123731     149.9869  0.038576877  0.039918689            2 
  325000    1.1191446   -6.1441747    149.72254  0.038390394  0.039890964            4 
  326000    1.1185827   -6.1459225    150.43779  0.038455468  0.039863725            7 
  327000    1.1125188   -6.1776817    150.39124  0.038326004  0.039834121            2 
  328000    1.1341148   -6.1477445    150.86488  0.038329492    0.0398045            3 
  329000    1.1233103   -6.1699279    151.23487  0.038306705  0.039774437            3 
  330000    1.1109327   -6.1447302    151.23735  0.038191249  0.039742487            3 
  331000    1.1230822   -6.1560129     151.5885  0.038164275  0.039709278            4 
  332000    1.1063823   -6.1407526    152.03422    0.0381612  0.039677637            3 
  333000    1.1300544   -6.1558321    151.55156  0.037925815  0.039646453            2 
  334000    1.1053994   -6.1472849    151.73069  0.037856958   0.03961293            2 
  335000    1.0981533   -6.1255858    153.61503  0.038212695  0.039579365            2 
  336000    1.1211731   -6.1677761    152.56336  0.037838134  0.039545757            2 
  337000    1.1313792   -6.1582042    153.66775  0.037998948  0.039512238            8 
  338000    1.1144222   -6.1307852    154.08101  0.037988415  0.039478407            6 
  339000    1.1043535   -6.1270502    154.78586  0.038049621  0.039446867            2 
  340000    1.1179852   -6.1715374    154.43153  0.037850865  0.039415998            2 
  341000    1.1233282   -6.1656082    155.65007  0.038037651  0.039385854            2 
  342000    1.1276496   -6.1554562    156.97703  0.038249763  0.039357189            3 
  343000    1.1294381   -6.1687462    156.91407  0.038122953  0.039330473            3 
  344000     1.103573   -6.2018848    157.52833  0.038160932  0.039303361            4 
  345000     1.098028    -6.163425    157.49893  0.038043221  0.039276889            3 
  346000    1.1165964   -6.1390039    158.47196  0.038167621  0.039250608            4 
  347000    1.1213212   -6.1920812    158.39469  0.038039071  0.039223252            3 
  348000    1.0911145   -6.1908927    158.70786  0.038004756  0.039195801            1 
  349000    1.1109596   -6.1417107    159.71604   0.03813659  0.039169656            2 
  350000    1.1254289   -6.1445674    159.32991  0.037935694  0.039142455            3 
  351000    1.1139067   -6.1584509    160.14616  0.038021405  0.039115669            2 
  352000    1.0934497   -6.1402783    160.21182  0.037928935  0.039089125            5 
  353000    1.1012915     -6.15767    160.40757  0.037867699  0.039062554            2 
  354000    1.1428649   -6.1354596    161.39678  0.037993593  0.039036273            3 
  355000    1.1291583    -6.138305    161.94931   0.03801627  0.039010893            3 
  356000    1.1316059   -6.1656745    162.03706  0.037930023   0.03898422            2 
  357000    1.1063222   -6.1729594    161.90235  0.037792332  0.038957397            3 
  358000    1.1125494   -6.1634674     162.7338  0.037880308  0.038931499            3 
  359000    1.1186321   -6.1540137    163.06738  0.037852224  0.038904498            3 
  360000    1.1017901    -6.167306    163.55578  0.037860134  0.038878886            3 
  361000    1.1144525   -6.2094367    163.74559  0.037799075  0.038852916           10 
  362000    1.1031532   -6.1635286    163.67779   0.03767905  0.038825827            2 
  363000    1.1057287   -6.1530816    164.07046  0.037665395  0.038798894            2 
  364000    1.1127399   -6.1787966     164.8644   0.03774368  0.038771707            2 
  365000    1.1120067   -6.1755901    165.29239  0.037737987   0.03874588            4 
  366000    1.1042033   -6.2106778    165.26066  0.037627655  0.038719694            4 
  367000    1.1276976   -6.2238401     165.2783  0.037529133  0.038693704            2 
  368000     1.123563   -6.2031052    165.82567  0.037551102   0.03866717            2 
  369000    1.1306736   -6.1879084    166.36545  0.037571241  0.038639883            4 
  370000    1.1026868   -6.1694409    166.58326  0.037518753  0.038611419            3 
  371000    1.1096314   -6.1993493    166.02949  0.037293236  0.038582573            3 
  372000    1.1124388   -6.2036283     166.4115  0.037278562  0.038552062            3 
  373000     1.088399     -6.19253     166.6749  0.037237466  0.038522454            2 
  374000    1.0864939   -6.1644552    167.42216  0.037304404   0.03849278            1 
  375000     1.100058   -6.1624257      168.017  0.037337111  0.038463984            3 
  376000    1.0858977   -6.2326598    167.78791  0.037187036  0.038434075            6 
  377000    1.1097417   -6.2302472    168.03568  0.037143165  0.038404721            3 
  378000    1.0773818   -6.2086705    168.18064  0.037076861  0.038374482            2 
  379000    1.1154363   -6.2033872    168.79375  0.037113842  0.038342653            1 
  380000    1.0912732   -6.2131227    168.58416  0.036970211  0.038311609            2 
  381000    1.0971623   -6.2140556     169.0724  0.036979965  0.038280321            3 
  382000    1.0760934   -6.1924269     169.3381  0.036941121  0.038249727            4 
  383000    1.1081781   -6.2069573    169.89624  0.036966111  0.038217829            3 
  384000    1.1121607   -6.2266771    169.88707  0.036867853  0.038187145            4 
  385000    1.1286667   -6.2197372     170.3697  0.036876558  0.038155993            3 
  386000    1.0966579   -6.2225245    170.06915  0.036716139  0.038123967            3 
  387000    1.1090724   -6.2207087    171.11017  0.036845428  0.038091608            1 
  388000    1.1100579   -6.2099672    170.87853  0.036700714   0.03805937            4 
  389000    1.1152763   -6.1811711    171.69087  0.036780391  0.038028451            2 
  390000    1.0934418   -6.2052267    171.94795  0.036741015  0.037996686            2 
  391000     1.107543   -6.2291767    172.03825  0.036666294  0.037965607            5 
  392000     1.089938   -6.2571362    172.13333   0.03659297  0.037933922            5 
  393000    1.0890015   -6.2197435    173.23088  0.036732586  0.037902989            4 
  394000    1.0632704   -6.2394139    173.09997  0.036611668  0.037872295            2 
  395000    1.0812463   -6.2109383    173.97207  0.036702967  0.037841443            2 
  396000    1.1224572    -6.221765    174.29946  0.036679178  0.037811396            4 
  397000    1.1026755   -6.2343701    174.37242  0.036602103   0.03778121            5 
  398000    1.1002607   -6.2006485    174.81572  0.036602956  0.037750177            8 
  399000     1.090252    -6.218091    174.96885  0.036543202   0.03772085            4 
  400000    1.1071307   -6.2180464     176.0988   0.03668725  0.037691844            3 
  401000    1.0849154   -6.2061254    176.36112  0.036650275  0.037662575            4 
  402000    1.0772947   -6.2329172    176.52959  0.036594027  0.037634036            4 
  403000    1.0986306   -6.2120134     176.6114   0.03652014  0.037605549            2 
  404000    1.1103469   -6.2054676    177.64009  0.036641934  0.037577986            6 
  405000    1.0971312   -6.2228342    177.63578  0.036550572  0.037550191            2 
  406000     1.086946   -6.2214875    178.68793  0.036676505  0.037522658            6 
  407000    1.0856652   -6.1802768    179.64082  0.036781494  0.037496397            2 
  408000    1.1002694   -6.1921871    179.81273  0.036726455  0.037471217            5 
  409000    1.0825087   -6.2552155    180.05769  0.036686571  0.037445712            3 
  410000    1.0894687   -6.1819451    180.32904  0.036652244  0.037420549            1 
  411000    1.1190598    -6.236081    180.19643  0.036536177  0.037395457            4 
  412000    1.0966002   -6.2041286    181.01424  0.036612913  0.037370021            3 
  413000    1.1063971   -6.2294006     180.6834  0.036457505  0.037344188            2 
  414000    1.0864758   -6.2395063    181.59054  0.036552041  0.037319071            4 
  415000    1.0983014   -6.2452641    181.15555  0.036376617  0.037293636            4 
  416000    1.0761191   -6.2044444    182.19005  0.036496404  0.037268362            3 
  417000    1.0998327   -6.2799663    181.76955   0.03632485  0.037242928            2 
  418000    1.0570338   -6.2401119    182.46939  0.036377471  0.037217122            3 
  419000    1.0800178   -6.2222149    183.40583  0.036476896  0.037192086            3 
  420000    1.0800755   -6.2634258    182.95456  0.036300508  0.037166272            4 
  421000    1.0743757    -6.249092    183.47738  0.036317771  0.037140541            2 
  422000    1.0874991   -6.2067895    183.55836  0.036247702  0.037114053            3 
  423000    1.1076474   -6.2550252     184.0472  0.036258314  0.037086446            4 
  424000    1.0785325    -6.238563    184.27967  0.036218489  0.037059459            8 
  425000    1.1094468   -6.2698635    184.49703  0.036175888  0.037032931            4 
  426000    1.0887649   -6.2515751    183.98891  0.035991571  0.037006259            4 
  427000    1.0894498   -6.2194246      185.431   0.03618872  0.036978912            1 
  428000    1.1037344   -6.2146823    185.52084  0.036121659  0.036952163           12 
  429000    1.0918819   -6.2522748     185.8266  0.036096852  0.036924926            3 
  430000    1.0692934   -6.2757643     185.8581  0.036019012  0.036898187            4 
  431000    1.0921993   -6.2608181    186.56047  0.036071243  0.036871483            5 
  432000    1.0507314   -6.2034306    187.63937  0.036195865  0.036845228            5 
  433000    1.1048943   -6.2163498    187.24646  0.036036654  0.036819178            3 
  434000    1.1168731   -6.2412695    188.58509  0.036210654  0.036792401            6 
  435000    1.0783715   -6.2436032    187.91645   0.03599932   0.03676616            1 
  436000    1.0816768   -6.2988943    187.33762   0.03580612  0.036738863            1 
  437000    1.0851599   -6.2929649     187.8584  0.035823494  0.036711686            5 
  438000    1.0749485   -6.2307456    189.06373  0.035971029  0.036684814            3 
  439000    1.0651179   -6.2346706    189.25698  0.035925775  0.036658864            6 
  440000    1.0775304   -6.2353703    190.15248  0.036013727   0.03663405            9 
  441000    1.0702062   -6.2541771     190.1123  0.035924471  0.036609076            5 
  442000    1.0890592    -6.260026    189.70521  0.035766443  0.036584078            5 
  443000    1.0689712   -6.2865548    190.43627  0.035823226  0.036558196            3 
  444000    1.0727614   -6.2490007    190.48222  0.035751168  0.036532878            4 
  445000    1.0859201   -6.2696337    191.20505  0.035806189  0.036507306            4 
  446000    1.0794101   -6.2623227    191.58008   0.03579598  0.036481577            4 
  447000    1.0574721   -6.3002666    191.49073  0.035699242  0.036455071            2 
  448000     1.050966   -6.2727348    191.50948  0.035623043  0.036429598            5 
  449000    1.0685419   -6.2640672    192.34708   0.03569916   0.03640434            4 
  450000    1.0870545   -6.2408402    193.13634  0.035765988  0.036379165            4 
  451000    1.0624808   -6.2647775    192.72631  0.035610921  0.036353999            2 
  452000    1.0919016   -6.2680887     193.0118  0.035584771  0.036329315            2 
  453000    1.0572933   -6.2842743    193.89169  0.035668082  0.036305139            3 
  454000    1.0632956   -6.2945432     193.7455  0.035562683  0.036279639            3 
  455000     1.072656   -6.3239547    193.59411  0.035456797  0.036253264            5 
  456000    1.0570338   -6.2904816    194.04087  0.035460685  0.036227073            3 
  457000    1.0860206   -6.2596369     194.5706  0.035479686  0.036201375            5 
  458000    1.0663371   -6.2641708    194.70606  0.035426866  0.036175614            3 
  459000    1.0556232   -6.2830686    194.89594  0.035384157  0.036149417            3 
  460000    1.0599729   -6.2776636    195.79878  0.035470793   0.03612368            6 
  461000    1.0402073    -6.328392    194.93732  0.035238127  0.036098438            7 
  462000    1.0714002   -6.2626049    196.21698  0.035392672  0.036072704            4 
  463000    1.0810218   -6.2596944    197.46316  0.035540526  0.036047933            3 
  464000    1.0920259    -6.272435    196.94599  0.035371046   0.03602383            4 
  465000    1.0702822    -6.260693    197.62036  0.035415835  0.035999823            4 
  466000    1.0782116   -6.2685282    197.45075  0.035309504  0.035975067            3 
  467000    1.0738884   -6.2956613    197.33507  0.035213254  0.035949209            3 
  468000    1.0702196   -6.2784148    198.16402  0.035285617  0.035923251            2 
  469000    1.0572302   -6.2727102    197.92279  0.035167518    0.0358976            3 
  470000    1.0577973   -6.2757051    198.18222  0.035138692   0.03587154            4 
  471000     1.071904   -6.2996596    198.89542  0.035190273  0.035845651            3 
  472000     1.043504   -6.3383723    198.21519  0.034995619  0.035819339            6 
  473000    1.0721847   -6.2837302    199.96017  0.035229064  0.035793791            2 
  474000    1.0606813   -6.3017315    199.12018  0.035007063  0.035769336            2 
  475000    1.0484441   -6.3106228    200.18149   0.03511956  0.035743517            7 
  476000    1.0742479   -6.3030842    199.74947  0.034970146  0.035717675            3 
  477000     1.071713   -6.3027481    200.25858  0.034985776  0.035691318            3 
  478000     1.060644   -6.3202861     201.0262  0.035046409  0.035665663            4 
  479000    1.0815318   -6.3003593    201.53142  0.035061137  0.035640189            3 
  480000    1.0664409   -6.3032085    201.41718   0.03496826  0.035614926            3 
  481000    1.0625054   -6.2744949    202.59608  0.035099807  0.035589983            3 
  482000    1.0770205   -6.3085303    201.77487  0.034885005  0.035564471            5 
  483000    1.0596487   -6.3049541    202.31854   0.03490658  0.035538531            2 
  484000    1.0762615   -6.3101277    201.91584  0.034765124  0.035513547            5 
  485000     1.054226   -6.2843236    202.98695  0.034877483  0.035488183            5 
  486000    1.0507271   -6.3011875    203.03978  0.034814776  0.035463033            6 
  487000     1.035192   -6.2770607    203.95711  0.034900259  0.035438177            3 
  488000    1.0678719   -6.3318008    204.59745  0.034938089  0.035413783            5 
  489000    1.0685076   -6.2610914    205.58335  0.035034655  0.035389193            3 
  490000    1.0446551   -6.3414572    204.43413   0.03476771  0.035365148            3 
  491000        1.061   -6.3186886    203.99977  0.034623179  0.035340175            3 
  492000    1.0475268   -6.3365607    205.36042  0.034783268  0.035315729            6 
  493000     1.048227   -6.3692261    204.87784  0.034631143  0.035291243            5 
  494000    1.0504639   -6.3428882    205.34132  0.034639224  0.035266524            3 
  495000    1.0278128   -6.3268296       206.21  0.034715489   0.03524134            2 
  496000    1.0563633   -6.3198871    206.76408  0.034738588  0.035216375            6 
  497000    1.0486809   -6.3000768     206.7604  0.034668075  0.035191016            8 
  498000    1.0526014   -6.3094126    206.83085  0.034610249  0.035165705            4 
  499000     1.042727   -6.3302117    206.96937  0.034564023  0.035140166            3 
  500000    1.0332982   -6.2831545     208.1379   0.03468965  0.035115562            7 
  501000    1.0702996   -6.3289529    208.10824  0.034615476  0.035091589            3 
  502000    1.0453762   -6.3544042    208.75165  0.034653328  0.035067769            2 
  503000    1.0610588   -6.3182674    208.33346  0.034515153  0.035043999            5 
  504000    1.0559913   -6.2976978    208.55954  0.034484051  0.035019239            5 
  505000    1.0628144   -6.2948097    208.60458  0.034423197  0.034994538            5 
  506000    1.0553153   -6.3497584    208.52866  0.034342664  0.034969559            4 
  507000    1.0405893    -6.336495    208.64332  0.034293774  0.034944843            2 
  508000    1.0419097   -6.3300729     209.7303  0.034404577  0.034919888            5 
  509000     1.050133   -6.3025142    209.60293  0.034316132   0.03489551            5 
  510000    1.0420506   -6.3314735    209.99806  0.034313408  0.034870641            6 
  511000    1.0602907   -6.3104333     210.0439  0.034253734  0.034845743            3 
  512000    1.0206627   -6.3257644    210.90598  0.034327145  0.034820432            2 
  513000    1.0759989   -6.3274243    211.00075  0.034275625  0.034796808            2 
  514000    1.0483448   -6.3241096    211.28194  0.034254529  0.034772421            4 
  515000    1.0502007   -6.3546821    211.26631  0.034185487  0.034747997            3 
  516000     1.065062   -6.3619761    210.84001  0.034050389  0.034722233            1 
  517000    1.0416421   -6.3210606    211.68118  0.034120113  0.034696975            5 
  518000    1.0804142   -6.3737244    212.34918  0.034161708  0.034671636            6 
  519000     1.040529   -6.3241566    212.40897  0.034105486  0.034647173            4 
  520000      1.06614   -6.3077464    213.02169  0.034138091  0.034622867           10 
  521000    1.0326573   -6.3138775     214.0187  0.034232037  0.034599513            5 
  522000    1.0370238   -6.3773292    213.23702   0.03404167  0.034576292            6 
  523000    1.0378855   -6.3230002     215.3504   0.03431332   0.03455314            3 
  524000    1.0590676   -6.3122518    214.64876  0.034136253  0.034530215            4 
  525000    1.0237734   -6.3312493    215.49888  0.034206172    0.0345077            7 
  526000     1.033121   -6.3016069    215.54548  0.034148523    0.0344842            7 
  527000    1.0378555   -6.3173915    215.80286  0.034124425  0.034461647            4 
  528000    1.0246538   -6.2997299    216.69969   0.03420134  0.034438685            4 
  529000    1.0517827   -6.3289022    216.44772  0.034096994  0.034416679            6 
  530000    1.0375545   -6.3091485     217.1215    0.0341386  0.034393893            3 
  531000    1.0317366   -6.3596996    216.89919   0.03403942  0.034371598            2 
  532000    1.0333561    -6.356746    217.77769  0.034113047  0.034349644            5 
  533000    1.0797373    -6.347191    218.02363  0.034087497  0.034327463            5 
  534000    1.0273528   -6.3421849    218.15585  0.034044296  0.034305504            5 
  535000     1.022413   -6.3532251    218.05757  0.033965354  0.034282719            2 
  536000    1.0349341   -6.3031998    218.48415  0.033968306  0.034260059            1 
  537000    1.0565911   -6.3589847    217.93649  0.033820063  0.034237174            5 
  538000    1.0410286   -6.3659712    218.70668  0.033876499   0.03421385            6 
  539000    1.0549638   -6.3519063     218.6768  0.033809029  0.034191173            3 
  540000     1.030481   -6.3308979    219.17671  0.033823567  0.034168833            4 
  541000    1.0407262   -6.3228725    219.38967  0.033793849  0.034145436            4 
  542000    1.0592826   -6.3445978    219.75936  0.033788339  0.034122339            5 
  543000    1.0405049   -6.3701404    219.14007  0.033631073  0.034098993            5 
  544000    1.0521117    -6.351854    219.21664   0.03358098  0.034075722            3 
  545000     1.024958   -6.3602652    219.86235  0.033618097  0.034052174            2 
  546000    1.0680653   -6.3602702    220.64536  0.033676032  0.034028613            3 
  547000    1.0234202   -6.3686997     221.0201  0.033671557  0.034005443            5 
  548000    1.0292314   -6.3188146    221.83883  0.033734615  0.033982091            3 
  549000    1.0225212   -6.3749063    220.82932  0.033519934  0.033958861            3 
  550000    1.0094543   -6.4087352    220.92794  0.033473931  0.033935266            2 
  551000    1.0383568   -6.3548986    221.36858  0.033479821  0.033910904            3 
  552000     1.041836   -6.3978427    221.70311  0.033469673   0.03388717            3 
  553000    1.0182684   -6.3450158    222.87249  0.033585366   0.03386357            4 
  554000    1.0208572   -6.3285335    223.83327  0.033669265  0.033840521            3 
  555000    1.0215792    -6.404069    222.58313  0.033420891  0.033817613            3 
  556000     1.014557   -6.3683513    222.75394  0.033386382  0.033794166            5 
  557000    1.0325746   -6.3084931    224.30826  0.033558986  0.033770731            4 
  558000    1.0279028   -6.3695269    223.85727  0.033431492  0.033747637            5 
  559000     1.028039   -6.3468975    224.58053  0.033479507  0.033724851            4 
  560000    1.0494979   -6.4003609    223.59799   0.03327351  0.033701686            4 
  561000    1.0322742   -6.3856188    224.86535  0.033402458  0.033678563            3 
  562000    1.0560256   -6.3540438    225.20502   0.03339339  0.033655284            2 
  563000    1.0219804   -6.3830112    225.41808  0.033365612  0.033632559            3 
  564000    1.0515565   -6.3861261    225.44497  0.033310428  0.033609714            4 
  565000    1.0354709   -6.4182929    225.19106  0.033214021  0.033586861            3 
  566000    1.0282031   -6.4152558    225.29671  0.033170894  0.033563375            4 
  567000    1.0206886   -6.3611806    226.47735  0.033285912  0.033540652            2 
  568000    1.0226425    -6.346675    227.16356  0.033327987  0.033518315            1 
  569000    1.0024692   -6.3940828    226.98076  0.033242642  0.033496015            4 
  570000    1.0512138   -6.3919555    226.10224  0.033055883  0.033473155            6 
  571000    1.0563734   -6.3638986    227.17847   0.03315506  0.033450386            3 
  572000      1.04258   -6.4165327    226.84479  0.033048484  0.033427307            3 
  573000     1.014105   -6.4372416    227.64206  0.033106756  0.033403954            4 
  574000    1.0113887   -6.3800435    228.04726  0.033107906  0.033381037            3 
  575000   0.99893769   -6.3768531    228.65173  0.033137932  0.033358022            3 
  576000    1.0262831   -6.3953392     227.8643  0.032966479  0.033335208            3 
  577000    1.0229573   -6.3703264    228.99743  0.033072997  0.033312054            9 
  578000     1.038309    -6.401052    228.72888  0.032977058  0.033289517            3 
  579000    1.0273313   -6.4174097    229.60186  0.033045749  0.033267233            4 
  580000    1.0237531   -6.4345566     229.8988  0.033031437   0.03324452            5 
  581000    1.0122653   -6.4183883    229.21226  0.032876112  0.033221542            4 
  582000    1.0274838   -6.3773693     230.5512   0.03301134  0.033199325            3 
  583000    1.0086496   -6.4257886    229.69639  0.032832532  0.033176839            6 
  584000    1.0199975   -6.4082089    230.51262  0.032892783  0.033154406            6 
  585000    1.0239484   -6.4237946    230.84415  0.032883782  0.033132032            3 
  586000    1.0064899   -6.4047851    231.09837  0.032863819  0.033109808            3 
  587000   0.98094144   -6.4031148     231.7984  0.032907212  0.033087992            5 
  588000    1.0310262   -6.4077517    231.83264    0.0328561   0.03306577            5 
  589000    1.0018872   -6.4253477    231.93491  0.032814786  0.033043926            3 
  590000    1.0178368   -6.3829986    232.74258  0.032873245  0.033022158            6 
  591000    1.0157431   -6.3669788    232.73042  0.032815909  0.033000969            6 
  592000    1.0162658   -6.3895889    232.62349  0.032745423  0.032979077            3 
  593000    1.0211337   -6.4103285    232.68019  0.032698171    0.0329572            3 
  594000    1.0342882   -6.4475787    233.08938  0.032700531  0.032934878            4 
  595000   0.99262086   -6.4283638      232.984  0.032630812   0.03291249           13 
  596000    1.0180135   -6.4315979    234.00839  0.032719294  0.032890243            6 
  597000     1.034339   -6.4120926    233.54527  0.032599842  0.032868048            6 
  598000    1.0143761   -6.4155049    234.51207  0.032680054  0.032846154            2 
  599000    1.0314621   -6.4148935    234.15847  0.032576303  0.032824502            3 
  600000     1.023444   -6.3964112    234.43108  0.032559873  0.032802724            3 
  601000    1.0026857   -6.4394516    234.84191  0.032562661    0.0327809            6 
  602000    1.0069218   -6.4408882    235.63631  0.032618536  0.032759129            4 
  603000    1.0013233   -6.4090794    235.49936  0.032545517   0.03273736            8 
  604000    1.0498422   -6.4154791    235.73532  0.032524189  0.032715797            5 
  605000    1.0168277   -6.3911376    236.50021  0.032575787  0.032694883            3 
  606000    1.0143025   -6.4077255    236.78112   0.03256066   0.03267406           10 
  607000    1.0241194   -6.4493266    236.59321   0.03248122     0.032653            4 
  608000    1.0083844   -6.4520717    236.45795  0.032409259  0.032631505            8 
  609000     1.010781    -6.424578    237.06719  0.032439408  0.032609658            4 
  610000    1.0031194   -6.4074898    237.72506  0.032476101  0.032588575            4 
  611000    1.0007202   -6.4383001    237.53241  0.032396674  0.032568132            6 
  612000   0.99970446   -6.4223187    238.70294  0.032503124  0.032547674            2 
  613000    1.0202317   -6.4253351    238.68289  0.032447376  0.032527058            3 
  614000   0.99632688   -6.4223326    240.03618    0.0325782  0.032506349            5 
  615000    1.0073272   -6.4487015    239.38317  0.032436744  0.032486119            4 
  616000    1.0099046   -6.4507987    240.08714  0.032479321  0.032466245            3 
  617000    1.0202966   -6.4526709    239.78998  0.032386545  0.032445849            3 
  618000    1.0093682   -6.4559515    240.17721  0.032386355  0.032425499            6 
  619000   0.99592001   -6.4394248     239.3048  0.032216586  0.032404978            5 
  620000    1.0001151   -6.4018489    241.17986  0.032416648  0.032385234            3 
  621000   0.99795121   -6.4307372    241.32003  0.032383257  0.032365091            3 
  622000    1.0065007   -6.4536742    241.66592  0.032377535  0.032344848            3 
  623000    1.0029406   -6.4353743    241.57664  0.032313622  0.032324691            4 
  624000    1.0294942   -6.4772526    240.03669  0.032056182  0.032303416            3 
  625000    1.0094542   -6.4554034    241.63957  0.032218609  0.032281659            2 
  626000    1.0087085   -6.4611251    241.20781  0.032109666  0.032260029            7 
  627000    1.0016826   -6.4517424    241.52927  0.032101179  0.032238205            3 
  628000    1.0074759   -6.3966879    241.92662   0.03210279  0.032216449            4 
  629000    1.0014654   -6.4612874    241.04035  0.031934333  0.032195198            7 
  630000   0.99786653   -6.4437663    242.30383  0.032050771  0.032174174            6 
  631000    1.0007011    -6.423414    243.63747  0.032176106  0.032153547            4 
  632000      1.00371    -6.432314    243.83242  0.032150899  0.032133178            6 
  633000   0.99696749   -6.4430785    243.48313  0.032054124  0.032112707            5 
  634000   0.99341151   -6.4446084    244.40826  0.032125165  0.032092615            3 
  635000    1.0067417   -6.4779886    243.59123  0.031967353  0.032072262            8 
  636000    1.0006831   -6.4909923    243.44355   0.03189774  0.032051498            3 
  637000   0.97998329   -6.4774158    243.58416   0.03186606  0.032030457            2 
  638000   0.97496011   -6.4662294    244.60893  0.031949965  0.032009311            5 
  639000   0.98821156   -6.5022321    244.44977  0.031879208  0.031987843           13 
  640000    1.0128504   -6.4616457    244.69279  0.031861041  0.031966889            5 
  641000   0.99073759   -6.4940517    244.31816  0.031762631  0.031945392            2 
  642000    1.0112369   -6.4462354    245.09012   0.03181336  0.031924184            3 
  643000    1.0053101   -6.4600496    244.97918  0.031749505  0.031902817            4 
  644000    1.0016891   -6.4773977    246.41078  0.031885453  0.031881584            2 
  645000   0.98370061   -6.4048293    246.27441  0.031818399  0.031859907            5 
  646000   0.98298427   -6.4791741    246.24791  0.031765726  0.031838689            6 
  647000   0.99584237   -6.4342505    247.01141  0.031814968  0.031817213            3 
  648000   0.99704391   -6.4513606    246.45935  0.031694875  0.031796334            4 
  649000   0.96761776   -6.4781337    246.96338  0.031710758  0.031775338            4 
  650000    1.0154234   -6.4991209    247.40461   0.03171854   0.03175435            5 
  651000   0.99326281   -6.4510925    247.87469  0.031729991  0.031733324            5 
  652000    0.9913674   -6.4902698    247.16637  0.031590794  0.031712046           10 
  653000    1.0084672   -6.4014337    248.09009  0.031660297  0.031691055            6 
  654000   0.95524736   -6.4595747    248.38764  0.031649801   0.03167016            6 
  655000   0.97474921   -6.4721931    247.88096  0.031537018  0.031649137            7 
  656000   0.98468913   -6.4865412    247.83727  0.031483393  0.031627411            3 
  657000    1.0027471   -6.4750739    248.46938  0.031515649  0.031606037            3 
  658000   0.98079079   -6.4661546    248.72663  0.031500333  0.031584541            3 
  659000   0.99373077    -6.474738    249.40119  0.031537834  0.031562979            7 
  660000    1.0017081   -6.5040511    248.83133  0.031418097  0.031541522            5 
  661000   0.98808108   -6.4847596    249.49983  0.031454845  0.031520265            7 
  662000   0.98918534   -6.5054083    247.86064  0.031200987  0.031498446            5 
  663000   0.99106905   -6.4812043    249.37558  0.031344342  0.031476933            5 
  664000     1.016378   -6.4675412    249.35117  0.031294072  0.031455315            4 
  665000   0.98303768   -6.4691141    250.78514  0.031426709  0.031433746            6 
  666000   0.98263889    -6.494005    249.69993  0.031243735  0.031412434            5 
  667000   0.99245951   -6.4695117     250.3748   0.03128121  0.031390704            4 
  668000    1.0071222   -6.4781004    250.37436  0.031234326  0.031369467            3 
  669000    1.0028295   -6.4905185    250.79657  0.031240231  0.031347777            8 
  670000   0.95697756   -6.5078681    250.30469  0.031132425  0.031326127            3 
  671000   0.98128588   -6.4764064    252.14883  0.031315056  0.031304751            2 
  672000    0.9974023   -6.4620879     251.7043  0.031213331  0.031283717            4 
  673000    1.0013078   -6.5013198    252.31538  0.031242618   0.03126268            3 
  674000   0.99167261   -6.4860234    252.02447  0.031160296   0.03124162            2 
  675000   0.98225043     -6.47132    252.59381  0.031184421  0.031221221            4 
  676000   0.97976866   -6.4717819    253.32342  0.031228232  0.031200676            4 
  677000   0.97627597   -6.5006053    252.81527  0.031119556  0.031180285            2 
  678000     1.006923   -6.4764831    253.41484   0.03114735  0.031159528            3 
  679000   0.98398015   -6.4968954    253.43491  0.031103941   0.03113889            6 
  680000   0.98842984   -6.4718226    253.99013  0.031126241  0.031118368            5 
  681000   0.96930263   -6.5024443     254.0623  0.031089366  0.031097512            4 
  682000   0.99484263   -6.4964868    253.65194  0.030993639  0.031076965            3 
  683000   0.98325036   -6.5123266    254.55592  0.031058555  0.031056363            5 
  684000   0.97712844   -6.5103908    254.05258  0.030951826  0.031035873            6 
  685000   0.98444414   -6.5071748    255.05373  0.031028434  0.031015306            6 
  686000   0.98802258   -6.5157031    254.60115  0.030928225  0.030994943            4 
  687000   0.99694234   -6.5034405    255.26691  0.030963963  0.030974558            5 
  688000   0.96580759   -6.4974019    255.48262  0.030945085  0.030954227            4 
  689000   0.98161903   -6.4993436    255.65235    0.0309207  0.030933858            3 
  690000    1.0021852   -6.5194343    255.89364  0.030905029  0.030913365            2 
  691000   0.96173869    -6.502698    256.04952  0.030879102  0.030892836            4 
  692000   0.98235325   -6.4999529    256.66974  0.030909169  0.030872438            5 
  693000   0.99032725   -6.5470996    256.44241   0.03083723  0.030851874            6 
  694000   0.97409942   -6.5443589    256.58142  0.030809488  0.030831363            4 
  695000   0.96786972   -6.5176926    256.55042  0.030761441  0.030810558            3 
  696000   0.97860672   -6.5100984    257.19245  0.030794116  0.030790391            7 
  697000   0.96136903   -6.5039953    257.10892  0.030739947  0.030770144            4 
  698000   0.97529729   -6.4787763    258.03982  0.030807046  0.030750293            3 
  699000   0.99201579   -6.5148216    257.78417  0.030732495  0.030730114            8 
  700000   0.97257506   -6.5174277    257.71724  0.030680624  0.030709568            5 
  701000   0.98292294   -6.5140849    258.52095  0.030732401  0.030689415            2 
  702000   0.97292115   -6.5565128    258.38471  0.030672449  0.030668831            4 
  703000   0.99092257   -6.5283454    259.21517  0.030727261  0.030648442            6 
  704000   0.98289238   -6.5389475    258.47116  0.030595544  0.030627957            3 
  705000    1.0066215   -6.5624391    258.87247  0.030599583  0.030607215            4 
  706000   0.96056411    -6.577248    258.82646   0.03055081  0.030586418            5 
  707000   0.96012955   -6.5205787    260.06714  0.030653835  0.030565721            5 
  708000   0.97262037    -6.586209    259.57056  0.030552091  0.030545277            7 
  709000   0.97473374   -6.5110083     259.8307  0.030539575  0.030524889            8 
  710000   0.96777057   -6.5384303    260.05691  0.030523112  0.030504655            4 
  711000   0.96707356   -6.5437683    259.17503   0.03037682  0.030484052            4 
  712000   0.97229437   -6.5354869    261.07777  0.030556855  0.030463351            3 
  713000   0.98268384    -6.538789    260.22798  0.030414678  0.030442862            6 
  714000   0.97610282   -6.4981819    261.70657   0.03054465  0.030422561            7 
  715000   0.95503463   -6.5293358    261.48942  0.030476622  0.030402177            4 
  716000   0.97296093   -6.5300484    260.59985  0.030330522  0.030381489            4 
  717000   0.95772393   -6.5392104    260.21147  0.030243081  0.030360584            6 
  718000   0.97495361   -6.4968326    260.71897  0.030259862  0.030339549            3 
  719000   0.97891607   -6.4778119    261.56124  0.030315396  0.030318919            6 
  720000   0.96794726   -6.5679227    261.04982  0.030214099  0.030297733            3 
  721000   0.95284796   -6.5348408    261.10345  0.030178392  0.030276322            6 
  722000   0.96905434    -6.537002    261.28737  0.030157821  0.030254601            4 
  723000    0.9762301   -6.5748226    261.30046  0.030117619   0.03023317            6 
  724000   0.94920016   -6.5477641    261.70598  0.030122696  0.030211904            6 
  725000   0.96407606   -6.5623058    262.43148  0.030164538  0.030190125            4 
  726000   0.94161371   -6.5425365    262.40535   0.03011999  0.030168912           11 
  727000   0.97241916   -6.5397002    261.70491  0.029998271  0.030147553            5 
  728000   0.98249593   -6.5499117    262.81251  0.030083849  0.030126212            3 
  729000   0.95950219   -6.5548783     263.1476  0.030080887   0.03010512            4 
  730000   0.95744238   -6.5602259    262.66261  0.029984316  0.030083815            6 
  731000   0.93960989    -6.545307    263.05835  0.029988412  0.030062599            6 
  732000   0.94596601    -6.543969    264.17964  0.030075096  0.030041499            5 
  733000   0.94492346   -6.5349029    264.72614  0.030096196   0.03002064            9 
  734000   0.94543881   -6.5432712     265.0256  0.030089192  0.030000118            7 
  735000   0.95125455   -6.5484248    264.34684  0.029971297  0.029979296            3 
  736000   0.94663538   -6.5637933    264.14992  0.029908279  0.029958024            8 
  737000   0.94591838   -6.5905726    264.20006  0.029873368  0.029936963            5 
  738000   0.95681273   -6.5622136    264.80578  0.029901285  0.029916121           10 
  739000    0.9560047   -6.5778355    264.67782  0.029846394  0.029894933            3 
  740000    0.9458292   -6.5425071    266.01397  0.029956528   0.02987386            8 
  741000   0.96215591   -6.5745776    265.45678  0.029853439   0.02985345            5 
  742000   0.93864185   -6.5747414    266.07077  0.029882162   0.02983266            5 
  743000   0.96743416   -6.5892787    265.39229  0.029765847  0.029811638            4 
  744000   0.96517403   -6.5518058    266.13559  0.029809093  0.029790736            6 
  745000   0.97979944   -6.5501921    266.80655  0.029844134  0.029770168            8 
  746000   0.96377372   -6.5470873    266.37786   0.02975624  0.029749683            5 
  747000   0.94998242    -6.635538    265.59664  0.029629255  0.029729135            3 
  748000   0.95341433   -6.5779465    266.63143  0.029704928  0.029708364            3 
  749000   0.94201993   -6.5583343    267.76553  0.029791447  0.029688383            4 
  750000   0.93875315   -6.5596539    267.70964  0.029745516  0.029668288            5 
  751000   0.94237428    -6.572715    268.26715   0.02976777  0.029648205            5 
  752000    0.9501474   -6.5604468    268.77142  0.029784066  0.029628138            4 
  753000   0.94403812   -6.6121376    267.89714  0.029647757  0.029608185            7 
  754000   0.95716248    -6.578127    269.26955  0.029760118  0.029588203            4 
  755000   0.96766445   -6.5534015    269.44577  0.029740152  0.029568484            6 
  756000   0.93574909   -6.6002001    268.83501  0.029633489   0.02954851            2 
  757000    0.9460928   -6.5833349    268.51887  0.029559541  0.029528258            4 
  758000   0.94634756   -6.5813232    269.49934  0.029628335  0.029508326            2 
  759000   0.94329334   -6.5518237     269.4536  0.029584278  0.029488546            4 
  760000   0.96309573   -6.5903322    269.57951  0.029559157  0.029469006            3 
  761000   0.93096392   -6.5736533    271.38159  0.029717651  0.029449516            6 
  762000   0.94941512   -6.5678462     270.4997  0.029582207   0.02942983            5 
  763000   0.95203826   -6.6256348    270.43954  0.029536865  0.029409882            6 
  764000   0.95460053   -6.5825656    269.91642  0.029441145  0.029389871            4 
  765000   0.94338508   -6.5539439    271.72665  0.029599853  0.029370577            7 
  766000   0.95304657   -6.5742196    271.42778  0.029528697  0.029351283            8 
  767000   0.92301482   -6.6151871    270.98519  0.029442111  0.029331856            3 
  768000   0.96165829   -6.6033955    271.32206  0.029440328  0.029312316            7 
  769000   0.95428034   -6.5534316    271.94421  0.029469463  0.029292932            4 
  770000   0.94035735   -6.5778815    271.34087  0.029365895  0.029273498            2 
  771000   0.94779751   -6.5759555    271.90574  0.029388861  0.029254327            6 
  772000   0.96180907   -6.5933559    272.54347  0.029419632  0.029235212            3 
  773000   0.98904551   -6.6084494    272.52594  0.029379683  0.029216019            8 
  774000   0.96472017   -6.5801461    272.92059  0.029384215   0.02919669            4 
  775000   0.94374037    -6.608693    272.67214  0.029319585  0.029177337            3 
  776000   0.94374222   -6.5606214    273.94855  0.029418874  0.029158004            3 
  777000   0.93312409   -6.5992483    272.70802  0.029247964  0.029138786            5 
  778000   0.94867128   -6.5702592    273.68099  0.029314587   0.02911957            7 
  779000      0.96351   -6.6098171    272.87121   0.02919033  0.029100119            6 
  780000   0.92824342   -6.5860837    274.20799  0.029295726   0.02908061            8 
  781000   0.93775334   -6.5828706    274.27558  0.029265427   0.02906114            5 
  782000   0.95436645   -6.6088891    273.38642   0.02913325   0.02904163            9 
  783000   0.92318021   -6.6049847    273.55249  0.029113717  0.029021784            6 
  784000   0.94771342   -6.5940149    273.98752  0.029122823  0.029001791           10 
  785000   0.95144737   -6.6272403    273.17253  0.028999207  0.028981853            5 
  786000   0.92501449   -6.6019921     274.5417  0.029107475  0.028962146            4 
  787000   0.91760382   -6.6216104    274.21376  0.029035764  0.028942328            3 
  788000   0.94447609   -6.5906052    274.95774  0.029077595   0.02892272            4 
  789000   0.92739693   -6.6443125    273.64399  0.028901984  0.028903274            4 
  790000   0.93421944   -6.6045007    275.91964  0.029105448  0.028883753            3 
  791000   0.93343516   -6.5776485    275.35066  0.029008708   0.02886424            3 
  792000   0.95948549   -6.6196974    275.71697  0.029010624  0.028844926            4 
  793000   0.93988807   -6.5981021    276.04763  0.029008788  0.028825447            4 
  794000   0.94122819   -6.6346011    275.51385  0.028916231  0.028805673            2 
  795000   0.95057478   -6.6014846    276.42983  0.028975873  0.028786004            4 
  796000   0.94441877   -6.6398063    274.81882  0.028770814  0.028766359            7 
  797000   0.95068023    -6.634664    276.34176  0.028893952  0.028746571           11 
  798000   0.94631689   -6.6472786    275.86098  0.028807538  0.028726645            4 
  799000   0.95550255   -6.6516985    275.50545  0.028734402  0.028706876            3 
  800000   0.94818727   -6.5989418    277.49049   0.02890526  0.028687132            7 
  801000    0.9446246    -6.645256    275.85673  0.028699202  0.028667458            4 
  802000   0.93232196   -6.6421626    276.65606  0.028746474  0.028647417            6 
  803000   0.93316476   -6.6296491    276.51676  0.028696218   0.02862736            2 
  804000   0.93340841   -6.6295977    277.13526  0.028724633  0.028607448            3 
  805000   0.94173363    -6.649458    277.08936  0.028684199  0.028587457            3 
  806000   0.93862795   -6.6479631    277.12633  0.028652432  0.028567564            5 
  807000   0.92706993   -6.6204605    277.69977  0.028676144  0.028547781            6 
  808000   0.94053965   -6.6325495    277.62524  0.028632966  0.028528379            5 
  809000   0.93302321   -6.6251703    278.13593  0.028650179  0.028508871            2 
  810000   0.93364244    -6.634252    278.43631  0.028645711  0.028489389            7 
  811000   0.91265215   -6.6214981    278.66257  0.028633638  0.028469944            6 
  812000   0.93000894   -6.5990903    278.79198  0.028611656  0.028450679            4 
  813000   0.93589142   -6.6636062    277.90184  0.028485223  0.028431187            5 
  814000   0.93674293   -6.6554411    278.35994  0.028497127  0.028411291            7 
  815000   0.95671853    -6.631017    278.46131  0.028472526  0.028391497            5 
  816000   0.92758569   -6.6307158    279.30882  0.028524185  0.028371557            6 
  817000    0.9431484   -6.6634816    277.87426  0.028342948  0.028351472            6 
  818000   0.93726795   -6.6673519    279.06301  0.028429402  0.028331144            5 
  819000   0.93064054   -6.6670886    279.54798  0.028444035  0.028310741            5 
  820000    0.9316577   -6.6725378    279.04829  0.028358566  0.028290497            4 
  821000   0.94508594   -6.6453604    279.35284  0.028354937  0.028270154            6 
  822000   0.90058379   -6.6577745    279.30936  0.028316034  0.028249768            6 
  823000   0.92645416    -6.631857    279.55474  0.028306475  0.028229579            6 
  824000   0.93350105   -6.6500874    279.74823   0.02829169  0.028209277            4 
  825000   0.92095621   -6.5991458    280.72449  0.028356009  0.028189289            3 
  826000   0.91263665   -6.6656519    280.15132  0.028263854  0.028169357            3 
  827000   0.90911897   -6.6515688     280.4672  0.028261507  0.028149295            3 
  828000   0.91774113   -6.6641404    280.28975  0.028209516  0.028129137            6 
  829000   0.91696775   -6.6490245    280.25221  0.028171714  0.028108881            8 
  830000   0.91515553   -6.6821297    280.38472  0.028151076  0.028088732            3 
  831000   0.93732194   -6.6570395    280.26328  0.028105022  0.028068416            7 
  832000   0.92471976   -6.6598943     281.0126  0.028146294  0.028048175            4 
  833000   0.91409305   -6.6756102    280.83597  0.028094835  0.028028155            4 
  834000   0.90751648   -6.6689525    281.48715  0.028126214  0.028008112            4 
  835000   0.92829844   -6.6159488    282.43437  0.028187063  0.027988325            5 
  836000   0.92192485   -6.6827727    280.52085  0.027962604  0.027968178            8 
  837000   0.90848847   -6.7054549    281.19219  0.027996037  0.027947947           11 
  838000   0.91688085   -6.6545798    281.72959  0.028016069  0.027927838            8 
  839000   0.92964409   -6.6791133    281.44339  0.027954251  0.027907482            6 
  840000   0.92285005    -6.674964    282.66693  0.028042355   0.02788726            6 
  841000    0.9255277   -6.6622666      282.907  0.028032799  0.027867569            9 
  842000    0.9021188   -6.6473841    282.78672    0.0279876  0.027848039            8 
  843000   0.91887332   -6.6848346    283.12532  0.027987873  0.027828428            9 
  844000   0.92654758   -6.6757562     282.9821  0.027940571  0.027808818            6 
  845000     0.908792   -6.6727011     283.1253  0.027921627  0.027789417            8 
  846000   0.90209789   -6.6809633    283.26546  0.027902429  0.027769719            8 
  847000    0.9104295   -6.7040377    283.46526  0.027889144  0.027749856            5 
  848000   0.91880639   -6.6969602    283.89384  0.027898373  0.027729911            9 
  849000   0.89263243   -6.6887888     283.7272  0.027849155  0.027709972           11 
  850000   0.91872474   -6.6857597    284.50245  0.027892397  0.027690346            4 
  851000   0.92997393   -6.6884011    283.45692  0.027757239  0.027670129            4 
  852000   0.92846502   -6.7203508    282.72251  0.027652828  0.027650133            6 
  853000    0.9329176   -6.6860708    284.29333   0.02777387  0.027630001            9 
  854000   0.91664397   -6.6738022    284.34649  0.027746535  0.027609973            4 
  855000   0.92377933   -6.6507758     284.6487  0.027743538  0.027590134            3 
  856000    0.9034915   -6.7059241    284.58774  0.027705193    0.0275703            7 
  857000   0.92935895   -6.6868668    284.60001  0.027674058  0.027550661            6 
  858000   0.90322362   -6.6824624    284.87523  0.027668534  0.027531091            7 
  859000   0.92491581   -6.7342824    284.46935  0.027596949  0.027511394            5 
  860000     0.907383    -6.665425    284.79999  0.027596898  0.027491404           11 
  861000   0.92150601   -6.6909216    285.37006  0.027620021  0.027471601            8 
  862000   0.91699539   -6.6818589     285.0355  0.027555636  0.027451765            9 
  863000   0.91555712   -6.6939586    285.23761  0.027543222  0.027431809            5 
  864000   0.89471322   -6.6737937      285.424  0.027529321  0.027411781            8 
  865000   0.91687047   -6.7000817    285.39275  0.027494484  0.027391582            6 
  866000   0.91603285   -6.7163292    284.84162  0.027409702  0.027371419            6 
  867000   0.91398912   -6.6906185    285.80124  0.027470323  0.027351466            7 
  868000   0.91422824   -6.7025068    286.46052   0.02750197  0.027331809           11 
  869000    0.9142935   -6.7342412     285.0298  0.027333122  0.027311839            8 
  870000   0.92138296   -6.7018516    285.78559  0.027374099  0.027291922            5 
  871000   0.93144746   -6.6874364    286.66623  0.027426926  0.027271839           10 
  872000   0.91108878   -6.6949653    285.67731  0.027300966  0.027251773           10 
  873000   0.90537941   -6.7326325     286.2012  0.027319702  0.027231654            6 
  874000   0.89674479   -6.7061423    285.79013   0.02724925  0.027211418           15 
  875000   0.91588144   -6.6797302    286.58412  0.027293725  0.027191246            9 
  876000   0.92885945   -6.7184214    286.56251  0.027260513  0.027171011            2 
  877000   0.89570581   -6.7151472    286.10379  0.027185841  0.027150793            4 
  878000    0.9222021   -6.7099763    287.04364  0.027244081   0.02713067            8 
  879000   0.90327381   -6.7030013    287.14464  0.027222662  0.027110661            9 
  880000   0.90653175   -6.6771415    287.07126  0.027184779  0.027090589            6 
  881000   0.91026518   -6.7170516    286.21999  0.027073401  0.027070438            7 
  882000   0.89498399    -6.696682    286.67504  0.027085699  0.027049815            7 
  883000   0.90048254     -6.75325     286.4179  0.027030757  0.027029236            6 
  884000   0.90182025   -6.7530245    286.46794  0.027004896  0.027008501            7 
  885000   0.90747956   -6.7498635    286.99924   0.02702441  0.026987985            4 
  886000   0.90008309   -6.7243116    286.87687    0.0269824  0.026967614            4 
  887000   0.88744722   -6.6939567    287.90751  0.027048808  0.026947343            8 
  888000   0.92064357   -6.6820519     288.1258  0.027038832  0.026927258            4 
  889000   0.89970854   -6.7129203    288.11874  0.027007756  0.026907428            7 
  890000   0.90618123   -6.7021315    288.13905  0.026979312  0.026887622            7 
  891000   0.88991408   -6.7271842    288.34486  0.026968281  0.026867503            8 
  892000   0.90021014   -6.7230483     288.7096  0.026972123  0.026847355            5 
  893000   0.89778346   -6.7078666    288.00637  0.026876295   0.02682698            4 
  894000   0.89867665    -6.734557    288.76138  0.026916609  0.026806783            8 
  895000   0.88448315   -6.7278746    288.16716  0.026831206  0.026786368           11 
  896000   0.90630485   -6.7395883    288.95322  0.026874369  0.026766323           11 
  897000   0.89959027   -6.7435563    288.64065  0.026815371  0.026746221            3 
  898000   0.89093998   -6.7268195    289.36147    0.0268524  0.026726212            4 
  899000   0.90371575   -6.7357577    289.23829  0.026811113  0.026706361            5 
  900000   0.90131217   -6.7395784    288.85209  0.026745564   0.02668622           10 
  901000   0.89634593   -6.7367326    289.88741  0.026811636   0.02666597            3 
  902000   0.90801952   -6.7508899    289.79184  0.026773082  0.026646047            7 
  903000   0.90777848   -6.7564077    289.65525  0.026730828  0.026625865            4 
  904000   0.89032364   -6.7369932    290.32422  0.026762926  0.026606054            7 
  905000   0.89190662   -6.7420221    290.40273  0.026740583  0.026586308            4 
  906000   0.89797362   -6.7326447    290.51392  0.026721295  0.026566752            4 
  907000   0.89605685   -6.7778793    290.65435  0.026704736  0.026546922            8 
  908000   0.90535074    -6.740172    291.27478  0.026732267   0.02652731            4 
  909000   0.88748183   -6.7212569    290.16069  0.026600724  0.026507743            9 
  910000   0.89672356   -6.7615181    291.07612  0.026655322  0.026487893            6 
  911000   0.88295881   -6.7564525    291.07089  0.026625584  0.026468286            3 
  912000   0.90018735   -6.7292062    290.45478  0.026540094  0.026448512           13 
  913000   0.86943598   -6.7411524     290.7482  0.026537806  0.026428716            7 
  914000   0.90375919   -6.7632461    290.58442  0.026493838  0.026408744            5 
  915000   0.88457488   -6.7246955    290.40909  0.026448915  0.026388859            5 
  916000   0.89887332   -6.7578484    291.69549  0.026537071  0.026368832            7 
  917000   0.88995606   -6.7536671    291.52499  0.026492638  0.026348841            6 
  918000   0.87352283   -6.7541088    291.38713  0.026451265  0.026328909            8 
  919000   0.88048953   -6.7719098    291.04933  0.026391851  0.026309159            8 
  920000   0.89613061   -6.7433387    291.66637  0.026419055   0.02628928            5 
  921000   0.89377077   -6.6978735    292.15729  0.026434789  0.026269484            4 
  922000   0.89362052   -6.7468087    291.51497  0.026348063  0.026249522            5 
  923000   0.88195435   -6.7570955    292.41956  0.026401188  0.026229425            8 
  924000   0.89486592   -6.7356193    291.57198  0.026296174  0.026209462           10 
  925000   0.86545128   -6.7292875    291.45835  0.026257509  0.026189419            3 
  926000   0.89581558   -6.7821222    291.45403  0.026228764  0.026169231            3 
  927000   0.87759448   -6.7600178    292.07337  0.026256146  0.026149152            4 
  928000    0.8765242   -6.7883372    291.58052  0.026183596   0.02612874            8 
  929000   0.89728528   -6.7846556    291.59469  0.026156681  0.026108378            6 
  930000   0.89755648   -6.7760803    291.81596  0.026148383  0.026088294            8 
  931000   0.89533036   -6.7609827    292.41179   0.02617363  0.026068078            5 
  932000   0.89923686   -6.7701047    292.51153  0.026154465  0.026048091            6 
  933000   0.88988992   -6.7621142     292.5467  0.026129573  0.026028027            5 
  934000   0.86782963   -6.7445023    292.11019   0.02606265  0.026008013            7 
  935000   0.86867402   -6.7809855    291.54962  0.025984814  0.025987785            6 
  936000   0.86289426   -6.8000527    292.61495  0.026051901  0.025967633            5 
  937000   0.87857686   -6.7411637    292.89285  0.026048813  0.025947597            7 
  938000     0.889065   -6.7837589    293.38265  0.026064557  0.025927528            5 
  939000   0.87747603    -6.752148    293.64063  0.026059694   0.02590762            4 
  940000   0.88729504    -6.749589     294.0764  0.026070602  0.025887726            8 
  941000   0.86532361   -6.8054221    293.35002   0.02597857   0.02586784            4 
  942000   0.87881632   -6.7724084    292.80222  0.025902532  0.025847861           13 
  943000   0.87363376   -6.7810549    293.34079  0.025922658  0.025827768            6 
  944000   0.88356741   -6.8113405    293.23833  0.025886152  0.025807656            3 
  945000   0.87596202   -6.7938697    293.59179  0.025889928  0.025787441           18 
  946000   0.85689157   -6.8057619    293.57326  0.025860928  0.025767368           11 
  947000   0.87144894   -6.8021395    293.63949  0.025839448  0.025747491            6 
  948000   0.85829388   -6.7710483    294.37407  0.025876764  0.025727652           15 
  949000   0.86359316   -6.7675397    295.27786   0.02592886  0.025708004            4 
  950000   0.89371373   -6.7975236     294.9938  0.025876649  0.025688251            7 
  951000    0.8852835   -6.7700694    295.42248  0.025887003  0.025668529           12 
  952000   0.89089849    -6.797425    295.54788  0.025870787  0.025648878            7 
  953000   0.85449404   -6.7703973    296.23473  0.025903701  0.025629425            7 
  954000   0.87054995    -6.772252    295.33608   0.02579805  0.025610091            6 
  955000   0.88043023   -6.7945181    295.36066  0.025773182  0.025590875            7 
  956000   0.86615844   -6.7610048    295.89882  0.025793133  0.025571648            7 
  957000   0.87406679   -6.8046899      295.648   0.02574434  0.025552314           10 
  958000   0.84842138   -6.8005644    295.58658  0.025712124  0.025532869            3 
  959000   0.87230121   -6.7606444    296.70706  0.025782678   0.02551366            6 
  960000   0.87891222   -6.7409776    297.03691  0.025784454  0.025494544            6 
  961000   0.86010213    -6.790389    296.57337  0.025717427  0.025475295            6 
  962000   0.85741631   -6.8027042      296.065  0.025646656  0.025456013            5 
  963000   0.85602662   -6.8106903    296.71821   0.02567655   0.02543659            3 
  964000   0.85529779   -6.7969445    296.53178  0.025633799  0.025417264           10 
  965000   0.86210857   -6.8265715    296.25968  0.025583737  0.025397929            8 
  966000   0.87169587   -6.8228976    296.95602  0.025617324  0.025378473            6 
  967000   0.87327035   -6.8079679    297.12517  0.025605409  0.025359104            8 
  968000   0.86252016   -6.8567705    295.70225  0.025456461  0.025339518           10 
  969000   0.87364354    -6.842734    296.65334  0.025511983  0.025319848            6 
  970000    0.8600486    -6.849391    296.03945  0.025432942  0.025300148            4 
  971000   0.87139159    -6.784346    296.86956  0.025477991  0.025280651           12 
  972000   0.86364136   -6.8158727    297.47097  0.025503341  0.025261143            4 
  973000   0.86775813   -6.8162635    296.61972  0.025404224  0.025241649            7 
  974000   0.84597825   -6.8178083    296.46194  0.025364643  0.025222213           12 
  975000   0.87294206   -6.8214109    296.59647  0.025350125  0.025202636            5 
  976000   0.85945769   -6.7902756    297.31724  0.025385694  0.025182992            9 
  977000   0.86775438   -6.7802461    298.23512  0.025438001  0.025163609           12 
  978000   0.86729098   -6.8224975     297.8636  0.025380334  0.025144228           12 
  979000   0.86103279   -6.8051103    298.42784  0.025402437  0.025124862           10 
  980000   0.87084486   -6.8045018    298.25969  0.025362218   0.02510556            7 
  981000   0.86587331   -6.8210604    297.67201  0.025286443  0.025086148            6 
  982000   0.86246637    -6.855377    298.10855  0.025297739  0.025066869            8 
  983000   0.86530748   -6.8424068    297.51278  0.025221497  0.025047595            4 
  984000   0.84803132   -6.8310116     297.7563  0.025216489   0.02502832           12 
  985000   0.84217685   -6.8514745    297.75991  0.025191194  0.025008895           10 
  986000   0.83023634   -6.8444655    298.11519  0.025195672  0.024989486            5 
  987000   0.85404284    -6.865226    297.53014  0.025120748  0.024970064            5 
  988000   0.84717538   -6.8264573    298.63021  0.025188108  0.024950729            4 
  989000   0.87575003   -6.8083662     299.6739  0.025250581  0.024931332           12 
  990000   0.85929973   -6.8171798    299.38493  0.025200752   0.02491205            5 
  991000   0.85120139   -6.8275335    298.80387  0.025126461  0.024892672            5 
  992000   0.86458535   -6.8206428    299.49582  0.025159259  0.024873445            5 
  993000    0.8493537   -6.8208533    299.46364  0.025131222   0.02485442            9 
  994000   0.84927247   -6.8186289    299.35512  0.025096841  0.024835306            4 
  995000   0.86487306    -6.844644    299.15672  0.025055002  0.024816067           12 
  996000   0.87308365   -6.8607759    299.08238  0.025023626  0.024796665            7 
  997000   0.85657351   -6.8470845    300.39321  0.025108091  0.024777389            4 
  998000   0.86372721   -6.7938882    300.12411  0.025060463  0.024758372            9 
  999000   0.86758482   -6.8391203     299.2377  0.024961437  0.024739272            5 
 1000000     0.851655   -6.8705948    299.90532   0.02499211  0.024720303           11 
 1001000   0.86119556   -6.8558684    299.85008  0.024962544  0.024701255            5 
 1002000   0.86965204   -6.8698695    298.97083  0.024864507  0.024682127            9 
 1003000   0.83578106    -6.848574    299.85749  0.024913384  0.024662923            6 
 1004000   0.85258335   -6.8721246    299.33057  0.024844835  0.024643633            5 
 1005000   0.87264866    -6.863238    300.66928  0.024931117   0.02462465            5 
 1006000   0.84844856   -6.8448805    299.89396  0.024842111   0.02460554            5 
 1007000    0.8586623   -6.8256083    300.57883  0.024874117  0.024586629            5 
 1008000   0.84320229   -6.8589179    300.29234  0.024825755  0.024567764            6 
 1009000   0.84511533   -6.8492098    300.26361  0.024798778  0.024548974            6 
 1010000   0.86374076   -6.8603409    301.54437  0.024879899  0.024530054            6 
 1011000    0.8537201   -6.8107232    300.81996  0.024795579  0.024511262            6 
 1012000   0.84406304   -6.8926957    300.59638  0.024752666  0.024492427            8 
 1013000   0.85888333   -6.8637497    300.47542  0.024718281  0.024473512            7 
 1014000   0.84896618   -6.8585258    301.08138  0.024743703  0.024454699            8 
 1015000   0.83587794    -6.891611    300.88485   0.02470319  0.024435733            8 
 1016000   0.84729686   -6.8785613    300.57767   0.02465368  0.024416803            7 
 1017000   0.85217236   -6.8573341    301.06239  0.024669157  0.024397952            4 
 1018000   0.87558226   -6.8602918    301.57758  0.024687097  0.024379203            5 
 1019000   0.85680916   -6.8399026    301.12725  0.024626043  0.024360367            5 
 1020000   0.83985537   -6.8598997    300.80648  0.024575693  0.024341562           13 
 1021000   0.84542693   -6.8635866    301.92638  0.024643028  0.024322782           12 
 1022000   0.85229898   -6.8618041    301.62646   0.02459446  0.024303911            9 
 1023000   0.82565914   -6.8933836    301.87556  0.024590711  0.024284906           20 
 1024000   0.85436149   -6.9300372     300.6584  0.024467644  0.024265952            7 
 1025000   0.84875786   -6.8907255    301.61296  0.024521379   0.02424695            8 
 1026000   0.84996573   -6.8685031    302.08373  0.024535715  0.024228039            5 
 1027000   0.81576543   -6.8586124    302.15421  0.024517544   0.02420932            9 
 1028000   0.82787197   -6.8556793    303.34436  0.024590172  0.024190695            7 
 1029000   0.83449571   -6.8629144    302.24026  0.024476859  0.024171976            4 
 1030000   0.84880508   -6.8978974    302.45324  0.024470327  0.024152967           10 
 1031000   0.85587356   -6.8939877    303.12089  0.024500557  0.024134004            3 
 1032000   0.84807277   -6.8774995     302.8267   0.02445306  0.024115215            5 
 1033000   0.85682556   -6.8922304    302.36492  0.024392136    0.0240965            8 
 1034000   0.83418637   -6.8874239    302.81866  0.024405114  0.024077683           15 
 1035000   0.85559587   -6.8814118    302.58575  0.024362782  0.024058974            9 
 1036000    0.8304346   -6.8736553    303.70487  0.024429285  0.024040287            9 
 1037000   0.83864323   -6.8942777    302.83573  0.024335884  0.024021483            9 
 1038000   0.82795757   -6.8989958    302.04819  0.024249212  0.024002701            5 
 1039000   0.85065919    -6.892006    302.54675  0.024265861     0.023984            8 
 1040000   0.84351848   -6.8738962    303.56957  0.024324485  0.023965268           14 
 1041000   0.84072495   -6.9185404    302.36454  0.024204654  0.023946485            6 
 1042000   0.81964341   -6.9064812    302.23791  0.024171298  0.023927731            8 
 1043000   0.84139856   -6.8716951    303.59554  0.024256595   0.02390891           17 
 1044000   0.85361978   -6.8901687    302.94094  0.024181109  0.023890044           21 
 1045000   0.82464094   -6.8793963    303.17841  0.024176907  0.023871158            9 
 1046000   0.84019697   -6.8959423    303.01778  0.024140996  0.023852331           16 
 1047000   0.83892839   -6.8881985    303.23415   0.02413516  0.023833548           10 
 1048000   0.83388292   -6.9022364    303.45491  0.024129684   0.02381479           12 
 1049000   0.84226847   -6.9358847    302.99263  0.024069958  0.023795961           13 
 1050000    0.8284141   -6.9485232    302.57768  0.024014102  0.023777036            6 
 1051000    0.8276024   -6.9472175    302.38403  0.023975899  0.023758029           14 
 1052000   0.82358405   -6.9323706    303.22689  0.024019874  0.023739004           12 
 1053000   0.82148843   -6.9123682    303.43783  0.024013757  0.023720063           10 
 1054000   0.83349734   -6.8934854    302.58162  0.023923278  0.023701044            6 
 1055000   0.82065135   -6.9377869    302.13488  0.023865314  0.023681895            9 
 1056000   0.83852985   -6.9267301    303.20679  0.023927304  0.023662805            5 
 1057000   0.83508333    -6.896768    304.45621   0.02400317  0.023643883           10 
 1058000   0.85139753   -6.9275363    303.13679  0.023876559  0.023625038            3 
 1059000   0.83199712   -6.9206744    303.74362  0.023901764   0.02360627            8 
 1060000   0.83786097   -6.8986691    303.60398  0.023868238  0.023587508            5 
 1061000   0.82827155   -6.8989858    303.65392  0.023849664   0.02356872            6 
 1062000   0.83068147   -6.9488024    303.94785  0.023850271  0.023549809           16 
 1063000   0.82714478   -6.9307192    303.92234  0.023825834  0.023530995            6 
 1064000   0.82834285    -6.888719    304.42199  0.023842574  0.023512135           14 
 1065000   0.83102428   -6.9110901    303.87159   0.02377712  0.023493298           12 
 1066000   0.83724238   -6.8930948    303.99454  0.023764426  0.023474683            7 
 1067000   0.82036438   -6.8827943    304.69592  0.023796932  0.023456104            7 
 1068000   0.81717086   -6.9079654     304.6152  0.023768352  0.023437531            7 
 1069000   0.82391729   -6.9207248     304.8538  0.023764718    0.0234189            5 
 1070000   0.81496442   -6.9246663    304.39213  0.023706552  0.023400207            9 
 1071000   0.80823247   -6.9085835    305.03986  0.023734817  0.023381509           10 
 1072000   0.82851052   -6.9682763    303.82486  0.023618226  0.023362699           12 
 1073000   0.83391934   -6.9516744    304.52032  0.023650227  0.023343937            8 
 1074000   0.82116092   -6.9333612    305.34226  0.023691982  0.023325379            4 
 1075000   0.83181509   -6.9249595    304.71118  0.023621022  0.023306832           11 
 1076000    0.8413248   -6.9180677    304.99788  0.023621273  0.023288253           15 
 1077000   0.81838901   -6.9124594    304.56408  0.023565775   0.02326976            4 
 1078000    0.8137655   -6.9697507    304.26837  0.023521055  0.023251102           12 
 1079000   0.81462856   -6.9463826     305.1169   0.02356479  0.023232438            8 
 1080000   0.84288434   -6.9356783    305.30862  0.023557764  0.023213927           12 
 1081000   0.81008127   -6.9191184    305.29434  0.023534871  0.023195474           12 
 1082000   0.82155434   -6.9562515    305.43543  0.023523985   0.02317693           10 
 1083000   0.82284558   -6.9392384    305.51807  0.023508623  0.023158268           12 
 1084000   0.81723057   -6.9136705    305.76714  0.023506084   0.02313978           11 
 1085000   0.82217378   -6.9244712    304.79287   0.02340959  0.023121351            6 
 1086000   0.82861455    -6.927993    305.77119  0.023463105   0.02310289            4 
 1087000   0.81759841   -6.9557652    305.38507  0.023411919   0.02308431           10 
 1088000   0.80321534   -6.9498393    305.04574   0.02336441  0.023065689            7 
 1089000   0.82501977   -6.9402297    306.07162  0.023421458  0.023047059           15 
 1090000   0.81990726   -6.9497829    305.61944  0.023365401  0.023028614           13 
 1091000   0.83004916   -7.0050768    305.57911  0.023340904  0.023010005            8 
 1092000    0.8035035   -6.9606324    304.99803  0.023275186  0.022991267           10 
 1093000   0.81931401   -6.9606273    305.58111  0.023298347  0.022972605            6 
 1094000   0.82628738   -6.9721606     305.1437  0.023243731  0.022954233           12 
 1095000   0.81500833   -6.9526396     305.9684  0.023285267  0.022935823           12 
 1096000   0.83333049   -6.9255859    307.06827  0.023347649   0.02291749           16 
 1097000   0.79909241    -6.965133    305.67044  0.023220179  0.022899106           17 
 1098000   0.80450639   -6.9668889      305.976  0.023222222  0.022880763           15 
 1099000   0.80883304   -6.9499674    306.81429  0.023264656   0.02286237            6 
 1100000   0.82814694   -6.9745275    306.53378  0.023222256  0.022844096            6 
 1101000   0.80641386   -6.9525527    306.64462  0.023209553  0.022825843            7 
 1102000   0.80481742   -6.9711177    306.62465  0.023186982  0.022807528           11 
 1103000   0.82305734   -6.9733838    307.57991  0.023238131  0.022789279            8 
 1104000   0.81022505   -6.9533756    306.70097  0.023150738   0.02277104            9 
 1105000   0.81494537   -6.9334721    306.85478  0.023141386  0.022752827            8 
 1106000   0.83297673   -6.9164228    307.35136  0.023157878  0.022734709            6 
 1107000   0.81295001    -6.928307    307.10379  0.023118322  0.022716584            7 
 1108000   0.81269424   -6.9657499    307.12077  0.023098734  0.022698299           13 
 1109000   0.81649294    -6.964769    307.40878  0.023099547  0.022680138            4 
 1110000   0.81814308   -6.9840946    306.15131  0.022984332  0.022661938            9 
 1111000   0.79917125   -6.9938268    305.76997  0.022935041  0.022643483            7 
 1112000   0.81540603   -6.9633936    306.58177  0.022975253  0.022625041           11 
 1113000   0.80943959   -6.9311543    307.19216  0.023000312   0.02260675            5 
 1114000   0.81411806   -6.9839238     306.5946  0.022934964  0.022588516           13 
 1115000   0.80974346   -6.9755269    306.36667   0.02289736  0.022570209           11 
 1116000   0.81318398   -6.9806366    306.74175   0.02290485  0.022551674           11 
 1117000   0.80950294   -6.9727593    307.09101  0.022910401  0.022533378           13 
 1118000   0.81561024   -6.9708678    307.09471  0.022890184  0.022514967           16 
 1119000   0.80530355   -6.9667496    306.54935  0.022829114  0.022496579           12 
 1120000   0.80161552   -6.9525073    307.70496  0.022894714  0.022478332           13 
 1121000   0.79273102   -6.9724395    307.89769  0.022888618  0.022460133           11 
 1122000   0.80183195   -6.9610556     307.4039  0.022831543  0.022442045            8 
 1123000   0.80077413   -6.9636977    308.21394  0.022871322  0.022423863            9 
 1124000   0.81323409   -6.9742763    308.03198  0.022837484  0.022405787            4 
 1125000   0.79729668   -7.0101443    306.45626  0.022700464  0.022387475            9 
 1126000   0.78734381    -6.961133    307.08542  0.022726867  0.022369186           13 
 1127000   0.80597944   -6.9773618    307.38422  0.022728795  0.022350962            8 
 1128000   0.77450137   -6.9872738    307.95181  0.022750577  0.022332627           23 
 1129000   0.80786367   -6.9857549    308.18584    0.0227477  0.022314335           30 
 1130000   0.79131298   -7.0127164    307.46828  0.022674652  0.022296054           19 
 1131000   0.81321803   -6.9938459    308.01666  0.022695009  0.022277944           24 
 1132000   0.80810749   -6.9878656    307.84182  0.022662089  0.022259876            4 
 1133000   0.80423073   -6.9720238    307.87108  0.022644239  0.022241855            9 
 1134000   0.80418448   -7.0046098    308.46884  0.022668198  0.022223882            7 
 1135000    0.7967864   -7.0132774    308.54327  0.022653691  0.022205777            9 
 1136000   0.80940306   -7.0014292    307.78573  0.022578178  0.022187602           12 
 1137000   0.80117356   -6.9945306    307.57964  0.022543216  0.022169637           19 
 1138000   0.80568656   -7.0048322    308.07645  0.022559787  0.022151588            7 
 1139000   0.80009194   -7.0010649    308.33074  0.022558585  0.022133519           15 
 1140000   0.81591095   -7.0170976    308.17679  0.022527543  0.022115459            8 
 1141000   0.80546453   -7.0183611     308.5347  0.022533939  0.022097416           16 
 1142000   0.79738195   -7.0030728    309.19512  0.022562399  0.022079384            8 
 1143000   0.79909658   -7.0253531    308.58398  0.022498103  0.022061347            7 
 1144000   0.81162796   -7.0189434     308.5134  0.022473295  0.022043321           18 
 1145000   0.81229078    -7.026825     307.6475  0.022390648  0.022025259           16 
 1146000   0.80542329   -7.0176483    307.86527  0.022386945  0.022007199           11 
 1147000   0.78565919   -7.0482183    308.63598  0.022423422  0.021989075           18 
 1148000   0.79521823   -7.0490635    307.40154  0.022314282  0.021970849            5 
 1149000   0.79273264   -7.0115889     310.0156   0.02248445   0.02195264            9 
 1150000   0.78904615   -7.0086678    309.11404  0.022399568  0.021934681            5 
 1151000   0.78601496   -7.0214506    308.61211  0.022343767  0.021916656           39 
 1152000   0.78289931   -7.0146468    308.65392  0.022327396  0.021898726           11 
 1153000   0.81997065   -7.0402247    308.42243    0.0222913  0.021880746           35 
 1154000   0.78251656   -7.0228508    308.68091  0.022290649  0.021862771            7 
 1155000   0.80273738    -7.052692    308.40496   0.02225144  0.021844889           13 
 1156000   0.79440186   -7.0169354    308.97748  0.022273463  0.021826972           14 
 1157000   0.78782263   -7.0636376     308.5958  0.022226722  0.021808995            6 
 1158000   0.80286226   -7.0228865    309.31443  0.022259243  0.021791033            7 
 1159000   0.78796846   -7.0198582    309.19764   0.02223164  0.021773146           10 
 1160000   0.78470628   -7.0344136    308.98391   0.02219712  0.021755257           17 
 1161000   0.78557744   -7.0184708    309.05225  0.022182906  0.021737316            8 
 1162000   0.78187925    -7.024675    308.36356  0.022114426  0.021719366            8 
 1163000   0.79196113   -7.0176422    308.99672   0.02214078  0.021701345            9 
 1164000    0.7803872   -6.9872531    309.01116  0.022122792  0.021683492            9 
 1165000   0.77341289   -7.0311287    308.59782  0.022074236  0.021665613           13 
 1166000    0.7962203   -7.0446133     309.4112  0.022113436  0.021647708            9 
 1167000   0.77943488   -7.0471966      308.973  0.022063196  0.021629743           23 
 1168000   0.77761505   -7.0594841    308.40003  0.022003427  0.021611778           14 
 1169000    0.7810037   -7.0586723    309.30155   0.02204887  0.021593709            9 
 1170000   0.77521495   -7.0274571    308.71432  0.021988199  0.021575629            9 
 1171000   0.78768976   -7.0244983    309.04048  0.021992633  0.021557548           12 
 1172000   0.77758932   -7.0855584    308.54569  0.021938687  0.021539485            9 
 1173000   0.79190907    -7.048459    308.93939  0.021947953  0.021521452           12 
 1174000   0.78524037   -7.0641171    308.38775  0.021890102  0.021503408            6 
 1175000   0.78908313   -7.0547474    308.85016  0.021904267  0.021485228            4 
 1176000    0.7740368    -7.032548    309.01018   0.02189698  0.021467149           10 
 1177000   0.78653952   -7.0505562    308.59832  0.021849216  0.021449186           14 
 1178000   0.79311516   -7.0343566    309.83951  0.021918471  0.021431215            6 
 1179000   0.75744981   -7.0641248    308.59679  0.021812043  0.021413327            8 
 1180000   0.77572654   -7.0758061    309.18662  0.021835213  0.021395408           14 
 1181000   0.78584569   -7.0952992    308.86574  0.021794083  0.021377485           12 
 1182000   0.78513835    -7.070192    309.61008  0.021828122  0.021359427           10 
 1183000   0.78228765   -7.0983748    309.03932  0.021769465  0.021341502           12 
 1184000   0.78309187   -7.0787062    308.84833  0.021737636  0.021323566            9 
 1185000   0.77948586   -7.0983192    309.36848   0.02175587  0.021305748           12 
 1186000   0.79008499   -7.0795356    309.19016  0.021724997   0.02128789           14 
 1187000   0.78106862   -7.0759004      309.859  0.021753651  0.021269922            9 
 1188000   0.77031057    -7.084644    308.90809  0.021668637  0.021252027           37 
 1189000   0.77131385   -7.0756633    308.98671  0.021655923  0.021234086           16 
 1190000   0.77050957    -7.070718    308.94562  0.021634847  0.021216135           12 
 1191000   0.78014659   -7.0880777    309.56856  0.021660268  0.021198302           12 
 1192000   0.79011999    -7.042668    309.53265  0.021639587  0.021180512            6 
 1193000   0.76944931    -7.065965    309.27147  0.021603204   0.02116271            8 
 1194000   0.77082023   -7.0504637    310.63719  0.021680429   0.02114501            8 
 1195000   0.78291405   -7.0659259     309.4865  0.021582043  0.021127303            9 
 1196000   0.78401828   -7.1038395    308.46481   0.02149281  0.021109576           16 
 1197000   0.76764685   -7.0839159    309.31589  0.021534106  0.021091823           12 
 1198000   0.76700744   -7.0883147    309.98312  0.021562543  0.021074081           13 
 1199000   0.77069474   -7.0751222    310.19495  0.021559282  0.021056468           27 
 1200000   0.76399998   -7.0622978    310.47028  0.021560436  0.021038952           14 
 1201000    0.7835756   -7.0824318     309.7465  0.021492263   0.02102135           12 
 1202000   0.77035916   -7.0835511    310.02878  0.021493953  0.021003716            7 
 1203000   0.78303453   -7.1067949    309.49463  0.021439085  0.020986063            9 
 1204000   0.76177798   -7.0665522    310.57294  0.021495912  0.020968411            9 
 1205000   0.75269637   -7.0907597    309.51356   0.02140481  0.020950853           19 
 1206000    0.7772876   -7.0484879    310.92219  0.021484397  0.020933234            9 
 1207000   0.76843864   -7.1231746    309.22795  0.021349623  0.020915577           12 
 1208000   0.76930284   -7.0692644    310.63359  0.021428918  0.020897962           30 
 1209000   0.76666864   -7.1036621     309.9734  0.021365688  0.020880341           38 
 1210000   0.77849016   -7.0923935    310.48103  0.021382991  0.020862809           14 
 1211000   0.78460059   -7.1081005     309.3949  0.021290593  0.020845255           22 
 1212000   0.78637061   -7.0992172    310.91195  0.021377334  0.020827662           11 
 1213000   0.75684194   -7.1004933    309.75252  0.021280058  0.020810106            8 
 1214000   0.76192278   -7.1050885    310.21401  0.021294207  0.020792639           16 
 1215000   0.77336682   -7.0760465    310.29136  0.021281986   0.02077509            9 
 1216000   0.76555099   -7.0737476    311.15372  0.021323583  0.020757701           12 
 1217000   0.76161748   -7.0960016    310.87281  0.021286826  0.020740267            9 
 1218000   0.76099349   -7.0793288    310.43052  0.021239088  0.020722799           10 
 1219000    0.7692887   -7.1220084    310.91979  0.021255113  0.020705465           10 
 1220000   0.76640096    -7.096944    309.74176  0.021157224  0.020688155            7 
 1221000   0.76798815   -7.0886093    310.54208  0.021194518  0.020670838           10 
 1222000   0.75771569    -7.092845    310.56248  0.021178565  0.020653516            9 
 1223000   0.76516015   -7.0900241    309.99762  0.021122759  0.020636129           17 
 1224000   0.76866426   -7.1289416    310.29934  0.021126045  0.020618627           12 
 1225000   0.75474674   -7.1162811    310.34881  0.021112164  0.020601055           18 
 1226000   0.75628372   -7.1195431    310.63466  0.021114373  0.020583643            8 
 1227000   0.77695656   -7.1088194    310.59315  0.021094346  0.020566383           16 
 1228000   0.76560014   -7.0777969    311.59443  0.021145116  0.020549199           10 
 1229000   0.77316408   -7.1062075    311.03387  0.021089902  0.020532031           13 
 1230000   0.77000365   -7.1015096    311.52314  0.021105904  0.020514822           18 
 1231000    0.7547086   -7.0978556    310.88968  0.021045876  0.020497639           17 
 1232000   0.77170714    -7.103902    311.22391  0.021051401  0.020480495           10 
 1233000   0.76641768   -7.0938359    311.26128  0.021036853  0.020463283           11 
 1234000   0.75605313   -7.0979722    310.24088  0.020950897  0.020445982            7 
 1235000   0.75879829   -7.1431537    311.07049  0.020989912  0.020428615           14 
 1236000   0.73862438   -7.1160715    310.71015  0.020948635  0.020411272           16 
 1237000   0.75181799   -7.1232102    310.89275  0.020944001  0.020393971           18 
 1238000   0.76382798   -7.1249953    311.08847  0.020940258  0.020376774            9 
 1239000   0.75677542    -7.146053    310.46606  0.020881494  0.020359526            9 
 1240000    0.7291427    -7.159812    310.66122   0.02087777  0.020342206            9 
 1241000   0.74401534   -7.1316135    311.25705  0.020900957  0.020324923           10 
 1242000   0.76377008   -7.1405636       311.52  0.020901771  0.020307754           12 
 1243000   0.75300756   -7.1278712    311.44043  0.020879621  0.020290575            8 
 1244000   0.76415886   -7.1186201     311.2714  0.020851514  0.020273351            9 
 1245000   0.73517197   -7.1622774     310.5478  0.020786332  0.020256155           21 
 1246000   0.75055724   -7.1504192    311.05176  0.020803354  0.020238981           18 
 1247000   0.75165967    -7.119326    311.65884  0.020827241   0.02022176           14 
 1248000    0.7340911   -7.1347679    310.88596  0.020758945  0.020204619           14 
 1249000   0.73918503    -7.141727    311.79688  0.020803101  0.020187523           10 
 1250000   0.74624226   -7.1193022    311.15287  0.020743525  0.020170458           16 
 1251000   0.76275503   -7.1262078    311.41403   0.02074434  0.020153398           10 
 1252000   0.75414029   -7.1343024    311.09007  0.020706208  0.020136264           11 
 1253000   0.75926135   -7.1548878    310.69408  0.020663347  0.020119119            8 
 1254000   0.75279027   -7.1384837    310.93083  0.020662602  0.020101958           22 
 1255000   0.73653572   -7.1556906    310.60981  0.020624822  0.020084704           21 
 1256000   0.74864431   -7.1692937    310.62335  0.020609299  0.020067484           20 
 1257000   0.76034899   -7.1511274    311.07808   0.02062305  0.020050251           22 
 1258000   0.75616705   -7.1430446    310.22719  0.020550291  0.020033112            7 
 1259000   0.75210316   -7.1450022    311.25329  0.020601886  0.020015911           14 
 1260000   0.75208015   -7.1357478    310.69549  0.020548643  0.019998792            9 
 1261000   0.74703881   -7.1611461    310.69229  0.020532137   0.01998169           10 
 1262000   0.75330724    -7.138351     310.8971  0.020529391  0.019964584           15 
 1263000   0.75093158   -7.1605761    310.95854  0.020517191  0.019947418           19 
 1264000   0.74642251   -7.1752432    311.39327   0.02052962  0.019930294           17 
 1265000   0.75884066   -7.1853951    310.60213  0.020461273  0.019913166           11 
 1266000   0.75422302   -7.1907169    310.67457  0.020449879   0.01989596           13 
 1267000   0.75855523   -7.1544072    310.82208  0.020443441   0.01987876           16 
 1268000   0.73308759   -7.1805379    311.14767  0.020448716  0.019861632           10 
 1269000   0.74917351   -7.1712098    310.74525  0.020406176  0.019844522           13 
 1270000   0.73151318   -7.1842011    310.64713   0.02038367  0.019827425           14 
 1271000   0.75130821   -7.1593027    311.54557  0.020426539  0.019810453            9 
 1272000   0.75685658   -7.1669717    311.65713  0.020417789  0.019793559           21 
 1273000   0.73407197   -7.1547188    310.84597  0.020348649  0.019776722           29 
 1274000   0.73281575   -7.1590633    310.92407  0.020337786  0.019759749           15 
 1275000   0.74626641   -7.1525756    311.58107  0.020364776  0.019742807           24 
 1276000   0.75488092   -7.1569957    310.88456  0.020303328  0.019725895           18 
 1277000   0.72453558   -7.1102855    311.83898  0.020349711  0.019709054           19 
 1278000   0.76038924   -7.1438328    311.55204  0.020315078  0.019692191           13 
 1279000   0.74257164     -7.15125    311.68903   0.02030812  0.019675294            6 
 1280000   0.75339574   -7.1548808    311.49493  0.020279618  0.019658476           13 
 1281000   0.73047536   -7.1767593    311.06705  0.020235952  0.019641532           13 
 1282000   0.75655368   -7.1663955    311.68011  0.020260017   0.01962457           39 
 1283000    0.7402964   -7.1707811    310.75903  0.020184401  0.019607646           25 
 1284000   0.73527385   -7.1773725    310.79225  0.020170836   0.01959078           27 
 1285000   0.71963547   -7.1851422    310.63493  0.020144937  0.019573843           10 
 1286000   0.75148382   -7.1406039    311.46409  0.020183002  0.019556901           16 
 1287000   0.73310942   -7.1646277    311.78525  0.020188115  0.019540048           22 
 1288000   0.73269565   -7.1934418    311.22334  0.020136086  0.019523175           29 
 1289000   0.73651811   -7.1549171    311.54004  0.020140939  0.019506343           21 
 1290000   0.74446389   -7.1967624    311.32892  0.020111687  0.019489476           19 
 1291000   0.72678688   -7.2146013    311.19253  0.020087305  0.019472611           18 
 1292000   0.74731902   -7.1804077     311.4257  0.020086797  0.019455727           30 
 1293000   0.74654008   -7.1787583    311.27402  0.020061486  0.019438866           31 
 1294000   0.74784573   -7.1987823    311.55148  0.020063851  0.019421953            9 
 1295000   0.73707314   -7.2051627    310.83006  0.020001935  0.019405142           16 
 1296000   0.73928799   -7.2085022    310.95755  0.019994698  0.019388317           26 
 1297000   0.75147482   -7.1930068    311.40666  0.020008138  0.019371544           26 
 1298000   0.71791625   -7.1929964    311.94625  0.020027366  0.019354779           19 
 1299000   0.72498182   -7.2144456    311.41619  0.019977944  0.019338077           18 
 1300000   0.73368853   -7.2083971     311.5881  0.019973596  0.019321409           16 
 1301000   0.73443372   -7.2112396    311.20955  0.019933996   0.01930471           15 
 1302000   0.74808367   -7.2015394    311.43574  0.019933163  0.019287969           25 
 1303000   0.70553918    -7.207075    311.92183  0.019948953  0.019271259           18 
 1304000   0.73282872   -7.2135246    311.78673  0.019925021  0.019254621           23 
 1305000   0.72876909   -7.1924125    312.15682  0.019933386   0.01923804           22 
 1306000   0.73339336   -7.1975632    311.29254  0.019862975  0.019221453           31 
 1307000   0.72863943   -7.1810496    311.73396  0.019875922  0.019204907           11 
 1308000   0.72733878   -7.2114098    311.49186  0.019845302  0.019188367           24 
 1309000   0.72900824   -7.2084695    312.09737  0.019868689  0.019171803           73 
 1310000   0.72712264   -7.2071868    312.34247  0.019869114  0.019155304           29 
 1311000   0.73342668   -7.2350188    311.84492  0.019822331  0.019138815           59 
 1312000   0.73497906   -7.1891093    312.35307  0.019839499  0.019122395           28 
 1313000   0.73656076   -7.2065668    312.86811  0.019857077  0.019105976           28 
 1314000   0.71907783   -7.2085518    312.28612  0.019805056  0.019089541           58 
 1315000   0.73720815   -7.2211803    312.70097  0.019816285  0.019073134           30 
 1316000   0.74784386   -7.2024097     312.5219  0.019789887  0.019056768           42 
 1317000     0.723646   -7.2206029    312.18465  0.019753521  0.019040355           28 
 1318000   0.73862472   -7.2458995    312.34988  0.019748981  0.019023811           92 
 1319000   0.73506634   -7.2524778    311.46948  0.019678385  0.019007326          106 
 1320000   0.74626533   -7.2331613    311.94359  0.019693408  0.018990873           35 
 1321000   0.71860262   -7.2268037    311.66347   0.01966083  0.018974463           26 
 1322000   0.71968425   -7.2603701    311.69787  0.019648126  0.018958015           22 
 1323000   0.72849932   -7.2246771    311.80748  0.019640179  0.018941556           29 
 1324000   0.71954372   -7.2472426    311.31689  0.019594467  0.018925094           26 
 1325000   0.71592067   -7.2134095    312.16822  0.019633221  0.018908802           43 
 1326000   0.72849882   -7.2445456    311.66405   0.01958673  0.018892407           29 
 1327000   0.71302334    -7.206614    312.57037  0.019628885   0.01887603           44 
 1328000   0.70828934   -7.2417139    313.04065  0.019643615  0.018859657           32 
 1329000    0.7288981   -7.2636296    311.41911  0.019527158  0.018843218           14 
 1330000   0.71559116   -7.2727088     311.7616  0.019533935   0.01882685           23 
 1331000   0.73085447   -7.2270095    311.58519  0.019508214  0.018810451           29 
 1332000   0.73926825   -7.2404759    311.94556  0.019516114  0.018794112           13 
 1333000   0.71590988   -7.2682749    311.18567  0.019453968  0.018777832           30 
 1334000   0.72788064   -7.2581973    311.57707  0.019463835  0.018761493           10 
 1335000   0.72759557   -7.2615412    310.64015  0.019390771  0.018745178           13 
 1336000   0.72809927   -7.2708285    311.68829  0.019441635  0.018728793           23 
 1337000   0.72027664   -7.2380178     312.5451  0.019480497   0.01871247           13 
 1338000   0.71338831   -7.2498161    311.24022  0.019384667  0.018696164           13 
 1339000   0.71426962   -7.2448766    311.74179  0.019401406  0.018679875           12 
 1340000   0.71886746   -7.2374037    311.64092  0.019380654  0.018663606           34 
 1341000   0.69600777    -7.244029    311.67982  0.019368619  0.018647308           27 
 1342000   0.73011149   -7.2631326    311.35747   0.01933417  0.018631024           11 
 1343000   0.71552895   -7.2468124    312.31118  0.019378951  0.018614757           27 
 1344000   0.72940568   -7.2453179    311.98595  0.019344367  0.018598549           20 
 1345000   0.71845106   -7.2599746    312.22012  0.019344493  0.018582302           21 
 1346000    0.7120205   -7.2576292    311.49654  0.019285323  0.018566051           22 
 1347000   0.73126208   -7.2558272    311.42398  0.019266517  0.018549761           15 
 1348000   0.72477015   -7.2696577    311.82437  0.019276976  0.018533517           32 
 1349000   0.72913513   -7.2441636    311.63784  0.019251164   0.01851733           22 
 1350000   0.70011059   -7.2599626    312.20609  0.019271981  0.018501116           15 
 1351000   0.71223538   -7.2497511    311.79306  0.019232239  0.018484933           54 
 1352000   0.70772785   -7.2450694    312.05764  0.019234322  0.018468706           30 
 1353000   0.71161352     -7.27242     312.0809  0.019221538  0.018452505           34 
 1354000   0.71214249    -7.265453    311.24125  0.019155665  0.018436333           50 
 1355000    0.7297313   -7.2326401    312.02299  0.019189606  0.018420138           27 
 1356000   0.71069884   -7.2561294    312.27697  0.019191062  0.018404029           22 
 1357000   0.70634884   -7.2647728      311.518  0.019130312  0.018387899           65 
 1358000   0.72411868   -7.2572311     312.4703  0.019174662  0.018371828           22 
 1359000   0.71485789   -7.2865599    311.97366  0.019130099  0.018355719           26 
 1360000   0.70686319   -7.2861378    311.38855  0.019080181  0.018339642           17 
 1361000   0.69615239    -7.265236    311.52426  0.019074471  0.018323584           37 
 1362000   0.70648181   -7.2860377    311.20765  0.019041095  0.018307495           55 
 1363000   0.71311352   -7.2909231    311.20807  0.019027151  0.018291418           29 
 1364000   0.70141673   -7.2881433    310.78492  0.018987348  0.018275348           17 
 1365000   0.70619906   -7.2594092    311.77606  0.019033948  0.018259283            8 
 1366000   0.70428052   -7.2896664    311.53323  0.019005199  0.018243277           17 
 1367000   0.69777055   -7.2777681    311.21846  0.018972108  0.018227279           30 
 1368000   0.71034907   -7.2765474    312.34136  0.019026642  0.018211314           20 
 1369000   0.71333061   -7.2764363    312.14701  0.019000914  0.018195321           48 
 1370000   0.71732021   -7.2808142    311.81103  0.018966607  0.018179387           19 
 1371000    0.7020845   -7.2870242    311.66296  0.018943774  0.018163435           33 
 1372000   0.70968276   -7.2628676    312.68042  0.018991765  0.018147539           11 
 1373000   0.70028919   -7.2775742    311.61336  0.018913168  0.018131602           17 
 1374000     0.702236   -7.2842899    312.07525  0.018927417  0.018115701           19 
 1375000   0.69986981   -7.2747689    311.78261  0.018895916  0.018099772           30 
 1376000   0.69838398   -7.3032009    311.75815  0.018880702  0.018083861           38 
 1377000   0.68959004   -7.2848291    312.30881  0.018900315  0.018068035           24 
 1378000   0.68845889    -7.319465    311.64796  0.018846635  0.018052163           18 
 1379000   0.68647357   -7.3356478     310.7681  0.018779798  0.018036262           21 
 1380000   0.70614526    -7.302528    311.73815  0.018824768  0.018020356           43 
 1381000   0.69958678   -7.3134193    311.55514  0.018800093  0.018004466           38 
 1382000   0.70043199    -7.329189    311.06605  0.018756998  0.017988605           38 
 1383000   0.70223964   -7.2878607    311.53454  0.018771665  0.017972725           19 
 1384000   0.70556746   -7.3181227    310.79028  0.018713288  0.017956824           39 
 1385000   0.70950385   -7.3145494    311.57729   0.01874713  0.017940966           24 
 1386000   0.69497027   -7.3199351    311.56534  0.018732885  0.017925067           33 
 1387000   0.71100887   -7.3294969    311.33062  0.018705276  0.017909206           32 
 1388000   0.70680435   -7.3209572    311.72109  0.018715243  0.017893386           28 
 1389000   0.69405428   -7.3314478    310.83096  0.018648366  0.017877556           24 
 1390000   0.67881309   -7.3238817    311.56831  0.018679156  0.017861721           38 
 1391000   0.68830297   -7.3100921     312.2587  0.018707087  0.017845913           27 
 1392000   0.69030234   -7.3421504    311.41592  0.018643194  0.017830186           24 
 1393000   0.70434294   -7.3151051    311.66634  0.018644792  0.017814445           26 
 1394000   0.70934459     -7.33214    312.06427  0.018655205  0.017798717           29 
 1395000   0.69456133   -7.3252888    311.54426  0.018610768  0.017783001           28 
 1396000   0.69717235   -7.3192464    311.48818  0.018594089  0.017767298           15 
 1397000   0.68826792    -7.320091    311.53706  0.018583695  0.017751613           26 
 1398000   0.68340355   -7.3298863    311.31952  0.018557434  0.017735913           34 
 1399000     0.694447   -7.3327188    311.21222  0.018537778  0.017720249           44 
 1400000   0.69661616   -7.3398651    311.77619  0.018558107  0.017704561           32 
 1401000   0.69372524   -7.3411861    311.02939   0.01850044  0.017688871           31 
 1402000   0.70297297   -7.3308481    312.02548   0.01854645    0.0176732           19 
 1403000   0.70755702   -7.3194243    311.40922  0.018496627  0.017657531           37 
 1404000   0.69481695   -7.3435883    311.16785  0.018469127  0.017641875           39 
 1405000   0.69611469   -7.3367751    311.17129  0.018456186  0.017626248           50 
 1406000   0.69800184   -7.3391577    311.49157  0.018462042  0.017610637           74 
 1407000   0.69107518    -7.325282    311.21558  0.018432574  0.017595055           21 
 1408000   0.70047969   -7.3269386    311.26616  0.018422476  0.017579469           26 
 1409000   0.69421942   -7.3358903    311.63495  0.018431213  0.017563894           30 
 1410000   0.67963841   -7.3682085    310.95541  0.018377979  0.017548255           43 
 1411000   0.68402319   -7.3440617    311.87943  0.018419527  0.017532639           50 
 1412000   0.69085007   -7.3482618    311.07103  0.018358772  0.017517037           48 
 1413000   0.69617743   -7.3522227    311.57389  0.018375436  0.017501401           40 
 1414000   0.69028279   -7.3278846    311.38112   0.01835108  0.017485812           51 
 1415000   0.68762417   -7.3370582    311.94849  0.018371524   0.01747032           20 
 1416000   0.70184826   -7.3391895    311.18468  0.018313599  0.017454817           95 
 1417000    0.6922668    -7.342332    311.43799  0.018315572  0.017439342          119 
 1418000    0.6866915   -7.3463497    311.62423  0.018313601  0.017423875           26 
 1419000   0.69839555   -7.3372392    312.06715  0.018326706  0.017408412           34 
 1420000   0.67664054   -7.3739224    311.37629  0.018273257  0.017392936           66 
 1421000   0.70505245   -7.3694188    310.82711  0.018228191  0.017377427           76 
 1422000   0.68926392   -7.3827509    311.22541  0.018238714  0.017361939           36 
 1423000   0.70796805   -7.3712101    310.62399  0.018190676  0.017346462           33 
 1424000   0.68229274   -7.3664671    310.86641  0.018192089  0.017330992           29 
 1425000   0.71006648   -7.3928882    310.56257  0.018161554  0.017315531           61 
 1426000   0.66781854   -7.3825822    311.15294  0.018183318  0.017300032           74 
 1427000   0.66936735   -7.3913513    310.32857  0.018122434  0.017284558          155 
 1428000   0.69009736    -7.362201    311.45533  0.018175498  0.017269121          104 
 1429000   0.68593159   -7.3796969    311.49938  0.018165347  0.017253732           98 
 1430000   0.68234661   -7.3928597    310.61714  0.018101232  0.017238339          164 
 1431000   0.70027977   -7.3896902    311.51452  0.018140841  0.017222955           63 
 1432000   0.67591238    -7.368246    311.73218  0.018140839  0.017207635          121 
 1433000   0.69089067   -7.3736782    311.50251  0.018114824  0.017192335           71 
 1434000   0.68349182   -7.3947352    311.44029  0.018098575  0.017176977           98 
 1435000   0.67122745   -7.3754752     311.3416  0.018080232  0.017161603           32 
 1436000   0.69168889   -7.3821185    310.57639  0.018023235  0.017146247          105 
 1437000    0.6883889    -7.387587    310.97631  0.018033885  0.017130891           49 
 1438000   0.67054589    -7.388511    311.16561  0.018032314  0.017115573           47 
 1439000   0.67994012   -7.3927968    310.88574  0.018003575  0.017100267          129 
 1440000   0.67341956   -7.4248185    311.72467  0.018039622  0.017084971           72 
 1441000   0.67894804   -7.3786019    311.12166  0.017992231  0.017069702           80 
 1442000   0.67912116   -7.3880294    310.57351  0.017948076  0.017054458           91 
 1443000   0.67490017   -7.3731144    310.70567  0.017943271   0.01703921           33 
 1444000   0.67649338   -7.3800517    311.27099  0.017963469  0.017023938           36 
 1445000   0.68696738   -7.4011006    310.96133  0.017933179  0.017008722           42 
 1446000   0.67903294   -7.3973588    310.94423  0.017919792  0.016993488           67 
 1447000   0.68266331    -7.412399    310.43354  0.017877997  0.016978274           73 
 1448000   0.68022598    -7.388743    311.41448  0.017922104  0.016963071           92 
 1449000    0.6629427   -7.4162568    310.42791  0.017852997  0.016947884           75 
 1450000   0.67144832   -7.4038708    311.19799  0.017884942  0.016932676           98 
 1451000   0.67000674   -7.4041542    311.17417  0.017871248  0.016917563           71 
 1452000    0.6778952   -7.3962161    310.99838  0.017848851  0.016902455           42 
 1453000   0.65085754    -7.419303    311.15937    0.0178458  0.016887347           82 
 1454000   0.66880789   -7.4243673     311.2201  0.017837007  0.016872229           66 
 1455000    0.6845415   -7.4096282    310.81177  0.017801361  0.016857138           66 
 1456000   0.65626175   -7.4085767    310.76222  0.017786299  0.016842104           57 
 1457000     0.670243   -7.4041129    311.57506  0.017820582  0.016827113           43 
 1458000   0.66663622   -7.3986775    311.27696  0.017791321  0.016812073           76 
 1459000     0.677121   -7.4004076    311.14864  0.017771798  0.016797084          106 
 1460000    0.6685788   -7.4014015    311.22545   0.01776401  0.016782011          155 
 1461000   0.67294156   -7.4170986    310.45384  0.017707839  0.016766958          119 
 1462000   0.65263596   -7.3947046    311.45966  0.017753059  0.016751913          281 
 1463000   0.67616933   -7.4451368    310.38651  0.017679797  0.016736877           64 
 1464000   0.66228535   -7.4296977     310.0722  0.017649829  0.016721852          114 
 1465000   0.67508276    -7.420843    311.13971  0.017698505  0.016706813           92 
 1466000   0.66725292   -7.4326759    309.98233  0.017620642  0.016691768          148 
 1467000   0.65994245   -7.4431887    310.58652  0.017642951   0.01667676          147 
 1468000   0.67945457   -7.4196144    310.50964  0.017626569   0.01666174          178 
 1469000   0.65163545   -7.4154808    311.24015  0.017656011  0.016646763          162 
 1470000   0.67099078   -7.3911165    310.77662  0.017617722  0.016631844          188 
 1471000    0.6857355   -7.4474238    310.89533   0.01761247  0.016616939          100 
 1472000   0.68056216    -7.419474    310.60388  0.017584006  0.016602034          100 
 1473000     0.666621   -7.4298304     310.3894  0.017559934  0.016587088           67 
 1474000   0.67415797   -7.4497737    310.61749  0.017560916  0.016572124           97 
 1475000   0.65517995   -7.4517012    310.11247  0.017520478  0.016557155          114 
 1476000   0.65434643   -7.4154965    310.15863  0.017511214  0.016542218          110 
 1477000   0.67041558    -7.452907    310.44075  0.017515276  0.016527321          169 
 1478000   0.67191614   -7.4360018    310.12899  0.017485847  0.016512396           87 
 1479000   0.66472653   -7.4498006    310.65069   0.01750342  0.016497526          136 
 1480000   0.67245803   -7.4393092    311.13072  0.017518622  0.016482663          167 
 1481000   0.65696592   -7.4238572    311.30363  0.017516522  0.016467787          193 
 1482000   0.65134219   -7.4512934    310.72799  0.017472334  0.016452953          150 
 1483000   0.66261014   -7.4420738    310.31087  0.017437113  0.016438149          259 
 1484000   0.65715007   -7.4456194    310.20005   0.01741914  0.016423404          150 
 1485000   0.66147286   -7.4668264    310.14238  0.017404174  0.016408622          119 
 1486000   0.65668933   -7.4331822    310.13373  0.017391977  0.016393826           97 
 1487000   0.65233915   -7.4497984    310.21401  0.017384779  0.016379032          126 
 1488000   0.66173933   -7.4751389    309.95684  0.017358694   0.01636423          139 
 1489000    0.6710139   -7.4425896    310.73784  0.017390746  0.016349472          156 
 1490000   0.65890097   -7.4518337    310.17422  0.017347552  0.016334705          121 
 1491000     0.657709   -7.4552622    309.87111  0.017318976   0.01631995          159 
 1492000   0.65500613   -7.4728421    310.32185  0.017332543  0.016305233           99 
 1493000   0.66553568   -7.4626471    309.90388  0.017297604  0.016290492          130 
 1494000   0.65741109   -7.4832931    310.16702  0.017300704  0.016275774          192 
 1495000   0.65991154   -7.4692208    309.43546  0.017248353  0.016261003          124 
 1496000   0.64677531   -7.4768147    309.58666  0.017245246  0.016246256          122 
 1497000   0.66707851   -7.4756733    309.33738  0.017219849  0.016231557          114 
 1498000   0.65884893   -7.4611976    309.80878  0.017234578  0.016216848           94 
 1499000   0.64041422   -7.4330904    310.29015  0.017249842   0.01620217           96 
 1500000   0.66124833    -7.465101    310.18135  0.017232297  0.016187499           85 
 1501000   0.65514545   -7.4690266    310.55785   0.01724172  0.016172869          176 
 1502000   0.66059844   -7.4543291    309.40668  0.017166372  0.016158267           99 
 1503000   0.64895276   -7.4666707    309.70341  0.017171402  0.016143675          267 
 1504000   0.65190923   -7.4664938    309.78906   0.01716473  0.016129082          164 
 1505000   0.66716245   -7.4572723    310.17506  0.017174699  0.016114488          117 
 1506000   0.64876337   -7.4593853    310.05528  0.017156667  0.016099919          137 
 1507000   0.66002528   -7.4550865    310.01955  0.017143306  0.016085355          127 
 1508000   0.64037712   -7.4601805    309.81908   0.01712086  0.016070823          144 
 1509000   0.64942237   -7.4728514    309.85685    0.0171116  0.016056272          128 
 1510000   0.65310602     -7.48609     309.2635  0.017067522  0.016041736          122 
 1511000   0.63735532   -7.4709869     309.4211  0.017064918   0.01602718          184 
 1512000   0.65131255   -7.4903484    309.86614   0.01707816  0.016012632          114 
 1513000   0.64767141   -7.4810439    310.00724  0.017074644  0.015998111          206 
 1514000   0.64196619   -7.4671141     309.8162  0.017052851  0.015983603          108 
 1515000   0.65093825    -7.481814    310.09325  0.017056835  0.015969102          171 
 1516000   0.63940162   -7.4909722    309.37426  0.017006061   0.01595461          128 
 1517000   0.65667709   -7.4820764    309.58282  0.017006307  0.015940099          259 
 1518000   0.64181013   -7.4787903    310.00675  0.017018377  0.015925621          125 
 1519000   0.64734814   -7.4799984    309.60658  0.016985219  0.015911186          118 
 1520000   0.64964595   -7.4880991    309.12951   0.01694789  0.015896708          245 
 1521000   0.63693888   -7.4811844    309.51881  0.016958076  0.015882243          251 
 1522000   0.66262311   -7.5161198    309.08167     0.016923  0.015867795          315 
 1523000   0.64806011   -7.4964255    310.28607  0.016977789   0.01585337          123 
 1524000   0.65234318   -7.4957987    308.80457  0.016885639  0.015838961          208 
 1525000   0.64476194   -7.4878291    309.82236  0.016930184  0.015824559          108 
 1526000   0.64714024   -7.4919006    309.08245  0.016878684   0.01581018          417 
 1527000    0.6490481   -7.4950344    309.02255  0.016864361  0.015795791          248 
 1528000   0.64698222   -7.4814245     309.4444  0.016876331  0.015781458          216 
 1529000   0.64237524   -7.5060612    308.99551  0.016840828   0.01576713          228 
 1530000   0.64001863   -7.4996482    309.72448  0.016869525  0.015752803          318 
 1531000   0.63391152   -7.5097025    309.08818  0.016823872  0.015738498          135 
 1532000   0.64670818     -7.51353    309.38896  0.016829252   0.01572419          162 
 1533000   0.63394752   -7.5089863    309.50414  0.016824535  0.015709938          256 
 1534000   0.63792195   -7.5214904    308.83286    0.0167771  0.015695656          337 
 1535000   0.64213055   -7.4976041    309.32159  0.016792703  0.015681405          378 
 1536000   0.64120232   -7.4893374    309.87263  0.016811666  0.015667167          303 
 1537000   0.63680454   -7.4768469    309.24589  0.016766748  0.015652955          260 
 1538000   0.63307843   -7.4978459    309.51372  0.016770358  0.015638744          223 
 1539000   0.63775875    -7.511703    309.18765  0.016741805  0.015624511          330 
 1540000   0.62873531   -7.5012294    308.78025  0.016708888  0.015610359          317 
 1541000   0.64351234   -7.5072547    309.37724  0.016730329  0.015596167          285 
 1542000   0.64636518   -7.5275903    308.91913  0.016694722  0.015581948          324 
 1543000    0.6421675   -7.5012105    309.91086  0.016737463  0.015567768          268 
 1544000   0.64917228   -7.5070033    309.52195  0.016705632  0.015553625          285 
 1545000   0.64222647   -7.5193799    309.06709  0.016670285  0.015539459          274 
 1546000   0.62483438   -7.5151605    308.21765  0.016613715  0.015525321          284 
 1547000   0.64524863   -7.5405672    308.92468  0.016641062  0.015511211          260 
 1548000   0.63589252   -7.5164331    309.75571  0.016675049  0.015497083          222 
 1549000   0.64692737   -7.5274494    308.37681  0.016590102  0.015482986          339 
 1550000   0.63078812   -7.5278518    309.24905  0.016626293  0.015468945          202 
 1551000   0.62804271   -7.5338124    308.94839  0.016599419  0.015454912          379 
 1552000   0.64015398   -7.5360077    308.43224  0.016561009  0.015440845          274 
 1553000   0.64179332   -7.5113169    308.95052  0.016578156  0.015426789          368 
 1554000   0.64076595   -7.5026371    308.85214  0.016562213  0.015412786          259 
 1555000   0.61894928   -7.4903735    309.50278   0.01658643  0.015398763          367 
 1556000   0.64191534   -7.5050586    309.28632  0.016564177  0.015384756          311 
 1557000   0.63830708   -7.5148186    308.86568  0.016531025  0.015370749          268 
 1558000   0.63240798   -7.5166139    308.57933  0.016505099  0.015356754          169 
 1559000   0.63082237   -7.5174021    309.09755  0.016522213  0.015342807          358 
 1560000   0.63004766   -7.5085182    308.34378  0.016471356  0.015328863          186 
 1561000   0.63251272   -7.5243294    308.98244  0.016494899  0.015314888          182 
 1562000   0.63931194   -7.5306058    308.36959  0.016451643  0.015300941          235 
 1563000   0.62334338   -7.5513958    308.24452  0.016434449  0.015287004          269 
 1564000   0.64138533   -7.5228519    308.46361  0.016435614  0.015273091          453 
 1565000   0.62059416   -7.5446689    308.37583  0.016420438  0.015259153          406 
 1566000     0.611335   -7.5504996    308.95459  0.016440751  0.015245272          339 
 1567000   0.62654868   -7.5371973    308.46099  0.016404009  0.015231391          380 
 1568000   0.62610534   -7.5356049    308.99876  0.016422128  0.015217541          320 
 1569000   0.63283102   -7.5628715    307.85376  0.016350848  0.015203694          390 
 1570000   0.62192986   -7.5478122    308.89313  0.016395601  0.015189889          152 
 1571000   0.63324133   -7.5573364    308.23002  0.016349991  0.015176092          373 
 1572000   0.62160647   -7.5518668    308.85041  0.016372477  0.015162312          329 
 1573000   0.63122748   -7.5356775    308.82628   0.01636079  0.015148538          257 
 1574000   0.62361468   -7.5391101    308.64985  0.016341055  0.015134793          319 
 1575000   0.62772794   -7.5638775    308.28113  0.016311171  0.015121042          173 
 1576000   0.62585387   -7.5657202    308.64201  0.016319903  0.015107297          469 
 1577000   0.62254986   -7.5531019    309.18589  0.016338295  0.015093578          386 
 1578000   0.61984443   -7.5367537    308.92982  0.016314418  0.015079866          406 
 1579000   0.61146977   -7.5480224     308.5202  0.016282468   0.01506616          374 
 1580000   0.62254589   -7.5378944    308.33505  0.016262397  0.015052462          447 
 1581000   0.61026478   -7.5615646    308.31888  0.016251259   0.01503878          369 
 1582000   0.61980787   -7.5487728    308.85267  0.016269104  0.015025108          415 
 1583000   0.61623222   -7.5584196    308.41567  0.016235822  0.015011447          480 
 1584000     0.622295   -7.5792538    308.36999  0.016223169  0.014997824          356 
 1585000   0.61883931    -7.566982    308.24179  0.016206193  0.014984194          446 
 1586000   0.61515045   -7.5468147    308.60865  0.016215251  0.014970586          407 
 1587000    0.6081504   -7.5846148    308.08946   0.01617777  0.014956972          550 
 1588000   0.60664327   -7.5788606     308.5732  0.016192968   0.01494334          250 
 1589000   0.61871654   -7.5832501    308.39779  0.016173578  0.014929734          213 
 1590000   0.62128644    -7.578999    308.15138  0.016150492  0.014916142          303 
 1591000   0.59694862   -7.5782934     309.1367  0.016191949  0.014902568          196 
 1592000   0.62534727    -7.569758    308.72209  0.016160076  0.014888991          427 
 1593000   0.63370597   -7.5570422    308.38444  0.016132269  0.014875443          469 
 1594000   0.61745062   -7.5805067    307.80988   0.01609211  0.014861942          178 
 1595000   0.61523998   -7.5654498    308.35384  0.016110441  0.014848404          216 
 1596000    0.6185365   -7.5866505    308.89141  0.016128415  0.014834887          385 
 1597000   0.61878682   -7.5807159    307.59853  0.016050852  0.014821395          544 
 1598000   0.61342029    -7.540387    309.09777  0.016118991  0.014807917          340 
 1599000    0.6206768   -7.5947723    308.42049  0.016073613  0.014794452          301 
 1600000   0.61727374   -7.5832313     308.2105   0.01605263  0.014781015          491 
 1601000   0.60940451   -7.5776734    308.21295  0.016042731  0.014767573          448 
 1602000   0.61962924   -7.5945477    307.16788  0.015978354  0.014754144          407 
 1603000   0.60640237   -7.5906087    308.59297  0.016042471  0.014740729          207 
 1604000    0.5948632   -7.5673237    308.02082  0.016002744  0.014727317          416 
 1605000   0.60655357   -7.5786186    308.03324  0.015993418  0.014713945          358 
 1606000   0.60977259   -7.5939675    308.50094  0.016007728  0.014700577          379 
 1607000   0.61844097   -7.5692386    308.06435  0.015975127  0.014687231          201 
 1608000   0.60896632   -7.5924615    308.27628  0.015976176   0.01467389          347 
 1609000   0.61623998   -7.5784599    308.69493  0.015987929  0.014660555          407 
 1610000   0.60206691   -7.5836391     307.9258  0.015938188  0.014647212          435 
 1611000   0.62109454   -7.5900272      307.855  0.015924633  0.014633869          372 
 1612000   0.60046836   -7.6061493    308.15822  0.015930429   0.01462054          414 
 1613000   0.61079341   -7.5978934    307.82958  0.015903574  0.014607239          429 
 1614000    0.6052695   -7.5901663    307.76539  0.015890406  0.014593949          547 
 1615000   0.59919232   -7.6033864    308.13376  0.015899575   0.01458069          250 
 1616000   0.60490222   -7.5952315    307.56893  0.015860609  0.014567463          452 
 1617000   0.62032141   -7.6061927    308.05538   0.01587587  0.014554254          219 
 1618000   0.60382366   -7.5899293    308.04694  0.015865623  0.014541031          461 
 1619000   0.60730234    -7.599741    307.29606  0.015817174  0.014527846          438 
 1620000   0.60551535   -7.5795841    307.84686  0.015835744   0.01451468          226 
 1621000   0.60448859   -7.6141122    308.16437  0.015842298  0.014501532          177 
 1622000   0.59865683    -7.593597     308.3854  0.015843886  0.014488384          223 
 1623000   0.60657343   -7.5933712    308.49791  0.015839901   0.01447527          432 
 1624000   0.58844158   -7.5901824    308.68333  0.015839662  0.014462171          403 
 1625000   0.61087629   -7.6063322    308.20765  0.015805521  0.014449116          441 
 1626000   0.59978358   -7.6103525     307.9474  0.015782462  0.014436042          422 
 1627000   0.60918039   -7.6084651    307.54701  0.015752254   0.01442299          483 
 1628000   0.59319231   -7.5929199    308.53285  0.015793041  0.014409908          442 
 1629000     0.593248   -7.5940005    308.28627  0.015770732  0.014396873          490 
 1630000   0.60346723   -7.6222698    308.01308   0.01574709  0.014383811          491 
 1631000   0.62943296   -7.6144516     307.5883  0.015715732  0.014370754          421 
 1632000   0.59761901   -7.6066351    307.39647  0.015696307  0.014357734          483 
 1633000   0.61533253   -7.6247139    308.09681  0.015722434  0.014344725          321 
 1634000   0.59465202      -7.6182    307.28138  0.015671225   0.01433171          497 
 1635000   0.60204864   -7.6199051    307.49929  0.015672747  0.014318709          215 
 1636000   0.58944876   -7.6103353    308.08695  0.015693101  0.014305725          421 
 1637000   0.59768823   -7.6257401    307.75941   0.01566684  0.014292774          383 
 1638000   0.59506163    -7.628894    308.02521  0.015670798  0.014279838          555 
 1639000    0.6178185   -7.6047353    307.90281  0.015655014  0.014266922          637 
 1640000   0.59715968   -7.6205162     307.8751   0.01564406   0.01425402          577 
 1641000   0.60812814   -7.6164559     307.8263  0.015632049  0.014241111          512 
 1642000   0.60697116   -7.6272967    307.83912  0.015623179  0.014228203          523 
 1643000    0.6017173    -7.629385    307.71935  0.015607595  0.014215312          514 
 1644000   0.59850993   -7.6155422    307.30243  0.015576968  0.014202441          470 
 1645000   0.58381949   -7.6316141     308.0645  0.015606105   0.01418958          449 
 1646000   0.60148665   -7.6286674    307.64995  0.015575636  0.014176748          553 
 1647000   0.60840473   -7.6344652    307.31133  0.015549045   0.01416391          562 
 1648000   0.60453698   -7.6252796    307.86507  0.015567611  0.014151102          494 
 1649000   0.59272623    -7.611959    307.82355  0.015556072  0.014138288          411 
 1650000   0.59823364   -7.6421833     307.2047  0.015515389  0.014125499          417 
 1651000   0.59387766   -7.6310828    307.39408   0.01551555  0.014112739          499 
 1652000   0.58707678   -7.6310415    308.02573  0.015538021  0.014099979          503 
 1653000   0.59547433   -7.6210346      307.629   0.01550862  0.014087226          429 
 1654000   0.59054526   -7.6239106    307.83779  0.015509764  0.014074492          495 
 1655000   0.60813242   -7.6366621    307.95358  0.015506223  0.014061773          455 
 1656000   0.58677782    -7.626013    307.82664  0.015490471  0.014049054          580 
 1657000   0.60572089   -7.6349427    307.33356  0.015456324  0.014036362          639 
 1658000   0.58968332   -7.6363396    307.27778  0.015444199  0.014023656          604 
 1659000   0.59656285   -7.6177582    307.99026  0.015470678  0.014010973          454 
 1660000    0.5948286   -7.6333042    307.40232  0.015431843  0.013998302          545 
 1661000   0.60809337   -7.6462208    307.33412  0.015419131  0.013985643          439 
 1662000   0.59395816   -7.6267219    307.52545  0.015419447  0.013972994          419 
 1663000   0.57304281   -7.6577033    307.15588  0.015391656  0.013960366          608 
 1664000   0.57920932   -7.6308253    307.37542    0.0153934  0.013947721          524 
 1665000   0.59206743     -7.63656    307.73525  0.015402165  0.013935099          570 
 1666000   0.59563404   -7.6527144    307.02159  0.015357222    0.0139225          498 
 1667000   0.60002271   -7.6615526    307.21416  0.015357637  0.013909925          529 
 1668000   0.57903752   -7.6355367     307.4237  0.015358898  0.013897334          450 
 1669000   0.59153799   -7.6620895    307.11824  0.015334444  0.013884765          643 
 1670000   0.59246629    -7.652039    307.43048  0.015340842   0.01387222          281 
 1671000   0.58645669   -7.6731401    306.70253  0.015295359  0.013859676          616 
 1672000   0.58981969   -7.6585737    307.28326  0.015315154   0.01384714          555 
 1673000   0.59672681    -7.647183    307.22734  0.015303215  0.013834607          610 
 1674000   0.57709959   -7.6480828     306.7287   0.01526925  0.013822096          688 
 1675000   0.57523664    -7.640161    307.79592   0.01531323  0.013809582          609 
 1676000   0.57915444   -7.6384322    307.36808   0.01528282  0.013797085          601 
 1677000   0.58471563   -7.6613298    307.07284  0.015259036  0.013784596          618 
 1678000   0.59201535   -7.6559297    307.05149  0.015248882   0.01377212          513 
 1679000   0.59203868   -7.6453053    306.61565  0.015218168  0.013759663          698 
 1680000   0.58959328   -7.6780297    307.09126  0.015232701  0.013747218          571 
 1681000    0.5905558   -7.6307057    306.85898  0.015212125  0.013734796          310 
 1682000   0.57533849   -7.6838594    306.69225   0.01519482  0.013722392          592 
 1683000   0.59230746   -7.6674081    307.05444  0.015203725  0.013709983          345 
 1684000   0.58238234   -7.6542935    307.23209  0.015203488  0.013697597          214 
 1685000   0.58302016   -7.6669588    306.92094  0.015179077   0.01368522          491 
 1686000   0.57667984   -7.6512839    306.68108  0.015158218  0.013672839          562 
 1687000   0.58059751   -7.6669032    306.54187  0.015142357  0.013660469          655 
 1688000   0.58517361   -7.6631589    306.78506  0.015145392  0.013648121          545 
 1689000   0.56970573    -7.646382    307.14338  0.015154104   0.01363577          532 
 1690000    0.5635793   -7.6530409    307.04168  0.015140122  0.013623438          542 
 1691000   0.57059315    -7.644837    306.57589  0.015108214  0.013611107          493 
 1692000   0.57370951    -7.665131    306.63893   0.01510239  0.013598795          684 
 1693000   0.57919695    -7.665057    306.65406  0.015094215  0.013586503          678 
 1694000   0.56548628   -7.6793366     307.0038  0.015102509  0.013574221          634 
 1695000   0.57797142   -7.6542937    307.07552  0.015097125  0.013561929          525 
 1696000   0.57839775   -7.6913399    307.17561  0.015093141  0.013549687          691 
 1697000   0.56964021   -7.6799938    306.12778  0.015032792  0.013537441          643 
 1698000   0.57365326   -7.6795164    306.46803  0.015040637  0.013525193          564 
 1699000   0.58050851   -7.6794251    306.91175  0.015053549  0.013512972          679 
 1700000   0.58089089   -7.6871506    306.49308   0.01502417  0.013500752          755 
 1701000    0.5816984   -7.6981459    306.01236  0.014991787  0.013488541          699 
 1702000   0.56547988   -7.6796198      306.451  0.015004455   0.01347635          308 
 1703000   0.57879178   -7.6794891    306.47072   0.01499661  0.013464158          631 
 1704000   0.58265952   -7.6833861     306.2558  0.014977299  0.013451976          714 
 1705000   0.56487106   -7.6835734     306.9316  0.015001545  0.013439803          734 
 1706000   0.58450896    -7.691043    306.77711  0.014985205  0.013427669          494 
 1707000   0.56750749   -7.6999081    306.81383  0.014978218  0.013415534          374 
 1708000    0.5806702   -7.6827973    306.55576  0.014956858  0.013403419          623 
 1709000   0.57599967   -7.6863915    306.27563  0.014934447  0.013391312          282 
 1710000   0.56132292   -7.6655115    306.78819  0.014950692  0.013379215          464 
 1711000    0.5894508   -7.6816328    306.65428  0.014935432  0.013367134          443 
 1712000    0.5685826   -7.6808612    306.32086  0.014910478  0.013355081          692 
 1713000    0.5658218   -7.6882285    306.20244  0.014896013  0.013343018          535 
 1714000    0.5780784   -7.6768928    306.27565  0.014890881  0.013330979          326 
 1715000   0.57194339   -7.6961873     306.7654  0.014905996  0.013318965          640 
 1716000   0.56405294    -7.689548    306.57606  0.014888115  0.013306962          336 
 1717000   0.57490204   -7.6850378    306.05342  0.014854078  0.013294968          298 
 1718000   0.56350534   -7.7066506    306.52755   0.01486843  0.013282969          554 
 1719000   0.56468513   -7.6789318    306.60035   0.01486331  0.013270999          521 
 1720000    0.5720524   -7.7015153    306.35464  0.014842764   0.01325904          446 
 1721000   0.55974775    -7.685753    306.22523  0.014827873  0.013247089          544 
 1722000   0.56022406   -7.7070632    305.79437  0.014798411  0.013235148          479 
 1723000   0.56065401   -7.6982645    306.18593   0.01480876  0.013223204          585 
 1724000   0.56031019   -7.7035391    306.21635  0.014801641   0.01321128          699 
 1725000   0.55205897    -7.701722    306.56277  0.014809796  0.013199371          415 
 1726000   0.57779307   -7.7069065    305.66086   0.01475767   0.01318748          309 
 1727000   0.57819543    -7.700571    306.50456  0.014789836   0.01317559          687 
 1728000   0.56393182   -7.7082431    306.11961  0.014762713  0.013163718          687 
 1729000   0.56382807   -7.6957654    305.93788  0.014745416  0.013151875          363 
 1730000   0.56159929    -7.718725    305.95053  0.014737501  0.013140035          617 
 1731000   0.56544678   -7.7116899    306.18652  0.014740348  0.013128189          706 
 1732000    0.5573893    -7.717469    306.31101  0.014737828  0.013116361          447 
 1733000   0.54988276   -7.7011082    305.69705    0.0146998  0.013104556          593 
 1734000   0.56607833   -7.7108087    306.67495  0.014738319   0.01309278          575 
 1735000   0.56714333   -7.6991736    306.07008  0.014700772  0.013081008          636 
 1736000   0.56055457    -7.712756    306.13868  0.014695597  0.013069225          585 
 1737000   0.55675261   -7.6926075    306.20439  0.014690289  0.013057462          298 
 1738000   0.55148777   -7.7049775    305.87422  0.014666006  0.013045722          691 
 1739000   0.55155353   -7.7300731    306.58449  0.014691609  0.013033977          676 
 1740000   0.55983596   -7.7237543    305.76472  0.014643904  0.013022263          655 
 1741000   0.55204623   -7.6940174    306.40981   0.01466637  0.013010571          457 
 1742000   0.54610438   -7.7166054     305.9308  0.014635036   0.01299889          296 
 1743000   0.55648691   -7.6978313    306.29957  0.014644271  0.012987215          428 
 1744000   0.55919231   -7.7241489    306.20697  0.014631449  0.012975561          582 
 1745000   0.54595426   -7.7126607    305.08774  0.014569615  0.012963898          671 
 1746000   0.56137087   -7.7148822    306.38349  0.014623114  0.012952266          534 
 1747000   0.55496007   -7.7136819    306.25764  0.014608741  0.012940634          703 
 1748000   0.54532823     -7.71506    306.56832  0.014615194  0.012929006          473 
 1749000   0.55359353   -7.7035322    305.58967  0.014560209   0.01291742          636 
 1750000   0.54081022   -7.7146552    305.91397  0.014567332  0.012905837          616 
 1751000   0.54445766   -7.7140047    305.85129  0.014556029  0.012894245          335 
 1752000   0.55502601   -7.7264209    306.22412  0.014565455  0.012882682          644 
 1753000   0.55349582   -7.7263242    305.77912  0.014535991  0.012871139          707 
 1754000   0.56176293   -7.7187681    306.33057  0.014553904  0.012859605          609 
 1755000   0.55568264    -7.714026    305.50109  0.014506224  0.012848078          728 
 1756000   0.55616239   -7.7174179    305.64328  0.014504711  0.012836558          621 
 1757000   0.55659839   -7.7278204    305.94683  0.014510853  0.012825045          337 
 1758000   0.53857453   -7.7216816    305.65397  0.014488717  0.012813555          614 
 1759000   0.54982246   -7.7122893    305.60561  0.014478189  0.012802057          746 
 1760000   0.55029231   -7.7268967    305.67181  0.014473097  0.012790593          677 
 1761000    0.5440358   -7.6968877    306.19191   0.01448949  0.012779125          300 
 1762000   0.55683996   -7.7180768     305.8663  0.014465867  0.012767683          669 
 1763000   0.55599435   -7.7263064    305.75893  0.014452587  0.012756249          703 
 1764000   0.55408658   -7.7207391    305.45037  0.014429817  0.012744835          627 
 1765000   0.54731374   -7.7336415    306.05976  0.014450413   0.01273342          367 
 1766000   0.55969864   -7.7297228    305.92153  0.014435708  0.012722027          293 
 1767000   0.54138386   -7.7062765    305.81309  0.014422424  0.012710633          611 
 1768000   0.56089363   -7.7182452    305.85338  0.014416166  0.012699261          641 
 1769000   0.55599155   -7.7382502      305.577  0.014394997   0.01268789          682 
 1770000   0.55381504   -7.7360694    306.11091  0.014412001  0.012676545          714 
 1771000   0.53997169   -7.7403131    305.78913  0.014388722  0.012665201          650 
 1772000   0.53925143   -7.7265556    305.52976  0.014368405  0.012653872          724 
 1773000   0.55210803   -7.7258816    305.74047  0.014370204  0.012642552          687 
 1774000   0.54477469   -7.7551216    306.00292  0.014374433  0.012631251          638 
 1775000   0.53639178   -7.7285125    306.05292  0.014368682  0.012619974          580 
 1776000    0.5551855   -7.7381588     306.1412  0.014364733  0.012608696          517 
 1777000   0.54130894   -7.7249788    305.19087  0.014312084  0.012597429          670 
 1778000   0.53291245   -7.7380093    306.01906  0.014342851  0.012586166          533 
 1779000   0.55017565   -7.7663424    305.39965  0.014305773  0.012574917          668 
 1780000   0.53730254   -7.7547897    305.47023  0.014301041  0.012563683          713 
 1781000    0.5394675   -7.7506921    305.99458  0.014317546  0.012552456          683 
 1782000   0.55718706   -7.7409702    305.27851  0.014276024  0.012541257          686 
 1783000   0.54420208   -7.7324879    306.00955  0.014302185  0.012530067          736 
 1784000   0.54360772   -7.7503277    305.94177  0.014291002   0.01251889          670 
 1785000   0.53595399   -7.7387224    305.37155  0.014256375  0.012507729          545 
 1786000   0.53732786   -7.7413471    305.81945  0.014269291   0.01249657          714 
 1787000   0.53758993   -7.7473848    304.95109  0.014220812  0.012485432          572 
 1788000   0.53182627   -7.7439275    305.85062  0.014254783  0.012474292          678 
 1789000   0.52731305   -7.7446116    305.36434  0.014224164  0.012463171          489 
 1790000   0.53987146   -7.7512256    305.12081  0.014204879  0.012452059          645 
 1791000   0.53275236   -7.7560096    305.67596  0.014222779  0.012440969          578 
 1792000   0.53647704   -7.7628918    305.70586  0.014216232  0.012429895          680 
 1793000   0.52924088   -7.7513544    305.31015  0.014189912  0.012418837          687 
 1794000   0.54132091   -7.7490927    305.24993  0.014179205  0.012407787          622 
 1795000   0.53218592   -7.7661909     305.6252  0.014188728  0.012396747          631 
 1796000   0.53424085   -7.7560579    305.98092  0.014197333  0.012385713          566 
 1797000   0.54573108    -7.764218     305.1739  0.014152008  0.012374718          623 
 1798000   0.53076733   -7.7669015    305.40882  0.014155025  0.012363717          571 
 1799000   0.54515354   -7.7481326    305.65359  0.014158495  0.012352724          620 
 1800000   0.52853491   -7.7524413     305.7294  0.014154139  0.012341741          450 
 1801000   0.53165194   -7.7493055    305.49209    0.0141353  0.012330772          519 
 1802000   0.53652331   -7.7553186    304.95883  0.014102795  0.012319806          629 
 1803000   0.53457701   -7.7551669    305.76226  0.014132107  0.012308868          323 
 1804000   0.53317303   -7.7621328    305.41306  0.014108142   0.01229794          417 
 1805000   0.54157485   -7.7372192     305.8456  0.014120295  0.012287046          488 
 1806000   0.52591186    -7.741646      304.802  0.014064323  0.012276141          649 
 1807000   0.53512252   -7.7463533    305.39002  0.014083657   0.01226525          272 
 1808000   0.54774267   -7.7583382    305.99676  0.014103833  0.012254365          517 
 1809000   0.52102496   -7.7532123     305.4568  0.014071163  0.012243493          417 
 1810000   0.53620441    -7.757016       305.26  0.014054328  0.012232636          645 
 1811000     0.535607   -7.7748171    305.45286  0.014055442  0.012221797          636 
 1812000   0.52713179   -7.7580241    305.35136  0.014043017  0.012210961          705 
 1813000   0.53304977   -7.7624238    305.00106   0.01401917  0.012200115          717 
 1814000   0.52383619    -7.746952     305.0287  0.014012711  0.012189303          614 
 1815000   0.54371085   -7.7451952    305.31904  0.014018322  0.012178503          640 
 1816000   0.53564547    -7.762056    305.46186  0.014017156   0.01216772          671 
 1817000   0.52357645   -7.7576707    305.30182  0.014002101   0.01215694          607 
 1818000   0.52689533   -7.7620726    304.93692  0.013977673  0.012146168          380 
 1819000   0.52912851   -7.7673301    305.20484  0.013982263  0.012135435          714 
 1820000   0.52021877   -7.7673502    305.20202  0.013974452  0.012124696          614 
 1821000   0.52065602   -7.7861648    304.86893  0.013951534  0.012113969          610 
 1822000   0.51373768   -7.7390394    305.19314  0.013958706  0.012103258          638 
 1823000     0.524343   -7.7713615    304.52343  0.013920435   0.01209255          704 
 1824000    0.5214613   -7.7933586    305.36792  0.013951385  0.012081844          297 
 1825000   0.52586853   -7.7541521    305.43206  0.013946669  0.012071161          512 
 1826000   0.52188024   -7.7723128     305.0019  0.013919401  0.012060493          661 
 1827000   0.51766279   -7.7528513    304.95165   0.01390949  0.012049825          676 
 1828000   0.52173559   -7.7590232    305.58054   0.01393055  0.012039181          620 
 1829000   0.53925274    -7.777803     304.7122   0.01388337  0.012028548          558 
 1830000   0.51786269   -7.7603714    305.22866  0.013899301  0.012017931          520 
 1831000   0.52229945    -7.750244    304.83954  0.013874001   0.01200732          626 
 1832000    0.5092694   -7.7839008    305.22059  0.013883761   0.01199671          407 
 1833000   0.52290173   -7.7837143    304.80516  0.013857299  0.011986102          553 
 1834000   0.51340222   -7.7945545    304.71123  0.013845476  0.011975515          653 
 1835000   0.51521588   -7.7694064    304.67977  0.013836502  0.011964938          670 
 1836000   0.53755326   -7.7663743    305.35371  0.013859555  0.011954377          581 
 1837000   0.52185553   -7.7652991    305.74458  0.013869742  0.011943833          668 
 1838000   0.52439002   -7.7974842    304.77573  0.013818268  0.011933301          732 
 1839000   0.52213803   -7.7816168    304.87203  0.013815118  0.011922775          704 
 1840000   0.51516023   -7.7754929    305.39589  0.013831336  0.011912256          733 
 1841000   0.51694124   -7.7903014    304.82749  0.013798094  0.011901754          581 
 1842000   0.51746146   -7.7703469    305.18152   0.01380662  0.011891261          541 
 1843000   0.51299879   -7.7913988    304.71233  0.013777913  0.011880769          449 
 1844000    0.5202874   -7.7874789    304.87916  0.013777981  0.011870297          418 
 1845000   0.52448571   -7.7559033    305.48819  0.013798021  0.011859834          643 
 1846000   0.52484124   -7.7739352    305.05727  0.013771094   0.01184939          794 
 1847000   0.52406805   -7.7928399    304.74808  0.013749688  0.011838948          586 
 1848000   0.51526316   -7.7802858    305.03994  0.013755409   0.01182852          681 
 1849000   0.50589016   -7.7798942    305.24971  0.013757423  0.011818097          387 
 1850000   0.51803815   -7.7823092    304.74703  0.013727344  0.011807704          785 
 1851000    0.5208541    -7.792412    304.90851  0.013727198   0.01179731          385 
 1852000   0.50233008   -7.7692186    304.89686  0.013719261  0.011786909          574 
 1853000   0.51547088    -7.795036    304.90801  0.013712359  0.011776549          649 
 1854000   0.50908519   -7.7849015      304.389  0.013681634  0.011766176          623 
 1855000   0.51202048   -7.7893736    304.90793  0.013697571  0.011755837          555 
 1856000   0.50873062   -7.8012619    304.78567  0.013684701  0.011745505          724 
 1857000   0.51210147   -7.7856809    304.68087  0.013672629  0.011735176          655 
 1858000   0.50104985   -7.7695893    304.76847  0.013669199   0.01172487          690 
 1859000   0.51418329   -7.7653933    304.26138  0.013639115  0.011714573          727 
 1860000   0.51277569   -7.8000107    304.72621  0.013652608  0.011704282          622 
 1861000   0.50836264   -7.8015655    305.15911  0.013664656  0.011694009          675 
 1862000   0.51188596   -7.7888212    304.59821  0.013632215  0.011683761          420 
 1863000   0.50542825   -7.8062735    304.71966   0.01363033  0.011673508          655 
 1864000   0.51438646   -7.8019622    304.48859  0.013612687  0.011663278          628 
 1865000   0.50841565   -7.8037476    304.86524  0.013622218  0.011653052          342 
 1866000    0.5078412   -7.7994115    304.76639  0.013610503  0.011642832          665 
 1867000   0.50416956   -7.8089688    304.43917  0.013588608   0.01163262          616 
 1868000   0.49596927   -7.7787155    304.55394  0.013586454  0.011622425          467 
 1869000   0.51045592   -7.7959579    304.40311  0.013572459  0.011612242          753 
 1870000   0.49733503    -7.798378    304.42435  0.013566148  0.011602061          544 
 1871000   0.51187597   -7.7914783    304.75812  0.013573763  0.011591887          799 
 1872000   0.51459158   -7.7669515    304.88467  0.013572145  0.011581727          613 
 1873000   0.49855033   -7.8114453    304.52853  0.013549053  0.011571587          638 
 1874000   0.49796922   -7.8036934    304.24994  0.013529435  0.011561456          788 
 1875000   0.50524166   -7.7994023    304.54825  0.013535478  0.011551336          679 
 1876000   0.49732559   -7.8048247    304.28058  0.013516373  0.011541234          465 
 1877000   0.50688331   -7.8213262    304.07056  0.013499847  0.011531132          653 
 1878000   0.50076553   -7.7929012    304.08067  0.013493108  0.011521048          690 
 1879000   0.51507626   -7.8003984    304.40822  0.013500453  0.011510981          610 
 1880000   0.50080801   -7.8013727     304.4339   0.01349441  0.011500911          617 
 1881000   0.50192677   -7.8098275     304.3334  0.013482784  0.011490856          732 
 1882000   0.49595205    -7.795081    304.58532  0.013486775  0.011480827          299 
 1883000   0.50645438   -7.8079713    304.59007  0.013479822  0.011470798          765 
 1884000   0.50553365   -7.7979604    304.58443  0.013472418  0.011460769          729 
 1885000   0.50229376   -7.8072371    304.55776  0.013464092  0.011450759          671 
 1886000   0.50391439   -7.8066241    304.43104  0.013451354  0.011440754          719 
 1887000   0.49991513   -7.8174438    303.75973  0.013414579  0.011430757          678 
 1888000   0.49772829   -7.8146498    303.89007  0.013413227  0.011420777          685 
 1889000   0.49978743   -7.8169538    304.26314  0.013422584  0.011410809          623 
 1890000   0.51226572   -7.7995137    304.41941  0.013422373  0.011400843          512 
 1891000   0.50453727    -7.816832    304.05486  0.013399209  0.011390901          663 
 1892000   0.50664389   -7.8071196    304.89871  0.013429295  0.011380957          546 
 1893000   0.50534716   -7.7981447       305.11  0.013431502  0.011371026          672 
 1894000   0.49102358   -7.8203857    304.63598  0.013403554  0.011361119          661 
 1895000   0.49556038   -7.8080232    304.57179  0.013393658  0.011351216          689 
 1896000   0.48817369   -7.8225167    304.55914  0.013386038  0.011341318          739 
 1897000   0.49879726   -7.8007912    304.82815  0.013390799  0.011331433          592 
 1898000   0.49626878   -7.8188137    304.38648  0.013364352  0.011321557          670 
 1899000   0.48898579     -7.82041    304.21767  0.013349906  0.011311683          786 
 1900000   0.49386548   -7.8170245    303.78755  0.013324015  0.011301828          647 
 1901000   0.49267988   -7.8119378    304.35694  0.013341967  0.011291988          757 
 1902000   0.49181163   -7.8052026    304.38319  0.013336102  0.011282146          749 
 1903000   0.48659868   -7.8272178     304.3912  0.013329445  0.011272325          694 
 1904000   0.48997161   -7.8165223    304.34165  0.013320275   0.01126252          804 
 1905000   0.49673783   -7.8117999    304.30409   0.01331164  0.011252713          671 
 1906000    0.4852369   -7.8258593    303.97016  0.013290056  0.011242921          791 
 1907000   0.49501316   -7.8210064    304.30225  0.013297599  0.011233138          554 
 1908000    0.4942844   -7.8337115     303.5703  0.013258661   0.01122336          614 
 1909000    0.4860002   -7.8072358    304.30185   0.01328365    0.0112136          695 
 1910000   0.48238564   -7.8357211    304.56518  0.013288184  0.011203853          771 
 1911000   0.47757788   -7.8257391     304.2728  0.013268481  0.011194122          684 
 1912000   0.48426009   -7.8281627    304.34436   0.01326466  0.011184392          693 
 1913000   0.49220598   -7.8158757    304.23992  0.013253176  0.011174677          723 
 1914000   0.47922551   -7.8220096    304.30296  0.013248997  0.011164971          582 
 1915000   0.49197192   -7.8194379     304.2167  0.013238325  0.011155279          777 
 1916000   0.49443659   -7.8172487    304.66906   0.01325109    0.0111456          657 
 1917000   0.48753842   -7.8398367     304.2163  0.013224496   0.01113593          643 
 1918000   0.47946288   -7.8221772    304.19084  0.013216495  0.011126283          717 
 1919000   0.49540923   -7.8129999     303.7638  0.013191063  0.011116632          458 
 1920000   0.49326303   -7.8397937    304.76554  0.013227671  0.011106995          690 
 1921000   0.50435595    -7.814563    304.31494  0.013201238  0.011097369          793 
 1922000   0.48170037    -7.843159    303.68043  0.013166859  0.011087745          763 
 1923000   0.47041266   -7.8332494    304.57258  0.013198673  0.011078128          700 
 1924000   0.47683629   -7.8406451    304.10942  0.013171752  0.011068527          739 
 1925000   0.48498197   -7.8275168    304.24952  0.013170975  0.011058941          636 
 1926000   0.49362766   -7.8254016    303.90945  0.013149422  0.011049359          717 
 1927000   0.49034738   -7.8401518     304.0044  0.013146705  0.011039793          755 
 1928000   0.47612445   -7.8344016    304.20612  0.013148605  0.011030242          752 
 1929000    0.4880293   -7.8381285    304.42152  0.013151094  0.011020696          736 
 1930000   0.47798882    -7.842624    303.95703  0.013124224  0.011011164          743 
 1931000   0.48012259   -7.8217441    303.91546  0.013115634  0.011001635          754 
 1932000   0.48285297   -7.8247837    303.74078   0.01310131  0.010992117          548 
 1933000   0.47909866   -7.8411704    303.90211  0.013101488  0.010982613          728 
 1934000   0.48023614   -7.8266657     303.8582  0.013092821  0.010973118          565 
 1935000   0.49217075   -7.8506097    304.09676  0.013096329  0.010963633          798 
 1936000   0.47880008   -7.8494644    303.67082   0.01307123  0.010954164          776 
 1937000   0.47989828   -7.8332119    303.72463  0.013066797  0.010944707          786 
 1938000   0.46967618   -7.8356406    304.20715  0.013080803  0.010935258          737 
 1939000   0.47761289   -7.8359472    304.32103  0.013078951  0.010925814          845 
 1940000   0.48346563   -7.8396569    303.56941  0.013039923  0.010916382          767 
 1941000   0.47435193   -7.8415551    303.87605   0.01304637   0.01090696          752 
 1942000   0.47574699   -7.8278181    304.25926  0.013056096  0.010897551          696 
 1943000   0.47795043   -7.8411278    303.76742  0.013028282  0.010888144          811 
 1944000   0.47113775   -7.8522775    303.69858  0.013018629   0.01087876          718 
 1945000   0.47672941   -7.8574238     303.8234  0.013017284  0.010869371          810 
 1946000   0.47606173   -7.8519136    303.33298  0.012989593  0.010860001          795 
 1947000    0.4797844   -7.8388292    303.60134  0.012994408  0.010850645          719 
 1948000   0.47337195    -7.838312    303.20922  0.012970963  0.010841303          684 
 1949000   0.47922211   -7.8582593    303.51377  0.012977329  0.010831967          702 
 1950000   0.47535066   -7.8502436    303.94842  0.012989249  0.010822631          746 
 1951000   0.46835241   -7.8409239    303.60464  0.012967907  0.010813319          750 
 1952000   0.47996561   -7.8371991     304.0713  0.012981186  0.010804008          714 
 1953000   0.47634901   -7.8399224    304.08944  0.012975313  0.010794704          726 
 1954000   0.46341405   -7.8417414    303.75037  0.012954212  0.010785413          834 
 1955000   0.47487615   -7.8542508    303.33529  0.012929893  0.010776129          667 
 1956000   0.47367119   -7.8515843    303.71126    0.0129393  0.010766868          466 
 1957000   0.46986628   -7.8467937    303.37751  0.012918477  0.010757607          708 
 1958000   0.47167722   -7.8465072    303.76878  0.012928532  0.010748355          831 
 1959000   0.46754927   -7.8543269    303.59588  0.012914577  0.010739103          822 
 1960000    0.4762155   -7.8526005    303.57536  0.012907115  0.010729871          813 
 1961000   0.46228809   -7.8481963     303.3169   0.01288955  0.010720658          783 
 1962000   0.46916267   -7.8544872    303.46828   0.01288941  0.010711451          377 
 1963000   0.48029065   -7.8590105    303.27873  0.012874797  0.010702245          787 
 1964000   0.46870455   -7.8728707    303.74545  0.012888045  0.010693048          716 
 1965000    0.4644259   -7.8518418     303.6267   0.01287645  0.010683859          841 
 1966000   0.46634393   -7.8715214    303.65941  0.012871287  0.010674688          672 
 1967000   0.46823819   -7.8478588    303.73934   0.01286813  0.010665527          694 
 1968000   0.47004314   -7.8483186    303.83529  0.012865654  0.010656386          726 
 1969000   0.47257051   -7.8457479    303.50517  0.012845149  0.010647247          784 
 1970000   0.46602808   -7.8630161     303.2094  0.012826117  0.010638117          731 
 1971000   0.46566494   -7.8583413    303.34625  0.012825395  0.010628987          690 
 1972000   0.47435448   -7.8476211    303.69056  0.012833442  0.010619882          706 
 1973000   0.47787871   -7.8522395    303.85228  0.012833768  0.010610787          781 
 1974000   0.46608263   -7.8620465    303.37437  0.012807091  0.010601704          788 
 1975000   0.45991857   -7.8522395    303.77239    0.0128174  0.010592628          813 
 1976000   0.46476047   -7.8487469    303.62053   0.01280451   0.01058356          799 
 1977000   0.46264929   -7.8728219    303.65563  0.012799512  0.010574505          742 
 1978000   0.45160191   -7.8599189    303.19096  0.012773465  0.010565462          662 
 1979000   0.45447405   -7.8714696    303.18352  0.012766697  0.010556429          749 
 1980000   0.46007961   -7.8693354    303.43927  0.012771013  0.010547403          700 
 1981000   0.45367241   -7.8712537    303.80006  0.012779744  0.010538387          631 
 1982000   0.45897388   -7.8932794    303.59177  0.012764538  0.010529387          677 
 1983000   0.44768915   -7.8683598     303.3851  0.012749416  0.010520384          770 
 1984000   0.46012535   -7.8715175    303.56249  0.012750441  0.010511396          369 
 1985000   0.47091887   -7.8719804    303.15058  0.012726725  0.010502415          687 
 1986000   0.46303112   -7.8724039    303.55422  0.012737253  0.010493449          702 
 1987000   0.47252541   -7.8677123    303.75759  0.012739372  0.010484505          732 
 1988000   0.45853286   -7.8766168    303.42142  0.012718872  0.010475561          814 
 1989000   0.47048356   -7.8541082    302.90083  0.012690667   0.01046662          723 
 1990000   0.46966602   -7.8716373    303.54802  0.012711391  0.010457684          715 
 1991000   0.45791232    -7.876882    303.67913  0.012710494  0.010448766          858 
 1992000   0.45428528   -7.8796384    303.85682  0.012711547  0.010439857          691 
 1993000   0.45904764   -7.8648189     303.3786  0.012685173  0.010430953          741 
 1994000    0.4467986   -7.8755619    303.47334  0.012682771  0.010422061          812 
 1995000   0.44756807   -7.8570102    303.78965  0.012689626  0.010413177          810 
 1996000   0.45550724    -7.862698    303.16734  0.012657287  0.010404308          245 
 1997000   0.45170606   -7.8552654    303.44673  0.012662608  0.010395449          781 
 1998000   0.47134378   -7.8907136    303.19222  0.012645655  0.010386603          730 
 1999000    0.4534652   -7.8645531    303.84977   0.01266674  0.010377765          723 
 2000000   0.45424355   -7.8650164    303.24022  0.012635009  0.010368931          753 
 2001000   0.47746263    -7.876697    303.46977  0.012638255  0.010360109          874 
 2002000   0.45578771   -7.8850188    303.35166  0.012627026  0.010351295          799 
 2003000   0.46410805   -7.8783933    303.35737  0.012620959  0.010342483          800 
 2004000   0.45291976   -7.8824252    302.74849  0.012589342  0.010333685          765 
 2005000   0.44894066   -7.8642794    302.93012  0.012590612  0.010324902          820 
 2006000     0.434416    -7.876501    303.58787  0.012611659  0.010316126          757 
 2007000   0.46387935   -7.8749242      303.327  0.012594544  0.010307368          759 
 2008000   0.45327342   -7.8849874    303.67971   0.01260291  0.010298611          676 
 2009000   0.44991981    -7.901933    303.58935  0.012592888  0.010289858          766 
 2010000   0.44844873   -7.8779602    303.07479   0.01256529  0.010281121          810 
 2011000   0.45374149   -7.8907224    303.10464  0.012560279  0.010272392          652 
 2012000   0.44717142   -7.8659002    303.31013  0.012562547  0.010263676          832 
Loop time of 5243.9 on 48 procs for 2000000 steps with 4000 atoms

Performance: 65905.133 tau/day, 381.395 timesteps/s
99.4% CPU use with 48 MPI tasks x no OpenMP threads

MPI task timing breakdown:
Section |  min time  |  avg time  |  max time  |%varavg| %total
---------------------------------------------------------------
Pair    | 396.97     | 423.7      | 451.22     |  69.8 |  8.08
Neigh   | 36.775     | 38.039     | 39.181     |  10.8 |  0.73
Comm    | 334.63     | 362.66     | 392.34     |  75.5 |  6.92
Output  | 4.9745     | 4.9769     | 5.0244     |   0.3 |  0.09
Modify  | 4346       | 4367.5     | 4382.5     |  11.0 | 83.29
Other   |            | 46.99      |            |       |  0.90

Nlocal:        83.3333 ave          91 max          76 min
Histogram: 2 1 2 4 16 6 13 3 0 1
Nghost:        2421.38 ave        2435 max        2410 min
Histogram: 6 3 7 3 8 7 4 4 2 4
Neighs:        16833.4 ave       19003 max       14539 min
Histogram: 1 7 3 4 8 4 7 8 5 1
FullNghs:      33666.5 ave       36991 max       30679 min
Histogram: 2 1 2 11 11 10 9 1 0 1

Total # of neighbors = 1615992
Ave neighs/atom = 403.99800
Neighbor list builds = 106768
Dangerous builds = 0

#clear
#
#next RN
#
#jump SELF
Total wall time: 1:27:27
