
units lj                  # Use reduced LJ style units
atom_style atomic         # Uncharged point particles
atom_modify map hash      # Needed for indexing of clusters etc
                          # Used to be able to find where atoms are in relation to each other.

lattice fcc 1.0 spacing 1 1 1
Lattice spacing in x,y,z = 1.5874011 1.5874011 1.5874011
region box block 0 10 0 10 0 10 units lattice
create_box 2 box
Created orthogonal box = (0.0000000 0.0000000 0.0000000) to (15.874011 15.874011 15.874011)
  3 by 4 by 4 MPI processor grid
create_atoms 1 box
Created 4000 atoms
  using lattice units in orthogonal box = (0.0000000 0.0000000 0.0000000) to (15.874011 15.874011 15.874011)
  create_atoms CPU = 0.002 seconds
set type 1 type/fraction 2 0.02 78393
Setting atom values ...
  77 settings made for type/fraction
mass 1 1.0
mass 2 1.0
pair_style lj/cut  3.5
pair_modify tail  yes
pair_coeff 1  1  1.0  1.0   # Intearaction between 1 and 1 set with epsilon = 1 and sigma = 1
pair_coeff 1  2  1.5  0.8
pair_coeff 2  2  0.5  0.88

write_data data.0
System init for write_data ...
Neighbor list info ...
  update every 1 steps, delay 10 steps, check yes
  max neighbors/atom: 2000, page size: 100000
  master list distance cutoff = 3.8
  ghost atom cutoff = 3.8
  binsize = 1.9, bins = 9 9 9
  1 neighbor lists, perpetual/occasional/extra = 1 0 0
  (1) pair lj/cut, perpetual
      attributes: half, newton on
      pair build: half/bin/atomonly/newton
      stencil: half/bin/3d
      bin: standard
WARNING: Not all mixed pair coeffs generated from mixing. Use write_data with 'pair ij' option to store all pair coeffs. (../write_data.cpp:312)


#############################
#   M E L T   S Y S T E M   #
#############################

velocity all create 2.4 9622624 mom yes dist gaussian # Assign velocities
                                                    # Temperature 2.4, random number seed, zero linear momentum
                                                                                # Gaussian distribution

timestep 0.002   # simulation timestep
thermo 1000       # output thermodynamic data every 1000 steps bf 100

# Define a fix  in this case with index 1 applied to all
# particles in the simulation. This fix is for simulations
# in the anisotropic NPT ensemble. Note that we use the MTK
# correction.
fix 1 all npt temp 2.4 2.4 0.1 iso 5.68 5.68 0.5 mtk yes tchain 5 pchain 5 # Use NPT ensemble
                                                                         # Set temperature and pressure and damping
                                                                         # Numbers of thermostats in chain and in barostat
run 10000          # run for 10000 steps
Per MPI rank memory allocation (min/avg/max) = 3.642 | 3.644 | 3.648 Mbytes
Step Temp E_pair E_mol TotEng Press Volume 
       0          2.4   -8.2581388            0   -4.6590388   -2.3989133         4000 
    1000    2.3941835   -4.4851858            0  -0.89480831    5.6199334    5114.0852 
    2000    2.3923909   -4.3810759            0  -0.79338678    5.6682714    5174.5799 
    3000     2.415912   -4.3970825            0  -0.77412048    6.0332801      5117.97 
    4000    2.4191997   -4.3832914            0  -0.75539912    5.3935766    5215.6345 
    5000    2.4304923   -4.3901581            0  -0.74533105    5.5102899    5200.0447 
    6000    2.3993039   -4.3878916            0  -0.78983556    5.4458306     5200.951 
    7000    2.4284189    -4.358066            0  -0.71634825    5.6730226    5199.9582 
    8000    2.4097967   -4.3961618            0   -0.7823705     5.586951    5177.4912 
    9000    2.4569869   -4.3971638            0  -0.71260478    5.6132731    5179.4728 
   10000     2.432062   -4.3189697            0  -0.67178866    5.7971608    5194.5139 
Loop time of 2.07132 on 48 procs for 10000 steps with 4000 atoms

Performance: 834248.627 tau/day, 4827.828 timesteps/s
99.6% CPU use with 48 MPI tasks x no OpenMP threads

MPI task timing breakdown:
Section |  min time  |  avg time  |  max time  |%varavg| %total
---------------------------------------------------------------
Pair    | 0.86538    | 0.91076    | 1.0121     |   3.1 | 43.97
Neigh   | 0.16717    | 0.1725     | 0.18844    |   1.0 |  8.33
Comm    | 0.5964     | 0.73482    | 0.80282    |   4.6 | 35.48
Output  | 0.00024076 | 0.00024625 | 0.00031557 |   0.0 |  0.01
Modify  | 0.19087    | 0.23879    | 0.28834    |   5.5 | 11.53
Other   |            | 0.0142     |            |       |  0.69

Nlocal:        83.3333 ave          89 max          75 min
Histogram: 2 0 4 2 7 11 4 9 3 6
Nghost:        1383.52 ave        1402 max        1362 min
Histogram: 1 5 4 7 3 7 7 3 6 5
Neighs:        7332.71 ave        8479 max        6427 min
Histogram: 2 4 7 8 9 4 7 5 1 1

Total # of neighbors = 351970
Ave neighs/atom = 87.992500
Neighbor list builds = 903
Dangerous builds = 191

# Equilibrate just above the melting temperature to avoid step fn in T

fix 1 all npt temp 1.25 1.25 0.1 iso 5.68 5.68 0.5 mtk yes tchain 5 pchain 5
run 2000
Per MPI rank memory allocation (min/avg/max) = 3.642 | 3.645 | 3.648 Mbytes
Step Temp E_pair E_mol TotEng Press Volume 
   10000     2.432062   -4.3189697            0  -0.67178866    5.7971608    5194.5139 
   11000    1.2687247   -5.8769215            0   -3.9743102    5.6924227    4289.5791 
   12000      1.26315   -5.9204744            0    -4.026223    5.8259709    4259.8593 
Loop time of 0.451837 on 48 procs for 2000 steps with 4000 atoms

Performance: 764878.241 tau/day, 4426.379 timesteps/s
99.6% CPU use with 48 MPI tasks x no OpenMP threads

MPI task timing breakdown:
Section |  min time  |  avg time  |  max time  |%varavg| %total
---------------------------------------------------------------
Pair    | 0.19791    | 0.20858    | 0.22357    |   1.2 | 46.16
Neigh   | 0.030429   | 0.031654   | 0.033191   |   0.3 |  7.01
Comm    | 0.14282    | 0.15593    | 0.16931    |   1.6 | 34.51
Output  | 5.1017e-05 | 5.2655e-05 | 6.7906e-05 |   0.0 |  0.01
Modify  | 0.041742   | 0.051188   | 0.059268   |   2.4 | 11.33
Other   |            | 0.004432   |            |       |  0.98

Nlocal:        83.3333 ave          92 max          77 min
Histogram: 4 1 8 9 7 8 9 0 0 2
Nghost:        1572.67 ave        1588 max        1558 min
Histogram: 1 5 3 8 6 9 4 7 3 2
Neighs:        8932.10 ave        9931 max        8039 min
Histogram: 2 2 7 6 8 12 6 3 0 2

Total # of neighbors = 428741
Ave neighs/atom = 107.18525
Neighbor list builds = 142
Dangerous builds = 13

#############################
# L I N E A R  Q U E N C H  #
#############################

# Define solid atoms. This closely follows ten Wolde  Ruiz-Montero and Frenkel  Faraday Discuss  1996  104  93-110
# Compute components of the per-atom q6 vector
compute q6 all orientorder/atom degrees 1 6 components 6 nnn NULL cutoff 1.3 # compute the Q6 parameter.
                                                                             # Use all neighbours within 1.3 unit cell.

# get number of connections
compute coord_number all coord/atom orientorder q6 0.5

# An atom is solid if it has 8 or more connections (of a possible 14)
variable is_solid atom c_coord_number>=8
group solid dynamic all var is_solid    # Must be dynamic to update
dynamic group solid defined

# do clustering
compute cluster solid cluster/atom 1.3 # Create a cluster where all atoms within are solid and max 1.3 units from another member

# define chunks one chunk per cluster
compute clus_chunks solid chunk/atom c_cluster nchunk every compress yes  # Says which atoms are in which chunk

# count the size of each chunk
compute size_chunks solid property/chunk clus_chunks count


# Find the maximum entry in the vector of chunk sizes
variable max_n equal max(c_size_chunks)


# Thermo style which includes this variable
# thermo_style custom step temp pe vol v_max_n

thermo ${N}  # Print the thermo information every 100 steps
thermo 1000  

# Reset the npt fix at a lower temperature (below freezing)
fix 1  all npt temp  ${temp} ${temp}  0.1  iso  5.68  5.68  0.5  mtk yes tchain  5  pchain  5
fix 1  all npt temp  0.45 ${temp}  0.1  iso  5.68  5.68  0.5  mtk yes tchain  5  pchain  5
fix 1  all npt temp  0.45 0.45  0.1  iso  5.68  5.68  0.5  mtk yes tchain  5  pchain  5

dump dmp2 all dcd ${N} traj.dcd
dump dmp2 all dcd 1000 traj.dcd


compute msd all msd com yes
variable twopoint equal c_msd[4]/6/(step*dt+1.0e-6)
fix 9 all vector 10 c_msd[4]
variable fit equal slope(f_9)/6/(10*dt)
thermo_style custom step temp pe c_msd[4] v_twopoint v_fit v_max_n

fix 1 all npt temp 1.25 ${temp} 0.1 iso 5.68 5.68 0.5 mtk yes tchain 5 pchain 5
fix 1 all npt temp 1.25 0.45 0.1 iso 5.68 5.68 0.5 mtk yes tchain 5 pchain 5
run 500000 # 5000000  # Run for this many steps
Neighbor list info ...
  update every 1 steps, delay 10 steps, check yes
  max neighbors/atom: 2000, page size: 100000
  master list distance cutoff = 3.8
  ghost atom cutoff = 3.8
  binsize = 1.9, bins = 9 9 9
  4 neighbor lists, perpetual/occasional/extra = 1 3 0
  (1) pair lj/cut, perpetual
      attributes: half, newton on
      pair build: half/bin/atomonly/newton
      stencil: half/bin/3d
      bin: standard
  (2) compute orientorder/atom, occasional
      attributes: full, newton on
      pair build: full/bin/atomonly
      stencil: full/bin/3d
      bin: standard
  (3) compute coord/atom, occasional
      attributes: full, newton on
      pair build: full/bin/atomonly
      stencil: full/bin/3d
      bin: standard
  (4) compute cluster/atom, occasional
      attributes: full, newton on
      pair build: full/bin/atomonly
      stencil: full/bin/3d
      bin: standard
Per MPI rank memory allocation (min/avg/max) = 9.733 | 9.738 | 9.743 Mbytes
Step Temp PotEng c_msd[4] v_twopoint v_fit v_max_n 
   12000      1.26315   -5.9204744 1.0267025e-30 7.129878e-33 8.3333333e+20            3 
   13000    1.2633516   -5.9045655   0.54576622 0.0034985013  0.045091969            1 
   14000    1.2010052   -5.9508611    1.0695002 0.0063660727  0.043757017            5 
   15000    1.2508898   -5.9077653    1.6589454 0.0092163628  0.045302704            3 
   16000    1.2586209   -5.9163981    2.2468685   0.01170244  0.046649508            2 
   17000    1.2309887   -5.9427133     2.802736  0.013738902  0.047044933            2 
   18000    1.2363823   -5.8905865    3.3567437   0.01554048  0.046949345            1 
   19000    1.2159328   -5.9111993    3.9018905  0.017113554  0.046668532            4 
   20000    1.2312721   -5.8948009    4.4860814  0.018692005  0.046694791            1 
   21000    1.2518784   -5.9370308    5.0874082  0.020188127  0.046803243            2 
   22000    1.2071521   -5.9299578    5.6686695  0.021472233  0.047022346            2 
   23000    1.2309591   -5.9428101    6.3015432  0.022831678  0.047265664            3 
   24000    1.2522726   -5.9512345     6.884325  0.023903906  0.047705757            4 
   25000    1.2115452   -5.9356914    7.1954894  0.023984964  0.047556574            3 
   26000     1.224883   -5.9479571    7.7484383  0.024834738  0.047080232            3 
   27000    1.2288869   -5.9471375    8.3923296  0.025902251   0.04688972            5 
   28000    1.2329508   -5.9066891     9.150738  0.027234339  0.046987876            2 
   29000     1.224148   -5.9415543    9.5945028   0.02757041  0.047118163            4 
   30000    1.2053589    -5.998289    10.076246  0.027989572  0.047085391            4 
   31000    1.2123918   -5.9310029    10.614868  0.028534591   0.04700868            9 
   32000    1.2225828   -5.9380335     11.05239  0.028782266  0.046832229            8 
   33000     1.209852   -5.9429952     11.44599  0.028904014  0.046510102            3 
   34000    1.2210901   -5.9610938    11.861146  0.029071435  0.046107024            3 
   35000     1.199093   -6.0101741    12.403426  0.029531967  0.045751898            2 
   36000    1.1904788   -5.9569063    12.844654  0.029732994  0.045439286            2 
   37000    1.2042638   -5.9215345    13.300848  0.029956864  0.045104103            3 
   38000    1.1890388   -5.9829059    13.800936  0.030265211  0.044796719            4 
   39000    1.2268483   -5.9881933    14.335605  0.030631633  0.044542144            3 
   40000     1.201797   -5.9979299    14.675114  0.030573154  0.044284234            3 
   41000    1.1941282   -5.9934519    15.157656  0.030808245  0.044006724            3 
   42000    1.2285122   -5.9764055    15.683078  0.031117217   0.04378299            6 
   43000    1.2310191   -5.9679602    16.236637   0.03146635  0.043618971            3 
   44000    1.2015524   -6.0046851    16.724909  0.031675964   0.04347856            3 
   45000    1.1545635   -5.9972094    17.081467  0.031632346  0.043337228            6 
   46000    1.2020581   -5.9864247    17.524035  0.031746439  0.043157466            4 
   47000    1.1800623    -5.972405    18.009754  0.031932187  0.042980802            3 
   48000    1.1751052   -6.0325576    18.402262  0.031948371  0.042798163            5 
   49000    1.1779834   -5.9780116    18.932384  0.032197932  0.042627721            7 
   50000    1.1844999   -6.0420179    19.395008  0.032325013  0.042469935            2 
   51000    1.1803955   -5.9575841     19.92847  0.032562859  0.042335691            4 
   52000    1.1982158   -5.9848532    20.454337  0.032779385  0.042215185            5 
   53000    1.1831398   -6.0003688    20.989509  0.033002373  0.042130607            4 
   54000    1.1796241   -6.0447259    21.563221  0.033276575  0.042071944            3 
   55000    1.1858336   -6.0169257    22.142853  0.033549777  0.042039021            3 
   56000    1.1610054   -6.0577201    22.580682  0.033602204  0.041992092            4 
   57000     1.144794   -6.0246683    23.018943  0.033653425  0.041943212            5 
   58000    1.1755216   -6.0364506    23.458304  0.033704459  0.041893078            7 
   59000    1.1784094    -5.997373    24.136019  0.034090422  0.041859593            3 
   60000    1.1648959   -6.0608061    24.532025  0.034072257  0.041849709            2 
   61000    1.1975538   -6.0321659    25.164908  0.034378289  0.041821279            4 
   62000    1.1472762   -6.0226851    25.543944  0.034333257  0.041790728            2 
   63000    1.1643052   -6.0343265    26.049742   0.03445733  0.041774723            4 
   64000    1.1612628   -6.0704299    26.378477  0.034346975  0.041751876            2 
   65000    1.1513163   -6.0523862     26.81525  0.034378525  0.041704641            3 
   66000    1.1479964   -6.0674991    27.134919  0.034261261  0.041636589            3 
   67000    1.1472877   -6.0546288    27.702304  0.034455601  0.041556905            2 
   68000    1.1819259   -6.0858523    28.079714  0.034411414  0.041487678            4 
   69000    1.1345129   -6.0139705    28.642614  0.034592529  0.041418858            5 
   70000    1.1470812   -6.0934748    29.095702   0.03463774  0.041359476            6 
   71000    1.1424729   -6.1008462    29.477166  0.034597613  0.041308697            5 
   72000    1.1566584   -6.0681645    30.152617  0.034898863   0.04126402            5 
   73000    1.1697117   -6.1044922    30.393176  0.034695406  0.041209139            4 
   74000    1.1484311   -6.1190487    30.819648  0.034706811  0.041155764            4 
   75000    1.1444364   -6.0478681    31.418436  0.034909373  0.041097824            3 
   76000    1.1647682   -6.0741169     31.73912  0.034801666  0.041044208            3 
   77000     1.160865   -6.0563116    32.222157  0.034872465   0.04097624            2 
   78000    1.1405756   -6.1304721    32.436528   0.03465441  0.040902647            7 
   79000    1.1562582   -6.0855306    32.826399  0.034627002  0.040814273            4 
   80000     1.148925   -6.0660555    33.284646  0.034671506  0.040731583            3 
   81000    1.1345939   -6.1037177    33.660279  0.034629916  0.040650061            3 
   82000    1.1366796   -6.0712085    34.003551  0.034556454  0.040553009            7 
   83000    1.1343938   -6.0817603    34.350319  0.034488272  0.040454067            3 
   84000     1.147347   -6.0726079    34.793104  0.034516968  0.040349904            4 
   85000    1.1508661    -6.071167    35.008092  0.034321659  0.040242859            6 
   86000    1.1441831    -6.096219    35.595926  0.034492176  0.040141566            2 
   87000    1.1237987   -6.1124568    35.741276  0.034234938  0.040030142            5 
   88000    1.1188124   -6.1528079    36.073508  0.034160519  0.039917573            4 
   89000    1.1092934   -6.0576569    36.740404  0.034401127   0.03981187            2 
   90000    1.1495325   -6.1138979    37.061766  0.034316449  0.039711147            3 
   91000    1.1195851   -6.1324474    37.635193  0.034464462  0.039609961            3 
   92000    1.1125028   -6.1482746      37.6869  0.034136684   0.03950893            4 
   93000    1.1068015   -6.1463088    37.969664  0.034022997  0.039400814            5 
   94000     1.101663   -6.1154528    38.379494  0.034024374  0.039287512            5 
   95000    1.1346134    -6.133517    38.913806  0.034134917     0.039176            4 
   96000    1.1160568   -6.1077895     39.31511  0.034127699    0.0390658            2 
   97000    1.1057577   -6.1162829    39.777149  0.034172808  0.038964496            3 
   98000    1.1008716   -6.1329034    40.147937  0.034139402  0.038870891            3 
   99000    1.1216459   -6.1786849     40.57596  0.034154848  0.038781141            9 
  100000    1.0990722   -6.1384185    40.911896  0.034093246  0.038688725            2 
  101000    1.0963595   -6.1356755    41.412013  0.034168327    0.0385985            6 
  102000    1.0940838   -6.1391429    41.699846  0.034068502  0.038513421            4 
  103000    1.0816363   -6.1486829    42.255158  0.034187021   0.03842914            6 
  104000    1.1067103   -6.1316596    42.488817  0.034045526  0.038350698           11 
  105000    1.1358392   -6.1788204    42.786008  0.033957149  0.038263807            4 
  106000    1.1089081   -6.1873647    43.199208  0.033961641   0.03817347            4 
  107000    1.0995369   -6.1766464    43.241487   0.03367717   0.03808142            4 
  108000    1.1039541   -6.1776009    43.498143  0.033563382  0.037976329            6 
  109000    1.0982006   -6.1835848    43.909304  0.033569804   0.03786704            2 
  110000    1.0838237   -6.1590006    44.488152  0.033703145  0.037763642            3 
  111000    1.1001788   -6.1865242    44.897913  0.033707142  0.037669613            3 
  112000    1.0856646   -6.1822736    45.193839  0.033626368   0.03757749            6 
  113000     1.119087   -6.1804292    45.699533   0.03370172  0.037491212            3 
  114000    1.0762587   -6.1861928     46.12531  0.033717332  0.037411906            3 
  115000    1.0909999   -6.1903155    46.311467  0.033559034  0.037330824            4 
  116000    1.0999718   -6.2122117    46.784474  0.033609536  0.037250095            7 
  117000    1.0987202   -6.1769984    47.187168  0.033609094  0.037171827            6 
  118000    1.0877796   -6.1758435    47.486757  0.033535845  0.037092928            4 
  119000    1.0851609   -6.1929542    47.737405  0.033429555  0.037012689            9 
  120000    1.0765446   -6.2187579    48.178737  0.033457456  0.036932453            4 
  121000    1.0760238   -6.2061869    48.417815  0.033345603  0.036849735            3 
  122000    1.0846597   -6.2390865    48.850881  0.033368088  0.036769229            4 
  123000    1.0592609   -6.1988057     49.13232  0.033287479  0.036688311            4 
  124000    1.0465607   -6.1874654    49.311741  0.033139611  0.036605077            4 
  125000    1.0700618   -6.2060943    49.445255  0.032963503  0.036515109            4 
  126000    1.0819084   -6.1915749    49.861846  0.032977412  0.036423699            4 
  127000    1.0640768   -6.2335459    50.259501  0.032978675  0.036333922            7 
  128000    1.0584755   -6.2055603    50.582716  0.032931455  0.036243663           10 
  129000    1.0450339   -6.2360333    50.913521  0.032889871  0.036156514            6 
  130000     1.048398    -6.236941    51.076198  0.032741152  0.036064087            4 
  131000    1.0582216   -6.2161346    51.758443  0.032925218  0.035978081            4 
  132000      1.06525   -6.2122522    52.179418  0.032941552  0.035898477            8 
  133000    1.0295776   -6.2069152    52.625955  0.032973656  0.035820504           15 
  134000    1.0454355   -6.2666851    52.696676  0.032771565  0.035746158            5 
  135000    1.0578515   -6.2522181    53.310874  0.032907947  0.035674909            4 
  136000    1.0250384   -6.2477188    53.579027  0.032830286  0.035603934            6 
  137000    1.0586676   -6.2868032    53.890453  0.032780081  0.035529595           11 
  138000    1.0186438   -6.2490953    54.156245  0.032703046  0.035455095            5 
  139000    1.0491063   -6.2207203    54.219162  0.032505493   0.03537866            6 
  140000    1.0741586   -6.2590557    54.600965  0.032500574   0.03529991            6 
  141000    1.0453228   -6.2620698    54.792805  0.032383454  0.035218578            4 
  142000    1.0439417    -6.280699    55.159039  0.032370328  0.035138669            4 
  143000     1.046228   -6.2779076    55.416281   0.03229387  0.035060729            6 
  144000    1.0545145   -6.2947223    55.609662  0.032181517  0.034977723            6 
  145000    1.0233441    -6.280107    55.776333  0.032055364     0.034893            3 
  146000    1.0218398   -6.2680103    56.074837  0.032006185  0.034806881            8 
  147000    1.0259106   -6.2886716    56.422158   0.03198535   0.03472125            7 
  148000    1.0414671   -6.2803887    56.576643  0.031856218   0.03463555            9 
  149000    1.0221243   -6.3141261    56.791485  0.031762575  0.034548808            7 
  150000    1.0372857   -6.2745574    57.305175  0.031836208  0.034463099            2 
  151000    1.0357973   -6.3226736    57.514109  0.031740678  0.034377164            2 
  152000    1.0221875   -6.3044257    57.580868  0.031568458  0.034290576            9 
  153000    1.0146973   -6.2716447    57.985599   0.03158257  0.034204941            4 
  154000    1.0200173   -6.2868322    58.383194  0.031592637  0.034122124            6 
  155000    1.0296367   -6.2915267    58.655782  0.031535367  0.034038163            8 
  156000    1.0183948   -6.3280667    58.816555    0.0314191  0.033952736           10 
  157000    1.0262108   -6.3001469    59.047432  0.031341524  0.033868403            4 
  158000    1.0217762   -6.2884516    59.318528  0.031286143  0.033786092           11 
  159000    1.0154036   -6.3318638    59.635584  0.031255547  0.033704759            8 
  160000    1.0030533   -6.2943085    59.893101  0.031194323  0.033624175            6 
  161000   0.99326168   -6.3111081    60.392623  0.031259121  0.033542268            5 
  162000    1.0108298   -6.3061145    60.213138  0.030973837  0.033460679            7 
  163000   0.99623824   -6.3438544       60.628   0.03099591  0.033375451            5 
  164000   0.99019924   -6.3405105    60.675563  0.030831079  0.033289624           10 
  165000     1.009362   -6.3604731    61.015044  0.030815679  0.033205959            5 
  166000    1.0087856   -6.3234376    61.103958  0.030674677  0.033119197            5 
  167000   0.99065382   -6.3508198     61.20882  0.030543323  0.033030554            5 
  168000   0.99131539   -6.3356481    61.795607  0.030652583  0.032941844           14 
  169000    1.0037601   -6.3433895    62.154946  0.030648395  0.032856473            5 
  170000   0.99449999   -6.3486027    62.438382   0.03060705  0.032774057            4 
  171000   0.99737771   -6.3627367    62.658772  0.030535464  0.032692211            7 
  172000    1.0037976   -6.3629478    63.205294   0.03062272   0.03261286            7 
  173000    1.0003525   -6.3460325    63.256243  0.030470252  0.032534014            7 
  174000    1.0019338   -6.3263694    63.675187  0.030495779  0.032453453            3 
  175000   0.98106404   -6.3582165    63.848686  0.030404136  0.032374412            5 
  176000   0.96142854   -6.3177786    64.091219  0.030346221  0.032296722            5 
  177000   0.99808707   -6.3626861    64.471628  0.030353874  0.032220643            8 
  178000   0.99692191   -6.3753586    64.703829  0.030292055  0.032145824            7 
  179000   0.97152894   -6.3771291    64.815598  0.030174859  0.032071904           12 
  180000   0.97296786   -6.4026435    65.042744  0.030112382  0.031995308            4 
  181000   0.99962769   -6.3865484    65.057671  0.029952887  0.031916494           21 
  182000   0.99155809   -6.3474443     65.44904  0.029967509  0.031838259            5 
  183000    1.0034901   -6.3927003    65.766626  0.029948372  0.031761243            3 
  184000   0.99840491   -6.3866878     65.80792  0.029804311  0.031682386            7 
  185000   0.95497144   -6.3996781    65.961075  0.029712196  0.031604089            7 
  186000   0.97146891   -6.3838009    66.132798   0.02962939  0.031524327            6 
  187000   0.94832789   -6.4103645    66.344315  0.029565203  0.031443055           30 
  188000   0.97357755   -6.3991093    66.684226  0.029558611  0.031362198           10 
  189000   0.93742267   -6.3990078    66.816597  0.029460581    0.0312823            6 
  190000   0.96822216   -6.3957247    66.954035  0.029365805  0.031201642           12 
  191000   0.96324451   -6.4073338     67.27739  0.029353137  0.031120421            5 
  192000   0.97133125   -6.3943913    67.460635  0.029279789  0.031042413           22 
  193000   0.95633608    -6.421964    67.741334   0.02924928  0.030965348           14 
  194000   0.95717546   -6.4279975    68.049924  0.029231067  0.030888568            7 
  195000   0.97880768   -6.4107279    68.219767  0.029153747  0.030812029            7 
  196000   0.96010948   -6.4025218     68.43769  0.029097657   0.03073534           13 
  197000   0.95676308   -6.3953677    68.548992  0.028997035   0.03065823            5 
  198000   0.94664871   -6.4222252    68.861206  0.028981989  0.030579076            5 
  199000   0.96712775    -6.442675     68.93765  0.028868363  0.030499703            7 
  200000   0.92082259    -6.405875    69.210155  0.028837565  0.030422251            6 
  201000   0.96826947   -6.4673286    69.086849  0.028642972  0.030343905           12 
  202000    0.9550388   -6.4404036    69.170106  0.028535522   0.03026348            8 
  203000   0.97428567   -6.4457231    69.272154  0.028436845  0.030182984           21 
  204000   0.95527877   -6.4142183    69.678853  0.028463584  0.030101844           22 
  205000   0.95844075   -6.4273754    69.589773  0.028288526  0.030020763            5 
  206000   0.94087882   -6.4541852    69.891627  0.028273312  0.029939724            5 
  207000   0.93732304   -6.5017249    70.056543  0.028203117  0.029857211            5 
  208000   0.93492717   -6.4665574    70.177457  0.028115968  0.029775499            7 
  209000   0.94545227   -6.4656283    70.249372  0.028010116  0.029691767            5 
  210000   0.94177423   -6.5010328    70.636342  0.028030295  0.029609849            9 
  211000   0.92201304   -6.4868413    70.475967   0.02783411  0.029526936            8 
  212000   0.93476697   -6.5293264    70.457596  0.027695596   0.02944257            7 
  213000   0.93738245   -6.4927739    70.894945  0.027736676  0.029358341            6 
  214000   0.93381563   -6.5049471    71.009641  0.027651729  0.029274368            5 
  215000   0.91182615   -6.4483813    71.307795   0.02763868  0.029190411            8 
  216000    0.8911561   -6.4871476    71.301176   0.02750817  0.029106783            7 
  217000   0.91814409   -6.4856215    71.529874   0.02746923  0.029023466            7 
  218000   0.93484399   -6.5008286    71.734805  0.027421561  0.028941103            8 
  219000   0.91587008   -6.5163851    72.162417  0.027459063  0.028860768            4 
  220000   0.89489316   -6.4949313    72.254861  0.027369265  0.028781804            7 
  221000   0.93129284   -6.5055289    72.276162  0.027253455  0.028702267            9 
  222000    0.9205308   -6.4919735     72.53879  0.027229276  0.028621834            7 
  223000   0.91545955   -6.5128308    72.740111  0.027182403  0.028541101            4 
  224000    0.9032482   -6.4951611    72.889629  0.027116677  0.028461501            9 
  225000   0.91627489   -6.4753955    73.032878  0.027049214  0.028382357            5 
  226000   0.90912785   -6.5013079    73.135134  0.026967232  0.028303903            5 
  227000   0.90749451   -6.5185115    73.324709  0.026918028  0.028225272           10 
  228000   0.89833187   -6.5287067    73.343566  0.026806859  0.028146941           14 
  229000   0.92104135   -6.5372234    73.629358  0.026793798  0.028068577           12 
  230000   0.88730709   -6.5204422     73.71374  0.026707877   0.02799097           12 
  231000   0.89754467   -6.5265607     74.03109  0.026706743  0.027913402           16 
  232000   0.89314813   -6.5144776    74.149683  0.026634225   0.02783579            7 
  233000   0.90564778   -6.5253778    74.042849  0.026481706  0.027757446           15 
  234000   0.88828068   -6.5422712      74.2883  0.026455947  0.027679264           25 
  235000   0.89451999   -6.5296602    74.701806  0.026490002   0.02760259            9 
  236000   0.91304996   -6.5546077    74.443225  0.026286449  0.027526298            7 
  237000    0.8958592   -6.5376539    75.013963  0.026376218  0.027449768            9 
  238000   0.87729798   -6.5700737    75.087062  0.026290988  0.027374305           12 
  239000   0.89223903   -6.5607627    75.075465   0.02617694  0.027298536            6 
  240000   0.88766686   -6.5677914     75.07935  0.026069219  0.027222321           11 
  241000   0.88489788   -6.5818747    75.470982  0.026096467   0.02714637            7 
  242000   0.87822729   -6.5606361    75.392488    0.0259616  0.027070145           14 
  243000   0.84733258   -6.5929369    75.832807  0.026005764   0.02699454           16 
  244000   0.87550096     -6.56329    75.803667   0.02588923  0.026919665           10 
  245000   0.87376527   -6.5368514    75.863527  0.025803921  0.026845292           10 
  246000   0.85967344   -6.5960213    76.222845  0.025820747  0.026770575           14 
  247000   0.86950583   -6.5576496      76.3048  0.025743859  0.026696589            5 
  248000   0.88337928   -6.5816633    76.498088  0.025705003   0.02662383            7 
  249000   0.87868548   -6.6186008    76.641902    0.0256499  0.026551255           10 
  250000   0.86289186   -6.5610309    76.943379  0.025647793  0.026479022            6 
  251000   0.87591593   -6.6177092    76.772239  0.025488791  0.026406581            8 
  252000   0.86519033   -6.5907167    77.139137  0.025508974  0.026335109           14 
  253000   0.86419738   -6.6145943     77.10104    0.0253956   0.02626414           13 
  254000   0.84877293   -6.5869435    77.429851  0.025403494  0.026192937           11 
  255000   0.85576132   -6.6066775    77.498761  0.025326393   0.02612195            8 
  256000   0.88212423    -6.618786    77.478269   0.02522079   0.02605055            3 
  257000   0.85093665   -6.6243883    77.802079  0.025227652  0.025980795            9 
  258000   0.87067167   -6.6074874    78.165226  0.025247166  0.025911785            6 
  259000   0.85625633   -6.5992147    78.424511  0.025233111  0.025843943           18 
  260000   0.84137962   -6.6156518    78.489587  0.025156919  0.025775473           13 
  261000   0.83861894   -6.6228117    78.360574   0.02501934  0.025706537           17 
  262000   0.84487332   -6.6357343    78.428932  0.024945589   0.02563778           27 
  263000   0.85387205   -6.6237798    78.378849   0.02483487  0.025568547           10 
  264000    0.8685213    -6.626357    78.707402  0.024844508  0.025499682           12 
  265000   0.82934614   -6.6060025    78.593915  0.024715067  0.025429669           11 
  266000   0.85691186   -6.6306768    78.671996  0.024646615  0.025358394           12 
  267000   0.84879558   -6.5773465    78.692488  0.024560702  0.025287091            6 
  268000   0.83503181   -6.6166853    78.810259  0.024505678  0.025216271           11 
  269000   0.83826522   -6.6209075    78.809465  0.024414332  0.025145599           16 
  270000   0.83784385    -6.620615    79.067663    0.0244036  0.025074903           19 
  271000   0.84266805   -6.6850122    79.260437  0.024372828  0.025004931           11 
  272000   0.82622797   -6.6610187    79.549365  0.024371742  0.024935904            9 
  273000   0.81577667   -6.6659353    79.439381  0.024248895   0.02486623            6 
  274000    0.8233947   -6.6484966      79.5026  0.024179623  0.024796929           16 
  275000   0.82841774   -6.6493704    79.540784  0.024103268  0.024727922           27 
  276000    0.8390156   -6.6708334    79.589516  0.024030651  0.024658426           22 
  277000   0.81588777   -6.6511437    79.592777  0.023944879  0.024588215           21 
  278000   0.82165852   -6.6832978    79.562775  0.023849753  0.024518183           12 
  279000   0.82427134   -6.7023063    79.652022  0.023790927  0.024447494           19 
  280000    0.8083815   -6.6935806    79.754233  0.023736379  0.024376083           30 
  281000   0.82460776   -6.7013849    79.722057  0.023642366   0.02430478           12 
  282000   0.82083876   -6.6856954    79.437173  0.023474342  0.024233036           12 
  283000    0.8183375   -6.7101758    79.757239  0.023485641  0.024160886           20 
  284000   0.78878386   -6.7022728    79.791181  0.023412905  0.024088765           15 
  285000   0.82727794   -6.7074908    80.012783   0.02339555  0.024017522           13 
  286000   0.80683344   -6.7127858    80.064295  0.023328757  0.023946895            8 
  287000   0.79795945     -6.69108     80.28561  0.023311733  0.023876898            8 
  288000   0.78551674   -6.6850432    80.377631  0.023257416  0.023807208            9 
  289000    0.8081918   -6.6987559    80.338336   0.02316561  0.023737825           31 
  290000   0.84798707    -6.703028    80.433285  0.023113013  0.023667804           23 
  291000   0.80074511   -6.6960788    80.699416  0.023109798  0.023598409           22 
  292000   0.81911272   -6.7344835    80.566383  0.022992689  0.023529743           13 
  293000   0.81854454    -6.711855    80.722174  0.022958525  0.023460845           12 
  294000   0.79673644   -6.7190945    80.819425     0.022908  0.023392677           12 
  295000   0.80396656   -6.7160592    81.101355  0.022909987  0.023325137            9 
  296000   0.80521297   -6.7086319    81.035346  0.022814005  0.023258248           32 
  297000   0.78738569   -6.7217441    81.222831  0.022789795  0.023191263           21 
  298000   0.79207202    -6.734783     81.13581  0.022688985  0.023124277           16 
  299000   0.78673721    -6.737372    81.163911  0.022620934  0.023056578           19 
  300000   0.80450177    -6.751103    81.105807  0.022529391   0.02298918           15 
  301000   0.79097409   -6.7531091    81.439994  0.022547064  0.022922238            9 
  302000   0.79151208   -6.7561806    81.538696   0.02249964  0.022855929            9 
  303000    0.7864554   -6.7611174     81.54408  0.022426865  0.022790061           36 
  304000   0.77753791   -6.7393328    81.782443  0.022418433  0.022723921           14 
  305000   0.77842058   -6.7739216    81.854345  0.022364575  0.022658361           23 
  306000   0.77332514   -6.7654729    82.252951  0.022400041  0.022593536           34 
  307000   0.77702034   -6.7688361    82.224548  0.022319367  0.022529206           17 
  308000   0.79172897   -6.7687874    82.242822  0.022251846  0.022464945           20 
  309000   0.76954093   -6.7846295    82.461327  0.022238761  0.022400899           16 
  310000   0.75940313   -6.7691304    82.423984  0.022156985  0.022336818           21 
  311000   0.75551114   -6.7850876    82.300318  0.022052604  0.022272538           25 
  312000   0.75915505    -6.768431    82.282505  0.021977165  0.022208504           23 
  313000   0.77047498   -6.7842968    82.458867  0.021953905  0.022144811           25 
  314000   0.76932463   -6.8283844    82.367738  0.021859803  0.022080773           25 
  315000   0.76527088   -6.7992373    82.763497  0.021895105  0.022017001           33 
  316000   0.76572337   -6.7747161    82.718747  0.021814016  0.021954254           20 
  317000   0.76933342   -6.7463971    83.096732  0.021844567  0.021892061           22 
  318000   0.73424896   -6.7595536    82.958777  0.021739721  0.021830975           17 
  319000   0.74916331   -6.8201593    83.029003  0.021689917  0.021769704           18 
  320000   0.74313219   -6.8139168    83.389905  0.021716121  0.021708855           13 
  321000   0.74955347    -6.790291    83.343588  0.021636445  0.021648106           14 
  322000    0.7677015   -6.8188373    83.314079  0.021561615  0.021587901           34 
  323000   0.75493207   -6.8085062    83.514018  0.021546444  0.021527513           32 
  324000   0.75579934   -6.8168284    83.527057  0.021483296  0.021467372           16 
  325000   0.75133963   -6.8443314    83.527941  0.021417421  0.021407647           44 
  326000   0.73283379    -6.845244    83.570917  0.021362709  0.021347611           13 
  327000   0.74084085   -6.8199392    83.665996   0.02132161  0.021287571           18 
  328000    0.7533855   -6.8271155    83.591344  0.021237638  0.021227418           15 
  329000   0.74150866   -6.8375251    83.723914  0.021206665  0.021167526           12 
  330000   0.74671943   -6.8149925    83.955046  0.021200769  0.021107937           13 
  331000   0.75016283   -6.8228684    83.843406  0.021108612  0.021048431           18 
  332000   0.73509106   -6.8315976    83.966466   0.02107592  0.020989078           20 
  333000   0.73453529   -6.8442794     84.01987  0.021025993  0.020930451           35 
  334000   0.73473778   -6.8246728    84.240252  0.021018027  0.020871616           43 
  335000   0.72609022   -6.8490004     84.11846   0.02092499  0.020813091           54 
  336000   0.73310702   -6.8376029    84.058811  0.020847919  0.020754151           97 
  337000   0.72283031   -6.8658396    84.302686  0.020846362  0.020695692           57 
  338000   0.72606954    -6.882971    84.355159  0.020797623  0.020637515           79 
  339000    0.7259183   -6.8723015    84.380622  0.020742532  0.020579642           59 
  340000   0.71748386   -6.8984699     84.60645  0.020736875  0.020521961           49 
  341000    0.7256498   -6.8796193    84.520306  0.020655011  0.020464264           38 
  342000   0.70570819   -6.8749682    84.561138  0.020604566  0.020406688           47 
  343000   0.72690234    -6.901232    84.584059  0.020550063  0.020348988           69 
  344000   0.71067344   -6.8993507    84.572804  0.020487598  0.020291411           60 
  345000    0.7163396   -6.8862732    84.697822  0.020458411  0.020234225           78 
  346000   0.72237761   -6.8709985    84.836559  0.020432697  0.020177799           86 
  347000   0.70746077   -6.8783592    84.708406  0.020343037   0.02012145           83 
  348000   0.71329169   -6.9028897    84.824075  0.020312279  0.020065171          106 
  349000   0.71717638   -6.9105713    84.970433  0.020289024  0.020009182          164 
  350000   0.69625196   -6.9181522    84.885455  0.020210823  0.019953139          103 
  351000    0.6838376   -6.9158179     85.03611   0.02018901  0.019897291           94 
  352000   0.70044283   -6.8997474    85.172562  0.020163959  0.019841648           89 
  353000   0.71361341    -6.906207    85.301286  0.020137225  0.019786497           85 
  354000   0.71643162   -6.9001192    85.302786  0.020080694  0.019731532           92 
  355000   0.71538039   -6.9030021     85.26858  0.020016098  0.019676521           72 
  356000   0.70354074   -6.9257393    85.416369  0.019994468  0.019621551           68 
  357000   0.69519389   -6.9251165    85.398844  0.019934371  0.019566823          130 
  358000   0.67978131   -6.9361033    85.156293  0.019822228  0.019512046          261 
  359000    0.6862748   -6.9494033    85.407553  0.019825337  0.019457248          184 
  360000   0.68555293   -6.9740559    85.389969  0.019766196  0.019402436          246 
  361000   0.69373819   -6.9597947    85.323192  0.019696028  0.019347626          173 
  362000   0.67551321   -6.9473044    85.215071  0.019616729  0.019292872          341 
  363000   0.69873786   -6.9860268    85.344627   0.01959243  0.019238182          224 
  364000   0.69061757   -6.9530276     85.44226  0.019560957  0.019183523          325 
  365000   0.68151983   -6.9809265    85.253765   0.01946433  0.019128828          207 
  366000   0.68836635   -6.9895371     85.15851   0.01938946  0.019074067          242 
  367000   0.68422487   -7.0031291    85.415086  0.019394888  0.019019175          378 
  368000   0.67802844   -6.9912582    85.410115  0.019341059   0.01896449          522 
  369000   0.67397264   -6.9767828    85.338052  0.019272369  0.018909946          611 
  370000   0.67702602   -7.0052027    85.430685  0.019241145  0.018855392          465 
  371000    0.6908709     -7.00384    85.379351  0.019177752    0.0188008          510 
  372000   0.67807977    -7.021655    85.339364  0.019117241  0.018746432          627 
  373000   0.66084705   -7.0312474    85.456488  0.019092155  0.018692017          663 
  374000   0.66443396   -7.0531047     85.37295  0.019022493  0.018637639          689 
  375000   0.66843705   -7.0218469    85.347432  0.018966096  0.018583108          767 
  376000   0.66830522   -7.0526598    85.242557  0.018892411  0.018528502          781 
  377000    0.6677271   -7.0588958     85.30159  0.018855347  0.018473767          854 
  378000   0.67394673   -7.0426141    85.286967  0.018802241  0.018419356          792 
  379000    0.6676988   -7.0526598    85.324197  0.018760817  0.018365077          944 
  380000   0.66753006   -7.0660854    85.247496  0.018694626  0.018310825          912 
  381000   0.65899044    -7.073028    85.384408  0.018675505  0.018256584         1058 
  382000   0.64912479   -7.0724864     85.34789   0.01861865  0.018202657          964 
  383000   0.66464991   -7.0806046    85.330798  0.018566318  0.018148622         1153 
  384000   0.64570608   -7.0722818    85.310488  0.018513561  0.018094832         1007 
  385000    0.6510069   -7.0915044    85.309247  0.018465205  0.018041353         1072 
  386000   0.63541751   -7.0816994    85.271019  0.018409115  0.017988028         1131 
  387000   0.65214871   -7.0814189    85.374109  0.018383744  0.017934647         1041 
  388000   0.63904949   -7.0805546    85.525528  0.018368885  0.017881106         1136 
  389000   0.65530009   -7.0972152    85.374247  0.018289256  0.017827981         1162 
  390000   0.63812665   -7.1002529    85.293525  0.018225112  0.017774912         1166 
  391000   0.64259451   -7.1008465    85.370321  0.018194868  0.017721999         1248 
  392000   0.63812761   -7.1056087    85.426031  0.018160296  0.017668947         1404 
  393000    0.6400141   -7.1013582    85.280692  0.018083268  0.017615955         1353 
  394000    0.6434987   -7.1286074     85.32461   0.01804666  0.017562953         1433 
  395000    0.6429795   -7.1214701     85.19933  0.017974542  0.017510062         1529 
  396000   0.62666057     -7.14024    85.301936  0.017950744   0.01745715         1507 
  397000   0.63605446   -7.1379263    85.339396  0.017913391  0.017404503         1653 
  398000   0.61956277   -7.1472401    85.311582  0.017862559  0.017351833         1665 
  399000   0.64611268   -7.1598537     85.47772   0.01785249  0.017299243         1632 
  400000   0.63157938   -7.1460151    85.301673  0.017771182  0.017246759         1603 
  401000   0.61931946   -7.1821014    85.226698  0.017711284  0.017194078         1625 
  402000   0.64606455   -7.1687594     85.22463  0.017666797  0.017141526         1635 
  403000   0.61979927   -7.1592642    85.305085  0.017639596  0.017089186         1633 
  404000   0.61464026   -7.1643175    85.224725  0.017579357  0.017037221         1677 
  405000   0.62528078    -7.169549    85.123909  0.017515208  0.016985136         1732 
  406000   0.61602397   -7.1671063    85.111164  0.017469451  0.016933161         1844 
  407000   0.62003578   -7.1660616     85.09886  0.017424009  0.016881158         1830 
  408000   0.61700007   -7.1837552     85.29151  0.017420652  0.016829325         1829 
  409000   0.62019951   -7.1846095    85.210731    0.0173616  0.016777667         1855 
  410000   0.61304244   -7.1940869    85.174006   0.01731179   0.01672615         1773 
  411000   0.61264414   -7.2011961    84.970367  0.017228379  0.016674617         1801 
  412000   0.60035295   -7.2278419    85.021303  0.017196866   0.01662319         1938 
  413000    0.6222477   -7.2121181    84.995906  0.017150102  0.016571887         1929 
  414000   0.60794354   -7.2265231    85.091371  0.017127893  0.016520809         1937 
  415000   0.60317824    -7.222476    85.171667  0.017102744  0.016469935         1999 
  416000   0.60323902   -7.2387176    85.073116   0.01704189  0.016419043         1981 
  417000   0.60128958   -7.2240014    85.065444  0.016999489  0.016368296         2030 
  418000   0.59911127   -7.2218187    85.150572  0.016975792  0.016317728         1994 
  419000    0.6077406   -7.2447007    85.062896  0.016917839   0.01626737         2077 
  420000   0.59325282   -7.2328229    84.976747  0.016860466   0.01621701         2034 
  421000   0.59319725   -7.2314901    84.980661  0.016821192  0.016166842         2024 
  422000   0.59268611    -7.242169    84.899369  0.016765278  0.016116962         1985 
  423000   0.58591321   -7.2269601    85.042744   0.01675389  0.016067139         2019 
  424000    0.5935414   -7.2476393    84.951612  0.016696465  0.016017523         2036 
  425000   0.60351522   -7.2447522    84.880492  0.016643234  0.015967812         2033 
  426000    0.5878757   -7.2651651    85.045961  0.016636534  0.015918285         2107 
  427000   0.57609281   -7.2724985    85.013815  0.016591299  0.015868837         2087 
  428000   0.58560637   -7.2618591    84.931537  0.016536514   0.01581955         2128 
  429000   0.58119821   -7.2578013    84.851489  0.016482418  0.015770248         2086 
  430000   0.58928211   -7.2662951    85.019215  0.016476592  0.015721142         2175 
  431000   0.57553975   -7.2776765    84.864802  0.016408508  0.015672239         2150 
  432000    0.5829948   -7.2690057    84.844521  0.016366613  0.015623382         2090 
  433000   0.58270232   -7.2719497    84.872994  0.016334295  0.015574602         2184 
  434000   0.56471946   -7.2667852    84.843266   0.01629095  0.015526095         2196 
  435000   0.57930129   -7.2940084    84.945248  0.016273036  0.015477739         2198 
  436000   0.56893582   -7.2896637    84.793608  0.016206729  0.015429565         2219 
  437000    0.5762413   -7.2888393    84.771552  0.016165437  0.015381559         2191 
  438000   0.57602219   -7.3008038    84.911064  0.016155073  0.015333692         2220 
  439000   0.56731793   -7.2838411    84.905445  0.016117207  0.015285941         2244 
  440000   0.57157469   -7.3020934     84.88931  0.016077521  0.015238367         2286 
  441000   0.56546276   -7.2967806    84.785557  0.016021458   0.01519097         2295 
  442000   0.56412447   -7.3075306    84.792738  0.015986565   0.01514363         2320 
  443000    0.5557848   -7.3163746    84.740773  0.015940702  0.015096385         2384 
  444000   0.56662358   -7.3112632    84.869755  0.015929008  0.015049351         2375 
  445000   0.55639167   -7.2915271    84.821269  0.015884133  0.015002461         2304 
  446000   0.55627751   -7.3291243    84.825618  0.015849331  0.014955774         2400 
  447000   0.54331051   -7.3294755    84.816148  0.015812108  0.014909238         2391 
  448000   0.55250973   -7.3477022    84.691628  0.015753651  0.014862686         2415 
  449000   0.55316871   -7.3131375    84.661566  0.015712986  0.014816204         2400 
  450000   0.55625298   -7.3295921    84.644533  0.015674914  0.014769868         2420 
  451000   0.55228305   -7.3193976    84.664532  0.015643853  0.014723663         2387 
  452000   0.55455794   -7.3271392     84.66974  0.015610203  0.014677694         2416 
  453000   0.54664652   -7.3303965      84.8269  0.015604654  0.014631852         2376 
  454000   0.53496085   -7.3324752    84.665151  0.015540593  0.014586183         2372 
  455000   0.55016381   -7.3556274    84.789633  0.015529237  0.014540588         2405 
  456000   0.53714735   -7.3377109    84.682646   0.01547563  0.014495211         2395 
  457000   0.53822586   -7.3625227    84.724952  0.015449481  0.014449921         2466 
  458000   0.53083886   -7.3527857    84.644268  0.015401068  0.014404778         2517 
  459000   0.53335085   -7.3351409    84.579458  0.015355748  0.014359858         2426 
  460000   0.53003656   -7.3368347    84.578423  0.015322178  0.014315043         2386 
  461000   0.52251102   -7.3449573    84.505241  0.015275712  0.014270422         2502 
  462000   0.53340053   -7.3615143    84.703614   0.01527843   0.01422592         2519 
  463000   0.52499592   -7.3824974    84.561265   0.01521981   0.01418155         2555 
  464000   0.52565137   -7.3832512    84.531955  0.015181745  0.014137322         2541 
  465000   0.53186134   -7.3768521    84.635382  0.015167631  0.014093249         2583 
  466000    0.5215018   -7.3608686    84.596981  0.015128215  0.014049351         2560 
  467000   0.52239906     -7.38342    84.674694  0.015109688  0.014005549         2620 
  468000   0.50998443   -7.3761077    84.483027  0.015043274  0.013961926         2589 
  469000   0.51812981    -7.382135    84.408368  0.014997933  0.013918444         2603 
  470000   0.51744504   -7.3926428    84.493261  0.014981075  0.013875138         2584 
  471000   0.52567148   -7.3805373    84.551242  0.014959526  0.013831939         2615 
  472000   0.51948935   -7.3853627    84.539763  0.014925806  0.013788922         2598 
  473000   0.51351819   -7.4011287    84.578026  0.014900991  0.013746036         2650 
  474000   0.51582009   -7.3911133    84.620426  0.014877009  0.013703435         2573 
  475000    0.5138978    -7.417752    84.629113  0.014847213  0.013661002         2614 
  476000   0.50451707   -7.4114393     84.58257  0.014807873  0.013618679         2586 
  477000   0.50266049   -7.4113331    84.513929  0.014764837   0.01357647         2625 
  478000   0.50739307   -7.3994369     84.50908  0.014733103  0.013534365         2532 
  479000   0.49402459   -7.4013855     84.51169  0.014702799  0.013492503         2604 
  480000   0.49525995   -7.4239259    84.531701  0.014675642  0.013450746         2702 
  481000   0.50495513   -7.4017647    84.381089  0.014619038  0.013409098         2657 
  482000   0.50401857   -7.4266134    84.518698    0.0146125  0.013367643         2695 
  483000   0.49959157   -7.4123734    84.391717  0.014560338  0.013326277         2724 
  484000   0.49590706   -7.4209512    84.442456   0.01453899  0.013285082         2730 
  485000   0.49788582   -7.4278717    84.438018  0.014508251  0.013244019         2725 
  486000   0.49417186   -7.4180231    84.345013  0.014462451  0.013203058         2702 
  487000   0.48522036   -7.4280813    84.420261   0.01444563  0.013162306         2737 
  488000   0.49138709   -7.4209805    84.455291   0.01442201  0.013121777         2727 
  489000   0.49007125   -7.4315413    84.274193  0.014361655  0.013081328         2786 
  490000   0.48447332   -7.4393708    84.478413  0.014367077  0.013041019         2763 
  491000   0.48515353   -7.4502686     84.45569   0.01433396  0.013000872         2828 
  492000   0.48191022   -7.4489753    84.272428  0.014273785   0.01296083         2842 
  493000   0.47901828   -7.4384138    84.418912  0.014269593  0.012920864         2780 
  494000   0.48781768   -7.4579297     84.33941  0.014227296  0.012881025         2701 
  495000   0.48958513   -7.4393801    84.199254  0.014174959  0.012841354         2796 
  496000   0.47026787   -7.4468113    84.381295  0.014176965  0.012801814         2749 
  497000   0.47324876   -7.4389469    84.293028   0.01413364  0.012762462         2744 
  498000   0.47589751   -7.4464438    84.376719  0.014119263  0.012723198         2771 
  499000   0.47407569   -7.4568597    84.203969  0.014062119  0.012684092         2818 
  500000   0.46807707   -7.4667421    84.328389  0.014054732  0.012645113         2851 
  501000   0.46914635    -7.467791    84.257431  0.014014875  0.012606247         2761 
  502000   0.46088806   -7.4667293    84.222847  0.013981216   0.01256753         2831 
  503000   0.47568597   -7.4729859    84.252279  0.013958297  0.012528901         2836 
  504000   0.46427692    -7.479659    84.247244  0.013929769  0.012490444         2838 
  505000   0.45592383   -7.4807633    84.269036  0.013905782  0.012452067         2811 
  506000   0.46374749   -7.4763763    84.238911  0.013873338  0.012413838         2771 
  507000   0.46347895   -7.4846621    84.153835  0.013831991  0.012375739         2793 
  508000   0.46767497   -7.4956659    84.183113  0.013809566  0.012337792         2823 
  509000   0.45852414   -7.4800594    84.232391  0.013790503  0.012299998         2860 
  510000   0.44514699    -7.486857    84.206931  0.013759302  0.012262329         2883 
  511000   0.44791276   -7.4939302    84.092742  0.013713754  0.012224807         2795 
  512000   0.44412083   -7.4963345    84.218558  0.013707448  0.012187468         2828 
Loop time of 1058.22 on 48 procs for 500000 steps with 4000 atoms

Performance: 81646.278 tau/day, 472.490 timesteps/s
99.4% CPU use with 48 MPI tasks x no OpenMP threads

MPI task timing breakdown:
Section |  min time  |  avg time  |  max time  |%varavg| %total
---------------------------------------------------------------
Pair    | 64.842     | 68.776     | 75.366     |  32.1 |  6.50
Neigh   | 6.6234     | 6.7806     | 6.9419     |   2.5 |  0.64
Comm    | 56.109     | 62.518     | 68.745     |  35.1 |  5.91
Output  | 0.96105    | 0.96166    | 0.97407    |   0.2 |  0.09
Modify  | 902.15     | 906.98     | 912.84     |   8.5 | 85.71
Other   |            | 12.21      |            |       |  1.15

Nlocal:        83.3333 ave          89 max          73 min
Histogram: 1 0 2 4 2 7 15 3 10 4
Nghost:        1730.04 ave        1750 max        1713 min
Histogram: 2 5 7 8 8 5 3 5 2 3
Neighs:        10445.5 ave       11206 max        8920 min
Histogram: 1 0 1 4 1 7 12 7 8 7
FullNghs:      20891.0 ave       22381 max       18055 min
Histogram: 1 0 1 5 2 7 13 8 5 6

Total # of neighbors = 1002767
Ave neighs/atom = 250.69175
Neighbor list builds = 27003
Dangerous builds = 0

#clear
#
#next RN
#
#jump SELF
Total wall time: 0:17:41
