
units lj                  # Use reduced LJ style units
atom_style atomic         # Uncharged point particles
atom_modify map hash      # Needed for indexing of clusters etc
                          # Used to be able to find where atoms are in relation to each other.

lattice fcc 1.0 spacing 1 1 1
Lattice spacing in x,y,z = 1.5874011 1.5874011 1.5874011
region box block 0 10 0 10 0 10 units lattice
create_box 2 box
Created orthogonal box = (0.0000000 0.0000000 0.0000000) to (15.874011 15.874011 15.874011)
  3 by 4 by 4 MPI processor grid
create_atoms 1 box
Created 4000 atoms
  using lattice units in orthogonal box = (0.0000000 0.0000000 0.0000000) to (15.874011 15.874011 15.874011)
  create_atoms CPU = 0.002 seconds
set type 1 type/fraction 2 0.67 78393
Setting atom values ...
  2693 settings made for type/fraction
mass 1 1.0
mass 2 1.0
pair_style lj/cut  3.5
pair_modify tail  yes
pair_coeff 1  1  1.0  1.0   # Intearaction between 1 and 1 set with epsilon = 1 and sigma = 1
pair_coeff 1  2  1.5  0.8
pair_coeff 2  2  0.5  0.88

write_data data.0
System init for write_data ...
Neighbor list info ...
  update every 1 steps, delay 10 steps, check yes
  max neighbors/atom: 2000, page size: 100000
  master list distance cutoff = 3.8
  ghost atom cutoff = 3.8
  binsize = 1.9, bins = 9 9 9
  1 neighbor lists, perpetual/occasional/extra = 1 0 0
  (1) pair lj/cut, perpetual
      attributes: half, newton on
      pair build: half/bin/atomonly/newton
      stencil: half/bin/3d
      bin: standard
WARNING: Not all mixed pair coeffs generated from mixing. Use write_data with 'pair ij' option to store all pair coeffs. (../write_data.cpp:312)


#############################
#   M E L T   S Y S T E M   #
#############################

velocity all create 2.4 1741580 mom yes dist gaussian # Assign velocities
                                                    # Temperature 2.4, random number seed, zero linear momentum
                                                                                # Gaussian distribution

timestep 0.002   # simulation timestep
thermo 1000       # output thermodynamic data every 1000 steps bf 100

# Define a fix  in this case with index 1 applied to all
# particles in the simulation. This fix is for simulations
# in the anisotropic NPT ensemble. Note that we use the MTK
# correction.
fix 1 all npt temp 2.4 2.4 0.1 iso 5.68 5.68 0.5 mtk yes tchain 5 pchain 5 # Use NPT ensemble
                                                                         # Set temperature and pressure and damping
                                                                         # Numbers of thermostats in chain and in barostat
run 10000          # run for 10000 steps
Per MPI rank memory allocation (min/avg/max) = 3.642 | 3.644 | 3.648 Mbytes
Step Temp E_pair E_mol TotEng Press Volume 
       0          2.4   -4.3445498            0  -0.74544977   -3.8717164         4000 
    1000    2.4275106   -4.0281621            0  -0.38780651     5.882075    3607.4053 
    2000    2.4177296   -4.0550216            0  -0.42933378    5.7587812    3605.4446 
    3000    2.4402477   -3.9857763            0  -0.32631985    5.7546776    3644.1325 
    4000    2.4508863   -4.0248986            0  -0.34948819    5.8121217    3631.1848 
    5000    2.3457121   -4.0342655            0  -0.51657697    5.3949496     3637.938 
    6000    2.3827059   -3.9844162            0  -0.41125083    5.8332223     3631.032 
    7000    2.4150727   -4.0404833            0  -0.41878001    5.8820025    3599.7396 
    8000    2.3695685    -4.064358            0  -0.51089382    5.5243939    3617.4682 
    9000    2.4687952   -4.0276643            0  -0.32539729    6.0655204    3613.9485 
   10000    2.4067197   -4.0281454            0  -0.41896836    5.7736788    3609.7861 
Loop time of 2.67593 on 48 procs for 10000 steps with 4000 atoms

Performance: 645756.559 tau/day, 3737.017 timesteps/s
99.6% CPU use with 48 MPI tasks x no OpenMP threads

MPI task timing breakdown:
Section |  min time  |  avg time  |  max time  |%varavg| %total
---------------------------------------------------------------
Pair    | 1.2097     | 1.2729     | 1.3732     |   3.1 | 47.57
Neigh   | 0.21619    | 0.22342    | 0.23731    |   0.9 |  8.35
Comm    | 0.8014     | 0.90892    | 0.98318    |   4.4 | 33.97
Output  | 0.00025182 | 0.00025541 | 0.00032568 |   0.0 |  0.01
Modify  | 0.22072    | 0.25452    | 0.31233    |   4.0 |  9.51
Other   |            | 0.01591    |            |       |  0.59

Nlocal:        83.3333 ave          93 max          74 min
Histogram: 1 3 3 14 6 6 6 3 5 1
Nghost:        1756.96 ave        1791 max        1728 min
Histogram: 1 5 5 12 8 3 8 3 0 3
Neighs:        10571.8 ave       12020 max        8972 min
Histogram: 1 4 1 8 9 9 6 2 4 4

Total # of neighbors = 507447
Ave neighs/atom = 126.86175
Neighbor list builds = 902
Dangerous builds = 174

# Equilibrate just above the melting temperature to avoid step fn in T

fix 1 all npt temp 1.25 1.25 0.1 iso 5.68 5.68 0.5 mtk yes tchain 5 pchain 5
run 2000
Per MPI rank memory allocation (min/avg/max) = 3.644 | 3.646 | 3.650 Mbytes
Step Temp E_pair E_mol TotEng Press Volume 
   10000    2.4067197   -4.0281454            0  -0.41896836    5.7736788    3609.7861 
   11000    1.2330194   -5.9369532            0   -4.0878865    5.7272278    2773.6928 
   12000    1.2372081   -5.9530643            0   -4.0977161    5.5458046     2769.932 
Loop time of 0.669217 on 48 procs for 2000 steps with 4000 atoms

Performance: 516424.728 tau/day, 2988.569 timesteps/s
99.7% CPU use with 48 MPI tasks x no OpenMP threads

MPI task timing breakdown:
Section |  min time  |  avg time  |  max time  |%varavg| %total
---------------------------------------------------------------
Pair    | 0.29687    | 0.32734    | 0.35447    |   2.2 | 48.91
Neigh   | 0.041058   | 0.043517   | 0.046836   |   0.6 |  6.50
Comm    | 0.21601    | 0.24786    | 0.28281    |   2.9 | 37.04
Output  | 5.1562e-05 | 5.3394e-05 | 7.0036e-05 |   0.0 |  0.01
Modify  | 0.042064   | 0.045319   | 0.04882    |   0.8 |  6.77
Other   |            | 0.005124   |            |       |  0.77

Nlocal:        83.3333 ave          96 max          77 min
Histogram: 4 4 9 15 10 4 1 0 0 1
Nghost:        2106.94 ave        2129 max        2089 min
Histogram: 5 4 7 3 6 7 8 2 3 3
Neighs:        13779.6 ave       15731 max       12409 min
Histogram: 3 5 8 8 8 9 3 0 3 1

Total # of neighbors = 661422
Ave neighs/atom = 165.35550
Neighbor list builds = 141
Dangerous builds = 14

#############################
# L I N E A R  Q U E N C H  #
#############################

# Define solid atoms. This closely follows ten Wolde  Ruiz-Montero and Frenkel  Faraday Discuss  1996  104  93-110
# Compute components of the per-atom q6 vector
compute q6 all orientorder/atom degrees 1 6 components 6 nnn NULL cutoff 1.3 # compute the Q6 parameter.
                                                                             # Use all neighbours within 1.3 unit cell.

# get number of connections
compute coord_number all coord/atom orientorder q6 0.5

# An atom is solid if it has 8 or more connections (of a possible 14)
variable is_solid atom c_coord_number>=8
group solid dynamic all var is_solid    # Must be dynamic to update
dynamic group solid defined

# do clustering
compute cluster solid cluster/atom 1.3 # Create a cluster where all atoms within are solid and max 1.3 units from another member

# define chunks one chunk per cluster
compute clus_chunks solid chunk/atom c_cluster nchunk every compress yes  # Says which atoms are in which chunk

# count the size of each chunk
compute size_chunks solid property/chunk clus_chunks count


# Find the maximum entry in the vector of chunk sizes
variable max_n equal max(c_size_chunks)


# Thermo style which includes this variable
# thermo_style custom step temp pe vol v_max_n

thermo ${N}  # Print the thermo information every 100 steps
thermo 1000  

# Reset the npt fix at a lower temperature (below freezing)
fix 1  all npt temp  ${temp} ${temp}  0.1  iso  5.68  5.68  0.5  mtk yes tchain  5  pchain  5
fix 1  all npt temp  0.45 ${temp}  0.1  iso  5.68  5.68  0.5  mtk yes tchain  5  pchain  5
fix 1  all npt temp  0.45 0.45  0.1  iso  5.68  5.68  0.5  mtk yes tchain  5  pchain  5

dump dmp2 all dcd ${N} traj.dcd
dump dmp2 all dcd 1000 traj.dcd


compute msd all msd com yes
variable twopoint equal c_msd[4]/6/(step*dt+1.0e-6)
fix 9 all vector 10 c_msd[4]
variable fit equal slope(f_9)/6/(10*dt)
thermo_style custom step temp pe c_msd[4] v_twopoint v_fit v_max_n

fix 1 all npt temp 1.25 ${temp} 0.1 iso 5.68 5.68 0.5 mtk yes tchain 5 pchain 5
fix 1 all npt temp 1.25 0.45 0.1 iso 5.68 5.68 0.5 mtk yes tchain 5 pchain 5
run 5000000 # 5000000  # Run for this many steps
Neighbor list info ...
  update every 1 steps, delay 10 steps, check yes
  max neighbors/atom: 2000, page size: 100000
  master list distance cutoff = 3.8
  ghost atom cutoff = 3.8
  binsize = 1.9, bins = 8 8 8
  4 neighbor lists, perpetual/occasional/extra = 1 3 0
  (1) pair lj/cut, perpetual
      attributes: half, newton on
      pair build: half/bin/atomonly/newton
      stencil: half/bin/3d
      bin: standard
  (2) compute orientorder/atom, occasional
      attributes: full, newton on
      pair build: full/bin/atomonly
      stencil: full/bin/3d
      bin: standard
  (3) compute coord/atom, occasional
      attributes: full, newton on
      pair build: full/bin/atomonly
      stencil: full/bin/3d
      bin: standard
  (4) compute cluster/atom, occasional
      attributes: full, newton on
      pair build: full/bin/atomonly
      stencil: full/bin/3d
      bin: standard
Per MPI rank memory allocation (min/avg/max) = 9.847 | 9.851 | 9.857 Mbytes
Step Temp PotEng c_msd[4] v_twopoint v_fit v_max_n 
   12000    1.2372081   -5.9530643 1.0527349e-30 7.3106586e-33 8.3333333e+20            3 
   13000    1.2532379   -5.9554061    0.5717373 0.0036649825  0.046277102            6 
   14000    1.2225107   -5.9883069    1.1049061  0.006576822  0.045979597            6 
   15000     1.261061   -6.0146854    1.7044747 0.0094693034  0.046305266            1 
   16000    1.2501238     -5.94678    2.2813169  0.011881858  0.047122097            2 
   17000    1.2306492   -5.9839378    2.8216991  0.013831858  0.047271504            1 
   18000    1.2607755   -6.0570832    3.3590075   0.01555096  0.047076458            2 
   19000    1.2558698   -5.9997032    3.9074045  0.017137738  0.046730394            4 
   20000    1.2363211   -5.9728183    4.4612918  0.018588715  0.046518472            2 
   21000    1.2323681   -5.9884998    4.9873643  0.019791128   0.04622116            2 
   22000    1.2470763   -5.9764951    5.4989288  0.020829275    0.0459194            3 
   23000    1.2319489   -6.0266115    6.0518981  0.021927167  0.045679117            2 
   24000    1.2543429   -5.9706146    6.5932007  0.022893057  0.045537939            1 
   25000    1.2616092   -6.0334875    7.1146356  0.023715452  0.045436328            1 
   26000    1.2569327   -5.9943307    7.6126795  0.024399613  0.045329513            3 
   27000    1.2598276   -5.9858836      8.15524  0.025170493  0.045213653            3 
   28000    1.2284804   -5.9973879    8.5749624  0.025520721  0.044977801            2 
   29000    1.2463203   -6.0001875    9.1438023  0.026275293  0.044746261            3 
   30000    1.2403139   -5.9775738    9.7115487  0.026976524   0.04461914            1 
   31000     1.269196   -5.9819266    10.225946  0.027489102  0.044594435            2 
   32000    1.2586135   -5.9580092    10.791457  0.028102753  0.044554365            1 
   33000     1.249917   -6.0038137    11.212968  0.028315574  0.044488926            2 
   34000    1.2285683   -6.0354824    11.663096  0.028586019  0.044323096            1 
   35000    1.2378778   -6.0145139    12.277142   0.02923129  0.044238437            2 
   36000    1.2316298   -6.0014117    12.846663  0.029737645  0.044191833            2 
   37000    1.2331336   -5.9959861    13.364912  0.030101154  0.044157739            8 
   38000    1.2670688   -5.9927412    13.784771  0.030229761   0.04410109            2 
   39000     1.268055   -5.9756868    14.412573  0.030796095  0.044035328            2 
   40000    1.2388648   -6.0171555    14.811679  0.030857665  0.044005078            2 
   41000    1.2424935   -6.0094039    15.314454  0.031126939  0.043932433            5 
   42000    1.2711212   -6.0161859    15.871999  0.031492062  0.043868594            5 
   43000    1.2399093   -6.0271887    16.500046  0.031976833  0.043835413            2 
   44000    1.2463991   -5.9902137    17.059471  0.032309603  0.043828755            1 
   45000    1.2198388   -6.0041831    17.445621  0.032306706  0.043800049            2 
   46000    1.2510141   -5.9579411    18.055024  0.032708377  0.043769549            1 
   47000    1.2762466   -6.0193447    18.314376  0.032472298  0.043707408            3 
   48000    1.2440584   -5.9697099    18.842584  0.032712819  0.043621016            2 
   49000     1.248482   -6.0037239    19.351808  0.032911237  0.043549514            2 
   50000    1.2333287   -6.0091382    19.945375  0.033242291  0.043469343            4 
   51000    1.2333984   -6.0417186    20.382099  0.033304082  0.043431301            2 
   52000    1.2230322   -5.9662463    21.036547  0.033712414  0.043414401            2 
   53000     1.223169   -5.9425642    21.570003  0.033915099  0.043394682            4 
   54000    1.2103895   -6.0162916    22.048609  0.034025631  0.043360016            5 
   55000    1.2395732    -5.989968    22.595577  0.034235722  0.043329396            2 
   56000    1.2596138   -6.0124706    23.153012  0.034453887  0.043312317            5 
   57000    1.2370627    -5.948635    23.607336  0.034513649  0.043291289            2 
   58000    1.2133268   -6.0300049    24.061476  0.034571086  0.043268652            8 
   59000    1.2427345   -6.0042704    24.475718  0.034570222  0.043223997            4 
   60000    1.2452675   -6.0460937     24.97212    0.0346835  0.043187179            3 
   61000    1.2349209   -6.0237151    25.346621  0.034626531  0.043122024            4 
   62000    1.2595457   -6.0344882    25.749175  0.034609106  0.043044965            1 
   63000    1.2595729   -5.9962212    26.358111  0.034865226  0.042974144            2 
   64000    1.2184008   -6.0009451    26.755885  0.034838392  0.042924405            2 
   65000    1.2377166   -5.9948138    27.254029  0.034941063  0.042869903            3 
   66000    1.2357118   -5.9953422    27.724994  0.035006305  0.042804324            3 
   67000    1.2359696   -5.9887458    28.221474  0.035101335  0.042730184            2 
   68000    1.2471724   -6.0134525     28.61129  0.035062855  0.042664201            2 
   69000    1.2562506   -6.0131899    29.393289  0.035499141   0.04261153            5 
   70000    1.2505636    -6.018357    29.824436  0.035505281  0.042568245            2 
   71000    1.2445701    -6.017695    30.422079  0.035706665  0.042539092            2 
   72000    1.2415385   -6.0408032     30.93679  0.035806469  0.042524933            1 
   73000    1.2567806   -5.9666252    31.652403  0.036132879  0.042529817            1 
   74000     1.231399   -6.0027759    31.964364  0.035995905  0.042520152            2 
   75000    1.2361916   -6.0198964    32.426902  0.036029891  0.042500793            2 
   76000    1.2571277     -6.03592     32.87365  0.036045669  0.042475335            2 
   77000    1.2457355   -5.9920445    33.330821  0.036072317  0.042451438            3 
   78000    1.2375932   -6.0312929    33.878924  0.036195432  0.042427582            1 
   79000    1.2544983   -6.0246726    34.412517  0.036300123  0.042408723            6 
   80000    1.2423621   -6.0252769    35.118639  0.036581915  0.042407371            1 
   81000    1.2482134   -6.0482102    35.761425   0.03679159  0.042425885            4 
   82000    1.2084134   -6.0138643    36.303662  0.036893965  0.042444213            5 
   83000    1.2559749   -6.0665647    36.705747   0.03685316  0.042456679            6 
   84000    1.2546372   -6.0523659    37.320195  0.037024003   0.04247181            2 
   85000    1.2537524   -6.0491129    37.759306  0.037018927  0.042483021            2 
   86000    1.2623706   -6.0529311     38.45133   0.03725904  0.042501869            3 
   87000    1.2547234   -6.0156935    38.888016  0.037249057  0.042527661            5 
   88000    1.2509702   -6.0101686    39.441428  0.037349837     0.042557            2 
   89000    1.2196435   -6.0364498    40.003964  0.037456895  0.042584749            2 
   90000    1.2178274   -6.0369382    40.840916  0.037815662  0.042617403            3 
   91000    1.2357274    -5.994496    41.274917  0.037797543  0.042658478            3 
   92000    1.2194041   -6.0290107      41.6853  0.037758424  0.042691396            2 
   93000    1.2407575   -6.0190827    42.238391   0.03784802  0.042715441            2 
   94000    1.2198537   -5.9869633    42.644544  0.037805447  0.042726146            3 
   95000    1.2403498   -6.0395304    43.095622  0.037803177  0.042737908            1 
   96000    1.2481214     -5.99103    43.403102  0.037676304  0.042749698            3 
   97000    1.2354087   -6.0023171    43.969061  0.037774108   0.04275761            2 
   98000    1.2345821   -5.9884703    44.485129  0.037827491  0.042755751            2 
   99000    1.2272788   -6.0677743    44.956811  0.037842433  0.042755684            2 
  100000     1.258299   -6.0465027    45.355441    0.0377962  0.042750036            2 
  101000    1.2246692   -6.0300769    45.783523  0.037775184  0.042744079            2 
  102000    1.2410254   -5.9918665    46.150127  0.037704352  0.042733175            2 
  103000    1.2563021   -6.0587093    46.844457  0.037900046  0.042721115            2 
  104000    1.2289998   -5.9992821     47.57126  0.038117996  0.042721051            1 
  105000    1.2177434   -5.9949694    48.156953  0.038219804  0.042724739            2 
  106000    1.2569744   -6.0303779     48.83034  0.038388632  0.042738178            2 
  107000    1.2037591   -6.0181758    49.383068  0.038460333  0.042743222            2 
  108000    1.2207193   -6.0412908    49.661592  0.038319129  0.042753861            1 
  109000    1.2421722   -6.0090998    50.397616  0.038530287  0.042765425            3 
  110000    1.2278381   -6.0102032    51.081707  0.038698263  0.042776955            2 
  111000    1.2354687   -6.0398893    51.471436  0.038642219  0.042792833            4 
  112000    1.2505396   -6.0121717     52.20943  0.038846302  0.042813869            2 
  113000    1.2182144    -6.018425    52.839559  0.038967227  0.042838878            2 
  114000    1.2297678   -5.9839219     53.71674  0.039266623  0.042870983            3 
  115000    1.2233581   -5.9842613    54.178894  0.039260068  0.042905915            5 
  116000    1.2502571   -6.0548189    54.285305  0.038998064  0.042936127            4 
  117000    1.2440304   -5.9903015    55.117684   0.03925761  0.042959398            1 
  118000    1.2206956   -6.0229728    55.372033  0.039104543   0.04298953            2 
  119000    1.2141072    -6.045046     55.71086  0.039013207  0.043009085            1 
  120000    1.2233871   -6.0442022    56.427623  0.039185849   0.04302827            3 
  121000     1.211569   -6.0340228    56.715064  0.039059961  0.043041412            2 
  122000    1.2490236   -6.0172349    57.650107  0.039378488  0.043058647            2 
  123000    1.2122772   -6.0830164    57.838198  0.039185771  0.043075804            3 
  124000    1.2380223   -6.0951184    58.196755  0.039110723  0.043087568            3 
  125000    1.2144539   -6.0764948    58.621601  0.039081067  0.043089025            1 
  126000    1.2495549   -6.0553491    59.184549   0.03914322   0.04309166            2 
  127000    1.2475727   -6.0539369    59.568812  0.039087147  0.043093998            5 
  128000    1.2477484   -6.0751846    60.407799  0.039327994  0.043097644            3 
  129000     1.209212   -6.0466873    60.870446  0.039321994  0.043105794            2 
  130000    1.2224554   -6.0164465    61.490512  0.039416995  0.043111799            2 
  131000    1.2386032    -6.033885    61.969183    0.0394206  0.043117016            2 
  132000    1.2359138   -6.0106471    62.585156  0.039510831  0.043121196            3 
  133000    1.2127815   -6.0373088    62.888467  0.039403801  0.043125006            1 
  134000    1.2431444   -6.0507629    63.317494  0.039376551  0.043128936            1 
  135000    1.2281739   -6.0484032     64.31584  0.039701136  0.043138694            5 
  136000    1.2831825   -6.0079913    64.811642  0.039713016  0.043148751            4 
  137000    1.2244656   -6.0784963    65.204334  0.039662004  0.043165669            5 
  138000    1.2384562   -6.0282206    65.873883  0.039778915  0.043177409            4 
  139000    1.2136467   -6.0189657    66.346407  0.039776023  0.043185657            2 
  140000    1.2421024   -6.0556467    66.397186  0.039522134  0.043188525            2 
  141000    1.2225582   -6.0306182    67.332307  0.039794508  0.043196734            3 
  142000    1.2393089   -6.0135063    67.871546   0.03983072  0.043202538            1 
  143000    1.2411138   -6.0444266    67.962103  0.039604955  0.043201128            3 
  144000    1.2793854   -6.0348143    68.517712  0.039651454  0.043201134            2 
  145000    1.2466002   -6.1079297    68.871624  0.039581393  0.043199356            3 
  146000    1.2215191    -6.029547    69.313683  0.039562604  0.043193221           10 
  147000    1.2140749   -6.0393071    69.610401  0.039461678  0.043186353            5 
  148000    1.2308326   -6.0617022    70.011044  0.039420633  0.043169737            2 
  149000    1.1980138   -6.0474456    70.449858  0.039401486  0.043151524            3 
  150000    1.1950642     -6.05683    70.553188  0.039196215  0.043130742            2 
  151000    1.2369194   -6.0416347    71.421039  0.039415584   0.04311056            5 
  152000      1.23852   -6.0692893    71.726593   0.03932379   0.04309141            4 
  153000    1.2235851    -6.040881    72.318045  0.039388913   0.04306659            3 
  154000    1.2407508   -6.0608636    72.700807  0.039340264  0.043045889            2 
  155000    1.2245222   -6.0666008    73.445143  0.039486636  0.043026351            4 
  156000     1.226291    -6.024537    73.932256  0.039493726  0.043010734            2 
  157000     1.234814   -6.0410725    74.703534  0.039651557  0.042997036            2 
  158000    1.2128596   -6.0398202     74.83861  0.039471841   0.04298543            5 
  159000    1.2268647   -6.0148476    75.270512  0.039449954  0.042969726            3 
  160000    1.2294821   -6.0374199    75.806809  0.039482713  0.042952056            3 
  161000    1.1861423   -6.0169596    76.453233  0.039572067  0.042937033            3 
  162000     1.222432   -6.1122615    76.566587  0.039386104  0.042920718            2 
  163000    1.2347887   -6.0509708    77.376322  0.039558447  0.042899682            5 
  164000    1.2225999   -6.0280691    78.129257  0.039699826   0.04288018            1 
  165000    1.2656674   -6.0329427    78.618355   0.03970624  0.042863422            2 
  166000    1.2262336   -6.0379042     78.96338  0.039640251  0.042850552            4 
  167000    1.2206981    -6.039924    79.513908  0.039677599   0.04283609            2 
  168000    1.2377828   -6.0197175    80.031787  0.039698307  0.042827081            1 
  169000    1.2701727   -6.0459249     80.26747   0.03957962   0.04281538            2 
  170000    1.2274498   -6.0443766    80.384296  0.039404067  0.042800854            3 
  171000    1.2136767   -6.0429432    81.181351  0.039562062  0.042785874            2 
  172000    1.2016101   -6.0539741      81.5568  0.039513954   0.04277294            3 
  173000    1.2359572    -6.067409    81.885269  0.039443771  0.042755768            1 
  174000    1.2061204   -6.0670673    82.791468  0.039651086  0.042735593            2 
  175000    1.2062533   -6.0237319     82.93468  0.039492704  0.042716675            3 
  176000    1.2253634   -6.0475647    83.184749  0.039386718  0.042696834            2 
  177000    1.2327981    -6.010675    84.119265  0.039604173  0.042678128            5 
  178000    1.2494866   -6.0606444    84.548565  0.039582661  0.042663151            2 
  179000     1.241554   -6.0790031    84.864588  0.039508654   0.04264621            3 
  180000     1.228843   -6.0612411    85.599129  0.039629226  0.042628835            3 
  181000    1.2294165   -6.0525726    85.927813  0.039561608  0.042611422            2 
  182000    1.2085259    -6.040838    86.580871  0.039643256  0.042596723            2 
  183000    1.2187467   -6.0464871    87.156327  0.039688673  0.042583573            3 
  184000     1.205403   -6.0355319    87.535233   0.03964458  0.042568982            2 
  185000    1.2263324   -6.0291098    88.181066  0.039721201  0.042555554            4 
  186000    1.2319902    -6.061978     88.50276  0.039651774  0.042542615            1 
  187000    1.2139007   -6.0783196    89.186444  0.039744405  0.042529312            4 
  188000    1.2161938   -6.0585632    89.746097  0.039781071  0.042518886            2 
  189000    1.2577384   -6.0496972    90.171679  0.039758236  0.042506908            3 
  190000    1.2198751   -6.0288265    90.470551  0.039680066  0.042493393            2 
  191000    1.1905336   -6.0643489    90.601155    0.0395293   0.04247797            3 
  192000    1.2222204   -6.0402331    91.290207  0.039622486  0.042463494            3 
  193000    1.2245394   -6.0296268    92.254395  0.039833504  0.042451741            4 
  194000    1.2311402   -6.0555501    92.438573  0.039707291  0.042438134            2 
  195000     1.236338   -6.0813333    92.481591  0.039522047  0.042423024            4 
  196000    1.2113964   -6.0482535     93.16668  0.039611684  0.042409745            3 
  197000     1.241116   -6.0274845    93.897941  0.039719941  0.042397449            5 
  198000    1.1967911   -6.0746261    94.408552  0.039734239  0.042385365            2 
  199000     1.198913   -6.0405756    94.776119  0.039688492   0.04237118            2 
  200000    1.2018125   -6.0699013    94.763521    0.0394848  0.042354867            3 
  201000    1.2187693     -6.03496    95.315088  0.039517035  0.042334712            3 
  202000    1.2015183   -6.0319922    96.102771  0.039646358  0.042315885            1 
  203000    1.2007824   -6.0984387     96.10152  0.039450542  0.042295164            3 
  204000     1.220868   -6.0458932    96.876242  0.039573628  0.042274011            4 
  205000    1.2422303   -6.0793385      97.2074  0.039515203  0.042253992            2 
  206000    1.1898104   -6.0658311    98.030167  0.039656216   0.04223549            7 
  207000      1.20497   -6.0935382    98.040685  0.039468875  0.042217822            4 
  208000    1.2283846   -6.0552345    99.202982  0.039744784  0.042200037            3 
  209000    1.2310321   -6.0611897    99.533066   0.03968623  0.042186108            2 
  210000    1.2083657    -6.039684     100.0439   0.03969996  0.042172351            3 
  211000    1.2060958   -6.0426247    100.73833  0.039786068  0.042158257            2 
  212000    1.2212812   -6.0162765     101.4077  0.039861518  0.042146682            2 
  213000    1.2253906   -6.0429034    101.80635  0.039830339  0.042135733            3 
  214000     1.200991   -6.0775536    102.00045    0.0397198  0.042123136            4 
  215000    1.2070614   -6.0923172    102.45326  0.039710565  0.042111804            2 
  216000    1.2028935   -6.0816809    103.02674  0.039747971  0.042100809            2 
  217000    1.2222325    -6.052963    104.32238  0.040062358  0.042093001            3 
  218000    1.2433232   -6.0281818    105.01901  0.040144883   0.04208913            3 
  219000    1.2126968   -6.0594657    104.96429  0.039940748  0.042083562            2 
  220000    1.1895504   -6.0537391    105.72946  0.040049038  0.042079306            3 
  221000    1.2120292   -6.0543952    105.65451  0.039839558  0.042074704            3 
  222000    1.2095691   -6.0852109    106.23913  0.039879552  0.042068476            2 
  223000    1.2135418   -6.0842966    106.50032  0.039798325  0.042062548            2 
  224000    1.2211775   -6.0096303    107.77567  0.040095114  0.042057486            4 
  225000    1.2113454   -6.0637496    107.65121  0.039870819   0.04205385            5 
  226000    1.2231153   -6.0369662    108.36226  0.039956584  0.042047233            4 
  227000    1.2227012   -6.0637144    108.70766  0.039907365  0.042040432            4 
  228000     1.243826   -6.0614654    109.00774  0.039842009   0.04202964            3 
  229000    1.2063608   -6.0523974    109.30563  0.039776429  0.042016637            2 
  230000    1.2402161   -6.0687372    109.85264  0.039801681   0.04200413            2 
  231000    1.1900782   -6.0779035    110.47671  0.039854514  0.041992542            3 
  232000    1.2499197   -6.0492125    110.88253  0.039828495  0.041982706            3 
  233000    1.2399348   -6.0363981    111.59563  0.039912598  0.041975699            1 
  234000    1.1986931   -6.0595996     112.0423  0.039901105  0.041968801            3 
  235000    1.1987492   -6.0488073    112.92732  0.040045149  0.041961487            7 
  236000    1.2091897   -6.0652461     112.9335  0.039877647  0.041953654            1 
  237000     1.211318   -6.0640026    113.34975  0.039855749  0.041947931            2 
  238000    1.1900843   -6.0830873    114.16152   0.03997252  0.041940158            2 
  239000     1.225514   -6.0355178    114.80891  0.040031001  0.041933087            2 
  240000    1.2063835   -6.0684874    115.26496  0.040022556    0.0419265            4 
  241000    1.1978731   -6.1098895    115.57591  0.039964009  0.041919979            3 
  242000    1.2268808    -6.105078    116.20217   0.04001452  0.041915549            2 
  243000    1.1932757   -6.0439475    117.12834  0.040167468  0.041913536            2 
  244000    1.2469061   -6.0642396    117.34421  0.040076574  0.041912732            1 
  245000     1.206328   -6.0493769    118.30428  0.040239552  0.041909969            2 
  246000     1.198433   -6.0830127    118.73083   0.04022047  0.041909681            3 
  247000    1.2135719    -6.073408    119.16073  0.040202675   0.04190858            2 
  248000    1.1925532   -6.0789476    118.90045  0.039953107  0.041906853            3 
  249000    1.2026805   -6.0912172    119.86708  0.040116159  0.041903602            3 
  250000    1.2058693   -6.0299004    120.88348  0.040294495  0.041900685            4 
  251000    1.2181477   -6.0800512    121.40829  0.040308197  0.041899222            6 
  252000    1.2142685   -6.0772011    121.40431  0.040146928  0.041899386            2 
  253000     1.229723   -6.0577602    122.56894   0.04037185  0.041901184            4 
  254000     1.193828   -6.0340917    122.93882  0.040334259  0.041901878            3 
  255000    1.2382853   -6.1118746    123.29147  0.040291331   0.04190207            1 
  256000    1.2182034   -6.0781784    124.01327  0.040368903  0.041903753            5 
  257000    1.2160693   -6.1053826    124.58886  0.040398463  0.041907197            1 
  258000    1.2169866   -6.1131893    124.54976  0.040229249  0.041907999            2 
  259000    1.2121211   -6.0863504    125.18279  0.040277603  0.041908235            2 
  260000    1.1555308   -6.0772669    125.47774  0.040217223  0.041903493            2 
  261000    1.2096676   -6.0365873    125.09295  0.039940277  0.041899583            3 
  262000    1.1882643    -6.103003    126.44679  0.040218446  0.041894412            3 
  263000    1.1911151   -6.1283092    126.54523  0.040096714   0.04188941            2 
  264000    1.2189007   -6.0856008    126.74539  0.040008014  0.041886552            2 
  265000    1.2149706   -6.1214312    127.90327  0.040221153  0.041881769            2 
  266000    1.1824771   -6.0866064    128.12038  0.040137965  0.041879494            5 
  267000     1.210666   -6.0824949    128.76179  0.040187824    0.0418766            2 
  268000    1.2168994   -6.1000011     129.5646  0.040287501  0.041875575            2 
  269000    1.2383492   -6.0668049    130.26296  0.040354078  0.041874995            3 
  270000    1.2130944   -6.1346693    130.28586  0.040211684  0.041873726            3 
  271000    1.2237821   -6.1182326    130.70568  0.040192399  0.041871478            3 
  272000      1.22721   -6.0749306    131.51437  0.040292393  0.041869812            1 
  273000     1.220719   -6.0403528    132.48152  0.040440023  0.041869042            1 
  274000    1.2472908   -6.1790933     131.6158  0.040029136  0.041869291            1 
  275000     1.199346   -6.0730043    132.99933  0.040302827  0.041868938            2 
  276000    1.2238827   -6.0979825     134.1745  0.040511623  0.041869823            2 
  277000    1.1958107   -6.0649457    134.64981  0.040508368  0.041871957            4 
  278000    1.2159099   -6.1069916      134.635  0.040358214  0.041873066           10 
  279000    1.1906583   -6.0876894    135.05214  0.040338155  0.041872908            2 
  280000    1.1799528   -6.1543267    134.70396  0.040090465  0.041870267            2 
  281000    1.2094167   -6.0743079    135.86219  0.040291278  0.041867093            4 
  282000    1.2200514   -6.1451386    136.15914  0.040236151  0.041864885            2 
  283000    1.2433856   -6.1002421    136.45549   0.04018124  0.041862355            2 
  284000    1.2300961   -6.1292733    136.43574  0.040033961  0.041858485            2 
  285000    1.1755089   -6.0387029    137.31171  0.040149624  0.041852975            3 
  286000      1.21886   -6.0809226    137.39851  0.040034531  0.041846566            1 
  287000    1.1922912   -6.0777988     137.8524  0.040026829  0.041837722            3 
  288000    1.1875103    -6.101011    138.48935  0.040072151    0.0418303            2 
  289000    1.1746525   -6.0963359    138.96131  0.040069583  0.041821469            2 
  290000    1.2054638   -6.1213063     139.1626  0.039989254  0.041813506            4 
  291000    1.2271905   -6.0549668    140.32977  0.040186075  0.041807918            2 
  292000    1.2070598   -6.0686118    140.34265  0.040052127  0.041801772            4 
  293000    1.2340602   -6.0706263    140.55299  0.039975252  0.041793626            3 
  294000    1.2269111   -6.0749643    141.46171  0.040096857  0.041784552            3 
  295000    1.1822601   -6.1174175    141.44627  0.039956573  0.041773925            5 
  296000    1.1953375   -6.1368067    141.15497  0.039739575  0.041763436            2 
  297000    1.2242283   -6.1252545     142.5349  0.039992957  0.041751971            2 
  298000    1.1966141   -6.0900646    142.80864  0.039935302  0.041742293            2 
  299000    1.1856635    -6.105304    143.28374  0.039934154   0.04173235            2 
  300000    1.2059869   -6.1052339    144.07837  0.040021769  0.041722556            2 
  301000    1.1880234    -6.067006    144.25405  0.039937444  0.041712539            1 
  302000    1.2120164   -6.0616785    144.95153  0.039997662  0.041703447            2 
  303000    1.1975816    -6.065286    145.21221  0.039937351  0.041694404            3 
  304000    1.1839229   -6.1140766    145.13003  0.039783451  0.041682639            2 
  305000    1.2398475    -6.078704    145.83927  0.039846796  0.041670409            4 
  306000    1.1800032   -6.1029028    146.30706   0.03984397  0.041659419            3 
  307000    1.2130917   -6.0963951    146.65819  0.039809497  0.041648762            3 
  308000    1.1943398    -6.099148     147.3077  0.039855979  0.041637746            2 
  309000    1.2023138    -6.074999    148.20596  0.039969244  0.041627976            5 
  310000    1.2042049   -6.1625064    147.44985  0.039637058  0.041617145            3 
  311000    1.1953584   -6.0843708    149.17883   0.03997289  0.041605091            4 
  312000    1.2116774   -6.0995326    148.87444  0.039763471  0.041595278            8 
  313000    1.2031557   -6.0941319    149.75888  0.039871906  0.041583322            3 
  314000    1.2038637   -6.1421942    149.70146  0.039729688  0.041571401            3 
  315000    1.2039309   -6.1234159    150.69656  0.039866815  0.041560866            4 
  316000    1.2118386   -6.0504368    151.90905  0.040060402  0.041550614            3 
  317000    1.1923656   -6.0663434    151.63663  0.039862415  0.041539999            2 
  318000    1.2088248   -6.0928973    151.52702  0.039708337  0.041526341            2 
  319000    1.1985948    -6.120814    151.83276   0.03966373  0.041511532            4 
  320000    1.1743965   -6.1231517    151.63138  0.039487338  0.041495886            2 
  321000     1.188844   -6.0929835    152.33586  0.039547212  0.041479974            2 
  322000    1.1986147   -6.0856796    153.61381  0.039755126  0.041466611            2 
  323000    1.2170822   -6.1261425    153.26769  0.039542747  0.041453037            2 
  324000    1.2118802   -6.1261656    153.35089  0.039442102  0.041437896            3 
  325000    1.1866034   -6.1484933    153.88004  0.039456421  0.041421313            4 
  326000    1.1685106   -6.1050302    154.40027  0.039468373  0.041404174            2 
  327000    1.1820658   -6.0830516    155.28819  0.039573953  0.041387874            2 
  328000    1.1754574    -6.095752    155.85775  0.039598006  0.041372494            3 
  329000    1.1711032   -6.1392337    155.86935  0.039480585  0.041357699            2 
  330000    1.1787462    -6.064959    156.74603  0.039582332   0.04134379            3 
  331000    1.1797777   -6.1458753    156.50958  0.039403216  0.041328341            5 
  332000    1.1901004   -6.1361894    157.15893  0.039447523  0.041312838            6 
  333000    1.2061569   -6.1352413    157.16487  0.039330547  0.041296855            5 
  334000    1.2302725   -6.1121454    158.36811  0.039513001  0.041281099            2 
  335000    1.1826166   -6.1309923    158.35253  0.039391175  0.041265446            3 
  336000     1.194758   -6.0774766    158.40095   0.03928595  0.041249243            3 
  337000    1.1986489   -6.0935854    159.25654  0.039380943  0.041232398            4 
  338000    1.2021934   -6.1202211    159.54465  0.039335465   0.04121444            5 
  339000    1.1973214   -6.1220557    159.54811  0.039220284  0.041195408            4 
  340000    1.2147634   -6.1244666    159.89178  0.039189162  0.041176137            6 
  341000    1.2109233   -6.0860074    160.53414  0.039231216  0.041157611            3 
  342000    1.1953879   -6.0771887    161.31752  0.039307388  0.041139524            4 
  343000    1.1978269   -6.1018089    161.71491  0.039289336  0.041122659            3 
  344000    1.2076817   -6.1246157    161.71848  0.039175988  0.041105415            2 
  345000    1.2023735   -6.1007995    162.85197  0.039336225  0.041089469            3 
  346000    1.2015648   -6.0909891    163.47232  0.039371946  0.041073431            2 
  347000    1.2274673   -6.1016301    164.26455  0.039448738  0.041058727            1 
  348000    1.1905449   -6.1267996    163.92796   0.03925478   0.04104375            2 
  349000    1.2003212   -6.1302952     164.5651  0.039294437  0.041029424            7 
  350000    1.1778278   -6.1247056    165.36596  0.039372848   0.04101628            3 
  351000    1.2015856    -6.070547    165.28475  0.039241394  0.041001128            2 
  352000      1.17582    -6.133205    165.34845  0.039144992  0.040985067            3 
  353000     1.206656   -6.1036822    165.73413  0.039125148  0.040966468            1 
  354000     1.202449   -6.1088598    166.73705  0.039250717  0.040948648            2 
  355000    1.1869914   -6.1043275    166.44723  0.039072121  0.040930558            2 
  356000    1.1888255   -6.1481553    167.21005  0.039140928  0.040912286            2 
  357000    1.2137493    -6.093956    167.21794  0.039033134  0.040893797            1 
  358000    1.2190874   -6.0906399    167.98216  0.039101993  0.040876718            2 
  359000    1.1952818   -6.1299146    167.97055  0.038990378  0.040860483            5 
  360000    1.1764105   -6.1368072    168.31155  0.038961007  0.040842501            5 
  361000    1.1983227   -6.1069587    169.40944   0.03910652  0.040826738            1 
  362000     1.177614   -6.1208572    169.70944  0.039067551  0.040811076            4 
  363000    1.2042796   -6.1182808    170.01125  0.039029212  0.040795941            4 
  364000     1.189628   -6.1289667    170.37047  0.039004228  0.040779713            3 
  365000     1.206282   -6.1277551    171.09498   0.03906278   0.04076278            2 
  366000    1.1851206   -6.1731067    171.77814  0.039111598  0.040745533            4 
  367000    1.1608184   -6.1387246    172.08429  0.039074544   0.04073004            3 
  368000    1.1809104    -6.125425    172.10961  0.038974096  0.040713249            3 
  369000    1.1880079   -6.0685932    173.40757    0.0391616  0.040696687            1 
  370000    1.2004904   -6.1362999    173.18312  0.039005208  0.040680198            2 
  371000    1.1885244   -6.1082438    173.91274  0.039063957  0.040663576            2 
  372000    1.1986253   -6.0549636    174.41006  0.039070355  0.040647857            2 
  373000    1.2065327   -6.1648134    174.32604  0.038946835  0.040630944            2 
  374000    1.1855879   -6.1380872    174.63281  0.038911054   0.04061607            4 
  375000    1.1995756   -6.1213206    175.49038  0.038997862  0.040600104            2 
  376000     1.198067   -6.1323733    176.26116  0.039064974  0.040585683            1 
  377000    1.2022468   -6.1140876    177.37356  0.039207242  0.040571098            2 
  378000    1.1851385   -6.1987636    176.61336  0.038935926  0.040556107            2 
  379000    1.1867869   -6.1401918    177.28998  0.038981966  0.040541354            4 
  380000    1.1882166   -6.1520953    177.48344  0.038921808  0.040526785            2 
  381000    1.1984669   -6.0985979    178.23787  0.038984661   0.04051231            2 
  382000    1.1900303    -6.114054    178.73272  0.038990559  0.040498117            2 
  383000    1.1882404    -6.161129    178.72161  0.038886338  0.040482847            4 
  384000    1.2060409   -6.1010463    179.87971  0.039036395  0.040467984            2 
  385000    1.2005754   -6.1355637    180.20526  0.039005468  0.040453292            2 
  386000    1.1774084   -6.1115934    180.96235  0.039067864  0.040439347            3 
  387000    1.1934979    -6.103281    181.67039  0.039119379  0.040426612            2 
  388000    1.2008601    -6.086876    182.07739  0.039105968  0.040414315            4 
  389000    1.2092191   -6.1012881     182.0667  0.039003148  0.040400906            1 
  390000    1.1530656   -6.1316706    182.11243  0.038912912   0.04038802            1 
  391000    1.2104996   -6.1212862    183.22577  0.039050677  0.040374368            4 
  392000    1.1886909   -6.1249879    183.46453  0.039001813  0.040361538            3 
  393000    1.1894774   -6.1065487    184.00638  0.039017469  0.040348868            1 
  394000    1.1956016   -6.1257309    184.41861  0.039005629  0.040337324            4 
  395000    1.2088181   -6.0951397    185.20212  0.039072177   0.04032512            1 
  396000    1.1812917    -6.129379    184.68634  0.038864971  0.040312182            3 
  397000    1.1751387   -6.0938391    185.29998  0.038895881  0.040297029            4 
  398000    1.1784244   -6.1232895    185.09764  0.038755788  0.040283022            3 
  399000    1.1822565   -6.1520268    185.18668  0.038677251  0.040268225            2 
  400000    1.1796974   -6.1133656    186.35548  0.038824058  0.040253851            2 
  401000    1.2121073   -6.1272285    187.06499  0.038874687  0.040239459            4 
  402000    1.1894107   -6.1385867    187.04428  0.038773689  0.040225566            3 
  403000    1.1961149   -6.1444543    187.73159  0.038819601  0.040211553            4 
  404000    1.1945271   -6.1384011    188.42046  0.038865607  0.040197358            1 
  405000    1.1959278   -6.1240984    189.01208  0.038891375  0.040183698            2 
  406000    1.1637316   -6.1200551    189.28557  0.038851719  0.040170128            2 
  407000      1.18602   -6.1320548    189.62118  0.038824976  0.040156937            4 
  408000    1.1901519   -6.1727851    189.93716  0.038794355  0.040144555            4 
  409000    1.1823579   -6.1548199    190.59082  0.038832684   0.04013071            3 
  410000    1.1648154   -6.1093689    191.54961  0.038932848  0.040117895            2 
  411000    1.2075646   -6.1105541    191.85038  0.038899105  0.040105295            3 
  412000    1.1760559   -6.1436944    191.74182   0.03878273  0.040092318            2 
  413000    1.1884141   -6.1382559    192.03529  0.038748041  0.040080231            5 
  414000    1.1644838   -6.1083633    192.92755  0.038834048   0.04006887            1 
  415000    1.1755677   -6.1018654    193.80727  0.038917122  0.040057738            4 
  416000    1.1707726   -6.1668094    193.47542  0.038757095  0.040045841            4 
  417000    1.1951355   -6.1345179    194.69934  0.038908741  0.040034788            2 
  418000    1.1847355   -6.1441089    196.12795  0.039100469  0.040023755            2 
  419000    1.1644171   -6.1379693    194.84226  0.038751444  0.040013411            3 
  420000    1.1668032   -6.1156462    196.52309  0.038992676  0.040002695            2 
  421000    1.1919351   -6.1360703    197.08742  0.039011762  0.039993219            2 
  422000    1.1945794   -6.1474819    196.89678  0.038881672  0.039982935            1 
  423000     1.188381   -6.1426041    197.67798  0.038943653  0.039973372            4 
  424000    1.1804101   -6.0962245    198.42882  0.038999376  0.039963624            1 
  425000    1.1933166   -6.1253105    199.09305  0.039037853  0.039955163            2 
  426000    1.1659238   -6.1441265    199.27724  0.038982245  0.039946984            2 
  427000    1.1859108   -6.1309319    199.92761  0.039017879  0.039939764            3 
  428000    1.1583051   -6.1157649    201.05147  0.039145535  0.039931678            3 
  429000    1.1789266   -6.1577948     200.9527  0.039035101  0.039924618            3 
  430000     1.191481   -6.1056583    201.23996  0.038999993  0.039916844            3 
  431000      1.20148   -6.1690893    201.89364  0.039035892  0.039909096            2 
  432000    1.1949164   -6.1228651    202.54349   0.03907089  0.039901941            1 
  433000    1.1796384   -6.1327738    202.94763  0.039058435  0.039893751            3 
  434000    1.2076254   -6.1780901    202.48234  0.038879098  0.039885347            3 
  435000    1.1697391   -6.1246183    204.35036  0.039147579  0.039876818            2 
  436000    1.1571283   -6.1456033     203.6778  0.038929244  0.039867546            3 
  437000    1.2094976   -6.1312647    203.70524  0.038845394  0.039859276            2 
  438000    1.1832066   -6.1590274    204.68621  0.038943342  0.039851434            4 
  439000    1.1683529   -6.1387295     204.2736  0.038776309  0.039843328            3 
  440000    1.1817664   -6.1304784    206.25644  0.039063719  0.039835597            2 
  441000    1.1762927   -6.1143756    205.69844  0.038869698  0.039828032            4 
  442000    1.1572813   -6.1697277    206.20314  0.038876913  0.039819948            4 
  443000    1.1777707   -6.1620803    206.14264  0.038777772  0.039811209            2 
  444000    1.1847393   -6.1855692    206.44773  0.038747697  0.039802595            4 
  445000     1.175553   -6.1710707    207.65392  0.038886502  0.039793788            4 
  446000     1.173484   -6.1495367    208.21413  0.038903985  0.039785107            3 
  447000    1.1572892   -6.1174181    208.97597  0.038958981  0.039776621            3 
  448000    1.1887158   -6.1618434    208.64364    0.0388102  0.039768145            3 
  449000    1.2072638   -6.1656118    208.80268  0.038753281  0.039759684            6 
  450000    1.1558491   -6.1313795     209.7147  0.038836055  0.039751628            3 
  451000    1.1625532   -6.2037484    209.89603   0.03878345  0.039743282            3 
  452000    1.2053974   -6.1296567    211.08275  0.038916437  0.039735015            5 
  453000    1.1734039    -6.130779    212.09086  0.039015979  0.039727365            4 
  454000    1.1606234   -6.1642466    211.51245   0.03882387  0.039719749            4 
  455000    1.1867456   -6.1597233    212.21848  0.038867853  0.039712312            4 
  456000    1.1579543   -6.0991243    213.30842  0.038981801  0.039704542            3 
  457000    1.1828631   -6.1284092    213.79185  0.038984656  0.039696653            2 
  458000    1.1696648    -6.183207    213.05296  0.038765094  0.039688823            2 
  459000    1.1790669   -6.1472859    214.29191  0.038905576  0.039681525            2 
  460000    1.1627668   -6.1154496    214.40766  0.038841968  0.039673449            4 
  461000    1.1641802   -6.1399357    214.88024  0.038843139  0.039665517            3 
  462000    1.1647151   -6.1825386    214.48724  0.038688175  0.039657507            4 
  463000    1.1692957   -6.1351665    216.02087  0.038880645  0.039648502            1 
  464000    1.1861801   -6.1311168    215.75355  0.038748842  0.039640464            5 
  465000    1.1840573   -6.1783791    216.09486  0.038726677  0.039631396            3 
  466000    1.1513104   -6.1307932    216.93113   0.03879312  0.039622608            7 
  467000     1.157103    -6.139506    218.07557   0.03891427  0.039614082            4 
  468000    1.1782689     -6.16417    217.59632  0.038745783  0.039605817            1 
  469000    1.1857124   -6.1507044    218.44772   0.03881445  0.039596839            3 
  470000    1.1887792   -6.1614226    218.10986  0.038671961  0.039587973            5 
  471000    1.1611846   -6.1247531    219.23271  0.038788519  0.039580086            3 
  472000    1.1916765   -6.2150778    218.51741  0.038580051  0.039571897            2 
  473000    1.1643067   -6.1805362    219.23597  0.038625084  0.039563593            3 
  474000    1.1725561   -6.1958159    219.69591  0.038624456  0.039555247            1 
  475000    1.1671239   -6.1864491    221.01821  0.038775124  0.039547572            3 
  476000    1.1783708   -6.1988656    221.01739  0.038693521  0.039540386            4 
  477000    1.1714408   -6.1767272    221.46627  0.038690822  0.039531794            3 
  478000    1.1948118   -6.1708316    221.96609  0.038697017  0.039522783            2 
  479000     1.189572   -6.1453961    223.14656  0.038821601  0.039514943            3 
  480000    1.1734166   -6.1652874    222.94219  0.038705241  0.039506949            2 
  481000    1.1785793   -6.1284759    223.56845  0.038733273  0.039499417            2 
  482000    1.1677878   -6.1577783    224.19256  0.038760816  0.039491188            4 
  483000    1.1704005   -6.2070105    223.68916  0.038593712  0.039482686            3 
  484000    1.1935317   -6.1801265    224.22701  0.038606578  0.039474982            3 
  485000    1.1783541    -6.180283    225.73685    0.0387864  0.039467225            3 
  486000    1.1800154   -6.1150502      226.946  0.038913924  0.039460885            2 
  487000     1.170799   -6.1487297     225.8597  0.038648134  0.039453398            5 
  488000    1.1730136    -6.200061    226.28804  0.038642083  0.039445757            2 
  489000    1.1774797   -6.1789389    226.61857  0.038619388  0.039437478            6 
  490000    1.1677112   -6.1773937    226.78263  0.038568474  0.039428895            2 
  491000    1.1633755   -6.1893871    227.96607  0.038690779  0.039420914            1 
  492000    1.1731258   -6.1811634    227.69676  0.038566525  0.039412473            4 
  493000    1.1665168   -6.1739656    228.50902  0.038625596  0.039404509            2 
  494000    1.1409023   -6.1536182    229.33751  0.038687164  0.039396821            2 
  495000     1.192783   -6.1893654    229.46984  0.038631286  0.039388738            4 
  496000    1.1633433   -6.1702078    229.88523   0.03862319  0.039380343            4 
  497000    1.1728492   -6.1835344    230.56801  0.038659962  0.039371782            2 
  498000    1.1776165   -6.1644475    230.60391  0.038588338  0.039363637            3 
  499000     1.183601   -6.1676168    230.76989  0.038538725  0.039355062            5 
  500000    1.1781048   -6.1770117     230.7543   0.03845905   0.03934595            4 
  501000    1.1425814   -6.1887927    231.59605  0.038522297  0.039336497            2 
  502000         1.15   -6.1751307    231.01704  0.038349442  0.039326422            5 
  503000    1.1743267   -6.1888088    232.01427  0.038438414    0.0393172            1 
  504000    1.1829323   -6.1856554    233.19552   0.03855746  0.039308248            4 
  505000    1.1574358   -6.1544453    233.80541   0.03858175  0.039299157            3 
  506000    1.1680946   -6.1687251    233.15472   0.03839834  0.039290365            2 
  507000    1.1818697   -6.1903096    233.88071  0.038441931   0.03928157            3 
  508000     1.169365   -6.2015923    232.71296  0.038174698  0.039271083            4 
  509000    1.1661904   -6.1344286    235.32669  0.038527619  0.039261953            5 
  510000    1.1625127   -6.1543146      235.896  0.038545098  0.039253217            6 
  511000    1.1700305   -6.1908316    236.21126  0.038521079  0.039244985            3 
  512000    1.1606105   -6.1727874    235.70828  0.038363978   0.03923635            2 
  513000    1.1378491   -6.1351121    236.54151  0.038424546  0.039227569            5 
  514000    1.1596595   -6.1714428     237.7213  0.038541067  0.039220076            2 
  515000    1.1606352   -6.1679018     238.9813  0.038670113  0.039212887            3 
  516000     1.164167   -6.1788429    237.38621  0.038337566   0.03920469            4 
  517000    1.1879113   -6.1551051    237.87367  0.038341983  0.039196605            2 
  518000    1.1649937   -6.1869701    239.31828  0.038500367  0.039188176            3 
  519000    1.1917638   -6.1952939    239.08393  0.038388557  0.039179372            2 
  520000    1.1927214   -6.1789888    240.06064  0.038471256  0.039171382            5 
  521000    1.1364908   -6.1896871    240.32219   0.03843925  0.039163299            2 
  522000    1.1770465   -6.2233238    239.85661  0.038291285  0.039154992            3 
  523000    1.1632783   -6.1284785    240.22095  0.038276123   0.03914653            3 
  524000    1.1653226   -6.1336361    241.25572   0.03836764  0.039137875            5 
  525000    1.1892121    -6.133772    242.82776  0.038544088   0.03913014            3 
  526000    1.1704636   -6.1942111    242.14554  0.038362728  0.039121954            4 
  527000    1.1592242   -6.1896772    242.99231  0.038423831  0.039113772            5 
  528000    1.1708613   -6.1905213    242.84807  0.038328295  0.039105583            2 
  529000    1.1616454    -6.191011    243.28745  0.038325055  0.039096826            6 
  530000    1.1739424   -6.1809317    242.80324   0.03817661  0.039087746            4 
  531000    1.1923039   -6.1667327    243.52309  0.038217685  0.039077825            2 
  532000    1.1610611   -6.1629676     245.4057  0.038440743  0.039069987            6 
  533000    1.1579874   -6.1757505    245.74969  0.038422403  0.039061899            4 
  534000    1.1421157   -6.1303054    246.37914   0.03844868  0.039053475            3 
  535000    1.1812806   -6.1618012    245.59011  0.038253911  0.039045911            4 
  536000    1.1719042    -6.190657    246.48144  0.038321119  0.039037402            3 
  537000    1.1908681   -6.1848603    246.76424  0.038293644  0.039028863            6 
  538000    1.1613898   -6.1888037    247.30403  0.038306076  0.039021365            3 
  539000    1.1698567   -6.1613688    249.12225  0.038516117  0.039014407            3 
  540000    1.1724317   -6.2354014    246.77444  0.038082476  0.039006373            2 
  541000    1.1257581   -6.1906398     248.7772  0.038320579  0.038998474            3 
  542000    1.1518256   -6.2047104    248.10986  0.038147273  0.038990523            3 
  543000    1.1778871   -6.2274041     248.3535   0.03811441  0.038982308            3 
  544000    1.1394065   -6.1728791    249.86106  0.038275284  0.038973589            3 
  545000    1.1576736   -6.1312313    250.94827  0.038371296  0.038965646            2 
  546000    1.1582717   -6.1998809    250.50194  0.038232896  0.038958036            2 
  547000    1.1585783   -6.1940412    250.87359   0.03821962  0.038949804            2 
  548000    1.1449276    -6.167334    252.56691  0.038407377   0.03894294            1 
  549000    1.1427557   -6.2229881    252.36944  0.038307443  0.038935436            2 
  550000    1.1930677   -6.2081563    252.21947  0.038215071  0.038926316            2 
  551000    1.1527892   -6.1561959    253.11454  0.038281085  0.038917613            3 
  552000    1.1650199   -6.1475548    253.41398  0.038256942  0.038909545            2 
  553000    1.1577924    -6.173716    253.60068  0.038215896  0.038901566            4 
  554000    1.1840534   -6.1493322    255.08707  0.038370497  0.038893825            1 
  555000    1.1457516   -6.2143199    254.32603  0.038187092  0.038886581            4 
  556000    1.1819436   -6.2114153    255.22464  0.038253094   0.03887901            2 
  557000    1.1533504   -6.1578481    257.25885  0.038488756   0.03887233            2 
  558000    1.1529956   -6.1995003    256.31328  0.038278566  0.038864903            5 
  559000    1.1791604   -6.1556569    256.75808  0.038276399  0.038858928            3 
  560000    1.1645459   -6.1573774    258.14542  0.038414497  0.038852593            8 
  561000     1.154143   -6.2127932    257.31043   0.03822199  0.038846277            3 
  562000     1.182192   -6.2132235    258.34315   0.03830711  0.038839375            3 
  563000    1.1551215    -6.159583    259.65366  0.038433046  0.038832805            5 
  564000    1.1324783   -6.1728178    259.49494   0.03834145   0.03882641            5 
  565000    1.1697513   -6.1789219     259.6363   0.03829444    0.0388201            2 
  566000    1.1286486    -6.187615    260.13194  0.038299755  0.038813496            5 
  567000    1.1792909   -6.1900435    260.37659  0.038268164  0.038807339            2 
  568000    1.1816283   -6.1938903    261.37636   0.03834747  0.038801012            2 
  569000    1.1354918   -6.1921937    260.82923  0.038199946  0.038794706            2 
  570000    1.1617967   -6.1732323    262.14838  0.038325787   0.03878787            3 
  571000    1.1877907   -6.2235272     260.8671  0.038071672  0.038781353            5 
  572000    1.1297473   -6.1984323    261.84023  0.038146886  0.038773856            3 
  573000    1.1720227     -6.25709    262.23092  0.038137133  0.038766553            3 
  574000    1.1497893   -6.1901215    263.71632  0.038286341   0.03875934            3 
  575000    1.1692114   -6.2001437    263.24361  0.038151248  0.038752796            2 
  576000    1.1738969   -6.2091233    263.75199  0.038158563   0.03874596            3 
  577000    1.1448959   -6.2153523    264.23774  0.038162585  0.038739208            2 
  578000    1.1503426   -6.1705842    263.88589  0.038045832  0.038733059            3 
  579000    1.1582019    -6.182751     265.0118   0.03814217  0.038725829            6 
  580000    1.1621495   -6.2330119    265.09778  0.038088762  0.038718062            2 
  581000    1.1754315   -6.2105666    266.41779  0.038212535  0.038711412            1 
  582000    1.1308115   -6.1540435    267.65767  0.038324409  0.038705016            4 
  583000    1.1685996   -6.2425301     266.3509  0.038071884  0.038698787            3 
  584000       1.1373   -6.2349476     267.6815  0.038196561  0.038692117            2 
  585000    1.1730788   -6.1753673    268.53878  0.038253388  0.038685677            4 
  586000    1.1435516   -6.2107043    268.48508  0.038180472  0.038679604            2 
  587000    1.1478232   -6.2273986    269.08288  0.038200295  0.038673863            2 
  588000    1.1622463   -6.1777441    270.35828  0.038316083  0.038667712            3 
  589000    1.1782137   -6.2470056    269.00085  0.038058977  0.038662099            3 
  590000    1.1488863   -6.2184299    269.92009  0.038124306  0.038655767            4 
  591000    1.1619511   -6.1942264    271.33866  0.038259822  0.038649963            3 
  592000    1.1536479   -6.1976393    271.57416  0.038228345  0.038643911            3 
  593000    1.1743311    -6.216403    271.97994  0.038220902  0.038639041            3 
  594000    1.1461605   -6.1971306    272.44759  0.038222164  0.038633804            3 
  595000    1.1365972    -6.184159    272.61276  0.038181059   0.03862847            2 
  596000    1.1486426   -6.1753761    273.71959  0.038271754  0.038623568            4 
  597000    1.1718855   -6.2471662    273.53113  0.038181342  0.038618348            5 
  598000    1.1737104   -6.2065182    273.85072  0.038162028  0.038613111            2 
  599000    1.1892506   -6.2370781    274.80883  0.038231612  0.038608306            3 
  600000    1.1465603   -6.1634193    276.48648    0.0384009  0.038603418            2 
  601000     1.157394   -6.2264608    276.21898  0.038299915  0.038599297            4 
  602000    1.1845375   -6.1811121    277.44121  0.038405483  0.038595649            5 
  603000     1.190886   -6.1836155    276.84854  0.038259887  0.038591293            2 
  604000    1.1500618   -6.2049204    277.00929  0.038218721  0.038587266            2 
  605000    1.1723608   -6.2489401    275.85798  0.037996967  0.038581632            2 
  606000    1.1480043   -6.2320031    277.04836  0.038097959  0.038575606            2 
  607000    1.1470124   -6.2049089    278.45043  0.038227681  0.038569275            1 
  608000    1.1466189   -6.2371554    276.92278  0.037955425  0.038563344            6 
  609000    1.1388562   -6.2469972    278.74986  0.038143112  0.038557234            2 
  610000    1.1414256    -6.216232     279.0507   0.03812168  0.038551753            2 
  611000    1.1745181    -6.218188    279.56636  0.038129617  0.038546333            3 
  612000    1.1434984   -6.2019705    280.01867  0.038128904  0.038540559            2 
  613000    1.1667116   -6.2228771    280.38644    0.0381167  0.038535012            4 
  614000    1.1596352   -6.1370854    281.76911  0.038242279  0.038528827            2 
  615000    1.1394972   -6.2168871    280.12034  0.037956686  0.038522839            3 
  616000    1.1362022   -6.1835242    281.15011  0.038034376   0.03851655            4 
  617000    1.1550815   -6.2015597    281.54563  0.038026152  0.038510222            2 
  618000    1.1787923    -6.206929    282.72009  0.038122989  0.038504386            2 
  619000    1.1601059    -6.235261    281.58152  0.037908121  0.038498724            4 
  620000    1.1535974   -6.2156249    282.84023   0.03801616   0.03849255            2 
  621000    1.1507817   -6.1927492    283.20999  0.038004562   0.03848581            2 
  622000    1.1718601   -6.2532423    284.00331  0.038049747  0.038479063            1 
  623000      1.12861    -6.260351    283.35097  0.037901414   0.03847251            4 
  624000     1.137162   -6.2344669    284.56506  0.038002812   0.03846588            2 
  625000    1.1580987   -6.2033794    285.18228  0.038024304  0.038459184            4 
  626000    1.1415487   -6.2561398      285.052   0.03794622  0.038452894            5 
  627000    1.1606202   -6.2550093     284.4995  0.037812267  0.038446211            2 
  628000    1.1605919   -6.2071704    285.43123  0.037875693  0.038440364            2 
  629000    1.1472751   -6.2837826    286.56726  0.037965985  0.038433541            1 
  630000    1.1261934    -6.244451    286.61045  0.037911435  0.038427744            5 
  631000    1.1501662   -6.2208088    288.18623   0.03805946  0.038421594            2 
  632000    1.1529287   -6.2899465     286.5414  0.037782357  0.038416002            2 
  633000    1.1498284   -6.2041486    288.76093  0.038014867  0.038409894            3 
  634000    1.1666629   -6.2012899    289.26981  0.038021794  0.038404575            5 
  635000    1.1489981   -6.2286676    289.55075  0.037998785   0.03839886            2 
  636000    1.1503981   -6.2451852    289.69761  0.037958283   0.03839329            2 
  637000    1.1448464   -6.1963256    290.20691   0.03796532  0.038386716            3 
  638000    1.1532673   -6.2004226    289.59684  0.037826129  0.038380186            2 
  639000    1.1460807   -6.1940483    291.46994  0.038011208  0.038373516            4 
  640000    1.1311613   -6.2327659    290.08451   0.03777142  0.038366377            2 
  641000    1.1643779   -6.2446292    291.62171  0.037912338  0.038359741            6 
  642000    1.1604159   -6.2575099    291.78694  0.037874733  0.038353592            2 
  643000    1.1325504    -6.282802    291.48246  0.037776369  0.038346407            4 
  644000    1.1557069    -6.225149    292.48635  0.037847612  0.038340006            3 
  645000    1.1482288   -6.2062892     294.0838  0.037995323  0.038333699            2 
  646000    1.1590843   -6.2566359    292.79066  0.037769692  0.038327065            4 
  647000    1.1507242   -6.1829423    295.24356  0.038027249  0.038320695            2 
  648000     1.156264   -6.1879256    294.88828  0.037922876  0.038314812            3 
  649000    1.1253133   -6.2527573    293.86768  0.037733395  0.038308435            3 
  650000     1.160451   -6.2231872    295.94466  0.037941623  0.038302334            3 
  651000    1.1361142   -6.2315351    295.31191  0.037802344  0.038296408            2 
  652000    1.1492544   -6.2425862    295.95137  0.037826096  0.038290259            2 
  653000    1.1086818   -6.2669038     296.4602  0.037833104  0.038284052            2 
  654000    1.1567227   -6.2490512    296.93128  0.037835281  0.038278258            3 
  655000    1.1437205   -6.2237926    298.58007  0.037987286  0.038272578            1 
  656000    1.1370002   -6.2154352    298.62737  0.037935387  0.038267044            5 
  657000    1.1512505    -6.231619    298.71745  0.037889073  0.038261726            3 
  658000    1.1627806   -6.1856742    300.66363  0.038077968  0.038256236            3 
  659000    1.1434981   -6.2270785    300.32189  0.037976971  0.038251157            2 
  660000    1.1387392    -6.238361    300.01266  0.037880386  0.038245257            5 
  661000    1.1180382   -6.2584513     299.9689  0.037817562  0.038239661            2 
  662000    1.1196524   -6.2430167    299.71477  0.037728446  0.038233646            4 
  663000    1.1612961   -6.2299762    300.42024  0.037760211  0.038227729            2 
  664000    1.1209302   -6.2243664    301.91766  0.037891273  0.038221244            3 
  665000    1.1434374   -6.2469144    301.46878  0.037778043  0.038215136            3 
  666000    1.1507085    -6.292503    301.63356  0.037741937  0.038209138            3 
  667000    1.1589445   -6.2662749    302.29001  0.037767368  0.038203156            3 
  668000    1.1161912   -6.2201082    302.99109   0.03779829  0.038197432            3 
  669000     1.132749   -6.2340583    302.65484  0.037699906  0.038190955            3 
  670000    1.1303544   -6.2317799    305.40022  0.037985102  0.038184776            4 
  671000    1.1334316   -6.2288072     304.3884  0.037802832  0.038178371            2 
  672000    1.1605587   -6.2565585    303.20491  0.037599815  0.038171554            1 
  673000    1.1410644   -6.2037442      305.483  0.037826027  0.038165067            5 
  674000    1.1487293   -6.2316535    305.34757  0.037753161  0.038158333            1 
  675000    1.1228124    -6.257938    304.37713  0.037577423  0.038151958           11 
  676000    1.1318618   -6.2844953    304.88522   0.03758447   0.03814488            4 
  677000    1.1344179   -6.2629029    306.13566  0.037682873  0.038138215            6 
  678000    1.1665817   -6.2199777    306.65995  0.037691734   0.03813123            5 
  679000    1.1312699   -6.2338986    306.29507  0.037591442  0.038124099            2 
  680000    1.1518147   -6.2574403    306.36685  0.037544958  0.038117247            2 
  681000    1.1588185   -6.3124075    305.69718  0.037407878  0.038109848            3 
  682000    1.1232223   -6.2179288    308.59413  0.037707005   0.03810267            2 
  683000    1.1308079   -6.2583709    307.44814  0.037511974  0.038095475            3 
  684000    1.1526569   -6.2585978    307.62567   0.03747876  0.038087731            3 
  685000    1.1484547   -6.2421063    308.79194   0.03756593  0.038079899            3 
  686000    1.1404889   -6.2457083    309.25547  0.037567477  0.038072161            3 
  687000    1.1412594   -6.2899863    308.65921  0.037440467  0.038064516            4 
  688000    1.1530899   -6.2487209    309.08758  0.037437934  0.038056799            4 
  689000    1.1427042   -6.2718336    308.47296   0.03730926  0.038048943            2 
  690000    1.1560693   -6.2772956    308.92905  0.037310272  0.038041048            5 
  691000    1.1168195   -6.2541663    310.98615   0.03750436  0.038033426            2 
  692000    1.1217758   -6.2134548    312.61213  0.037645969  0.038026599            7 
  693000     1.139931   -6.2574678    310.95034  0.037391816  0.038019632            4 
  694000     1.148384   -6.2578281    312.27787  0.037497343  0.038012077            2 
  695000    1.1489269   -6.2634339    311.96758  0.037406184  0.038005059            6 
  696000    1.1167194   -6.2539049    312.70821  0.037441117  0.037998235            2 
  697000     1.133777   -6.2401844    314.22838  0.037569151   0.03799126            2 
  698000     1.163639   -6.2554433    314.14613  0.037505507  0.037984703            4 
  699000     1.128983   -6.2503776     315.4542  0.037607797  0.037978228            2 
  700000    1.1331328   -6.2135536     315.9676   0.03761519  0.037971574            2 
  701000    1.1461033   -6.2391726     315.8229  0.037544329  0.037964655            2 
  702000    1.1508034   -6.2520115    315.92275    0.0375027  0.037957105            2 
  703000    1.1675144   -6.2552674    316.24865  0.037487985  0.037949706            2 
  704000     1.162296   -6.2282788    316.81663  0.037501968  0.037942446            7 
  705000    1.1468265   -6.2663442     316.1364  0.037368369  0.037935684            4 
  706000    1.1274345   -6.2655552      317.569  0.037484537  0.037928664            2 
  707000    1.1390223   -6.2512104    318.57616  0.037550231  0.037921811           10 
  708000    1.1163463   -6.1953068    318.29635  0.037464259  0.037914534            4 
  709000    1.1375279   -6.2450641    317.88239  0.037362763  0.037907233            4 
  710000    1.1317725   -6.2703424    318.95003  0.037435449  0.037899571            3 
  711000    1.1289092   -6.2480049    319.07085  0.037396958  0.037892266            2 
  712000    1.1352236   -6.2380481    319.37125  0.037379594  0.037884733           14 
  713000    1.1312672   -6.2691009    318.86492   0.03726799  0.037877097            3 
  714000    1.1341066   -6.2411762    320.90009  0.037453325  0.037869531            3 
  715000    1.1274079   -6.2710314     319.0875  0.037189686  0.037861222            3 
  716000    1.1425482   -6.2369018    321.54396  0.037423645  0.037853527            4 
  717000    1.1485728   -6.3030717     321.0392  0.037312784  0.037845878            1 
  718000    1.1407343   -6.2348693    321.58558  0.037324231  0.037838211            2 
  719000    1.1431958   -6.2060362    322.97569  0.037433437  0.037830888            4 
  720000    1.1313033   -6.2518475    322.52278  0.037329025  0.037824088            1 
  721000    1.1524004   -6.2047049    323.77564  0.037422057  0.037816665            3 
  722000     1.145474   -6.2780038    321.68454  0.037128871  0.037808684            2 
  723000    1.1392185   -6.2493254    322.93046  0.037221122  0.037801015            3 
  724000    1.1525115    -6.313085     322.5373  0.037124459  0.037793111            2 
  725000    1.1498147   -6.2636759    323.82175  0.037220891  0.037785063            8 
  726000    1.1119705   -6.2565573    324.77621  0.037279179  0.037776837            3 
  727000    1.1309856   -6.2637693    323.74886   0.03711014  0.037768968            3 
  728000    1.1484013   -6.2112556    326.52829  0.037377323  0.037761263            3 
  729000    1.1239274   -6.2978637    323.45889  0.036975182  0.037752986            5 
  730000    1.1537299     -6.25283     325.0104  0.037101644  0.037744662            2 
  731000    1.1272019   -6.2867824    325.93723  0.037156547  0.037736932            3 
  732000    1.1256502   -6.3036971    324.88462  0.036985954  0.037729078            4 
  733000    1.1289259   -6.2102972    328.61435  0.037359522  0.037721417            4 
  734000    1.1628599   -6.2583788    328.64305  0.037311882  0.037714462            2 
  735000    1.1569849   -6.2932634     328.8511  0.037284705  0.037707133            3 
  736000    1.1241796   -6.2573272    330.70154  0.037443562  0.037700538            3 
  737000    1.1223346   -6.2518493    329.08078  0.037209495  0.037693966            3 
  738000    1.1192437   -6.2452087    330.22412  0.037288179  0.037687356            2 
  739000    1.1195229   -6.2756409    330.28857   0.03724499  0.037679965            3 
  740000    1.1548442   -6.2369869    331.76445  0.037360862  0.037673335            2 
  741000    1.1371449     -6.29331    330.47509   0.03716544    0.0376667            4 
  742000    1.1082803    -6.265623    331.27323   0.03720499  0.037660152            2 
  743000    1.1287835   -6.2549311    332.01882  0.037238539  0.037653666            4 
  744000    1.1276609   -6.2788722    332.47256   0.03723931  0.037647126            3 
  745000    1.1520431   -6.2803529     332.6678  0.037211163  0.037639631            2 
  746000    1.1327247    -6.245568    333.86194  0.037294676  0.037632967            3 
  747000    1.1032894   -6.2563263    333.06488  0.037155833  0.037625987            2 
  748000    1.1217855   -6.2325593     334.0683  0.037217948  0.037618639            8 
  749000    1.1182188   -6.2532443    333.64299  0.037120937  0.037611123            4 
  750000     1.124707   -6.2939617    333.38181  0.037042424  0.037603445            3 
  751000    1.1300401   -6.2492828    334.13299  0.037076452  0.037595842            3 
  752000    1.1603983   -6.2605098    333.60031  0.036968119  0.037587834            2 
  753000    1.1480831    -6.228995    334.76655  0.037048091  0.037580022            4 
  754000    1.1543189   -6.2731314    335.13946   0.03704017  0.037572273            3 
  755000    1.1179681   -6.2903976    334.57206  0.036928484  0.037564686            2 
  756000    1.1425637   -6.2581933    334.74633  0.036898846  0.037557137            2 
  757000    1.1411393    -6.282669    336.21447  0.037011721  0.037549772            4 
  758000    1.1525662   -6.2399119    336.52329  0.036996844   0.03754203            3 
  759000    1.1330887   -6.2759305    336.09224  0.036900773  0.037534041            8 
  760000    1.1275935   -6.2908223    337.40721  0.036996405  0.037526067            3 
  761000    1.1064206   -6.2678372    336.75959  0.036876872  0.037518069            3 
  762000    1.1244224   -6.2655314     336.4968  0.036799737  0.037509864            2 
  763000    1.1223985   -6.2951381    338.13312  0.036930223  0.037501237            5 
  764000    1.1004838   -6.2470654    338.23154   0.03689262  0.037492558            2 
  765000    1.1288964   -6.2708329    338.68846  0.036894167  0.037484364            1 
  766000    1.1570288   -6.2467795    339.40899  0.036924389  0.037475928            3 
  767000    1.1392197   -6.2707363    339.81262  0.036920102  0.037467801            2 
  768000    1.1194675   -6.2118186    340.97833  0.036998517  0.037459766            2 
  769000    1.1363722   -6.3402387    339.88929  0.036832389  0.037451792            4 
  770000    1.1375854   -6.2885874    340.48867  0.036849423  0.037443421            2 
  771000     1.145297   -6.3060429    340.88851  0.036844845   0.03743548            3 
  772000    1.1182766   -6.2999757    340.76889  0.036784207  0.037427297            3 
  773000    1.1500285   -6.2715757    340.61447  0.036719973   0.03741891            3 
  774000    1.1158089   -6.2727996    341.68371  0.036787652  0.037410426            4 
  775000    1.1252149   -6.2755299    342.12601  0.036787743  0.037402354            4 
  776000    1.1294643   -6.2647448    343.26554  0.036862708    0.0373938            5 
  777000    1.1289564   -6.3124379     343.1862  0.036806756  0.037385818            2 
  778000    1.1277544   -6.2515646    344.39045  0.036888437  0.037377495            6 
  779000    1.1411218   -6.2622565    344.43533  0.036845884   0.03736922            2 
  780000    1.1379105   -6.2363155    345.39765  0.036901458   0.03736075            5 
  781000    1.1124085     -6.30047    344.42955  0.036750912  0.037352416            4 
  782000    1.1146312   -6.2817439    345.27319  0.036793818  0.037344194            4 
  783000    1.1034406   -6.2633418    345.58359  0.036779863  0.037335845            3 
  784000    1.0914908   -6.2968672    344.57583  0.036625832   0.03732713            2 
  785000    1.1282815   -6.2528275    345.89051  0.036718737  0.037318638            3 
  786000    1.1333829   -6.2207012    347.42071  0.036834257  0.037310038            2 
  787000    1.0974134   -6.2456342    346.95892  0.036738555  0.037302264            5 
  788000    1.1451906    -6.261105    347.65686  0.036765743  0.037293925            3 
  789000    1.1246892   -6.2333513    347.71252  0.036725023  0.037285741            2 
  790000    1.1177721   -6.2859636    348.52976  0.036764743  0.037277662            2 
  791000    1.1137363   -6.2848958    348.09906  0.036672888  0.037269031            2 
  792000    1.1127463   -6.3012757    348.95757  0.036716916  0.037260717            2 
  793000    1.1161481   -6.2772781    348.05004  0.036575246   0.03725234            3 
  794000    1.1118512    -6.272289    350.20747  0.036755612  0.037243901            3 
  795000    1.1361484   -6.3002783    350.27737  0.036716706  0.037235482            2 
  796000    1.1416047   -6.3092095    350.52876  0.036696897  0.037226957            4 
  797000    1.1328114   -6.2695142    351.15514  0.036716347  0.037218573            4 
  798000    1.1312011   -6.3384745    349.40086   0.03648714  0.037209914            5 
  799000     1.135795   -6.3039783    350.66343  0.036573157  0.037200862            2 
  800000    1.1172813    -6.338217    350.66802  0.036527919  0.037191932            6 
  801000    1.1336119   -6.2919865    352.24751  0.036646641  0.037182668            2 
  802000    1.1493229   -6.2704951    352.16881   0.03659277  0.037173658            4 
  803000    1.1320763   -6.2332996    351.70551  0.036499119  0.037164624            5 
  804000    1.1253055   -6.2821667    351.66507   0.03644953  0.037155582            2 
  805000    1.0908536   -6.2974358    352.24969  0.036464771   0.03714665            3 
  806000    1.0945211   -6.2879954     352.8351  0.036480055  0.037137477            1 
  807000    1.1418284   -6.3113597    353.17234  0.036469676  0.037128469            3 
  808000    1.1295786   -6.2686812    354.89715  0.036602429   0.03711947            3 
  809000    1.1360788    -6.247851    354.18619  0.036483951  0.037110475            3 
  810000    1.1210817   -6.2947216    354.48541  0.036469692  0.037101598            6 
  811000    1.1235441   -6.2865698    354.40408  0.036416366  0.037092851            5 
  812000    1.1360835   -6.2874907    354.72417  0.036404369  0.037083691            6 
  813000    1.1336719   -6.3064819    355.09413  0.036397512  0.037074331            2 
  814000    1.1345553   -6.2999053     356.0691  0.036452611  0.037064538            2 
  815000    1.1037919   -6.2809206    355.76379  0.036376666  0.037055378            4 
  816000    1.1085023    -6.314094     356.8906  0.036447161  0.037046232            3 
  817000    1.1387768   -6.3387915    354.78009   0.03618728   0.03703661            3 
  818000     1.110199   -6.2685669    357.89815  0.036460692   0.03702753            2 
  819000    1.1007703   -6.2752019    358.33478    0.0364606  0.037018407            2 
  820000    1.1281616   -6.3007736    357.64326  0.036345859  0.037009282            2 
  821000    1.1448127   -6.2530979    358.85031  0.036424108  0.037000638            3 
  822000    1.1291513   -6.2566826    359.30349  0.036425739  0.036991873            3 
  823000    1.1287895   -6.2770355    359.34606  0.036385789  0.036983181            2 
  824000    1.1244515   -6.2678056    359.76928  0.036384434  0.036974422            5 
  825000    1.1328889   -6.3203602     360.7045  0.036434798  0.036965775            4 
  826000    1.0986337   -6.3143737    360.35473    0.0363554  0.036957138            6 
  827000    1.1047205   -6.2807115    361.00033  0.036376495  0.036948612            3 
  828000    1.1403315   -6.3022991    362.48553  0.036482038  0.036940192            3 
  829000    1.0974807   -6.3426475    359.42274  0.036130151   0.03693133            3 
  830000     1.110893   -6.2667867    362.97095  0.036442867  0.036922693            3 
  831000    1.1242286   -6.3137536    362.06169  0.036307831  0.036914024            5 
  832000    1.1380824   -6.3007972    362.59789  0.036317898  0.036905529            2 
  833000    1.1121993   -6.3141697    363.04441  0.036318969  0.036896685            4 
  834000    1.1173822   -6.2917062    362.80269  0.036251268  0.036888147            5 
  835000    1.1129408   -6.2972243    364.53717  0.036380955  0.036879673            2 
  836000    1.1072144   -6.2986221    362.91779  0.036176016  0.036871313            4 
  837000    1.1347209   -6.2749848    363.78339  0.036218976  0.036862198            4 
  838000    1.1420259   -6.2793727    365.34432  0.036330978  0.036853286            2 
  839000    1.1168097   -6.2918685    364.69666  0.036223348   0.03684471            2 
  840000    1.1184576   -6.2976043    364.37452  0.036148266  0.036835559            3 
  841000    1.1342177   -6.2710351    365.33544  0.036200499  0.036826113            4 
  842000    1.1187491   -6.3132612    365.11699  0.036135886  0.036816961            3 
  843000    1.0964776     -6.34907    365.24235  0.036105412  0.036807801            3 
  844000    1.1011529   -6.3133085    365.77034  0.036114765  0.036798457            4 
  845000    1.0941332   -6.3367723     366.1214  0.036106647  0.036789635            3 
  846000    1.1194655   -6.2900701    366.79751  0.036130566  0.036780454            6 
  847000    1.1291178   -6.3149344    367.01588  0.036109394  0.036771415            2 
  848000    1.0986351   -6.2672509    368.37712  0.036200581  0.036762708            6 
  849000    1.1084668   -6.3263375    366.78351  0.036001522  0.036753572            4 
  850000    1.1139841   -6.2677781    368.30942  0.036108767  0.036744352            5 
  851000    1.1260744    -6.294362    368.24037  0.036059574  0.036734892            3 
  852000    1.1016902   -6.3146625    368.77397  0.036069442   0.03672562            3 
  853000    1.1312386   -6.3029608    368.79491  0.036029202  0.036715999            3 
  854000    1.1322701   -6.3441689     368.0603   0.03591533  0.036705735            3 
  855000    1.1253492    -6.265851    369.82562  0.036045382  0.036696133            2 
  856000    1.1103066   -6.3164615     368.4667  0.035870979  0.036686665            3 
  857000    1.1009683   -6.3239148    370.22051   0.03599966  0.036677017            2 
  858000    1.1042786   -6.2722331    370.59178  0.035993763  0.036667771            2 
  859000    1.0893999   -6.3003568    371.20694  0.036011538  0.036658408            3 
  860000    1.1458953   -6.3230563    372.18287  0.036064231  0.036649401            5 
  861000    1.0775139   -6.2939181    372.12612  0.036016852  0.036640008            4 
  862000    1.0939403   -6.2894345     372.3726  0.035998898   0.03663069            1 
  863000    1.1227551    -6.325946    371.30747  0.035854332  0.036620952            3 
  864000      1.07986   -6.3408473    372.28001  0.035906637  0.036611626            3 
  865000     1.115842   -6.3205333    373.10868  0.035944959  0.036602103            4 
  866000    1.1139278   -6.3328829    373.88915  0.035978556  0.036592946            1 
  867000    1.1144921    -6.305189    373.96212  0.035944071  0.036583995            4 
  868000    1.1130186   -6.3638809     372.6209  0.035773896  0.036574626            3 
  869000    1.1062912   -6.2986398    375.32355  0.035991902  0.036565413            1 
  870000    1.1029049   -6.3071699    375.24761  0.035943257  0.036555833            3 
  871000    1.1248203   -6.3237354    374.54041   0.03583433  0.036546232            3 
  872000     1.129779   -6.3001645    375.90699  0.035923833  0.036536748            5 
  873000    1.1240913   -6.3021238    375.29835  0.035824584  0.036527239            4 
  874000      1.09859   -6.3244662    375.09508  0.035764215  0.036517443            2 
  875000    1.0964528   -6.3105901    376.51672  0.035858735  0.036507741            3 
  876000    1.1279894   -6.3101854    376.11007  0.035779116  0.036498256            2 
  877000    1.1021612   -6.3709398    376.66563  0.035791109  0.036488768            9 
  878000    1.1035417   -6.3375867    378.12707  0.035889054  0.036479155            2 
  879000     1.100401   -6.3090853    377.02864  0.035744088  0.036469673            6 
  880000    1.1072054   -6.3361552    378.58157  0.035850527  0.036460064           10 
  881000    1.1070198    -6.310363    379.30969  0.035878707  0.036450671            4 
  882000     1.124327   -6.3155553    379.14325  0.035822302  0.036441096            2 
  883000     1.080284   -6.3356472    379.79854  0.035843577  0.036431756            3 
  884000     1.100327   -6.3267942    378.86654  0.035715172   0.03642209            4 
  885000     1.133443   -6.3375191    378.37575  0.035628601  0.036412662            3 
  886000    1.1149337   -6.3208704    379.90208  0.035731949  0.036402698            5 
  887000    1.0892456   -6.2990743    380.93348  0.035788564  0.036392857           12 
  888000    1.1311184     -6.28972    380.44055  0.035702003  0.036383397            3 
  889000    1.1198829   -6.2919374    381.61532  0.035771964  0.036374058            3 
  890000    1.1030598   -6.3251319    382.10661  0.035777772  0.036364599            2 
  891000    1.1070953   -6.2907936    382.26131  0.035752086  0.036354986            3 
  892000    1.0929479   -6.2643799    383.72628  0.035848868   0.03634562            3 
  893000    1.1141818   -6.3169779    381.19593  0.035572595  0.036335898            1 
  894000    1.1284199   -6.3178182    382.77636  0.035680123  0.036326236            1 
  895000     1.125108    -6.351316    381.60117  0.035530835  0.036316609            3 
  896000    1.0742351   -6.3531832    383.64134  0.035680928  0.036306586           10 
  897000    1.0904893   -6.3269201    382.53314  0.035538195  0.036296377            1 
  898000    1.1234928   -6.3323035    385.03112   0.03573043  0.036286414            4 
  899000    1.0995733   -6.3541211    384.18733   0.03561247  0.036276923            3 
  900000    1.1239514    -6.278495     386.0806  0.035748203  0.036266994            6 
  901000    1.1310728   -6.3419638     383.7564  0.035493562  0.036257386            3 
  902000    1.1031198   -6.3154239     385.7332  0.035636844  0.036247614            2 
  903000    1.0919722   -6.3658141    385.48107  0.035574112  0.036238197            2 
  904000    1.1055373   -6.3224141    386.48987  0.035627754  0.036228891            4 
  905000    1.1026899   -6.3836853    385.61358  0.035507696  0.036219305            3 
  906000    1.1022761   -6.3075236    388.15763  0.035702505  0.036210337            3 
  907000     1.137653   -6.3543124      387.367    0.0355905  0.036201399            2 
  908000    1.1078721   -6.3391918     387.1198  0.035528616   0.03619245            3 
  909000    1.1104718   -6.3492068    386.90968  0.035470267  0.036183098            5 
  910000    1.1088924   -6.3424088    388.35306  0.035563467  0.036173543            4 
  911000      1.07952   -6.2976547    389.24064   0.03560562  0.036164217            2 
  912000    1.0739645   -6.3113304    389.49193   0.03558954  0.036154917            4 
  913000    1.1048101   -6.3045631    389.59255  0.035559744  0.036145891            2 
  914000    1.0950021   -6.3363654     389.2799  0.035492333  0.036136606            5 
  915000     1.090613   -6.3368547    390.48664  0.035563446  0.036127651            4 
  916000    1.1277206   -6.3328714    390.68191  0.035542386  0.036118658            4 
  917000    1.1122372   -6.3229084    390.69819  0.035505106  0.036109341            4 
  918000     1.081478   -6.3471997    390.00595  0.035403591   0.03609995            3 
  919000    1.1061868   -6.3403883    392.04713  0.035550157  0.036090624            2 
  920000    1.0875998   -6.2931504    393.06299  0.035603532  0.036081443            3 
  921000    1.1079016    -6.330395    391.98863  0.035467665  0.036072178            4 
  922000    1.1023881   -6.3379751    392.37967   0.03546454  0.036062867            1 
  923000    1.0851794   -6.2968347    392.90484  0.035473532  0.036053956            3 
  924000    1.1236437   -6.2955624    395.13259  0.035636056  0.036044959            2 
  925000    1.0848601   -6.4074707    393.09642  0.035414092  0.036035985            4 
  926000     1.098192   -6.3232742    395.22135  0.035567076  0.036027146            5 
  927000    1.1008031   -6.3631007    393.61407  0.035384221  0.036018126            3 
  928000    1.0913067   -6.3622767    393.99284  0.035380104  0.036009135            3 
  929000    1.1076448   -6.3118689    395.69572  0.035494772  0.036000519            2 
  930000    1.1084281   -6.3388986    396.69155  0.035545838  0.035991863            2 
  931000    1.1133348   -6.3580901     395.7119   0.03541997   0.03598323            7 
  932000    1.0903755   -6.3418376    397.74869  0.035564081  0.035974562            4 
  933000    1.1218553   -6.3112679    398.08663  0.035556148  0.035966463            4 
  934000    1.1221162   -6.3577297    397.12462  0.035432247  0.035957903            6 
  935000    1.1022618   -6.3472412     397.5916  0.035435972  0.035949374            4 
  936000    1.1062827   -6.3012997     399.4534  0.035563871  0.035941105            3 
  937000    1.1240334   -6.3911681    398.53657  0.035444377  0.035932599            3 
  938000    1.0897327   -6.3386485    398.75869  0.035426323  0.035923751            4 
  939000     1.119591   -6.3578311    398.95315  0.035405853   0.03591526            3 
  940000    1.1112205    -6.284506     400.5868  0.035513014  0.035906562            4 
  941000    1.0972432   -6.3490675    399.20246  0.035352679  0.035897912            2 
  942000    1.1187073   -6.3568661    399.99356  0.035385135  0.035889339            3 
  943000    1.1069963   -6.3535671    398.65264  0.035229112  0.035880786            1 
  944000    1.1209209   -6.3386334    400.94156  0.035393852  0.035871847            4 
  945000    1.0989364   -6.3363079    401.95056  0.035445376  0.035863722            2 
  946000    1.0926627   -6.3921725    401.25124  0.035346304  0.035855184            3 
  947000    1.0953813   -6.3191323    402.69617  0.035436129  0.035846677            3 
  948000    1.1238463   -6.3072001    403.29085  0.035451024  0.035838702            3 
  949000    1.1112782   -6.3607546    402.12667  0.035311439  0.035830407            3 
  950000    1.0984168   -6.3946162    403.65487  0.035408322  0.035821855            4 
  951000    1.1075895   -6.3695981    402.68135  0.035285783  0.035813126            1 
  952000    1.0903068   -6.3662895    404.50824  0.035408634  0.035804546            2 
  953000    1.0847275   -6.3432858    405.02896  0.035417013  0.035795926            2 
  954000    1.0992732   -6.3388178    404.58618  0.035341211    0.0357875            8 
  955000    1.0911802   -6.3764137     404.0034  0.035253351  0.035779026            3 
  956000    1.1145726   -6.3449937    405.52502  0.035349113  0.035770722            4 
  957000     1.103934    -6.345033     405.5733   0.03531638   0.03576245            3 
  958000    1.1020554   -6.3862625    405.77681  0.035297218  0.035754113            4 
  959000    1.1277878   -6.3035069    407.87551  0.035442779   0.03574595            2 
  960000    1.0994163   -6.3203367    407.93072  0.035410653  0.035737619            3 
  961000    1.0877915    -6.373235    406.26002   0.03522893  0.035729002            3 
  962000    1.0780627   -6.3279682     407.3235  0.035284433  0.035720206            4 
  963000    1.1167124   -6.3951665    405.95022  0.035128956  0.035711473            1 
  964000    1.1143467   -6.3244307    408.10652  0.035278918  0.035702905            3 
  965000    1.1047991   -6.3537604     408.9325  0.035313688  0.035694298            2 
  966000    1.1071036   -6.3196987    409.51965  0.035327782  0.035685357            2 
  967000    1.1209311   -6.2938299    409.33727  0.035275531  0.035676947            2 
  968000    1.1024559    -6.361605    408.51279  0.035168112  0.035668705            2 
  969000    1.1029413   -6.3826667    408.66116  0.035144579  0.035659796            2 
  970000    1.1367892   -6.3452898    410.39666  0.035257445  0.035651241            7 
  971000    1.1108048   -6.3289499    411.40903  0.035308018  0.035642591            2 
  972000    1.0823693   -6.3243387    411.16798  0.035251027  0.035633985            3 
  973000    1.0889788   -6.3400649    411.64644  0.035255776  0.035625652            9 
  974000    1.0939677   -6.3457759    412.20831  0.035267651  0.035617165            2 
  975000    1.1085207   -6.3538647    412.04593  0.035217601  0.035608996            3 
  976000    1.0952753   -6.3542618    412.95544  0.035259173  0.035600663            3 
  977000    1.0788901   -6.3572331    412.51452  0.035185476  0.035592573            3 
  978000    1.1021454   -6.3547244    413.74973  0.035254749  0.035584482            5 
  979000    1.0822177   -6.3459263    414.15641  0.035253354  0.035576577            2 
  980000    1.0719108   -6.3788905    414.59112  0.035254347  0.035568483            4 
  981000    1.1058804   -6.3627884    414.82346  0.035238146  0.035560565            3 
  982000    1.1219818   -6.3581435    414.74826  0.035195881  0.035552626            4 
  983000    1.0917396   -6.3953693    414.66501  0.035153019  0.035544567            4 
  984000    1.0625775   -6.3499357    415.27371  0.035168844  0.035536147            2 
  985000    1.0857977   -6.3528365    416.17104  0.035209056  0.035528044            3 
  986000    1.1089902   -6.3549322     414.7409  0.035052476  0.035519828            3 
  987000    1.0783252   -6.3097046    416.55975  0.035170529  0.035511633            5 
  988000     1.097483   -6.3739604    417.12253    0.0351824  0.035503364            2 
  989000    1.1013459   -6.3655225    417.19501  0.035152933  0.035495216            3 
  990000    1.1021483   -6.3671491    417.31099  0.035127188  0.035487096            3 
  991000    1.0904266   -6.3929074    415.93075  0.034975677  0.035478529            3 
  992000    1.1094552   -6.3464743    417.53808  0.035075443   0.03547043            5 
  993000    1.0836385   -6.3623793    417.67148  0.035051316  0.035461892            4 
  994000    1.0888019   -6.3355652    418.18846  0.035059395  0.035453549            3 
  995000    1.0767742   -6.3687462    418.76713  0.035072624  0.035445021            3 
  996000    1.1110296   -6.3656842    417.93017  0.034967384  0.035436683            1 
  997000    1.0985313   -6.3654848    417.28579  0.034878451  0.035428246            3 
  998000    1.1063057   -6.3670481    418.80616  0.034970454  0.035419422            2 
  999000    1.1152966    -6.334222    419.91579   0.03502801  0.035410859            3 
 1000000     1.075576   -6.3721629    418.88695  0.034907246  0.035402151            3 
 1001000    1.0662527   -6.3709964    419.91933  0.034958319  0.035393737            6 
 1002000    1.0830229   -6.3135414    422.11508  0.035106044  0.035385614            3 
 1003000    1.0991576   -6.3369644    421.46249  0.035016824  0.035377169            3 
 1004000     1.103184   -6.3570375    421.39644  0.034976464  0.035368657            4 
 1005000    1.0843594    -6.330124    420.86469  0.034897569   0.03536017            5 
 1006000    1.0967237   -6.3540302    421.43732  0.034910315  0.035351508            2 
 1007000    1.0652341    -6.385681    420.37158  0.034787453   0.03534248            4 
 1008000    1.1034946   -6.3783144    421.12427  0.034815168   0.03533362            4 
 1009000    1.0854176    -6.400486    420.37982  0.034719179  0.035324713            2 
 1010000    1.0968239    -6.383431    420.94466  0.034731408  0.035315363            2 
 1011000    1.0761467   -6.3356863    422.23756  0.034803624  0.035306333            2 
 1012000    1.1054811   -6.3724711    422.12694  0.034760124  0.035297142            2 
 1013000    1.0811923   -6.3955265    421.64961  0.034686542   0.03528805            3 
 1014000    1.0937642   -6.4219059    422.29932   0.03470573  0.035278736            2 
 1015000    1.0879558   -6.3821606     424.8927  0.034884458  0.035269823            6 
 1016000    1.0980216   -6.3478132     425.4075  0.034892348  0.035261028            6 
 1017000    1.0862983   -6.3560472     424.7625  0.034805187  0.035252416            5 
 1018000    1.0771706   -6.3623796    424.31088  0.034734027  0.035243438            7 
 1019000    1.0932531   -6.3508702    426.10745  0.034846863  0.035234885            2 
 1020000    1.0853152   -6.3478258    425.30975  0.034747529   0.03522606            4 
 1021000    1.1190571    -6.399977    424.98327  0.034686849   0.03521704            6 
 1022000    1.1134805   -6.4008418    426.11575   0.03474525  0.035208261            3 
 1023000    1.0645438   -6.3751693    426.23896  0.034721323  0.035199476            3 
 1024000     1.075001   -6.3666968    426.05698  0.034672606  0.035190611            4 
 1025000      1.06285   -6.3706817    427.89311  0.034788058  0.035181791            3 
 1026000    1.1049022    -6.375081    427.40169  0.034714237  0.035173025            2 
 1027000     1.095419   -6.3502995    428.37839  0.034759688  0.035164204            3 
 1028000    1.0921861   -6.3725481     427.7489  0.034674846  0.035155535            6 
 1029000    1.0831287   -6.3848875    428.51443  0.034703145  0.035146599            2 
 1030000    1.0840277   -6.3933971    428.41202  0.034661167  0.035137577            5 
 1031000    1.0747411   -6.3426866    430.29785  0.034779975   0.03512863            4 
 1032000    1.0804204   -6.4263746    427.76981  0.034542136  0.035119585            3 
 1033000    1.1084504      -6.3784    430.23281   0.03470739   0.03511062            4 
 1034000    1.0794431   -6.4065239     430.6147  0.034704601  0.035101563            3 
 1035000    1.0691484   -6.3881359    429.88004  0.034611919  0.035092734            4 
 1036000     1.079803   -6.4060482    429.44687  0.034543667  0.035083959            3 
 1037000    1.0826309   -6.3631971    429.66449  0.034527844  0.035075298            3 
 1038000     1.101218   -6.4026047    431.52997  0.034644345  0.035066485            4 
 1039000    1.0931014    -6.361353    431.12689  0.034578673  0.035057598            2 
 1040000    1.0762778   -6.3641903    431.67807  0.034589589  0.035049115            3 
 1041000    1.1030765    -6.378699    431.44329  0.034537568  0.035040312            4 
 1042000    1.0971027   -6.4015916    431.29234   0.03449235  0.035031522            1 
 1043000    1.0603401   -6.4279527    430.55241   0.03440016  0.035022303            3 
 1044000    1.0877368   -6.4010275    432.79219  0.034545992  0.035013101            2 
 1045000    1.0889383   -6.3719391    433.62445  0.034579302  0.035004193            2 
 1046000    1.0933553   -6.3596242    432.46171   0.03445361  0.034995286            2 
 1047000    1.0670262   -6.3616866    433.24107  0.034482734  0.034985878            1 
 1048000    1.0587632   -6.3738468    432.87466  0.034420695  0.034976295            4 
 1049000    1.0729669   -6.3423529    433.80423  0.034461728  0.034966915            1 
 1050000    1.0649557   -6.3734864    433.87112  0.034434216  0.034957252            2 
 1051000    1.0550672   -6.3589913     433.6332  0.034382588  0.034947708            2 
 1052000    1.0831251   -6.3960466     434.2132  0.034395849  0.034938225            6 
 1053000    1.0844795   -6.3695042    434.12182  0.034355953  0.034928857            4 
 1054000    1.0668395   -6.3828284    434.49629  0.034352964  0.034919604            1 
 1055000    1.0785365   -6.4216632    435.82017  0.034424974  0.034910375            7 
 1056000    1.0743326    -6.387249    435.80836  0.034391442  0.034901383            3 
 1057000    1.0620969   -6.4018912    436.20177  0.034389922  0.034892312            3 
 1058000    1.1009555   -6.3587267    438.11556  0.034508157  0.034883523            4 
 1059000    1.1065001    -6.384457     437.9052  0.034459018  0.034874946            4 
 1060000    1.0811043   -6.4441924     436.2118  0.034293381  0.034865779            1 
 1061000    1.1171207   -6.4314848    436.01499  0.034245601  0.034856876            4 
 1062000    1.0834054   -6.3915651     439.5334  0.034489438  0.034847768            3 
 1063000    1.0917264   -6.3678525    439.75087  0.034474041  0.034838844            3 
 1064000     1.094822   -6.3363234    440.52118  0.034501972  0.034829852            3 
 1065000    1.0925581   -6.4160202    438.49735  0.034311217  0.034820993            4 
 1066000    1.0822846   -6.4256728    438.94558   0.03431407   0.03481195            2 
 1067000    1.0754469   -6.4133416    439.15242  0.034298065  0.034802745            3 
 1068000    1.0573312   -6.3975905    439.77084  0.034314204  0.034793693            2 
 1069000    1.0876854   -6.3976659    440.50409  0.034339265  0.034784969            4 
 1070000    1.0802052   -6.4240426    441.05543  0.034350112   0.03477615           13 
 1071000    1.0761052   -6.3833858    441.10298  0.034321738  0.034767156            5 
 1072000    1.0686613   -6.3974946    441.47071  0.034318308  0.034757974            3 
 1073000    1.0725631   -6.3971057    440.84455  0.034237694  0.034749142            4 
 1074000    1.0674104    -6.351862    441.80313  0.034280194  0.034740047            5 
 1075000    1.0938086   -6.3980821     441.9597  0.034260442   0.03473107            2 
 1076000    1.0846673   -6.3740134    443.47329  0.034345825  0.034721984            3 
 1077000    1.0872841   -6.3861417    442.42975   0.03423319  0.034713189            2 
 1078000    1.0680856   -6.3883476    443.57209  0.034289741  0.034704443            4 
 1079000    1.0786757   -6.3735756    443.13084  0.034223883  0.034695371            3 
 1080000    1.0961457   -6.3857294    442.92784   0.03417653  0.034686544            3 
 1081000    1.0515945   -6.3830949    444.32162   0.03425236  0.034677794            3 
 1082000    1.0651987   -6.3632924    444.53285  0.034236972  0.034668726            2 
 1083000    1.0856311   -6.4159584    444.22045  0.034181321  0.034659575            4 
 1084000    1.0965275   -6.3457494    447.55034  0.034405777  0.034650575            2 
 1085000    1.1106212    -6.361866    446.33436  0.034280673  0.034641949            3 
 1086000    1.0693176    -6.426327    446.26702   0.03424394  0.034633046            2 
 1087000    1.0723841   -6.3938284    445.64296  0.034164594  0.034624029            7 
 1088000    1.0655945   -6.3700027    446.65224  0.034210497  0.034614902            4 
 1089000    1.0744934   -6.4245162     444.8694  0.034042653  0.034605929            4 
 1090000    1.0722788   -6.4326536    445.75131  0.034078847  0.034596542            4 
 1091000    1.0828036   -6.3544384    446.43364  0.034099728   0.03458719            2 
 1092000    1.0612913   -6.4211079    445.47365  0.033995242  0.034578116            6 
 1093000    1.0694801   -6.4299301    446.21948  0.034021004  0.034568822            3 
 1094000    1.0483181   -6.3946538    446.94254  0.034044983  0.034559541            2 
 1095000    1.0868888   -6.4335164     446.3894  0.033971796  0.034550373            3 
 1096000    1.0587146   -6.3733803    448.00928  0.034063966  0.034540782            4 
 1097000    1.0404451   -6.4163925    447.78787  0.034016095    0.0345316            4 
 1098000    1.0695547   -6.3880218    448.56752  0.034044287  0.034522322            5 
 1099000    1.0730395   -6.4188403    447.87146  0.033960529  0.034513095            5 
 1100000    1.0700899   -6.3905814     450.0173   0.03409222  0.034503946            2 
 1101000    1.0885046   -6.4000389     449.2432  0.034002664  0.034494879            3 
 1102000    1.0814938   -6.3518706    450.21389  0.034045213  0.034485883            2 
 1103000    1.0923387    -6.375698    450.73773  0.034053923  0.034476891            3 
 1104000    1.0923593    -6.440923    449.16053  0.033904026  0.034467542            2 
 1105000    1.0665033   -6.3929678    450.98488  0.034010926  0.034458152            9 
 1106000    1.0660777    -6.393667     451.0703  0.033986611  0.034448796            3 
 1107000    1.0580374    -6.408587    449.79372   0.03385981  0.034439413            7 
 1108000    1.0848154   -6.3882668    452.14281  0.034005928  0.034430409            2 
 1109000    1.0424083   -6.4106506    452.16292  0.033976775  0.034421208            1 
 1110000    1.0560756   -6.4156809    452.37184   0.03396185  0.034412293            4 
 1111000    1.0811719   -6.3864808    453.09399  0.033985448  0.034403313            3 
 1112000    1.0768223   -6.3918361    452.45096  0.033906696  0.034394341            6 
 1113000    1.0654767   -6.4463647    453.92668  0.033986724  0.034385256            3 
 1114000    1.0719437   -6.4076333    454.56056  0.034003633  0.034376397            3 
 1115000    1.0679752   -6.4277618    454.24934  0.033949876  0.034367766            2 
 1116000    1.0916188   -6.3788236    455.78557  0.034034168  0.034358963            3 
 1117000    1.0733822   -6.3870132    457.03772  0.034097114  0.034350578            2 
 1118000    1.0704936   -6.4401715    453.65829  0.033814721    0.0343419            3 
 1119000    1.0590983   -6.4272185    454.93814  0.033879814  0.034333096            2 
 1120000    1.0837011   -6.4345839    455.12667  0.033863591  0.034324415            4 
 1121000    1.0983355   -6.3906831    456.60965  0.033943625   0.03431588            3 
 1122000    1.0710807   -6.4044431    458.35587  0.034043068  0.034307333            6 
 1123000    1.0826204   -6.3947507    458.20117  0.034001274  0.034299008            3 
 1124000    1.0614327    -6.439336    456.16322   0.03381993  0.034290589            1 
 1125000    1.0749252   -6.4153001    460.16412  0.034086231  0.034282104            6 
 1126000    1.0546526   -6.3546358    460.21727  0.034059893  0.034274053            3 
 1127000    1.0820295   -6.4369155    459.16434  0.033951815  0.034266138            3 
 1128000    1.0915412      -6.4151    461.09617  0.034064433  0.034258058            5 
 1129000     1.078517    -6.409023    459.59198  0.033923235  0.034250018            5 
 1130000    1.0656869   -6.3646476    461.41168   0.03402741  0.034241848            3 
 1131000    1.0738296   -6.4118957    461.17862  0.033980152  0.034233678            4 
 1132000    1.0728765   -6.4443829    460.77451  0.033920385  0.034225164            3 
 1133000    1.0566656   -6.3895638    462.26377  0.033999983  0.034216888            5 
 1134000    1.0599731    -6.434337    460.05531   0.03380771  0.034208818            3 
 1135000    1.0736825   -6.4247367    463.21544  0.034009944  0.034200732            2 
 1136000    1.0943528   -6.4384995    463.39888  0.033993463  0.034192941            7 
 1137000    1.0689166    -6.412643    464.60407  0.034051896  0.034185047            7 
 1138000    1.0683136   -6.4216802     462.2073  0.033846463  0.034177083            2 
 1139000    1.0604575   -6.4417246    461.70779  0.033780201  0.034168982            4 
 1140000    1.0498884   -6.4016166     464.3705  0.033945212  0.034160601            2 
 1141000    1.0415077   -6.4061874    463.92881  0.033883202  0.034152303            3 
 1142000    1.0710975    -6.423335    461.57609  0.033681852  0.034144315            3 
 1143000    1.0602031   -6.4350328    464.16452  0.033841099  0.034136102            3 
 1144000    1.0561701   -6.4225222    463.43222  0.033758174  0.034127819            3 
 1145000    1.0873787   -6.4416338     464.3049  0.033792205  0.034119636            2 
 1146000    1.0742527   -6.3998004    465.89616  0.033878429  0.034111497            4 
 1147000    1.0563143   -6.4244202    464.73315  0.033764396  0.034103371            5 
 1148000    1.0604159   -6.4365617    464.69594  0.033732284  0.034095024            3 
 1149000    1.0840861   -6.3876661     467.1862  0.033883536  0.034086885            7 
 1150000    1.0598616   -6.4336692    465.70074   0.03374643  0.034078705            3 
 1151000    1.0588615   -6.4253793    467.83331  0.033871511  0.034070356            4 
 1152000    1.0660824   -6.4025422    467.74252  0.033835541  0.034062097            3 
 1153000    1.0600916   -6.3994693    469.10469  0.033904647   0.03405413            5 
 1154000    1.0669472   -6.3904989    466.94456  0.033719278  0.034045744            4 
 1155000    1.0694732   -6.4246574    468.56965  0.033807334  0.034037626            5 
 1156000    1.0592919   -6.4502267    468.69562   0.03378717  0.034029545            4 
 1157000    1.0651802   -6.4621001    469.10957  0.033787782  0.034021417            6 
 1158000    1.0736817   -6.4328319    468.45314  0.033711366  0.034013324            6 
 1159000    1.0633008   -6.4315409    468.48465  0.033684545  0.034005053            3 
 1160000    1.0796265   -6.4096041    471.71656  0.033887684  0.033997228            4 
 1161000    1.0543913   -6.4199736    471.18238  0.033820153   0.03398959            5 
 1162000    1.0663625   -6.3996646    470.67847  0.033754911  0.033981893            6 
 1163000    1.0519205   -6.3630977    470.98585  0.033747911  0.033974218            2 
 1164000     1.067805   -6.4609154    468.40569  0.033534199  0.033966426            9 
 1165000    1.0773674   -6.4311975    471.59783  0.033733751  0.033958498            3 
 1166000    1.0449615   -6.4427902    471.34673  0.033686874   0.03395062            2 
 1167000    1.0425219   -6.4650552    469.64413  0.033536427  0.033942342            3 
 1168000    1.0794082   -6.4348941    473.49013  0.033782115    0.0339342            1 
 1169000    1.0765905   -6.4491387    471.64099  0.033621399  0.033925912            2 
 1170000    1.0544914   -6.4522487    471.67145  0.033594833  0.033917807            3 
 1171000    1.0566445   -6.4389675    472.47021  0.033622986  0.033909614            2 
 1172000    1.0680165    -6.418834    475.14618  0.033784569  0.033901675            8 
 1173000    1.0550192   -6.4351027    474.72504  0.033725848  0.033893682            5 
 1174000    1.0644732   -6.4004642    475.04003   0.03371948  0.033886064            3 
 1175000    1.0723935   -6.4105042    476.12394  0.033767655  0.033878492            3 
 1176000     1.069724   -6.3979729    477.20262  0.033815379  0.033870875            2 
 1177000    1.0766555   -6.3936797    477.53103    0.0338099   0.03386354            1 
 1178000    1.0788159   -6.4265723    477.00824  0.033744216  0.033856293           10 
 1179000    1.0358508   -6.4484672    475.52432   0.03361071  0.033848631            2 
 1180000    1.0488133   -6.4278859     475.2089   0.03355995  0.033840792            3 
 1181000    1.0562667   -6.4371614    475.98912  0.033586588  0.033832806            2 
 1182000    1.0638575   -6.4271071    476.84594   0.03361858  0.033825141            3 
 1183000      1.07536   -6.4519906    475.96227  0.033527914  0.033817133            3 
 1184000    1.0683422   -6.4197919    477.74408  0.033625006  0.033809125            3 
 1185000    1.0815967   -6.4191961    476.41433  0.033503118  0.033800981            3 
 1186000    1.0672358   -6.4399018    476.54594  0.033484116  0.033793138            2 
 1187000    1.0674732   -6.4352042    477.42288  0.033517473  0.033785014            4 
 1188000    1.0458649   -6.4360527    478.01783  0.033530992  0.033776818            1 
 1189000    1.0642138   -6.4061783    478.56687  0.033541272  0.033768831            4 
 1190000    1.0588417   -6.4248004    478.55794   0.03351246  0.033760783            4 
 1191000    1.0577494   -6.4152128    479.57496  0.033555483  0.033752831            2 
 1192000    1.0584297   -6.4274974    479.34643  0.033511356   0.03374463            3 
 1193000     1.060759   -6.4534706    477.81565  0.033376338  0.033736471            4 
 1194000    1.0595668   -6.4730329    479.38733  0.033458077   0.03372832            8 
 1195000    1.0741416   -6.4490274    478.97713  0.033401474  0.033720091            4 
 1196000    1.0818857   -6.4316804    480.06607  0.033449419  0.033711838            3 
 1197000    1.0661601   -6.4336391    479.34758  0.033371455  0.033703818            6 
 1198000      1.06715   -6.4088762    482.88392  0.033589588  0.033696238            6 
 1199000    1.0446081   -6.4713773    481.16518  0.033442117  0.033688554            6 
 1200000    1.0535276   -6.4660687    481.63139  0.033446624  0.033680668            4 
 1201000    1.0589171   -6.4327466    482.67023  0.033490857  0.033672702            3 
 1202000    1.0579048   -6.4098851    483.85915  0.033545421  0.033665203            3 
 1203000    1.0623154   -6.4254292    485.44686  0.033627519  0.033657311            3 
 1204000    1.0757406   -6.4480871     482.8296  0.033418438  0.033649534            3 
 1205000    1.0559075   -6.4149694    483.31732  0.033424435  0.033641361            4 
 1206000    1.0618737   -6.4108388    483.32085  0.033396963  0.033633206            4 
 1207000     1.058641   -6.4364518    483.76288  0.033399812  0.033625311            2 
 1208000    1.0481689   -6.4147167    484.21194  0.033403141  0.033617446            2 
 1209000    1.0782023   -6.4277825    486.02795  0.033500686  0.033609543            3 
 1210000    1.0326125   -6.4507541    483.90457  0.033326761  0.033601816            2 
 1211000    1.0599867   -6.4860529    484.32336  0.033328059  0.033593963            5 
 1212000    1.0676801   -6.4535013    486.26119    0.0334338  0.033586229            7 
 1213000    1.0557949   -6.4594297    486.40894  0.033416388  0.033578404            9 
 1214000    1.0617704   -6.4019253    488.06268  0.033502381  0.033570901            2 
 1215000      1.05934   -6.4643856    485.88814  0.033325661  0.033563206            7 
 1216000    1.0412748   -6.4923056    486.09125  0.033312174  0.033555188            3 
 1217000    1.0605473   -6.4580548    485.77092  0.033262868  0.033547198            5 
 1218000    1.0670954   -6.4817916    486.99806  0.033319517  0.033539485            3 
 1219000    1.0476866   -6.4625209    486.97842  0.033290841  0.033531437            3 
 1220000    1.0538007   -6.4417139     487.7824   0.03331847  0.033523427            1 
 1221000    1.0502887    -6.465646    486.84177  0.033226984  0.033515391            7 
 1222000    1.0520294   -6.4738941    487.56891   0.03324938  0.033507207            4 
 1223000    1.0566391     -6.44637    488.00886  0.033252171  0.033498806            9 
 1224000    1.0369103   -6.4554977    487.94423  0.033220604  0.033490685            5 
 1225000    1.0709809   -6.4251083    489.12056  0.033273508  0.033482291            2 
 1226000    1.0472766   -6.4556918    489.26405  0.033256121  0.033474186            3 
 1227000    1.0428094   -6.4590095     489.6184  0.033253083  0.033466071            8 
 1228000     1.038154   -6.4407569    488.78998  0.033169787  0.033457804            2 
 1229000    1.0681603   -6.4831894    489.24136  0.033173404  0.033449493            4 
 1230000    1.0629871   -6.4735389    490.63307  0.033240723  0.033440914            6 
 1231000    1.0591544   -6.4907967    487.54196  0.033004465  0.033432251            8 
 1232000    1.0803524   -6.4697635    490.73103  0.033193387  0.033423733            5 
 1233000    1.0407729    -6.448623    490.16364  0.033128118  0.033415563            3 
 1234000    1.0567768   -6.4539159    491.11654  0.033165623  0.033407265            1 
 1235000    1.0425333   -6.4226925     492.1802   0.03321054  0.033398946            4 
 1236000    1.0615049   -6.4511886     494.0108  0.033307092  0.033390817            2 
 1237000    1.0369578   -6.4152522    493.52153  0.033247207  0.033382919            3 
 1238000    1.0432505   -6.4682625    491.21565  0.033065135   0.03337502            3 
 1239000    1.0392509     -6.43969    492.06378  0.033095492  0.033366764            2 
 1240000    1.0516842   -6.4495662    493.45991  0.033162628  0.033358661            5 
 1241000    1.0656438    -6.480452      493.462  0.033136046  0.033350314           11 
 1242000    1.0475991   -6.4422066    493.12505  0.033086758  0.033342241            5 
 1243000     1.055396   -6.4745387    492.61797  0.033026144  0.033334062            4 
 1244000    1.0458647   -6.4613224    493.12595  0.033033625  0.033325671            3 
 1245000    1.0504265   -6.4714052    493.85878  0.033056143  0.033317459            5 
 1246000    1.0807625   -6.4721688    493.06765  0.032976702  0.033309067            6 
 1247000    1.0851549   -6.4343508    494.55004  0.033049321  0.033300715            2 
 1248000    1.0389118   -6.4297257    495.53526  0.033088626    0.0332924            2 
 1249000    1.0546528   -6.5161619    493.82982  0.032948346  0.033284144            4 
 1250000    1.0364381   -6.4669541    494.51055   0.03296737  0.033275792           11 
 1251000    1.0629372   -6.4554494    496.05521  0.033043912  0.033267289            7 
 1252000    1.0889334   -6.4639787    495.46021  0.032977916  0.033258829            7 
 1253000    1.0473759   -6.4718119    494.94446  0.032917296  0.033250365            3 
 1254000    1.0462962   -6.4905891    495.51001  0.032928629  0.033242005            4 
 1255000    1.0535946   -6.4518917    497.83993  0.033057101  0.033233671            7 
 1256000     1.057723   -6.4738015    494.75642  0.032826196  0.033225381            3 
 1257000    1.0611445   -6.4772808    496.89728   0.03294201  0.033217041            8 
 1258000    1.0697379   -6.4642613    497.77105  0.032973705  0.033208821            6 
 1259000    1.0539558   -6.4710079     498.3936  0.032988721  0.033200481            7 
 1260000    1.0564007   -6.4888582    496.20142  0.032817554  0.033191963            3 
 1261000    1.0494746   -6.4365268    498.54318  0.032946285  0.033183559            4 
 1262000    1.0398789   -6.4173012     499.7334  0.032998772  0.033175435            3 
 1263000    1.0536204   -6.4838824    496.65779  0.032769714   0.03316702            7 
 1264000    1.0428338   -6.4711979    498.32694  0.032853833   0.03315865            3 
 1265000    1.0326615   -6.4591538    499.53539  0.032907469  0.033150481            7 
 1266000    1.0396047   -6.4601039    500.69203  0.032957611  0.033142269            6 
 1267000    1.0629926   -6.4907318    498.10131  0.032761202  0.033134093            8 
 1268000    1.0374406   -6.5135078    500.03565   0.03286249  0.033125904            3 
 1269000    1.0492282   -6.4523856    501.73864  0.032948426  0.033117758            2 
 1270000    1.0515034   -6.5107809     498.8802  0.032734921   0.03310963            3 
 1271000    1.0695862   -6.4577155    501.13273  0.032856853  0.033101338            5 
 1272000    1.0714393   -6.4645209    503.89089  0.033011719  0.033093333            6 
 1273000     1.043809   -6.4617172    500.22968  0.032746117  0.033085463            6 
 1274000    1.0573114   -6.5033378     502.4407  0.032865038  0.033077245            3 
 1275000    1.0492794   -6.4788086    503.51801  0.032909674  0.033069076            3 
 1276000      1.04566   -6.4815646    501.28969  0.032738355  0.033060719            2 
 1277000    1.0640339   -6.4950891    502.51138  0.032792442  0.033052446            6 
 1278000    1.0569455   -6.4536416    504.54682  0.032899506  0.033044017            5 
 1279000    1.0695198   -6.4789601    503.11861  0.032780728  0.033035748            7 
 1280000    1.0444042   -6.4423283    504.43522  0.032840835  0.033027506            2 
 1281000    1.0394926   -6.4992922    502.76424  0.032706495  0.033019442            5 
 1282000    1.0499634    -6.514821    503.20843  0.032709856  0.033011017            4 
 1283000    1.0394745   -6.4575456    503.34107  0.032692977  0.033002716            4 
 1284000    1.0366405   -6.4391954    504.35664  0.032733427  0.032994512            3 
 1285000    1.0386291   -6.4841418     504.3583  0.032708061  0.032986255            4 
 1286000    1.0397856   -6.5007319    503.94887  0.032656096  0.032977777            2 
 1287000    1.0552288   -6.4556681    505.47079  0.032729266  0.032969366            2 
 1288000    1.0556041   -6.5193855    504.66949  0.032652012  0.032961042            2 
 1289000    1.0464862   -6.4285512    507.30157  0.032796843  0.032952826            5 
 1290000    1.0408878   -6.4818638    505.52364  0.032656566  0.032944589            3 
 1291000    1.0298451   -6.4783838    505.88897  0.032654852  0.032936275            2 
 1292000    1.0331087   -6.4728947    506.06463  0.032640907  0.032928055            6 
 1293000    1.0485115   -6.5387666    506.70687  0.032657055  0.032919538            3 
 1294000    1.0270958   -6.5020267    506.28257  0.032604493  0.032910865            4 
 1295000    1.0685297   -6.4513659    506.63725   0.03260214  0.032902409            2 
 1296000    1.0396003   -6.4233851    508.13976  0.032673595  0.032894172            4 
 1297000    1.0804285   -6.5005622    506.47796  0.032541632  0.032885694            6 
 1298000    1.0122127   -6.4902747    508.88935  0.032671376  0.032877022            4 
 1299000    1.0436492   -6.5163689    506.99124  0.032524457   0.03286867            2 
 1300000    1.0474333    -6.435494    508.98763  0.032627412  0.032860303            9 
 1301000    1.0244454   -6.4838411    508.73315  0.032586033  0.032851879            3 
 1302000    1.0174028   -6.4878032    508.97798  0.032576675  0.032843473            3 
 1303000    1.0576408   -6.4892029    510.00722  0.032617499  0.032835183            7 
 1304000    1.0601818   -6.5389368    508.89685  0.032521526  0.032826742            7 
 1305000    1.0587071   -6.4856311    509.70754  0.032548374   0.03281821            6 
 1306000    1.0466344    -6.467568    511.40827  0.032631972  0.032810102            3 
 1307000    1.0402046   -6.5213342    510.26755  0.032534274  0.032801995            5 
 1308000    1.0482419   -6.4845471    511.24355  0.032571582  0.032793758            6 
 1309000    1.0369099   -6.4694252    511.47304  0.032561309    0.0327858            4 
 1310000    1.0407468   -6.4541186    511.55958  0.032541958  0.032777448            7 
 1311000    1.0682288   -6.5031487    510.12248  0.032425787  0.032769093            5 
 1312000    1.0404567    -6.510604    510.28354  0.032411302  0.032760549            3 
 1313000    1.0331553   -6.4833391    510.85197  0.032422694    0.0327522            4 
 1314000    1.0510578   -6.4797825    511.75513  0.032455297  0.032743681            5 
 1315000    1.0469316   -6.4803427     511.6074  0.032421255  0.032735424            4 
 1316000    1.0489243   -6.5114254    512.64278  0.032462182  0.032727058            4 
 1317000    1.0358807   -6.4885611     514.1987  0.032535984  0.032718697            4 
 1318000    1.0425772   -6.4949759    512.15915  0.032382344  0.032710177            5 
 1319000    1.0313393   -6.4732094    514.09663  0.032480202  0.032701871            6 
 1320000    1.0384322   -6.4913683    514.24002  0.032464648  0.032693547            3 
 1321000    1.0477669   -6.4459758    517.56821  0.032650026  0.032685393            7 
 1322000    1.0318598   -6.4497071    515.43538  0.032490884  0.032677167            3 
 1323000    1.0679713   -6.4578063    514.38891   0.03240041  0.032668873            3 
 1324000    1.0625129   -6.4895717    513.80467  0.032339166  0.032660429            6 
 1325000    1.0535259    -6.529153     512.3367  0.032222434  0.032651746            6 
 1326000    1.0274304   -6.4949703    514.55776  0.032337717  0.032642921            3 
 1327000    1.0356859     -6.47374    515.12937  0.032349245  0.032634297            5 
 1328000    1.0391682   -6.4772792    516.62546  0.032418767  0.032625637            4 
 1329000    1.0318895   -6.4988911    516.41359  0.032381088  0.032617146            6 
 1330000    1.0525169   -6.4564605    517.25319  0.032409348  0.032608465            4 
 1331000    1.0445999   -6.5111161    514.31493  0.032201035  0.032599755            2 
 1332000    1.0407328   -6.4949002    514.67986  0.032199691  0.032591033            2 
 1333000    1.0358585   -6.5058599    515.44849  0.032223587  0.032582365            3 
 1334000    1.0209096   -6.4710356    518.32065  0.032378851   0.03257365            3 
 1335000    1.0186695   -6.5249677    515.62432  0.032186287  0.032564862            4 
 1336000    1.0234355   -6.5062807    517.54711   0.03228213   0.03255626            2 
 1337000    1.0582998   -6.5149294    516.45598  0.032189976  0.032547497            3 
 1338000    1.0302981   -6.4767442    518.21623   0.03227555  0.032538876            3 
 1339000      1.03085   -6.5215023    517.64835  0.032216103  0.032530415            5 
 1340000    1.0139422     -6.47428    518.95347  0.032273226  0.032522039            2 
 1341000    1.0511668   -6.5025398    518.27417  0.032206946  0.032513586            3 
 1342000    1.0250673   -6.4935335     520.0308  0.032292027  0.032505173            4 
 1343000    1.0261569   -6.4901965     520.9315  0.032323871  0.032496794            7 
 1344000    1.0402036   -6.4741474    520.80676  0.032292086  0.032488496            6 
 1345000    1.0327662   -6.4904994    519.24615  0.032171385  0.032479963            3 
 1346000    1.0464073   -6.4738815      520.509  0.032225668  0.032471444            5 
 1347000    1.0288264   -6.4580437    520.98001  0.032230884  0.032462805            3 
 1348000    1.0321229    -6.499538    520.90431  0.032202294  0.032454529            4 
 1349000    1.0422919   -6.4935127     520.5168  0.032154485  0.032446307            4 
 1350000    1.0416337   -6.5364709     519.9257  0.032094179  0.032437788           11 
 1351000    1.0307314   -6.5517189    520.09142  0.032080645  0.032429276            1 
 1352000    1.0338462   -6.4982434    521.47819  0.032142393  0.032420755            5 
 1353000    1.0193365   -6.5110495    523.25217  0.032227899  0.032412295            2 
 1354000    1.0219538   -6.4592988    524.18806  0.032261698  0.032403822            3 
 1355000    1.0509004   -6.5136154    522.14975  0.032112531  0.032395382            4 
 1356000    1.0246069   -6.5026594    522.04939  0.032082682  0.032386917            2 
 1357000    1.0612635   -6.5284785    522.58557  0.032091965  0.032378401            3 
 1358000    1.0311983   -6.5029554     522.6111  0.032069901  0.032369757            5 
 1359000    1.0372442   -6.4958235    522.39678   0.03203316  0.032361485            3 
 1360000    1.0226805   -6.5020381    523.57886  0.032082038   0.03235309            5 
 1361000    1.0379401   -6.5269625    525.49313  0.032175675  0.032344815            4 
 1362000    1.0530909   -6.5122966    523.64582  0.032039025  0.032336353            6 
 1363000    1.0346768   -6.5928234    522.80748  0.031964263  0.032327699            4 
 1364000    1.0284525    -6.521759     524.0952  0.032019502  0.032319224            8 
 1365000    1.0420595    -6.519998    526.01893  0.032113488  0.032310795            4 
 1366000    1.0133948    -6.512992    525.60409  0.032064671  0.032302488            7 
 1367000    1.0329984   -6.4866807    527.14107   0.03213491  0.032294211            3 
 1368000     1.022027   -6.5236451    525.56441  0.032015376  0.032286131            6 
 1369000    1.0454887    -6.520769    527.58964  0.032115269  0.032278031            3 
 1370000    1.0290033    -6.504593    528.50509  0.032147512  0.032270043            5 
 1371000    1.0189267   -6.4907366    527.98408  0.032092395  0.032262046            3 
 1372000    1.0182105   -6.5242396    528.28366    0.0320872  0.032254025            4 
 1373000    1.0255259   -6.5209772    526.60019  0.031961653  0.032245977            6 
 1374000    1.0473825   -6.5199478    528.43898  0.032049914  0.032237757            4 
 1375000    1.0070273   -6.4741302    528.61606  0.032037337  0.032229484            6 
 1376000    1.0296771   -6.5359652    527.22155    0.0319296   0.03222139            7 
 1377000    1.0622445   -6.5293541    527.28574  0.031910297   0.03221299            6 
 1378000    1.0411874   -6.4997551    528.19523   0.03194214   0.03220443            2 
 1379000     1.023434   -6.5384968    529.24309  0.031982299   0.03219605            5 
 1380000    1.0500611   -6.5343134    528.30003  0.031902176  0.032187499            2 
 1381000    1.0381343    -6.520852    527.91758  0.031855997  0.032179076            3 
 1382000    1.0019602   -6.5099143    528.58547  0.031873219  0.032170573            4 
 1383000    1.0448755   -6.5354901    528.56673  0.031849044  0.032162238            6 
 1384000    1.0633182   -6.4880226     531.8665  0.032024717   0.03215402           10 
 1385000    1.0424944   -6.5417906    530.70305  0.031931592  0.032145725            5 
 1386000    1.0342541   -6.5306223    529.62883  0.031843965  0.032137297            8 
 1387000    1.0323222   -6.5340793    529.67351  0.031823691  0.032128858            5 
 1388000    1.0440832    -6.532868    529.01533  0.031761247  0.032120244            3 
 1389000    1.0226184   -6.5049122    531.58497  0.031892547  0.032111784            3 
 1390000     1.017363   -6.4906873    531.34844  0.031855422  0.032103455            5 
 1391000    1.0290641   -6.5015466    530.75474  0.031796953  0.032094943            2 
 1392000    1.0252841   -6.5605894    530.19433  0.031740561  0.032086468            2 
 1393000    1.0237202   -6.5150197    532.33034  0.031845557  0.032078036            3 
 1394000    1.0501961   -6.4905153    532.20506  0.031815224  0.032069808            5 
 1395000    1.0162838   -6.5071212    534.01805   0.03190072  0.032061377           11 
 1396000     1.041741   -6.5082602    532.69431  0.031798848  0.032052975            8 
 1397000    1.0403613   -6.5507362    531.79814  0.031722628  0.032044421            3 
 1398000    1.0292787   -6.5470961    532.51702  0.031742789  0.032035994            6 
 1399000    1.0355013   -6.5398651    532.22135  0.031702487  0.032027622            5 
 1400000    1.0035158   -6.5172366    534.02399  0.031787143  0.032019259            6 
 1401000    1.0202163    -6.544626    535.18504  0.031833514  0.032010935            5 
 1402000    1.0241724   -6.4923033    535.51344  0.031830328  0.032002572            3 
 1403000    1.0235674   -6.5778025    533.28948  0.031675545  0.031994165            5 
 1404000    1.0406198     -6.53975     533.7851  0.031682401  0.031985731            5 
 1405000    1.0262659   -6.5366966    535.42261  0.031756976   0.03197739            2 
 1406000    1.0248904   -6.5655907    534.05427  0.031653287  0.031969006            2 
 1407000    1.0438017   -6.5301037    534.89206  0.031680411  0.031960542            4 
 1408000    1.0276652   -6.5086511    537.30203  0.031800546  0.031952293            9 
 1409000    1.0410786   -6.5414211    534.72725  0.031625695  0.031943811            3 
 1410000    1.0342067   -6.5530604     534.6889  0.031600999  0.031935413            3 
 1411000    1.0231882   -6.4878755     536.6174  0.031692499  0.031927026            5 
 1412000    1.0198237   -6.5185531    538.47727   0.03177982  0.031918684            6 
 1413000    1.0469988   -6.4972053    538.45504  0.031756018  0.031910578            5 
 1414000    1.0439944   -6.5380574    536.34514  0.031609214  0.031902319            6 
 1415000    1.0158592   -6.5136398    537.08319  0.031630341  0.031893881            2 
 1416000    1.0139128   -6.5159434    537.52408   0.03163395  0.031885652            4 
 1417000    1.0581331   -6.5419065    538.54831   0.03167186  0.031877551            4 
 1418000    1.0146361   -6.5505387    538.79104   0.03166379  0.031869308            6 
 1419000    1.0098816   -6.5666725    538.34474  0.031615266  0.031860921            3 
 1420000    1.0083238   -6.5558364    538.37697  0.031594892  0.031852646            3 
 1421000    1.0478398   -6.5342588     540.7165  0.031709858  0.031844385            2 
 1422000    0.9960879   -6.4722101    539.93163  0.031641563   0.03183614            2 
 1423000    1.0258369   -6.5347607    538.86705  0.031556984  0.031827902            6 
 1424000    1.0105756   -6.5670437    539.92624  0.031596807  0.031819363            7 
 1425000    1.0438741   -6.5632932    540.26114  0.031594219  0.031810843            4 
 1426000    1.0160358   -6.5333933    539.65359  0.031536558  0.031802458            4 
 1427000      1.01901   -6.5749057    539.23665   0.03149011   0.03179419            3 
 1428000     1.021872   -6.5221455    541.69028  0.031611244  0.031786062            4 
 1429000    1.0240201   -6.5111795    540.47524  0.031518267  0.031777833            2 
 1430000    1.0301322   -6.5697308    542.20223  0.031596867  0.031769663            2 
 1431000     1.045842   -6.5378709    541.13433  0.031512598   0.03176124            3 
 1432000   0.99619055   -6.5214347    541.88649  0.031534363   0.03175299            3 
 1433000    1.0410179   -6.5179726    542.04883  0.031521798  0.031744968            4 
 1434000     1.010755   -6.5239472    543.60718  0.031590375  0.031736873           10 
 1435000    1.0127941   -6.5407084     542.0909  0.031480308  0.031728889            4 
 1436000     1.031404   -6.5569713    543.63069  0.031547742  0.031720849            4 
 1437000    1.0390356   -6.5532845    543.03145  0.031491037  0.031712488            3 
 1438000    1.0424075   -6.5256748    543.84752   0.03151643  0.031704217            5 
 1439000     1.005383   -6.5444245    543.62113  0.031481418  0.031696022            4 
 1440000    1.0152052   -6.5360339    545.15824  0.031548509  0.031687837           10 
 1441000    1.0203437   -6.5763641    543.04097  0.031404174  0.031679856            3 
 1442000    1.0018427     -6.54396    546.00947  0.031553945  0.031671903            9 
 1443000    1.0158154   -6.5279624    546.90935  0.031584047  0.031664204            6 
 1444000    1.0100344   -6.4827652    547.37572  0.031589088   0.03165607            5 
 1445000    1.0121758   -6.5299065    545.90941  0.031482665  0.031648212            2 
 1446000    1.0208191   -6.5587699    546.78703   0.03151147  0.031640282            4 
 1447000    1.0206448   -6.5773823    544.38199  0.031351186   0.03163227            3 
 1448000    1.0192372   -6.5493537    548.55063  0.031569442  0.031624272            2 
 1449000    1.0307729   -6.5527634    548.07817  0.031520483  0.031616476            3 
 1450000    1.0099272   -6.5530597    547.49396   0.03146517   0.03160868            5 
 1451000    1.0167946   -6.5194201     549.9294  0.031583356  0.031600882           11 
 1452000    1.0040721   -6.5480525    548.55617  0.031482792  0.031593243            5 
 1453000    1.0309099    -6.543825    548.93371  0.031482778  0.031585419            6 
 1454000    1.0091642   -6.5398326    548.83361  0.031455388  0.031577767            3 
 1455000   0.98381576     -6.50135    551.64588  0.031594838  0.031570017            2 
 1456000    1.0096381   -6.5400663    550.62262  0.031514573  0.031562365            9 
 1457000   0.99691236   -6.5205357    551.73409  0.031556514  0.031554406            4 
 1458000     1.033334   -6.5854945    547.80268  0.031310167  0.031546441            4 
 1459000    1.0139252   -6.5605334    549.48269  0.031384663  0.031538449            3 
 1460000    1.0199081   -6.5382933    551.39913  0.031472553  0.031530645            6 
 1461000    1.0397302   -6.5851928    549.75482  0.031357222  0.031522869            6 
 1462000    1.0175876   -6.5473209    550.25248   0.03136414  0.031515029            7 
 1463000    1.0373878   -6.5527843    551.90512  0.031436837  0.031507222            8 
 1464000   0.98507925   -6.5575026    551.18126  0.031374161  0.031499233            4 
 1465000    1.0193085     -6.55977     551.6085  0.031377048  0.031491284            7 
 1466000   0.99299241   -6.5679385    551.43367  0.031345706  0.031483206            6 
 1467000    1.0088538   -6.5680378    550.91059  0.031294625  0.031475136            3 
 1468000    1.0009472   -6.5488527    552.29702  0.031352011  0.031467195            5 
 1469000    1.0232639   -6.5741145    551.97416  0.031312353  0.031459398            5 
 1470000    1.0188664   -6.5408346    554.01828  0.031406932  0.031451548            2 
 1471000   0.99845475   -6.5633473    552.91102  0.031322854  0.031443788           11 
 1472000    1.0091931   -6.5574035    552.71919  0.031290715  0.031435915            2 
 1473000    1.0231297   -6.5529542    555.17208  0.031408241  0.031428028            4 
 1474000    1.0282212   -6.5936776    552.17312  0.031217386  0.031420189            3 
 1475000   0.98900105    -6.543746    555.27673  0.031371566   0.03141221            2 
 1476000    1.0061528   -6.5291893    554.83198  0.031325202  0.031404453            7 
 1477000     1.027952   -6.5200834    553.01629  0.031201551  0.031396748            2 
 1478000    1.0177429   -6.5913966    552.39535   0.03114543  0.031388845            4 
 1479000   0.99951061   -6.5355907     555.0479  0.031273828   0.03138086            5 
 1480000    1.0034594   -6.5656577    554.94447  0.031246873  0.031372977           15 
 1481000    1.0174488   -6.5498927    556.45844  0.031310963   0.03136501            6 
 1482000    1.0110414   -6.5325909    557.29158  0.031336684  0.031357191            4 
 1483000    1.0118117   -6.5857013    555.59987  0.031220492   0.03134941            4 
 1484000    1.0263752   -6.5610914    557.68657  0.031316631  0.031341589            4 
 1485000    1.0255375   -6.5770172    555.48233  0.031171848   0.03133378            1 
 1486000     1.032387   -6.5740384    556.55079  0.031210789  0.031325976            3 
 1487000    1.0224294   -6.5384125    557.63441  0.031250527  0.031318098            7 
 1488000    1.0073669   -6.5709179    556.18598  0.031148408  0.031310167            7 
 1489000    1.0020368   -6.5563093    556.84173  0.031164189   0.03130222            8 
 1490000    1.0024974   -6.5883365    555.99778  0.031096073  0.031294226            5 
 1491000    1.0080632   -6.5176434    557.05582  0.031134352  0.031286295            3 
 1492000    1.0247364   -6.5624272    556.95026  0.031107588  0.031278381            1 
 1493000    1.0101206   -6.6022331    557.03185  0.031091307  0.031270377            2 
 1494000    1.0012762   -6.5693013    557.15708  0.031077481  0.031262434            3 
 1495000    1.0215301    -6.548745     559.2837  0.031175234  0.031254646            5 
 1496000    1.0295548   -6.5943621    559.07767  0.031142918   0.03124687            3 
 1497000   0.98812451   -6.5540298    560.78221  0.031217001  0.031239138            2 
 1498000    1.0079989   -6.5954202    559.66854  0.031134209  0.031231607            4 
 1499000   0.99872982   -6.5952028    561.95468  0.031240531  0.031223929            4 
 1500000    1.0058296   -6.6027236    560.14741  0.031119301  0.031216311            5 
 1501000    0.9989396   -6.5698839    560.58211  0.031122702  0.031208595            4 
 1502000    1.0000905   -6.5596753    561.42242  0.031148603  0.031200965            5 
 1503000    1.0125125   -6.5587141    562.23276  0.031172808  0.031193331            3 
 1504000    1.0365839   -6.5582481    562.48563  0.031166092  0.031185856            6 
 1505000    1.0323892   -6.5924246    561.15851    0.0310719   0.03117828            6 
 1506000    0.9897566   -6.5881923    561.43954  0.031066818   0.03117059            3 
 1507000    1.0153685   -6.5645658    563.42156  0.031155804   0.03116286            4 
 1508000   0.99559934   -6.5714089    563.18421  0.031122028  0.031155194            3 
 1509000    1.0120142   -6.6187435    562.70865  0.031075141    0.0311476            4 
 1510000    1.0235044   -6.5896987    562.53782  0.031045134  0.031139917            5 
 1511000     1.020783   -6.5890648    562.73522  0.031035474  0.031132167            3 
 1512000    1.0294275   -6.5350464    566.89122  0.031244004  0.031124593            4 
 1513000    1.0153933   -6.5905116    563.87367  0.031057153  0.031116997            4 
 1514000    1.0158697   -6.5825465    564.91576  0.031093998  0.031109479            7 
 1515000     1.019982   -6.5846725    563.69911  0.031006552  0.031101783            5 
 1516000   0.98588626   -6.5682117    565.24808  0.031071244  0.031094092            3 
 1517000    1.0120129   -6.5548773    564.40264   0.03100432  0.031086483            6 
 1518000   0.99333162   -6.6099968    564.57188  0.030993186  0.031078787            3 
 1519000    1.0177307   -6.5987815    563.79376  0.030930094  0.031070869            7 
 1520000    1.0014011   -6.6009668    564.86659  0.030968563  0.031063098            2 
 1521000   0.98391738    -6.549847    565.86913   0.03100313  0.031055297           10 
 1522000    1.0004129   -6.5695388    567.00512  0.031044958  0.031047598            8 
 1523000    1.0077015   -6.5693837    566.60532  0.031002699   0.03103994            2 
 1524000    1.0089171   -6.5823288    567.22137  0.031016042  0.031032243            2 
 1525000     1.008199   -6.6234914    566.69074  0.030966707  0.031024425            5 
 1526000   0.99540023   -6.5770642    568.13296  0.031025173  0.031016741            3 
 1527000    1.0167642   -6.5683505    565.74458  0.030874513  0.031009058            8 
 1528000     1.010484   -6.6105909    566.72054  0.030907534  0.031001279            4 
 1529000    1.0043603   -6.5616026    568.75844  0.030998389  0.030993571            5 
 1530000    1.0115017   -6.5687985    568.37481  0.030957234  0.030985825            2 
 1531000    1.0259674   -6.5783376    567.16073   0.03087093  0.030978166            5 
 1532000    1.0102406   -6.6022337    567.46183  0.030867158  0.030970415            4 
 1533000    1.0203384   -6.5596166    570.65539  0.031020623  0.030962712            4 
 1534000   0.99991275   -6.5657406    569.69625  0.030948297  0.030954977            4 
 1535000    1.0191385   -6.5640968    568.95911  0.030888117  0.030947231            3 
 1536000   0.99129117   -6.5836961    567.51648   0.03078974  0.030939345            8 
 1537000      1.00785   -6.5666843    568.39967  0.030817592   0.03093155            4 
 1538000    1.0113751   -6.6007249     567.4884   0.03074818   0.03092384            3 
 1539000   0.99848886   -6.6048605    567.30857  0.030718463  0.030915745            4 
 1540000    1.0166184   -6.5724698     570.6043  0.030876856  0.030907727            4 
 1541000   0.99024422   -6.6098454    569.10192  0.030775574  0.030899763            2 
 1542000    1.0053758   -6.5387136    569.78308  0.030792428   0.03089179            3 
 1543000    1.0180834   -6.5758747     569.9819  0.030783209  0.030884138           12 
 1544000   0.98143168   -6.5940151    569.13364  0.030717489  0.030876218            3 
 1545000   0.98817699   -6.6042123    570.82752  0.030788971  0.030868305            5 
 1546000    1.0160269   -6.5814697    572.07441  0.030836266  0.030860508            4 
 1547000   0.99798579    -6.589909    571.45278  0.030782847  0.030852678            4 
 1548000    1.0098475   -6.5741573    571.87677  0.030785787  0.030844941            4 
 1549000    1.0050241   -6.5247391    573.62245  0.030859826    0.0308372            8 
 1550000    1.0146399   -6.6060374    570.13913  0.030652641  0.030829487            8 
 1551000    1.0274242    -6.637331    572.48276  0.030758798  0.030821791            3 
 1552000   0.99581281   -6.6175125    570.33541   0.03062368   0.03081396            9 
 1553000    1.0017678   -6.6097497    570.65076  0.030620882  0.030805867            7 
 1554000     1.007915    -6.603555    572.28232   0.03068867  0.030797883            5 
 1555000    1.0035756   -6.5723291    572.41016  0.030675786  0.030790142            3 
 1556000    1.0043248   -6.5485609    574.56976  0.030771731  0.030782493            6 
 1557000    1.0030366   -6.5917227    573.93846  0.030718179  0.030774801            7 
 1558000    1.0173528   -6.5644397    575.33812  0.030773327  0.030767154            5 
 1559000    1.0147214    -6.605706    574.47172  0.030707276  0.030759497            7 
 1560000    1.0233507   -6.5939371     574.5611  0.030692366  0.030751679            7 
 1561000    1.0208973   -6.5521981    574.97816  0.030694969  0.030744067           11 
 1562000   0.98481423   -6.5758474    574.15913  0.030631622  0.030736443            4 
 1563000    1.0006629   -6.5803985    573.56371  0.030580279  0.030728734            3 
 1564000     1.008561   -6.5663353    574.87666  0.030630683  0.030721131            3 
 1565000    1.0058417   -6.5577947    576.25943  0.030684741  0.030713551            3 
 1566000    0.9848051   -6.6369174    574.97669  0.030596886  0.030705889            6 
 1567000   0.98040589   -6.5722883    575.66927  0.030614192   0.03069823            4 
 1568000   0.98863352   -6.5930761    576.47157  0.030637307  0.030690413            4 
 1569000   0.96652811   -6.6222211    575.15154  0.030547671  0.030682548            5 
 1570000   0.99953784   -6.6319952    576.33524  0.030591042  0.030674751            3 
 1571000   0.98731589   -6.5913067    577.58274  0.030637744  0.030667081            4 
 1572000    1.0127718   -6.5785736    576.46849  0.030559186  0.030659422            2 
 1573000    1.0180207   -6.5864994    577.13333  0.030574981  0.030651657            7 
 1574000    1.0120453   -6.5945419    578.14169  0.030608942  0.030643901            3 
 1575000   0.99597108   -6.6370664    577.31711  0.030545879   0.03063601            5 
 1576000   0.98661341   -6.5952387    578.20733  0.030573569  0.030628138            2 
 1577000   0.98731156   -6.6059268    575.86475  0.030430393  0.030620345            4 
 1578000   0.98683147   -6.6066207    579.47268  0.030601641  0.030612696            6 
 1579000   0.98849262   -6.6105193     578.4396  0.030527739  0.030604972            4 
 1580000    1.0132717   -6.5841098    578.42655  0.030507729  0.030597299            5 
 1581000   0.99159002   -6.5966224    576.44644  0.030384063  0.030589531            3 
 1582000   0.98861302   -6.5825029    579.68661  0.030535536  0.030581731            2 
 1583000    1.0060133   -6.6282186    578.88006  0.030473787  0.030573805            3 
 1584000    1.0032945   -6.5846543    580.99702   0.03056592   0.03056613            3 
 1585000    1.0092289   -6.5972483    579.02448  0.030442927  0.030558435           10 
 1586000    1.0197578   -6.5751474    580.41063  0.030496565  0.030550732           10 
 1587000   0.99403421   -6.5949375    580.75466  0.030495414  0.030542951            4 
 1588000    1.0005883   -6.5872255    580.97123  0.030487575   0.03053532            2 
 1589000    1.0281984   -6.6143032    580.58993  0.030448391  0.030527574            2 
 1590000    1.0115681   -6.6121222    579.85795  0.030390878  0.030519732            2 
 1591000   0.99164894    -6.624332    582.43616  0.030506818  0.030512056            7 
 1592000   0.99610417   -6.5989323    583.49918  0.030543299  0.030504385            4 
 1593000    1.0019338   -6.6218591    580.91106  0.030388735  0.030496818            4 
 1594000   0.97073162   -6.6066167    584.28478  0.030546046  0.030489243            3 
 1595000   0.99885067   -6.5782869    585.42958  0.030586707  0.030481795            2 
 1596000   0.99533397   -6.5786963    583.59826  0.030471922  0.030474266            6 
 1597000    1.0110175   -6.6213677    581.88952  0.030363678  0.030466866            6 
 1598000     1.005883   -6.5807874    583.28491  0.030417444  0.030459302            5 
 1599000   0.97244199   -6.5979633    584.37261  0.030455108  0.030451837            4 
 1600000   0.99610828    -6.623751    583.52589  0.030391974  0.030444286            4 
 1601000    1.0020491   -6.5908716     585.8974  0.030496429  0.030436675            6 
 1602000    1.0061625   -6.5907043    585.29408  0.030446009  0.030429172            3 
 1603000   0.98994455   -6.6458754    583.33246  0.030325039  0.030421589            9 
 1604000   0.99545307   -6.6046585    584.34846  0.030358918   0.03041389            3 
 1605000   0.98929717   -6.6229737    584.39595  0.030342469  0.030406177            7 
 1606000   0.97831539   -6.5825713    584.53424  0.030330751  0.030398502            5 
 1607000    1.0070887   -6.5870713    584.63116  0.030316903  0.030390906            2 
 1608000   0.98782353   -6.6281631    585.52126  0.030344178  0.030383281            4 
 1609000    1.0048622   -6.6086438    584.95422  0.030295951  0.030375594            4 
 1610000   0.99490118    -6.625518    584.48652  0.030252926  0.030367662            4 
 1611000   0.99166007   -6.6009109    585.13079  0.030267473  0.030359797            2 
 1612000    1.0115083   -6.6021103    585.90052  0.030288489  0.030352116            9 
 1613000    1.0059851   -6.6096474    585.79168  0.030264087  0.030344366            3 
 1614000   0.99536738   -6.6174786    586.35958  0.030274658  0.030336555            6 
 1615000   0.97095716   -6.5810376    587.29604  0.030304233  0.030328778            4 
 1616000   0.97104575   -6.6435706    586.08603  0.030223083  0.030321025            4 
 1617000   0.99631362   -6.6256183    586.27405  0.030214082  0.030313271            3 
 1618000     1.000937   -6.6531488    586.18304  0.030190721  0.030305384            3 
 1619000   0.99907596   -6.6107991    588.03872  0.030267589  0.030297575            4 
 1620000   0.98307996   -6.5373623    589.00991  0.030298864  0.030289793            4 
 1621000   0.97439452   -6.6032671    587.80017  0.030217981  0.030282047            6 
 1622000   0.98685983   -6.6434349    588.27293   0.03022364  0.030274423            8 
 1623000   0.97973058     -6.61742     589.2828   0.03025687  0.030266851            6 
 1624000   0.99788786   -6.5744901     590.4865  0.030300005  0.030259325            4 
 1625000    1.0147838   -6.6145748     587.4101  0.030123595  0.030251795            7 
 1626000    1.0019347   -6.6088083    590.66734  0.030272004  0.030244361            4 
 1627000    1.0053707   -6.6127493    588.84509  0.030160064   0.03023681            5 
 1628000    1.0110669   -6.6286741    590.37845  0.030220027  0.030229386            3 
 1629000    0.9971501   -6.5845459      592.465  0.030308216  0.030221863            2 
 1630000   0.98357519   -6.6656163    588.76541  0.030100481  0.030214328            4 
 1631000    1.0035271   -6.6191019    590.21929  0.030156309  0.030206734           18 
 1632000   0.99289464    -6.601684    591.78246   0.03021765  0.030199157            3 
 1633000   0.98508584   -6.6238251       589.34  0.030074505  0.030191528            3 
 1634000   0.99597971   -6.6014855    592.74721  0.030229866   0.03018396            8 
 1635000    1.0089072   -6.6131453    593.00649  0.030224592  0.030176324            6 
 1636000   0.98290526   -6.5873389    590.60012  0.030083543  0.030168574            3 
 1637000    1.0044797   -6.6338453    589.93825  0.030031473   0.03016082            3 
 1638000   0.98579437   -6.6133474    592.48564  0.030142737  0.030153144            3 
 1639000    1.0149835   -6.6518532    591.14276  0.030056069  0.030145392            5 
 1640000   0.99862965   -6.6281278    591.19495  0.030040394  0.030137583            2 
 1641000   0.97932487   -6.6541193    589.73898  0.029948151  0.030129917            6 
 1642000   0.95473102   -6.6153122    590.78857   0.02998318   0.03012209            6 
 1643000   0.99653489   -6.6196001    591.87164  0.030019864  0.030114326            5 
 1644000   0.97672998    -6.603747     592.5142  0.030034175  0.030106538            4 
 1645000   0.98936392   -6.6351447     591.2077  0.029949732  0.030098572            4 
 1646000   0.98482738   -6.6349499    591.42965  0.029942773  0.030090474            3 
 1647000   0.99964051   -6.6555768    590.11462  0.029858056  0.030082408            5 
 1648000   0.99331724   -6.6854651    589.32044   0.02979978  0.030074188            7 
 1649000   0.99471221   -6.6445076    592.27405  0.029930971  0.030065957            4 
 1650000   0.98630201   -6.6288766      593.091  0.029954091  0.030057889            8 
 1651000   0.96711467   -6.6333303    592.25876  0.029893941  0.030049769            8 
 1652000   0.99955066   -6.6070346    592.90444  0.029908416  0.030041616            3 
 1653000   0.99429418   -6.5888683    594.64048  0.029977842   0.03003372            5 
 1654000    1.0115077    -6.596517    593.22892  0.029888599  0.030025842            3 
 1655000    0.9751186   -6.6314465    593.81152  0.029899875  0.030017817            6 
 1656000     1.003974   -6.5993897    592.53373  0.029817519  0.030009851            2 
 1657000   0.97152403   -6.5962132    592.92572  0.029819238  0.030001793            5 
 1658000   0.99712784   -6.6235914    593.73945  0.029842151  0.029993662            5 
 1659000    1.0032518   -6.6320808    594.67328  0.029871071  0.029985543            6 
 1660000   0.96585708   -6.6449052    592.71375  0.029754707  0.029977444            3 
 1661000   0.98804279   -6.6167276    595.38459   0.02987079  0.029969302            2 
 1662000   0.95595649   -6.6590451    592.83392  0.029724926  0.029961195            3 
 1663000   0.96451893   -6.6122989    594.68867  0.029799993  0.029953029            5 
 1664000   0.98685611    -6.650698    595.25779  0.029810586  0.029944854           12 
 1665000    1.0043821   -6.6768337    594.54542  0.029757028  0.029936575            9 
 1666000   0.95805466   -6.6687848    594.18959  0.029721368  0.029928218            3 
 1667000   0.99010374   -6.6331912    594.60416  0.029724263  0.029920015            3 
 1668000   0.98532322   -6.6161341       594.52  0.029702238  0.029911753           12 
 1669000    0.9852603   -6.6634047    595.39949  0.029728355  0.029903396            4 
 1670000   0.98055609   -6.6414214    591.48067  0.029515003   0.02989496            6 
 1671000   0.99630687    -6.617951    597.26005   0.02978556  0.029886621            2 
 1672000    1.0140381   -6.6759785    594.11911    0.0296112  0.029878381            7 
 1673000   0.97042076   -6.6441312    594.57234  0.029616076  0.029870065            3 
 1674000   0.99276422   -6.6339059    595.71603  0.029655318  0.029861942            5 
 1675000   0.97885446   -6.6488522     594.6817  0.029586154  0.029853637            5 
 1676000   0.99028456   -6.6388503    595.98481  0.029633294  0.029845398            4 
 1677000   0.97814849   -6.6103656    598.54036  0.029742614  0.029837143            9 
 1678000   0.97414129   -6.6300821     596.9689  0.029646846  0.029828865            3 
 1679000   0.97622761    -6.657116    595.54746  0.029558639  0.029820573            3 
 1680000    0.9613847   -6.6446299    597.14218  0.029620148  0.029812331            3 
 1681000   0.98026447   -6.6232327    596.66467  0.029578855  0.029804073            4 
 1682000   0.98228187   -6.6588728     597.1117  0.029583418  0.029795792            6 
 1683000   0.95807193   -6.6644371    597.35766  0.029578018  0.029787606            4 
 1684000   0.97390516   -6.6179353    596.90326  0.029537968   0.02977931            4 
 1685000   0.97852994   -6.6657577     596.2668  0.029488961  0.029770964            3 
 1686000   0.98476446   -6.6561256    597.03647  0.029509513  0.029762516            3 
 1687000   0.98094998   -6.6473609    598.95963   0.02958702  0.029754081           10 
 1688000   0.97978456   -6.6639818    598.02123  0.029523165  0.029745587            2 
 1689000   0.95994444   -6.6563724    597.66687  0.029488202  0.029737184            5 
 1690000   0.99514227   -6.6802133    598.35749  0.029504807  0.029728716            5 
 1691000   0.96507891   -6.6356476    598.44149  0.029491499  0.029720214            5 
 1692000   0.97003015   -6.6464006    597.84548  0.029444715  0.029711847            5 
 1693000   0.98482074   -6.6582162    598.67186  0.029467999  0.029703377            8 
 1694000   0.97633443   -6.6722493    596.83615  0.029360298   0.02969484            5 
 1695000   0.96643566   -6.6710084    598.77709  0.029438402  0.029686401            4 
 1696000   0.96461267   -6.6723135    600.32545  0.029497123  0.029678003            2 
 1697000    0.9894087   -6.6788553    598.96264  0.029412819  0.029669659            2 
 1698000   0.98803919   -6.6416463     598.9324  0.029394013  0.029661268            3 
 1699000   0.96818572   -6.6550805    601.27024  0.029491379  0.029652913            3 
 1700000   0.98005936   -6.6916183    599.06613  0.029365987  0.029644464            5 
 1701000   0.97267857   -6.6503008    601.10998  0.029448852  0.029636029            2 
 1702000   0.97246971   -6.6722655    599.37009  0.029346362    0.0296277            3 
 1703000   0.96996075   -6.6612933     600.0558  0.029362683  0.029619374            2 
 1704000   0.96297267   -6.6427582    601.25235  0.029403968  0.029611055            4 
 1705000   0.95081966   -6.6448417    602.32783  0.029439288  0.029602698            5 
 1706000   0.99134886   -6.6787608    600.90179  0.029352373  0.029594493            2 
 1707000   0.99507791   -6.6542598    601.80728  0.029379383  0.029586188           12 
 1708000   0.98838362   -6.6902587     601.1147  0.029328391  0.029577947            3 
 1709000   0.97191924   -6.6332777    603.05209    0.0294057  0.029569472            2 
 1710000   0.97452542   -6.6894836    600.67547  0.029272684  0.029561073            4 
 1711000   0.99249946   -6.6555726     602.7029   0.02935432  0.029552728            5 
 1712000   0.96336523    -6.677585    601.42486  0.029274964  0.029544333            9 
 1713000   0.96339843   -6.6733894    603.34346  0.029351209  0.029535913            3 
 1714000   0.98455126   -6.6719343    601.43464   0.02924128  0.029527329            4 
 1715000   0.97764051   -6.6761487    605.28126   0.02941114  0.029519001            3 
 1716000   0.96508472   -6.6430383    603.13354  0.029289702  0.029510686           11 
 1717000   0.97951161    -6.623694    606.00395  0.029411957  0.029502317           10 
 1718000   0.99862902    -6.690971    603.66885   0.02928157   0.02949399            8 
 1719000   0.99663272   -6.6680281    605.22439  0.029339945  0.029485722            5 
 1720000   0.99199495   -6.6614311    605.75231  0.029348465  0.029477607            8 
 1721000   0.97251987   -6.6724697    604.90508  0.029290388  0.029469449            4 
 1722000   0.98851722   -6.6600438    605.55139  0.029304655  0.029461328            8 
 1723000   0.98382262   -6.6290477    607.82863  0.029397786  0.029453095           14 
 1724000   0.97017493    -6.697628     604.6686  0.029227987  0.029444871            9 
 1725000   0.97299532   -6.6409696    605.58676  0.029255399  0.029436796            2 
 1726000   0.96535286   -6.7154124     604.8518  0.029202964  0.029428721            2 
 1727000   0.97575256   -6.6698052    606.69857  0.029275167  0.029420566            3 
 1728000   0.98316355   -6.6653937    606.12406   0.02923052  0.029412476            7 
 1729000   0.96705786   -6.6390851    607.53951  0.029281835  0.029404506            6 
 1730000   0.97602541   -6.7112177    604.85821  0.029135752  0.029396375            3 
 1731000   0.97051288   -6.6702972    606.85212   0.02921491  0.029388194           11 
 1732000   0.99096843   -6.6380056     607.0422  0.029207188  0.029380143            6 
 1733000   0.96471386   -6.6288759    608.46015  0.029258519  0.029372153            6 
 1734000   0.96203255   -6.6534857    607.37865   0.02918967  0.029364196            5 
 1735000   0.98027154   -6.6764035    606.70311  0.029140399  0.029355945            3 
 1736000   0.96756801   -6.6451784    608.19024     0.029195  0.029347797            7 
 1737000   0.99431987   -6.6620291    608.82353  0.029208575  0.029339688            9 
 1738000   0.97956696   -6.6928925    605.78672   0.02904616  0.029331455            5 
 1739000   0.98403937   -6.6829456    606.35287  0.029056588  0.029323101            2 
 1740000   0.96163508   -6.6753913    607.15183  0.029078153  0.029314826            5 
 1741000   0.98145353   -6.6989156    607.95524  0.029099906  0.029306467            5 
 1742000   0.97931867    -6.716786    606.90358  0.029032892  0.029298119            3 
 1743000   0.95700646   -6.6527418    608.59053  0.029096889   0.02928978            2 
 1744000   0.98801496   -6.6740255    608.84153  0.029092199  0.029281507            4 
 1745000   0.97587499   -6.7206964    607.88127  0.029029669  0.029273185            5 
 1746000   0.98153462   -6.7061797    607.29827  0.028985217   0.02926478            4 
 1747000   0.98175386   -6.6858695    609.09554  0.029054357  0.029256453            2 
 1748000   0.94476675   -6.6909681    609.00042  0.029033201  0.029248145            8 
 1749000   0.96237963   -6.6702389    611.12624  0.029117888  0.029239819            6 
 1750000   0.97266904   -6.6685843    609.33541  0.029015972  0.029231621            5 
 1751000   0.95251701   -6.6797128    609.09534  0.028987975  0.029223343            5 
 1752000   0.97987839     -6.64772    611.29127  0.029075878    0.0292151            5 
 1753000   0.96146973   -6.6421371    613.03252  0.029142067  0.029206934            3 
 1754000   0.97831669    -6.692959     612.1101  0.029081628  0.029198839            7 
 1755000   0.97389997   -6.6564645    611.52303  0.029037181  0.029190676            3 
 1756000   0.93149989   -6.6459174    612.19571  0.029052568  0.029182553            3 
 1757000   0.96489961   -6.7033627    611.31946  0.028994472  0.029174308            5 
 1758000   0.97085824   -6.6169381     612.4699  0.029032513  0.029166129            6 
 1759000   0.96619652   -6.6600134    612.26452  0.029006278  0.029157982            3 
 1760000   0.97697912   -6.7085097    610.76899  0.028918986  0.029149807            6 
 1761000   0.97806199   -6.6677148     612.6369  0.028990957  0.029141651            4 
 1762000   0.97867268   -6.6775476    612.09585  0.028948915  0.029133561            7 
 1763000   0.98594847   -6.6448277    613.05045  0.028977616  0.029125496            3 
 1764000   0.98745277   -6.6926506    611.82749  0.028903415  0.029117188            2 
 1765000   0.98440419   -6.6903981    611.52791  0.028872895  0.029108766            6 
 1766000   0.95168393   -6.7362984    609.77285  0.028773728  0.029100297            2 
 1767000   0.95002307   -6.6673033    612.15969   0.02887001   0.02909189            3 
 1768000   0.94735175   -6.7013621    613.43624   0.02891385  0.029083545            4 
 1769000    0.9607379   -6.7200984    610.38789  0.028753905  0.029075175            8 
 1770000   0.97160678   -6.6813218    614.13323  0.028913994  0.029066722            6 
 1771000   0.95806281   -6.6582573    614.29764  0.028905404  0.029058535            3 
 1772000   0.96140782   -6.6590279    615.11434  0.028927499  0.029050176            3 
 1773000   0.97235621   -6.6621147    613.96194  0.028857019    0.0290418            3 
 1774000   0.94894755   -6.6319708    617.69918  0.029016309  0.029033417            4 
 1775000   0.97074111    -6.696046    614.62718  0.028855736  0.029025121            4 
 1776000   0.96013487   -6.6920739    613.36371  0.028780204  0.029016769            5 
 1777000    0.9729826    -6.666506    614.44698  0.028814809  0.029008375            4 
 1778000   0.94278279   -6.6862514    613.93846  0.028774768  0.029000007           10 
 1779000   0.96594806   -6.6847777    614.39016  0.028779753  0.028991554            3 
 1780000   0.97607294   -6.7106915    613.14198  0.028705149  0.028983302            5 
 1781000   0.96206514   -6.7129492    614.67611  0.028760814  0.028975012            4 
 1782000   0.99997518   -6.7244254    613.74692  0.028701221  0.028966716            4 
 1783000   0.97607999   -6.6991967    615.50379  0.028767236  0.028958341            4 
 1784000   0.96310568   -6.6740562    616.77606  0.028810541  0.028950046            5 
 1785000   0.95681929   -6.7388734    614.25425  0.028676669  0.028941749            6 
 1786000   0.95060636   -6.6524795    616.38309  0.028759942  0.028933328            3 
 1787000   0.96173589   -6.6813222    618.91233  0.028861795  0.028925074            3 
 1788000   0.95576024   -6.6671748    616.78085  0.028746311  0.028916774            2 
 1789000   0.97253211   -6.7294688    614.28983  0.028614209  0.028908471            5 
 1790000   0.96250167   -6.7068391     615.8018  0.028668613  0.028900109            3 
 1791000   0.94820487   -6.6718171    619.14384  0.028808107  0.028891812            9 
 1792000   0.95499092   -6.6886024    616.90504   0.02868792    0.0288836            2 
 1793000   0.98490322   -6.6836519    615.91226  0.028625779  0.028875227            3 
 1794000   0.95681835    -6.700383    616.81186   0.02865161  0.028866922            2 
 1795000   0.96076012   -6.6829399    617.03515  0.028646014  0.028858649            4 
 1796000   0.97812356    -6.697978     617.5188  0.028652506  0.028850328            7 
 1797000   0.95945982   -6.6727658    619.34783   0.02872138  0.028842014            3 
 1798000   0.96743516    -6.723288    616.15639  0.028557489   0.02883368            4 
 1799000   0.95298878   -6.6629736    617.62292  0.028609548  0.028825405            5 
 1800000   0.93985751   -6.7288224    618.16264  0.028618641  0.028816989            9 
 1801000   0.95622462   -6.6964839    618.09156  0.028599461  0.028808647            7 
 1802000   0.95164724   -6.7473134    615.63066  0.028469786    0.0288002            6 
 1803000   0.97520358   -6.7148179     618.5362  0.028588288  0.028791766            9 
 1804000   0.95515441   -6.7456755    617.05635  0.028504081  0.028783447            5 
 1805000      0.96371      -6.7504    618.75979  0.028566934  0.028775072            6 
 1806000   0.95840425   -6.7143275    618.47058  0.028537771  0.028766644            5 
 1807000   0.94666703   -6.7518453     617.8681  0.028494194  0.028758233            3 
 1808000   0.94966804   -6.7020181    618.96267  0.028528884   0.02874972            4 
 1809000   0.96926513   -6.7158065    618.05375  0.028471243  0.028741222            3 
 1810000   0.94518184   -6.7242893    618.37241  0.028470185  0.028732847            5 
 1811000   0.95542146   -6.7294503    618.77309  0.028472901  0.028724371            7 
 1812000   0.96783687   -6.6976603    619.09187  0.028471849   0.02871591            3 
 1813000   0.94692903   -6.7090622    620.94686  0.028541408  0.028707427           11 
 1814000   0.95898559   -6.7347016    618.30917  0.028404501  0.028698953            9 
 1815000   0.93521932   -6.6945862    618.36228  0.028391289  0.028690557            5 
 1816000    0.9569797   -6.6956338    618.94463  0.028402379  0.028682194            6 
 1817000   0.98968379   -6.7290914    621.50116  0.028503997  0.028673847            2 
 1818000   0.95619244   -6.7013972    620.27834  0.028432267   0.02866545            4 
 1819000   0.96110754     -6.75105    619.40881  0.028376801  0.028656933            5 
 1820000     0.965466   -6.6821457    621.71103  0.028466622   0.02864854            3 
 1821000   0.96650469    -6.696936    622.03774  0.028465941  0.028640107           11 
 1822000   0.97270144   -6.7310478    622.11424  0.028453817  0.028631636            6 
 1823000   0.95249537    -6.680637    621.13095   0.02839326  0.028623139            5 
 1824000   0.96590318   -6.7223647     620.1814  0.028334311  0.028614708            4 
 1825000   0.95607639   -6.7132793     622.5232  0.028425717  0.028606388            6 
 1826000   0.95391814   -6.7517001     621.7586  0.028375255  0.028598107            4 
 1827000   0.95690885   -6.7327456     624.0163  0.028462703  0.028589696            3 
 1828000   0.96563676   -6.7184677    621.98581  0.028354568  0.028581181            7 
 1829000   0.95592124    -6.758109     621.0434  0.028296127  0.028572612            8 
 1830000   0.97623979   -6.7103436     622.4783  0.028346006  0.028564169            9 
 1831000   0.95312025   -6.7127094    622.97673   0.02835321  0.028555932            5 
 1832000   0.94771194   -6.7116818    621.83446  0.028285774  0.028547519            7 
 1833000   0.98010508   -6.7408107    621.55661  0.028257711  0.028539088           10 
 1834000   0.98008644   -6.7186661    622.55944   0.02828787  0.028530632            7 
 1835000    0.9656134   -6.6892114    623.92979  0.028334686  0.028522321            4 
 1836000   0.96765927   -6.7077538    625.02919  0.028369153   0.02851393           10 
 1837000   0.96950978   -6.7050289    624.12729  0.028312797  0.028505597            5 
 1838000   0.97132015   -6.6880028    624.16618  0.028299156  0.028497205            8 
 1839000   0.95248222   -6.7123578    623.85399  0.028269621  0.028488849            8 
 1840000   0.93144447   -6.6895465    625.44872  0.028326482  0.028480582            3 
 1841000   0.92207261   -6.6799853    626.50198  0.028358772  0.028472445            7 
 1842000   0.95411542   -6.7087914    623.94656  0.028227767  0.028464033           10 
 1843000   0.95496069   -6.6998156    624.80802  0.028251403  0.028455509            5 
 1844000   0.94582619   -6.7269384    624.75553   0.02823371  0.028446965            4 
 1845000   0.93397729   -6.7009714    624.12022  0.028189712  0.028438496            3 
 1846000   0.94359484   -6.7355745    624.30628   0.02818284  0.028429954            3 
 1847000   0.94378807   -6.6993714    626.48138  0.028265718  0.028421437            5 
 1848000    0.9698115   -6.6948575    624.64194  0.028167476  0.028412903            5 
 1849000   0.96455384   -6.7197542    626.37989   0.02823057  0.028404395            5 
 1850000   0.94655349   -6.7000041    624.73645  0.028141281  0.028395889            4 
 1851000   0.96595212   -6.6718252    626.93348   0.02822499  0.028387355            2 
 1852000   0.94240662   -6.7085948    624.93149  0.028119667  0.028378867            4 
 1853000   0.95959515   -6.7071503    625.36847  0.028124144  0.028370374            7 
 1854000    0.9840481   -6.7151571     623.9857  0.028046822  0.028361952            3 
 1855000   0.95012294   -6.6556697    626.80915  0.028158542  0.028353437            5 
 1856000   0.95706871   -6.7073823    626.31075  0.028120993   0.02834498            4 
 1857000   0.95345844   -6.7351913    624.64907  0.028031281  0.028336634            3 
 1858000   0.96880415   -6.7016666    627.36295  0.028137915    0.0283282            2 
 1859000   0.93129896   -6.7130916    627.40554  0.028124688  0.028319789            6 
 1860000   0.95629055   -6.6904676    626.48764  0.028068443  0.028311371            5 
 1861000   0.95774264   -6.7500881    627.32294  0.028090764   0.02830295            4 
 1862000   0.96707706   -6.7487861    625.86578  0.028010463  0.028294345            3 
 1863000   0.97299902   -6.7408341    625.27681  0.027969083   0.02828567            4 
 1864000   0.96396691   -6.7452991    627.31775  0.028045322  0.028276954            4 
 1865000   0.94832946   -6.7278856    626.69236   0.02800234  0.028268313            5 
 1866000   0.95749486   -6.7335799    626.23642  0.027966971  0.028259667            4 
 1867000   0.95732517   -6.7056937    627.41421  0.028004562    0.0282511            3 
 1868000   0.96670668   -6.7121739    626.51898  0.027949633  0.028242397            6 
 1869000   0.92200041   -6.7712396    625.08348  0.027870674  0.028233678            5 
 1870000   0.95433345   -6.7405152    626.83659  0.027933894  0.028224864            3 
 1871000   0.95656616   -6.7661181    626.88758  0.027921235  0.028216159            7 
 1872000   0.95340012   -6.7448386    627.18658  0.027919631  0.028207542            4 
 1873000   0.94721161   -6.7297394     627.2246  0.027906416  0.028198746            7 
 1874000   0.95962091    -6.736667    627.95343  0.027923934  0.028189943            3 
 1875000   0.97320475   -6.7066044    627.55579  0.027891368  0.028181251            4 
 1876000   0.94274342   -6.7257823    628.50877  0.027918833  0.028172605            3 
 1877000   0.96142814   -6.7175992     630.0299  0.027971493  0.028164001            4 
 1878000   0.94358009   -6.7049801    628.64957  0.027895348  0.028155399            6 
 1879000   0.97735997   -6.6952909    631.68079  0.028014936  0.028146871            6 
 1880000   0.94993758   -6.7234142    630.16486  0.027932839  0.028138175            8 
 1881000   0.95212082   -6.7464078    627.30994  0.027791509  0.028129487            3 
 1882000   0.93340058   -6.7230386    627.39398  0.027780463  0.028120792            3 
 1883000   0.94361848   -6.7500958    628.82569  0.027829071  0.028112111           10 
 1884000      0.95868   -6.7356663    628.14857  0.027784349  0.028103244            6 
 1885000   0.96112025   -6.7465926    627.95553  0.027761075  0.028094474            3 
 1886000   0.92815064    -6.760187    628.81701  0.027784421   0.02808568            5 
 1887000   0.94944117   -6.7105637    629.96801  0.027820527  0.028076976            3 
 1888000   0.94043189   -6.7542769    626.44874  0.027650456  0.028068238            4 
 1889000   0.95197911   -6.7317731    629.15062  0.027755012  0.028059455            3 
 1890000   0.95038843   -6.7512275    629.54199  0.027757583  0.028050765            7 
 1891000   0.93299063    -6.691552    631.11007  0.027812007   0.02804215            7 
 1892000    0.9653553    -6.704685    631.11637  0.027797585  0.028033442            3 
 1893000   0.93595745   -6.7322291    628.71397  0.027677143  0.028024708            6 
 1894000   0.92663845   -6.7032601    630.85906  0.027756911  0.028016037            5 
 1895000   0.95029348   -6.7735591    629.39054  0.027677684  0.028007313            6 
 1896000   0.95930171   -6.7161261    631.20672  0.027742911  0.027998686            4 
 1897000   0.94863077   -6.7420991     628.7586  0.027620743  0.027989991            6 
 1898000   0.94834122   -6.7575829    628.01435  0.027573514  0.027981165            7 
 1899000   0.95935424   -6.7570808    628.70846  0.027589453  0.027972202           10 
 1900000   0.94154586   -6.7289321    631.36375  0.027691393  0.027963351            4 
 1901000   0.94243008    -6.763458    629.06127  0.027575893  0.027954566            5 
 1902000   0.94403399   -6.7214578    630.02027  0.027603412  0.027945752            4 
 1903000   0.95087556   -6.7210154    631.60998  0.027658521  0.027936946            3 
 1904000   0.93135583   -6.7114262    631.95091  0.027658916   0.02792812           16 
 1905000   0.94957496   -6.7381292    631.46322  0.027623063  0.027919383            2 
 1906000   0.96721382   -6.7752116    630.23146  0.027554716  0.027910472            8 
 1907000   0.93981828    -6.754663    631.47571  0.027594639  0.027901644            5 
 1908000   0.95467571     -6.77272    630.60782   0.02754227  0.027892873           10 
 1909000   0.97006791   -6.7271297    631.94478  0.027586205  0.027884135           12 
 1910000   0.95817505   -6.7437099     633.2973  0.027630772   0.02787555            9 
 1911000   0.93883395   -6.7593558    631.62778   0.02754351  0.027866783            6 
 1912000   0.94389642   -6.7632475    631.46211  0.027521884  0.027858027            5 
 1913000   0.95772082    -6.728935    633.70869  0.027605362   0.02784928            5 
 1914000   0.95562264   -6.7349772    630.81895  0.027465123  0.027840521           12 
 1915000   0.94944969   -6.7321734    633.59194  0.027571451  0.027831887            3 
 1916000   0.92813484   -6.7427545    632.05641  0.027490275   0.02782317            7 
 1917000   0.94536832   -6.7627252     631.5619  0.027454438  0.027814401            5 
 1918000   0.96314136   -6.7499252    632.06738  0.027462086  0.027805572            6 
 1919000   0.93024129   -6.7076205    633.73983  0.027520403  0.027796839            3 
 1920000   0.93030429   -6.7630973    630.97171  0.027385925  0.027788056            4 
 1921000   0.95144548   -6.7660235    633.26345  0.027471085  0.027779248           10 
 1922000    0.9211429   -6.7358754    633.16953   0.02745272  0.027770436            4 
 1923000   0.93281722   -6.7566515    634.25816   0.02748562  0.027761688            4 
 1924000   0.93975121   -6.7731069    632.90211    0.0274126  0.027752832            4 
 1925000    0.9455796   -6.7368909    635.68917  0.027519012  0.027744112           11 
 1926000   0.97626097   -6.7522479    633.79801  0.027422898  0.027735269            5 
 1927000   0.95115854   -6.7441493    634.40435  0.027434888  0.027726564            4 
 1928000    0.9485514    -6.768948    633.18406  0.027367914   0.02771782           12 
 1929000   0.93632685   -6.7062683    636.29644  0.027488182  0.027709145            6 
 1930000   0.93295544   -6.7423196    636.04824  0.027463223  0.027700426            3 
 1931000   0.95559728   -6.7701543    636.95157  0.027487984  0.027691677            9 
 1932000   0.96488017   -6.7215323    636.05843  0.027435233  0.027682962            6 
 1933000     0.914933   -6.7398159    635.45665  0.027395096  0.027674281            8 
 1934000   0.93937082   -6.7554267    634.53489  0.027341214  0.027665481            5 
 1935000   0.94140473   -6.7437276    637.34297  0.027448018  0.027656736            8 
 1936000   0.93904355    -6.722689    636.07057   0.02737907  0.027647949            5 
 1937000   0.96457935   -6.7566269    637.34432  0.027419735  0.027639203            5 
 1938000   0.95570563   -6.7664139    635.61296  0.027331139  0.027630474            8 
 1939000   0.93384586   -6.7400461    635.72384  0.027321808  0.027621733            3 
 1940000   0.93109657   -6.7356245    638.06529  0.027408303  0.027613114           10 
 1941000   0.93514814   -6.7616036    637.12963  0.027354011  0.027604372           14 
 1942000   0.95701563   -6.7705345    635.76065  0.027281181  0.027595612            3 
 1943000   0.98436086   -6.7625354    637.24272  0.027330705  0.027586964            4 
 1944000   0.94797435   -6.7771263    637.39931  0.027323359  0.027578241            4 
 1945000   0.96059287   -6.7474964    639.22179  0.027387395  0.027569642           12 
 1946000   0.93910521   -6.7671281    638.59569  0.027346509  0.027561085            6 
 1947000   0.91654396   -6.7340884    636.79704   0.02725548  0.027552426            5 
 1948000    0.9430028   -6.7529809    637.01607  0.027250858  0.027543893            4 
 1949000   0.95883361   -6.7645035    638.24639  0.027289481  0.027535298            7 
 1950000   0.92732612   -6.7312089    639.32976  0.027321785  0.027526694            5 
 1951000   0.94329701   -6.7568883    637.17732  0.027215843  0.027518066            6 
 1952000   0.94522508   -6.7275814    641.32358   0.02737891  0.027509489            5 
 1953000   0.94268753   -6.7392158    639.40319  0.027282949  0.027500979            7 
 1954000   0.94925832   -6.7746536    639.49345  0.027272836    0.0274925            3 
 1955000   0.92393476    -6.757925    640.34089  0.027295008  0.027483974            5 
 1956000    0.9544249   -6.7756563    639.26749  0.027235322  0.027475265            8 
 1957000   0.93063467   -6.7601514    638.01627  0.027168126  0.027466509            7 
 1958000    0.9476075   -6.7412233     639.3327  0.027210278  0.027457844            2 
 1959000   0.95526203   -6.7230949    640.65653  0.027252703  0.027449262            3 
 1960000   0.93744604   -6.7468726    641.25155  0.027264096  0.027440684            6 
 1961000   0.94295599   -6.7406689    638.37829  0.027128093  0.027432038            5 
 1962000   0.94785797   -6.7789985    641.20672    0.0272344  0.027423522            3 
 1963000   0.92682737   -6.7646649    640.33581  0.027183554  0.027414853            9 
 1964000   0.93371458    -6.745801    639.45634  0.027132397  0.027406309            4 
 1965000   0.93063395   -6.7829289    639.49026  0.027120028  0.027397736            2 
 1966000   0.93524279   -6.7924179    639.70227   0.02711522  0.027389116            3 
 1967000   0.95185046   -6.7734796    640.16124   0.02712088  0.027380461            4 
 1968000   0.93740402   -6.8042926    641.06252  0.027145263  0.027371864            3 
 1969000   0.95305705   -6.8011299    640.59511  0.027111694  0.027363226            3 
 1970000   0.93573875   -6.7388732    641.72256  0.027145624  0.027354547            8 
 1971000    0.9588942    -6.771253     639.3258  0.027030518  0.027345957            8 
 1972000   0.92790227   -6.7769345    641.50751  0.027109005  0.027337327            7 
 1973000    0.9228294   -6.7787717    644.21746  0.027209725  0.027328746            5 
 1974000   0.93815506   -6.7329042    642.00622  0.027102593  0.027320117            4 
 1975000   0.90868921   -6.7796858    639.98522  0.027003596  0.027311449            7 
 1976000   0.93063112   -6.7583733    640.76062  0.027022631  0.027302749            5 
 1977000   0.94640485   -6.7656035    640.03206  0.026978253  0.027294164            5 
 1978000   0.93162126    -6.741736    642.51937  0.027069404  0.027285655            5 
 1979000   0.92551995   -6.7943697    641.76414  0.027023924  0.027277067            7 
 1980000   0.94747262   -6.7800679    641.67995  0.027006732  0.027268532            7 
 1981000    0.9355173   -6.7567034    645.03338  0.027134166  0.027259969            3 
 1982000    0.9184378   -6.8094896    642.71478   0.02702299  0.027251343            9 
 1983000   0.91829138   -6.7970985    641.28505  0.026949279  0.027242693            8 
 1984000    0.9636132   -6.7834126    643.75522   0.02703945  0.027234073            4 
 1985000   0.94290627   -6.7852398    643.22042  0.027003376  0.027225436            3 
 1986000   0.93433549   -6.7945387    642.33193  0.026952498  0.027216747            4 
 1987000   0.93190345   -6.8275742    641.89736  0.026920708  0.027208134            3 
 1988000   0.93940657   -6.7576055    643.48435   0.02697369  0.027199589            4 
 1989000   0.93433808   -6.7826983     643.8719  0.026976366  0.027191102            8 
 1990000   0.94363628   -6.7737524    643.94519  0.026965879  0.027182582            7 
 1991000   0.93798294   -6.7337701    646.32579  0.027051975  0.027174062            6 
 1992000   0.93736673   -6.7792326     645.2728  0.026994344   0.02716557            5 
 1993000   0.93496365   -6.7804435    642.57272  0.026867901   0.02715704            4 
 1994000   0.93574608   -6.7887769    643.46529  0.026891729  0.027148598            3 
 1995000   0.93186827   -6.7945339    643.63178  0.026885204   0.02714012            5 
 1996000   0.93411307   -6.7616575    643.98867  0.026886634  0.027131694            4 
 1997000    0.9522709   -6.7824265    645.09526  0.026919348  0.027123202           15 
 1998000   0.94056191     -6.79883    643.90742  0.026856332  0.027114681            3 
 1999000   0.90473194   -6.7691963    645.37533  0.026904091  0.027106206            3 
 2000000   0.92496057    -6.725465    646.34336  0.026930973  0.027097884            5 
 2001000   0.92999341   -6.7740817    646.67901  0.026931493  0.027089529            5 
 2002000   0.94119432   -6.7816947    646.91158  0.026927721  0.027081189            4 
 2003000   0.92291198   -6.7787513    648.37708  0.026975249  0.027072828           16 
 2004000   0.94201824   -6.7833784    646.97012  0.026903282  0.027064441            3 
 2005000   0.94068964   -6.7669294    647.12663  0.026896369  0.027056068            4 
 2006000    0.9539969   -6.8080337    646.63111  0.026862376  0.027047705            5 
 2007000    0.9271846   -6.8025685    646.88406  0.026859494  0.027039247            6 
 2008000    0.9518502   -6.7931529    647.02433  0.026851939  0.027030777            6 
 2009000   0.91996943   -6.8076931    645.06763   0.02675741  0.027022252            9 
 2010000   0.93930724    -6.777372    645.37377   0.02675679  0.027013801           13 
 2011000   0.91821369   -6.7490955    647.59737  0.026835628  0.027005391            4 
 2012000   0.94774368   -6.7988104    646.07932  0.026759415  0.026996868            5 
 2013000    0.9156414   -6.7870686    647.14877  0.026790394  0.026988356            4 
 2014000   0.93676306   -6.8103742    646.67804  0.026757615  0.026979761            5 
 2015000   0.93169796   -6.8071713    648.24819  0.026809272  0.026971246           12 
 2016000   0.91040198   -6.7912114    646.51729  0.026724425  0.026962763            7 
 2017000   0.93467305   -6.7854753    647.94837  0.026770301  0.026954288            9 
 2018000   0.93672209   -6.8005556    647.64376  0.026744457  0.026945782            3 
 2019000   0.93249797   -6.7506465    648.54075  0.026768233  0.026937334            6 
 2020000   0.91054972   -6.8213352     648.6627  0.026760012  0.026928878            5 
 2021000   0.91524596   -6.8028248    647.46607   0.02669743  0.026920385            4 
 2022000   0.91550133   -6.7822538    647.78444  0.026697347  0.026911927            6 
 2023000   0.93432208   -6.7472249    649.28764  0.026746072  0.026903559            2 
 2024000    0.9213733     -6.77399    647.82532   0.02667265  0.026895194            3 
 2025000   0.94405157   -6.8084143    647.26415  0.026636385  0.026886863            5 
 2026000   0.92491405   -6.7743265    648.65215  0.026680328  0.026878438            8 
 2027000   0.92587367   -6.8055349    650.39057  0.026738636  0.026870073            7 
 2028000   0.93589193   -6.7774904    650.93096  0.026747656  0.026861715            5 
 2029000   0.93560249    -6.788896    650.02667  0.026697333  0.026853297            7 
 2030000    0.9270961    -6.775793    651.79519  0.026756781  0.026844991            4 
 2031000   0.93378494   -6.8193687    648.40129  0.026604353   0.02683657            4 
 2032000   0.92964769   -6.7588761    650.58028  0.026680622  0.026828172            2 
 2033000   0.92703755   -6.7641864    653.02947  0.026767891  0.026819793            6 
 2034000   0.94173032   -6.7789105    650.48512  0.026650488  0.026811397            8 
 2035000   0.93696364   -6.8210186    648.02704  0.026536734  0.026802928           11 
 2036000   0.94104401   -6.8336317    649.17625  0.026570737  0.026794464            6 
 2037000   0.91823917   -6.7564844    650.68239  0.026619309   0.02678599            4 
 2038000   0.93666204    -6.802747    651.03385  0.026620619  0.026777592            7 
 2039000   0.90992745   -6.7868697    651.61379  0.026631265  0.026769252           13 
 2040000    0.9455304   -6.8154266    651.41101  0.026609927  0.026760865            6 
 2041000   0.90644372    -6.821564    649.84459  0.026532933  0.026752489            7 
 2042000   0.92377732   -6.8016845    652.09441  0.026611754  0.026744106            5 
 2043000   0.93308057   -6.7804455    650.26848  0.026524249  0.026735843            5 
 2044000   0.89729514   -6.8203001    650.18048  0.026507684  0.026727392           10 
 2045000   0.92089527   -6.8023768    651.28745  0.026539831  0.026718965            7 
 2046000   0.90773596   -6.7915943     651.3695  0.026530201  0.026710553            3 
 2047000   0.95107011   -6.8126299    651.96476  0.026541474  0.026702108            9 
 2048000   0.91254456    -6.794598    652.72192  0.026559323  0.026693704            6 
 2049000   0.93447168   -6.7648921    653.93777   0.02659581  0.026685305            5 
 2050000   0.91778392   -6.8128288     651.5713  0.026486638   0.02667688            3 
 2051000    0.9102326   -6.8500258    652.49747  0.026511355   0.02666844            6 
 2052000   0.93503819   -6.7950497    652.03799  0.026479775  0.026660028            6 
 2053000   0.93999631   -6.8373995    650.08077  0.026387432  0.026651543            6 
 2054000   0.90759395   -6.8707794    649.72205  0.026360031  0.026642993            7 
 2055000   0.92824456   -6.7956864    651.10029  0.026403094  0.026634529            8 
 2056000   0.92129282    -6.808928    652.19667   0.02643469  0.026626175            6 
 2057000   0.93260029   -6.8255687    653.66342   0.02648126  0.026617732            7 
 2058000   0.91513787   -6.8306421    651.59541  0.026384654  0.026609348            2 
 2059000    0.9527886   -6.8411177    651.15745  0.026354114  0.026600888           12 
 2060000   0.90767771   -6.7733129    656.04112   0.02653888  0.026592504            6 
 2061000   0.89649284   -6.7966348    654.81098  0.026476265  0.026584145           12 
 2062000   0.92172848   -6.8074143    653.95583  0.026428865  0.026575845            4 
 2063000   0.93701358    -6.815399    652.58666  0.026360747  0.026567461            7 
 2064000    0.9161863   -6.8061664    653.72991  0.026394134  0.026559037            6 
 2065000   0.91669383   -6.8094554    653.64983  0.026378121  0.026550684            7 
 2066000   0.91634612   -6.7957886    654.32422  0.026392555  0.026542404            2 
 2067000   0.93518961   -6.7857428    653.99881  0.026366667  0.026534044            5 
 2068000   0.91328006   -6.8413046    655.71463  0.026423059  0.026525708            9 
 2069000   0.93747786   -6.7914421    656.71179  0.026450451  0.026517385            2 
 2070000    0.9300839    -6.826149    654.39283  0.026344317  0.026509131            8 
 2071000   0.90762565   -6.8108413    653.82511  0.026308752  0.026500798           27 
 2072000   0.93392889    -6.779415    657.23622  0.026433245   0.02649254           10 
 2073000   0.91472779   -6.7917599    657.76942  0.026441929  0.026484375            7 
 2074000     0.914961   -6.7721818    655.98957  0.026357665  0.026476185            4 
 2075000    0.9263397   -6.8135801    655.06412  0.026307796  0.026467931            5 
 2076000   0.92807187   -6.7771764    656.44189  0.026350429  0.026459624            4 
 2077000   0.90942113   -6.8153317    656.98221  0.026359421  0.026451413            3 
 2078000   0.93771885   -6.7670469    658.20839  0.026395909  0.026443085            6 
 2079000   0.94260346   -6.7833596    658.18708  0.026382358  0.026434854           12 
 2080000   0.91881201   -6.8064406    655.40632  0.026258266  0.026426638            4 
 2081000   0.89705597   -6.8182229    655.47934  0.026248572  0.026418324            5 
 2082000    0.9283691   -6.8119019    657.73724  0.026326338  0.026410057            5 
 2083000   0.92678347   -6.7890055    656.61333  0.026268736  0.026401804            5 
 2084000   0.91737039   -6.8247762    657.66292  0.026298102  0.026393583            8 
 2085000   0.93980866   -6.7678983    657.25382  0.026269137  0.026385249            4 
 2086000   0.90226143   -6.8182639    657.99867    0.0262863  0.026376931            7 
 2087000    0.8974487   -6.8127987    658.37839  0.026288867  0.026368595            5 
 2088000   0.90810062   -6.8289264    656.57131  0.026204155  0.026360154            4 
 2089000   0.92672457   -6.8520755    655.87687  0.026163909  0.026351769            8 
 2090000   0.91812488   -6.8072082    657.55861  0.026218445  0.026343386            5 
 2091000   0.92498446   -6.8323787    656.04497  0.026145583  0.026335059            2 
 2092000   0.89127357   -6.8564149    655.53588  0.026112806  0.026326635            8 
 2093000   0.91296412   -6.8343194    657.09332  0.026162339  0.026318193            5 
 2094000    0.9187497   -6.8178552    656.92926  0.026143317  0.026309904           17 
 2095000   0.93539127   -6.8053795    658.39119  0.026188989  0.026301613           21 
 2096000   0.92292527   -6.8164256    657.41152  0.026137544   0.02629331            4 
 2097000   0.91002382   -6.8364837    657.14336  0.026114424  0.026285004            4 
 2098000   0.93338678   -6.8309932    657.77349  0.026127005   0.02627676            7 
 2099000   0.90479935    -6.834811    659.54995  0.026185086  0.026268463           11 
 2100000   0.91745739   -6.7914952    660.41256  0.026206848  0.026260193            3 
 2101000   0.90858543   -6.8048004    659.30218  0.026150332  0.026251953            7 
 2102000   0.92183019    -6.802921    659.47283  0.026144657  0.026243598            5 
 2103000   0.91261504   -6.8293982    659.81546  0.026145802  0.026235356            7 
 2104000   0.90698095   -6.8218535    658.38644  0.026076776  0.026227127            6 
 2105000   0.93220174   -6.8243449    660.14011  0.026133813  0.026218943            4 
 2106000   0.93411125   -6.8053061    660.19126  0.026123427  0.026210869            3 
 2107000   0.92575613   -6.8033559    660.15562   0.02610962  0.026202731            4 
 2108000   0.90238181   -6.8442209    661.18347  0.026137866  0.026194626           13 
 2109000   0.90183297   -6.8051959    661.29233  0.026129774    0.0261864            9 
 2110000   0.88962949   -6.8241844    659.52114  0.026047438  0.026178218            4 
 2111000   0.91626148   -6.8308082     660.6371  0.026079153  0.026170031            4 
 2112000   0.91351157   -6.8377063    660.81508  0.026073827  0.026161912           12 
 2113000     0.929076   -6.8188064    661.33249  0.026081893  0.026153837            4 
 2114000   0.91526966   -6.8119122     661.5865  0.026079569  0.026145731            6 
 2115000   0.90730199   -6.7875583    662.08967  0.026087063  0.026137665           18 
 2116000   0.90836374   -6.8272429    660.09768  0.025996285  0.026129548           12 
 2117000   0.89128071   -6.8188224    661.78325  0.026050356   0.02612133           12 
 2118000   0.89956552   -6.8310032     661.0459  0.026009045  0.026113203            2 
 2119000    0.9162205   -6.8792905     660.1049  0.025959765  0.026105043            3 
 2120000   0.90664223   -6.8068455    662.16733   0.02602859  0.026096874            3 
 2121000   0.90074999   -6.8668879    660.54422  0.025952547  0.026088664            7 
 2122000   0.91353588   -6.8741177    659.92353  0.025915941  0.026080439            8 
 2123000   0.90568253   -6.8533531    660.50412  0.025926524  0.026072294           11 
 2124000   0.90874742   -6.8511913    661.71962  0.025962006   0.02606413            5 
 2125000   0.90983278    -6.819748    661.40169  0.025937321  0.026055943            9 
 2126000   0.90095463   -6.8364811    660.64312  0.025895387  0.026047664            3 
 2127000   0.91471083   -6.8768157    660.86435   0.02589188  0.026039357            6 
 2128000    0.9277336     -6.83453    663.47862  0.025982089  0.026031074            9 
 2129000   0.92679091   -6.8230938    663.17136  0.025957858  0.026022947            6 
 2130000   0.88858474   -6.8414644     663.7845   0.02596966   0.02601486            4 
 2131000   0.91061319   -6.8091172    663.45871  0.025944733  0.026006735            6 
 2132000   0.90057791   -6.8481904    662.86809  0.025909478  0.025998652            2 
 2133000   0.90347022   -6.8147283    664.33905    0.0259548  0.025990453            5 
 2134000   0.90697469   -6.8327655    663.81834  0.025922303   0.02598233            6 
 2135000   0.92541838   -6.8319527    664.21099  0.025925488   0.02597425            6 
 2136000    0.8965299   -6.8513049    664.00264  0.025905222  0.025966085            7 
 2137000   0.88123192   -6.8413742    665.71389   0.02595983  0.025957924            3 
 2138000   0.90139682   -6.8474932    662.92733  0.025839076  0.025949702            3 
 2139000   0.91049425   -6.8628698    663.02401  0.025830762  0.025941428            5 
 2140000   0.90884248   -6.8290103    663.94342  0.025854495  0.025933179            6 
 2141000   0.90658644   -6.8386785    661.39867   0.02574337  0.025924998            5 
 2142000   0.90605414   -6.8165392    662.51585  0.025774815  0.025916698            4 
 2143000   0.89919311   -6.8525501    661.64798   0.02572904  0.025908395            7 
 2144000   0.90103489   -6.8611089    661.82903  0.025724076  0.025900107            3 
 2145000   0.92235655   -6.8601972     663.7361  0.025786173   0.02589181            4 
 2146000   0.91198179   -6.8500007    665.15773  0.025829362  0.025883558            5 
 2147000   0.89349786    -6.864518    663.44295  0.025750774  0.025875335           11 
 2148000    0.9261686    -6.845125    665.06471  0.025801704  0.025867121            3 
 2149000   0.93795005   -6.8331415     665.6129  0.025810955  0.025858903            3 
 2150000   0.92373457   -6.8456195    663.83985  0.025730227  0.025850635            6 
 2151000   0.91337942   -6.8538113    665.22201  0.025771812   0.02584241            7 
 2152000   0.89964091   -6.8244116    665.38602  0.025766187  0.025834136            3 
 2153000   0.91081984   -6.8534956     665.3568  0.025753089  0.025826025            8 
 2154000   0.91028965   -6.8635053     665.1249  0.025732161  0.025817863            3 
 2155000   0.90940533   -6.8583524    664.46097  0.025694547  0.025809629            4 
 2156000   0.90356338   -6.8793567    662.87951  0.025621502  0.025801302            5 
 2157000   0.89574609   -6.8385049    666.35096   0.02574374  0.025793085            4 
 2158000   0.92342582   -6.8480845    664.49901  0.025660295  0.025784944            5 
 2159000   0.91435902   -6.7968959    667.12227  0.025749663  0.025776781           11 
 2160000   0.87728789   -6.8139291    665.47257  0.025674096  0.025768607            7 
 2161000   0.89719319   -6.8516276     666.4008   0.02569801  0.025760367            4 
 2162000   0.90734954   -6.8534198    666.29413  0.025682013  0.025752163           11 
 2163000   0.90216605   -6.8800752    665.61409  0.025643939  0.025743804            6 
 2164000   0.90739969    -6.831742    665.61444  0.025632103  0.025735558            4 
 2165000   0.91297438   -6.8603355    664.23661  0.025567229  0.025727373            5 
 2166000   0.88877153   -6.8789167    663.43208  0.025524472  0.025719128            9 
 2167000   0.90430689   -6.8656057    663.76381   0.02552545  0.025710756            7 
 2168000   0.89403297    -6.815134    664.82771  0.025554571  0.025702397            8 
 2169000   0.89863059   -6.8281932    667.39036  0.025641246  0.025694132            8 
 2170000   0.89808694   -6.8110024     668.0148   0.02565341  0.025685871           16 
 2171000   0.90560488    -6.823225    665.51311  0.025545567  0.025677579            2 
 2172000   0.92557957   -6.8562963    664.07664  0.025478692  0.025669171            7 
 2173000    0.9030213    -6.869253    664.90473  0.025498724  0.025660798            7 
 2174000   0.91726045   -6.8589372     667.5258  0.025587466  0.025652505            5 
 2175000   0.89116144   -6.8065655    666.44959  0.025534467  0.025644212            3 
 2176000   0.90542129   -6.8600008    665.91457  0.025502243  0.025635912            4 
 2177000   0.90376114   -6.8532489    665.86813  0.025488751  0.025627668            2 
 2178000   0.89993544   -6.8763858    666.05611   0.02548424  0.025619455            3 
 2179000   0.90668411   -6.8547146    665.47923  0.025450483  0.025611233            8 
 2180000   0.91590343   -6.8625896    667.61827  0.025520576  0.025603025            7 
 2181000   0.90689381   -6.8800771    666.05124     0.025449  0.025594757            5 
 2182000    0.8990583   -6.8827772    666.93332  0.025471025  0.025586376            3 
 2183000   0.90076137   -6.8623664    666.35238   0.02543718  0.025578051           23 
 2184000   0.89329481   -6.8749958    667.59526  0.025472957  0.025569762           12 
 2185000    0.9096613   -6.8441613    668.04576   0.02547848  0.025561511            8 
 2186000   0.91287762   -6.8930825    665.01083  0.025351129  0.025553198            5 
 2187000   0.90942251   -6.8754005    668.47238  0.025471437  0.025544881            5 
 2188000   0.90267487     -6.84452    667.52463  0.025423699  0.025536573           10 
 2189000     0.899801   -6.8547799    666.73595   0.02538206   0.02552831            8 
 2190000    0.9138692    -6.883617    666.03039  0.025343622  0.025519989            7 
 2191000   0.88404197   -6.8604124    669.27758   0.02545556  0.025511641            6 
 2192000   0.90701119   -6.8614353    668.41897  0.025411305  0.025503346           14 
 2193000   0.89970838   -6.8752911    665.82844  0.025301278  0.025495053            9 
 2194000   0.90087179   -6.8649122    667.18193  0.025341155  0.025486769            5 
 2195000   0.88893331   -6.8118785    670.32013  0.025448752  0.025478532            8 
 2196000   0.91324949   -6.8776832    670.47368   0.02544299  0.025470343            5 
 2197000   0.90120718   -6.8816148    667.95954  0.025336047  0.025462099            9 
 2198000   0.90541705   -6.8876588    667.91603   0.02532287   0.02545373            4 
 2199000   0.88468911   -6.8774731    669.15485  0.025358301   0.02544539            7 
 2200000    0.9049667   -6.8662407    669.92356  0.025375893   0.02543706            3 
 2201000   0.90632336   -6.9059024    668.18912  0.025298695  0.025428719            8 
 2202000   0.89085862   -6.8834685    667.13014  0.025247129  0.025420481            6 
 2203000    0.8910962   -6.9011603     667.3258   0.02524307  0.025412176            5 
 2204000   0.89254294   -6.8627053    668.63897  0.025281268  0.025403888            3 
 2205000   0.89983399   -6.8688162     668.7865  0.025275378   0.02539566           12 
 2206000   0.90122302   -6.8466826    670.02987   0.02531089  0.025387519            5 
 2207000   0.89181951   -6.8858641    668.36967  0.025236734   0.02537934           14 
 2208000   0.91523724   -6.8752058    670.55653   0.02530784  0.025371144           11 
 2209000   0.88833858   -6.9020214    669.58899  0.025259884  0.025362961           14 
 2210000   0.90362958   -6.8975182    669.93969  0.025261677  0.025354733            4 
 2211000   0.89389882   -6.8843999    670.36121   0.02526614   0.02534657            6 
 2212000   0.91960298   -6.8619155     672.3327   0.02532899   0.02533841            6 
 2213000   0.88909892   -6.9026076    670.78325  0.025259198  0.025330287            6 
 2214000   0.90787107   -6.8748731    671.54513  0.025276465  0.025322121            5 
 2215000   0.91378803   -6.8828277    671.33442  0.025257127  0.025313901           19 
 2216000   0.87534847   -6.8693099    670.26658  0.025205572  0.025305608            8 
 2217000   0.88886381   -6.8954083    670.77319  0.025213246  0.025297354            6 
 2218000   0.91144393   -6.8697643    672.01362  0.025248483  0.025289138            6 
 2219000   0.88304523   -6.8646826    671.31641  0.025210921   0.02528099            7 
 2220000   0.91105941   -6.8584378    673.17728  0.025269417  0.025272869            4 
 2221000   0.90694188    -6.893241    671.23627  0.025185212  0.025264723            3 
 2222000   0.89601937   -6.8595497     671.7256  0.025192229  0.025256624            7 
 2223000   0.89286403   -6.8665248    670.96727  0.025152469  0.025248451            3 
 2224000   0.91272134   -6.8785726     672.0127  0.025180332  0.025240313            8 
 2225000   0.89046898   -6.8491504     672.4276  0.025184554  0.025232162            5 
 2226000   0.88606154   -6.8801752    670.84152  0.025113863  0.025223968            5 
 2227000   0.88259663    -6.872441    673.26664  0.025193333  0.025215874           14 
 2228000   0.90479979   -6.8842405    672.14313  0.025140003  0.025207754            5 
 2229000   0.90682691   -6.8896748    671.05283  0.025087963  0.025199606            8 
 2230000   0.89159383   -6.9225379    669.81356  0.025030402  0.025191422            7 
 2231000   0.88729097   -6.8977981    670.81766  0.025056688  0.025183257            6 
 2232000   0.88792866   -6.8920085    674.57708  0.025185823   0.02517507           11 
 2233000   0.87591085   -6.8967918    671.85008  0.025072775  0.025166909            4 
 2234000   0.91285818    -6.883188    673.23346  0.025113155  0.025158842            6 
 2235000   0.88724248   -6.8716561    673.16748  0.025099459   0.02515083            5 
 2236000   0.90915035   -6.8841727    673.83197  0.025112998  0.025142783            7 
 2237000   0.91785629   -6.8662733    673.01485  0.025071333  0.025134738            4 
 2238000   0.90816754   -6.8942555     675.7655  0.025162552  0.025126691            3 
 2239000   0.90699492   -6.9234097    672.51257  0.025030243  0.025118647            3 
 2240000   0.89126892   -6.8816523    673.40428  0.025052243  0.025110571           16 
 2241000    0.9057415   -6.9136231    673.08746  0.025029282  0.025102458           15 
 2242000    0.8714549   -6.9158032    673.58769  0.025036712  0.025094359            5 
 2243000   0.90171335   -6.9158585    674.55996  0.025061672  0.025086374            3 
 2244000   0.90755035    -6.920113    674.28626   0.02504034  0.025078408            5 
 2245000    0.9128472   -6.8943751    676.55994  0.025113584  0.025070413            4 
 2246000   0.90198701   -6.8660574    677.78222  0.025147752   0.02506248           11 
 2247000    0.8810657   -6.8764791    674.01552  0.024996867  0.025054505            8 
 2248000   0.88480882   -6.8766805    677.14761  0.025101854  0.025046628            8 
 2249000   0.88233769   -6.8647694    677.81913  0.025115575   0.02503866            9 
 2250000   0.89569206   -6.8571936    677.21705  0.025082113  0.025030727            7 
 2251000   0.89594634   -6.8886316    675.73858  0.025016237  0.025022868            9 
 2252000   0.87867223    -6.858734    678.47223  0.025106284  0.025015003            7 
 2253000   0.88795169   -6.9101527    676.35398  0.025016792   0.02500709           13 
 2254000    0.9150078   -6.9009494    676.47296  0.025010092  0.024999182            7 
 2255000   0.88760243   -6.9213464    675.88471  0.024977262  0.024991301           10 
 2256000   0.88595134   -6.9353528    676.02081  0.024971218  0.024983347           13 
 2257000   0.90458859   -6.9441204    676.69442  0.024985025  0.024975456            7 
 2258000   0.90394177      -6.8941    675.34342    0.0249241  0.024967512            4 
 2259000   0.89120288   -6.8942983    676.55847   0.02495789  0.024959646            6 
 2260000   0.91194089   -6.8875794    677.72879      0.02499  0.024951796           10 
 2261000   0.90953768    -6.925707     676.9526  0.024950339  0.024943986            3 
 2262000   0.87938597   -6.9088957    678.84711  0.025009104  0.024936166            5 
 2263000   0.89500214   -6.8858131    675.73205  0.024883343  0.024928248            4 
 2264000   0.88772869   -6.9267187    676.92794   0.02491637  0.024920407           10 
 2265000    0.8870871   -6.8686532    680.78408  0.025047243  0.024912561            7 
 2266000   0.89925589   -6.8877956    679.87082  0.025002604  0.024904789           11 
 2267000   0.89237581   -6.8240949    679.20368  0.024967052   0.02489698            3 
 2268000   0.85982145   -6.8688965     680.1061  0.024989201  0.024889075            8 
 2269000   0.89394158   -6.8794615    678.57488  0.024921951  0.024881176            5 
 2270000   0.89757173   -6.9095823    680.58274  0.024984682  0.024873422            6 
 2271000    0.8984498   -6.9047564    678.66409  0.024903277  0.024865563            7 
 2272000   0.90047831   -6.9217395    676.50109   0.02481298   0.02485764            5 
 2273000   0.89604181   -6.9355839    677.96822  0.024855852  0.024849633           11 
 2274000   0.89984626   -6.9037743    677.81105  0.024839162  0.024841717            5 
 2275000   0.90889033    -6.900042    679.81868  0.024901783   0.02483382           11 
 2276000   0.90541904   -6.9597213    678.27458  0.024834307  0.024825869            6 
 2277000   0.89413968   -6.8979324    678.69853  0.024838916  0.024817899            3 
 2278000   0.89655663   -6.9107263    679.29932   0.02484999  0.024809982            6 
 2279000   0.87378824   -6.9554788     677.0325  0.024756198  0.024802101            8 
 2280000   0.91027893   -6.9304804    680.57894  0.024874961  0.024794136            8 
 2281000   0.88130416   -6.9003629    680.62675  0.024865803  0.024786244            4 
 2282000   0.87538695   -6.8786624    679.10835  0.024799458  0.024778422           13 
 2283000    0.8898144   -6.8989165    679.80448  0.024814005  0.024770534            4 
 2284000   0.90510306   -6.8883743    681.46172  0.024863606   0.02476271            5 
 2285000   0.87365281   -6.9166499    681.68465  0.024860855  0.024754838            8 
 2286000   0.88037162   -6.9309526    680.17275  0.024794865  0.024746943            8 
 2287000   0.88852784   -6.8970141    679.75072  0.024768646  0.024739063            5 
 2288000   0.88840921   -6.9003085    681.16843  0.024809456  0.024731241           11 
 2289000    0.8754399    -6.916505    680.81932  0.024785908  0.024723379           10 
 2290000    0.8889715   -6.9007763    681.52133  0.024800631  0.024715578            8 
 2291000   0.90261779   -6.9087736    683.26625  0.024853276  0.024707803            5 
 2292000    0.8604492   -6.8825792    681.13898  0.024765088  0.024700064            4 
 2293000    0.8901971   -6.8985966    682.85656  0.024816709  0.024692326           12 
 2294000   0.88348539   -6.8945671    682.76003  0.024802384  0.024684616            7 
 2295000   0.89566628   -6.8956291    684.07235  0.024839228  0.024676956            3 
 2296000     0.900442   -6.8888055    682.70971  0.024778953  0.024669302            4 
 2297000   0.89425409   -6.9119788    682.95283  0.024776986  0.024661632           10 
 2298000    0.8720326   -6.9093608    680.43722  0.024674979  0.024653926            4 
 2299000   0.89632374   -6.9050766    683.37561  0.024770756  0.024646236            3 
 2300000   0.90309648   -6.8701401    684.43195  0.024798259  0.024638493           12 
 2301000   0.87518499   -6.8886413     683.3453  0.024748128  0.024630779            3 
 2302000    0.8870558   -6.8642883     684.3211  0.024772701  0.024623049            7 
 2303000   0.89016332   -6.9388289    682.05396  0.024679909  0.024615331            6 
 2304000    0.8680675   -6.8964656    683.14562  0.024708681  0.024607595            7 
 2305000    0.8906339   -6.9131465    682.63842  0.024679625  0.024599839            4 
 2306000   0.88508419   -6.9269528    681.68652  0.024634523  0.024592006            5 
 2307000   0.89130084   -6.9045722    681.05726  0.024601115  0.024584158            9 
 2308000   0.87666189   -6.9014539    682.36175  0.024637556  0.024576309            4 
 2309000   0.89405886   -6.9107651    681.99569  0.024613674  0.024568538            3 
 2310000   0.87828239    -6.921199    681.60748  0.024589015  0.024560732            9 
 2311000   0.91263659   -6.9121167    682.58494  0.024613621  0.024552911            3 
 2312000   0.88783801   -6.9283969    681.74665   0.02457276  0.024545138            6 
 2313000   0.89110007   -6.9198015    683.35308  0.024620013  0.024537315            5 
 2314000   0.87529523   -6.9176855    683.85526  0.024627458  0.024529498            3 
 2315000   0.87023017   -6.9048044    684.48931  0.024639644  0.024521742            9 
 2316000   0.90295658   -6.9148956    682.53699  0.024558758  0.024513996            6 
 2317000   0.86835667   -6.8927887    685.75048  0.024663735  0.024506201            8 
 2318000   0.88915772   -6.9311067     682.1333  0.024523055  0.024498426            9 
 2319000   0.88289985    -6.895405    684.01955  0.024580263  0.024490585            7 
 2320000   0.86034143   -6.9182533    685.49416  0.024622635  0.024482862           11 
 2321000   0.89157567   -6.9561021    683.00142  0.024522527  0.024475004            9 
 2322000   0.87201306    -6.894198     684.8033  0.024576633  0.024467266            7 
 2323000   0.88642602   -6.9541512    684.17448  0.024543495  0.024459529            5 
 2324000    0.8611029   -6.9164139    684.10163  0.024530322  0.024451769            7 
 2325000   0.89519495   -6.9541349    686.23947  0.024596397  0.024444007           11 
 2326000   0.91381966   -6.9779236    683.63439   0.02449249  0.024436209            9 
 2327000   0.89395217   -6.9714566    681.99425  0.024423229  0.024428397            9 
 2328000   0.85137865   -6.9365524     684.3651  0.024497605  0.024420641            8 
 2329000   0.87191745   -6.9655831    683.26245  0.024447633  0.024412893           13 
 2330000   0.90234801   -6.9384261    685.59673  0.024520627  0.024405138            8 
 2331000   0.87037897   -6.9483464    684.46076  0.024469497  0.024397411            7 
 2332000   0.87114154   -6.8948712    685.19921  0.024485392  0.024389764            4 
 2333000   0.86988372   -6.8999596    686.38891  0.024517392  0.024382197            6 
 2334000   0.87177865   -6.9108017    685.10467  0.024461035  0.024374674            7 
 2335000   0.87997924   -6.9345179    687.10583  0.024521978  0.024367192            4 
 2336000   0.88603032   -6.9138878    686.88396  0.024503566  0.024359596            4 
 2337000   0.87600528   -6.9293035     686.6724  0.024485537  0.024352069            9 
 2338000   0.86237088   -6.9096584     689.3032  0.024568834  0.024344549            6 
 2339000   0.89151973   -6.9129984    687.15078  0.024481644  0.024336958            6 
 2340000   0.89485736   -6.9449652    686.61773  0.024452198  0.024329401            5 
 2341000   0.86302127   -6.8894558    687.86715  0.024486229   0.02432184            5 
 2342000   0.88272122   -6.9337003    687.99484  0.024480318  0.024314323            4 
 2343000   0.88575178   -6.9687685    686.60527  0.024420446  0.024306733            5 
 2344000   0.86694438   -6.9490776    686.46733  0.024405124  0.024299082           14 
 2345000   0.88369509   -6.9719901    687.38484  0.024427322  0.024291428            3 
 2346000   0.88422121   -6.9294958    687.07957  0.024406066  0.024283836            8 
 2347000   0.89427555   -6.9270366    686.63066  0.024379728  0.024276193            9 
 2348000    0.8898065   -6.9508485    689.30427  0.024464234  0.024268638            8 
 2349000   0.85641398   -6.9363618    688.71266  0.024432832  0.024261115            5 
 2350000   0.87071644   -6.9562815    687.54046  0.024380867  0.024253567            5 
 2351000   0.87982376    -6.892274    689.54466  0.024441538  0.024246026            5 
 2352000    0.8881364   -6.9484362    686.07914   0.02430836  0.024238507            9 
 2353000   0.88913818   -6.9555371    688.11219  0.024370031  0.024230927           12 
 2354000   0.86762733   -6.9218654    688.56397  0.024375672  0.024223402            4 
 2355000   0.87445211   -6.9163252    690.43474  0.024431519  0.024215915            8 
 2356000   0.87339759   -6.9657151    689.99195  0.024405488  0.024208435            8 
 2357000   0.85061407   -6.9352088    688.33227  0.024336454  0.024200869            9 
 2358000   0.87161771   -6.9381637    688.91586  0.024346758  0.024193323            4 
 2359000   0.87210724   -6.9443734    690.17264  0.024380834  0.024185735            4 
 2360000   0.86474209   -6.9425633     688.6045  0.024315131  0.024178166            6 
 2361000   0.88168676   -6.9457463    687.78362  0.024275858   0.02417056            7 
 2362000   0.87797266   -6.9062423    689.38682  0.024322143  0.024162967            6 
 2363000   0.87404438   -6.9679578    689.99601  0.024333334  0.024155395            8 
 2364000   0.86551225   -6.9365886    688.62473  0.024274702  0.024147793           13 
 2365000   0.88070441   -6.9065852    690.46718  0.024329358  0.024140225            8 
 2366000   0.87263006   -6.9153578    690.08019  0.024305445  0.024132639            6 
 2367000   0.86759909    -6.934351    688.58173  0.024242421  0.024125083           11 
 2368000   0.88404604   -6.9592864    689.27464  0.024256568  0.024117536            7 
 2369000   0.89409873   -6.9417485    691.39749  0.024321004  0.024109956            3 
 2370000   0.87165908   -6.9574586    688.98918  0.024226061  0.024102361            8 
 2371000   0.85156854   -6.9678675    690.45901  0.024267503  0.024094783           10 
 2372000   0.87142101   -6.9301097      690.677  0.024264931  0.024087244            6 
 2373000    0.8825282   -6.9414593    689.49421  0.024213169  0.024079782            3 
 2374000   0.87038718   -6.9193487    691.40192  0.024269935   0.02407231            4 
 2375000   0.85517764   -6.9136962    689.05757  0.024177459  0.024064862            5 
 2376000   0.86545226   -6.9271584    692.98157  0.024304909  0.024057364            7 
 2377000   0.86338177   -6.9076143    694.27921  0.024340177  0.024049891            5 
 2378000   0.86993928   -6.9445885    691.64537  0.024237643  0.024042462            6 
 2379000   0.85980821   -6.9212632    692.85712  0.024269901  0.024035072            4 
 2380000   0.86312304   -6.9207829    692.94568  0.024262804  0.024027649            5 
 2381000   0.88841558   -6.9087508    692.42404  0.024234357  0.024020236            6 
 2382000   0.88434105   -6.9540895    693.22752  0.024252292  0.024012867            8 
 2383000   0.85473011   -6.9761872    692.34416  0.024211224  0.024005399            6 
 2384000   0.85096888   -6.9668612    691.03446  0.024155287  0.023997916            6 
 2385000   0.88614465   -6.9335815    693.81791  0.024242415  0.023990498            5 
 2386000   0.88161685   -6.9314729    692.25988  0.024177839  0.023983098            4 
 2387000   0.86819939   -6.9411634     693.8491  0.024223192  0.023975705            5 
 2388000   0.84642831   -6.9464171    690.61184  0.024100078  0.023968258            6 
 2389000    0.8615828   -6.9120666    693.33645   0.02418503  0.023960884            8 
 2390000   0.88329066   -6.9717397    693.34483  0.024175203  0.023953472            2 
 2391000   0.88293506   -6.9720984    692.67904  0.024141888  0.023946037            7 
 2392000   0.87569858   -6.9440277    694.34186  0.024189725  0.023938582            4 
 2393000   0.86542268   -6.9941253    691.96008  0.024096674  0.023931119            7 
 2394000   0.86039017   -6.9707788    694.42098   0.02417227  0.023923627           10 
 2395000   0.87260279   -6.9554283    693.88619   0.02414357   0.02391621            5 
 2396000   0.85154519   -6.9749475    691.56264   0.02405268  0.023908724            7 
 2397000   0.88601448   -6.9914621    691.81656  0.024051473  0.023901225           15 
 2398000   0.87580898   -6.9658815    693.82381  0.024111197  0.023893787            5 
 2399000   0.86135243    -6.988827     692.3944  0.024051494  0.023886283            4 
 2400000   0.88922155   -6.9831355    692.83345  0.024056717  0.023878733           10 
 2401000   0.87653136    -6.981545    693.27418  0.024061994  0.023871217           11 
 2402000   0.85629215   -7.0001107    690.98275  0.023972479   0.02386373            6 
 2403000   0.85590669   -6.9981766    693.87723  0.024062881  0.023856289            4 
 2404000   0.86075319   -6.9806599    693.33906  0.024034216   0.02384882            4 
 2405000    0.8707944   -6.9836488    693.97193  0.024046152  0.023841442           12 
 2406000   0.86683072   -6.9603921    694.86253  0.024067003  0.023834104            9 
 2407000    0.8675638   -6.9634211    693.47905  0.024009107  0.023826773           22 
 2408000   0.87293791   -6.9963126    693.72735  0.024007729  0.023819462           13 
 2409000   0.86354798   -6.9641996    695.74161  0.024067442   0.02381209            5 
 2410000   0.87416899   -6.9554506    695.07995  0.024034576   0.02380479            4 
 2411000   0.87396941   -6.9166077    698.15457  0.024130878  0.023797438           16 
 2412000   0.87306204   -6.9762552    694.90283  0.024008528  0.023790143            6 
 2413000   0.84062559   -6.9950349    696.82215  0.024064862  0.023782831            7 
 2414000   0.86021982    -6.981643     694.5194    0.0239754  0.023775486            8 
 2415000   0.84926158   -6.9521953    697.51839  0.024068958  0.023768192           16 
 2416000   0.87057838   -6.9741868    696.18559  0.024013024  0.023760909            7 
 2417000   0.87229905   -6.9336205    697.25976  0.024040124  0.023753696            5 
 2418000   0.88578923   -6.9435058    696.83243  0.024015455  0.023746418            4 
 2419000    0.8632304   -6.9655866    696.51915  0.023994734  0.023739139            5 
 2420000   0.84687303   -6.9750471    697.07321  0.024003898  0.023731862           17 
 2421000   0.87469551   -6.9388342    695.23645   0.02393076  0.023724565            6 
 2422000   0.87070234   -6.9843104    697.26503  0.023990677  0.023717289            9 
 2423000   0.86971272   -6.9306925    696.23368  0.023945305  0.023709931            6 
 2424000   0.84340597   -6.9389149    696.76031  0.023953531  0.023702651            5 
 2425000   0.85649437   -6.9559958    697.06784  0.023954221  0.023695351           11 
 2426000    0.8800192   -6.9709604    697.49235  0.023958929  0.023687981            3 
 2427000   0.84185706   -6.9921318    695.21195  0.023870758  0.023680591           12 
 2428000   0.87195884   -6.9206957    697.04771  0.023923933  0.023673241            6 
 2429000   0.85572197   -6.9750518    695.95015  0.023876429   0.02366592            8 
 2430000   0.86151391   -6.9951079     695.5467  0.023852767  0.023658546            7 
 2431000   0.87524802   -6.9902378    697.21964  0.023900303  0.023651152           11 
 2432000   0.87219915   -6.9968844    698.58852  0.023937381  0.023643767            5 
 2433000   0.87730342   -6.9934221    696.84661   0.02386788  0.023636373           10 
 2434000   0.87629589   -7.0021971    695.89291  0.023825422  0.023628937           10 
 2435000   0.86684775   -6.9847562    694.43954  0.023765898  0.023621502            7 
 2436000   0.86199748   -6.9854261    696.17349  0.023815459  0.023614092            7 
 2437000   0.84964633   -6.9738866    696.95913  0.023832551  0.023606725            8 
 2438000   0.86206767   -6.9722023    697.68435  0.023847565  0.023599357           12 
 2439000   0.87423444   -6.9812213    695.59586   0.02376643  0.023591938            5 
 2440000   0.85607272   -6.9826741    697.49965  0.023821709  0.023584527            9 
 2441000   0.86981133    -7.001973    697.33528  0.023806339  0.023577122            5 
 2442000   0.85825409    -6.982536    697.51947  0.023802876  0.023569752           14 
 2443000   0.86362689   -7.0027487    695.17051  0.023713007   0.02356237           17 
 2444000   0.85703884   -6.9905712    696.95921  0.023764294  0.023554947           10 
 2445000   0.86868098    -6.991262    696.26901   0.02373105  0.023547595           11 
 2446000   0.85923665   -6.9502326    698.67113  0.023803186  0.023540235            8 
 2447000   0.86423602   -6.9497051    698.91929   0.02380191  0.023532957            8 
 2448000   0.86110056    -6.983314    696.42807  0.023707382  0.023525578           13 
 2449000   0.85667576   -6.9979593    696.12902  0.023687526  0.023518117           10 
 2450000   0.84658524   -6.9851106    697.41984  0.023721763  0.023510709            9 
 2451000   0.83421342   -7.0052274     697.9792  0.023731103  0.023503315            7 
 2452000   0.86369101   -6.9804034    700.04634  0.023791678  0.023495948            7 
 2453000   0.87500236   -6.9833121    698.49212  0.023729179  0.023488603            5 
 2454000    0.8632403   -7.0263868    696.64911  0.023656925  0.023481249            4 
 2455000   0.85586095   -7.0069336     698.7603  0.023718951  0.023473864           10 
 2456000   0.86436936   -6.9726088    699.32109  0.023728321  0.023466544            5 
 2457000   0.84680515   -6.9803155    698.96395  0.023706551  0.023459289            5 
 2458000   0.86229021    -6.973512    698.99388  0.023697921  0.023451934            9 
 2459000   0.86442376   -6.9658056    698.84063   0.02368309  0.023444597            6 
 2460000   0.85484434   -6.9766625     697.9451  0.023643127  0.023437204            7 
 2461000   0.84282488   -6.9987973    697.64926  0.023623502  0.023429848            8 
 2462000   0.84781382   -6.9966388    697.51686  0.023609425   0.02342244           10 
 2463000   0.84812737   -6.9737202    699.79762  0.023677007  0.023415106           15 
 2464000   0.87119758   -7.0044807    698.56586  0.023625739  0.023407729            6 
 2465000   0.85291156   -7.0044222    699.99281  0.023664395  0.023400289           18 
 2466000   0.86891578   -7.0030593    697.58642   0.02357348  0.023392882            9 
 2467000   0.85547803   -7.0043151    696.72565  0.023534848  0.023385416            4 
 2468000   0.84324886   -7.0120044    697.94591  0.023566515  0.023377986            8 
 2469000   0.84913668   -6.9839244    699.31158  0.023603064  0.023370645            4 
 2470000   0.85611113   -6.9791941     699.7196  0.023607274  0.023363364            6 
 2471000   0.88110765   -6.9871506     699.7509  0.023598776  0.023356023           11 
 2472000   0.84854425    -6.990187    700.75735  0.023623158   0.02334868            5 
 2473000   0.83878348   -6.9975988    699.67075   0.02357699  0.023341357            3 
 2474000    0.8458603   -6.9783795    700.84331  0.023606956  0.023334059           13 
 2475000   0.86840613   -6.9739928    701.98087  0.023635719  0.023326755            6 
 2476000   0.85509356   -6.9760528     702.7329  0.023651484  0.023319403            5 
 2477000   0.87729258   -6.9893467    701.41643  0.023597646  0.023312134           15 
 2478000    0.8563072   -7.0132512    700.43202  0.023555018  0.023304871            5 
 2479000   0.87591182   -6.9944615    700.69707  0.023554426  0.023297562           12 
 2480000   0.83468564   -6.9955012     701.8848  0.023584839  0.023290259           10 
 2481000   0.86308708   -7.0265817    700.14106  0.023516763  0.023282886            7 
 2482000   0.86928003    -6.984028    700.52596  0.023520211   0.02327557            6 
 2483000    0.8615444   -7.0373515    698.01011  0.023426303  0.023268199           13 
 2484000   0.86482607   -6.9812606    700.35011  0.023495374   0.02326084           11 
 2485000    0.8622516   -7.0046811    700.51644  0.023491497  0.023253521           20 
 2486000   0.84534513   -7.0049379    700.44893  0.023479784   0.02324619            9 
 2487000   0.83048999   -7.0287937    698.13533   0.02339282  0.023238767            8 
 2488000   0.85559627   -7.0327487    701.00796  0.023479634  0.023231343            6 
 2489000   0.84343291   -7.0014773    700.13808  0.023441077   0.02322393            8 
 2490000   0.84849974   -7.0160854    700.17131  0.023432775  0.023216548           15 
 2491000   0.83981386   -6.9994781    701.58744  0.023470743  0.023209236            8 
 2492000   0.84373536   -7.0097426    701.46512  0.023457234  0.023201886            7 
 2493000   0.86269168   -7.0643842    699.81735  0.023392745  0.023194473           10 
 2494000   0.84796814    -6.963909    702.88571   0.02348589   0.02318713            7 
 2495000   0.84107056   -7.0190141    702.31712  0.023457486  0.023179833           14 
 2496000   0.84081706   -6.9684803    702.29622   0.02344739  0.023172537            7 
 2497000   0.84104976   -6.9641383    702.90044  0.023458165  0.023165321            5 
 2498000   0.85786182   -7.0071223    702.07755  0.023421322  0.023158045           11 
 2499000   0.85034292   -6.9941776    701.41692   0.02338992  0.023150686            8 
 2500000   0.83822145   -6.9608553    702.69977  0.023423326  0.023143422            4 
 2501000   0.84789994   -7.0343197    700.52179   0.02334139  0.023136103            6 
 2502000   0.86455727   -6.9847683    703.09746  0.023417848  0.023128792            4 
 2503000   0.86461219   -7.0018544    700.57034  0.023324355   0.02312144            6 
 2504000    0.8605763   -7.0157961    702.18195  0.023368675  0.023114086           10 
 2505000   0.85714926   -7.0284589    700.25033  0.023295088  0.023106697            8 
 2506000   0.84397286   -7.0192598    701.94892  0.023342276  0.023099281            7 
 2507000   0.85244003   -7.0448892    700.33229  0.023279228  0.023091866           10 
 2508000   0.85219567   -7.0014713    701.81745  0.023319293  0.023084528            4 
 2509000   0.84709096   -6.9881466    704.78637  0.023408608  0.023077275           12 
 2510000   0.82295029   -7.0022893    702.70297  0.023330112  0.023070022           11 
 2511000   0.85884279   -7.0151456    703.29251  0.023340386  0.023062728            8 
 2512000   0.84478252   -7.0163226    702.64684  0.023309675  0.023055385            8 
 2513000   0.84605683   -6.9982209    702.30159   0.02328895   0.02304809            9 
 2514000   0.84114053   -6.9891708    703.08249  0.023305572  0.023040868           13 
 2515000    0.8478215   -7.0064148    702.70653  0.023283848  0.023033581            6 
 2516000   0.84069419   -6.9914285    704.31733  0.023327946  0.023026324           17 
 2517000   0.82655196   -6.9676972    701.83308  0.023236428  0.023019044           16 
 2518000   0.84416608   -7.0036119    704.46547  0.023314319  0.023011785            7 
 2519000   0.84164028   -7.0409319    703.77383  0.023282183  0.023004536            8 
 2520000   0.84473817   -7.0142004    703.79641  0.023273691  0.022997219            9 
 2521000    0.8528442   -7.0251276    702.95223  0.023236554  0.022989928            3 
 2522000   0.85932993   -7.0053874    703.62228  0.023249481  0.022982658            8 
 2523000    0.8644873     -6.98887    704.89879  0.023282428  0.022975394           10 
 2524000   0.82694968   -7.0087071    704.39056  0.023256424  0.022968087           10 
 2525000   0.84151006     -7.01193    703.20006  0.023207923  0.022960775            8 
 2526000   0.86181699   -7.0327984    702.82976  0.023186519  0.022953493            7 
 2527000   0.85954871   -7.0214832    703.99462  0.023215757  0.022946181            5 
 2528000   0.84458393   -6.9915849    705.10922  0.023243315  0.022938905            5 
 2529000   0.84675802   -7.0471565     702.4114  0.023145229  0.022931621           11 
 2530000   0.85288557   -7.0276183     703.6407  0.023176571  0.022924321            6 
 2531000   0.83807249   -7.0295892    703.92024  0.023176618  0.022916972            7 
 2532000   0.85062534   -7.0057598    703.57184  0.023155998  0.022909673            8 
 2533000   0.85389128   -7.0018229    703.57492  0.023146958  0.022902391           13 
 2534000   0.84465767   -7.0217264    704.59486  0.023171365   0.02289514            4 
 2535000   0.83663561   -7.0451843    704.03037  0.023143668  0.022887818            6 
 2536000   0.84018736   -7.0325662     703.8316   0.02312801  0.022880562            9 
 2537000   0.85018425   -7.0320003    704.81706  0.023151263  0.022873253            8 
 2538000     0.873666   -7.0179805    704.45453  0.023130238  0.022866041            9 
 2539000   0.82897555    -7.052225    703.00585   0.02307358  0.022858773           13 
 2540000   0.84264826   -7.0701514    703.19996  0.023070865  0.022851398           10 
 2541000    0.8314728   -7.0350504    703.82256  0.023082204  0.022844059            6 
 2542000   0.85176422    -7.023601    702.81558  0.023040112  0.022836743            5 
 2543000    0.8321877   -7.0192092     703.2511  0.023045324  0.022829439            5 
 2544000   0.84519187   -7.0636972    702.98579  0.023027574  0.022822086           10 
 2545000   0.83989625    -7.057286    702.13437  0.022990647  0.022814745           14 
 2546000   0.85132797   -7.0385569     705.5967  0.023094943  0.022807464            5 
 2547000   0.84420456   -7.0279993    705.38549  0.023078965  0.022800203            9 
 2548000   0.84974939   -7.0265013    704.49786  0.023040877  0.022792931            4 
 2549000   0.84653967   -7.0169892    704.51195  0.023032299  0.022785666            5 
 2550000    0.8395035    -7.040568    703.90222   0.02300334   0.02277833            7 
 2551000   0.84149072   -7.0582092     703.0499   0.02296648  0.022770944            5 
 2552000   0.82734095   -7.0348939    704.23149  0.022996065  0.022763665            6 
 2553000   0.85753431   -7.0440534    704.86663  0.023007789  0.022756342           30 
 2554000   0.83607385   -7.0338071    706.11418  0.023039486  0.022749033            6 
 2555000   0.85373521    -7.030042    704.00841  0.022961788  0.022741728           11 
 2556000   0.83814158   -7.0254191    705.80068  0.023011238  0.022734435           11 
 2557000   0.84537402   -7.0306323    705.97758  0.023008004  0.022727112            8 
 2558000    0.8533684   -7.0794899    706.89514  0.023028901  0.022719789           20 
 2559000   0.83062752   -7.0528892     704.3604  0.022937358  0.022712504            7 
 2560000   0.85863959   -7.0209548    705.94662  0.022980033  0.022705255            9 
 2561000    0.8348551   -7.0503171    704.98531   0.02293978  0.022698045            9 
 2562000   0.86284271   -7.0605462    706.31109  0.022973949  0.022690794            6 
 2563000   0.86120515   -7.0194381    706.08062  0.022957492  0.022683581            8 
 2564000   0.85624932   -7.0082957    705.99205   0.02294566  0.022676368            8 
 2565000   0.83750666   -7.0555756    703.79925  0.022865473  0.022669084           15 
 2566000   0.82028115   -7.0142262    707.68474  0.022982747  0.022661792           12 
 2567000   0.84512156   -7.0526058    705.18046  0.022892496  0.022654496           10 
 2568000   0.85147545   -7.0518078    706.24529  0.022918136  0.022647228            4 
 2569000   0.84040373   -7.0179568    707.08932  0.022936594  0.022639974            4 
 2570000   0.85927994   -7.0348853    705.14862  0.022864741  0.022632697            8 
 2571000   0.82678146   -7.0729187    705.09166  0.022854002  0.022625381           13 
 2572000   0.82548257   -7.0815062    705.06199  0.022844155  0.022618059           12 
 2573000   0.85494216   -7.0631705    705.58805  0.022852314  0.022610747            7 
 2574000   0.84667377   -7.0644451    703.26001  0.022768066  0.022603393            8 
 2575000    0.8497753    -7.070656    703.87038  0.022778977  0.022596051           17 
 2576000   0.83803569   -7.0503569     704.9161  0.022803963  0.022588711           16 
 2577000   0.84962014   -7.0639737    706.04142  0.022831504  0.022581438            7 
 2578000   0.85069968   -7.0362701    707.59366  0.022872823  0.022574218            7 
 2579000   0.82337521   -7.0449714    706.36665  0.022824307  0.022567018           11 
 2580000   0.85240115   -7.0423588    709.37463  0.022912617  0.022559767            6 
 2581000    0.8330233   -7.0538356    706.76261  0.022819405  0.022552496            6 
 2582000   0.84576467   -7.0316524    707.47564   0.02283358  0.022545246           11 
 2583000   0.83964783   -7.0360312    708.47441  0.022856963  0.022538003           13 
 2584000   0.83508668   -7.0582944    706.84125  0.022795448  0.022530754            9 
 2585000   0.82657963   -7.0860562    705.73995  0.022751127  0.022523456           15 
 2586000   0.81956406   -7.0397535    705.55948  0.022736513   0.02251618           16 
 2587000   0.85992952   -7.0347736    708.21731  0.022813339  0.022508928            6 
 2588000   0.82031137   -7.0426182    707.07563  0.022767762  0.022501777           10 
 2589000   0.85279257   -7.0407729    707.56055  0.022774577  0.022494587           10 
 2590000   0.82298982   -7.0673759    709.07121  0.022814389    0.0224874           12 
 2591000   0.83516505   -7.0416641    708.38324  0.022783457  0.022480199            5 
 2592000   0.84114802   -7.0483507    709.69589  0.022816869  0.022472999            9 
 2593000   0.83234754   -7.0662189     707.5441  0.022738916  0.022465778           27 
 2594000   0.82406176   -7.0275932    709.80963  0.022802931  0.022458619            6 
 2595000   0.83440601   -7.0625949    708.06148  0.022738005   0.02245142           14 
 2596000   0.84316808   -7.0413712     709.8931  0.022788043  0.022444217            5 
 2597000   0.82703736   -7.0319989    708.94314  0.022748785  0.022437098            9 
 2598000   0.83432507   -7.0543056      707.865  0.022705447  0.022429918           14 
 2599000   0.82109407   -7.0895972    706.71213  0.022659745  0.022422694            8 
 2600000   0.84691924   -7.0457865    707.79954  0.022685883   0.02241542            7 
 2601000   0.83972865   -7.0456235     708.8699  0.022711454  0.022408229           17 
 2602000   0.82481475   -7.0697267    708.23561  0.022682411  0.022401003            5 
 2603000   0.83941874   -7.0475655    708.30358  0.022675873  0.022393783            7 
 2604000   0.83853715    -7.048408    709.82459  0.022715841  0.022386598            5 
 2605000   0.82963241   -7.0487711    709.47515  0.022695942  0.022379444           10 
 2606000   0.82233842   -7.0406417     707.2983  0.022617623  0.022372281            8 
 2607000    0.8532776   -7.0666829    709.64966  0.022684109  0.022365086           10 
 2608000   0.82006376   -7.0685936    710.05208  0.022688269  0.022357947           13 
 2609000     0.848712   -7.0826138    708.39696  0.022626707  0.022350813            8 
 2610000   0.82930925   -7.0561876    708.48148  0.022620737  0.022343686            6 
 2611000   0.85234282   -7.0939451    707.73507  0.022588251  0.022336499            8 
 2612000   0.85441488   -7.0492249    708.87862  0.022616087  0.022329309            5 
 2613000   0.83208485   -7.0443458    710.73359   0.02266659  0.022322154           11 
 2614000   0.82635261   -7.0647306    709.66244  0.022623771  0.022315049           10 
 2615000    0.8253967   -7.0506574    709.38784  0.022606368  0.022307925            8 
 2616000   0.85031577   -7.0381773    709.06472  0.022587434  0.022300818            9 
 2617000   0.82890374   -7.0476822    711.46152  0.022655124  0.022293724           13 
 2618000   0.80956536   -7.0730018    708.29336  0.022545625  0.022286568           10 
 2619000   0.83073014   -7.0492785    709.46357  0.022574251   0.02227936           16 
 2620000   0.82049514   -7.0822826    709.27028  0.022559487  0.022272172           12 
 2621000   0.83585384   -7.0801344    709.51768  0.022558746  0.022264985           16 
 2622000   0.82589681   -7.0483807    711.18392  0.022603099  0.022257819            5 
 2623000   0.83555406   -7.1023759    708.52842  0.022510116   0.02225062           12 
 2624000   0.82616969   -7.0575842    710.32754  0.022558674  0.022243407            7 
 2625000    0.8429292    -7.051151    712.25737  0.022611345  0.022236238           13 
 2626000   0.83523105   -7.1218386    708.01551  0.022468123  0.022229037            9 
 2627000   0.83735439   -7.0840133    709.62014  0.022510473  0.022221831           14 
 2628000   0.81851267   -7.0794903    710.41561  0.022527131  0.022214651           13 
 2629000   0.83546751   -7.0628464    710.19813  0.022511669  0.022207461            7 
 2630000   0.84376958   -7.0797268    708.97461  0.022464341  0.022200294            5 
 2631000    0.8432987   -7.0749575    710.82317  0.022514354  0.022193143            8 
 2632000   0.84141606    -7.067468     710.5445  0.022496976   0.02218598            7 
 2633000   0.83187699   -7.0426374    713.01837  0.022566729  0.022178862            6 
 2634000    0.8252795   -7.0357568    712.84472  0.022552668  0.022171763            8 
 2635000   0.83040849   -7.0781368    710.08407  0.022456802  0.022164708            3 
 2636000   0.81912531   -7.0703887    711.54651  0.022494515  0.022157582            9 
 2637000   0.85291935    -7.039241    711.34693  0.022479678  0.022150482            3 
 2638000   0.81808716   -7.0403181    711.69232  0.022482067  0.022143425            9 
 2639000   0.83537592   -7.0769314    711.68434  0.022473296  0.022136342           10 
 2640000   0.83105184   -7.1073371    711.98119  0.022474154  0.022129278           10 
 2641000   0.81723144   -7.0596781    712.53554  0.022483136  0.022122178            5 
 2642000   0.83504602   -7.0731053    711.52285  0.022442684  0.022115109           10 
 2643000   0.82701315   -7.0628421    710.54147   0.02240325  0.022108038            5 
 2644000   0.82524784    -7.055251    711.91949  0.022438209  0.022100958           14 
 2645000   0.81365544   -7.0462659    712.77393  0.022456645  0.022093889            4 
 2646000   0.82836457    -7.062749    711.09338  0.022395231  0.022086815            9 
 2647000   0.80628248   -7.0761174    712.79034  0.022440195  0.022079702            4 
 2648000   0.83524629   -7.0559698    713.08487  0.022440989  0.022072634           10 
 2649000   0.82997655   -7.0641055    711.59413  0.022385621  0.022065572            9 
 2650000   0.83713154   -7.0855665    712.31912  0.022399972  0.022058553           17 
 2651000   0.83394149   -7.0494726    713.47888  0.022427979  0.022051519            7 
 2652000   0.81128763   -7.0640135    711.82807  0.022367649  0.022044472            8 
 2653000   0.84606393   -7.0907719    711.31645  0.022343148  0.022037412           17 
 2654000   0.83293705   -7.0887681    711.03037  0.022325746  0.022030334           16 
 2655000   0.84603988   -7.0630774    713.64463  0.022399392   0.02202326            6 
 2656000   0.82782976   -7.0860726    713.82062   0.02239648  0.022016194            7 
 2657000   0.80865512   -7.0776438    712.05585  0.022332701  0.022009116            9 
 2658000   0.81694022   -7.0798974    713.35586  0.022365057  0.022002035           10 
 2659000   0.80772532   -7.0830904    712.31987  0.022324178  0.021995022            9 
 2660000   0.84064301   -7.0885077    712.21445  0.022312483  0.021987992            8 
 2661000    0.8304444    -7.096587    714.42441  0.022373306  0.021980965            7 
 2662000     0.810638   -7.0967736    713.67274  0.022341371     0.021974            8 
 2663000   0.82262668   -7.0342047    715.54543  0.022391583  0.021967082           10 
 2664000     0.830288   -7.0669285    714.69594  0.022356605   0.02196017           10 
 2665000   0.83822242   -7.1203869    713.81309  0.022320609  0.021953231            7 
 2666000   0.82379422   -7.0972168    715.17387  0.022354772   0.02194626           12 
 2667000   0.82948778    -7.125999    712.60356  0.022266078  0.021939291           18 
 2668000   0.82449756   -7.0919714    716.39165  0.022376051  0.021932371           26 
 2669000   0.83237282   -7.0758721    716.32414   0.02236556  0.021925448           44 
 2670000   0.83645782   -7.0871235    713.00806  0.022253685  0.021918459           23 
 2671000   0.82239507   -7.1219149    714.13398  0.022280481  0.021911455           14 
 2672000   0.81562301   -7.1216888      714.287  0.022276915  0.021904403           12 
 2673000   0.82062507   -7.1034249    713.53994  0.022245291   0.02189736           18 
 2674000   0.83158577   -7.0904729    716.18338  0.022319352  0.021890373           22 
 2675000   0.80367558   -7.0926133    715.18003  0.022279752   0.02188341           23 
 2676000   0.83684594   -7.1308058    713.74048  0.022226597  0.021876409           24 
 2677000   0.83667057   -7.1049402    715.07544  0.022259851  0.021869391            6 
 2678000   0.84003423   -7.1013753    715.35726  0.022260308  0.021862408            7 
 2679000   0.83387675   -7.1277461    715.58664  0.022259134   0.02185548            7 
 2680000   0.81781165   -7.1165589    714.53533  0.022218138   0.02184853           13 
 2681000   0.82728914   -7.1092978    715.16841  0.022229529  0.021841558            8 
 2682000    0.8196949   -7.0864892    715.51618  0.022232046  0.021834599            9 
 2683000    0.8404831   -7.0760598    715.70211  0.022229535  0.021827736            7 
 2684000   0.81957744   -7.0818032    717.19341  0.022267555  0.021820886            9 
 2685000   0.83372372   -7.1006074    717.08166  0.022255793  0.021813977            5 
 2686000   0.80104161   -7.1144316    714.68633  0.022173192  0.021806981            6 
 2687000   0.81733311   -7.1167049    715.85427  0.022201162  0.021800018            8 
 2688000   0.82726866    -7.086711    717.17193  0.022233753  0.021793083            4 
 2689000   0.81762305   -7.0759314     716.3762  0.022200824  0.021786145            4 
 2690000   0.82303043   -7.1033737    716.31423  0.022190652   0.02177927           10 
 2691000   0.81458336   -7.0914525    716.50304  0.022188252   0.02177236           20 
 2692000   0.81465244   -7.0973789    716.88316  0.022191777  0.021765449            9 
 2693000   0.83163989   -7.0979254    715.56685  0.022142804   0.02175852            5 
 2694000   0.83032355   -7.1031589    717.11164  0.022182369  0.021751647            7 
 2695000     0.830577   -7.1035333    717.83692  0.022196565  0.021744742           11 
 2696000   0.81541062   -7.0491276    718.06373  0.022195343  0.021737921           16 
 2697000   0.83697343   -7.1112498    716.69742  0.022144896  0.021731082            7 
 2698000   0.82104787   -7.1022848    714.08902  0.022056123  0.021724185           19 
 2699000   0.82067276   -7.1191963    715.45014  0.022089976  0.021717283            6 
 2700000   0.81932764   -7.0841733    718.32089  0.022170398  0.021710367            4 
 2701000   0.83491945   -7.1162973    717.69315  0.022142822  0.021703488           11 
 2702000    0.8239885   -7.0983862    716.34639  0.022093091  0.021696604           11 
 2703000   0.81869043   -7.0876735    717.21605  0.022111729  0.021689727            9 
 2704000   0.81258403   -7.1392126    717.04883  0.022098398  0.021682812           12 
 2705000   0.81879962   -7.1031288    716.64573  0.022077811  0.021675883            5 
 2706000   0.82289091   -7.0909823    717.46174  0.022094781  0.021668946           14 
 2707000   0.82322401    -7.128773    714.90767  0.022007994  0.021661999           25 
 2708000   0.81183685   -7.1178378    716.11385  0.022036985  0.021655031            6 
 2709000   0.82618059    -7.128255    716.43148  0.022038621  0.021648054           12 
 2710000   0.81544132   -7.1433658    715.95501  0.022015837    0.0216411            7 
 2711000   0.81787502    -7.103964    715.75472  0.022001559   0.02163416           13 
 2712000   0.81687165   -7.1054143    716.60177  0.022019474  0.021627213            9 
 2713000   0.82779326   -7.1094653    718.35311  0.022065153  0.021620284            9 
 2714000   0.82469123   -7.0970202    719.21111  0.022083367  0.021613348            5 
 2715000   0.82449692   -7.1220384    715.93409   0.02197465  0.021606418            7 
 2716000   0.80863333   -7.1092262    715.77026  0.021961532  0.021599482            3 
 2717000   0.80631294    -7.127504    715.16895  0.021935006  0.021592513            9 
 2718000   0.80857304   -7.1513314    717.03874  0.021984264  0.021585547            9 
 2719000   0.81745126   -7.1000963     719.3692  0.022047603  0.021578566            6 
 2720000   0.82237766   -7.0671349     718.2362  0.022004785  0.021571658           10 
 2721000   0.81284693   -7.0847177    717.49191  0.021973904  0.021564763            6 
 2722000   0.80990821   -7.0965166    718.68266  0.022002286  0.021557912            7 
 2723000   0.82155516    -7.099272    717.57362  0.021960265  0.021551051            7 
 2724000   0.82152003   -7.1103743    719.56406  0.022013095  0.021544214            8 
 2725000   0.81475338   -7.0946319     720.4834  0.022033131  0.021537376           19 
 2726000   0.82296883   -7.1234777    718.48464  0.021963947  0.021530522            6 
 2727000   0.81360174   -7.1097882    716.36506  0.021891122  0.021523642            9 
 2728000   0.79985969   -7.1142105    718.54515  0.021949693  0.021516766            5 
 2729000   0.79878326   -7.1201777     718.3455  0.021935553  0.021509898           13 
 2730000   0.79270984   -7.1060162    719.55019  0.021964291  0.021503062            7 
 2731000   0.80952996   -7.1276808    719.30537  0.021948779  0.021496243           10 
 2732000   0.82727961   -7.1257601     717.6571  0.021890468  0.021489397            6 
 2733000   0.82757321   -7.1708849    716.16507  0.021836964  0.021482506            8 
 2734000   0.81860368   -7.1332389    719.54548  0.021932013  0.021475603           11 
 2735000   0.82126485   -7.1328911    718.24263  0.021884297  0.021468733           16 
 2736000   0.82451729   -7.1024477     719.4353  0.021912625  0.021461912            9 
 2737000   0.81143555   -7.1009364    718.53974  0.021877352  0.021455103            8 
 2738000   0.81381731   -7.1161801    718.94547   0.02188171  0.021448245           16 
 2739000   0.81546514   -7.1629566    719.66433  0.021895592  0.021441408           17 
 2740000   0.83036197   -7.1250127    720.56314  0.021914937  0.021434599           10 
 2741000   0.80247161    -7.122973    720.49954  0.021905009  0.021427784           12 
 2742000   0.82138554   -7.1060456    720.36282  0.021892865  0.021420961           13 
 2743000   0.82402314   -7.1117403    719.30265  0.021852675  0.021414132           11 
 2744000    0.7960266   -7.1173416     718.9061  0.021832668  0.021407331           12 
 2745000   0.80955674   -7.1339105    719.58866  0.021845436  0.021400514           14 
 2746000   0.79455351   -7.1131258    720.38581  0.021861672  0.021393643            9 
 2747000    0.8184487   -7.0918245    718.35612   0.02179214  0.021386799            6 
 2748000   0.80550127   -7.1229556    720.05226  0.021835646  0.021380013            8 
 2749000   0.82215087   -7.1628228    717.53808  0.021751488  0.021373173           10 
 2750000   0.82630476   -7.0942145    721.24886  0.021856026  0.021366389            7 
 2751000   0.79868951   -7.1201349    721.18264  0.021846075  0.021359612           13 
 2752000   0.81701527    -7.093019    720.55136  0.021819021  0.021352869            4 
 2753000   0.82809212   -7.1399654    719.02436  0.021764874  0.021346116            7 
 2754000   0.79915594   -7.1237251     720.8646  0.021812654  0.021339367            8 
 2755000   0.81453688   -7.1161606    721.24194  0.021816151  0.021332611            8 
 2756000   0.80761312    -7.116309    720.82969   0.02179577  0.021325861            6 
 2757000   0.78989684   -7.1207442    721.38204  0.021804559  0.021319129            7 
 2758000   0.79992528   -7.1079793    723.41112  0.021857962  0.021312408           14 
 2759000   0.82607041    -7.145157    718.73889  0.021708919  0.021305684           11 
 2760000   0.81817862   -7.0478626    722.12938  0.021803423  0.021298959            7 
 2761000   0.80049195   -7.0696914    722.43319  0.021804696  0.021292262           11 
 2762000    0.8099844   -7.1234376    720.65646  0.021743195  0.021285525            8 
 2763000   0.79325635   -7.1235581    719.73828  0.021707633  0.021278754           12 
 2764000   0.83819067   -7.1104298    721.25249  0.021745432  0.021271958            8 
 2765000    0.8374285   -7.1255022    720.47373  0.021714097  0.021265198           12 
 2766000   0.81432545   -7.1362932    720.68982  0.021712757  0.021258418           21 
 2767000   0.80820143   -7.1290833    719.51918  0.021669654  0.021251626            7 
 2768000   0.81221673   -7.1579836    720.31888  0.021685901  0.021244837           18 
 2769000   0.80147856   -7.1575794    719.63798  0.021657577  0.021238029            5 
 2770000   0.80994455   -7.1575931    720.65094  0.021680233  0.021231183           17 
 2771000   0.81090437   -7.1739786    720.02777  0.021653668  0.021224336           15 
 2772000   0.81475301   -7.1628651    720.91257  0.021672456  0.021217538           12 
 2773000    0.8221809    -7.158612     721.8166  0.021691808  0.021210724           10 
 2774000   0.81236022   -7.1738736    719.70713  0.021620618    0.0212039           11 
 2775000   0.81636305   -7.1547543    720.86907   0.02164772  0.021197069           14 
 2776000   0.80060363   -7.1393548    721.67715   0.02166418   0.02119026            8 
 2777000   0.81338176   -7.1289902    721.51961  0.021651651  0.021183479           13 
 2778000   0.80274381   -7.1338408    720.84582  0.021623645  0.021176722            6 
 2779000   0.79292475   -7.1408506    719.93745  0.021588624   0.02116992           11 
 2780000   0.81712926   -7.1570482    719.35562  0.021563418    0.0211631            8 
 2781000   0.79438496   -7.1307408     721.6851  0.021625467    0.0211563            7 
 2782000   0.81327977   -7.1507979    721.66617  0.021617127  0.021149499            5 
 2783000   0.79474018   -7.1487236    719.87752  0.021555801  0.021142711           11 
 2784000   0.79997313   -7.1609942    721.07248  0.021583827  0.021135851            8 
 2785000     0.786478   -7.1808847    721.08423  0.021576428  0.021128996           16 
 2786000   0.79206702    -7.154259       722.15  0.021600562  0.021122192           14 
 2787000   0.82102342   -7.1403698    721.38071   0.02156981  0.021115413           18 
 2788000   0.80220255   -7.1748335    721.25776  0.021558398  0.021108631            8 
 2789000   0.80583079   -7.1559184    721.91667  0.021570356  0.021101816            7 
 2790000   0.80074386   -7.1261572    721.72034  0.021556761  0.021095047            4 
 2791000   0.80942741   -7.1648131     719.7156   0.02148918  0.021088273           11 
 2792000   0.78694474   -7.1415175    722.38809  0.021561249  0.021081495            9 
 2793000   0.81760533   -7.1625456    720.02749  0.021483097  0.021074694           31 
 2794000   0.81908305    -7.196985    720.70161  0.021495514  0.021067847           20 
 2795000   0.79477798   -7.1836295    720.28372  0.021475364     0.021061           15 
 2796000   0.79758807   -7.1575462    722.29216  0.021527544  0.021054205           13 
 2797000   0.80124547   -7.1632494    721.37586  0.021492547  0.021047454            9 
 2798000   0.80880015   -7.1403151    721.93737   0.02150159  0.021040692            6 
 2799000   0.79943029   -7.1400955    721.98425  0.021495304  0.021033886            8 
 2800000   0.79581153   -7.1394271    722.20739  0.021494267  0.021027121            9 
 2801000   0.80143532   -7.1670693    721.92133  0.021478083  0.021020365            5 
 2802000   0.81287422    -7.170379    722.35511  0.021483319  0.021013588            8 
 2803000   0.79930821   -7.1391551    720.14514  0.021409952  0.021006822            6 
 2804000   0.79132684   -7.1592643    721.38779  0.021439247  0.021000074           20 
 2805000   0.80624772    -7.127547     723.7009  0.021500324  0.020993312            6 
 2806000   0.81613158   -7.1686254    722.61492   0.02146041   0.02098657            6 
 2807000   0.81677952   -7.1695234    721.79366  0.021428383  0.020979805            8 
 2808000    0.8064415   -7.1688976    722.38419  0.021438277  0.020973062           17 
 2809000   0.79678716    -7.170506    721.93969  0.021417458  0.020966338           11 
 2810000    0.8023177   -7.1928959    721.52207  0.021397452  0.020959571           11 
 2811000   0.79959232   -7.1773058    721.52033  0.021389788  0.020952799            8 
 2812000   0.79123801   -7.1622708    722.20054  0.021402339  0.020946012           15 
 2813000   0.79335558   -7.1812751      722.255  0.021396344  0.020939263           16 
 2814000   0.82168964   -7.1654558    723.65292  0.021430139  0.020932498            9 
 2815000    0.8064462   -7.2078256    723.08753  0.021405788   0.02092574            9 
 2816000   0.80513505   -7.1601323    722.91656  0.021393127  0.020918991           12 
 2817000   0.81280317   -7.1641387    721.43046  0.021341571  0.020912245            9 
 2818000   0.79961497   -7.1993401    721.69185  0.021341727  0.020905504           10 
 2819000   0.79140431   -7.2134966    722.85044  0.021368406  0.020898686           15 
 2820000    0.7815699   -7.1775456    718.61017  0.021235525   0.02089188           21 
 2821000   0.81898951   -7.1935303    721.71919  0.021319839  0.020885079           24 
 2822000   0.81178799   -7.1957981    721.74137  0.021312939  0.020878256           33 
 2823000   0.79846777   -7.1816494    722.49206  0.021327549  0.020871414           23 
 2824000   0.79917851   -7.1998562    721.61661  0.021294164  0.020864598           18 
 2825000   0.80064609   -7.1894715    722.12119   0.02130151  0.020857785            8 
 2826000   0.78823416   -7.1855466      721.512  0.021276008  0.020851001            9 
 2827000   0.79232259   -7.2112546    721.69494  0.021273875  0.020844181           12 
 2828000   0.79332643    -7.196919    721.84922  0.021270899   0.02083736           49 
 2829000   0.80609248   -7.1959715    722.39203  0.021279369  0.020830547           16 
 2830000   0.80054727   -7.1238396     724.3763   0.02133028  0.020823779           14 
 2831000   0.80772745   -7.1770377    723.30285  0.021291147  0.020817033            6 
 2832000   0.77996889   -7.1697347    722.36253  0.021255959  0.020810282           15 
 2833000   0.79396252   -7.1702033    723.62809  0.021285683   0.02080354           10 
 2834000   0.80018241   -7.1823771    721.62262  0.021219202  0.020796818           10 
 2835000    0.8022744   -7.1887559    722.79212  0.021246094  0.020790065           18 
 2836000   0.79660805   -7.1641261    724.76585  0.021296599  0.020783292            9 
 2837000   0.78576444   -7.1689202    723.41611  0.021249445  0.020776581            7 
 2838000    0.7824456   -7.1906598    722.88697   0.02122642  0.020769841           11 
 2839000   0.79186424   -7.1897317    724.76636  0.021274109  0.020763071           17 
 2840000   0.81665817   -7.1580444    723.93393  0.021242193  0.020756326            8 
 2841000   0.79694539   -7.1557988    724.66705   0.02125622  0.020749637            7 
 2842000   0.79893246   -7.1475661    724.32661  0.021238758  0.020742949            9 
 2843000   0.78617897   -7.1739609    723.36187  0.021203009  0.020736248           11 
 2844000   0.78530241   -7.1313426    726.33065  0.021282544  0.020729558           10 
 2845000   0.79968286   -7.1896604    721.99704  0.021148126  0.020722884           11 
 2846000   0.80683031   -7.1803653    723.74063   0.02119175  0.020716235           12 
 2847000   0.79372267   -7.1561822    725.93213  0.021248453  0.020709589            6 
 2848000    0.7821159   -7.1793345    725.25828  0.021221275  0.020702945            8 
 2849000   0.78110683   -7.2069865    723.49688  0.021162305  0.020696261            5 
 2850000    0.7894341   -7.1840475    723.94881  0.021168094  0.020689581            9 
 2851000   0.79855106   -7.1818573    724.82407  0.021186253  0.020682929            8 
 2852000   0.79351453   -7.1581463    724.64246  0.021173517   0.02067629           10 
 2853000   0.79650621   -7.1664953    723.98805  0.021146981  0.020669685            5 
 2854000   0.78811928   -7.1493337     726.3639  0.021208944  0.020663036           17 
 2855000   0.79441859     -7.17613    724.85909  0.021157592  0.020656406           12 
 2856000   0.79081317   -7.1691012    724.96183  0.021153181  0.020649739           12 
 2857000   0.80109544   -7.1791666    725.76336  0.021169156  0.020643062           14 
 2858000   0.78627393   -7.2091914    723.33261  0.021090874  0.020636405            7 
 2859000    0.8033116   -7.1768985    725.76827  0.021154491  0.020629772           15 
 2860000   0.79724269    -7.180603    725.33652  0.021134514  0.020623136            9 
 2861000   0.79553698     -7.18458    724.28142  0.021096395  0.020616497            7 
 2862000      0.78067   -7.1580201    725.12372  0.021113549  0.020609861           10 
 2863000   0.78172076   -7.1802254    725.58234  0.021119523    0.0206032           13 
 2864000   0.78993287   -7.1796698    725.38548  0.021106421  0.020596537            7 
 2865000   0.80511197   -7.1762197    723.56058  0.021045974  0.020589855           15 
 2866000   0.81099832   -7.1905234    724.85478  0.021076261  0.020583174            7 
 2867000    0.7912306   -7.1519304    728.28969   0.02116875  0.020576517            8 
 2868000   0.78121045   -7.1865416      724.068  0.021038703  0.020569878           11 
 2869000   0.80751495   -7.1554387    726.65922  0.021106635  0.020563223            9 
 2870000   0.78854668   -7.1839131    726.35231  0.021090369  0.020556561           18 
 2871000   0.80286223   -7.1665371    724.05945  0.021016471  0.020549922           11 
 2872000   0.80544856   -7.1467036    726.54394  0.021081242  0.020543287            7 
 2873000   0.78505165   -7.1867321    725.35067  0.021039293  0.020536656           26 
 2874000   0.80523516    -7.169937    725.43767  0.021034495  0.020530035            8 
 2875000   0.79136526   -7.1597795    724.69303  0.021005595  0.020523417            7 
 2876000   0.78318717   -7.2065129    727.41042  0.021077029  0.020516776           17 
 2877000   0.77365062   -7.2127192    725.06172  0.021001672  0.020510078           12 
 2878000   0.80169884    -7.197356    726.57573  0.021038213  0.020503414           12 
 2879000   0.77392372   -7.1768576    726.60454   0.02103174  0.020496798           13 
 2880000    0.8004668   -7.2007509    724.71118  0.020969652  0.020490166            8 
 2881000   0.78142902   -7.1899263     725.2173  0.020977013  0.020483495           13 
 2882000   0.80208793   -7.2250986    725.08184  0.020965818  0.020476829            9 
 2883000   0.79606328   -7.1635936    725.51592  0.020971093  0.020470149            5 
 2884000   0.79283338   -7.1515369    726.09996  0.020980697  0.020463516           10 
 2885000   0.78405084   -7.2014901     725.1729  0.020946646  0.020456854           10 
 2886000   0.79365477   -7.1993675    726.84404  0.020987643   0.02045016           11 
 2887000   0.77210309   -7.1695498    726.98309  0.020984387  0.020443488            8 
 2888000    0.8020813   -7.1942489    725.93159  0.020946779  0.020436816           13 
 2889000   0.78726254   -7.2108793     726.2756  0.020949452  0.020430212           26 
 2890000   0.80344561   -7.2096033    725.13761  0.020909389  0.020423546            6 
 2891000   0.79884442    -7.211158    725.99162  0.020926773  0.020416863            9 
 2892000   0.78898623   -7.2188001    724.07845  0.020864409   0.02041016           10 
 2893000   0.78858362   -7.2355129    723.23491  0.020832899  0.020403438           23 
 2894000   0.78900408    -7.188449    725.35363  0.020886709  0.020396753            5 
 2895000   0.80015852   -7.2334944    724.68554  0.020860263  0.020390044           30 
 2896000   0.79400791   -7.1724994    728.08514  0.020950884  0.020383376           12 
 2897000   0.79680575   -7.2173383    726.06834  0.020885639  0.020376726           10 
 2898000   0.78868043   -7.2134155    725.94498  0.020874884  0.020370042            9 
 2899000   0.77910708   -7.2101128     726.5357  0.020884664  0.020363352           27 
 2900000   0.79519484    -7.205353    725.50105  0.020847731  0.020356699           12 
 2901000   0.78880971    -7.219281    725.35671  0.020836399  0.020350059           11 
 2902000   0.77741373   -7.1981476    724.29754  0.020798804  0.020343396           10 
 2903000   0.78623461   -7.2000038    725.46114  0.020825041   0.02033672           25 
 2904000   0.78699196   -7.2318618    725.37249  0.020815326   0.02033005            7 
 2905000    0.7972967   -7.1858422    726.56856  0.020842472  0.020323382            9 
 2906000    0.7696862   -7.2251741    725.87058  0.020815284  0.020316728           10 
 2907000   0.78092637   -7.2051158    725.16311  0.020787843  0.020310037           16 
 2908000    0.7621503   -7.2416994    726.51454  0.020819422  0.020303333            6 
 2909000   0.80070094   -7.1963102     726.0275  0.020798313  0.020296685           11 
 2910000   0.78074647   -7.1843134    726.31971  0.020799533  0.020290066           12 
 2911000   0.77727728   -7.1997893    727.18461  0.020817148  0.020283434           21 
 2912000    0.7929742   -7.2157525    725.03371  0.020748446   0.02027679           15 
 2913000   0.77229265   -7.2073311    726.53004   0.02078413  0.020270123           19 
 2914000   0.78678545   -7.1905951    726.14403  0.020765958  0.020263501           12 
 2915000   0.78102896   -7.1614506    727.15348  0.020787693  0.020256864           19 
 2916000    0.7993476   -7.2097888    725.98882   0.02074728   0.02025021           22 
 2917000   0.77794714   -7.2168256    725.54626  0.020727524  0.020243547           29 
 2918000   0.76573023   -7.1939413    726.96621  0.020760972  0.020236849           20 
 2919000   0.80159406    -7.204231    725.90003  0.020723422  0.020230186            8 
 2920000   0.77987788   -7.2178327    725.44021  0.020703202  0.020223498           12 
 2921000   0.78676473   -7.2255142    725.88393  0.020708773  0.020216789           17 
 2922000   0.79530682   -7.1767836    726.25397   0.02071224   0.02021012           16 
 2923000   0.77696294   -7.1965702    726.24488  0.020704895  0.020203465           10 
 2924000   0.76856882   -7.2190872    725.78653  0.020684751  0.020196758            7 
 2925000     0.791639   -7.2586693    724.37993  0.020637605  0.020190037           23 
 2926000   0.79210354   -7.2157933     725.9395  0.020674969  0.020183338           17 
 2927000   0.78894237   -7.2091092    724.44045  0.020625226  0.020176669            7 
 2928000   0.78812355    -7.232065    726.22998  0.020669114  0.020169964           24 
 2929000   0.76638989   -7.2347076    726.03132  0.020656405   0.02016328           17 
 2930000   0.77426971   -7.2018911    726.72293  0.020669025  0.020156585           10 
 2931000   0.77912122   -7.2285504    724.72793  0.020605252  0.020149904           24 
 2932000   0.77681943   -7.2486614    727.14015  0.020666785  0.020143237           23 
 2933000   0.77261951   -7.2355209    724.05323  0.020572032  0.020136594           14 
 2934000    0.7795725   -7.2398103    726.75635  0.020641796  0.020129922           22 
 2935000   0.77791119   -7.2079907    727.44883  0.020654424  0.020123313           21 
 2936000   0.77386856   -7.1973261    726.30863  0.020615027   0.02011675           13 
 2937000   0.78165302   -7.1980164    725.54972  0.020586475  0.020110168           10 
 2938000   0.78293758   -7.2063289    726.64101  0.020610421  0.020103601           11 
 2939000   0.79032532   -7.2328309    726.82835   0.02060872  0.020097037           10 
 2940000   0.77508644   -7.2300647    726.71232  0.020598422  0.020090416            7 
 2941000   0.78099495   -7.2236267     726.6348  0.020589221    0.0200838            4 
 2942000   0.78142633   -7.2471165    725.71663  0.020556215  0.020077174            5 
 2943000   0.77559669   -7.2219074     728.1846  0.020619113  0.020070513           26 
 2944000   0.79120081   -7.2552308    727.32462  0.020587767  0.020063848           16 
 2945000   0.78777421   -7.2322339    728.07353  0.020601967  0.020057186           28 
 2946000   0.78475302   -7.2439462    726.67009  0.020555275  0.020050524           20 
 2947000   0.77808396   -7.2302486    724.70688  0.020492786  0.020043873           24 
 2948000   0.77536148   -7.2768135    727.61392   0.02056801  0.020037221           19 
 2949000   0.78289222   -7.2569803    726.29481   0.02052376  0.020030559           16 
 2950000   0.78231788    -7.250329    724.39369  0.020463099  0.020023887           22 
 2951000   0.78280981    -7.253638     726.6301  0.020519318  0.020017218           11 
 2952000   0.77055077   -7.2499899    727.08337  0.020525163  0.020010581           14 
 2953000   0.79530917   -7.2478923    726.62917  0.020505395  0.020003977           29 
 2954000   0.76299277    -7.237799    724.86632  0.020448723  0.019997319           11 
 2955000   0.78059708   -7.2269899     726.6818  0.020493001  0.019990705           14 
 2956000   0.77671949    -7.229752    727.72004  0.020515337  0.019984079           14 
 2957000   0.77347455   -7.2470425    729.21987  0.020550667  0.019977502           14 
 2958000   0.79890239   -7.1809621     729.1978  0.020543098  0.019970945           12 
 2959000   0.77642853   -7.2188161    726.50299  0.020460262  0.019964404           12 
 2960000   0.77170912   -7.2067227     727.5406  0.020482562  0.019957855            9 
 2961000    0.7840477     -7.23402    729.13747  0.020520586  0.019951308           10 
 2962000   0.77483096   -7.1959088    729.71794  0.020529989  0.019944772           28 
 2963000    0.7574786   -7.2438523    727.19743  0.020452172  0.019938191            7 
 2964000   0.77141135   -7.2024337    727.76721  0.020461291  0.019931611            8 
 2965000   0.77413668   -7.2440152    727.29913  0.020441235  0.019925031           16 
 2966000   0.79140682    -7.226989    727.50275  0.020440064  0.019918457           17 
 2967000   0.78803622   -7.2170192     728.4772  0.020460544  0.019911889            8 
 2968000   0.78482029   -7.2333959    729.07703  0.020470492  0.019905313           20 
 2969000   0.76654445   -7.2323686    728.05256  0.020434842  0.019898752           10 
 2970000   0.77466112   -7.2574405     727.3068  0.020407037  0.019892153           18 
 2971000   0.78327303   -7.2343504    728.16603  0.020424269  0.019885589           36 
 2972000   0.78402282   -7.2286596    727.36641  0.020394976  0.019879017           17 
 2973000   0.78069634   -7.2189513     730.0058  0.020462098   0.01987247           10 
 2974000   0.77697613   -7.2351241    729.28956  0.020435148   0.01986593            9 
 2975000    0.7781776    -7.251155    726.37439  0.020346622  0.019859352           15 
 2976000    0.7756831   -7.2561131     725.1686   0.02030602  0.019852766           17 
 2977000    0.7867557   -7.2602738    727.31498  0.020359282  0.019846193           24 
 2978000   0.76846289   -7.2596183    728.59404  0.020388237  0.019839623            6 
 2979000   0.78043131   -7.2616783    727.82833  0.020359973  0.019833049           16 
 2980000   0.75831911   -7.2486208    728.37315  0.020368377  0.019826498           21 
 2981000   0.75840221   -7.2150243    729.73096  0.020399501  0.019819974           13 
 2982000    0.7785238   -7.2306734    728.93795  0.020370499   0.01981349           11 
 2983000   0.78217751   -7.2320523    729.37561  0.020375897  0.019806951           10 
 2984000   0.76634279   -7.2512327    727.48501   0.02031627  0.019800378            8 
 2985000   0.78453592   -7.2334895    728.52978  0.020338631  0.019793833           20 
 2986000   0.77267576   -7.2531681    728.36936  0.020327343  0.019787328            9 
 2987000   0.76912693   -7.2342183    729.98552  0.020365627  0.019780838           23 
 2988000   0.74806596   -7.2362852    728.82829  0.020326537  0.019774363           18 
 2989000   0.78731439   -7.2072094    729.78507  0.020346411  0.019767846           10 
 2990000   0.76911888   -7.2267491    728.29823  0.020298167  0.019761373           12 
 2991000   0.78131775   -7.2298978    729.57396  0.020326924  0.019754887            5 
 2992000   0.78000308   -7.2376157    728.92447  0.020302041  0.019748385            5 
 2993000   0.79194118   -7.2502293    730.57724  0.020341275  0.019741897            9 
 2994000    0.7553684   -7.2135736    730.06966  0.020320353  0.019735397           11 
 2995000   0.77522013   -7.2412914    729.12922  0.020287402  0.019728895           11 
 2996000   0.77308787   -7.2290635    730.99634  0.020332564  0.019722407            8 
 2997000   0.76262758   -7.2349706    730.60193  0.020314813  0.019715931           11 
 2998000   0.76568046   -7.2346477    729.08358  0.020265832  0.019709474           20 
 2999000   0.76389183   -7.2297805    730.64555  0.020302477  0.019703024           14 
 3000000   0.78124586     -7.23332    729.66834  0.020268565  0.019696561           21 
 3001000   0.76705919   -7.2358625     729.2954  0.020251455  0.019690079           14 
 3002000   0.78331014   -7.2464624    727.89662   0.02020588  0.019683562           10 
 3003000   0.77559036   -7.2622179    727.54685  0.020189445  0.019677016           13 
 3004000   0.76715735   -7.2492691    729.04971  0.020224415   0.01967049           14 
 3005000   0.78082579   -7.2675871    729.35183  0.020226063  0.019663957           10 
 3006000    0.7522357   -7.2703131    729.58019  0.020225665   0.01965744           14 
 3007000   0.75821101   -7.2385017    730.16683  0.020235196  0.019650923            9 
 3008000   0.77100443   -7.2331013    729.25332  0.020203162  0.019644423           16 
 3009000   0.78141746   -7.2267378    730.93128  0.020242918  0.019637938           13 
 3010000   0.75423111   -7.2230746    729.81397   0.02020526  0.019631487           11 
 3011000    0.7685943   -7.2328448    728.60587  0.020165113  0.019625053            8 
 3012000   0.75279377   -7.2464365     728.8032  0.020163878  0.019618586           12 
 3013000   0.75805716   -7.2532257     729.1088  0.020165638   0.01961213           24 
 3014000   0.78026452   -7.2165497    731.04237  0.020212408  0.019605698           16 
 3015000   0.76721485   -7.2412214    729.80918  0.020171619  0.019599251           12 
 3016000    0.7494853   -7.2459177    730.98294  0.020197362  0.019592772            9 
 3017000   0.75529841   -7.2310408    728.53363  0.020123015   0.01958627            8 
 3018000   0.74641825   -7.2601499    729.15736   0.02013357  0.019579786           12 
 3019000   0.76376891   -7.2455871    729.31885  0.020131358  0.019573281           11 
 3020000   0.76822838   -7.2606381    729.39733  0.020126858  0.019566803           15 
 3021000   0.74917473   -7.2487833    729.03588  0.020110225  0.019560328           15 
 3022000   0.77597897   -7.2689369    729.44732  0.020114916   0.01955384            9 
 3023000   0.76363028   -7.2629883     729.5118   0.02011004  0.019547358            8 
 3024000   0.78031662   -7.2589425    729.36097  0.020099233  0.019540894           12 
 3025000   0.75430532   -7.2349239    730.49763  0.020123902  0.019534428           25 
 3026000   0.76616493   -7.2630226    730.03217  0.020104433  0.019527945           31 
 3027000   0.76472406   -7.2274782    730.93346  0.020122604  0.019521482           13 
 3028000   0.77285796   -7.2329896    730.75018  0.020110914  0.019515041           13 
 3029000   0.74287213   -7.2361728    730.43513  0.020095607  0.019508606           13 
 3030000   0.75712637   -7.2493973    730.94719  0.020103058  0.019502173           13 
 3031000     0.761785   -7.2430971    729.84189  0.020066037  0.019495725           28 
 3032000   0.78194419   -7.2449822    730.17613  0.020068605  0.019489269            7 
 3033000   0.76803962   -7.2326565    729.40787   0.02004088  0.019482829           13 
 3034000   0.76212999   -7.2545323    731.04737  0.020079306  0.019476381           14 
 3035000   0.75851222   -7.2414476     731.6738   0.02008989  0.019469965           17 
 3036000   0.76850022   -7.2206768    729.36007  0.020019765  0.019463508           12 
 3037000   0.77218684   -7.2302733    730.19879  0.020036187  0.019457047           16 
 3038000   0.75317667   -7.2581911    730.44181  0.020036258   0.01945056            7 
 3039000   0.76879746   -7.2530553    729.18051  0.019995078  0.019444065           13 
 3040000   0.79688847   -7.2298995    729.60797  0.020000218  0.019437635           12 
 3041000   0.79291221   -7.2598689    730.28096  0.020012084    0.0194312           14 
 3042000   0.76634457   -7.2659434    727.39772  0.019926521  0.019424725           13 
 3043000   0.76166067   -7.2658812    728.34623  0.019945948  0.019418211           24 
 3044000   0.75836431   -7.2688837    728.66178  0.019948034  0.019411706            7 
 3045000   0.79282402   -7.2523693    729.91034  0.019975652  0.019405217            6 
 3046000      0.76029   -7.2561867    730.92238  0.019996782  0.019398719           13 
 3047000   0.77228958   -7.2819644    729.09451  0.019940228  0.019392214           15 
 3048000   0.75956916   -7.2731999    728.49048  0.019917172    0.0193857            8 
 3049000   0.75009523   -7.2882545    728.36711  0.019907268  0.019379185            6 
 3050000   0.76881971   -7.2751502    730.48011  0.019958473  0.019372696           17 
 3051000   0.75821316     -7.26272     728.4189  0.019895633  0.019366174           10 
 3052000   0.76181314   -7.2624456    730.12197  0.019935615  0.019359702           14 
 3053000     0.758029   -7.2588384    729.09101  0.019900945   0.01935326            7 
 3054000   0.73920493   -7.2528796    731.30038  0.019954715  0.019346824            5 
 3055000   0.75616515   -7.2694692    729.50355  0.019899169  0.019340344           16 
 3056000   0.75402013    -7.263208    728.36036  0.019861484  0.019333851           11 
 3057000   0.75053981   -7.2717638    729.25144  0.019879278   0.01932736           32 
 3058000   0.76570737   -7.2841741    729.05668   0.01986747  0.019320834           31 
 3059000   0.75164593    -7.250398    730.36729  0.019896679  0.019314325           13 
 3060000   0.77076173   -7.3007356    729.02702  0.019853677   0.01930782           15 
 3061000    0.7833155   -7.2913963    727.54108  0.019806738    0.0193013           20 
 3062000    0.7597495   -7.3239853    727.44158  0.019797561  0.019294759           35 
 3063000   0.76627026   -7.3103188    728.55883  0.019821494  0.019288173           16 
 3064000   0.75206458   -7.3184597     727.6493  0.019790288  0.019281623           13 
 3065000   0.75692421   -7.2938021    727.15311   0.01977034   0.01927513           22 
 3066000   0.75353752   -7.2939839    727.92552  0.019784886  0.019268602           17 
 3067000   0.76434525   -7.2889895    729.10385  0.019810451  0.019262078           14 
 3068000   0.74844271   -7.2883482    731.06453   0.01985725  0.019255607           11 
 3069000   0.76620925   -7.2871204    728.57336  0.019783137  0.019249122            9 
 3070000   0.75845375   -7.2587871    730.67433  0.019833722  0.019242687            7 
 3071000   0.76428315   -7.2631031    730.02538  0.019809654   0.01923627           17 
 3072000   0.75231051   -7.2622344    730.29436  0.019810502  0.019229835           21 
 3073000   0.75989341   -7.2634825    728.64722  0.019759389   0.01922338           25 
 3074000   0.74889404   -7.2370585    731.92931  0.019841935  0.019216924           29 
 3075000   0.75814447   -7.2749965    728.47373  0.019741836  0.019210503           16 
 3076000   0.76449818    -7.285332    728.88669  0.019746605  0.019204058           17 
 3077000   0.76198584   -7.2787356    729.94346  0.019768808  0.019197577           16 
 3078000   0.76311032   -7.2769381    730.54106  0.019778565  0.019191131           11 
 3079000   0.75982927    -7.287802    728.50223   0.01971696    0.0191847            7 
 3080000   0.77382157   -7.2685558    730.63152  0.019768169  0.019178259           30 
 3081000   0.73857869   -7.2744573    728.38382  0.019700958  0.019171806           16 
 3082000   0.76775861   -7.2699537    731.18905  0.019770415  0.019165358           10 
 3083000   0.75416932   -7.2718864    729.26052  0.019711875  0.019158951           12 
 3084000   0.75393042   -7.2765172    730.27156  0.019732803   0.01915255           12 
 3085000   0.76898119   -7.2450184    731.70198  0.019765045  0.019146164           15 
 3086000   0.75887913    -7.260371     730.2493  0.019719413  0.019139792            7 
 3087000   0.77388211   -7.2777378    728.15849  0.019656584  0.019133414           12 
 3088000   0.75147847   -7.2630617     729.8285  0.019695285  0.019126996           13 
 3089000   0.75893136   -7.2701736     730.7678  0.019714249  0.019120589            8 
 3090000   0.76759517   -7.2658041    731.81318  0.019736062  0.019114195           12 
 3091000   0.75653434   -7.2695069    728.37074  0.019636869  0.019107773           14 
 3092000   0.74874123   -7.2714907    731.36209  0.019711139   0.01910134           15 
 3093000   0.74946578   -7.2929765    731.54998  0.019709828  0.019094928           32 
 3094000   0.76070275   -7.2879479    728.77478  0.019628711  0.019088499           12 
 3095000   0.76263371   -7.2696307    729.56182   0.01964356   0.01908207           10 
 3096000   0.74973949    -7.270312    729.86857  0.019645472   0.01907566           37 
 3097000   0.75930483   -7.2759442    729.53448  0.019630139  0.019069249           17 
 3098000   0.75463441   -7.2897068    729.82304  0.019631564  0.019062811           24 
 3099000   0.75307963   -7.2807851    729.86173   0.01962627  0.019056365           10 
 3100000   0.74911408   -7.2944888    729.42795  0.019608278  0.019049906           21 
 3101000   0.76477467   -7.2917021    729.95014  0.019615988  0.019043455           10 
 3102000   0.76596223   -7.2914857    730.36225  0.019620735  0.019036996           13 
 3103000    0.7540408   -7.2970223    729.49207  0.019591043  0.019030548           14 
 3104000   0.75776426   -7.2913404    729.72483   0.01959098  0.019024086           15 
 3105000   0.75883115   -7.2908193    729.61236  0.019581652  0.019017596           10 
 3106000   0.76437138   -7.3117114    728.52424  0.019546154  0.019011142           13 
 3107000   0.76594539   -7.3014727    730.34281  0.019588639  0.019004666           13 
 3108000   0.74784817   -7.2673714    730.96253  0.019598952  0.018998223           25 
 3109000   0.75549951   -7.3092982    730.30262   0.01957496  0.018991765           16 
 3110000   0.76989758   -7.3126349    726.46544  0.019465848   0.01898529           15 
 3111000   0.74837938   -7.3318953    729.13755  0.019531168  0.018978825           26 
 3112000   0.75154551   -7.3442564    729.13744  0.019524889   0.01897234           19 
 3113000   0.74681549   -7.3499869    728.04432  0.019489354  0.018965841           25 
 3114000   0.75465929   -7.3085041    729.09327  0.019511166  0.018959356           27 
 3115000   0.76846855   -7.2979265    730.76297  0.019549571  0.018952889           31 
 3116000   0.74156192   -7.3074363    731.40812  0.019560551  0.018946412           14 
 3117000    0.7592005    -7.329926    728.84095  0.019485642  0.018939929            9 
 3118000   0.77130808   -7.3327156    729.75568   0.01950384  0.018933436           27 
 3119000   0.77039612   -7.3433721    727.85939  0.019446922  0.018926918           16 
 3120000   0.75744005   -7.3077622    729.57317  0.019486463   0.01892042           19 
 3121000    0.7494595   -7.3153383    729.61195  0.019481255   0.01891395           13 
 3122000   0.75165129   -7.3181269    730.31956  0.019493902  0.018907486           12 
 3123000    0.7428131   -7.3350838    729.87701  0.019475852  0.018901024           23 
 3124000   0.74689912   -7.3467283     729.2402   0.01945263  0.018894596           16 
 3125000   0.75478711   -7.3060048     731.3248  0.019501995  0.018888159           21 
 3126000   0.75017147   -7.3133873    728.26122  0.019414087  0.018881731           13 
 3127000   0.75012706   -7.3342558    726.75412  0.019367714  0.018875267           19 
 3128000   0.75546926   -7.2987944      729.259  0.019428256  0.018868816           21 
 3129000   0.76109237   -7.3251272    729.87164  0.019438363  0.018862344           21 
 3130000   0.76586206   -7.2863451    730.86272  0.019458539  0.018855902            8 
 3131000   0.75574839   -7.2973268    728.84857  0.019398716  0.018849489           12 
 3132000   0.74999472   -7.3188204    730.23036  0.019429288  0.018843048           18 
 3133000   0.75695002   -7.3246803    731.46774  0.019455999  0.018836634           15 
 3134000   0.74910483   -7.3239323    729.36753  0.019393946  0.018830227           19 
 3135000   0.74308331   -7.2934057    731.91952  0.019455596  0.018823836           13 
 3136000   0.76188419   -7.2904207    731.63973  0.019441957  0.018817454           15 
 3137000   0.75372882   -7.2993011    731.62612  0.019435398  0.018811037           10 
 3138000   0.73785095   -7.3117215    730.89014   0.01940966  0.018804627           14 
 3139000    0.7528503   -7.3366038    729.41675  0.019364361  0.018798202           15 
 3140000   0.74688874    -7.297192    730.40072  0.019384308  0.018791795           13 
 3141000   0.74261473   -7.3457282    729.72359  0.019360172  0.018785359           39 
 3142000   0.75804165   -7.3068469    731.54366  0.019402283  0.018778934           42 
 3143000   0.75195932    -7.326268    728.84775   0.01932463  0.018772533           40 
 3144000   0.73596696   -7.3022582    731.60154  0.019391474  0.018766144           21 
 3145000   0.75917944     -7.30056    730.51961   0.01935664  0.018759747           34 
 3146000   0.73275695   -7.3096791    729.88681  0.019333726  0.018753331           27 
 3147000    0.7427902    -7.335467    729.91622  0.019328361  0.018746918           10 
 3148000   0.76911073   -7.3023018    729.59143  0.019313623  0.018740514           13 
 3149000   0.73975346   -7.3158656    730.12274   0.01932155  0.018734124           20 
 3150000    0.7787176   -7.3046644    729.66484  0.019303303  0.018727783           35 
 3151000   0.74907984   -7.3117796    731.04774   0.01933375  0.018721414           16 
 3152000   0.74593864   -7.3229766    729.73989  0.019293038  0.018715034           14 
 3153000   0.73393775   -7.3322501     730.9734  0.019319521  0.018708658           13 
 3154000   0.74645277   -7.3449372    731.33102  0.019322844   0.01870227           32 
 3155000     0.753548   -7.3317134    729.23237  0.019261288  0.018695884           21 
 3156000   0.74758503   -7.3505089    730.94827  0.019300493  0.018689489           17 
 3157000   0.74724342   -7.3286081    730.00501  0.019269481   0.01868311           10 
 3158000   0.75077064    -7.326377    731.27702  0.019296945  0.018676711           15 
 3159000    0.7391819   -7.3019534    732.29495  0.019317689  0.018670349           26 
 3160000    0.7384065   -7.3280244    729.55542  0.019239331  0.018663996           23 
 3161000   0.75276908   -7.3128828    732.16329  0.019301995  0.018657632           21 
 3162000   0.75128448   -7.3599779    729.58656  0.019227982  0.018651269           15 
 3163000   0.74664538   -7.3265082    731.24964  0.019265719   0.01864489           24 
 3164000   0.74166533   -7.3091496    731.81403  0.019274495  0.018638514           17 
 3165000   0.75689574   -7.3413106    731.23807   0.01925324   0.01863215           13 
 3166000   0.75521575   -7.3366399    730.41909  0.019225602  0.018625789           27 
 3167000   0.72926634   -7.3607805    731.52666  0.019248675  0.018619399           12 
 3168000   0.74608389   -7.3607927    731.15759  0.019232891  0.018613023           28 
 3169000   0.73418282   -7.3075408    731.56503  0.019237536  0.018606666           17 
 3170000   0.75174027   -7.3255659    730.87214  0.019213253  0.018600329           14 
 3171000   0.73406572   -7.3397787    730.61683  0.019200484  0.018593988           27 
 3172000    0.7470204   -7.2815964    732.39616  0.019241177  0.018587673           10 
 3173000   0.76618805   -7.3321689    733.45821  0.019263006  0.018581377           14 
 3174000   0.74450233   -7.3333721     732.2318  0.019224737  0.018575074            8 
 3175000   0.73657356   -7.3397049     730.9145  0.019184108  0.018568747           16 
 3176000   0.75149358   -7.3357109    731.96993   0.01920576  0.018562394           32 
 3177000   0.73916891   -7.3303209    732.19342  0.019205577  0.018556065           15 
 3178000   0.74430674   -7.3284055    729.73047   0.01913495  0.018549725           19 
 3179000   0.75563359   -7.3532686    730.37695  0.019145878  0.018543367           16 
 3180000   0.75294369    -7.335395    731.11866  0.019159294  0.018537027           12 
 3181000   0.75690685   -7.3444075    729.70706  0.019116291  0.018530686           30 
 3182000   0.73484441   -7.3534265    730.39046  0.019128181  0.018524326           13 
 3183000   0.75550754   -7.3412113    732.70956  0.019182887  0.018517973           24 
 3184000   0.73419463   -7.3166018    730.34857  0.019115069   0.01851162           11 
 3185000   0.73164602   -7.3494276    730.19614   0.01910508  0.018505261           22 
 3186000   0.75341793   -7.3687744    730.59967  0.019109638   0.01849891           35 
 3187000   0.73195231   -7.3341211    729.35927  0.019071208  0.018492557           21 
 3188000   0.74843854    -7.345884    731.74309  0.019127538  0.018486202           20 
 3189000   0.74867767   -7.3574626    729.34114  0.019058774   0.01847982           13 
 3190000   0.74751221   -7.3692168    727.91038  0.019015423  0.018473433           24 
 3191000   0.74207565   -7.3602705    729.47239  0.019050256  0.018467086           13 
 3192000   0.75266947   -7.3664977    729.13529  0.019035487  0.018460733           35 
 3193000   0.75327433   -7.3476025    729.30527  0.019033962  0.018454367           23 
 3194000   0.72557602    -7.361104    730.37387  0.019055883  0.018447992           23 
 3195000   0.74128639    -7.362354    730.66119  0.019057412  0.018441631           22 
 3196000    0.7311706   -7.3475092    731.15833  0.019064412  0.018435287           15 
 3197000   0.74662107   -7.3782434    730.25723  0.019034961  0.018428936           20 
 3198000   0.76765234   -7.3815636    728.84436  0.018992192  0.018422559           21 
 3199000   0.74560503    -7.358548    731.87488  0.019065199  0.018416187           55 
 3200000   0.73165009   -7.3906819     729.2047  0.018989706  0.018409795           38 
 3201000   0.73682613   -7.3318934    730.68371  0.019022277  0.018403439           33 
 3202000   0.77212492   -7.3564282    731.07472  0.019026512  0.018397134           16 
 3203000   0.73757969   -7.3373085    733.70183  0.019088923  0.018390853           17 
 3204000   0.73285553   -7.3538051    729.89668  0.018983996  0.018384536           15 
 3205000   0.73283488   -7.4017271    729.35014  0.018963862  0.018378197           32 
 3206000   0.73635181     -7.40015    728.77338  0.018942955   0.01837183           16 
 3207000   0.73658164   -7.3666004    731.65122  0.019011829  0.018365471           22 
 3208000   0.74058681   -7.3367073    730.13598  0.018966541  0.018359164           10 
 3209000   0.73257032   -7.3630956    730.10063  0.018959713  0.018352851           21 
 3210000   0.72575259   -7.3768113    730.79083  0.018971724  0.018346522           23 
 3211000   0.73159071   -7.3528197    730.68282  0.018963013  0.018340192           29 
 3212000   0.72955054   -7.3659786    729.92987  0.018937574  0.018333861           55 
 3213000   0.73234348   -7.3360685    730.03982  0.018934532  0.018327543            7 
 3214000   0.73992056   -7.3599248    731.98026  0.018978953  0.018321206           14 
 3215000   0.72690874   -7.3601109    731.03989  0.018948675  0.018314897           14 
 3216000   0.73469646   -7.3666875    731.11823  0.018944813  0.018308587           15 
 3217000   0.74136378   -7.3952824    729.26378  0.018890887  0.018302269           12 
 3218000   0.73567777   -7.3557615    729.38888  0.018888256  0.018295964           22 
 3219000   0.73772429   -7.3796117    732.16594   0.01895428  0.018289661           27 
 3220000   0.73197049   -7.3677111    730.22007  0.018898035   0.01828338           19 
 3221000   0.73775273   -7.3489233    731.70621  0.018930617   0.01827709           17 
 3222000   0.74819636   -7.3402264    732.60488  0.018947985  0.018270839           15 
 3223000   0.73901061   -7.3943012    731.15504  0.018904619  0.018264581           18 
 3224000   0.74001245    -7.359979    730.09041  0.018871237    0.0182583           26 
 3225000    0.7179876   -7.3610929    731.67485  0.018906327  0.018252024           33 
 3226000   0.74665379   -7.3424349    731.65237  0.018899886  0.018245749           14 
 3227000    0.7280373   -7.3604089    731.50104  0.018890121  0.018239498           26 
 3228000   0.70670889   -7.3831857    731.08394  0.018873501  0.018233232           17 
 3229000   0.72877585   -7.3986007    731.09002  0.018867813  0.018226941           23 
 3230000   0.72326344   -7.3656332    732.85064  0.018907395   0.01822067           39 
 3231000   0.72398187   -7.3342966    732.09154  0.018881965  0.018214419           17 
 3232000   0.72466833   -7.3498116    732.63559   0.01889015  0.018208168           28 
 3233000   0.74100792   -7.3431197    733.10666   0.01889645  0.018201938           11 
 3234000   0.73365358   -7.3642358    731.89492  0.018859383  0.018195678           27 
 3235000   0.73291669     -7.37238    731.06314  0.018832126  0.018189423           12 
 3236000   0.74251989   -7.3584488    732.01898  0.018850921  0.018183184           11 
 3237000   0.71123147   -7.3430535    731.58556   0.01883394  0.018176935           14 
 3238000   0.74674261   -7.3611628    731.39935  0.018823331  0.018170689           21 
 3239000   0.71470612   -7.3606895    732.31744   0.01884114  0.018164476           11 
 3240000    0.7516247   -7.3574746    732.24681  0.018833508  0.018158229            7 
 3241000   0.72161287   -7.3666136    731.05636  0.018797088  0.018151999           12 
 3242000   0.74069959   -7.3733476     729.6116  0.018754154  0.018145753           19 
 3243000   0.72762541   -7.3731238    732.22804  0.018815604  0.018139521           13 
 3244000   0.72119121   -7.3849503     731.5417  0.018792173  0.018133285           18 
 3245000   0.73407328   -7.3828708    731.23751   0.01877857  0.018127058            9 
 3246000   0.73379294   -7.3702292    732.17395  0.018796825  0.018120811           12 
 3247000   0.75203746   -7.3855876    730.01016  0.018735504   0.01811456           11 
 3248000   0.73001274   -7.3883793     731.6238  0.018771136  0.018108342           19 
 3249000   0.74418091   -7.3591561    731.37827  0.018759061    0.0181021           14 
 3250000   0.74518726   -7.3552521    731.63372  0.018759839  0.018095846            7 
 3251000   0.72877158   -7.3636438    731.28489  0.018745127  0.018089618           14 
 3252000   0.72154409   -7.3478761    730.83377  0.018727803  0.018083373            9 
 3253000   0.72356285   -7.3654584    732.42207  0.018762734  0.018077139            9 
 3254000   0.72312833   -7.3781608    730.62309  0.018710897  0.018070907           23 
 3255000   0.71900041   -7.4037338    730.05956  0.018690721  0.018064645           13 
 3256000   0.70546897   -7.4001185    732.14434  0.018738338  0.018058383           26 
 3257000   0.71685641   -7.4289573    729.09682  0.018654611  0.018052097           18 
 3258000   0.72514701   -7.4081607    730.94307  0.018696109  0.018045808           36 
 3259000   0.72559495   -7.4039452    729.72372  0.018659193  0.018039537           31 
 3260000   0.71830705    -7.404769     730.7555  0.018679844  0.018033269           17 
 3261000   0.71894973   -7.4120135    731.87083  0.018702617  0.018026991           28 
 3262000   0.72705049    -7.413975    731.45401  0.018686236  0.018020718           35 
 3263000   0.72509569   -7.3949268    729.07515  0.018619755  0.018014445           28 
 3264000   0.74434502   -7.3981242    731.28573  0.018670489   0.01800818           26 
 3265000   0.72110482   -7.4159814    730.14297  0.018635604  0.018001903           63 
 3266000   0.72346063   -7.3860565    730.78761  0.018646346  0.017995648           57 
 3267000   0.74420988   -7.4245718    731.19531  0.018651039  0.017989413           32 
 3268000   0.74053325   -7.4288888    729.12231   0.01859247  0.017983156           10 
 3269000   0.72469058   -7.3800293      728.052  0.018559498  0.017976895           17 
 3270000   0.74361332   -7.3904745    730.52701  0.018616896  0.017970657           34 
 3271000    0.7262986   -7.3988371    732.34051  0.018657406   0.01796441           20 
 3272000   0.73288329   -7.4249378    729.86757  0.018588722  0.017958143           22 
 3273000   0.72249751   -7.4018534    730.91979  0.018609833  0.017951892           22 
 3274000   0.73330226   -7.4205877    730.80206  0.018601152  0.017945664           23 
 3275000   0.72158021   -7.3972379    733.10659  0.018654112  0.017939468           16 
 3276000   0.71690709   -7.3735637    734.28119  0.018678297  0.017933252           14 
 3277000   0.75915267   -7.3843806    732.55792  0.018628774  0.017927057           24 
 3278000   0.74257517   -7.3901962    733.12008  0.018637383  0.017920855           25 
 3279000   0.73050166   -7.4041576    731.08934  0.018580089  0.017914665           28 
 3280000   0.73087109    -7.401017    730.33317  0.018555213  0.017908461           43 
 3281000   0.71625958   -7.3903844    730.96877  0.018565701  0.017902268           40 
 3282000    0.7296396   -7.3821975    730.83557  0.018556662  0.017896057           22 
 3283000   0.71002827    -7.374078    732.12206  0.018583665  0.017889861           16 
 3284000   0.72208485   -7.3929295    732.05505  0.018576306  0.017883674           28 
 3285000   0.74425368   -7.3988259    731.10884  0.018546647  0.017877479           39 
 3286000   0.72980311   -7.3814207    730.79712  0.018533098  0.017871261           30 
 3287000   0.73847696   -7.3829045    732.50663    0.0185708   0.01786505           61 
 3288000   0.74199045   -7.4122345    731.75831  0.018546186  0.017858821           21 
 3289000   0.72743891   -7.4299323    730.90443  0.018518912  0.017852601           22 
 3290000   0.72671253   -7.4026143    732.81138  0.018561585  0.017846372           52 
 3291000   0.72778335   -7.4276358    729.23009  0.018465261  0.017840148           16 
 3292000    0.7201156   -7.4075768    730.62582  0.018494983  0.017833929           19 
 3293000   0.72070828    -7.399923    730.61631  0.018489126  0.017827729           25 
 3294000   0.74230184   -7.4239631    732.16095   0.01852259   0.01782151            9 
 3295000    0.7418849   -7.4283019    729.94814  0.018461005  0.017815296           35 
 3296000   0.73813093   -7.3924785    731.04472  0.018483129   0.01780908           18 
 3297000    0.7274536   -7.4141053    731.01363  0.018476737  0.017802844           32 
 3298000   0.71216099   -7.4086359    727.81021  0.018390191  0.017796616           15 
 3299000   0.72083937    -7.430492    730.00393   0.01844003   0.01779039           17 
 3300000   0.72965737    -7.435929    730.75915  0.018453514  0.017784135           13 
 3301000   0.71537366   -7.4045056    730.71874  0.018446903  0.017777916           15 
 3302000   0.72604434   -7.3898623       730.33  0.018431506  0.017771707           32 
 3303000   0.73131904   -7.4119557    729.85283  0.018413887  0.017765507           26 
 3304000   0.70907503   -7.4106638    731.63329  0.018453221  0.017759327           35 
 3305000   0.73695238   -7.4232293    730.52566  0.018419709   0.01775315           30 
 3306000    0.7209465   -7.4198724    730.51175  0.018413787  0.017746974           16 
 3307000   0.72785029   -7.4296223    729.17483  0.018374529  0.017740768           53 
 3308000   0.73203691   -7.4210024     729.9887  0.018389477  0.017734556           41 
 3309000   0.73267432    -7.445784    730.03826  0.018385168  0.017728352           49 
 3310000   0.72053593   -7.4428551    729.18952  0.018358246  0.017722136           43 
 3311000   0.73338913   -7.4377422    732.02096  0.018423965  0.017715933           39 
 3312000   0.71362723   -7.4325098    728.48903  0.018329535  0.017709726           55 
 3313000   0.72258693   -7.4301965     730.8727   0.01838396  0.017703521           47 
 3314000   0.71626772   -7.4324684    729.60952  0.018346648  0.017697307           34 
 3315000   0.72695677   -7.4739682     728.6073   0.01831592  0.017691086           20 
 3316000   0.72636857   -7.4438048    729.63316  0.018336177  0.017684871           36 
 3317000   0.70853141   -7.4277422    729.67818   0.01833178  0.017678655           46 
 3318000   0.71191043   -7.4539326     728.7899  0.018303946  0.017672458           24 
 3319000    0.7255764   -7.4217603    730.35842  0.018337813  0.017666252           11 
 3320000   0.72187334   -7.4185937    730.43403  0.018334187  0.017660063           61 
 3321000   0.70683023   -7.4106163    730.51652  0.018330737  0.017653872           48 
 3322000   0.71650286   -7.4385529    729.70631  0.018304894  0.017647689           34 
 3323000   0.69759531   -7.4427483     730.8051  0.018326941   0.01764148           25 
 3324000   0.71280469    -7.436538    729.22504  0.018281815  0.017635289           36 
 3325000   0.73341001     -7.44573    728.45316  0.018256971  0.017629101           33 
 3326000   0.71649823   -7.4344704    730.51706  0.018303193  0.017622922           44 
 3327000   0.70777906   -7.4139901    731.90503  0.018332458  0.017616754           65 
 3328000   0.71394592   -7.4331864    730.60584  0.018294417  0.017610585           47 
 3329000   0.72666918     -7.42705    729.27285  0.018255553  0.017604426           70 
 3330000   0.73233202   -7.4492732    730.53488  0.018281654  0.017598236           44 
 3331000   0.73327228   -7.4306391    730.67326  0.018279627  0.017592071           22 
 3332000   0.73287032   -7.4304046    731.23929  0.018288297   0.01758589           38 
 3333000   0.71520168   -7.4240624    729.88154  0.018248863  0.017579724           31 
 3334000   0.71185026   -7.4528585    731.32487  0.018279466   0.01757356           52 
 3335000   0.71197191   -7.4256783     729.9051  0.018238508  0.017567401           38 
 3336000   0.71366093   -7.4523691    729.97451  0.018234775  0.017561232           29 
 3337000   0.71866469   -7.4355964     729.8642  0.018226556  0.017555085           30 
 3338000      0.74046   -7.4470682    729.99884  0.018224457  0.017548936           23 
 3339000   0.71172534    -7.430664    730.49347  0.018231343  0.017542781           29 
 3340000   0.72389718   -7.4474341    730.86619  0.018235184  0.017536632           23 
 3341000   0.72129064   -7.4255275    732.21997  0.018263493  0.017530472           18 
 3342000   0.71882936    -7.436858    729.07813  0.018179686   0.01752432           25 
 3343000   0.70445842   -7.4266361     732.4565  0.018258463  0.017518185           44 
 3344000   0.70535473   -7.4148069     730.9721  0.018216011  0.017512062           32 
 3345000   0.71678887   -7.4334111    731.30162  0.018218775  0.017505926           62 
 3346000   0.72177845   -7.4510904    730.15693  0.018184821  0.017499785           93 
 3347000   0.71979118   -7.4567289    730.59703  0.018190345  0.017493613           96 
 3348000   0.71000973   -7.4620203    730.17952   0.01817452  0.017487479           88 
 3349000   0.71453969   -7.4396127    730.86035  0.018186034  0.017481346          115 
 3350000   0.71681029   -7.4548223    730.81631   0.01817951  0.017475202           45 
 3351000    0.7218435   -7.4536798    731.16773  0.018182824  0.017469064          127 
 3352000    0.7112427    -7.459404    730.11836  0.018151312  0.017462919           57 
 3353000   0.71795668   -7.4677945    729.85963  0.018139468  0.017456774           37 
 3354000   0.71740715   -7.4548488    729.40856  0.018122852  0.017450636           68 
 3355000   0.72219597    -7.442052    729.55894  0.018121186  0.017444506          149 
 3356000   0.72456611   -7.4636437    730.19792  0.018131653   0.01743838           91 
 3357000   0.71824828   -7.4487877    732.11859   0.01817393  0.017432266          111 
 3358000   0.72667908   -7.4593653     729.5582  0.018104978  0.017426143          137 
 3359000    0.7271426   -7.4695601    729.99765   0.01811049  0.017420018          145 
 3360000   0.71812357   -7.4438683    729.52978  0.018093497  0.017413878           59 
 3361000   0.70519884   -7.4954373    728.75915  0.018069006  0.017407738           79 
 3362000   0.71610288   -7.4655763    728.99425  0.018069459  0.017401585           74 
 3363000   0.68846532   -7.4553828    731.34165  0.018122253  0.017395446           79 
 3364000   0.70510751   -7.4646275    730.11887  0.018086575  0.017389322           49 
 3365000   0.71757349    -7.445457    729.63709  0.018069269  0.017383177           81 
 3366000   0.71584654   -7.4847578    729.53536  0.018061382  0.017377029           44 
 3367000   0.71357789   -7.4811501    729.05713  0.018044182  0.017370894           45 
 3368000   0.70414323   -7.4624133     729.5124  0.018050089  0.017364734           55 
 3369000   0.70324991   -7.4605186    729.58357  0.018046492  0.017358584          128 
 3370000   0.71511533    -7.473171     728.4279  0.018012559  0.017352445          147 
 3371000   0.69858728   -7.4621818    730.58142  0.018060452   0.01734632           60 
 3372000   0.69702161   -7.4753548    729.10013  0.018018489  0.017340199           41 
 3373000   0.69868879   -7.4594087    728.16274  0.017989988  0.017334072           57 
 3374000   0.68931896   -7.4598615    728.41341  0.017990847  0.017327944           32 
 3375000   0.71815021   -7.4682871    730.47071  0.018036314  0.017321823           93 
 3376000   0.71734643   -7.4477035     730.4585   0.01803067  0.017315695           72 
 3377000    0.7132594   -7.4590318    730.36915  0.018023126  0.017309575           41 
 3378000   0.71209118   -7.4663352    729.27081  0.017990695  0.017303439           48 
 3379000   0.71543222   -7.4618096    729.36976  0.017987811  0.017297297           58 
 3380000   0.71151397   -7.4765605    727.20398  0.017929092  0.017291148           96 
 3381000   0.72532421    -7.452265    728.31849  0.017951259  0.017285014           45 
 3382000   0.71643749   -7.4363574    728.89535  0.017960165  0.017278899           35 
 3383000   0.73035634   -7.4827356    729.39793  0.017967236   0.01727278           57 
 3384000   0.68589371   -7.4846447    728.70721  0.017944918   0.01726665           57 
 3385000    0.6836917   -7.4724608    730.68789  0.017988377   0.01726051           92 
 3386000   0.71156645   -7.4271626    731.52311  0.018003621  0.017254397           66 
 3387000   0.70211199   -7.4500048    729.24983  0.017942374  0.017248284           69 
 3388000    0.7100645   -7.4589627    729.85229  0.017951896   0.01724216           98 
 3389000   0.71856096   -7.4515748    731.21708  0.017980158  0.017236075           54 
 3390000   0.71213642   -7.4265799    729.63565   0.01793598  0.017229986           44 
 3391000   0.70672352   -7.4730515    728.90456  0.017912724   0.01722391           42 
 3392000   0.70437913   -7.4773203    729.93776  0.017932826   0.01721782          100 
 3393000   0.70151263   -7.4712327    729.95912  0.017928066  0.017211714           73 
 3394000    0.7228674   -7.4822774    729.25811  0.017905571   0.01720562           93 
 3395000   0.71622774   -7.4703057     729.6496  0.017909907  0.017199529           74 
 3396000   0.70267978   -7.4902987     730.0441  0.017914313  0.017193427           72 
 3397000   0.71053854   -7.4800242    727.34814  0.017842904  0.017187294           76 
 3398000   0.70960137   -7.4921772    728.06224  0.017855166  0.017181176           73 
 3399000   0.70594327    -7.471063    730.46768  0.017908887  0.017175071           47 
 3400000   0.73237611   -7.4910711    729.02051   0.01786815  0.017168979           67 
 3401000    0.7225821   -7.4629522    729.27273  0.017869076   0.01716289           64 
 3402000    0.6979595   -7.5052416    729.05257  0.017858431  0.017156777           45 
 3403000   0.70849938   -7.5071375    728.84999  0.017848222  0.017150653           43 
 3404000   0.69469972   -7.4977804    727.74757   0.01781599   0.01714454           48 
 3405000   0.70445359   -7.5201405    728.51697  0.017829588  0.017138427           83 
 3406000   0.71292915   -7.5096641    728.24589  0.017817721  0.017132328           38 
 3407000    0.7070168   -7.4793044    729.87013  0.017852219  0.017126236           64 
 3408000   0.69808941   -7.5131474    728.53976   0.01781445  0.017120116          106 
 3409000   0.70493946   -7.4943906    727.56472   0.01778539  0.017113979           75 
 3410000    0.7085293   -7.5286141    727.89124  0.017788153  0.017107858          151 
 3411000   0.69146547   -7.5229962    728.64841  0.017801437  0.017101751           72 
 3412000    0.6958676   -7.4830926     729.3892  0.017814312  0.017095668           92 
 3413000   0.71510136   -7.4891889    729.63536  0.017815103  0.017089601           64 
 3414000   0.69780565   -7.4626624    727.75224  0.017763919  0.017083542           76 
 3415000   0.69506499    -7.502695    728.40922  0.017774749  0.017077467           87 
 3416000   0.70774202   -7.5200273     727.3575  0.017743889  0.017071375           90 
 3417000   0.69466979   -7.5299616    728.15449  0.017758133  0.017065271          100 
 3418000   0.71599191   -7.5027857    729.21688  0.017778839  0.017059178           98 
 3419000   0.70174168   -7.5201306     728.7577  0.017762447  0.017053083           99 
 3420000   0.69366033   -7.5120729    728.08357  0.017740828  0.017047008           89 
 3421000   0.69593874   -7.4837756    731.14178  0.017810138  0.017040932          120 
 3422000   0.69872188   -7.4852816     729.0002  0.017752781  0.017034857          105 
 3423000   0.71018317   -7.5125124    729.53536  0.017760623  0.017028796          116 
 3424000   0.69116051   -7.5012104    729.15073  0.017746075  0.017022731           92 
 3425000   0.69072466    -7.474934    730.28382  0.017768463  0.017016679          116 
 3426000   0.71188671   -7.5044735    728.90398  0.017729713  0.017010607          118 
 3427000   0.70962517   -7.5118791    728.46927  0.017713969  0.017004532           63 
 3428000   0.71707962   -7.5235987    728.12964  0.017700545  0.016998449          210 
 3429000   0.70047369   -7.4839552    729.05486  0.017717869   0.01699237          132 
 3430000   0.70606983   -7.5303749    728.29653  0.017694279  0.016986266           82 
 3431000   0.70777391   -7.4913203    728.66568  0.017698088  0.016980174           70 
 3432000   0.69618034   -7.5176614    727.85403  0.017673223  0.016974098           92 
 3433000        0.715   -7.5156535    728.79247  0.017690855  0.016968011          237 
 3434000   0.69584537   -7.5080484    727.23083  0.017647807  0.016961932          184 
 3435000   0.70066349   -7.4861908     729.3825  0.017694869  0.016955844          168 
 3436000   0.71229402   -7.5009069    728.33218  0.017664246   0.01694977          254 
 3437000   0.70868607   -7.4872417    728.88852  0.017672595  0.016943691          100 
 3438000    0.7097615   -7.5478661    725.73163  0.017590935  0.016937604          110 
 3439000   0.68896417   -7.5118035    729.19038  0.017669632  0.016931504          198 
 3440000   0.70520243   -7.5080581    728.54366  0.017648829  0.016925417          117 
 3441000   0.67690164   -7.5181676    728.10174  0.017632998  0.016919339          120 
 3442000   0.70317137   -7.5112713    727.73267  0.017618939  0.016913256          238 
 3443000   0.71425671   -7.4851147    729.41709  0.017654591  0.016907211          247 
 3444000   0.70375076   -7.4915999    728.21735  0.017620435  0.016901146          224 
 3445000   0.70758043   -7.5140736     727.8033  0.017605305  0.016895075          201 
 3446000   0.70317963   -7.5186259    727.20346   0.01758569  0.016889001          183 
 3447000   0.70469332   -7.4918481    728.80014  0.017619189  0.016882937          282 
 3448000   0.70420739   -7.5049707    727.44973  0.017581442  0.016876863          170 
 3449000   0.68797707   -7.5396464    726.68662  0.017557906  0.016870793          138 
 3450000    0.7175115   -7.5292963    728.19582  0.017589271  0.016864725          178 
 3451000    0.7058671   -7.5173052    729.26798  0.017610064  0.016858674          172 
 3452000   0.70068973   -7.5100802    727.12234  0.017553166  0.016852623          173 
 3453000   0.70800533   -7.5130356    727.62329  0.017560172  0.016846552          134 
 3454000   0.70928937    -7.509867    727.63018  0.017555254  0.016840485          118 
 3455000    0.7100928   -7.5087893    728.78982  0.017578143   0.01683443          224 
 3456000   0.71306889   -7.5220555    727.63909   0.01754531  0.016828377          122 
 3457000   0.70517797   -7.5192615    727.67135  0.017541012  0.016822321          128 
 3458000   0.69587497   -7.5168166    727.22025  0.017525069  0.016816275          116 
 3459000   0.68188432   -7.5137235    728.27989  0.017545531  0.016810237           85 
 3460000   0.69064823   -7.5219947    727.38972   0.01751902   0.01680421          278 
 3461000   0.69748015     -7.53028    726.63902  0.017495883  0.016798168          274 
 3462000   0.67881191   -7.4913752    730.81432  0.017591333  0.016792148          148 
 3463000   0.67666366   -7.4906948    729.37864  0.017551705  0.016786131          135 
 3464000   0.69985456   -7.5185574    727.80393  0.017508755  0.016780125          338 
 3465000   0.70175778    -7.508341    727.75237  0.017502462  0.016774109          162 
 3466000   0.68521971   -7.5060446    729.11154  0.017530091  0.016768094          140 
 3467000    0.7030334   -7.5227117    726.95126   0.01747311  0.016762078          209 
 3468000   0.69341329   -7.5161933    726.72316   0.01746259  0.016756068          113 
 3469000   0.69457707    -7.543801    727.40319  0.017473892   0.01675004          121 
 3470000   0.69575084   -7.5350039    728.45438  0.017494101  0.016744003          210 
 3471000   0.70214497   -7.5461013    728.51052  0.017490409  0.016737956          280 
 3472000    0.6983488   -7.5513031    727.29207  0.017456127  0.016731907          393 
 3473000   0.70415296   -7.5316639    728.18105  0.017472431  0.016725874          298 
 3474000   0.68698208   -7.5046891    728.28057  0.017469789  0.016719843          213 
 3475000   0.70704948   -7.5553262    727.11296  0.017436762  0.016713816          150 
 3476000    0.6853841   -7.5692052    726.31271   0.01741256  0.016707788          190 
 3477000   0.69288642   -7.5313292    726.69677  0.017416757  0.016701743          204 
 3478000    0.6807339   -7.5306333     727.7026  0.017435849  0.016695722          175 
 3479000   0.68851819   -7.5335381    728.35703  0.017446513  0.016689705          116 
 3480000   0.69403515   -7.5713309     725.7964  0.017380182  0.016683689          164 
 3481000   0.70169877   -7.5359887    728.53654  0.017440787  0.016677667          239 
 3482000   0.70091604   -7.5534883    728.12388  0.017425902  0.016671642          328 
 3483000   0.68703408   -7.5584231      727.036   0.01739487  0.016665621          291 
 3484000   0.68280191   -7.5393833    728.38604  0.017422169  0.016659616          142 
 3485000    0.6876471   -7.5578362    724.79947  0.017331408  0.016653587          319 
 3486000   0.68134571   -7.5617898    726.89452  0.017376519  0.016647571          234 
 3487000    0.7037322   -7.5142494    728.31249  0.017405422  0.016641561          157 
 3488000   0.70799406   -7.5576461    727.21055  0.017374105  0.016635546          169 
 3489000   0.67903425    -7.542595    727.14593  0.017367582  0.016629547          125 
 3490000   0.68384797     -7.51737    729.25553  0.017412978  0.016623538          179 
 3491000   0.69916396   -7.5446356    727.85109  0.017374465  0.016617549          146 
 3492000   0.70541679   -7.5566969    727.48968  0.017360865  0.016611548          145 
 3493000   0.69675674   -7.5523674    727.14745   0.01734773  0.016605564          186 
 3494000   0.69455481    -7.564454    728.27866  0.017369745   0.01659959          122 
 3495000    0.6842742   -7.5613919    727.90348  0.017355829   0.01659361          263 
 3496000   0.68731822   -7.5469767    726.47943   0.01731692  0.016587648          164 
 3497000   0.67792939   -7.5608767    727.54665    0.0173374  0.016581676          172 
 3498000   0.70511662   -7.5383952    727.43824  0.017329861    0.0165757          225 
 3499000   0.70378614   -7.5212622    728.70414  0.017355057  0.016569742          117 
 3500000   0.69975914   -7.5641298    726.68629  0.017302054  0.016563765          210 
 3501000   0.68227831   -7.5504898    727.05681  0.017305932  0.016557794          173 
 3502000   0.68737863   -7.5469896    726.35591  0.017284312  0.016551816          201 
 3503000   0.70801313   -7.5442396    727.59102   0.01730876  0.016545856          182 
 3504000   0.68640405   -7.5491088    726.31423  0.017273455  0.016539886          178 
 3505000   0.68022619   -7.5308359    727.59866  0.017299065  0.016533934          230 
 3506000   0.70495018   -7.5509654    728.05497  0.017304976  0.016527978          172 
 3507000   0.67820784   -7.5374306    727.83558  0.017294829  0.016522014          143 
 3508000   0.69616931   -7.5411902    727.65616  0.017285637  0.016516046          200 
 3509000   0.69511003   -7.5431197      727.743  0.017282773  0.016510084          371 
 3510000   0.70318373   -7.5333887     728.0471  0.017285069  0.016504128          177 
 3511000   0.69457825   -7.5594486    727.99838  0.017278989  0.016498163          313 
 3512000   0.69727264   -7.5657797    727.24741   0.01725625  0.016492203          269 
 3513000   0.68247183    -7.541701      726.917    0.0172435  0.016486246          330 
 3514000   0.68885456   -7.5350001    728.98397  0.017287611  0.016480298          127 
 3515000   0.68831591   -7.5477757    725.70328  0.017204914  0.016474348          137 
 3516000   0.68629504   -7.5401005    727.20869  0.017235701  0.016468397          257 
 3517000   0.68407631   -7.5459846    729.05713  0.017274598  0.016462452          324 
 3518000   0.69022057   -7.5995827    727.18078  0.017225241  0.016456503          260 
 3519000   0.67600078   -7.5594692    727.08169     0.017218  0.016450563          175 
 3520000   0.68550774   -7.5613137    728.47471  0.017246087  0.016444615          163 
 3521000   0.67588933   -7.5612889    727.02106  0.017206784  0.016438653          162 
 3522000   0.68308778   -7.5403932    727.92492  0.017223285  0.016432697          317 
 3523000   0.69447845   -7.5389807    727.62659  0.017211339  0.016426761          147 
 3524000   0.69419396   -7.5632886    726.32849  0.017175759  0.016420827          213 
 3525000   0.68533967   -7.5486579    726.50017  0.017174945  0.016414898          187 
 3526000   0.68056797   -7.5399703    727.93018  0.017203871   0.01640898          181 
 3527000   0.68410471   -7.5434885    727.45235  0.017187703   0.01640305          279 
 3528000   0.68277953   -7.5762308    727.64365   0.01718735  0.016397131          374 
 3529000   0.68830136   -7.5618228    726.42303  0.017153656  0.016391207          329 
 3530000   0.67456691   -7.5426524     724.8098  0.017110713  0.016385287          265 
 3531000    0.6904738   -7.5547326    726.13938  0.017137246  0.016379355          465 
 3532000   0.67096096   -7.5692402    725.61433  0.017120006  0.016373433          322 
 3533000     0.686841   -7.5662735    727.24187  0.017153549  0.016367517          336 
 3534000   0.68284976   -7.5506654    727.41681   0.01715282  0.016361605          330 
 3535000   0.68595395    -7.561563     728.4335  0.017171935  0.016355693          275 
 3536000   0.67175942   -7.5737193    725.78116  0.017104571  0.016349777          281 
 3537000   0.68149245   -7.5655801     726.6426  0.017120031  0.016343857          460 
 3538000   0.69804113   -7.5912108    725.35607   0.01708489  0.016337929          390 
 3539000   0.69189977   -7.5719374    725.76336  0.017089652  0.016331992          389 
 3540000   0.67039141   -7.5673735    726.78327  0.017108834  0.016326064          454 
 3541000   0.67214288    -7.554334    725.06559  0.017063579  0.016320134          251 
 3542000   0.67266261   -7.5479278    726.11206  0.017083382  0.016314214          319 
 3543000   0.68291855     -7.53749    727.71424  0.017116244  0.016308319          435 
 3544000   0.68610742   -7.5814255    726.86195  0.017091374  0.016302429          397 
 3545000   0.68863252   -7.5620726    725.83065   0.01706231  0.016296532          350 
 3546000   0.67298754   -7.5728906    725.76435   0.01705594  0.016290635          351 
 3547000   0.69018769   -7.5579382    726.87756  0.017077285  0.016284736          355 
 3548000   0.66730448   -7.5493215    727.73769  0.017092674  0.016278842          320 
 3549000   0.68122443   -7.5665616    726.93447  0.017068998  0.016272952          326 
 3550000    0.6715115   -7.5738582    725.99372  0.017042106  0.016267059          248 
 3551000   0.67754926   -7.5693359    724.88189  0.017011215  0.016261189          444 
 3552000   0.68557936   -7.5441829    727.70677    0.0170727   0.01625531          463 
 3553000    0.6716709   -7.5671309    725.47147  0.017015467  0.016249436          436 
 3554000   0.68703884   -7.5557022    726.94695  0.017045276  0.016243555          383 
 3555000   0.68122353    -7.562493    727.83015  0.017061185  0.016237677          511 
 3556000   0.70163415   -7.5763054    727.36454  0.017045476  0.016231803          391 
 3557000   0.67978843   -7.5591227    726.91333  0.017030113  0.016225927          377 
 3558000   0.69644643   -7.5714744    727.55127  0.017040268  0.016220052          422 
 3559000   0.67085121   -7.5596503    727.00169  0.017022611  0.016214183          386 
 3560000   0.68443716   -7.5762811    728.33048  0.017048934  0.016208308          415 
 3561000   0.68600593   -7.5771157     727.6541  0.017028318  0.016202458          445 
 3562000   0.68521794   -7.5799321    726.80962  0.017003781  0.016196592          477 
 3563000    0.6873943   -7.5855252    726.79358  0.016998634  0.016190741          439 
 3564000   0.68201812   -7.5670301    728.40652  0.017031578  0.016184889          480 
 3565000   0.69100502   -7.5853326    727.13782  0.016997144   0.01617904          324 
 3566000   0.66701754   -7.5734442    726.76148  0.016983583  0.016173189          468 
 3567000   0.65866151   -7.5699936    726.91738  0.016982464  0.016167316          494 
 3568000   0.68539767   -7.5843128    727.47956  0.016990834  0.016161457          307 
 3569000   0.67902705   -7.5788561    726.52229  0.016963722    0.0161556          418 
 3570000   0.66685654   -7.5833947    725.70715  0.016939943  0.016149735          349 
 3571000   0.66600094   -7.5620318    726.76124  0.016959797  0.016143874          447 
 3572000    0.6790581   -7.5909376    726.47058  0.016948268   0.01613802          323 
 3573000   0.68963179   -7.5761503    726.08276   0.01693448  0.016132162          323 
 3574000   0.66471218   -7.5925847    726.48976  0.016939232   0.01612631          358 
 3575000   0.68988799   -7.5614637    728.23113  0.016975085   0.01612046          491 
 3576000   0.68520773   -7.6171567    724.44054  0.016882004  0.016114609          616 
 3577000   0.67528618   -7.6098028    725.37363  0.016899022  0.016108749          468 
 3578000     0.695476   -7.6147173    725.50563  0.016897373   0.01610287          540 
 3579000   0.66945048   -7.6123422    727.16105  0.016931197  0.016096998          547 
 3580000   0.69899509    -7.607573    724.82566  0.016872106  0.016091136          589 
 3581000     0.672305   -7.5951084    725.85279  0.016891296  0.016085271          596 
 3582000   0.67309027    -7.614834    726.62565  0.016904561  0.016079417          619 
 3583000   0.67792466   -7.5981591    726.15916  0.016888993  0.016073558          364 
 3584000   0.68432946   -7.6025057    724.55948  0.016847086  0.016067678          480 
 3585000    0.6693587   -7.5809098    726.10079  0.016878214  0.016061811          485 
 3586000    0.6603979   -7.6324222    724.38662  0.016833673  0.016055932          467 
 3587000   0.68032995   -7.6151557    725.02396  0.016843787   0.01605006          531 
 3588000   0.66954416   -7.6169057    723.82001   0.01681113  0.016044195          611 
 3589000   0.67842256   -7.6430341    725.20967  0.016838713  0.016038339          502 
 3590000   0.67739572   -7.6037828    726.00703  0.016852531  0.016032479          550 
 3591000   0.67613888   -7.5999769    724.58726   0.01681489  0.016026618          665 
 3592000   0.68578112   -7.6196728    726.43407  0.016853055  0.016020764          544 
 3593000   0.68206722   -7.6306927    725.21173  0.016820014  0.016014901          649 
 3594000   0.66599789   -7.6093853     724.7068  0.016803626  0.016009032          558 
 3595000   0.66344591    -7.602542    725.31699  0.016813097  0.016003166          508 
 3596000   0.68031771   -7.6125622    725.89029  0.016821707  0.015997299          578 
 3597000   0.68563598   -7.6224186    724.93501  0.016794899  0.015991445          393 
 3598000   0.68378011   -7.5920389    725.21796  0.016796784  0.015985594          617 
 3599000   0.66282685   -7.6435077    723.41582  0.016750389  0.015979735          544 
 3600000   0.67755274   -7.6100744    725.99419  0.016805421  0.015973885          573 
 3601000   0.67620677   -7.6132544    724.84179  0.016774086  0.015968049          496 
 3602000   0.66407428    -7.605557    726.60378  0.016810193  0.015962214          557 
 3603000   0.67441932   -7.5858931    726.66017  0.016806832  0.015956393          592 
 3604000   0.66552772     -7.60124    726.63233  0.016801525  0.015950582          629 
 3605000   0.66766926   -7.5949288    725.89836  0.016779897  0.015944773          455 
 3606000   0.66146176   -7.5886591    726.75804  0.016795111  0.015938962          609 
 3607000   0.67251311   -7.5998921    726.20686  0.016777721  0.015933145          630 
 3608000   0.66222217      -7.5943    725.85992  0.016765057  0.015927329          525 
 3609000   0.68482564   -7.6115482    726.25164  0.016769457  0.015921521          535 
 3610000   0.68360678   -7.5947902    725.08974   0.01673799   0.01591571          555 
 3611000   0.66881171   -7.6085083    725.87497  0.016751476  0.015909905          717 
 3612000   0.68368187   -7.5898502    725.02818  0.016727302  0.015904119          659 
 3613000   0.67122006   -7.6303964    725.02371  0.016722569  0.015898316          605 
 3614000   0.67444018   -7.5941756    724.76424  0.016711959  0.015892499          465 
 3615000   0.67941684   -7.6034962    724.03087   0.01669043  0.015886702          582 
 3616000   0.67253383   -7.6114748    725.24872  0.016713881  0.015880906          679 
 3617000   0.67718548   -7.6223181    724.04748  0.016681584  0.015875102          510 
 3618000   0.67023906   -7.6264829    725.86678  0.016718877  0.015869298          596 
 3619000    0.6776546    -7.600168    724.80383  0.016689781  0.015863493          566 
 3620000   0.67290611   -7.6260136    724.86648  0.016686613  0.015857687          553 
 3621000   0.65692184   -7.6177362    725.29821  0.016691941  0.015851887          609 
 3622000   0.67728666    -7.601367     724.6355  0.016672085  0.015846088          590 
 3623000   0.67948248   -7.6224705    725.29244  0.016682594  0.015840289          588 
 3624000   0.65706697    -7.622932    723.24999  0.016631024  0.015834482          666 
 3625000   0.68441336   -7.6187757    725.29602  0.016673472  0.015828674          678 
 3626000   0.66874269   -7.6173472    723.90285  0.016636855  0.015822866          836 
 3627000    0.6709853   -7.6298857    724.61823  0.016648705  0.015817065          833 
 3628000   0.68199793   -7.6462709    724.30062  0.016636821  0.015811255          858 
 3629000   0.66892972   -7.6465482    723.85536  0.016622012  0.015805426          648 
 3630000    0.6730085    -7.646149    724.43057  0.016630638  0.015799615          773 
 3631000   0.64982046   -7.6640806     724.1642  0.016619944    0.0157938          757 
 3632000   0.66488227   -7.6254526    724.61095  0.016625618   0.01578799          768 
 3633000   0.67279239   -7.6439995    723.53652  0.016596397  0.015782183          695 
 3634000   0.67221249   -7.6154189    724.24985  0.016608188  0.015776379          744 
 3635000   0.67257433   -7.6379509    723.88703  0.016595301  0.015770562          794 
 3636000   0.68334826   -7.6419891    724.74019   0.01661029  0.015764744          773 
 3637000   0.65927008   -7.6416639    723.72887  0.016582551  0.015758926          788 
 3638000   0.67500517   -7.6495849    724.51375  0.016595972  0.015753119          703 
 3639000    0.6717839   -7.6531243     723.7054    0.0165729  0.015747317          760 
 3640000   0.66440536   -7.6487102    723.15271  0.016555694  0.015741517          784 
 3641000   0.65041173    -7.639917    723.32052  0.016554988  0.015735712          674 
 3642000    0.6587998   -7.6382921     724.3125   0.01657314  0.015729915          681 
 3643000   0.65414979   -7.6698866    722.21778  0.016520674   0.01572411          542 
 3644000   0.67260747   -7.6452053    724.98376  0.016579394  0.015718304          862 
 3645000   0.66677942   -7.6531291    723.43563  0.016539452    0.0157125          716 
 3646000   0.66581686   -7.6295574    723.82143  0.016543733  0.015706711          832 
 3647000   0.66690505   -7.6563411    722.16712  0.016501397   0.01570091          771 
 3648000   0.67223335   -7.6535722    724.19323  0.016543157  0.015695127          722 
 3649000   0.67026522   -7.6510565    722.68877  0.016504265  0.015689342          702 
 3650000   0.66342928   -7.6547298    725.07809  0.016554294  0.015683562          796 
 3651000   0.66043031   -7.6591876    723.25322  0.016508108  0.015677784          741 
 3652000    0.6706287   -7.6569149    723.14286  0.016501069  0.015672006          706 
 3653000    0.6723529   -7.6421644    724.47342  0.016526905  0.015666238          704 
 3654000   0.66848558   -7.6520201    723.94484  0.016510327  0.015660473          772 
 3655000   0.67016714   -7.6314382    723.89022  0.016504565  0.015654712          752 
 3656000   0.64658419   -7.6576983    722.68134  0.016472496  0.015648943          796 
 3657000   0.67034906   -7.6472232    723.03636  0.016476082  0.015643192          734 
 3658000   0.65796811   -7.6445929    723.06983   0.01647234  0.015637442          851 
 3659000   0.65606725   -7.6362082    724.52141  0.016500897  0.015631687          831 
 3660000   0.66862537   -7.6561097    723.37924  0.016470383  0.015625933          615 
 3661000   0.66624949    -7.625278     726.2964  0.016532286  0.015620186          754 
 3662000   0.67790099     -7.65186    724.08965  0.016477554  0.015614443          885 
 3663000   0.67401342    -7.627317    724.07216  0.016472658  0.015608696          714 
 3664000   0.66043347   -7.6641244    723.24262  0.016449295  0.015602957          639 
 3665000   0.66384992   -7.6580863    724.65951  0.016477024  0.015597219          721 
 3666000   0.67124161   -7.6450247    724.17062  0.016461416  0.015591482          848 
 3667000   0.67074723   -7.6515976    723.72555  0.016446813  0.015585749          837 
 3668000   0.66262092   -7.6651764    724.34087  0.016456308  0.015580027          854 
 3669000   0.66522857   -7.6688407    723.92283  0.016442328  0.015574296          613 
 3670000   0.65803553   -7.6649725    723.91716  0.016437719  0.015568554          829 
 3671000   0.64021737   -7.6314849    725.30943  0.016464847  0.015562818          746 
 3672000   0.66051162   -7.6287713    725.79244  0.016471324  0.015557096          633 
 3673000   0.66525643   -7.6603942    722.80281  0.016399011  0.015551391          877 
 3674000   0.66588419   -7.6340169      724.257  0.016427531  0.015545667          702 
 3675000   0.68001422   -7.6307239    725.48048  0.016450804  0.015539948          906 
 3676000   0.65414374   -7.6666548    723.40823  0.016399352  0.015534225          878 
 3677000   0.64811321   -7.6493874    723.57202  0.016398604   0.01552851          922 
 3678000   0.66898791   -7.6341213    724.28979  0.016410409  0.015522814          763 
 3679000    0.6657293   -7.6512041    723.65655  0.016391604  0.015517116          935 
 3680000    0.6581489     -7.63888      724.275  0.016401155  0.015511421          903 
 3681000   0.66103778   -7.6524245    724.18682  0.016394703  0.015505704          933 
 3682000   0.66249859   -7.6503771    723.51379  0.016375018  0.015499983          885 
 3683000   0.66583517    -7.645429     723.0019  0.016358989  0.015494281          896 
 3684000   0.65584912   -7.6374274    724.34631   0.01638496  0.015488579          896 
 3685000   0.65747975   -7.6509593    724.19096     0.016377  0.015482877          950 
 3686000   0.66230002   -7.6615501    723.94223  0.016366934  0.015477168          945 
 3687000   0.65513578   -7.6380968    723.19439  0.016345592  0.015471458          926 
 3688000   0.65439906   -7.6694189    723.80387  0.016354932   0.01546577          864 
 3689000   0.66085732   -7.6637379    722.33868    0.0163174  0.015460083          919 
 3690000   0.67171613   -7.6488143    723.19516  0.016332321  0.015454402          692 
 3691000   0.64794481   -7.6475783    722.46733  0.016311463  0.015448721          771 
 3692000   0.66492061   -7.6280624     722.3114  0.016303526  0.015443046          817 
 3693000   0.66352667   -7.6436863     723.4697  0.016325248  0.015437374          767 
 3694000   0.65713256   -7.6284105    724.04361  0.016333776  0.015431699          854 
 3695000   0.66580958   -7.6415115    724.32698  0.016335746  0.015426035          743 
 3696000   0.66648662   -7.6650312    722.09963  0.016281106  0.015420366          876 
 3697000   0.66281899    -7.656128    724.24948  0.016325162   0.01541469          781 
 3698000   0.66051778   -7.6535494    723.51786   0.01630426  0.015409012          808 
 3699000   0.66383223   -7.6364061    724.75095  0.016327632  0.015403329          966 
 3700000   0.66081467   -7.6606577    722.65748  0.016276069  0.015397662          920 
 3701000   0.67118289   -7.6563708    724.07796  0.016303656  0.015391981          915 
 3702000    0.6589244   -7.6532645    724.46399  0.016307941  0.015386301          926 
 3703000   0.64651557   -7.6595213    722.36937  0.016256399  0.015380613         1028 
 3704000    0.6398685   -7.6876687    722.35473  0.016251681  0.015374931          902 
 3705000   0.66340263    -7.656552    723.84311  0.016280772  0.015369247          836 
 3706000   0.66789377   -7.6638858    722.71422  0.016250994  0.015363576          990 
 3707000   0.67078896   -7.6849315    723.18933  0.016257291  0.015357907          930 
 3708000   0.66388902   -7.6740884    721.43782  0.016213543  0.015352226          987 
 3709000   0.66638705   -7.6772697    723.84464  0.016263248  0.015346553          967 
 3710000   0.66879325   -7.6734852    722.09148  0.016219485  0.015340874          991 
 3711000   0.66155715   -7.6739084    722.25214  0.016218722  0.015335199          984 
 3712000   0.66600058   -7.6801763    723.67569  0.016246311  0.015329529         1022 
 3713000   0.66264443   -7.6841451    721.53234  0.016193831  0.015323853         1013 
 3714000    0.6650734   -7.6636638    723.81318  0.016240648  0.015318188         1024 
 3715000   0.66677209   -7.6933766    723.01504  0.016218372  0.015312515          812 
 3716000   0.65290119   -7.6874033    723.53637  0.016225699  0.015306854          953 
 3717000   0.66128744   -7.6847211    721.86512  0.016183865  0.015301191          933 
 3718000   0.65788816    -7.669741    723.34062  0.016212583   0.01529553          785 
 3719000   0.66091989   -7.6814833    722.94957  0.016199462  0.015289874          901 
 3720000   0.65365862   -7.6811487    723.18496   0.01620038   0.01528423          816 
 3721000   0.64088102   -7.6864673     722.8348  0.016188184  0.015278576          947 
 3722000   0.64952926     -7.67771    723.14389  0.016190755  0.015272925         1051 
 3723000   0.64659404   -7.6634321    723.25417  0.016188875  0.015267287          896 
 3724000   0.65521779   -7.6894046    720.90215  0.016131896  0.015261644          968 
 3725000   0.66481383   -7.6762912    721.96933  0.016151439  0.015255982          936 
 3726000    0.6576829   -7.6653292    722.73142  0.016164149   0.01525034          977 
 3727000   0.66613345   -7.6816052    721.79602  0.016138897  0.015244697          985 
 3728000   0.65190698    -7.662257    723.67626  0.016176597  0.015239064         1145 
 3729000   0.65829721   -7.6969235    721.20221  0.016116971  0.015233427         1132 
 3730000   0.65927825    -7.683758    722.93573  0.016151379  0.015227791         1088 
 3731000   0.65064624   -7.6666819      722.681  0.016141361   0.01522216         1067 
 3732000   0.65633909   -7.6890236    721.99335  0.016121681  0.015216512         1075 
 3733000   0.65536073   -7.6693808    722.12891  0.016120388  0.015210883         1125 
 3734000    0.6408288   -7.6960323    722.29971  0.016119883  0.015205256         1123 
 3735000   0.66363248   -7.6840236    722.97761  0.016130692  0.015199621         1151 
 3736000   0.65084627    -7.685213    723.12233  0.016129602  0.015193991         1120 
 3737000   0.63375747   -7.6875175     724.2716  0.016150914  0.015188377         1170 
 3738000    0.6491684   -7.6733759    721.45106  0.016083714  0.015182753         1080 
 3739000   0.65159457   -7.6662166    723.10017  0.016116167  0.015177138         1149 
 3740000   0.65425996   -7.6837623    722.22833  0.016092432  0.015171515         1081 
 3741000     0.648762   -7.6919863    721.76301  0.016077765   0.01516589         1179 
 3742000     0.650981   -7.6767766    721.22562  0.016061501  0.015160266         1216 
 3743000   0.66889948   -7.7154741    723.36094   0.01610475  0.015154645         1186 
 3744000   0.65349075   -7.7043429    722.55486  0.016082507  0.015149022         1121 
 3745000   0.65158765    -7.707332    721.60299  0.016057031  0.015143399         1086 
 3746000   0.64237852   -7.7136129    721.45155  0.016049376  0.015137769         1056 
 3747000   0.65615226   -7.6882129    722.38481  0.016065849  0.015132151         1009 
 3748000   0.65214126   -7.6985497    723.32501  0.016082466  0.015126535         1139 
 3749000   0.63398676   -7.7053887    721.61276  0.016040117  0.015120921         1114 
 3750000   0.66061913   -7.6997267     721.0776  0.016023947  0.015115307         1085 
 3751000   0.64477228    -7.669877    723.98373  0.016084238  0.015109715         1039 
 3752000   0.64719211   -7.7067244    720.11039  0.015993923   0.01510411         1126 
 3753000   0.65909044   -7.7095996    723.26825   0.01605978  0.015098518         1079 
 3754000   0.64162854   -7.6816954    720.93818  0.016003778  0.015092929         1049 
 3755000   0.64928503   -7.6876511    722.47507  0.016033623  0.015087347         1024 
 3756000   0.67862399   -7.7093451    721.98905  0.016018571  0.015081756         1149 
 3757000   0.66370023   -7.7008893    722.67077  0.016029429  0.015076176         1125 
 3758000   0.66401556   -7.6968654    721.93698  0.016008892  0.015070603         1081 
 3759000   0.65642885   -7.6892616    722.01283  0.016006314  0.015065028         1045 
 3760000   0.65086208   -7.6742987     721.9928  0.016001613  0.015059451         1049 
 3761000   0.64055928   -7.6903452    721.97722  0.015997014  0.015053872         1183 
 3762000   0.66924033   -7.6987205     720.7907  0.015966478  0.015048301         1191 
 3763000   0.65597856   -7.6881057    721.46457  0.015977158  0.015042734         1068 
 3764000   0.63353382   -7.6898878    722.75715  0.016001531   0.01503717         1217 
 3765000   0.64208198   -7.6733312    722.33793  0.015988002  0.015031606         1105 
 3766000   0.64299313   -7.6960092     723.8369  0.016016926   0.01502605         1208 
 3767000   0.63564348   -7.7059779     721.6036  0.015963269  0.015020493         1115 
 3768000   0.65890747   -7.7037614    721.37888  0.015954062  0.015014939         1247 
 3769000   0.64963161   -7.7004592    720.87128  0.015938606  0.015009382         1262 
 3770000   0.64698683    -7.702131      720.822  0.015933289  0.015003824         1252 
 3771000   0.66182702   -7.6998568    721.97131  0.015954462  0.014998257         1208 
 3772000   0.64899315    -7.715772    720.21369  0.015911402  0.014992691         1250 
 3773000   0.66022942   -7.7109909    721.82207  0.015942708  0.014987124         1247 
 3774000   0.62875854   -7.6903316    720.59479  0.015911385   0.01498157         1181 
 3775000   0.65824946    -7.709139    721.17693   0.01592002  0.014976013         1241 
 3776000   0.64978608   -7.6877626    720.40429  0.015898753  0.014970458         1176 
 3777000   0.64357531    -7.703972    721.89275  0.015927384  0.014964905         1130 
 3778000   0.64369469   -7.7192723    721.62641  0.015917293   0.01495935         1304 
 3779000   0.65605006   -7.7158063     720.1131   0.01587971  0.014953791         1264 
 3780000   0.65400851   -7.7299139     719.6616  0.015865556  0.014948231         1268 
 3781000   0.65451636   -7.7394789     721.1043  0.015893157  0.014942675         1255 
 3782000   0.64850278   -7.7057391    720.92983   0.01588511  0.014937113         1241 
 3783000   0.63228208   -7.7080591    720.65889  0.015874942  0.014931566         1237 
 3784000   0.64017692    -7.745748    719.94634  0.015855055  0.014926025         1318 
 3785000   0.64399666   -7.6930342    722.40471  0.015904991  0.014920487         1162 
 3786000   0.64727246   -7.7448505    720.63601   0.01586186   0.01491495         1200 
 3787000    0.6391878   -7.7121286    719.93476   0.01584224  0.014909419         1328 
 3788000   0.65058725   -7.7258257    721.63803  0.015875529  0.014903875         1250 
 3789000   0.64783101   -7.7150261    722.03595   0.01588009   0.01489834         1304 
 3790000   0.63539821   -7.7162044    720.94329  0.015851875  0.014892799         1379 
 3791000   0.65026608   -7.7297632    721.42107  0.015858196  0.014887263         1250 
 3792000   0.65693886     -7.71118    719.12232  0.015803497  0.014881727         1372 
 3793000   0.65041201   -7.7207936    721.60944  0.015853973  0.014876195         1247 
 3794000   0.64285697   -7.7180574    720.83122  0.015832701  0.014870665         1259 
 3795000   0.64031329   -7.7233283    720.67901  0.015825187  0.014865136         1303 
 3796000   0.64282572   -7.7032016    719.81205  0.015801986  0.014859607         1255 
 3797000     0.647209   -7.6948031    722.66437  0.015860424  0.014854091         1214 
 3798000   0.64146584   -7.7130023    721.02444  0.015820266  0.014848575         1312 
 3799000   0.63720096   -7.7210353    720.29208  0.015800037  0.014843048         1310 
 3800000   0.63690699    -7.710235    722.25154   0.01583885  0.014837528         1237 
 3801000   0.63862748   -7.7267287    719.90153  0.015783161  0.014832007         1289 
 3802000   0.64467729   -7.7040083    721.29286  0.015809505  0.014826491         1195 
 3803000    0.6221923   -7.7321347    721.31313  0.015805792  0.014820968         1345 
 3804000   0.63552096   -7.7392933    719.19703   0.01575528  0.014815451         1262 
 3805000   0.63935741   -7.7348469    719.74073  0.015763047  0.014809929         1270 
 3806000   0.65620525    -7.728139    719.24605  0.015748074  0.014804395         1316 
 3807000   0.65115047   -7.7302454    720.03822  0.015761278   0.01479887         1278 
 3808000   0.65057335   -7.7460989    720.57932   0.01576898  0.014793342         1287 
 3809000   0.63254375   -7.7399733    721.13594  0.015777018  0.014787822         1234 
 3810000   0.65430927   -7.7517486     720.1821  0.015752014  0.014782299         1365 
 3811000   0.63957071   -7.7368928    720.00397  0.015743986  0.014776784         1270 
 3812000   0.65406272   -7.7395533    719.19398  0.015722149  0.014771265         1337 
 3813000    0.6388548   -7.7129255     720.3053  0.015742314  0.014765755         1321 
 3814000   0.66190329   -7.7288608    720.76218  0.015748169  0.014760249         1312 
 3815000   0.62598685   -7.7360575    720.19951   0.01573175  0.014754756         1439 
 3816000   0.64531927   -7.7360086    720.29079  0.015729621  0.014749249         1369 
 3817000   0.63988922    -7.715873    720.67362  0.015733858  0.014743746         1353 
 3818000   0.64989703   -7.7438992    718.53655  0.015683092  0.014738245         1448 
 3819000   0.63934671   -7.7315917    721.26313  0.015738482  0.014732746         1370 
 3820000   0.64734438   -7.7081496    720.30557  0.015713472  0.014727265         1344 
 3821000   0.62608588   -7.7284868    720.54169  0.015714509   0.01472178         1277 
 3822000   0.64832907   -7.7295761    720.09449  0.015700647  0.014716291         1294 
 3823000   0.64099194   -7.7281602    720.97046  0.015715635   0.01471081         1373 
 3824000   0.62974415   -7.7462121    719.83723  0.015686829   0.01470532         1395 
 3825000    0.6390241   -7.7504281    720.92831  0.015706499   0.01469984         1307 
 3826000   0.64460098   -7.7410281     720.0134  0.015682467  0.014694361         1294 
 3827000   0.63448895   -7.7329917    720.90231  0.015697725  0.014688882         1297 
 3828000   0.65240708   -7.7178619    721.68402  0.015710641  0.014683411         1296 
 3829000   0.63373475   -7.7309377    721.56246  0.015703893  0.014677947         1298 
 3830000   0.63324616   -7.7456742    720.30219  0.015672371   0.01467249         1334 
 3831000   0.65442089   -7.7557909    721.22785  0.015688416  0.014667029         1368 
 3832000   0.63031658   -7.7204153    721.69653  0.015694514  0.014661567         1358 
 3833000   0.62815463   -7.7446351    719.22425   0.01563667  0.014656107         1284 
 3834000    0.6443892   -7.7556518    720.05364  0.015650618  0.014650649         1374 
 3835000   0.63865628   -7.7618409    719.71659  0.015639213  0.014645195         1368 
 3836000   0.63456418   -7.7487392    719.13161  0.015622428  0.014639743         1337 
 3837000   0.63066071   -7.7539345    720.01142  0.015637465   0.01463429         1412 
 3838000   0.64826666   -7.7277413    721.71474  0.015670374  0.014628849         1312 
 3839000   0.62264233   -7.7416482    719.79528  0.015624626  0.014623413         1377 
 3840000   0.63496827    -7.732896    720.55144  0.015636967  0.014617982         1339 
 3841000   0.63642052   -7.7660007    719.83222  0.015617292   0.01461255         1372 
 3842000   0.64010005   -7.7380842    719.65995  0.015609491  0.014607109         1390 
 3843000   0.63627708   -7.7555353    719.35042  0.015598717  0.014601671         1421 
 3844000   0.63677442   -7.7605668     719.3884  0.015595482  0.014596227         1446 
 3845000    0.6309825   -7.7463694    719.59651  0.015595936  0.014590796         1482 
 3846000   0.64050941   -7.7431887    721.38782  0.015630695  0.014585361         1447 
 3847000   0.64530387   -7.7427101    719.52106  0.015586194  0.014579922         1530 
 3848000   0.62954585   -7.7445644    720.12729  0.015595272   0.01457449         1470 
 3849000   0.63595829   -7.7744226    718.63842  0.015558985  0.014569056         1495 
 3850000   0.63699799   -7.7546446    719.50619  0.015573727  0.014563624         1431 
 3851000   0.62693099   -7.7734218     718.8151  0.015554728    0.0145582         1503 
 3852000   0.63223244   -7.7700549    719.79348  0.015571856  0.014552766         1418 
 3853000   0.64301662   -7.7436662    720.41676  0.015581295  0.014547345         1327 
 3854000   0.63370796   -7.7782594    720.13477  0.015571155  0.014541932         1478 
 3855000   0.65626777    -7.745347    719.87018  0.015561396  0.014536513         1413 
 3856000   0.63236509   -7.7541368    719.89666  0.015557933  0.014531107         1506 
 3857000   0.64544559   -7.7569742    720.77575  0.015572892  0.014525704         1447 
 3858000   0.62798464   -7.7689643    718.19473  0.015513105  0.014520298         1505 
 3859000   0.63284032   -7.7930566    718.49037   0.01551547  0.014514895         1554 
 3860000   0.62721227   -7.7700503    719.80149  0.015539756  0.014509491         1472 
 3861000   0.64301635   -7.7707272    720.93165  0.015560124  0.014504093         1528 
 3862000   0.63923593   -7.7384675    719.18823  0.015518476  0.014498699         1428 
 3863000   0.62933497   -7.7462924    720.21161  0.015536535  0.014493308         1513 
 3864000   0.62021342   -7.7637922    719.03875  0.015507219   0.01448792         1479 
 3865000   0.63508466   -7.7721162    720.07784  0.015525611  0.014482533         1458 
 3866000   0.63017319   -7.7836202    719.75746  0.015514689   0.01447715         1501 
 3867000   0.63022559   -7.7386206    721.57444  0.015549833   0.01447176         1466 
 3868000   0.63387985    -7.756889    719.43177   0.01549965  0.014466374         1495 
 3869000   0.63169254   -7.7522267    718.39485   0.01547331   0.01446099         1454 
 3870000   0.62951646   -7.7676619    718.61122  0.015473971  0.014455599         1563 
 3871000     0.621508    -7.772047    719.64838  0.015492301  0.014450217         1511 
 3872000   0.63317948   -7.7587877    718.30429  0.015459373  0.014444836         1563 
 3873000   0.62494098   -7.7787071     720.2814  0.015497921  0.014439453         1605 
 3874000   0.62788032   -7.7700511    719.46738  0.015476411  0.014434067         1544 
 3875000   0.63332769   -7.7889954     719.3132  0.015469101   0.01442869         1447 
 3876000   0.63854125   -7.7824997    718.56728  0.015449073  0.014423317         1534 
 3877000   0.62259419   -7.7665321    720.46564  0.015485892  0.014417951         1431 
 3878000   0.64672036   -7.7750123    719.57358  0.015462729  0.014412589         1515 
 3879000   0.62016334   -7.7620322    720.31059  0.015474577  0.014407226         1476 
 3880000    0.6329433   -7.7576476    718.66716  0.015435291  0.014401862         1485 
 3881000     0.642702   -7.7728168    719.71781  0.015453874  0.014396498         1469 
 3882000   0.64506602    -7.758129    719.58818   0.01544711  0.014391141         1430 
 3883000   0.62126319   -7.7675663    719.76868  0.015447006  0.014385782         1522 
 3884000   0.62598724    -7.751852    719.80213  0.015443746  0.014380421         1433 
 3885000   0.62376203   -7.7691469    719.32101  0.015429451  0.014375058         1463 
 3886000   0.62211352   -7.7816949    717.67592  0.015390203  0.014369698         1569 
 3887000   0.63392196   -7.7714158    718.53069  0.015404568  0.014364339         1512 
 3888000   0.62936348   -7.7899388    718.32547  0.015396208  0.014358985         1565 
 3889000   0.64064245   -7.8028459    719.18919  0.015410757  0.014353628         1595 
 3890000   0.63173751   -7.7694386    719.39093  0.015411117  0.014348293         1420 
 3891000   0.63304506   -7.7859827    719.24019  0.015403928  0.014342954         1589 
 3892000   0.64128672   -7.7532398    719.78972  0.015411736  0.014337614         1650 
 3893000   0.62744372   -7.7656286    719.06803  0.015392329  0.014332287         1600 
 3894000   0.62460815   -7.7802823    719.79425  0.015403917  0.014326943         1560 
 3895000   0.61917727   -7.7595776    720.67117  0.015418724  0.014321608         1507 
 3896000   0.64139284   -7.7867572    718.66247  0.015371802  0.014316263         1522 
 3897000   0.62706882   -7.7814509    718.89183  0.015372762   0.01431093         1592 
 3898000   0.61661074   -7.7719495    719.43667  0.015380466  0.014305593         1513 
 3899000   0.63257385   -7.7693356    719.67631  0.015381643  0.014300267         1500 
 3900000   0.62479119    -7.779523    718.01024  0.015342099  0.014294939         1481 
 3901000   0.62369411   -7.7778009     718.8311  0.015355702  0.014289616         1596 
 3902000   0.61544457   -7.7871627    718.59945  0.015346819  0.014284291         1611 
 3903000   0.61739462   -7.7868453    719.19533  0.015355609  0.014278975         1678 
 3904000   0.63159925   -7.7905912     718.3694  0.015334046  0.014273662         1575 
 3905000   0.63664581   -7.7918539    719.13482  0.015346454  0.014268355         1565 
 3906000   0.61047659   -7.7884395    719.14811  0.015342808  0.014263044         1545 
 3907000   0.62442394   -7.7727363    718.48403  0.015324717   0.01425774         1562 
 3908000   0.63925346   -7.8045485    720.14182  0.015356146  0.014252435         1565 
 3909000   0.61853187   -7.7787281    717.71749  0.015300535  0.014247124         1610 
 3910000   0.61827813   -7.7770226    719.52777  0.015335204  0.014241816         1553 
 3911000   0.62127604   -7.7966321    718.49088   0.01530919   0.01423651         1613 
 3912000   0.62555429   -7.7865894    718.16828  0.015298404  0.014231213         1604 
 3913000   0.62830192   -7.7854058    718.35655  0.015298504  0.014225908         1560 
 3914000   0.62876303   -7.7850392    718.07159  0.015288528  0.014220621         1595 
 3915000   0.61651922   -7.7791985    717.79392  0.015278713  0.014215331         1562 
 3916000   0.60854626   -7.7985917    718.68158  0.015293701  0.014210043         1629 
 3917000   0.63168242   -7.7632179    718.50022  0.015285938  0.014204758         1589 
 3918000   0.62567451    -7.787208     718.3208   0.01527822  0.014199475         1585 
 3919000   0.61139556   -7.7704998    718.74879  0.015283422  0.014194202         1601 
 3920000   0.63499315   -7.8095947    719.15441  0.015288146  0.014188928         1559 
 3921000   0.63866398   -7.7766272    719.22114  0.015285666  0.014183658         1502 
 3922000    0.6301306   -7.7859525    719.46393  0.015286927  0.014178401         1644 
 3923000   0.61456989    -7.805012     718.3131  0.015258584  0.014173133         1678 
 3924000   0.62061716   -7.7905465     717.6847   0.01524135  0.014167864         1627 
 3925000   0.61369151   -7.7784205    719.92503  0.015285033  0.014162605         1641 
 3926000   0.61230326   -7.8046655    716.59331   0.01521042  0.014157341         1730 
 3927000    0.6209836   -7.7757011    720.32164  0.015285664  0.014152077         1643 
 3928000   0.62179429   -7.7966806    719.64742  0.015267469  0.014146825         1570 
 3929000   0.62646631    -7.784092    719.76419   0.01526606  0.014141569         1604 
 3930000   0.62353948   -7.8012002    719.03967  0.015246812  0.014136309         1663 
 3931000   0.62608576   -7.7829187     719.0698  0.015243572  0.014131047         1673 
 3932000   0.63439135   -7.8060744    718.82646  0.015234538  0.014125789         1624 
 3933000    0.6249044   -7.7949511    718.26915  0.015218857  0.014120536         1732 
 3934000   0.63070725   -7.7732335    718.76416  0.015225474   0.01411529         1661 
 3935000   0.62038376   -7.7993977    718.29634  0.015211697  0.014110045         1663 
 3936000   0.62039838   -7.7960165    718.96255  0.015221937    0.0141048         1562 
 3937000   0.61876169   -7.7879038    719.40776  0.015227495  0.014099562         1577 
 3938000   0.62016032   -7.7836237    719.30451  0.015221443  0.014094317         1709 
 3939000   0.61371342   -7.7940752    719.38198  0.015219218  0.014089079         1596 
 3940000    0.6177273   -7.7757224    719.02006    0.0152077  0.014083836         1662 
 3941000   0.62462112   -7.7837898    719.56423  0.015215348  0.014078605         1606 
 3942000    0.6219813    -7.794772    718.67008  0.015192586  0.014073364         1551 
 3943000   0.61613542   -7.7936291    718.96084  0.015194878  0.014068128         1605 
 3944000   0.61749038   -7.8178373    719.88999  0.015210657    0.0140629         1631 
 3945000   0.62511696    -7.817573     717.9896  0.015166658  0.014057662         1711 
 3946000   0.61291028   -7.7970291    717.99322  0.015162891  0.014052437         1667 
 3947000    0.6283852   -7.8056522    716.55291   0.01512864  0.014047214         1618 
 3948000   0.61011532   -7.8022738    718.92121  0.015174798  0.014041998         1582 
 3949000   0.61258873   -7.7999074    717.44309  0.015139763  0.014036779         1591 
 3950000   0.60638507   -7.8085492    717.64719  0.015140236  0.014031554         1644 
 3951000   0.60571761   -7.8104741     718.6001  0.015156503  0.014026344         1583 
 3952000   0.60282636   -7.8069402    719.25184   0.01516641  0.014021139         1616 
 3953000   0.62135777   -7.8240641    717.95335    0.0151352  0.014015927         1673 
 3954000    0.6090008   -7.8100152     719.4506  0.015162928  0.014010711         1623 
 3955000   0.62218764   -7.8031192    716.97285  0.015106887    0.0140055         1656 
 3956000   0.62399578   -7.8113098      717.849  0.015121524  0.014000291         1696 
 3957000   0.63071268   -7.7933613    718.95556  0.015141007  0.013995088         1588 
 3958000   0.62084358   -7.8102443    718.14102  0.015120032  0.013989892         1652 
 3959000   0.63196841   -7.8054442    717.76149  0.015108224  0.013984701         1640 
 3960000   0.62650992   -7.7961134     718.9287  0.015128971  0.013979504         1662 
 3961000   0.61092548   -7.8083414    718.54747  0.015117131  0.013974314         1749 
 3962000   0.62514617   -7.7925579    717.74178  0.015096369  0.013969123         1745 
 3963000   0.60597537   -7.8007251    718.84053  0.015115664  0.013963932         1750 
 3964000   0.60851446   -7.7968299    718.78183  0.015110617  0.013958738         1655 
 3965000   0.61163758   -7.8135222    717.87076  0.015087658  0.013953561         1615 
 3966000   0.63033042   -7.8109287    717.09457  0.015067544  0.013948377         1674 
 3967000   0.62902321   -7.8162473    718.37615  0.015090668  0.013943209         1750 
 3968000   0.61727866   -7.8075397    716.91232  0.015056122  0.013938034         1743 
 3969000    0.6284514   -7.8039673    718.23622  0.015080125  0.013932861         1621 
 3970000   0.60620248   -7.8034278     718.7766   0.01508767  0.013927694         1621 
 3971000   0.62034042   -7.7997569    719.11341  0.015090939  0.013922526         1659 
 3972000   0.62592917   -7.8117869    717.60773   0.01505555  0.013917353         1717 
 3973000   0.61405553   -7.8088232    718.76714  0.015076079  0.013912183         1676 
 3974000   0.62173272   -7.7989802    717.89654  0.015054029  0.013907019         1761 
 3975000    0.6171136   -7.7938808     717.6571  0.015045222  0.013901852         1554 
 3976000   0.61775311   -7.7893322    717.72369  0.015042834  0.013896699         1686 
 3977000   0.61379084   -7.7906437    719.91995  0.015085072  0.013891549         1705 
 3978000   0.62334856   -7.8095954    718.43208  0.015050111   0.01388639         1682 
 3979000   0.60523097   -7.8101512    717.41795  0.015025089  0.013881235         1614 
 3980000   0.61591368   -7.8260728    717.50236  0.015023081  0.013876076         1667 
 3981000   0.60264759   -7.8052387    719.19461  0.015054731   0.01387092         1529 
 3982000   0.62102845    -7.804304    717.86805  0.015023189  0.013865766         1648 
 3983000   0.63118486   -7.8071917    717.17521  0.015004921   0.01386062         1664 
 3984000   0.62488264   -7.8097489    717.40681  0.015005999  0.013855482         1699 
 3985000    0.6194639   -7.8151034    718.40036  0.015023011  0.013850336         1705 
 3986000   0.61697228   -7.8044313    718.27159  0.015016549  0.013845191         1612 
 3987000   0.59709682    -7.830299    717.90752  0.015005173  0.013840048         1702 
 3988000   0.62226597   -7.8137291      717.755  0.014998224  0.013834909         1706 
 3989000   0.61791645   -7.8194958    718.58889  0.015011885  0.013829778         1721 
 3990000   0.60630878   -7.7943873    718.93295  0.015015308   0.01382464         1685 
 3991000   0.61411208   -7.8175126    718.91202  0.015011109  0.013819503         1641 
 3992000   0.61275112   -7.8067759    717.41775  0.014976156   0.01381438         1619 
 3993000   0.60553583   -7.8012827    719.00297  0.015005488  0.013809258         1640 
 3994000   0.63562102   -7.8148999    717.57928  0.014972026  0.013804133         1640 
 3995000   0.61573228   -7.8038628    719.22581  0.015002624  0.013799011         1616 
 3996000   0.60785532   -7.8355679      717.379  0.014960356  0.013793897         1704 
 3997000   0.61151905    -7.832988    717.81047  0.014965609  0.013788784         1627 
 3998000   0.60253265   -7.8079291     717.9355  0.014964472  0.013783663         1638 
 3999000   0.60880601   -7.8110916        718.6  0.014974577  0.013778549         1651 
 4000000   0.60604986   -7.8415349    716.79318  0.014933191  0.013773436         1729 
 4001000   0.60979004   -7.8293858    717.41358  0.014942381  0.013768323         1634 
 4002000   0.60172116   -7.8199935    717.92052  0.014949203  0.013763213         1654 
 4003000   0.61013172   -7.8426205    717.55572  0.014937874  0.013758103         1742 
 4004000   0.61330649   -7.8153428    718.35153  0.014950706     0.013753         1623 
 4005000   0.60561822   -7.8127042    717.20722  0.014923163  0.013747897         1653 
 4006000   0.60241585   -7.8256294    718.29687  0.014942105  0.013742798         1612 
 4007000   0.61765384   -7.8053603    716.34137  0.014897708  0.013737699         1605 
 4008000   0.62783248   -7.8110168    718.68673  0.014942755   0.01373261         1641 
 4009000   0.60602266   -7.8240691    717.83769  0.014921379  0.013727519         1653 
 4010000   0.60595456    -7.818143    718.61826  0.014933879   0.01372244         1599 
 4011000   0.61726939   -7.8038648    716.67603  0.014889804  0.013717357         1610 
 4012000   0.61125741   -7.8416578    719.08037  0.014936033  0.013712277         1588 
 4013000   0.59667902   -7.8045609    719.04688  0.014931616    0.0137072         1676 
 4014000   0.62354225   -7.8310675    718.02422  0.014906665  0.013702124         1659 
 4015000   0.61751312   -7.8397002    716.95279  0.014880714  0.013697042         1759 
 4016000   0.60561313   -7.8155787    716.72997  0.014872385  0.013691966         1745 
 4017000   0.59586586   -7.8152275    716.50692  0.014864055   0.01368689         1723 
 4018000   0.60211674   -7.8417235     717.3495  0.014877831  0.013681812         1668 
 4019000   0.61106224   -7.8297491    717.45008  0.014876215   0.01367673         1558 
 4020000   0.60908746   -7.8351075    716.14299  0.014845419  0.013671663         1727 
 4021000   0.61801415   -7.8092779      717.216  0.014863964  0.013666588         1789 
 4022000   0.60100572   -7.8220604    716.98693  0.014855522  0.013661513         1769 
 4023000   0.62416234   -7.8274413    717.18313  0.014855894  0.013656446         1722 
 4024000   0.61381548   -7.8338559    716.62629   0.01484067  0.013651367         1701 
 4025000   0.61708254   -7.8315819    716.07316  0.014825531  0.013646302         1618 
 4026000   0.59451523   -7.8579457    717.48865  0.014851148   0.01364124         1696 
 4027000   0.60186033   -7.8375285    717.45931  0.014846853  0.013636187         1650 
 4028000   0.60431867   -7.8244953    716.83509  0.014830253  0.013631134         1736 
 4029000   0.61986836   -7.8231333     716.3243  0.014816007  0.013626074         1812 
 4030000   0.60811066   -7.8421395    717.21652   0.01483078  0.013621025         1756 
 4031000   0.61295949   -7.8393339    717.39921  0.014830878  0.013615974         1780 
 4032000    0.5986637   -7.8423859    717.36768  0.014826548  0.013610926         1822 
 4033000   0.60405705   -7.8360653    717.03465   0.01481599  0.013605879         1745 
 4034000   0.60934756   -7.8399467    718.01314   0.01483253  0.013600833         1778 
 4035000   0.59922562   -7.8408802    716.37576  0.014795038  0.013595782         1744 
 4036000   0.61058119   -7.8520001    718.22106  0.014829474   0.01359074         1762 
 4037000   0.60806497   -7.8276897    716.78525  0.014796162  0.013585695         1740 
 4038000    0.5998289   -7.8457504     716.7355  0.014791471  0.013580659         1661 
 4039000   0.59562881   -7.8310728    717.82854   0.01481036  0.013575623         1614 
 4040000   0.61571945   -7.8338059    716.75394  0.014784528  0.013570586         1755 
 4041000    0.6041944   -7.8425267    716.38406  0.014773242  0.013565558         1677 
 4042000   0.59499869   -7.8271603    717.07896  0.014783914  0.013560532         1804 
 4043000   0.60991551   -7.8398123    716.38047   0.01476586  0.013555507         1774 
 4044000   0.60166364    -7.824259    717.83526  0.014792187  0.013550484         1786 
 4045000   0.60657591   -7.8295701    716.23259  0.014755513  0.013545458         1806 
 4046000   0.59756111   -7.8382472    717.28055   0.01477345  0.013540437         1660 
 4047000   0.59175487   -7.8276484    717.43405   0.01477296  0.013535417         1759 
 4048000   0.61332738   -7.8442088     716.7456  0.014755138  0.013530393         1782 
 4049000    0.6194538   -7.8179686    718.33301  0.014784165  0.013525388         1759 
 4050000   0.60515583    -7.832072    716.08111  0.014734179  0.013520378         1845 
 4051000   0.60139587   -7.8437229    716.78622  0.014745047  0.013515378         1723 
 4052000   0.59787834   -7.8296702    716.40075   0.01473348  0.013510381         1822 
 4053000   0.60009358   -7.8438804    716.45112  0.014730881  0.013505376         1799 
 4054000   0.62562843   -7.8284831    718.27459   0.01476473   0.01350038         1792 
 4055000   0.59602479   -7.8308369    717.91911  0.014753784  0.013495381         1835 
 4056000   0.59965662   -7.8288072    716.76915  0.014726519  0.013490382         1782 
 4057000    0.5946596   -7.8375938    717.28801  0.014733547  0.013485385         1836 
 4058000   0.58766979   -7.8367265    718.12051  0.014747012  0.013480391         1822 
 4059000   0.58719493   -7.8520103    716.03371  0.014700536  0.013475403         1796 
 4060000   0.60432598   -7.8431098    716.41825  0.014704808   0.01347041         1788 
 4061000   0.60105995   -7.8371372    716.49943  0.014702853  0.013465424         1795 
 4062000   0.60362872   -7.8360907    717.44713  0.014718676  0.013460436         1767 
 4063000   0.60008347    -7.840381    716.03763  0.014686144  0.013455455         1799 
 4064000   0.60281036   -7.8274424    716.48611  0.014691726  0.013450476         1691 
 4065000    0.6072753   -7.8340619    716.08129  0.014679813  0.013445505         1835 
 4066000   0.59718593   -7.8444909    717.71186  0.014709622  0.013440523         1861 
 4067000    0.5929334   -7.8594315    716.94665  0.014690325  0.013435546         1800 
 4068000   0.59534486   -7.8361213    718.04003  0.014709112   0.01343058         1824 
 4069000   0.61235469   -7.8426743    717.92762  0.014703195  0.013425617         1840 
 4070000   0.59414945   -7.8441204    714.90179  0.014637629   0.01342065         1819 
 4071000   0.59079672   -7.8431857    716.85965  0.014674111  0.013415679         1806 
 4072000   0.61488856   -7.8292658    716.94171  0.014672186  0.013410721         1828 
 4073000   0.61437861   -7.8334185    716.98482  0.014669466  0.013405763         1783 
 4074000   0.59282272   -7.8418438    716.25279  0.014650892  0.013400804         1776 
 4075000    0.6171678   -7.8429484    716.28051  0.014647863  0.013395846         1849 
 4076000   0.60582312   -7.8577792    716.97495  0.014658467  0.013390891         1841 
 4077000   0.60000539   -7.8425757    716.30609    0.0146412  0.013385938         1807 
 4078000    0.6097338   -7.8515233    716.10852  0.014633573   0.01338099         1858 
 4079000   0.58711524   -7.8680195    715.88564  0.014625432  0.013376033         1857 
 4080000   0.59304938   -7.8399737     717.4264  0.014653317  0.013371074         1802 
 4081000   0.58858938   -7.8437104    717.00934   0.01464121   0.01336612         1824 
 4082000   0.58757658   -7.8710274    716.38804   0.01462494  0.013361175         1761 
 4083000   0.58535891   -7.8467009    716.08288  0.014615129  0.013356223         1715 
 4084000   0.62076543   -7.8549942    715.42149  0.014598055  0.013351277         1770 
 4085000   0.59059393   -7.8526804    717.13319    0.0146294  0.013346335         1796 
 4086000   0.59624991   -7.8405484    716.34702  0.014609786  0.013341394         1738 
 4087000    0.6006512   -7.8579918    715.68916  0.014592798  0.013336452         1827 
 4088000   0.59681075    -7.850042    717.00365  0.014616023  0.013331509         1759 
 4089000   0.59695237   -7.8355357    715.56084  0.014583045  0.013326568         1797 
 4090000   0.58745211   -7.8486389    716.26135  0.014593752  0.013321642         1797 
 4091000   0.59987634   -7.8533243    716.51735  0.014595399  0.013316713         1820 
 4092000   0.60619737   -7.8637127    717.44957  0.014610817  0.013311778         1766 
 4093000   0.59720656   -7.8416944     716.3864  0.014585601  0.013306845         1871 
 4094000   0.58967479   -7.8573646    716.81882  0.014590841  0.013301915         1865 
 4095000   0.60150373   -7.8605404    716.45652  0.014579905  0.013296992         1826 
 4096000    0.5989276   -7.8512819    716.88465  0.014585055  0.013292075         1762 
 4097000   0.59779542   -7.8409239    715.07036  0.014544593  0.013287157         1794 
 4098000   0.58742851   -7.8463756    715.73912  0.014554643  0.013282236         1798 
 4099000   0.58751212   -7.8630344    716.11636  0.014558761  0.013277323         1827 
 4100000   0.59395389    -7.848572    716.23706  0.014557664  0.013272403         1858 
 4101000   0.60376157   -7.8719935    716.83666  0.014566298  0.013267493         1884 
 4102000   0.59649971   -7.8579299     715.7582  0.014540838  0.013262578         1730 
 4103000   0.60934505     -7.84835    715.29142  0.014527813  0.013257668         1762 
 4104000   0.59615091   -7.8369791    717.28286  0.014564711  0.013252768         1738 
 4105000   0.59305462   -7.8153426    718.02934  0.014576316  0.013247867         1708 
 4106000   0.58366294    -7.861803    715.79748   0.01452747  0.013242968         1783 
 4107000   0.59575468   -7.8645141    716.35831  0.014535312  0.013238072         1764 
 4108000   0.59161204   -7.8611777     716.4493  0.014533619  0.013233174         1738 
 4109000   0.59166007   -7.8711566    715.84732  0.014517874  0.013228283         1736 
 4110000   0.60881086   -7.8570843     716.2863  0.014523242  0.013223388         1825 
 4111000   0.60475449   -7.8628832    714.64852   0.01448651  0.013218498         1771 
 4112000   0.59138065   -7.8621674      714.971  0.014489522  0.013213613         1748 
 4113000   0.59784849    -7.852262    716.79622   0.01452298  0.013208726         1807 
 4114000   0.59950805   -7.8605509    716.02555  0.014503839   0.01320384         1822 
 4115000   0.59763579   -7.8673738    716.86593  0.014517334   0.01319896         1824 
 4116000   0.58387781   -7.8725029    715.17865  0.014479645  0.013194084         1800 
 4117000     0.591137   -7.8646423    716.48725  0.014502616  0.013189205         1842 
 4118000   0.57503374    -7.853252    714.30345  0.014454902  0.013184326         1878 
 4119000   0.59559667   -7.8714074    714.54039  0.014456187  0.013179446         1832 
 4120000   0.58928925   -7.8621903     715.7235  0.014476608  0.013174572         1819 
 4121000    0.5869566    -7.847415    716.71098  0.014493064  0.013169703         1803 
 4122000   0.59502773   -7.8623336    714.68904  0.014448671   0.01316484         1797 
 4123000   0.59198792   -7.8631022    715.49951  0.014461547  0.013159976         1937 
 4124000   0.59876114    -7.875818    716.09903  0.014470155  0.013155112         1886 
 4125000   0.58509438    -7.860338    714.94033  0.014443239  0.013150254         1870 
 4126000   0.58869541   -7.8572593    715.23235  0.014445636    0.0131454         1870 
 4127000   0.59614167   -7.8446807     716.3268  0.014464235   0.01314055         1840 
 4128000   0.60513449    -7.860945    717.06226  0.014475578  0.013135696         1842 
 4129000   0.59107587   -7.8671828     715.0818  0.014432102  0.013130849         1800 
 4130000   0.59445783    -7.860977    717.18651  0.014471076  0.013126003         1747 
 4131000    0.6009526   -7.8654887    715.94596  0.014442547  0.013121155         1817 
 4132000    0.5924471   -7.8705666     715.7827   0.01443576  0.013116311         1805 
 4133000   0.60380257   -7.8549022    715.95454  0.014435731  0.013111475         1799 
 4134000   0.58738277   -7.8844839    715.23018  0.014417638  0.013106637         1876 
 4135000   0.59435892   -7.8711131    715.86428   0.01442693  0.013101803         1839 
 4136000   0.58041718   -7.8772801    715.61822  0.014418484  0.013096972         1818 
 4137000   0.59417088   -7.8517644    715.49822  0.014412582  0.013092137         1796 
 4138000   0.59092064   -7.8788916     715.7507  0.014414184  0.013087314         1824 
 4139000   0.57360556   -7.8585651    715.16706   0.01439895  0.013082486         1802 
 4140000   0.58790422    -7.880516    714.95056  0.014391114  0.013077655         1876 
 4141000   0.58290533   -7.8724944    715.05221  0.014389685  0.013072828         1866 
 4142000   0.58784814    -7.871971    717.20157  0.014429454  0.013068007         1888 
 4143000   0.58538958   -7.8740028    715.71199  0.014396009  0.013063183         1905 
 4144000   0.58385399   -7.8716835    715.73745  0.014393047  0.013058356         1898 
 4145000   0.59029102   -7.8801284    715.41675  0.014383127  0.013053536         1827 
 4146000   0.58323932   -7.8547527    715.93655  0.014390106  0.013048723         1879 
 4147000   0.59360061   -7.8734395    714.92746  0.014366358  0.013043913         1834 
 4148000   0.59157134   -7.8681816    715.90739  0.014382582  0.013039106         1811 
 4149000   0.59278563   -7.8604968    714.97629  0.014360414  0.013034304         1731 
 4150000   0.58791707    -7.863061    714.61746  0.014349748  0.013029505         1763 
 4151000   0.58510413   -7.8650016    715.64397  0.014366899  0.013024703         1781 
 4152000   0.59128098   -7.8536559    714.74754  0.014345447  0.013019906         1898 
 4153000   0.58845269   -7.8772145    716.45209  0.014376196   0.01301511         1871 
 4154000   0.59722465   -7.8568786    716.29468  0.014369577  0.013010319         1817 
 4155000   0.58817189   -7.8712519    715.41591  0.014348494  0.013005531         1940 
 4156000   0.57566675    -7.867681     717.4198  0.014385222  0.013000742         1893 
 4157000   0.59398553   -7.8615421    714.73792  0.014327999  0.012995952         1823 
 4158000   0.58895681   -7.8906018    716.12189  0.014352291  0.012991166         1931 
 4159000   0.58475687   -7.8799093     715.6815  0.014340016  0.012986378         1920 
 4160000   0.57952781   -7.8795089    715.32441  0.014329415  0.012981593         1870 
 4161000   0.59731557   -7.8603871    715.12059  0.014321889   0.01297681         1810 
 4162000   0.58726164   -7.8737485    716.60093  0.014348089   0.01297203         1796 
 4163000   0.58590346   -7.8682319    715.02756  0.014313147  0.012967259         1851 
 4164000   0.59543411   -7.8764055    715.87687  0.014326707  0.012962481         1888 
 4165000   0.59436866    -7.876031    715.97336  0.014325197  0.012957707         1934 
 4166000   0.58555734   -7.8768265    715.88779  0.014320047  0.012952934         1809 
 4167000   0.58324978   -7.8689551    716.03801  0.014319615   0.01294817         1853 
 4168000   0.59818724   -7.8813802    716.67762  0.014328967  0.012943403         1798 
 4169000   0.58142498   -7.8620187    715.73691  0.014306726  0.012938639         1871 
 4170000    0.5837098   -7.8762917    715.86038  0.014305763  0.012933878         1824 
 4171000   0.58770619   -7.8768385     715.9248   0.01430362  0.012929116         1873 
 4172000   0.57960179   -7.8622098    716.84459  0.014318564  0.012924357         1881 
 4173000   0.58408131   -7.8891122    715.37823   0.01428585    0.0129196         1888 
 4174000   0.59557074    -7.890842    714.64889  0.014267866  0.012914842         1989 
 4175000   0.58317032   -7.8705186    714.50716   0.01426162  0.012910088         1969 
 4176000   0.58265763   -7.8893745    716.12901  0.014290569  0.012905336         2008 
 4177000   0.58754424   -7.8788519    715.35183  0.014271643  0.012900584         1953 
 4178000    0.5988011   -7.8889218    715.59805  0.014273138  0.012895831         1886 
 4179000    0.5827312   -7.8918282    714.10094  0.014239869  0.012891081         1924 
 4180000     0.583566   -7.8931008    716.30808  0.014280464  0.012886334         1886 
 4181000   0.58679964   -7.8794764    716.00168  0.014270942  0.012881591         1882 
 4182000   0.58244957   -7.8767088    714.36687  0.014234953  0.012876848         1903 
 4183000   0.57641572   -7.8782503    715.59008  0.014255918  0.012872109         1891 
 4184000   0.59784696   -7.8693531    714.60523  0.014232896  0.012867373         1895 
 4185000   0.58254631   -7.8713474    715.82339  0.014253751  0.012862638         1915 
 4186000    0.5750281    -7.887996    716.43666  0.014262555  0.012857901         1958 
 4187000   0.59175967   -7.8773164    715.08788  0.014232304  0.012853162         1921 
 4188000   0.58638489   -7.8833441    716.78912  0.014262757  0.012848426         1846 
 4189000   0.57580834    -7.882796    714.13385   0.01420653  0.012843697         1852 
 4190000   0.57226324    -7.899225    715.27865  0.014225908  0.012838966         1966 
 4191000   0.57937531   -7.8950824    715.79226  0.014232726  0.012834236         1958 
 4192000   0.58090203   -7.8763163    715.12185  0.014216004  0.012829506         1864 
 4193000   0.59826683   -7.8981501     713.5626  0.014181624  0.012824781         1888 
 4194000   0.58443622   -7.8838646    714.39504  0.014194783  0.012820062         1948 
 4195000   0.57548411   -7.8956451    715.34341  0.014210239  0.012815344         1947 
 4196000   0.58694859   -7.8793357    714.75296  0.014195126  0.012810624         1877 
 4197000   0.58387972   -7.8767337    714.14474  0.014179667  0.012805908         1967 
 4198000    0.5854871   -7.8755001    715.95937  0.014212311  0.012801187         1887 
 4199000    0.5767677   -7.8927312    715.96911   0.01420912  0.012796471         1914 
 4200000   0.57206376   -7.8865307     716.5077  0.014216423  0.012791759         1997 
 4201000   0.57990882   -7.8802359    715.76151  0.014198237  0.012787055         1871 
 4202000   0.57867656    -7.893075    715.94108  0.014198419  0.012782346         1892 
 4203000   0.58760052   -7.8760055    714.88369  0.014174076  0.012777638         1974 
 4204000   0.59723119   -7.8704689    715.03147  0.014173634  0.012772938         1899 
 4205000   0.58630889   -7.8774678    716.37034  0.014196796  0.012768238         1801 
 4206000   0.57148233   -7.8853586    714.52493  0.014156858  0.012763547         1986 
 4207000   0.57718507   -7.8999007     714.0102  0.014143297  0.012758853         1977 
 4208000   0.57054548   -7.8908633    713.60994  0.014132009  0.012754159         1984 
 4209000   0.58163449   -7.9204759    714.50467  0.014146366  0.012749465         1958 
 4210000   0.57992355   -7.8999913     715.4862  0.014162435  0.012744777         1930 
 4211000   0.55703624   -7.8730457    714.68302  0.014143177   0.01274009         1954 
 4212000   0.56943359   -7.8815668    716.74594  0.014180634  0.012735408         1995 
 4213000   0.57620137   -7.8919713    714.52317  0.014133301  0.012730727         1923 
 4214000   0.58370562   -7.8852273    714.78678   0.01413516  0.012726048         1983 
 4215000   0.58417041   -7.8993546    714.35896  0.014123348  0.012721366         1873 
 4216000   0.57933756   -7.8873296    715.22939  0.014137203  0.012716688         1898 
 4217000   0.58692707   -7.8892114    714.95783  0.014128485   0.01271202         1872 
 4218000    0.5767635   -7.8980513    714.87346  0.014123468  0.012707351         1948 
 4219000   0.58860785   -7.9099285    715.30395  0.014128624  0.012702679         1957 
 4220000   0.57421235    -7.898442    713.37109  0.014087107   0.01269801         1954 
 4221000   0.57758677   -7.8829818    715.35945  0.014123025  0.012693348         1933 
 4222000   0.57662995   -7.8944127    715.23026   0.01411713  0.012688687         1889 
 4223000   0.57347909    -7.888769    714.82123  0.014105715  0.012684021         1906 
 4224000   0.56896394   -7.8947444    714.48002  0.014095644  0.012679365         1892 
 4225000    0.5787118   -7.9061139     715.1018  0.014104572  0.012674712         1956 
 4226000   0.57679411   -7.8977446    714.75712  0.014094438  0.012670054         1900 
 4227000   0.57715009   -7.8777503    715.17978  0.014099436  0.012665406         1900 
 4228000   0.58539532   -7.8845519    714.80398  0.014088694   0.01266076         1882 
 4229000   0.58384948   -7.9072141    715.62047  0.014101452  0.012656124         1870 
 4230000   0.57969646   -7.8773535    714.30508  0.014072204  0.012651485         1884 
 4231000    0.5785378   -7.9122137    715.14305  0.014085383  0.012646849         1951 
 4232000   0.58306459     -7.89857    716.13657  0.014101618  0.012642207         1813 
 4233000   0.57792068   -7.9003944    713.39596  0.014044333  0.012637569         1898 
 4234000   0.56210401   -7.8962041    714.19205  0.014056685  0.012632929         1873 
 4235000   0.58027539   -7.8999139    714.43556  0.014058157  0.012628293         1939 
 4236000   0.58206228   -7.9040621    713.77637  0.014041871  0.012623656         1856 
 4237000   0.58625054   -7.8718735    714.93981  0.014061439  0.012619027         1893 
 4238000   0.56929618   -7.8744094    715.27476  0.014064707  0.012614395         1860 
 4239000   0.57610427   -7.8825269    716.86758  0.014092702  0.012609767         1841 
 4240000   0.57185454   -7.9052884    714.51281  0.014043098  0.012605146         1890 
 4241000   0.56550447   -7.8876249    714.97254   0.01404882  0.012600521         1925 
 4242000   0.57924374   -7.8914118     714.9491  0.014045048  0.012595898         1946 
 4243000   0.58210167   -7.8965622    714.62016  0.014035277  0.012591277         1920 
 4244000   0.56951302   -7.8983767    715.35336  0.014046367  0.012586664         1855 
 4245000   0.57323923    -7.896738     714.7307  0.014030834  0.012582044         1877 
 4246000   0.56828473   -7.8994758    714.71614  0.014027244  0.012577432         1917 
 4247000   0.57707597   -7.8900344    714.28728  0.014015526  0.012572818         1917 
 4248000   0.57401131     -7.89353    713.98059  0.014006211  0.012568205         1949 
 4249000   0.57120509   -7.8949791    715.21064  0.014027039  0.012563599         1945 
 4250000   0.57792527   -7.9168034    714.70335  0.014013791  0.012558993         1863 
 4251000     0.570408   -7.8904821    713.56192  0.013988119  0.012554385         1912 
 4252000   0.57873115   -7.9136798    714.13347  0.013996031  0.012549781         2001 
 4253000   0.57257859   -7.8973412    715.05102  0.014010718  0.012545177         1904 
 4254000   0.58093835   -7.9092872    715.16104   0.01400958  0.012540576         2050 
 4255000   0.58108763   -7.8944413    715.18938  0.014006842  0.012535974         1917 
 4256000   0.57839473   -7.8939824    712.85367  0.013957818  0.012531374         1953 
 4257000   0.57016824   -7.9030482    714.67647  0.013990221   0.01252678         2041 
 4258000   0.56258522   -7.8967145    715.21054  0.013997388  0.012522186         1989 
 4259000   0.55604255   -7.9137565    713.66252  0.013963812  0.012517597         2018 
 4260000   0.57830408   -7.9135536     713.7376  0.013962003  0.012513005         1939 
 4261000   0.57472048   -7.9224214     712.6462  0.013937382  0.012508413         2079 
 4262000   0.58233919   -7.9207369    714.04076  0.013961379  0.012503822         1958 
 4263000   0.56426863   -7.9143092    712.59133   0.01392977  0.012499236         1970 
 4264000   0.57298939   -7.8996849    713.43641  0.013943019   0.01249465         1963 
 4265000   0.56079411   -7.9122278    712.92468  0.013929752  0.012490067         1984 
 4266000   0.58031433    -7.928258    714.87593  0.013964603   0.01248549         1949 
 4267000   0.56950033   -7.8841039    713.36345  0.013931791  0.012480911         2009 
 4268000   0.55795925   -7.9048173    713.06352  0.013922671  0.012476335         2035 
 4269000    0.5623539   -7.9248257    714.54027  0.013948237  0.012471762         1971 
 4270000   0.56416592    -7.903035    714.09522  0.013936285  0.012467193         2034 
 4271000   0.55710589   -7.9176098     713.4126  0.013919703  0.012462618         2061 
 4272000   0.57794662   -7.9109634    713.31672  0.013914574  0.012458049         1919 
 4273000   0.57626494   -7.8948421    714.71202  0.013938529  0.012453481         2068 
 4274000   0.58412147    -7.929844    713.43154  0.013910302  0.012448918         1962 
 4275000   0.58244644   -7.9107266    713.19515   0.01390244  0.012444361         1944 
 4276000   0.56299911   -7.9136797    714.61779  0.013926914  0.012439803         2033 
 4277000   0.58621574   -7.9032636    714.51279  0.013921612   0.01243525         1980 
 4278000   0.57669284   -7.9045337    714.71779  0.013922351  0.012430701         1990 
 4279000   0.56856144   -7.8981241    712.80032  0.013881754  0.012426153         2000 
 4280000   0.57170861   -7.8944642    714.37221  0.013909116  0.012421605         2022 
 4281000    0.5640016   -7.9243783    712.25249  0.013864605  0.012417053         2083 
 4282000   0.56560586   -7.9181817    713.99628  0.013895304  0.012412508         2062 
 4283000   0.57094193   -7.9181387    713.80327  0.013888304  0.012407963         1978 
 4284000   0.57191632   -7.9163637    712.32825   0.01385637  0.012403422         2027 
 4285000   0.55356693    -7.925529    713.41946  0.013874357  0.012398878         2106 
 4286000   0.58046459   -7.9241623    713.82293  0.013878965  0.012394335         2031 
 4287000   0.55587058   -7.8957453    714.81078   0.01389493  0.012389798         2027 
 4288000   0.55745824   -7.9209034    713.14323  0.013859282  0.012385263         2074 
 4289000   0.54631471   -7.9414893    714.16592  0.013875921  0.012380729         2061 
 4290000   0.55455357   -7.9295275    712.81118  0.013846371  0.012376197         2008 
 4291000   0.55410994   -7.9222509    714.04102  0.013867028   0.01237167         2048 
 4292000   0.57372042   -7.9180805    713.48292  0.013852961   0.01236714         2003 
 4293000   0.56306406   -7.9190336    713.91138  0.013858052  0.012362618         2034 
 4294000   0.56954188   -7.9106186    713.77101    0.0138521  0.012358093         1955 
 4295000   0.56517554   -7.9103149    714.56476  0.013864276  0.012353575         2068 
 4296000   0.55973937   -7.9167937    714.54317  0.013860629  0.012349059         2050 
 4297000   0.55864583   -7.9051897    713.13053  0.013830008  0.012344547         2070 
 4298000   0.55082183   -7.9227847    714.01266  0.013843894  0.012340035         1995 
 4299000   0.56479829   -7.9233648     714.1486  0.013843309  0.012335526         2010 
 4300000   0.56174791   -7.9148866    714.96593  0.013855929  0.012331016         2077 
 4301000   0.55191398   -7.9248981    714.08528  0.013835644  0.012326513         2072 
 4302000   0.55568915   -7.9164823    713.85696  0.013828006  0.012322009         1967 
 4303000   0.55910094   -7.9264565    714.86877  0.013844387  0.012317506         1995 
 4304000   0.56305611   -7.8972956     714.6037  0.013836038  0.012313006         2029 
 4305000   0.57409162   -7.8964244    714.45319  0.013829911   0.01230851         2017 
 4306000   0.57232413   -7.9234801    713.09854  0.013800483  0.012304021         1982 
 4307000   0.57115365   -7.9138556     714.3491  0.013821475  0.012299524         1984 
 4308000   0.55530726   -7.9221205    713.93366   0.01381023  0.012295036         2038 
 4309000   0.56435093   -7.9173907    715.12917  0.013830146  0.012290551         2008 
 4310000   0.54712824   -7.9208787    712.34049  0.013773018  0.012286058         1962 
 4311000   0.55602108   -7.9299893    713.36594  0.013789646  0.012281569         1968 
 4312000   0.56590769   -7.9040608    713.78444  0.013794535  0.012277087         1953 
 4313000   0.55750129   -7.9295105    714.48533  0.013804879  0.012272608         2001 
 4314000   0.56722561   -7.9256921    714.51221  0.013802198  0.012268129         2064 
 4315000   0.56717805   -7.9213075    712.84365  0.013766776  0.012263656         1998 
 4316000   0.55633677   -7.9212819    714.14247  0.013788664  0.012259182         2010 
 4317000    0.5595694   -7.9138339    713.72251  0.013777363   0.01225471         1945 
 4318000   0.55985136   -7.9238737    713.37062  0.013767381  0.012250242         2041 
 4319000   0.55649888   -7.9251464    713.16773  0.013760279  0.012245771         2032 
 4320000   0.55302718   -7.9107582    714.25798  0.013778125  0.012241309         1960 
 4321000   0.54888453   -7.9260856    712.32252  0.013737609  0.012236841         2019 
 4322000   0.55773388   -7.9016953    713.84122  0.013763713  0.012232378         1939 
 4323000   0.55168802   -7.9115268    713.59896  0.013755859  0.012227917         1863 
 4324000   0.56138114   -7.9314065    713.81891  0.013756917   0.01222346         1933 
 4325000   0.55417036   -7.9087287    712.72759  0.013732709     0.012219         1964 
 4326000   0.56232285   -7.9064978    713.58177  0.013745989  0.012214542         1966 
 4327000   0.56798515   -7.9322024    713.36253   0.01373859  0.012210087         1947 
 4328000   0.55636115   -7.9315296    713.36576  0.013735477  0.012205635         1961 
 4329000   0.55277704   -7.9220824    713.29174   0.01373088  0.012201184         1977 
 4330000   0.55347057   -7.9221131    713.75672  0.013736657  0.012196735         2001 
 4331000   0.56825656   -7.9166522    712.73325  0.013713793  0.012192291         1976 
 4332000    0.5701652   -7.9431988    713.91512  0.013733363  0.012187853         2005 
 4333000   0.57182998   -7.9175367    714.38298  0.013739191  0.012183416         2030 
 4334000   0.56424322   -7.9280309    713.29997  0.013715197   0.01217898         2113 
 4335000   0.56229527    -7.919589    712.96144  0.013705526  0.012174541         1991 
 4336000   0.55919845   -7.9139498    714.27448    0.0137276  0.012170105         1879 
 4337000   0.55381907   -7.9296298    713.51496  0.013709841  0.012165673         2005 
 4338000   0.55700425    -7.925349    713.05044  0.013697757  0.012161243         2069 
 4339000   0.55979998   -7.9323415    713.77174  0.013708453  0.012156812         2004 
 4340000   0.55195785   -7.9198787    713.46932  0.013699488  0.012152382         2047 
 4341000   0.56434284   -7.9183289    714.11701  0.013708765   0.01214796         1971 
 4342000    0.5571718   -7.9148267    714.22079    0.0137076  0.012143542         1973 
 4343000    0.5475967   -7.9345625     715.1668  0.013722596  0.012139118         1944 
 4344000   0.54773985   -7.9240439    714.11212  0.013699204  0.012134702         2053 
 4345000   0.55013997    -7.921864    713.85331  0.013691088  0.012130291         2024 
 4346000   0.56608749   -7.9162476    713.19858  0.013675383  0.012125877         1928 
 4347000   0.56069135   -7.9138223     714.9996  0.013706763  0.012121464         1870 
 4348000   0.56058148   -7.9426909    713.86409  0.013681848  0.012117056         1986 
 4349000   0.54570141   -7.9202606    713.96417  0.013680619  0.012112651         1916 
 4350000   0.56797044   -7.9416435    714.50726  0.013687879  0.012108245         1957 
 4351000   0.54728699   -7.9341517    712.33438  0.013643116  0.012103836         2038 
 4352000   0.54380735   -7.9289908    713.26578  0.013657816  0.012099431         2004 
 4353000   0.54995157   -7.9375982    712.37896  0.013637701  0.012095031         2027 
 4354000   0.55460744   -7.9128369     713.6415  0.013658733   0.01209063         1918 
 4355000   0.55169922   -7.9357918    713.07478  0.013644753  0.012086232         2013 
 4356000   0.55565502   -7.9370019    712.44993  0.013629667  0.012081832         2092 
 4357000   0.54697961   -7.9038287     713.6427  0.013649352  0.012077433         2068 
 4358000    0.5532315   -7.9325708    713.29865  0.013639641  0.012073046         2032 
 4359000   0.55947228   -7.9186665    712.07777  0.013613171  0.012068652         2056 
 4360000   0.55820213   -7.9175377    713.22052  0.013631891  0.012064262         1994 
 4361000   0.55760031   -7.9435127        713.6  0.013636016  0.012059875         2069 
 4362000   0.55203798   -7.9250208    713.26756  0.013626539  0.012055489         2051 
 4363000   0.55893588   -7.9308759    713.66675   0.01363104    0.0120511         2010 
 4364000   0.54731308   -7.9308216    712.94863  0.013614204  0.012046715         2023 
 4365000   0.56006645   -7.9569177    713.62354   0.01362397  0.012042335         2086 
 4366000   0.54921852    -7.938626    711.75023  0.013585094   0.01203796         2116 
 4367000   0.54224853   -7.9497721     712.3027  0.013592525  0.012033587         2068 
 4368000   0.55332069   -7.9313506    712.61066  0.013595289  0.012029215         1980 
 4369000   0.55164667   -7.9235201     714.4781  0.013627796  0.012024848         2002 
 4370000   0.55465098   -7.9327375    713.15261  0.013599401   0.01202048         2074 
 4371000   0.55870302   -7.9398495    714.25426  0.013617293  0.012016111         2071 
 4372000   0.56256536    -7.936254    713.98297  0.013609007  0.012011747         2097 
 4373000   0.55439142   -7.9176275    714.24928   0.01361097  0.012007388         2055 
 4374000    0.5568002   -7.9242963     714.2669  0.013608194  0.012003029         1978 
 4375000   0.54777986   -7.9374114    712.18123  0.013565357   0.01199867         2002 
 4376000   0.55403694   -7.9489108    712.03864  0.013559541  0.011994309         2040 
 4377000   0.54309425   -7.9402801    712.87578  0.013572382  0.011989951         2037 
 4378000    0.5349879   -7.9563828     713.5034  0.013581228  0.011985594         1986 
 4379000   0.55134203   -7.9216204    713.15205   0.01357144  0.011981237         1912 
 4380000   0.54502611   -7.9241027    713.66962  0.013578189  0.011976884         2055 
 4381000   0.56245789   -7.9234243    713.06645  0.013563617  0.011972535         2037 
 4382000   0.55375076   -7.9599514    713.76586  0.013573822  0.011968187         2121 
 4383000    0.5560692   -7.9314978    712.11358  0.013539311  0.011963841         2075 
 4384000   0.54479604   -7.9203368    714.63329  0.013584118  0.011959493         1991 
 4385000   0.54358437   -7.9284992    712.74169  0.013545072  0.011955149         2008 
 4386000   0.54555515   -7.9305545     712.0217  0.013528304  0.011950808         1930 
 4387000   0.56297651   -7.9212138    712.56108  0.013535466  0.011946472         1934 
 4388000   0.55389199    -7.951093    711.95545   0.01352088  0.011942137         2091 
 4389000   0.54609498   -7.9531917    712.76872  0.013533241  0.011937797         2012 
 4390000    0.5403664   -7.9580842    712.85153   0.01353173  0.011933455         2051 
 4391000    0.5524389   -7.9478048    713.12127  0.013533767  0.011929119         1981 
 4392000   0.55457857   -7.9340819    713.83758  0.013544277  0.011924785         2037 
 4393000   0.54535738   -7.9405444    713.30417  0.013531075  0.011920453         2004 
 4394000    0.5569787    -7.950509    714.21467  0.013545264  0.011916127         2064 
 4395000   0.53806306   -7.9471557    711.89581  0.013498214  0.011911803         1975 
 4396000   0.55114549   -7.9522013     712.7733  0.013511778  0.011907481         2091 
 4397000   0.54785068   -7.9419391    712.33687  0.013500433  0.011903157         2100 
 4398000   0.53629603   -7.9397528    711.79432  0.013487083  0.011898837         2091 
 4399000   0.54176554   -7.9454135    712.68763   0.01350094  0.011894523         1985 
 4400000   0.54135626   -7.9318429    713.30707  0.013509604  0.011890205         2087 
 4401000   0.54358432   -7.9586785    713.73061  0.013514554  0.011885896         2028 
 4402000   0.55338343   -7.9451214    711.87759  0.013476405  0.011881588         2089 
 4403000   0.55112113   -7.9445019    712.22511  0.013479921  0.011877279         2051 
 4404000    0.5458224   -7.9559235    712.76977  0.013487166  0.011872969         2085 
 4405000   0.54022771   -7.9381139    712.14671  0.013472318  0.011868661         2087 
 4406000    0.5538785    -7.934805    712.92245  0.013483932  0.011864357         2099 
 4407000   0.55693728   -7.9569568    713.09958  0.013484222  0.011860052         2036 
 4408000   0.54861201   -7.9641134    712.71274  0.013473849  0.011855749         2099 
 4409000   0.53289521   -7.9492869     711.8387  0.013454273  0.011851446         2135 
 4410000   0.54575514   -7.9640168    712.08294  0.013455838  0.011847148         2087 
 4411000   0.53644997   -7.9329841    714.54097  0.013499225  0.011842854         1989 
 4412000   0.55371591   -7.9406638     713.3174  0.013473055  0.011838562         2034 
 4413000   0.54145123   -7.9682919    713.09511  0.013465804   0.01183427         2072 
 4414000   0.54272337   -7.9566528    712.68477  0.013455006  0.011829979         2081 
 4415000   0.54344395   -7.9450584    712.74075  0.013453015  0.011825688         2066 
 4416000   0.53042903   -7.9522334    711.47601  0.013426102  0.011821396         2102 
 4417000   0.54968488    -7.944038    711.86705   0.01343044  0.011817117         2091 
 4418000   0.54112699   -7.9463787     711.8434  0.013426954  0.011812833         2093 
 4419000   0.55171582   -7.9616942    712.65071   0.01343914  0.011808547         2119 
 4420000   0.54071808   -7.9549984    712.23979  0.013428352  0.011804262         2040 
 4421000   0.53939546     -7.94955    710.33263  0.013389366  0.011799983         2063 
 4422000   0.53169987   -7.9620487    712.08188  0.013419303   0.01179571         2075 
 4423000   0.54174674   -7.9530245    712.10777  0.013416757  0.011791434         2092 
 4424000   0.54644832    -7.951259    713.02973  0.013431091  0.011787165         1980 
 4425000   0.54007503   -7.9532936    713.11605  0.013429681  0.011782894         2011 
 4426000   0.53142767   -7.9527689    712.83351  0.013421327  0.011778627         2059 
 4427000   0.55069573   -7.9590765    711.94629  0.013401594  0.011774362         2012 
 4428000   0.54728631   -7.9547868    712.41344  0.013407359  0.011770099         2072 
 4429000   0.53675441   -7.9649573    711.46027  0.013386398  0.011765835         2070 
 4430000   0.53919696   -7.9486773    711.43065  0.013382819  0.011761575         2065 
 4431000   0.54349662   -7.9646079    712.11592  0.013392686  0.011757314         2069 
 4432000   0.53598356   -7.9595082    712.02197  0.013387898  0.011753053         2013 
 4433000   0.55204728    -7.956043     713.5725  0.013414026  0.011748799         2042 
 4434000   0.54150201   -7.9542249    711.46327  0.013371359  0.011744547         2082 
 4435000    0.5562042   -7.9660683    712.32022  0.013384446  0.011740294         2031 
 4436000   0.54144605   -7.9298828    711.69484  0.013369681  0.011736045         2062 
 4437000   0.54136681   -7.9478598    712.52362  0.013382233  0.011731793         2044 
 4438000   0.54191526    -7.950585    712.60463  0.013380739  0.011727551         2065 
 4439000   0.54880853   -7.9244061    711.92592  0.013364983  0.011723307         1993 
 4440000   0.55602829   -7.9550505     712.3311  0.013369578  0.011719067         2087 
 4441000   0.54140813   -7.9557857    712.53151  0.013370328  0.011714824         2062 
 4442000   0.54167117   -7.9652936    712.02886  0.013357888  0.011710589         2129 
 4443000   0.54660596   -7.9647217    712.89993  0.013371219  0.011706353         2085 
 4444000   0.54051062   -7.9630052    712.13564  0.013353879  0.011702117         2048 
 4445000   0.54069388   -7.9704539    712.33083  0.013354534  0.011697887         2097 
 4446000   0.53630053   -7.9617975     711.9233  0.013343892  0.011693658         2054 
 4447000   0.54253063   -7.9620876    712.56163  0.013352853  0.011689432         1998 
 4448000   0.55574624   -7.9620949    712.52753  0.013349212  0.011685205         2048 
 4449000   0.54288423   -7.9602297    711.54777   0.01332786  0.011680981         2013 
 4450000   0.53537819   -7.9520637    711.53409  0.013324608  0.011676759         2104 
 4451000   0.53985165   -7.9690074    712.52645  0.013340194  0.011672536         2043 
 4452000   0.54249381   -7.9859108    711.03718  0.013309321  0.011668314         2050 
 4453000   0.52773281   -7.9761465    710.91472  0.013304041  0.011664095         2047 
 4454000   0.52663962   -7.9260368    712.27134  0.013326436  0.011659881         1985 
 4455000   0.53650378   -7.9681693    712.55347  0.013328722  0.011655668         2083 
 4456000   0.54265084   -7.9693143    711.87493  0.013313041  0.011651456         2062 
 4457000   0.54191636   -7.9478872    711.31136  0.013299517  0.011647242         2027 
 4458000   0.54281373   -7.9602837    711.87028  0.013306981  0.011643032         2056 
 4459000   0.54171767   -7.9313649    711.49238  0.013296935  0.011638825         2004 
 4460000   0.53838967   -7.9874563     712.5273   0.01331329   0.01163462         2092 
 4461000   0.53693777   -7.9690792    712.54243  0.013310589  0.011630415         2060 
 4462000   0.53766539    -7.969909     711.1348  0.013281316  0.011626209         2085 
 4463000   0.54271935   -7.9632541    711.86654  0.013292004  0.011622003         2075 
 4464000   0.53750224   -7.9824192    712.07926  0.013292997  0.011617807         1974 
 4465000   0.53824972   -7.9586671    711.90946  0.013286851   0.01161361         2059 
 4466000    0.5375407   -7.9742627    711.47964  0.013275855  0.011609412         2104 
 4467000   0.52974696   -7.9704096    711.68515  0.013276717  0.011605219         2101 
 4468000   0.54632549   -7.9644224    712.47427  0.013288464  0.011601029         2027 
 4469000   0.54425924   -7.9661157    712.72355  0.013290139  0.011596846         1937 
 4470000    0.5427532   -7.9680931    712.38653  0.013280882   0.01159266         2019 
 4471000   0.54021158   -7.9733362    712.88484    0.0132872  0.011588476         2029 
 4472000   0.53456828   -7.9810857     711.8482  0.013264911  0.011584295         2124 
 4473000   0.54452286   -7.9775389    711.11523   0.01324829  0.011580118         2065 
 4474000   0.53207616   -7.9832332    710.51592  0.013234166  0.011575937         2158 
 4475000   0.53094125   -7.9714015    711.08099  0.013241732  0.011571762         2026 
 4476000   0.52709025   -7.9753494    711.86661    0.0132534  0.011567585         2013 
 4477000    0.5348989   -7.9639213    712.58093  0.013263736   0.01156341         1978 
 4478000   0.54499808   -7.9741191    711.86039  0.013247365   0.01155924         2103 
 4479000   0.53117463   -7.9597794    713.15947  0.013268577  0.011555067         2020 
 4480000   0.53780938   -7.9793541    711.26209  0.013230322  0.011550901         2110 
 4481000    0.5174799   -8.0006268    711.20607  0.013226327  0.011546732         2078 
 4482000   0.52510128   -7.9647968    712.18506  0.013241579  0.011542561         2094 
 4483000   0.53535099   -7.9595358    711.84268   0.01323226  0.011538399         2088 
 4484000   0.53233959   -7.9672724    710.80941  0.013210107  0.011534238         2041 
 4485000   0.52724982   -7.9743237    710.98455  0.013210415  0.011530081         2091 
 4486000   0.52783898   -7.9754149    712.43485  0.013234412  0.011525921         2024 
 4487000   0.54234985   -7.9650232    710.91856  0.013203301  0.011521765         2038 
 4488000   0.53371064   -7.9554197    711.48218  0.013210825  0.011517618         2050 
 4489000   0.52886186   -7.9509224    711.71705  0.013212242  0.011513469         2134 
 4490000   0.52698718   -7.9791522    712.65695  0.013226744  0.011509322         2070 
 4491000   0.53882653    -7.964789    711.97885  0.013211216   0.01150518         2123 
 4492000   0.54164967   -7.9751059    711.58809  0.013201026   0.01150104         2050 
 4493000   0.52657713   -7.9701313    711.57085  0.013197768  0.011496897         2064 
 4494000   0.53399023   -7.9660759    711.19312  0.013187827  0.011492755         2023 
 4495000   0.53023952   -7.9826911    710.81963  0.013177969  0.011488617         2071 
 4496000   0.53734424   -7.9708523    713.49748  0.013224672  0.011484481         2045 
 4497000   0.53682371   -7.9601763    713.05928  0.013213611  0.011480349         2069 
 4498000   0.53522662   -7.9859155    710.86815  0.013170078  0.011476219         2120 
 4499000   0.52939937   -7.9696173    712.82902  0.013203471  0.011472089         2099 
 4500000   0.54225054   -7.9739886    711.90226  0.013183375  0.011467956         2065 
 4501000   0.53303666   -7.9772094    711.94655  0.013181266  0.011463832         2070 
 4502000   0.52863168   -7.9916051    711.46357  0.013169398  0.011459706         2074 
 4503000    0.5177854   -7.9848686    712.21353  0.013180353  0.011455578         2123 
 4504000   0.53738642    -7.960129    711.57946  0.013165694  0.011451461         2093 
 4505000   0.53186638   -7.9840645    710.85695  0.013149407  0.011447343         2173 
 4506000   0.53584114   -7.9837255    710.52178   0.01314029  0.011443223         2149 
 4507000   0.53930126   -7.9869757    712.11653  0.013166861  0.011439105         2112 
 4508000   0.52904902    -7.971099    711.92353  0.013160373  0.011434992         2101 
 4509000   0.53803236   -7.9801238    711.79209  0.013155025  0.011430878         2064 
 4510000   0.53583068   -7.9781041    711.90514  0.013154197  0.011426764         2121 
 4511000    0.5289628   -7.9845837    712.09717  0.013154828  0.011422652         2093 
 4512000   0.53745147   -7.9670946    711.74425  0.013145395  0.011418545         2080 
 4513000   0.53873948    -7.966943     711.0487  0.013129638  0.011414439         2112 
 4514000   0.53341495   -7.9742429    711.19865  0.013129498  0.011410335         2106 
 4515000   0.53585377   -7.9863701    710.83686  0.013119913  0.011406232         2138 
 4516000    0.5357738   -7.9872463    710.98335  0.013119711   0.01140213         2119 
 4517000   0.53363318   -7.9654806    711.67356  0.013129539  0.011398035         2008 
 4518000   0.53537696   -7.9726751     711.2249  0.013118358  0.011393939         2069 
 4519000   0.54095376   -7.9692422    711.43212  0.013119276  0.011389845         2048 
 4520000   0.51904386   -7.9842893    711.93603  0.013125664  0.011385753         2113 
 4521000   0.52365903   -7.9877022    710.98127  0.013105162  0.011381662         2036 
 4522000   0.52826702   -7.9873439    710.81755  0.013099247  0.011377573         2071 
 4523000   0.52569528   -7.9985423    711.59007  0.013110584  0.011373486         2089 
 4524000   0.54045156   -7.9826358    712.35449  0.013121767  0.011369402         2063 
 4525000   0.52623601   -7.9879942    710.53623  0.013085382  0.011365317         2017 
 4526000   0.53049125   -7.9929521    711.33101  0.013097124  0.011361237         2042 
 4527000   0.53030442   -7.9802061    711.56216  0.013098486   0.01135716         2057 
 4528000   0.53187426   -7.9622538    711.00275  0.013085298  0.011353081         2053 
 4529000    0.5208068   -7.9733279    712.36521  0.013107478  0.011349005         2101 
 4530000   0.52828537   -7.9613484    711.19939  0.013083138  0.011344931         2054 
 4531000   0.53089605   -7.9668527    711.05591  0.013077612   0.01134086         2033 
 4532000   0.52398616   -7.9742806    711.95926  0.013091337  0.011336791         1978 
 4533000   0.52308361   -7.9592557    710.34094  0.013058698  0.011332724         2136 
 4534000   0.53485041   -7.9721674    711.04259  0.013068714  0.011328652         2060 
 4535000   0.52137122   -7.9806376     711.2568  0.013069768  0.011324586         2035 
 4536000   0.52075845   -7.9940526    709.62527  0.013036913  0.011320516         2110 
 4537000   0.53182146   -7.9895259      711.752  0.013073103  0.011316456         2049 
 4538000   0.52081021   -7.9800415    711.92246  0.013073352   0.01131239         2075 
 4539000    0.5209011   -7.9998475    711.27844  0.013058648  0.011308332         2020 
 4540000   0.52219527   -7.9710241    711.57281  0.013061175  0.011304279         2060 
 4541000   0.52479131    -7.994151    712.42072  0.013073859  0.011300225         2101 
 4542000    0.5191482   -7.9752915    710.97932  0.013044535  0.011296175         2063 
 4543000   0.52022929   -7.9741942    711.21133  0.013045919  0.011292123         2012 
 4544000   0.50977244    -7.958856    711.84166  0.013054608  0.011288075         2014 
 4545000   0.53253088   -7.9982633    710.05429  0.013018964  0.011284026         2103 
 4546000   0.52207477   -7.9818888    710.25182  0.013019721   0.01127998         2081 
 4547000   0.52778416    -7.969511    710.98058  0.013030214  0.011275939         2132 
 4548000   0.52267341   -7.9934812    710.81175  0.013024255  0.011271899         2084 
 4549000   0.52593085   -7.9899925    710.31146  0.013012227  0.011267861         2102 
 4550000   0.52203454   -7.9838684    709.99935  0.013003651  0.011263824         2015 
 4551000   0.52353005   -7.9873326    710.07113  0.013002108  0.011259792         2054 
 4552000   0.51873162   -7.9960322     712.2281  0.013038739  0.011255754         2192 
 4553000   0.52409998   -7.9978502    711.08526  0.013014958  0.011251719         2141 
 4554000   0.52433821   -7.9798467    710.35932  0.012998816  0.011247688         2089 
 4555000   0.52650281   -7.9968812    710.88389   0.01300556  0.011243657         2082 
 4556000   0.51909822   -7.9944092     710.8398  0.013001899  0.011239631         2015 
 4557000   0.51803869   -7.9893716    709.90095  0.012981877  0.011235604         2056 
 4558000    0.5183226   -7.9913808    710.14121  0.012983421  0.011231576         2167 
 4559000     0.517361   -7.9786066    711.19594  0.012999853  0.011227552         2051 
 4560000   0.52192781   -7.9973155    711.00404  0.012993495  0.011223531         2062 
 4561000   0.52432604   -8.0045443    711.23074  0.012994788  0.011219512         2045 
 4562000   0.51968071   -7.9790111     711.0375   0.01298841  0.011215491         2085 
 4563000   0.51440858   -7.9898813    709.13878  0.012950887  0.011211476         2117 
 4564000   0.52486966   -7.9983097    710.86711  0.012979607  0.011207466         2065 
 4565000   0.51099725   -7.9994194     711.3474  0.012985531  0.011203456         2051 
 4566000   0.52104382   -8.0066869    710.40854  0.012965552  0.011199443         2038 
 4567000   0.53333409   -7.9938152    711.17105  0.012976627  0.011195437         2061 
 4568000   0.51608631   -7.9784879     711.5696  0.012981057  0.011191434         2103 
 4569000   0.51866817   -7.9860059    711.01285  0.012968061  0.011187428         2032 
 4570000   0.51747555   -7.9899403    710.63432  0.012958321  0.011183427         2118 
 4571000   0.52228131    -7.982083    711.47864  0.012970879  0.011179425         2080 
 4572000   0.51810872   -8.0009214    710.32025  0.012946928  0.011175426         2062 
 4573000   0.52176517   -7.9912474    711.44284  0.012964554  0.011171427         2082 
 4574000   0.52156643   -7.9859151    710.71249  0.012948413  0.011167435         2024 
 4575000   0.51655856   -7.9961733    711.34863   0.01295717  0.011163444         2039 
 4576000   0.52303935    -7.982139    709.44202  0.012919617  0.011159453         2087 
 4577000   0.52398721   -7.9841171    710.84567  0.012942351  0.011155464         2095 
 4578000    0.5195675   -8.0082436    709.19431  0.012909464  0.011151478         2061 
 4579000   0.52432153   -8.0053399    709.39496  0.012910296   0.01114749         2167 
 4580000   0.51856634   -7.9954773    709.94362   0.01291746  0.011143505         2072 
 4581000   0.53261555   -8.0039622    710.51697   0.01292507  0.011139524         2119 
 4582000   0.50452394   -7.9957829    710.69447  0.012925478  0.011135544         2055 
 4583000   0.51940023    -7.999149    711.94596  0.012945414  0.011131563         2105 
 4584000   0.51634785   -7.9958725    710.88593  0.012923319  0.011127586         2095 
 4585000    0.5242162   -7.9801725    710.49838  0.012913456  0.011123612         2048 
 4586000   0.51090853   -8.0111725    711.20868  0.012923548   0.01111964         2059 
 4587000   0.51610712   -8.0012726    712.08301  0.012936615  0.011115667         2093 
 4588000   0.52267677   -7.9915529    710.54853  0.012905924  0.011111693         2061 
 4589000   0.50113476   -8.0168139    710.16174  0.012896087  0.011107724         2122 
 4590000   0.50877193   -8.0132036    709.96068  0.012889627  0.011103757         2030 
 4591000   0.52264368   -7.9969282    709.30173  0.012874859  0.011099793         2176 
 4592000   0.52087579   -7.9731158    711.13825  0.012905383   0.01109583         2034 
 4593000   0.50606783   -8.0002511    711.45865  0.012908387   0.01109187         2076 
 4594000   0.51987198   -7.9953167    710.56531  0.012889372  0.011087911         2152 
 4595000   0.52198777   -8.0088571    710.46514   0.01288475  0.011083956         2141 
 4596000   0.52299313   -8.0062164    711.03531  0.012892285  0.011080001         2151 
 4597000   0.52453317   -7.9837616    710.64714  0.012882444  0.011076048         2053 
 4598000   0.52077741   -7.9927716    710.68556  0.012880339  0.011072098         2100 
 4599000   0.50268516    -8.003992    710.21804  0.012869067  0.011068144         2030 
 4600000   0.50930399   -8.0160934    710.79694  0.012876756  0.011064195         2145 
 4601000   0.51097392   -7.9948082    710.75518  0.012873201  0.011060249         2125 
 4602000   0.51976306     -7.99721    710.36483  0.012863335  0.011056303         2111 
 4603000   0.51649673   -8.0038796    711.49853  0.012881065  0.011052359         2138 
 4604000   0.51592598   -7.9908036    710.99518  0.012869157  0.011048416         2146 
 4605000   0.51451401   -8.0103736    710.47215  0.012856897  0.011044474         2094 
 4606000   0.53123088   -8.0063997    709.38888  0.012834507  0.011040535         2101 
 4607000   0.51156137   -8.0225933    709.87767  0.012840563  0.011036597         2080 
 4608000   0.51389298   -8.0028792    709.59158  0.012832602  0.011032661         2092 
 4609000   0.51938995   -7.9956133    710.82929  0.012852197  0.011028726         2050 
 4610000   0.51341208   -7.9871166    711.19962  0.012856103  0.011024792         2120 
 4611000   0.52038925   -8.0092844    710.52702  0.012841159  0.011020864         2092 
 4612000   0.51921549   -7.9913867    710.45378  0.012837052  0.011016933         2088 
 4613000   0.50846102   -8.0222012    709.56135  0.012818147  0.011013006         2090 
 4614000   0.51374999    -8.031951    710.91184   0.01283976   0.01100908         2092 
 4615000   0.50936942   -8.0069214    709.80613  0.012817012  0.011005152         2064 
 4616000   0.51618133   -8.0106428     709.2928  0.012804968  0.011001232         2051 
 4617000   0.50701484    -8.019991    709.35783  0.012803369  0.010997311         2191 
 4618000   0.51280061   -8.0123979    710.10953  0.012814161  0.010993394         2072 
 4619000   0.50663003   -8.0018702    708.83659  0.012788421  0.010989479         2157 
 4620000   0.50183896   -8.0077764     710.4972  0.012815606  0.010985563         2154 
 4621000   0.51440092   -8.0131524    710.16104   0.01280677  0.010981649         2109 
 4622000   0.51366444   -8.0135927    710.00326  0.012801155  0.010977736         2159 
 4623000   0.51278399   -8.0036397     709.4192  0.012787858  0.010973828         2142 
 4624000   0.53099038   -8.0098553    710.16191  0.012798477  0.010969919         2157 
 4625000   0.52048058   -8.0112595    711.03769   0.01281149  0.010966012         2141 
 4626000   0.50621814   -8.0190583    710.51986  0.012799392  0.010962109         2092 
 4627000   0.51416599   -8.0120321    710.46209  0.012795585  0.010958202         2096 
 4628000   0.51093717   -8.0058545    711.93434  0.012819331  0.010954303         2163 
 4629000   0.49997433   -8.0182506    709.85208  0.012779075  0.010950406         2111 
 4630000   0.51499427   -8.0086226    710.75346  0.012792539  0.010946507         2019 
 4631000   0.51668067   -8.0228014    709.82645  0.012773095  0.010942611         2136 
 4632000   0.51874907   -7.9980334    710.26831  0.012778287  0.010938715         2090 
 4633000   0.50957622   -7.9769347    709.18353  0.012756017  0.010934823         2071 
 4634000   0.51032284   -8.0082983    709.38338  0.012756858  0.010930931         2026 
 4635000   0.51198916   -8.0106043    708.51576  0.012738507  0.010927041         2099 
 4636000   0.50649392   -8.0027382    710.70421  0.012775097  0.010923158         2110 
 4637000   0.51216593   -8.0038662    709.63376  0.012753105  0.010919275         2102 
 4638000   0.50581171   -8.0084215    710.32006  0.012762686  0.010915389         2029 
 4639000   0.51026313   -8.0013314    710.01166  0.012754395  0.010911509         2100 
 4640000   0.51166962   -8.0080838    710.20113  0.012755049  0.010907628         2025 
 4641000   0.51501967    -8.010976     710.2775  0.012753672  0.010903747         2124 
 4642000   0.51526594   -8.0190999    709.68543  0.012740296  0.010899873         2185 
 4643000    0.5097646    -8.000606    709.97966  0.012742833  0.010895999         2104 
 4644000   0.49985562   -8.0075939    710.76234  0.012754133  0.010892126         2069 
 4645000   0.51344531   -8.0140182    710.87414  0.012753393  0.010888255         2128 
 4646000   0.50229291   -8.0061494    710.61698  0.012746036  0.010884385         2065 
 4647000   0.51331064   -7.9972169    710.89079  0.012748203   0.01088052         2026 
 4648000   0.49985857   -8.0151007    710.15606  0.012732287  0.010876653         2129 
 4649000   0.50792609   -8.0186566    709.61018  0.012719764  0.010872788         2075 
 4650000   0.50246816   -8.0121093    710.25376  0.012728562  0.010868928         2133 
 4651000   0.51027882   -8.0154869     711.1012  0.012741009  0.010865065         2111 
 4652000   0.50281079   -8.0076657    710.00368   0.01271861  0.010861203         2153 
 4653000   0.51034456   -8.0219907    711.17921   0.01273693  0.010857344         2116 
 4654000   0.51438721   -8.0126959    709.78794  0.012709281  0.010853489         2145 
 4655000   0.51791042   -8.0132004    709.35278  0.012698761  0.010849637         2157 
 4656000   0.50113858     -8.00625    709.88015  0.012705472  0.010845785         2065 
 4657000   0.51554767   -8.0079866    710.05486   0.01270587  0.010841937         2115 
 4658000   0.50809672   -8.0051781     709.5255  0.012693672  0.010838084         2137 
 4659000   0.51811541   -8.0081049    709.97446  0.012698978  0.010834239         2098 
 4660000    0.5049061   -8.0183123    710.28851  0.012701869  0.010830392         2176 
 4661000   0.51198526   -8.0258168    709.30382  0.012681539  0.010826548         2239 
 4662000   0.50929254    -8.011976    709.28889  0.012678552  0.010822708         2157 
 4663000   0.50359899   -8.0011395    709.05735  0.012671695   0.01081887         2070 
 4664000   0.50715963   -8.0180168    710.55315  0.012695704  0.010815031         2097 
 4665000   0.51409193   -8.0236014    709.26919  0.012670046  0.010811196         2164 
 4666000   0.50710606   -8.0238097    709.17418  0.012665634  0.010807363         2134 
 4667000   0.52227412   -8.0222796    709.54764  0.012669589  0.010803531         2107 
 4668000   0.51007953   -8.0235965    710.39497  0.012682001  0.010799699         2133 
 4669000   0.50696596   -8.0116724    710.02455  0.012672674   0.01079587         2135 
 4670000   0.50662869   -8.0201495    711.55382  0.012697249  0.010792043         2175 
 4671000   0.50293634   -8.0206304    708.55262  0.012640987  0.010788224         2107 
 4672000   0.50489622   -8.0246932    710.23729  0.012668331  0.010784402         2098 
 4673000   0.50343113   -8.0240872    709.49934   0.01265246  0.010780576         2137 
 4674000   0.51126166   -8.0238123    709.29605  0.012646128  0.010776755         2138 
 4675000   0.50350824    -8.023164    710.35009  0.012662212  0.010772935         2135 
 4676000   0.50320667   -8.0204366    709.98103  0.012652927  0.010769115         2158 
 4677000   0.50184663   -8.0187204    710.30637  0.012656018  0.010765299         2064 
 4678000   0.50081368   -8.0148342    708.89723  0.012628211  0.010761483         2176 
 4679000   0.50201078   -8.0275608    709.75109  0.012640719  0.010757671         2093 
 4680000    0.4930199   -8.0123554    710.25175  0.012646933  0.010753859         2120 
 4681000   0.50254123   -8.0301496     709.3664   0.01262847  0.010750053         2198 
 4682000   0.50239543   -8.0307266    709.92248   0.01263567  0.010746245         2104 
 4683000   0.51278031   -8.0127689    709.39816  0.012623642  0.010742439         2117 
 4684000   0.49406443    -8.020869    709.55339  0.012623708  0.010738636         2073 
 4685000   0.49920524   -8.0148958     710.8805  0.012644619  0.010734833         2184 
 4686000   0.50178123   -8.0204465    709.02815   0.01260898   0.01073103         2065 
 4687000   0.50545031   -8.0293594    709.72167   0.01261862  0.010727231         2066 
 4688000   0.51102966   -8.0125465    708.57591  0.012595561  0.010723434         2106 
 4689000   0.50693378   -8.0058496    709.74862  0.012613717   0.01071964         2185 
 4690000   0.49753579   -8.0143879    711.61482  0.012644187  0.010715846         2126 
 4691000   0.50491219   -8.0385608     708.7941  0.012591382  0.010712055         2102 
 4692000   0.51228816   -8.0083189    709.59625  0.012602946  0.010708265         2076 
 4693000   0.50029702   -8.0254314    710.51413  0.012616559  0.010704479         2130 
 4694000   0.51430005   -8.0189549    709.73646  0.012600065  0.010700692         2161 
 4695000   0.49880987   -8.0282718    710.06503  0.012603213  0.010696908         2127 
 4696000   0.50476903    -8.022747    708.94001  0.012580565  0.010693125         2183 
 4697000   0.50557202    -8.036215    709.14298  0.012581488  0.010689341         2067 
 4698000   0.49893828   -8.0280381    709.52025  0.012585502  0.010685563         2190 
 4699000   0.50891793   -8.0164585    709.77644  0.012587367  0.010681784         2129 
 4700000   0.49962678    -8.009412    709.10921  0.012572858  0.010678007         2097 
 4701000   0.50207096   -8.0213624    709.55591  0.012578102  0.010674229         2102 
 4702000   0.50050686    -8.029519    709.87975  0.012581167  0.010670455         2100 
 4703000   0.51041941    -8.022724    710.01118   0.01258082  0.010666683         2104 
 4704000   0.49971664   -8.0218604    709.80834  0.012574552  0.010662912         2116 
 4705000   0.50596825   -8.0252651    709.97563  0.012574843  0.010659143         2113 
 4706000   0.50321811    -8.026921    709.04487  0.012555689  0.010655376         2136 
 4707000   0.49961834   -8.0304141    708.95219  0.012551381  0.010651611         2196 
 4708000   0.51204765   -8.0308539    708.36207  0.012538269  0.010647845         2102 
 4709000   0.51040592   -8.0343094    708.77477   0.01254291  0.010644084         2158 
 4710000    0.4961674   -8.0427436    709.83789  0.012559057  0.010640323         2065 
 4711000   0.49716619   -8.0290024     708.7995  0.012538023  0.010636563         2106 
 4712000   0.50046064   -8.0180907    709.23706    0.0125431  0.010632809         2067 
 4713000   0.50258157   -8.0335451    709.43682  0.012543971  0.010629053         2146 
 4714000   0.49950376   -8.0107538    711.62296  0.012579956  0.010625303         2129 
 4715000   0.49675599   -8.0295773    708.92127  0.012529538  0.010621551         2083 
 4716000   0.50370723   -8.0390856    709.31618   0.01253386  0.010617799         2094 
 4717000   0.50052207    -8.054352    708.93722  0.012524507  0.010614049         2091 
 4718000   0.50437006   -8.0392204    708.73705  0.012518317    0.0106103         2127 
 4719000   0.49723977   -8.0289674    709.76959  0.012533898  0.010606555         2105 
 4720000   0.49585219   -8.0393385    707.66791  0.012494137  0.010602812         2130 
 4721000   0.50341726   -8.0299054     709.3567    0.0125213  0.010599069         2117 
 4722000   0.49893277   -8.0402805    709.30373  0.012517714  0.010595332         2148 
 4723000   0.49074286   -8.0310839    709.82352  0.012524235   0.01059159         2165 
 4724000   0.48151547   -8.0332712    709.61518  0.012517908  0.010587851         2096 
 4725000   0.49260666   -8.0261771    708.76966  0.012500347  0.010584118         2128 
 4726000   0.50526076   -8.0344787    708.66548  0.012495865  0.010580387         2077 
 4727000   0.49683721   -8.0386432    709.61144  0.012509898  0.010576657         2101 
 4728000   0.49586656   -8.0225752     709.1952  0.012499915  0.010572927         2101 
 4729000   0.48096715   -8.0300833    709.11998  0.012495947  0.010569199         2094 
 4730000   0.48800517   -8.0223017    710.33162  0.012514651  0.010565476         2204 
 4731000   0.48625873   -8.0428435    708.63603   0.01248214  0.010561753         2071 
 4732000   0.49532465   -8.0267443    709.05763  0.012486926  0.010558033         2105 
 4733000   0.48359086   -8.0372226    709.94295  0.012499876  0.010554312         2120 
 4734000   0.49495175   -8.0295824    708.83323  0.012477701  0.010550596         2195 
 4735000   0.48947911   -8.0345645    710.05749  0.012496612  0.010546878         2067 
 4736000    0.4959273   -8.0353938    708.59599  0.012468257  0.010543161         2099 
 4737000   0.48589228   -8.0253907    708.32816  0.012460913  0.010539444         2180 
 4738000   0.50216757   -8.0425464    707.89488  0.012450663  0.010535732         2127 
 4739000   0.49497486    -8.040347     709.9448  0.012484082  0.010532023         2081 
 4740000   0.49643501     -8.03916    708.85316  0.012462257  0.010528311         2145 
 4741000   0.48508504   -8.0195858    709.14421  0.012464744  0.010524603         2109 
 4742000   0.49483422   -8.0483165     709.1429  0.012462092  0.010520896         2140 
 4743000   0.50245587   -8.0079863    708.95564  0.012456175  0.010517194         2134 
 4744000   0.49045788   -8.0321252    709.41522  0.012461622  0.010513493         2140 
 4745000   0.49211935   -8.0407039    708.01469  0.012434399   0.01050979         2147 
 4746000   0.49436425   -8.0282087    710.14504  0.012469185  0.010506094         2057 
 4747000   0.48665059   -8.0417591     708.7668  0.012442364  0.010502395         2081 
 4748000   0.50013452   -8.0311091    708.73856  0.012439247  0.010498697         2166 
 4749000   0.48239656   -8.0334887    709.41035  0.012448416  0.010495004         2138 
 4750000   0.49258764   -8.0381105    709.06834  0.012439796  0.010491313         2097 
 4751000   0.49467264   -8.0304244    709.52812  0.012445242  0.010487627         2165 
 4752000   0.50122895   -8.0080392    709.95127  0.012450043  0.010483942         2125 
 4753000   0.48739043   -8.0496842    708.79735  0.012427193  0.010480258         2092 
 4754000   0.49411263   -8.0381448    709.79544  0.012442074  0.010476572         2172 
 4755000   0.47299042   -8.0395237    709.06468   0.01242665  0.010472887         2181 
 4756000   0.48244581    -8.028923    709.55105   0.01243256  0.010469204         2140 
 4757000   0.49842313   -8.0528028    709.82539  0.012434752  0.010465524         2093 
 4758000   0.49263075   -8.0334817    710.17195  0.012438208  0.010461843         2137 
 4759000   0.48466533   -8.0326758    708.01308  0.012397792  0.010458165         2103 
 4760000   0.48413876   -8.0465897    708.40782  0.012402098   0.01045449         2128 
 4761000   0.49109557   -8.0304559    709.61691  0.012420656  0.010450814         2177 
 4762000   0.48458537   -8.0542708    710.00306  0.012424805  0.010447139         2151 
 4763000   0.48522048   -8.0405392    708.33084  0.012392939  0.010443463         2160 
 4764000   0.48554328   -8.0430873    709.03386  0.012402635  0.010439793         2175 
 4765000   0.47646499   -8.0319053    708.99923  0.012399427  0.010436123         2148 
 4766000   0.49397001   -8.0362355    708.89792  0.012395054  0.010432455         2155 
 4767000   0.49210655   -8.0247106    708.56291  0.012386597  0.010428788         2121 
 4768000   0.48798693   -8.0412336    708.23511   0.01237827  0.010425125         2201 
 4769000   0.49667735   -8.0486134    708.82415  0.012385968  0.010421463         2172 
 4770000   0.48029987   -8.0487425    708.84776  0.012383783  0.010417805         2186 
 4771000   0.48666003   -8.0500396    708.27494  0.012371182  0.010414146         2088 
 4772000   0.48717044   -8.0426765    708.23084   0.01236782  0.010410487         2166 
 4773000   0.48107193   -8.0340882    709.75174  0.012391783  0.010406832         2140 
 4774000   0.48766972   -8.0468908    708.21409  0.012362346  0.010403179         2128 
 4775000   0.49099796   -8.0321303     708.9397  0.012372421  0.010399525         2143 
 4776000   0.48439601   -8.0499723    708.20097  0.012356941  0.010395877         2174 
 4777000   0.48529178   -8.0374834    709.67956  0.012380147  0.010392226         2183 
 4778000   0.47577073   -8.0374998    709.08265  0.012367145  0.010388575         2210 
 4779000   0.48566788   -8.0499935    707.80265  0.012342238  0.010384929         2174 
 4780000     0.490534   -8.0412203    707.68864  0.012337668  0.010381285         2121 
 4781000   0.48637166   -8.0382143     708.1647  0.012343385  0.010377643         2089 
 4782000   0.47412194   -8.0188376     710.3222  0.012378402  0.010374003         2209 
 4783000   0.47460242   -8.0395474    708.97286  0.012352304  0.010370365         2156 
 4784000   0.48945234    -8.048733    708.93087  0.012348991  0.010366726         2217 
 4785000   0.47969301   -8.0464926    708.80447  0.012344209  0.010363089         2044 
 4786000   0.48861172   -8.0468825    708.64875  0.012338918  0.010359455         2172 
 4787000    0.4867562   -8.0473328    709.41292  0.012349643  0.010355821         2204 
 4788000   0.49010897   -8.0403099    709.09828  0.012341588  0.010352188         2155 
 4789000   0.48809236   -8.0642233    708.93386   0.01233615  0.010348557         2183 
 4790000   0.48857858   -8.0526005    707.15616  0.012302647   0.01034493         2191 
 4791000   0.48451835   -8.0583657    709.14369   0.01233465    0.0103413         2099 
 4792000   0.47889332   -8.0581495    709.07168  0.012330824  0.010337675         2111 
 4793000   0.48837178   -8.0609097    709.22874  0.012330982  0.010334048         2110 
 4794000   0.49140368   -8.0264218    708.65701  0.012318471  0.010330425         2118 
 4795000   0.48420263   -8.0422424    708.04971  0.012305348  0.010326809         2107 
 4796000   0.49096002   -8.0443266     708.6698  0.012313556   0.01032319         2218 
 4797000    0.4751125   -8.0430995    708.76742  0.012312685  0.010319571         2220 
 4798000   0.48409042   -8.0546493    707.18833  0.012282693  0.010315956         2210 
 4799000   0.48154672   -8.0345486    709.12304  0.012313729  0.010312342         2156 
 4800000   0.48605412   -8.0438491    709.43993  0.012316665  0.010308732         2127 
 4801000   0.48272498   -8.0376842    709.53373  0.012315728  0.010305125         2184 
 4802000   0.48535124   -8.0438642    708.93527  0.012302778  0.010301517         2125 
 4803000   0.49116119    -8.041962    707.47266   0.01227484  0.010297912         2176 
 4804000    0.4891846   -8.0603821    708.26073  0.012285955  0.010294306         2119 
 4805000   0.48848751    -8.038308    709.02606  0.012296671  0.010290705         2102 
 4806000   0.47501771   -8.0491174    707.55325  0.012268575  0.010287103         2203 
 4807000   0.47567513   -8.0583913    709.14746   0.01229366  0.010283501         2144 
 4808000   0.48390467   -8.0593336    708.43569  0.012278766  0.010279903         2162 
 4809000   0.48182063   -8.0433488    708.68217  0.012280484  0.010276306         2176 
 4810000   0.48184437   -8.0527125    707.62756   0.01225966   0.01027271         2194 
 4811000   0.47994829   -8.0462798    708.76435  0.012276802  0.010269114         2133 
 4812000   0.47349145   -8.0613459    707.56543  0.012253488  0.010265521         2162 
 4813000   0.48390159   -8.0505016    708.29212  0.012263525  0.010261928         2143 
 4814000   0.46940577   -8.0500339    708.85273  0.012270682  0.010258341         2188 
 4815000   0.47471699   -8.0593982    709.70311  0.012282851  0.010254752         2175 
 4816000   0.46698371     -8.04765    707.37427  0.012240003  0.010251164         2148 
 4817000   0.48504832   -8.0509757    709.83922  0.012280106  0.010247581         2140 
 4818000   0.47781882   -8.0683928    707.83091  0.012242821  0.010243999         2167 
 4819000    0.4811251   -8.0572854    708.59772   0.01225354  0.010240415         2139 
 4820000   0.48140756    -8.044452    707.61554  0.012234017  0.010236833         2167 
 4821000   0.48287799   -8.0532149    707.93655  0.012237028  0.010233259         2168 
 4822000    0.4836315   -8.0558278    708.77876  0.012249045  0.010229681         2156 
 4823000   0.47983599   -8.0585492    707.21386  0.012219467  0.010226105         2056 
 4824000     0.479744   -8.0705844    708.16691  0.012233397  0.010222531         2249 
 4825000    0.4760287   -8.0589476    708.67531  0.012239643  0.010218959         2155 
 4826000   0.47735383   -8.0601408    707.78828   0.01222179  0.010215389         2147 
 4827000    0.4768172   -8.0559191    708.34751  0.012228912  0.010211817         2206 
 4828000   0.48255928   -8.0505167    707.48402  0.012211475   0.01020825         2126 
 4829000   0.47056619   -8.0488545    707.45185  0.012208391  0.010204684         2219 
 4830000   0.47948417   -8.0537196    707.75232  0.012211048  0.010201118         2149 
 4831000   0.48296506   -8.0475279    708.55073  0.012222292  0.010197553         2129 
 4832000   0.47645411    -8.069273    707.72522  0.012205526  0.010193994         2102 
 4833000   0.47355593   -8.0561552    707.82885  0.012204787  0.010190433         2154 
 4834000   0.47234257   -8.0529679    707.64178  0.012199038  0.010186876         2137 
 4835000   0.49014393   -8.0521302    708.38397  0.012209307  0.010183321         2191 
 4836000   0.47901406   -8.0487508    709.14346  0.012219869  0.010179766         2122 
 4837000   0.47902212   -8.0526273    708.58754  0.012207765  0.010176213         2107 
 4838000   0.47332787    -8.059305    709.23686  0.012216426  0.010172662         2140 
 4839000   0.48073435   -8.0730768    707.38208  0.012181961  0.010169109         2133 
 4840000   0.47083687   -8.0489828    707.51932  0.012181806   0.01016556         2140 
 4841000   0.48325991   -8.0535812    709.25763  0.012209213  0.010162016         2134 
 4842000   0.48071149   -8.0582134    708.11821  0.012187082  0.010158472         2154 
 4843000   0.47870429   -8.0656775    708.36224  0.012188764  0.010154925         2124 
 4844000   0.48309515   -8.0586986    707.97044  0.012179508  0.010151385         2132 
 4845000   0.48411728   -8.0437225    709.12792  0.012196903  0.010147846         2059 
 4846000   0.47825629   -8.0539011    706.83392  0.012154937  0.010144306         2218 
 4847000   0.47694743   -8.0473047    708.13846  0.012174858  0.010140772         2143 
 4848000   0.47145077   -8.0507588    707.82412  0.012166944  0.010137235         2172 
 4849000   0.47237941   -8.0499147    708.19132  0.012170745    0.0101337         2134 
 4850000   0.46990577   -8.0680202    707.01061  0.012147949  0.010130167         2224 
 4851000   0.47567233   -8.0588788    706.59355   0.01213828  0.010126635         2203 
 4852000   0.47659652   -8.0566666    708.55178  0.012169411  0.010123106         2175 
 4853000   0.47872022   -8.0355401    708.96213   0.01217395  0.010119579         2085 
 4854000   0.48271431    -8.050909    707.45379  0.012145546  0.010116053         2096 
 4855000   0.48092356   -8.0569876    707.76254  0.012148344  0.010112526         2123 
 4856000   0.47284817   -8.0685232    708.10543  0.012151727  0.010109008         2124 
 4857000   0.47169149    -8.037569    707.03458  0.012130852  0.010105488         2124 
 4858000    0.4823609   -8.0597583    707.99908    0.0121449  0.010101969         2163 
 4859000   0.46643184   -8.0729317    705.78406  0.012104412  0.010098449         2204 
 4860000   0.47026608   -8.0644094    707.62896  0.012133556  0.010094935         2192 
 4861000   0.48337152     -8.05325    708.20835  0.012140992  0.010091422         2167 
 4862000   0.47351255   -8.0718546    707.97441  0.012134485   0.01008791         2165 
 4863000   0.46629913   -8.0712885    708.05847  0.012133431  0.010084399         2130 
 4864000   0.47159698    -8.055681    708.31315  0.012135299  0.010080891         2138 
 4865000   0.48449766   -8.0714288    708.74259  0.012140161  0.010077384         2177 
 4866000   0.46869573   -8.0493165    708.85236  0.012139546  0.010073882         2174 
 4867000   0.47022064   -8.0574127    708.27905  0.012127235  0.010070374         2232 
 4868000    0.4607982   -8.0687881    707.39415  0.012109596  0.010066869         2195 
 4869000    0.4662927   -8.0545953    707.45618   0.01210817  0.010063367         2182 
 4870000    0.4658138   -8.0584225    708.35149  0.012121004  0.010059867         2175 
 4871000   0.45544789   -8.0587369    708.29269   0.01211751  0.010056371         2192 
 4872000   0.46732411   -8.0801181    708.00957   0.01211018  0.010052872         2201 
 4873000   0.47123109   -8.0674176    707.35785   0.01209655  0.010049379         2191 
 4874000   0.48358125   -8.0814273    708.30674  0.012110292  0.010045887         2205 
 4875000    0.4723503   -8.0649125    707.87038  0.012100348  0.010042395         2102 
 4876000   0.45604988   -8.0535951    707.38884  0.012089637  0.010038906         2159 
 4877000   0.47445946   -8.0529126    707.85241  0.012095079   0.01003542         2129 
 4878000   0.48734984   -8.0731651    708.31801  0.012100554  0.010031934         2083 
 4879000   0.46238668   -8.0705591    707.56799  0.012085263  0.010028448         2134 
 4880000    0.4713395   -8.0573762    707.34986  0.012079062  0.010024965         2177 
 4881000   0.46936077   -8.0796045    707.28042  0.012075402  0.010021483         2164 
 4882000   0.46779151   -8.0480538    707.98675  0.012084985  0.010018003         2086 
 4883000   0.47517493    -8.057328    708.74189  0.012095397  0.010014526         2101 
 4884000   0.46928631   -8.0767468    707.77354  0.012076398  0.010011048         2127 
 4885000   0.46690628    -8.069458    708.29543  0.012082829  0.010007572         2156 
 4886000   0.47427644   -8.0721131    708.24269  0.012079456    0.0100041         2133 
 4887000   0.46616748    -8.057918    709.31472  0.012095265  0.010000629         2067 
 4888000   0.47099382   -8.0929201    707.67406   0.01206482 0.0099971576         2157 
 4889000   0.47832517   -8.0648244    707.96615  0.012067331 0.0099936874         2144 
 4890000   0.46990772   -8.0987642    706.98067  0.012048069 0.0099902168         2172 
 4891000   0.47505387   -8.0703372    706.80686  0.012042644 0.0099867487         2121 
 4892000   0.46364151   -8.0566016    708.30884  0.012065768 0.0099832811         2200 
 4893000   0.47551917   -8.0873944    708.24111  0.012062149 0.0099798195         2214 
 4894000   0.47267707   -8.0897326     707.8772  0.012053487 0.0099763551         2200 
 4895000    0.4710078   -8.0718976    708.47932  0.012061275 0.0099728919         2219 
 4896000   0.46842039   -8.0675043    707.77484  0.012046821 0.0099694303         2147 
 4897000   0.46670029    -8.087999    708.11825  0.012050205 0.0099659695         2195 
 4898000   0.47499906   -8.0683686     707.8468  0.012043126 0.0099625117         2139 
 4899000   0.45652233   -8.0616279    706.49337  0.012017646  0.009959055         2204 
 4900000   0.46052619   -8.0787404    706.45896  0.012014608 0.0099556006         2167 
 4901000   0.46892641   -8.0794258    707.13703  0.012023686 0.0099521459         2184 
 4902000   0.46208568   -8.0740711    706.02137  0.012002267 0.0099486955         2177 
 4903000   0.47024599   -8.0832834    707.40822  0.012023391 0.0099452465         2195 
 4904000    0.4658479   -8.0756338    707.08997  0.012015531  0.009941798         2187 
 4905000   0.46700415   -8.0801836    707.53429   0.01202063 0.0099383506         2166 
 4906000   0.47409355   -8.0693831    707.05067  0.012009965 0.0099349065         2145 
 4907000   0.46472846   -8.0723861    707.90891  0.012022093 0.0099314641         2120 
 4908000   0.47174597   -8.0717423    707.79308  0.012017677 0.0099280208         2159 
 4909000   0.46331592     -8.07334    709.06404  0.012036804 0.0099245831         2265 
 4910000   0.46969788   -8.0878687    707.01628  0.011999597 0.0099211438         2192 
 4911000    0.4681449     -8.06723    706.86296  0.011994552 0.0099177054         2184 
 4912000   0.47024883   -8.0600354    708.23276  0.012015349 0.0099142733         2195 
 4913000   0.45860774   -8.0726693    706.84299  0.011989331 0.0099108401         2117 
 4914000   0.44952346   -8.0768975    708.67451  0.012017951 0.0099074069         2192 
 4915000   0.45114616   -8.0822924    706.09439   0.01197176 0.0099039744         2222 
 4916000   0.47119537   -8.0710071     706.8556  0.011982228 0.0099005397         2114 
 4917000   0.46791477   -8.0519905    707.03631  0.011982854 0.0098971135         2126 
 4918000   0.47170602   -8.0734824    707.51522  0.011988532 0.0098936904         2169 
 4919000   0.47397881   -8.0762347    706.41655  0.011967482 0.0098902644         2146 
 4920000    0.4677347   -8.0649104    708.07914   0.01199321 0.0098868418         2184 
 4921000   0.46230086   -8.0808132    707.59914  0.011982645 0.0098834184         2213 
 4922000   0.46882076   -8.0696731    705.93509  0.011952037 0.0098800012         2153 
 4923000   0.46484693   -8.0678166    707.92215  0.011983244 0.0098765823         2131 
 4924000   0.46079436   -8.0815769    707.83261  0.011979295  0.009873166         2136 
 4925000   0.45606076   -8.0766405    707.43978  0.011970216 0.0098697494         2211 
 4926000   0.46729635   -8.0739042    707.16226  0.011963091 0.0098663352         2208 
 4927000   0.46472134   -8.0825602    708.34738  0.011980708 0.0098629219         2209 
 4928000   0.47352624   -8.0679561    707.43928  0.011962921 0.0098595105         2138 
 4929000   0.46636869   -8.0586459    708.53027  0.011978939 0.0098561026         2178 
 4930000   0.46159757    -8.091838    707.32972  0.011956216 0.0098526951         2149 
 4931000   0.46896336   -8.0645592    707.57968  0.011958015 0.0098492877         2086 
 4932000   0.45768372    -8.083638    707.12832  0.011947964 0.0098458847         2175 
 4933000   0.46166842   -8.0717307    708.43628  0.011967638  0.009842483         2131 
 4934000    0.4659204   -8.0806008    708.55926  0.011967289 0.0098390825         2195 
 4935000    0.4645781     -8.08521    707.65887   0.01194966 0.0098356827         2084 
 4936000   0.46063841   -8.0755264    706.22403  0.011923015 0.0098322873         2181 
 4937000    0.4604806    -8.078839    706.71424  0.011928875 0.0098288916         2147 
 4938000   0.45176521   -8.0834784     706.9051   0.01192968 0.0098254971         2142 
 4939000   0.47145965   -8.0705108    707.30028  0.011933932 0.0098221069         2118 
 4940000   0.44830352   -8.0736071    706.97634  0.011926052 0.0098187169         2227 
 4941000   0.46144995   -8.0723772    707.11746  0.011926018  0.009815326         2134 
 4942000   0.45713166   -8.0728786    706.73018  0.011917074 0.0098119357         2196 
 4943000   0.46237822   -8.0960117    707.67678  0.011930622 0.0098085509         2250 
 4944000   0.46088609   -8.0868157    707.23315  0.011920731 0.0098051655         2141 
 4945000   0.45336095   -8.0839027    708.57675  0.011940963 0.0098017829         2215 
 4946000    0.4628589   -8.0897585    707.32923   0.01191753 0.0097983996         2184 
 4947000   0.46220115   -8.0787799    706.85775  0.011907179 0.0097950191         2170 
 4948000   0.45496734   -8.0804104    707.77139   0.01192016  0.009791639         2175 
 4949000   0.45656472   -8.0802244    707.22242  0.011908507 0.0097882609         2209 
 4950000   0.45970945   -8.0804477    706.80065  0.011899001 0.0097848825         2226 
 4951000   0.45918126    -8.079761    706.37721   0.01188947 0.0097815067         2150 
 4952000   0.46284208   -8.0890787    706.97805  0.011897181 0.0097781337         2172 
 4953000   0.46178482   -8.0905267    705.96661  0.011877761 0.0097747598         2129 
 4954000   0.45465512   -8.0966935     706.4276  0.011883118 0.0097713859         2230 
 4955000   0.46214836   -8.0910504    706.06501  0.011874622 0.0097680147         2167 
 4956000   0.44403936   -8.0901876    706.27874  0.011875819  0.009764645         2218 
 4957000   0.44859962   -8.0804399    707.07487  0.011886808 0.0097612764         2150 
 4958000   0.46251349   -8.0916017    707.07117  0.011884348 0.0097579083         2137 
 4959000   0.45565771   -8.0955409    707.72775  0.011892985 0.0097545414         2103 
 4960000   0.45403694   -8.0821114    706.00711  0.011861679 0.0097511792         2161 
 4961000   0.45042669   -8.0904966     706.0646  0.011860253 0.0097478155         2157 
 4962000   0.47265396   -8.0824915     706.5536  0.011866076 0.0097444542         2196 
 4963000    0.4608767   -8.0891901    706.61545  0.011864723 0.0097410954         2161 
 4964000   0.46769683    -8.099587    706.92509  0.011867531 0.0097377403         2198 
 4965000    0.4584534   -8.1051675    706.01119  0.011849802 0.0097343831         2157 
 4966000   0.45257647   -8.0934716    706.46685  0.011855062 0.0097310295         2111 
 4967000   0.45399743    -8.081916    705.95461  0.011844081 0.0097276798         2131 
 4968000   0.45441006   -8.1140441    707.51827  0.011867926  0.009724329         2154 
 4969000   0.46348886   -8.0832478     707.1175  0.011858816 0.0097209799         2126 
 4970000   0.45290601   -8.0846684    705.94239  0.011836727 0.0097176307         2146 
 4971000   0.45329822   -8.0967858    707.97136  0.011868359 0.0097142827         2160 
 4972000   0.45579135     -8.09306    705.47961  0.011824209 0.0097109348         2150 
 4973000   0.45837891   -8.1022434     707.7174   0.01185933 0.0097075903         2161 
 4974000   0.44484496   -8.0808938     706.4648   0.01183596 0.0097042485         2196 
 4975000   0.44913466   -8.0945266    706.78592   0.01183896 0.0097009072         2192 
 4976000   0.45530743   -8.0977457    707.06768  0.011841299 0.0096975673         2146 
 4977000   0.45147525   -8.0947839    706.55927  0.011830408  0.009694231         2129 
 4978000   0.45944974   -8.0928378    706.09879  0.011820323 0.0096908964         2137 
 4979000   0.45898046   -8.0782148    706.45251  0.011823869 0.0096875613         2172 
 4980000   0.44946837   -8.0931502    706.54207  0.011822993 0.0096842288         2170 
 4981000   0.45224622   -8.0852932    706.53934  0.011820574 0.0096808947         2170 
 4982000   0.45924851   -8.0817279    706.20096  0.011812541 0.0096775648         2178 
 4983000   0.44949771   -8.1043732    707.10443   0.01182528 0.0096742366         2254 
 4984000   0.46084897    -8.100338    707.35033  0.011827019 0.0096709097         2215 
 4985000   0.45185171   -8.0927213    707.10526  0.011820549 0.0096675824         2103 
 4986000   0.44945713   -8.0958383    706.29575  0.011804649 0.0096642572         2199 
 4987000   0.46938465   -8.0981283    706.53473  0.011806275  0.009660935         2175 
 4988000   0.45768812   -8.0973015    706.60877  0.011805145 0.0096576136         2187 
 4989000   0.45043581   -8.0906004    707.84465  0.011823422 0.0096542911         2164 
 4990000   0.45010176   -8.1071481    705.95614  0.011789515 0.0096509713         2185 
 4991000   0.45646065   -8.1084213    706.75007  0.011800409 0.0096476579         2175 
 4992000   0.44819358   -8.0916898    706.58471  0.011795284 0.0096443425         2175 
 4993000   0.46113951   -8.1012143    705.73944  0.011778814  0.009641027         2226 
 4994000   0.45225211   -8.0901997    706.03965  0.011781465 0.0096377156         2168 
 4995000   0.44782985   -8.0989088    707.28361   0.01179986 0.0096344014         2189 
 4996000   0.44253143   -8.0851972    706.07264  0.011777299 0.0096310929         2189 
 4997000   0.45357772   -8.0902994    706.29497   0.01177865 0.0096277828         2177 
 4998000   0.44848101   -8.0928032    706.19221   0.01177458 0.0096244785         2177 
 4999000   0.45037798   -8.0858684    706.50344  0.011777413 0.0096211725         2100 
 5000000   0.44979304   -8.0933367    704.89932  0.011748322   0.00961787         2199 
 5001000   0.44687842   -8.0997331    707.03263  0.011781521 0.0096145666         2197 
 5002000   0.44266475   -8.0960863    705.94784  0.011761093 0.0096112654         2166 
 5003000   0.44436103   -8.0975758    706.59221  0.011769475 0.0096079669         2161 
 5004000   0.45093013   -8.1085526    706.99713  0.011773866  0.009604668         2121 
 5005000   0.44781782   -8.0942084    706.09416  0.011756479 0.0096013707         2155 
 5006000   0.44575748   -8.0946171    705.27408  0.011740479 0.0095980765         2185 
 5007000    0.4547884   -8.1121354    707.83702  0.011780791 0.0095947829         2171 
 5008000   0.44316259   -8.1146464    705.76247  0.011743917 0.0095914902         2158 
 5009000   0.43706561   -8.0882331    706.82613  0.011759269 0.0095881974         2147 
 5010000   0.45916011   -8.1079291    706.74335  0.011755545 0.0095849075         2177 
 5011000    0.4545999   -8.0999697    706.70298  0.011752527 0.0095816181         2192 
 5012000   0.44770508   -8.1031114    705.97082  0.011738009 0.0095783335         2208 
Loop time of 13268 on 48 procs for 5000000 steps with 4000 atoms

Performance: 65118.957 tau/day, 376.846 timesteps/s
99.4% CPU use with 48 MPI tasks x no OpenMP threads

MPI task timing breakdown:
Section |  min time  |  avg time  |  max time  |%varavg| %total
---------------------------------------------------------------
Pair    | 977.07     | 1072.7     | 1187.7     | 146.3 |  8.09
Neigh   | 92.465     | 95.865     | 100.96     |  18.2 |  0.72
Comm    | 804.42     | 943.04     | 1043       | 168.9 |  7.11
Output  | 17.43      | 17.435     | 17.546     |   0.4 |  0.13
Modify  | 10970      | 11008      | 11067      |  21.0 | 82.97
Other   |            | 130.7      |            |       |  0.99

Nlocal:        83.3333 ave          91 max          76 min
Histogram: 2 1 4 11 8 2 12 4 3 1
Nghost:        2437.62 ave        2451 max        2423 min
Histogram: 4 1 0 7 10 6 10 4 4 2
Neighs:        16968.9 ave       19321 max       14562 min
Histogram: 2 5 8 3 5 7 2 9 5 2
FullNghs:      33938.4 ave       37401 max       30929 min
Histogram: 3 1 9 9 5 3 11 6 0 1

Total # of neighbors = 1629045
Ave neighs/atom = 407.26125
Neighbor list builds = 266829
Dangerous builds = 1

#clear
#
#next RN
#
#jump SELF
Total wall time: 3:41:11
