
units lj                  # Use reduced LJ style units
atom_style atomic         # Uncharged point particles
atom_modify map hash      # Needed for indexing of clusters etc
                          # Used to be able to find where atoms are in relation to each other.

lattice fcc 1.0 spacing 1 1 1
Lattice spacing in x,y,z = 1.5874011 1.5874011 1.5874011
region box block 0 10 0 10 0 10 units lattice
create_box 2 box
Created orthogonal box = (0.0000000 0.0000000 0.0000000) to (15.874011 15.874011 15.874011)
  3 by 4 by 4 MPI processor grid
create_atoms 1 box
Created 4000 atoms
  using lattice units in orthogonal box = (0.0000000 0.0000000 0.0000000) to (15.874011 15.874011 15.874011)
  create_atoms CPU = 0.002 seconds
set type 1 type/fraction 2 0.72 78393
Setting atom values ...
  2894 settings made for type/fraction
mass 1 1.0
mass 2 1.0
pair_style lj/cut  3.5
pair_modify tail  yes
pair_coeff 1  1  1.0  1.0   # Intearaction between 1 and 1 set with epsilon = 1 and sigma = 1
pair_coeff 1  2  1.5  0.8
pair_coeff 2  2  0.5  0.88

write_data data.0
System init for write_data ...
Neighbor list info ...
  update every 1 steps, delay 10 steps, check yes
  max neighbors/atom: 2000, page size: 100000
  master list distance cutoff = 3.8
  ghost atom cutoff = 3.8
  binsize = 1.9, bins = 9 9 9
  1 neighbor lists, perpetual/occasional/extra = 1 0 0
  (1) pair lj/cut, perpetual
      attributes: half, newton on
      pair build: half/bin/atomonly/newton
      stencil: half/bin/3d
      bin: standard
WARNING: Not all mixed pair coeffs generated from mixing. Use write_data with 'pair ij' option to store all pair coeffs. (../write_data.cpp:312)


#############################
#   M E L T   S Y S T E M   #
#############################

velocity all create 2.4 5833274 mom yes dist gaussian # Assign velocities
                                                    # Temperature 2.4, random number seed, zero linear momentum
                                                                                # Gaussian distribution

timestep 0.002   # simulation timestep
thermo 1000       # output thermodynamic data every 1000 steps bf 100

# Define a fix  in this case with index 1 applied to all
# particles in the simulation. This fix is for simulations
# in the anisotropic NPT ensemble. Note that we use the MTK
# correction.
fix 1 all npt temp 2.4 2.4 0.1 iso 5.68 5.68 0.5 mtk yes tchain 5 pchain 5 # Use NPT ensemble
                                                                         # Set temperature and pressure and damping
                                                                         # Numbers of thermostats in chain and in barostat
run 10000          # run for 10000 steps
Per MPI rank memory allocation (min/avg/max) = 3.642 | 3.644 | 3.648 Mbytes
Step Temp E_pair E_mol TotEng Press Volume 
       0          2.4   -4.0785584            0  -0.47945841   -3.6688173         4000 
    1000    2.3735549   -3.6154913            0 -0.056049079    5.5664924    3728.3962 
    2000     2.426411   -3.6241387            0  0.014567925    5.9171993    3674.9029 
    3000    2.4237117   -3.6525765            0 -0.017917808    5.9165087     3669.645 
    4000    2.3940694   -3.6155362            0 -0.025329889    5.9996505    3680.6213 
    5000    2.4095379   -3.6143001            0 -0.00089671428    5.5916255    3722.3781 
    6000    2.3905352   -3.6128333            0 -0.027926939    5.4850381    3730.2528 
    7000    2.3538808    -3.627393            0 -0.097454479    5.5418963    3696.3115 
    8000     2.406352   -3.7003861            0 -0.091760456    5.3622475    3687.6598 
    9000    2.3529464   -3.6550302            0   -0.1264929    5.7372423    3670.0872 
   10000    2.4339324   -3.5799372            0   0.07004871    6.1394214    3677.9836 
Loop time of 2.63934 on 48 procs for 10000 steps with 4000 atoms

Performance: 654709.512 tau/day, 3788.828 timesteps/s
99.6% CPU use with 48 MPI tasks x no OpenMP threads

MPI task timing breakdown:
Section |  min time  |  avg time  |  max time  |%varavg| %total
---------------------------------------------------------------
Pair    | 1.1949     | 1.2551     | 1.3634     |   2.7 | 47.55
Neigh   | 0.21483    | 0.22334    | 0.24284    |   1.0 |  8.46
Comm    | 0.80844    | 0.89509    | 0.98012    |   4.2 | 33.91
Output  | 0.00024489 | 0.00024982 | 0.00031665 |   0.0 |  0.01
Modify  | 0.20296    | 0.2501     | 0.28728    |   5.8 |  9.48
Other   |            | 0.0155     |            |       |  0.59

Nlocal:        83.3333 ave          93 max          73 min
Histogram: 1 3 1 5 7 13 9 4 3 2
Nghost:        1738.90 ave        1765 max        1704 min
Histogram: 2 1 7 4 3 6 8 7 4 6
Neighs:        10360.2 ave       11798 max        8808 min
Histogram: 2 3 3 7 7 6 11 4 4 1

Total # of neighbors = 497288
Ave neighs/atom = 124.32200
Neighbor list builds = 904
Dangerous builds = 197

# Equilibrate just above the melting temperature to avoid step fn in T

fix 1 all npt temp 1.25 1.25 0.1 iso 5.68 5.68 0.5 mtk yes tchain 5 pchain 5
run 2000
Per MPI rank memory allocation (min/avg/max) = 3.644 | 3.646 | 3.649 Mbytes
Step Temp E_pair E_mol TotEng Press Volume 
   10000    2.4339324   -3.5799372            0   0.07004871    6.1394214    3677.9836 
   11000    1.2518818   -5.3482155            0   -3.4708623    5.9030608    2818.5433 
   12000    1.2488166   -5.4051489            0   -3.5323923    5.6876232    2804.3995 
Loop time of 0.657726 on 48 procs for 2000 steps with 4000 atoms

Performance: 525447.034 tau/day, 3040.781 timesteps/s
99.6% CPU use with 48 MPI tasks x no OpenMP threads

MPI task timing breakdown:
Section |  min time  |  avg time  |  max time  |%varavg| %total
---------------------------------------------------------------
Pair    | 0.29456    | 0.32122    | 0.35485    |   2.6 | 48.84
Neigh   | 0.03993    | 0.043551   | 0.048343   |   0.8 |  6.62
Comm    | 0.20408    | 0.24297    | 0.27168    |   3.3 | 36.94
Output  | 5.2031e-05 | 5.4098e-05 | 8.9192e-05 |   0.0 |  0.01
Modify  | 0.041281   | 0.045023   | 0.048043   |   0.9 |  6.85
Other   |            | 0.004907   |            |       |  0.75

Nlocal:        83.3333 ave          92 max          72 min
Histogram: 1 1 3 3 5 10 10 9 4 2
Nghost:        2083.50 ave        2103 max        2065 min
Histogram: 3 4 4 9 3 9 4 3 7 2
Neighs:        13614.5 ave       15495 max       10991 min
Histogram: 1 0 3 3 6 9 16 6 2 2

Total # of neighbors = 653498
Ave neighs/atom = 163.37450
Neighbor list builds = 143
Dangerous builds = 9

#############################
# L I N E A R  Q U E N C H  #
#############################

# Define solid atoms. This closely follows ten Wolde  Ruiz-Montero and Frenkel  Faraday Discuss  1996  104  93-110
# Compute components of the per-atom q6 vector
compute q6 all orientorder/atom degrees 1 6 components 6 nnn NULL cutoff 1.3 # compute the Q6 parameter.
                                                                             # Use all neighbours within 1.3 unit cell.

# get number of connections
compute coord_number all coord/atom orientorder q6 0.5

# An atom is solid if it has 8 or more connections (of a possible 14)
variable is_solid atom c_coord_number>=8
group solid dynamic all var is_solid    # Must be dynamic to update
dynamic group solid defined

# do clustering
compute cluster solid cluster/atom 1.3 # Create a cluster where all atoms within are solid and max 1.3 units from another member

# define chunks one chunk per cluster
compute clus_chunks solid chunk/atom c_cluster nchunk every compress yes  # Says which atoms are in which chunk

# count the size of each chunk
compute size_chunks solid property/chunk clus_chunks count


# Find the maximum entry in the vector of chunk sizes
variable max_n equal max(c_size_chunks)


# Thermo style which includes this variable
# thermo_style custom step temp pe vol v_max_n

thermo ${N}  # Print the thermo information every 100 steps
thermo 1000  

# Reset the npt fix at a lower temperature (below freezing)
fix 1  all npt temp  ${temp} ${temp}  0.1  iso  5.68  5.68  0.5  mtk yes tchain  5  pchain  5
fix 1  all npt temp  0.45 ${temp}  0.1  iso  5.68  5.68  0.5  mtk yes tchain  5  pchain  5
fix 1  all npt temp  0.45 0.45  0.1  iso  5.68  5.68  0.5  mtk yes tchain  5  pchain  5

dump dmp2 all dcd ${N} traj.dcd
dump dmp2 all dcd 1000 traj.dcd


compute msd all msd com yes
variable twopoint equal c_msd[4]/6/(step*dt+1.0e-6)
fix 9 all vector 10 c_msd[4]
variable fit equal slope(f_9)/6/(10*dt)
thermo_style custom step temp pe c_msd[4] v_twopoint v_fit v_max_n

fix 1 all npt temp 1.25 ${temp} 0.1 iso 5.68 5.68 0.5 mtk yes tchain 5 pchain 5
fix 1 all npt temp 1.25 0.45 0.1 iso 5.68 5.68 0.5 mtk yes tchain 5 pchain 5
run 2000000 # 5000000  # Run for this many steps
Neighbor list info ...
  update every 1 steps, delay 10 steps, check yes
  max neighbors/atom: 2000, page size: 100000
  master list distance cutoff = 3.8
  ghost atom cutoff = 3.8
  binsize = 1.9, bins = 8 8 8
  4 neighbor lists, perpetual/occasional/extra = 1 3 0
  (1) pair lj/cut, perpetual
      attributes: half, newton on
      pair build: half/bin/atomonly/newton
      stencil: half/bin/3d
      bin: standard
  (2) compute orientorder/atom, occasional
      attributes: full, newton on
      pair build: full/bin/atomonly
      stencil: full/bin/3d
      bin: standard
  (3) compute coord/atom, occasional
      attributes: full, newton on
      pair build: full/bin/atomonly
      stencil: full/bin/3d
      bin: standard
  (4) compute cluster/atom, occasional
      attributes: full, newton on
      pair build: full/bin/atomonly
      stencil: full/bin/3d
      bin: standard
Per MPI rank memory allocation (min/avg/max) = 9.843 | 9.847 | 9.851 Mbytes
Step Temp PotEng c_msd[4] v_twopoint v_fit v_max_n 
   12000    1.2488166   -5.4051489 3.9910445e-30 2.7715586e-32 8.3333333e+20            2 
   13000    1.2455696   -5.4461563   0.65762261 0.0042155294  0.055310293            2 
   14000    1.2575205   -5.3907415    1.2913213 0.0076864359  0.053521725            2 
   15000    1.2629069   -5.4183381    1.9008229  0.010560127  0.052587227            6 
   16000    1.2578027   -5.4354052    2.4730278  0.012880353  0.051581991            2 
   17000    1.2442711   -5.4488036     3.171266  0.015545421  0.051753921            2 
   18000    1.2477216   -5.4151474    3.9194196   0.01814546  0.052857071            1 
   19000    1.2395919   -5.4619365    4.5129941  0.019793833   0.05371266            2 
   20000    1.2196859   -5.4076701    5.1799908  0.021583294  0.053925745            1 
   21000    1.2545767   -5.4693996    5.8134211  0.023069131   0.05397585            4 
   22000    1.2329719   -5.4269192    6.3963851  0.024228731  0.053890575            2 
   23000    1.2470976   -5.4313009    6.8570643  0.024844435  0.053315767            2 
   24000    1.2539941   -5.4096921    7.4680506  0.025930731  0.052639464            2 
   25000    1.2467759   -5.4634199    8.1550847  0.027183615  0.052294199            6 
   26000    1.2661907   -5.4757004    8.6752353  0.027805241  0.052049363            2 
   27000    1.2461225   -5.4351686     9.361534  0.028893623  0.051940168            4 
   28000    1.2349553   -5.4594157    9.9908842  0.029734774  0.051897752            2 
   29000    1.2178528    -5.438815    10.531291  0.030262329   0.05173812            3 
   30000    1.2719564   -5.4251148    11.209082  0.031136339  0.051586246            2 
   31000    1.2361752   -5.4055981    11.977525  0.032197647  0.051609518            3 
   32000    1.2626761   -5.4089815    12.676949  0.033012889  0.051768063            2 
   33000    1.2433639   -5.3984438    13.145819  0.033196512  0.051881329            1 
   34000    1.2223112   -5.4332921    13.673911  0.033514488  0.051824906            1 
   35000    1.2466023   -5.4153756    14.305646  0.034061061  0.051753264            4 
   36000    1.2387365   -5.4682508    15.043215  0.034822258   0.05174247            2 
   37000    1.2359798   -5.4364963    15.535869  0.034990696  0.051762811            2 
   38000    1.2739008   -5.4324622    16.134333  0.035382308   0.05171087            2 
   39000    1.2631246   -5.4352995    16.850266  0.036004841  0.051685275            2 
   40000    1.2308275   -5.4123906    17.582244  0.036629674   0.05170587            2 
   41000    1.2304477    -5.407921    18.308111  0.037211607  0.051784248            3 
   42000    1.2612315   -5.4262086    19.039007  0.037775806  0.051933624            3 
   43000    1.2551335   -5.4862458    19.648212  0.038077929  0.052049154            3 
   44000    1.2474786   -5.4400929    20.204069  0.038265283  0.052152181            2 
   45000    1.2220562   -5.4500531    20.671697  0.038280919  0.052187487            2 
   46000    1.2356725   -5.4623578    21.243814   0.03848517  0.052178915            4 
   47000    1.2415731   -5.4718102    21.756057  0.038574569  0.052131749            1 
   48000    1.2361615   -5.4630365    22.280818  0.038681975  0.052038573            1 
   49000     1.220461   -5.4177643     22.88262   0.03891602  0.051949587            1 
   50000    1.2287796   -5.4478856     23.16745  0.038612416  0.051806496            5 
   51000     1.196616    -5.448896    23.671502  0.038678924  0.051590172            3 
   52000    1.2273363   -5.4276358    24.455419  0.039191376  0.051446725            1 
   53000    1.2307118   -5.4244401    25.100956  0.039466912   0.05132957            3 
   54000    1.2532331    -5.414659    25.663621  0.039604353  0.051249726            3 
   55000    1.2621689   -5.4509318    26.135607  0.039599405  0.051145051            1 
   56000    1.2324993    -5.454592     26.60566  0.039591755  0.051015795            2 
   57000    1.2550459   -5.4711664    27.021392  0.039504958  0.050878378            2 
   58000    1.2322688   -5.4509985    27.783741  0.039919168  0.050763778            2 
   59000    1.2211791   -5.4746012    28.491646  0.040242437  0.050671606            3 
   60000    1.2372291   -5.4510028    28.943368  0.040199122  0.050573106            3 
   61000     1.235315   -5.4426761    29.662337  0.040522318  0.050487745            2 
   62000    1.2012899   -5.4411725    30.157344  0.040534064  0.050406106            2 
   63000    1.2272044   -5.4485882    30.765242  0.040694764  0.050327698            6 
   64000     1.242824   -5.4253357     31.50066  0.041016484  0.050262887            3 
   65000    1.2113552   -5.4704591    32.015924  0.041046056  0.050206242            1 
   66000    1.2519198   -5.4818443    32.575227  0.041130336  0.050167214            3 
   67000    1.2146341   -5.4793036    33.206633  0.041301782  0.050118192            2 
   68000    1.2153438   -5.4739267    33.621581  0.041202918  0.050064017            5 
   69000     1.227251   -5.4697381    34.226305  0.041336116   0.05000216            6 
   70000    1.2327533   -5.4938754    34.589445   0.04117791   0.04993146            2 
   71000    1.2297757   -5.4225425    35.381015  0.041527012  0.049866427            2 
   72000    1.2223804     -5.47043    36.093136  0.041774463  0.049818623            3 
   73000     1.236172   -5.4669679     36.64954  0.041837374  0.049783996            3 
   74000    1.2223094   -5.4969756    37.144072   0.04182891  0.049755089            2 
   75000    1.2137923   -5.4530769    37.884674  0.042094082  0.049710529            6 
   76000    1.2433865   -5.4661717    38.507258  0.042222871  0.049678387            2 
   77000    1.2333298   -5.4469857    39.271027  0.042501112   0.04967947            2 
   78000    1.2344403   -5.4438787    39.863019  0.042588695  0.049680341            2 
   79000    1.2445305   -5.4865629    40.511205  0.042733338  0.049680167            5 
   80000    1.2290546   -5.4639728    41.186468  0.042902571  0.049684462            2 
   81000    1.2137994   -5.4530983    41.851919  0.043057529  0.049702158            3 
   82000    1.2243598   -5.4623513    42.302305  0.042990147  0.049718704            3 
   83000    1.2160135   -5.4638644    43.034897  0.043207728   0.04972371            2 
   84000    1.2317327    -5.462822    43.466009   0.04312104  0.049744437            1 
   85000    1.2143559   -5.4796451    44.187763  0.043321336  0.049763874            2 
   86000    1.2034844    -5.492845    44.764082  0.043376048  0.049771197            2 
   87000    1.2483492   -5.5324907    45.412363  0.043498432  0.049787737            3 
   88000    1.2212462   -5.5125378    46.052866  0.043610668  0.049804193            3 
   89000    1.2156735   -5.4867735    46.783367  0.043804651   0.04982522            3 
   90000    1.2182717   -5.4786116    47.349205  0.043841856  0.049847807            3 
   91000    1.2303044   -5.4952004    47.918608  0.043881509  0.049854009            2 
   92000    1.2290546   -5.4961184    48.321424  0.043769406  0.049858505            3 
   93000     1.221755   -5.4370728    49.042446  0.043944844  0.049858433            2 
   94000    1.2241902   -5.4667517    49.504753  0.043887192  0.049849905            2 
   95000    1.2222622   -5.4964211    49.950962  0.043816633  0.049839816            3 
   96000    1.2267747    -5.441954    50.775165  0.044075664  0.049835381            3 
   97000    1.2207152   -5.4664419    51.284971  0.044059253   0.04983378            4 
   98000    1.2116258    -5.486649     51.69471  0.043958087  0.049823434            2 
   99000    1.2221552   -5.5056269    52.337556  0.044055182  0.049814149            3 
  100000    1.2713043   -5.5192328    52.735551  0.043946292  0.049786848            1 
  101000    1.1953344   -5.4981524    53.408578  0.044066483  0.049777414            3 
  102000    1.2092887   -5.4971665    53.975157   0.04409735   0.04976515            2 
  103000    1.2473112   -5.4809392    54.714581   0.04426746  0.049751499            2 
  104000    1.2076391   -5.4819736    55.059803  0.044118432  0.049735422            4 
  105000    1.2208582   -5.4959187    55.705836  0.044210981  0.049720344            4 
  106000    1.1995693    -5.518576    56.625883  0.044517204  0.049710284            3 
  107000     1.222907   -5.5048235    57.008731  0.044399323  0.049708326            2 
  108000    1.2128874   -5.5383812    57.555692  0.044410256  0.049699672            1 
  109000    1.1982106   -5.4754965    58.062531  0.044390314   0.04968891            3 
  110000    1.1959096    -5.516423    58.258793  0.044135449  0.049672558            2 
  111000    1.2023904   -5.4815099    59.177452  0.044427517  0.049648489            2 
  112000    1.1886772   -5.4967139    59.699201  0.044419048  0.049632107            3 
  113000     1.222061   -5.4759546    60.082099  0.044308332  0.049617187            2 
  114000    1.2297642   -5.5266466    60.651743  0.044336069  0.049594201            3 
  115000     1.218682   -5.5289629    61.015398  0.044214056  0.049569017            3 
  116000    1.2317761   -5.4928371    61.800475  0.044396893  0.049542415            4 
  117000    1.2272971   -5.4968589    62.352558  0.044410654  0.049516665            3 
  118000    1.1828798   -5.4960513    63.154559  0.044600677  0.049492701            3 
  119000    1.2278001   -5.5374954    63.396364  0.044395212  0.049465861            3 
  120000       1.2195   -5.5045515    64.341874  0.044681857  0.049445561            4 
  121000    1.2085492   -5.5401135    64.758395  0.044599446  0.049426741            4 
  122000    1.2182941   -5.5182579    65.276599  0.044587841  0.049410091            2 
  123000    1.1871528   -5.5359502    65.960603  0.044688755  0.049389826            4 
  124000    1.2111379   -5.5285284     66.22011  0.044502762  0.049372952            2 
  125000    1.1919774   -5.4997212    66.878375  0.044585583  0.049341554            3 
  126000    1.1888749    -5.505312     67.33853  0.044536065  0.049312128            3 
  127000    1.2012115   -5.4913907    68.029596  0.044638842  0.049278118            4 
  128000    1.1909886   -5.4642948      68.8172  0.044802865  0.049254328            8 
  129000    1.2239989   -5.5151458    69.115069  0.044647977  0.049233614            4 
  130000    1.2157828   -5.5149719    69.856496  0.044779805  0.049209126            4 
  131000     1.212979   -5.5376283    70.039843  0.044554607  0.049184163            2 
  132000    1.1782542   -5.5346488    70.923304  0.044774813  0.049161327            3 
  133000    1.1993452   -5.5030152    71.203753   0.04461388  0.049132138            2 
  134000     1.205235   -5.5139959    71.598181  0.044526232  0.049096987            2 
  135000    1.1820807   -5.5154534    72.370968  0.044673437   0.04906667            2 
  136000    1.1888448    -5.562826    73.018153  0.044741515   0.04904163            3 
  137000    1.1725577   -5.4773307    74.077127  0.045059079  0.049020665            1 
  138000    1.1827922   -5.5294928    74.428807  0.044944932   0.04900534            2 
  139000    1.1722654   -5.5508303    74.718355  0.044795177  0.048989675            1 
  140000    1.1787731   -5.4893328    75.351949   0.04485235  0.048973318            4 
  141000    1.1983496   -5.5218504    76.040572  0.044941236  0.048955169            4 
  142000    1.1885569   -5.5570034    76.480842  0.044883123   0.04893447            2 
  143000    1.2187114    -5.570792    76.584447  0.044629631  0.048904423            3 
  144000     1.215361   -5.5403186    77.539531  0.044872413  0.048884213            3 
  145000    1.2400124   -5.5307407    77.859133  0.044746628  0.048861129            2 
  146000    1.1921506   -5.5033323    78.754766   0.04495135  0.048837167            3 
  147000    1.1844348   -5.5352274    79.568611  0.045106922  0.048823303            3 
  148000    1.1692526   -5.5163155    80.239053  0.045179647   0.04881349            4 
  149000    1.2290343   -5.5073336    80.554226  0.045052699  0.048803974            7 
  150000    1.2128922   -5.5624141    81.416775  0.045231542  0.048795266            2 
  151000    1.2037058   -5.5203379    82.086321  0.045301501  0.048786036            4 
  152000     1.178597   -5.5457814    82.728171  0.045355357  0.048779672            5 
  153000    1.1950414   -5.5071776    83.656195  0.045564376  0.048781005            3 
  154000    1.1897003   -5.5481122    83.949393  0.045427161  0.048779036            5 
  155000    1.1967086   -5.5581475    84.611711  0.045490167  0.048775457            4 
  156000    1.2033211   -5.5651563    85.278341  0.045554669  0.048774635            4 
  157000    1.1989649   -5.5724387      85.7663  0.045523514  0.048775702            1 
  158000    1.2051584   -5.5283342     86.70326  0.045729567  0.048779213            3 
  159000    1.1993444   -5.5581668    87.339025   0.04577517  0.048784291            3 
  160000    1.2151244   -5.5637489    87.485696  0.045565467  0.048788677            3 
  161000    1.1805215   -5.5291566     88.57028   0.04584383  0.048793333            3 
  162000    1.1949421   -5.5508893    89.277975  0.045924884  0.048800352            1 
  163000    1.1889893   -5.5656873    89.526255  0.045770069  0.048808212            3 
  164000    1.1927048   -5.5177022    89.790414   0.04562521  0.048811554            1 
  165000    1.1840083   -5.5711958    90.613721  0.045764505  0.048810887            2 
  166000    1.1671806   -5.5218814    91.174368  0.045770265  0.048811185            4 
  167000    1.1949769   -5.5246641    91.862399  0.045839521  0.048810957            1 
  168000    1.1855605   -5.5729084    92.133826  0.045701303  0.048812768            3 
  169000    1.1805759   -5.5597492    92.408601  0.045566371  0.048809978            5 
  170000    1.1917351   -5.5281267    93.137937  0.045655851  0.048804977            2 
  171000    1.1903522   -5.5789844    93.261347     0.045449  0.048797648            2 
  172000    1.1775474   -5.5609264    93.873102  0.045481154  0.048789579            2 
  173000    1.1945278   -5.5364357     94.47675  0.045509032  0.048780867            2 
  174000    1.2116108   -5.5188007    95.484241      0.04573  0.048774578            1 
  175000    1.1720962   -5.5196169    96.106537  0.045765017  0.048767641            4 
  176000    1.1685882   -5.5711977    96.861116  0.045862271  0.048762232            2 
  177000    1.1578078   -5.5791536    97.384839  0.045849736  0.048756986            2 
  178000    1.1909621    -5.504988    98.008922  0.045884327  0.048752565            3 
  179000    1.1976903   -5.5728429    98.346139  0.045784981  0.048742952            2 
  180000     1.200345   -5.5947735    98.736861  0.045711509  0.048731355            2 
  181000    1.2073298   -5.5503384    99.674631  0.045890714  0.048724363            3 
  182000    1.2042307   -5.5511739    99.738778  0.045667938  0.048722798            4 
  183000    1.1958004   -5.5498957     100.2377  0.045645581  0.048714815            3 
  184000    1.2118874   -5.5676077    101.01332  0.045748784  0.048707171            1 
  185000    1.1668429   -5.5767387    101.50673  0.045723753  0.048700553            4 
  186000    1.1902322   -5.5433971     102.5479  0.045944401  0.048696354            3 
  187000    1.1806712   -5.5660639    103.08395  0.045937589  0.048692429            3 
  188000    1.1582355   -5.5843468    103.10666  0.045703307  0.048685587            1 
  189000    1.1778758   -5.5733417    103.91544  0.045818097  0.048677367            3 
  190000    1.1771581   -5.5748078    104.59604  0.045875456  0.048670528            1 
  191000    1.1807997   -5.5691591    105.44427  0.046005353  0.048663424            4 
  192000    1.1767422   -5.5882404    105.66771  0.045862723  0.048658586            6 
  193000      1.21018   -5.5631718    106.37944  0.045932401  0.048651259            8 
  194000    1.1887725   -5.5982516    106.77366  0.045864974  0.048646101            5 
  195000    1.1703929   -5.5723477    107.38227  0.045889859  0.048643072            3 
  196000    1.1940809   -5.5789147    107.82631  0.045844518  0.048636876            2 
  197000    1.1721836   -5.5385168    108.75056  0.046002774  0.048630935            4 
  198000    1.1521485   -5.5631308    109.06208  0.045901548  0.048622918            5 
  199000      1.17951   -5.5714097    109.49418  0.045851836  0.048611882            3 
  200000    1.1866791   -5.6219075    109.73394  0.045722476  0.048602361            5 
  201000    1.1921633   -5.5498004    110.48556  0.045806618  0.048590017           12 
  202000    1.1654998   -5.5899332    111.21721  0.045881688  0.048582021            4 
  203000     1.172018   -5.5660601    112.23963  0.046075381  0.048575165            1 
  204000    1.1587961    -5.562921    112.52987  0.045968086  0.048568747            3 
  205000    1.1999056   -5.5728228    113.11028  0.045979789  0.048563768            5 
  206000    1.1736917   -5.5750185    113.54571  0.045932729  0.048555299            3 
  207000    1.1893443   -5.5815774    114.33157  0.046027201  0.048549571            4 
  208000    1.1648376    -5.581683     114.8163  0.046000121  0.048544497            3 
  209000    1.1737489    -5.578915    115.85948  0.046195966  0.048537739            1 
  210000    1.1570851   -5.5801549    116.18267  0.046104233  0.048528602            2 
  211000    1.1768853   -5.5833927    116.42192   0.04598022    0.0485197            2 
  212000    1.1399045   -5.5748124    116.83344  0.045925094  0.048508395            2 
  213000    1.1624242   -5.5827944    117.20083  0.045853218  0.048494532            2 
  214000    1.1464242   -5.5671376    117.27517    0.0456679  0.048479977            2 
  215000    1.1812202   -5.6118903    117.68398  0.045613947  0.048463427            2 
  216000    1.1625352   -5.5902083    118.00009  0.045524726   0.04845074            2 
  217000    1.1530163   -5.5954377    119.02008  0.045706637  0.048434626            2 
  218000    1.1682185   -5.6419968    119.13661  0.045541517  0.048416462            2 
  219000    1.1792151   -5.5845671    120.20459   0.04573995  0.048399431            5 
  220000     1.152193   -5.6135494    120.22848   0.04554109  0.048381397            1 
  221000    1.1674254   -5.5879618    120.86252  0.045574104  0.048360218            1 
  222000    1.1415931   -5.5753149     121.5145  0.045613549  0.048339724            3 
  223000    1.1476538   -5.5828319    121.85565   0.04553649  0.048319506            3 
  224000    1.1610569   -5.5980655    122.16619   0.04544873  0.048297203            4 
  225000    1.1690687   -5.5766209    122.99203  0.045552605  0.048274652            2 
  226000    1.1716322   -5.5802964    123.33709  0.045478277  0.048251906            1 
  227000    1.1612249   -5.6273108    123.48592   0.04533257  0.048226469            2 
  228000    1.2110215   -5.6079827    123.73888    0.0452262  0.048199832            6 
  229000    1.1677571   -5.6085373    124.08394  0.045154273  0.048173312            3 
  230000    1.1886276   -5.5723432    125.05477    0.0453097  0.048146927            4 
  231000    1.1426384   -5.5713144    125.90272   0.04541945  0.048122413            2 
  232000    1.1752456    -5.601755    126.07074  0.045284029  0.048096571            2 
  233000    1.1648879   -5.6186245    126.15482   0.04511975  0.048069991            3 
  234000    1.1697399    -5.605453    126.95662  0.045212473  0.048044307            3 
  235000     1.180299   -5.6564859    126.84467  0.044980381  0.048018764            3 
  236000    1.1572406   -5.6319136     127.9998  0.045197668  0.047994798            2 
  237000    1.1515885   -5.6357503    128.53493  0.045195125  0.047969568            3 
  238000    1.1672359   -5.5778384    129.54894  0.045360273  0.047946896            3 
  239000    1.1525636   -5.6373881    130.47903  0.045494779  0.047927893            3 
  240000    1.1632081   -5.5993426    130.93384  0.045463139  0.047914076            6 
  241000    1.1383528   -5.6139651     131.6241  0.045513175  0.047899809            3 
  242000    1.1500929    -5.619548    131.80787  0.045388384  0.047886203            2 
  243000    1.1463626   -5.5871722    133.23598  0.045691353  0.047869503            3 
  244000    1.1451262   -5.6334213     132.9336  0.045400819  0.047853461            2 
  245000    1.1758733   -5.6034547    134.14609  0.045627922  0.047837497            2 
  246000    1.1861971   -5.5968396    134.27143  0.045484903  0.047824993            4 
  247000    1.1284323   -5.6005222    135.03774  0.045559293   0.04781122            2 
  248000    1.1858656    -5.647499    135.16229  0.045417437  0.047795756            2 
  249000    1.1377839   -5.6006585    136.81096    0.0457868   0.04778128            3 
  250000    1.1408061   -5.6415383    136.69798  0.045565992  0.047769399            3 
  251000    1.1619312   -5.6153113    136.91459  0.045456369  0.047755581            4 
  252000    1.1570656   -5.6329976    137.25141  0.045387371  0.047740387            3 
  253000    1.1427364   -5.5954407    138.40933   0.04558937  0.047723185            2 
  254000    1.1770355   -5.6260027    138.30635  0.045376099  0.047707451            3 
  255000     1.137924   -5.5990802    139.40007  0.045555579  0.047691948            6 
  256000    1.1466971   -5.5932439    139.36103   0.04536492   0.04767529            7 
  257000    1.1615053   -5.6384143    139.49333  0.045231301  0.047654583            2 
  258000    1.1499844   -5.5923447    140.09183    0.0452493  0.047633511            2 
  259000    1.1441142   -5.6163902    140.27021  0.045131986   0.04761345            3 
  260000    1.1392039   -5.6590627    140.73405  0.045107066  0.047591773            2 
  261000    1.1715451   -5.6307021    142.12142  0.045377209  0.047572185            4 
  262000    1.1149766   -5.6034293     142.5338  0.045335179  0.047551534            4 
  263000    1.1545046   -5.6683455    142.69442  0.045213694  0.047535343            3 
  264000    1.1339304   -5.5954559    143.96127  0.045442321  0.047516497            3 
  265000    1.1373782   -5.6339428    143.14765  0.045014986  0.047497439            3 
  266000    1.1754369   -5.6632212    143.44034  0.044937449  0.047477155            3 
  267000    1.1773326   -5.6534781    144.63023  0.045140523  0.047457636            3 
  268000    1.1284229   -5.6099299    145.05183   0.04510318   0.04743749            3 
  269000    1.1451938   -5.6638414    145.90572  0.045200036  0.047420168            6 
  270000    1.1551804   -5.6585655    146.64403  0.045260503  0.047402671            6 
  271000    1.1338505   -5.6656224    147.42553  0.045333802  0.047385607            2 
  272000     1.120819   -5.6368503    148.13475  0.045384421  0.047371136            4 
  273000     1.132589    -5.669692    148.25911  0.045256138  0.047358483            2 
  274000    1.1682465   -5.6170004    149.04609  0.045330319  0.047344671            2 
  275000    1.1285818   -5.6498374    149.81174  0.045397497  0.047330632            5 
  276000    1.1493854    -5.657506    149.99783  0.045289201  0.047315825            2 
  277000    1.1272946   -5.6586485    150.14603  0.045170287  0.047300496            2 
  278000    1.1579192   -5.6389691    150.98527  0.045259374  0.047283551            3 
  279000    1.1089166   -5.6569897    150.75356  0.045027946  0.047264381            1 
  280000    1.1640909   -5.6271604    151.28233  0.045024504   0.04724539            2 
  281000    1.1353166   -5.6459892     152.2556  0.045152908  0.047224342            4 
  282000    1.1408564    -5.695115    152.50798   0.04506737  0.047205085            2 
  283000    1.1242539   -5.6721041    153.16512  0.045101624   0.04718596            2 
  284000    1.1580184   -5.6645473    153.84419  0.045142074  0.047168227            1 
  285000    1.1477856   -5.6594646    154.26687  0.045107272  0.047150981            3 
  286000    1.1548122   -5.6735607    154.80383   0.04510601  0.047135927            3 
  287000     1.144159   -5.6771105    154.73888  0.044929987  0.047120059            2 
  288000    1.1279601   -5.6746993    155.48093  0.044988696  0.047104463            2 
  289000    1.1124173   -5.6616402    156.72037  0.045190417  0.047089104            3 
  290000      1.13188   -5.6276926    156.98025  0.045109267  0.047072302            2 
  291000    1.1334665   -5.6749117     157.1174  0.044993527  0.047055592            5 
  292000    1.1328655   -5.6698488    157.73986  0.045017084  0.047037366            4 
  293000    1.1398463   -5.6716387     158.1058  0.044967519  0.047020093            2 
  294000    1.1158324   -5.6350186    159.36627  0.045171846  0.047003144            2 
  295000    1.1549192   -5.6567757    159.30816  0.045002306  0.046987366            3 
  296000    1.1466847   -5.6799274    160.10976  0.045075946  0.046969112            2 
  297000    1.1429725   -5.6653463    160.08729   0.04491787   0.04695053            4 
  298000    1.1560762   -5.6991157     160.0453  0.044755397  0.046931065            9 
  299000    1.1253902   -5.6833144    160.55022  0.044746439  0.046910794            5 
  300000     1.128351   -5.6928386    161.27334  0.044798151  0.046889614            3 
  301000    1.1167281   -5.7189314    161.27051  0.044648536  0.046869479            1 
  302000    1.1116837   -5.6836849    162.53911  0.044850749  0.046849906            1 
  303000    1.1393058   -5.7061004    162.71888  0.044752167  0.046828735            2 
  304000    1.1300704   -5.6760361    162.79461  0.044625714  0.046807795            6 
  305000    1.1390286   -5.6146617    163.86495  0.044771845  0.046787972            2 
  306000    1.1074489   -5.6383025    165.40325  0.045044458  0.046770041            4 
  307000    1.1052332   -5.6537439    165.88928  0.045029663  0.046751888            2 
  308000    1.1361003    -5.671106    165.86612  0.044877198  0.046734908            2 
  309000    1.1137392   -5.6855574    165.92842  0.044748764   0.04671683            2 
  310000    1.1301843   -5.6882354    165.73712   0.04455299  0.046697781            3 
  311000    1.1116092   -5.6321598    166.92413  0.044727795  0.046676533            3 
  312000    1.1245898   -5.6774843    166.25348  0.044405309  0.046655957            4 
  313000    1.1258767   -5.7010688    167.39276  0.044566763  0.046634871            2 
  314000    1.1362098   -5.6712844    168.11616  0.044616815  0.046612019            2 
  315000    1.1407168   -5.6809172    168.18269  0.044492774  0.046591363            3 
  316000    1.1303153   -5.6778138    168.73545  0.044497746  0.046568345            4 
  317000    1.1433933   -5.6858101    169.42141  0.044537699  0.046546909            5 
  318000    1.1215125   -5.6651812    169.54507   0.04443005  0.046524384            3 
  319000    1.1260728   -5.6899736     170.5875  0.044563088   0.04650114            3 
  320000    1.1345972     -5.69571    169.56906  0.044158609  0.046476734            3 
  321000     1.130242   -5.6702532    171.02161  0.044398133  0.046451982            2 
  322000    1.1037696    -5.704571    171.45897   0.04437344  0.046427163            1 
  323000    1.1358156   -5.7181194    171.36627  0.044212144  0.046403219            3 
  324000    1.1218861   -5.6375359    172.22317  0.044296082  0.046378977            5 
  325000    1.1286288   -5.7041226    172.57179  0.044249178  0.046353126            3 
  326000    1.1397815   -5.6796541    173.30477   0.04430081  0.046328267            4 
  327000    1.1132315   -5.6927451    173.38462  0.044185684  0.046304301            2 
  328000    1.1363852    -5.669494    174.18553  0.044254453  0.046279329            3 
  329000    1.1182834   -5.7194943    174.70976  0.044252727  0.046255536            8 
  330000     1.118334   -5.6869331    175.02716  0.044198778  0.046233126            2 
  331000    1.1549518    -5.690664    175.57324  0.044202729  0.046209806            4 
  332000    1.1387172   -5.6894041    176.53909   0.04431202  0.046185506            5 
  333000    1.1170496   -5.6484326    177.14912  0.044331611  0.046162436            2 
  334000    1.1433209   -5.7153341    176.85658  0.044125892  0.046137979            2 
  335000    1.1114119   -5.7141248    177.40809  0.044131365  0.046114889            2 
  336000    1.1095314    -5.683011    178.42475  0.044252171  0.046091133            2 
  337000    1.1072222   -5.6659671    179.15208  0.044300712  0.046068292            3 
  338000    1.1444344   -5.7192441    179.54624  0.044266825  0.046045464            5 
  339000    1.1152404   -5.7327968     178.9534  0.043990512  0.046023007            2 
  340000     1.124645   -5.6760713    181.05611  0.044376498  0.045999893            2 
  341000    1.1294701   -5.7282613    180.05921  0.044002739   0.04597825            3 
  342000    1.1252947   -5.6753004    181.62205  0.044254885  0.045956861            1 
  343000    1.1107412   -5.7131441    181.64608  0.044131702  0.045934077            3 
  344000    1.1101941   -5.6910258    182.00518  0.044090403  0.045912773            6 
  345000    1.0901203   -5.6504916    183.22975  0.044258395  0.045890891            2 
  346000    1.1375026   -5.7214959     182.5018  0.043955154  0.045869421            5 
  347000    1.1330371   -5.6714803    183.39494  0.044042974   0.04584513            2 
  348000    1.1277859   -5.7161568    183.36685  0.043909685  0.045821884            4 
  349000    1.1310296    -5.701511    183.70987  0.043865776  0.045798152            6 
  350000    1.1471452    -5.672132    184.87826  0.044018634  0.045774502            5 
  351000    1.1040062   -5.7274201    184.15507  0.043721527  0.045750963            4 
  352000    1.1353507   -5.7068346    184.62942  0.043709616  0.045726762            2 
  353000    1.1065834   -5.7253511    185.76898   0.04385481  0.045702276            4 
  354000    1.1360711   -5.7454827    185.28814  0.043617736   0.04567728            2 
  355000     1.123169   -5.7023397    186.94109  0.043882886  0.045651821            4 
  356000     1.107003    -5.717034     186.0545  0.043552082  0.045626166            3 
  357000    1.0935354   -5.7200612     186.8184  0.043608404  0.045600639            3 
  358000    1.1033719    -5.716495    187.33426  0.043606671  0.045575251            2 
  359000    1.0995127     -5.69299    188.43911  0.043741669  0.045549627            5 
  360000     1.119975   -5.7258738    188.59292  0.043655768  0.045524533            4 
  361000    1.1030824   -5.7532188    188.72144  0.043564505  0.045499711            1 
  362000    1.1162125   -5.7113805    190.16761  0.043777074  0.045475666            2 
  363000    1.0980604   -5.7265454    190.58476   0.04375224  0.045453938            3 
  364000    1.0948792   -5.7279408    190.73052  0.043665412  0.045431845            3 
  365000    1.1084576   -5.7313916    191.41806  0.043702753  0.045410361            3 
  366000    1.1354841   -5.6897654    192.81724  0.043901922  0.045389638            2 
  367000    1.1071845   -5.7418762    192.13422  0.043627206  0.045369303            4 
  368000    1.1540051   -5.7068859    193.87335  0.043902479  0.045349304            4 
  369000    1.1105929   -5.7391805    194.10825  0.043836551  0.045329919            1 
  370000    1.1109023   -5.7038579    194.80685  0.043875417  0.045310679            5 
  371000    1.1149975   -5.7679961    195.13231  0.043830259  0.045291255            4 
  372000    1.1111341   -5.7135544    195.49688  0.043794103  0.045272092            5 
  373000    1.0951295   -5.7054883     195.7409   0.04373121  0.045252561            2 
  374000    1.1275263   -5.6848192    196.71375  0.043831049  0.045232217            1 
  375000    1.1315145   -5.7610238    195.60107  0.043466905  0.045211675            5 
  376000    1.0836846   -5.7255659    196.82383  0.043622302  0.045190938            4 
  377000    1.1016062   -5.7313351     196.3985  0.043412578  0.045170185            4 
  378000    1.1062294   -5.7345276    197.09419  0.043451099  0.045147484            3 
  379000    1.0932489    -5.761153    197.19449  0.043358508  0.045124918            3 
  380000      1.11758   -5.7561276    197.95364  0.043410886  0.045102798            3 
  381000    1.1136198   -5.7535955    198.69012  0.043458032  0.045080462            6 
  382000    1.1330197   -5.7101175    199.58634  0.043539777  0.045058779            5 
  383000    1.0982785    -5.741893    198.89991  0.043276744  0.045036013            3 
  384000     1.116527   -5.7169922    199.89957  0.043380982  0.045011883            3 
  385000    1.0987285   -5.7214016    200.42289  0.043381577  0.044987488            2 
  386000    1.1289183   -5.7142825    199.84805  0.043145089  0.044963122            5 
  387000    1.0982816   -5.7021566    201.02037  0.043286041  0.044938562            2 
  388000    1.1111819   -5.7045477    201.30757  0.043236162  0.044913276            3 
  389000    1.0916768    -5.763446      201.228  0.043107968  0.044886985            3 
  390000    1.0988767   -5.7900696    200.57025  0.042856892  0.044859825            2 
  391000    1.0739129   -5.7184571    202.69491   0.04320011  0.044834587            3 
  392000    1.1154597   -5.7192808    202.65152   0.04308068   0.04480918            2 
  393000    1.0806956   -5.7355744    202.86283  0.043015868   0.04478404            3 
  394000    1.0791767    -5.748552    203.85324  0.043116167  0.044759234            6 
  395000     1.086262   -5.7447192    204.00911  0.043039896  0.044733835            2 
  396000    1.0996274   -5.7215558     204.7315  0.043083229  0.044710583            2 
  397000    1.1066899   -5.7581386     204.9429  0.043019082  0.044686651            4 
  398000     1.106485   -5.7467668    205.94284   0.04312036  0.044663463            2 
  399000    1.0808449   -5.6927266    207.00492   0.04323411  0.044641287            2 
  400000    1.0802339   -5.7490913    206.90132  0.043104442  0.044619546            9 
  401000    1.0836979   -5.7465076    206.89235  0.042995086  0.044596638            2 
  402000    1.0808712   -5.7827732    207.33576  0.042980049  0.044573885            5 
  403000    1.0742515   -5.7887349     207.0362  0.042811457  0.044551035            3 
  404000    1.1194211   -5.7788548    208.44769  0.042996636  0.044527639            5 
  405000    1.1155931   -5.7539818    208.48629  0.042898414  0.044505141            8 
  406000     1.086712   -5.7689136    209.14178  0.042927294   0.04448119            4 
  407000    1.0784046   -5.7875933    209.34123  0.042862661  0.044457499            2 
  408000    1.0677937   -5.7700985    209.77007  0.042845194  0.044433411            3 
  409000    1.1027289   -5.7756637    209.95571  0.042778263  0.044407821            4 
  410000    1.1070296   -5.7529016    211.00465  0.042887123  0.044382469            4 
  411000    1.0934638   -5.7952422    209.83835    0.0425463  0.044356899            5 
  412000    1.0937969   -5.7876006    211.17129  0.042712639  0.044332116            3 
  413000    1.0732726   -5.7577179    211.76945  0.042729914  0.044308447            7 
  414000    1.1048903   -5.7834641    211.77154  0.042627121  0.044285083            4 
  415000    1.1107779   -5.7536224    212.71368  0.042713591  0.044260864            4 
  416000    1.1062732   -5.7232147    213.97382  0.042863344  0.044237543            4 
  417000     1.085695   -5.7534526    213.85101  0.042736014  0.044214622            2 
  418000     1.097245    -5.790276    213.96652  0.042656802  0.044191393            5 
  419000    1.0733159   -5.7823983     213.8392  0.042529674  0.044166963            4 
  420000    1.0934791   -5.7508251    214.38723  0.042537149  0.044143108            4 
  421000    1.0674106   -5.7886432    214.33602  0.042425974   0.04411999            5 
  422000    1.0807567   -5.7715897     214.9933  0.042455233  0.044096119            2 
  423000     1.071014   -5.7843518    215.65301  0.042484833  0.044071615            6 
  424000    1.0788586   -5.7562431    215.87003  0.042427286  0.044046675            2 
  425000    1.1128611    -5.780983    216.01809  0.042356487  0.044021597            2 
  426000    1.0779704   -5.8061471    216.36645  0.042325205  0.043996331            2 
  427000    1.0794439   -5.7568298     217.5238  0.042451951  0.043970923            2 
  428000    1.0659726   -5.7667156    217.52372  0.042352749  0.043946501            3 
  429000     1.075448   -5.7755732    218.18771  0.042383005   0.04392214            5 
  430000    1.1026131   -5.8173515    217.39845  0.042131482  0.043896786            5 
  431000    1.0860303   -5.7722794    219.02468   0.04234816  0.043871981            3 
  432000    1.0992232   -5.7725671    219.81152  0.042401914  0.043847672            3 
  433000    1.0997007   -5.7942082    220.03024  0.042346081  0.043823209            4 
  434000    1.0839665   -5.7703957    220.04543  0.042251426  0.043797872            4 
  435000     1.065017   -5.7916076    219.77892  0.042103241  0.043772708            4 
  436000     1.072987   -5.7799515    220.93421  0.042227488  0.043748061            3 
  437000    1.0722893   -5.7979141    220.78049  0.042101542  0.043723998            6 
  438000    1.0595291   -5.7961882    221.62123  0.042165378  0.043698926            5 
  439000    1.0883326   -5.8273525    221.82631  0.042108259  0.043674904            2 
  440000    1.0595956   -5.7730152    222.55355  0.042150293  0.043649944            3 
  441000    1.0824694   -5.7766162    223.02226  0.042143285  0.043625571            2 
  442000    1.0834857   -5.8032537    223.02459  0.042048376  0.043600765            4 
  443000    1.0635479    -5.771981    224.34806  0.042202419  0.043575764            5 
  444000    1.0660206   -5.7920589    224.24357  0.042087758  0.043550199            4 
  445000    1.0682526   -5.7822023    224.05643  0.041958133   0.04352449            2 
  446000    1.0801353   -5.8163789    225.04837  0.042049396  0.043498492            3 
  447000    1.0698989   -5.7997841    224.39466  0.041833456  0.043473095            3 
  448000    1.0511765   -5.8356891    224.99634  0.041851997  0.043447735            3 
  449000    1.0742703   -5.7894641     225.4574  0.041844357  0.043422312            4 
  450000    1.0733626    -5.816078    226.79935  0.041999879  0.043396568            4 
  451000    1.0593523   -5.7889353    225.97825  0.041755035  0.043370909            5 
  452000    1.0578588    -5.790958    227.55211  0.041952822  0.043345105            4 
  453000     1.068042   -5.7762709    227.56835  0.041863199  0.043319558            3 
  454000    1.0496085   -5.7932344    227.84245  0.041821302  0.043293906            4 
  455000    1.0664123   -5.8311329    227.61339  0.041687433  0.043267582            2 
  456000    1.0498923    -5.808645     228.3001   0.04172151   0.04324142            3 
  457000    1.0659766   -5.7821654    229.00857  0.041759404  0.043215219            4 
  458000     1.070287   -5.8158099    228.92882  0.041653715  0.043189869            2 
  459000    1.0783773   -5.7601131     229.8187  0.041724529   0.04316408            3 
  460000    1.0710734    -5.815102     229.4024  0.041558405  0.043138432            1 
  461000    1.0499395   -5.7929321       231.32  0.041814895  0.043112883            3 
  462000    1.0595901   -5.8287256    230.91605  0.041651524  0.043088494            3 
  463000    1.0562137   -5.8372865    230.20222  0.041433085  0.043062921            3 
  464000    1.0723756   -5.8334371    231.56517  0.041588573  0.043036638            2 
  465000     1.077202   -5.8175627    231.96517  0.041570819  0.043010716            3 
  466000    1.0586781   -5.8111226    232.31409  0.041544008  0.042984799            4 
  467000    1.0658417   -5.7977978    232.84455  0.041549706    0.0429584            7 
  468000    1.0773338   -5.7887618    233.26388   0.04153559  0.042932773            5 
  469000    1.0810564   -5.8203435    232.09399  0.041239159  0.042906224            4 
  470000    1.0503849   -5.8344492     232.7336  0.041264823  0.042878945            4 
  471000     1.062574   -5.7890293    233.93914  0.041390505  0.042852154            3 
  472000    1.0687577   -5.7851037    234.70506   0.04143804  0.042826488            3 
  473000    1.0661648    -5.865575    233.68285   0.04117034  0.042800601            4 
  474000    1.0870181   -5.8140629    235.89456  0.041472321  0.042774905            5 
  475000    1.0730238   -5.8445351    234.51949   0.04114377  0.042749129            3 
  476000     1.070751   -5.8322975    235.51337  0.041231333  0.042723217            2 
  477000    1.0466534    -5.826062     235.3506  0.041116457  0.042697101            3 
  478000    1.0818082   -5.8384262    237.00702  0.041319215  0.042671418            2 
  479000    1.0654966   -5.8336216    236.90374  0.041214986  0.042646208            3 
  480000    1.0396354   -5.8243081    238.24575   0.04136211  0.042620713            3 
  481000     1.066405   -5.8217677    237.75892  0.041191774  0.042595501            3 
  482000    1.0817551   -5.8466043     238.1598  0.041175622  0.042571375            2 
  483000    1.0362264   -5.8114268    239.87487  0.041386278  0.042546699            5 
  484000    1.0470835   -5.8480028    239.21054  0.041186387  0.042522406            2 
  485000    1.0436259   -5.8500529    239.62498  0.041172677  0.042498262            2 
  486000    1.0760553   -5.8221755    239.85817  0.041127943  0.042473374            3 
  487000    1.0615413   -5.8271464     240.1744  0.041097604  0.042447912            5 
  488000    1.0636161   -5.8530014    240.43914  0.041058596  0.042422873            3 
  489000    1.0677163   -5.8444703    241.30751  0.041122615  0.042397884            2 
  490000    1.0547667   -5.8351393     241.1887  0.041018486  0.042373157            3 
  491000    1.0837866   -5.8106584    242.64596  0.041182274  0.042348091            3 
  492000    1.0590722   -5.8314817    242.23745  0.041029379  0.042323484            6 
  493000    1.0804763   -5.8321111    242.18583  0.040937428  0.042299127            3 
  494000    1.0621752   -5.8720262    242.77419  0.040953811  0.042274024            4 
  495000    1.0482006   -5.8495375    243.25916   0.04095272  0.042248497            8 
  496000    1.0582985   -5.8454563    242.76537  0.040787193  0.042222969            4 
  497000     1.051403   -5.8415907    243.51954   0.04083158  0.042197554            2 
  498000    1.0484155   -5.8670553    243.81964  0.040799806  0.042172367            2 
  499000    1.0606841    -5.838917    244.01085  0.040749975  0.042146413            3 
  500000    1.0451889    -5.868168    243.30027  0.040550045  0.042120062            5 
  501000    1.0296627   -5.8395774     244.3109  0.040637208  0.042093404            4 
  502000    1.0334294   -5.8536025    244.57771   0.04060055  0.042066421            4 
  503000    1.0313959   -5.8468231    244.46684  0.040501465  0.042039701            3 
  504000    1.0574652   -5.8372447    244.48853  0.040424691  0.042012124            2 
  505000    1.0397895   -5.8500177    245.64248  0.040535063   0.04198491            7 
  506000    1.0579876   -5.8637814    245.78257  0.040478025  0.041957604            3 
  507000     1.059009   -5.8551677    246.07284  0.040445897  0.041929941            4 
  508000    1.0233799   -5.8767312    246.59812  0.040452448  0.041902462            3 
  509000    1.0453463   -5.8486359    247.61213  0.040538987  0.041875648            3 
  510000    1.0658498    -5.827569     247.8345  0.040495834  0.041849318            6 
  511000    1.0432683   -5.8763259    247.66041  0.040388195  0.041822542            5 
  512000    1.0592307   -5.8620149    248.34887  0.040421365  0.041795887            4 
  513000    1.0599326   -5.8271081    248.43068  0.040355861  0.041768959            1 
  514000    1.0505838   -5.8429636    248.78152  0.040334228  0.041742407            5 
  515000    1.0516026   -5.8624618    248.87091  0.040270374  0.041715992            2 
  516000    1.0671437   -5.8819314    248.79038  0.040179325  0.041688703            8 
  517000     1.049413   -5.8718996    250.36119  0.040354802  0.041661471            2 
  518000    1.0631358   -5.8328534    250.97733  0.040376019  0.041634972            6 
  519000    1.0414567   -5.8566923    250.21321  0.040175532  0.041608472            2 
  520000    1.0509068   -5.8489396    250.76486  0.040186676  0.041581691            3 
  521000    1.0606345   -5.8189832    251.38665  0.040208997  0.041554942            4 
  522000    1.0333485   -5.8827217    251.45146  0.040142315  0.041527807            4 
  523000     1.058589   -5.8840101    251.58008  0.040086054  0.041500488            3 
  524000    1.0633792   -5.8544185    253.04013  0.040241751  0.041473778            7 
  525000    1.0479994   -5.8618042    252.65908  0.040104616  0.041446714            5 
  526000    1.0498161   -5.9128099    251.47198  0.039840301  0.041418598            6 
  527000    1.0425314   -5.8545185    252.71909  0.039961906  0.041390877            5 
  528000    1.0565712   -5.8838907    252.74043  0.039889588  0.041362859            3 
  529000    1.0506612   -5.8404811    253.18271  0.039883855  0.041334978            3 
  530000    1.0416771   -5.8871588    253.04054  0.039786248   0.04130655            2 
  531000    1.0338098    -5.853094    253.59393  0.039798169  0.041279393            4 
  532000    1.0381323   -5.8878239    254.77313  0.039908071   0.04125153            5 
  533000    1.0298509   -5.8909069    255.25781  0.039908975  0.041223888            2 
  534000    1.0484782   -5.8909221    254.88207  0.039775604  0.041196626            5 
  535000    1.0219117   -5.8490533    255.87271  0.039855563  0.041169661            9 
  536000    1.0550934   -5.8847063    255.78069  0.039766898  0.041142756            4 
  537000    1.0384122   -5.9028891    256.49292   0.03980337  0.041115282            2 
  538000    1.0572179   -5.8822313    256.14752  0.039675885  0.041088179           10 
  539000    1.0343746   -5.8765848    256.99183  0.039732812  0.041061244            3 
  540000    1.0323133   -5.8521534     257.0377  0.039666312   0.04103454            2 
  541000    1.0505547   -5.8772937    257.79771   0.03971006  0.041007358            3 
  542000    1.0415517   -5.8778383     257.3552  0.039568758  0.040980033            3 
  543000    1.0478247   -5.8922593    257.38051  0.039499771  0.040952265            3 
  544000    1.0382767   -5.8963779     257.4037  0.039430714  0.040923745            4 
  545000    1.0103618   -5.9204242    258.40241  0.039511072  0.040895936            4 
  546000    1.0370751   -5.9140366    257.81682  0.039349331  0.040867417            2 
  547000    1.0575199   -5.8554142    259.11468  0.039475119  0.040838731            2 
  548000    1.0103537   -5.8797283     259.0065  0.039386633  0.040810644           11 
  549000    1.0429011   -5.8726203    259.42274  0.039378072  0.040782488            2 
  550000    1.0192844   -5.9111568    259.56128  0.039327467  0.040754606            2 
  551000    1.0376272   -5.9094171    259.33344  0.039221634  0.040726511            3 
  552000    1.0261225    -5.877645    260.71714  0.039359472  0.040698458            5 
  553000    1.0641846    -5.879821    260.60266  0.039271046   0.04067059            4 
  554000    1.0511432    -5.902902    260.11076  0.039126167    0.0406426            5 
  555000    1.0411224   -5.8700033    261.40892  0.039250588  0.040614144            3 
  556000    1.0299016   -5.9035279     261.5189  0.039196478  0.040585854            2 
  557000     1.043979   -5.9027673    261.22826  0.039082624  0.040557462            3 
  558000    1.0369304   -5.9050198    261.62765  0.039072229  0.040528796            5 
  559000    1.0468244   -5.8932234    261.78759  0.039026177  0.040499893            3 
  560000    1.0339722   -5.8978037    263.32819  0.039185743  0.040471108            3 
  561000    1.0305017   -5.8872094    263.97576  0.039212086  0.040442182            4 
  562000    1.0294898   -5.9015466    263.31513  0.039044355  0.040414098            5 
  563000     1.038456   -5.8471577    264.09607  0.039090596   0.04038592            3 
  564000    1.0253166   -5.8783803    263.31509  0.038905894  0.040357596            3 
  565000    1.0367316   -5.9170085    264.20487   0.03896827  0.040329225            6 
  566000    1.0283534   -5.9047441    264.21815  0.038901377  0.040301038            4 
  567000    1.0173812   -5.8829899    265.27696  0.038988384  0.040272809            5 
  568000    1.0259383   -5.9111588    264.81919  0.038852581   0.04024493            4 
  569000    1.0280099   -5.9233152     265.2798  0.038851757  0.040216526            2 
  570000    1.0507515   -5.8908486    265.86624  0.038869333  0.040188274            3 
  571000     1.030301   -5.9176356    266.65085  0.038915768   0.04016045            3 
  572000    1.0313108   -5.9335312    266.34857  0.038803697  0.040132971            2 
  573000    1.0315523   -5.9175987    266.49796  0.038757702  0.040105154            8 
  574000    1.0130702   -5.8703642    268.11357  0.038924734  0.040077245            5 
  575000    1.0015051   -5.9157706    266.69719  0.038651767  0.040049121            7 
  576000    1.0172489   -5.8819778    268.52993  0.038849816  0.040021582            2 
  577000    1.0370534   -5.8708348     268.6332    0.0387974  0.039993904            3 
  578000    1.0170225   -5.9291816    269.13148  0.038802117  0.039966355            2 
  579000    1.0190782   -5.9166236     269.0968   0.03873011  0.039939264            8 
  580000    1.0344138   -5.9186602    269.21939  0.038680947  0.039912102            4 
  581000     1.033943   -5.9268476     269.1958  0.038610987  0.039885461            4 
  582000    1.0084855   -5.9357418    270.59761  0.038745362  0.039859556            3 
  583000    1.0172019   -5.9386171    270.58134  0.038676579  0.039833705            5 
  584000    1.0007851   -5.9081111    271.57611  0.038752298  0.039807127            6 
  585000    1.0345554   -5.9406505    271.26285  0.038641432  0.039780439            7 
  586000    1.0125709    -5.908251    271.56151  0.038617962  0.039753371            4 
  587000    1.0182721    -5.914046    271.45271  0.038536728  0.039726743            2 
  588000    1.0256624   -5.9262001    272.29168  0.038590091  0.039699999            5 
  589000    1.0206141   -5.9280913    272.23699  0.038516835  0.039673124            3 
  590000    1.0208331   -5.9445007    272.30808  0.038461593  0.039646348            6 
  591000    1.0085446   -5.9471248    272.57995  0.038434849  0.039619858            3 
  592000    1.0465816   -5.9444798    272.99198  0.038427925  0.039592621            4 
  593000    1.0369933   -5.9652028    272.79602  0.038335584  0.039565787            5 
  594000    1.0118903    -5.906907    274.39301   0.03849509  0.039539013           10 
  595000    1.0122158   -5.9184856    274.19404  0.038402527  0.039512207            8 
  596000    1.0300757    -5.911446    275.12229  0.038467882  0.039485705            1 
  597000    1.0181344   -5.9366116    273.94313   0.03823885  0.039459124            3 
  598000      1.00111   -5.9267433    275.32555  0.038367551   0.03943216            4 
  599000    1.0370172   -5.9222748    275.39868  0.038313673  0.039405257            4 
  600000    1.0128706   -5.9139262    276.55098  0.038409858  0.039378881            2 
  601000    1.0137101   -5.9080852    276.88966  0.038392909  0.039353229            4 
  602000    1.0548364   -5.8988567     276.4882  0.038273561   0.03932682            2 
  603000    1.0175425   -5.9477536    276.05659  0.038150441   0.03930085            3 
  604000   0.99286936   -5.9513462    276.88138  0.038201073  0.039274227            6 
  605000    1.0021597   -5.9400576    277.19106  0.038180587  0.039248091            4 
  606000    1.0203345   -5.9337559    277.48954  0.038158628  0.039222862            2 
  607000    1.0044798   -5.9463202     278.4805   0.03823181  0.039197349            4 
  608000   0.99589622    -5.942884    278.13484  0.038121551  0.039171385            4 
  609000    1.0159714   -5.9436323    278.55209  0.038116049  0.039145777            2 
  610000   0.99247866   -5.9946563    276.87151  0.037823976  0.039119613            5 
  611000   0.99461617    -5.919152    278.41701   0.03797286  0.039093511            2 
  612000    1.0036967   -5.9357798    279.39024  0.038043333   0.03906722            9 
  613000     1.019317   -5.9073009    279.97038  0.038060139   0.03904118            4 
  614000    1.0077756   -5.9822162     279.4158  0.037922883  0.039015117            3 
  615000    1.0243638   -5.9517444    279.56469  0.037881394  0.038988781            4 
  616000    1.0141359   -5.9377523    281.01192  0.038015681  0.038962615            3 
  617000    1.0027237   -5.9454827    279.39909  0.037736236  0.038936266            3 
  618000    1.0234342   -5.9102108    281.45609  0.037952547  0.038909965            3 
  619000   0.99819807   -5.9533094    280.36547   0.03774441  0.038883685            1 
  620000   0.99925713   -5.9401608    281.45071  0.037829396  0.038857623            3 
  621000   0.98602616   -5.9358455    282.34897  0.037889019  0.038832343            8 
  622000    1.0015115   -5.9290035    283.98543  0.038047351  0.038807062            4 
  623000   0.98685049   -5.9654058    282.48571  0.037785675   0.03878167            5 
  624000   0.97750193   -5.9543266    282.92335  0.037783567  0.038756263            9 
  625000   0.98355915   -5.9759195    283.17182  0.037756242  0.038730268            4 
  626000    1.0266328   -5.9453136    284.43347   0.03786388  0.038704864            4 
  627000   0.98753749   -5.9344273    285.01425  0.037880682  0.038680106            2 
  628000    1.0172651   -5.9668929    284.30076  0.037725684  0.038655025            2 
  629000   0.99760262   -5.9754174    284.76839  0.037727662  0.038630597            3 
  630000    1.0034394   -5.9767192    284.66258   0.03765378  0.038605671            7 
  631000   0.99945286   -5.9452317    285.21259  0.037666744  0.038580429            5 
  632000   0.98407566   -5.9647685     285.1143  0.037594185  0.038554561            3 
  633000    1.0235415   -5.9731422    284.33932   0.03743277  0.038528469            4 
  634000     1.011696   -5.9729827    284.80254  0.037434614  0.038502447            3 
  635000    1.0011848   -5.9999841    285.16408  0.037423107  0.038476055            4 
  636000    1.0074124   -5.9696159    285.85077  0.037454241  0.038449656            5 
  637000    1.0019405    -5.964831    286.58079  0.037490946  0.038423497            3 
  638000    1.0009316   -6.0068954    284.91155  0.037214153   0.03839723            3 
  639000    1.0143065   -5.9027111    287.97765  0.037555771  0.038370802            6 
  640000    1.0014038   -6.0052309     285.9146  0.037228463  0.038344479            2 
  641000   0.99416271   -5.9427125    288.31961  0.037483049  0.038317927            7 
  642000    1.0047512    -5.981274    287.24663  0.037285388  0.038291586            9 
  643000   0.98823898   -5.9968063    287.77305  0.037295626  0.038265347            4 
  644000    1.0062402   -5.9927823    288.18925   0.03729157  0.038239589           11 
  645000   0.99746652   -5.9873335    288.76748   0.03730846  0.038213833            3 
  646000   0.99017101   -5.9625992    289.01857  0.037283097   0.03818861            3 
  647000   0.98116242   -5.9889466    288.92057   0.03721285  0.038162346            2 
  648000   0.96746697   -5.9709378    290.53482  0.037363017    0.0381368            2 
  649000   0.99173041   -5.9766286    289.52202  0.037175401  0.038110715            6 
  650000   0.98258422   -5.9615622    290.66674  0.037264967  0.038085249            8 
  651000    1.0037027   -5.9946532    290.69619  0.037211494  0.038059955            4 
  652000   0.99803653   -5.9655153    291.39242  0.037243407  0.038034823            2 
  653000   0.98251188   -5.9981857    291.03947  0.037141331  0.038010007            4 
  654000   0.98977296   -5.9858226    292.01902  0.037209355  0.037985571            5 
  655000   0.98434529   -5.9612564     291.9266  0.037140789  0.037960563            5 
  656000   0.99389433    -5.973607    291.67322  0.037051984  0.037935345            6 
  657000   0.98937228   -6.0204783    292.52095  0.037103115  0.037910433            4 
  658000    1.0116891   -5.9771737    293.43994  0.037163113  0.037885838            2 
  659000   0.97922657   -5.9965463    293.20887    0.0370775  0.037861552            4 
  660000    1.0029876   -5.9579847    293.81647  0.037098039  0.037836358            4 
  661000   0.99364474   -5.9687583    293.82586  0.037043099  0.037811698            4 
  662000   0.98230588   -6.0048673    294.32657  0.037050173  0.037786796            3 
  663000   0.99310421   -5.9864617    294.47148  0.037012503  0.037762111            7 
  664000   0.99557293   -6.0151415    293.74514  0.036865605  0.037737002            3 
  665000   0.99538545   -5.9917496    294.70032  0.036929865  0.037712102            5 
  666000   0.99103781   -5.9958042    295.11186  0.036925908  0.037687148            2 
  667000    0.9905572   -5.9980976    294.68449  0.036817153  0.037661507            2 
  668000   0.98506091   -5.9886823    295.75957  0.036896154  0.037635941            6 
  669000   0.97605511   -6.0329911    294.10718  0.036635175  0.037610305            4 
  670000   0.96439892   -6.0124402    296.04864   0.03682197  0.037584778            2 
  671000   0.98530835   -5.9725026    295.96185  0.036756316  0.037559714            4 
  672000    1.0030641   -6.0240953    295.93912  0.036698799  0.037534423            4 
  673000   0.99204567   -5.9997981    296.09695  0.036663812  0.037509119            4 
  674000   0.98179242   -5.9961902    296.89694  0.036708325  0.037483912            3 
  675000   0.99164973   -5.9801258    297.09409  0.036678283  0.037458728            5 
  676000   0.98844014   -5.9815324    298.30791  0.036773657  0.037434049            3 
  677000   0.96903063    -6.014248    297.40256  0.036607897  0.037409649            4 
  678000   0.99033707   -6.0033684    297.33752   0.03654591   0.03738508            5 
  679000   0.98959469   -5.9863309    298.44071   0.03662748  0.037360482            4 
  680000   0.95940856   -5.9980581    297.61156  0.036472005  0.037335283            9 
  681000   0.97303513   -5.9969692    298.68939  0.036550341   0.03730967            4 
  682000   0.98762375   -5.9958919     298.8362  0.036514687  0.037284542            3 
  683000   0.97199374   -6.0320612    298.67907  0.036442053  0.037259188            7 
  684000    0.9777463   -6.0297213    298.62085  0.036381682  0.037233946            6 
  685000   0.96269316   -6.0179634    298.93291  0.036366534  0.037208764            7 
  686000    1.0035553   -5.9976414    299.53931  0.036387186  0.037183755           12 
  687000   0.98668055   -6.0287689    299.02533  0.036271874   0.03715872            8 
  688000   0.97091788   -5.9859299    300.06399  0.036344959  0.037133403            3 
  689000   0.98392428   -6.0167904    300.72855  0.036372587    0.0371088            7 
  690000   0.97604228   -6.0270618    300.89836  0.036340382  0.037083601            3 
  691000   0.97540352   -6.0204159    300.27899  0.036213096  0.037058707            2 
  692000   0.97686289   -6.0204568     300.1596  0.036146387  0.037033723            5 
  693000   0.97916353   -6.0068822    301.86713  0.036299559  0.037008742            3 
  694000    0.9708821   -6.0353544    301.44134  0.036196127  0.036983661           10 
  695000   0.99295783   -5.9946712    301.65067  0.036169146  0.036958673            2 
  696000   0.97971794   -6.0707448    300.76488   0.03601112  0.036933021            7 
  697000   0.96656883   -6.0649086    300.82547  0.035966698   0.03690739            8 
  698000   0.98182205     -6.03639    302.01073  0.036056677  0.036881963            3 
  699000   0.98929743   -6.0634755    300.99324  0.035883791  0.036856292            4 
  700000   0.96790592   -6.0123776    301.47573  0.035889967  0.036830698            4 
  701000   0.98497747    -6.003975    303.55947   0.03608648  0.036805788            8 
  702000   0.97623421   -6.0236615    303.39388  0.036015418   0.03678007            6 
  703000   0.96385228   -6.0257521    302.97334  0.035914336  0.036754951            4 
  704000   0.96512661   -6.0161287    303.48148  0.035923471  0.036729355            5 
  705000   0.95672157   -5.9644666    303.75247  0.035904548   0.03670354            5 
  706000   0.96958033   -6.0382657    303.35671  0.035806977  0.036677807            3 
  707000   0.96029506   -6.0469979    303.03979  0.035718976  0.036651541           11 
  708000   0.96492509   -6.0368814    303.85867   0.03576491  0.036625487            4 
  709000   0.97455235   -6.0530686    303.83621  0.035711825  0.036599571            4 
  710000    0.9642729   -6.0441003    304.15236  0.035698634  0.036573162            3 
  711000   0.97941759   -6.0321899    304.43785  0.035681886  0.036547065            3 
  712000   0.96435108   -6.0177387    304.53404  0.035643029  0.036520834            5 
  713000   0.96774556    -6.054574    304.36637  0.035573442  0.036494893            3 
  714000   0.97838706   -6.0489252    304.23208  0.035507946  0.036468191            3 
  715000   0.96155661   -6.0573018    304.63336  0.035505054  0.036441435            7 
  716000   0.95034137   -6.0345442    305.39401  0.035543995  0.036414803            4 
  717000   0.96923995   -6.0577483     305.1059  0.035460937    0.0363883            7 
  718000   0.96240111   -6.0476985    305.57176  0.035465618  0.036362226            2 
  719000   0.95221519   -6.0618412    306.02945  0.035469338  0.036336163            8 
  720000   0.96425968   -6.0161466    307.11771  0.035546031  0.036309732            3 
  721000   0.95678311    -6.044258    305.84271  0.035349366  0.036283642            9 
  722000   0.98279097    -6.048014    306.65795    0.0353945  0.036257894            5 
  723000   0.94342912   -6.0102722     309.0813  0.035624862  0.036232221            3 
  724000   0.96536406   -6.0623116    307.94463  0.035444824  0.036206546            5 
  725000   0.95881733   -6.0551009    308.59362  0.035470532  0.036180683            5 
  726000   0.97288014   -6.0391058    308.14089  0.035369707  0.036154914            6 
  727000   0.96059189   -6.0443371     308.3241  0.035342057  0.036129564            2 
  728000   0.94643602   -6.0746206    308.34846  0.035296298  0.036104309            4 
  729000    0.9744043   -6.0632603    308.39971  0.035253739   0.03607898            3 
  730000   0.95854505   -6.0362947    310.06581  0.035395641   0.03605397            5 
  731000   0.94720628   -6.0782222    309.36261  0.035267055  0.036028814            4 
  732000   0.95416871   -6.0735409    310.25505  0.035320475   0.03600374            3 
  733000   0.97389969   -6.0289388    310.17024  0.035262647   0.03597859           10 
  734000    0.9497553   -6.0957013    309.37837  0.035124701  0.035953055            2 
  735000   0.95212841   -6.0607632    310.07631  0.035156044  0.035928231            4 
  736000   0.95896241   -6.0627497    310.74068    0.0351835  0.035903457            4 
  737000   0.95915186   -6.0439302    312.06935  0.035285996  0.035878824            5 
  738000   0.94115887    -6.056061    312.12613  0.035244594  0.035854294            4 
  739000   0.97717168   -6.0919405    312.27113  0.035213253  0.035829414            5 
  740000    0.9647913   -6.0709131    312.94689  0.035241767  0.035805162            5 
  741000   0.94265885   -6.0583719     312.6338  0.035158996  0.035780965            7 
  742000   0.96460583   -6.0213314    314.05178  0.035270865  0.035756992            5 
  743000   0.93588077   -6.0481995    314.41591  0.035264234  0.035733244            6 
  744000   0.97273532   -6.0810406    314.22729  0.035195709  0.035709032            3 
  745000   0.95976928   -6.0473176    314.13864   0.03513855  0.035684906            9 
  746000   0.97109454   -6.0369593    315.04686  0.035192902  0.035660937            6 
  747000   0.96859538   -6.0929289    315.09578  0.035151247  0.035637185            4 
  748000   0.97716844   -6.0565282    315.81462  0.035184338  0.035613548            3 
  749000   0.96276272   -6.0950424    314.49483  0.034990524  0.035589723            7 
  750000   0.95513565   -6.1123945    315.05418   0.03500602  0.035565214            2 
  751000   0.95793953   -6.0765378    315.57833  0.035017568  0.035540942            8 
  752000    0.9573926    -6.086042    315.53891  0.034966635  0.035516598            9 
  753000   0.96711954   -6.0752394    316.14294  0.034987045  0.035492246            3 
  754000    0.9650448   -6.0953836    315.17306   0.03483345  0.035468089            4 
  755000    0.9670092    -6.042827     316.6038  0.034945232  0.035444097            4 
  756000   0.96811971   -6.0662519    315.71753  0.034801315    0.0354204            3 
  757000   0.94093995   -6.0836306    315.78319   0.03476257   0.03539643            8 
  758000   0.96623541   -6.0678972     317.3005   0.03488352  0.035372412            5 
  759000    0.9543057   -6.0587503    318.14493  0.034930274  0.035348535            7 
  760000   0.96506524   -6.0922764    317.15668  0.034775952  0.035324907            5 
  761000   0.93783159   -6.0716265    316.72537  0.034683024  0.035301092            5 
  762000    0.9386196    -6.065649    318.03697  0.034780946  0.035277007            5 
  763000    0.9473847   -6.1112455    316.58752  0.034577056  0.035253056           13 
  764000   0.94499577   -6.0959507    318.38934  0.034728331  0.035229176            4 
  765000   0.94058718   -6.0930226     318.5074  0.034695795  0.035205413            8 
  766000   0.95595724   -6.0994271    318.09707   0.03460586  0.035181721            3 
  767000   0.96625405   -6.0829161    319.05793  0.034665138  0.035158372            4 
  768000   0.93409039   -6.0816412    319.46329  0.034663986  0.035135242            2 
  769000   0.97142613   -6.1073508    319.00216  0.034568938  0.035112137            9 
  770000   0.95181795   -6.1014288    319.18682  0.034544028  0.035088444            6 
  771000   0.93536994   -6.0854144    319.41171  0.034523531  0.035064984            4 
  772000   0.94106682   -6.0786441    321.06864  0.034657669  0.035041655            4 
  773000   0.95063078   -6.0707573    321.17334  0.034624121  0.035018284            4 
  774000   0.95543974   -6.1299939    320.83849  0.034543334  0.034995165            5 
  775000   0.95405549   -6.0946605    320.87221  0.034502388   0.03497165            6 
  776000   0.93182576   -6.0640385    321.59352  0.034535387  0.034948046            3 
  777000   0.95112442   -6.1317288    321.03046  0.034430551  0.034924277           10 
  778000   0.95669615    -6.116323    320.98433  0.034381355  0.034900908            7 
  779000   0.92990643   -6.0977126    321.93849   0.03443929  0.034876964            4 
  780000   0.91564427   -6.1178879    321.64396  0.034363671  0.034853172            4 
  781000   0.94021555   -6.0890349     322.8724  0.034450747  0.034829666            3 
  782000    0.9320563    -6.096298     322.1518  0.034329902  0.034806537            5 
  783000   0.93630931   -6.1187258    322.52366  0.034325634  0.034783487            2 
  784000   0.91596428   -6.1105427    323.47597  0.034383075  0.034760436            4 
  785000   0.93375458   -6.1060633    323.24942  0.034315225  0.034737238            2 
  786000   0.94204006    -6.100592    323.35001  0.034282231  0.034714058            4 
  787000   0.95875024   -6.0906175    323.41219  0.034245256  0.034691177            5 
  788000   0.92736155   -6.1196344    323.75645  0.034238203  0.034667807            6 
  789000   0.93781806     -6.11783    323.63152  0.034181613  0.034644202            5 
  790000   0.94751757   -6.0916943    323.79043  0.034155108  0.034620445            2 
  791000   0.92874272   -6.1032996    323.67463  0.034099729  0.034596849            2 
  792000   0.95676202   -6.1367522    323.76662  0.034066353  0.034573041            2 
  793000   0.93577663   -6.1271345     322.8684  0.033929004  0.034549294            4 
  794000   0.94692976   -6.1218404    324.37422  0.034044314  0.034525649            4 
  795000   0.90896347   -6.1672737      324.164  0.033979455  0.034502081            6 
  796000   0.92293998   -6.0850196    325.98819  0.034127742  0.034479039            4 
  797000   0.91871232    -6.134223    325.39873  0.034023288  0.034455912            7 
  798000    0.9488933   -6.1245075    323.04552  0.033734912  0.034432367            9 
  799000   0.93411173   -6.1618763      324.484   0.03384272  0.034408864            6 
  800000   0.94309683   -6.1399687    325.27279  0.033882582  0.034385357            5 
  801000   0.92057035   -6.0823896    325.42846  0.033856477  0.034361918            4 
  802000   0.94344701   -6.1396723    324.86723  0.033755946  0.034338063            6 
  803000   0.93221503    -6.096298    327.43335  0.033980215  0.034314311            7 
  804000   0.91506165   -6.1007074    326.31323  0.033821852  0.034290731            5 
  805000   0.94055192    -6.129109    326.29385  0.033777832  0.034267053            5 
  806000   0.92990372   -6.1550202    325.85666  0.033690722  0.034243012            6 
  807000   0.93847468   -6.1333567    326.75789  0.033742038  0.034218963            3 
  808000   0.93111537   -6.1299645    327.39968  0.033766469  0.034195307            3 
  809000   0.92971087   -6.1087429    328.35423  0.033823056  0.034171553            2 
  810000    0.9372252   -6.1329984    327.12505  0.033654841  0.034148167            6 
  811000   0.91737089   -6.1161638    327.34098   0.03363553  0.034124626            4 
  812000   0.92602004   -6.1240218    327.54657  0.033615206  0.034100651            4 
  813000   0.93540677   -6.1379521    327.29504  0.033548077  0.034076523            4 
  814000   0.90503265   -6.1389901    327.47162  0.033524941  0.034052585            7 
  815000   0.91655431   -6.1321484    329.08974  0.033649258  0.034028915            8 
  816000   0.92290684   -6.1400186    327.72233  0.033468375  0.034005164            2 
  817000   0.93656331   -6.1377547    330.51966  0.033712736  0.033981892            6 
  818000   0.93020439   -6.1646043    329.21706   0.03353882  0.033958278            4 
  819000   0.92109347   -6.1268123    329.51152  0.033527831  0.033934597            8 
  820000   0.92709758   -6.1098949    329.60238  0.033496176  0.033910997            6 
  821000   0.93092033   -6.1452571    328.76117  0.033369993  0.033887566            7 
  822000   0.92859576   -6.1278951    329.73977  0.033428606  0.033864009            4 
  823000   0.92476146   -6.1133725    330.19369   0.03343395  0.033840549            7 
  824000   0.93742945   -6.1549605    329.81269  0.033354843  0.033816816            2 
  825000   0.94172442    -6.139511    329.81222  0.033314366    0.0337932            4 
  826000    0.9200231   -6.1217184    330.70039  0.033363639  0.033769544            7 
  827000   0.92691877   -6.1087402    329.37949  0.033190194  0.033745943            5 
  828000   0.91940676   -6.1433232    330.60683  0.033273634  0.033722248            3 
  829000   0.93082838   -6.1014119     332.4953  0.033423332  0.033698858            6 
  830000   0.91959803   -6.1150032    331.13185  0.033246169  0.033675731            3 
  831000   0.93270085   -6.1626577    330.54496  0.033147309  0.033652386            4 
  832000   0.89284029    -6.136525    331.98157  0.033251359  0.033629058            5 
  833000   0.92567409   -6.1541752     332.6116  0.033274469  0.033605739            4 
  834000   0.90204982   -6.1639352     330.7602   0.03304958  0.033582175            4 
  835000   0.93241704   -6.1872816     331.0102   0.03303495  0.033558517            8 
  836000   0.93725328   -6.1395579    333.16614  0.033210341  0.033535382            6 
  837000   0.91140277   -6.1273924    333.28837  0.033182832  0.033512304            3 
  838000   0.90822606   -6.1580767    333.07445  0.033121962  0.033489129            5 
  839000   0.92242379    -6.149656    331.61617  0.032937641  0.033465837            4 
  840000   0.92369793   -6.1855775     332.5824  0.032994286  0.033442387            6 
  841000   0.91887967   -6.1677394     333.3335  0.033029479  0.033418544            3 
  842000    0.9155874   -6.1725071    333.29898  0.032986835  0.033395296            4 
  843000    0.9081886   -6.1750855    333.77507  0.032994767  0.033372183            6 
  844000   0.94552569   -6.1729253    334.11189   0.03298893  0.033349299            7 
  845000   0.92999058   -6.1479354    334.16782  0.032955406   0.03332615           15 
  846000   0.91687818   -6.1539396    335.96911  0.033093884  0.033303175            5 
  847000   0.92490431   -6.1653723    334.32614  0.032893166  0.033280187            5 
  848000   0.92306074   -6.1838715    335.89381  0.033008432  0.033257121            5 
  849000   0.90487564   -6.1446099    335.27045  0.032908367  0.033234027            4 
  850000   0.89264216   -6.1447313     335.3845  0.032880833  0.033210651           10 
  851000   0.90059638    -6.160787    335.73652  0.032876667  0.033187848           12 
  852000   0.90055493   -6.1926158     336.4487  0.032907736  0.033165149            4 
  853000   0.89760314    -6.182817    335.66379  0.032792476  0.033142268            2 
  854000   0.90929596   -6.1622091    336.57488  0.032842982  0.033119678            5 
  855000   0.89280585   -6.1961102    336.08223  0.032756552  0.033097083            4 
  856000   0.89212228   -6.1534158    337.96242  0.032901326   0.03307468            5 
  857000   0.92581846   -6.1529724    337.66395  0.032833912  0.033052226            6 
  858000   0.91871922   -6.1705668    337.79769  0.032808634  0.033029856            8 
  859000   0.90457891   -6.1923905    336.70481  0.032664417  0.033007064            8 
  860000   0.91633047   -6.1576565    337.77012  0.032729663  0.032984285            6 
  861000   0.90629211   -6.1735511    336.18612  0.032538339  0.032961424            5 
  862000   0.90302034   -6.1895351     336.2735  0.032509039  0.032938356            3 
  863000   0.92097967   -6.2071704    336.65198  0.032507916  0.032915239           10 
  864000   0.91729675    -6.196095    337.31439  0.032534181  0.032892084            6 
  865000   0.90592869   -6.1730081    337.46697  0.032511269  0.032869005            4 
  866000   0.91311458   -6.1673495    337.82093  0.032507788  0.032846072            4 
  867000    0.9213734   -6.1915646    336.94296  0.032385906  0.032823296            5 
  868000    0.9250711   -6.1986861    338.27835    0.0324768  0.032800122            8 
  869000   0.88617584   -6.1886953    338.60995  0.032471227  0.032777185            7 
  870000   0.90403684   -6.1854074    337.53771  0.032331198  0.032754231            6 
  871000   0.90965978   -6.1686648    338.57694  0.032393508  0.032731401            3 
  872000   0.90063719   -6.1951907    338.44054  0.032343324  0.032708235            5 
  873000   0.89120354   -6.1894793    338.52401  0.032314243  0.032684971            4 
  874000   0.90132106   -6.2134388    338.16824  0.032243348  0.032661564            8 
  875000   0.89736405   -6.2202161    338.14443  0.032204231  0.032638148            6 
  876000   0.90523281   -6.1766739     338.9986  0.032248725  0.032614843           11 
  877000   0.91096968   -6.1917864    339.38291  0.032248471  0.032591587            7 
  878000   0.90852863   -6.2229855    339.25937  0.032200016  0.032568051            7 
  879000   0.91673676    -6.201719    338.76575  0.032116586  0.032544446            3 
  880000   0.91041345    -6.222227    339.27477  0.032128293  0.032520944            6 
  881000   0.90745105    -6.179629     340.4156  0.032199735  0.032497751            5 
  882000   0.89536628   -6.1793468    340.34892  0.032156927   0.03247463            7 
  883000   0.90334085   -6.1941007    340.32586  0.032118333  0.032451487            6 
  884000   0.90975062   -6.1955138    340.44963  0.032093668  0.032428271            8 
  885000   0.91426148   -6.1876041    340.16239  0.032030357  0.032405221            9 
  886000   0.89159652   -6.2303493    341.08842  0.032081304  0.032382195            4 
  887000   0.90684089   -6.2296507    340.96281  0.032033334  0.032359281            6 
  888000   0.91894431    -6.246178    340.93604  0.031994748  0.032335853            6 
  889000   0.89574269   -6.2243186    341.28968  0.031991908  0.032312618           13 
  890000   0.90293255   -6.2332823    341.42933  0.031969038  0.032289293           11 
  891000   0.89255924    -6.192865    342.89721  0.032070446  0.032266188            6 
  892000   0.90479837   -6.1539333    343.03509  0.032047373  0.032243628            4 
  893000   0.88056133   -6.2397753    341.43038  0.031861738  0.032220842            9 
  894000   0.89672941   -6.1828974    342.46967  0.031922975  0.032198047            5 
  895000   0.92058607   -6.2391267    342.00448  0.031843993    0.0321753            5 
  896000   0.89264357   -6.2127975    341.65995  0.031776409  0.032152413            5 
  897000   0.88788268   -6.2183098    341.47794  0.031724075  0.032129409            6 
  898000   0.91574136   -6.2409701    342.34221  0.031768951  0.032106431            7 
  899000   0.90129559   -6.2387366    342.63009  0.031760297  0.032083399            9 
  900000   0.91535483   -6.2266036    343.33434  0.031790217  0.032060464            8 
  901000   0.89686422   -6.2178279    343.44073  0.031764773  0.032037581            4 
  902000   0.90533795   -6.2023919    344.20888  0.031800524  0.032014851            4 
  903000   0.88758943   -6.2440092     343.2892  0.031680436  0.031992122            4 
  904000   0.89206322   -6.2177208    342.51329  0.031573865  0.031969032            3 
  905000   0.88849726   -6.1958472     343.8431  0.031661427  0.031946389            4 
  906000   0.88419876   -6.1813506    345.38685  0.031768474  0.031923752            4 
  907000   0.90396659   -6.1954848    344.99138  0.031697114  0.031901141            3 
  908000   0.89791843   -6.2102561    344.93592  0.031657114  0.031878541            6 
  909000   0.90381747   -6.1784314    345.04634  0.031632411  0.031856387            5 
  910000   0.90267485   -6.2275634    345.70606  0.031658064  0.031834109            4 
  911000   0.87683993   -6.2332838    345.03375  0.031561814  0.031811425            4 
  912000   0.88063082   -6.2473645    344.79274  0.031505185  0.031788623            4 
  913000   0.87896244   -6.2144087    345.19825   0.03150769   0.03176588            4 
  914000   0.87322307   -6.2251175    346.05208  0.031551065  0.031742939           11 
  915000   0.86971012   -6.2182081    344.95553  0.031416715  0.031720011           16 
  916000   0.89393637   -6.2404763     345.3869  0.031421662  0.031697037            5 
  917000   0.87831146   -6.2348001    345.48333  0.031396159   0.03167395            4 
  918000   0.88877655   -6.2252898    344.97763  0.031316052  0.031650731            4 
  919000    0.9024796   -6.2557622    344.57075  0.031245081  0.031627694            6 
  920000    0.9001871   -6.2332823    345.35443  0.031282104  0.031604499            7 
  921000    0.8808421   -6.2636427    345.33843  0.031246691  0.031581207            8 
  922000   0.90065029   -6.2521469    345.44616  0.031222538  0.031557704            6 
  923000   0.88519191   -6.2578744    346.04287  0.031242585  0.031534443            6 
  924000    0.8893138   -6.2343839    345.95193  0.031200571  0.031511153            4 
  925000   0.88713368    -6.237284    345.46455  0.031122933  0.031487961            6 
  926000   0.89148041   -6.2653288    345.47664  0.031090411  0.031464824            6 
  927000   0.86160514   -6.2285989    346.49086  0.031148045  0.031441273            8 
  928000   0.88499465    -6.267482    346.71944  0.031135007  0.031418041            5 
  929000   0.87432682   -6.2911866    346.37201  0.031070328  0.031394818            5 
  930000   0.88461526   -6.2633537    347.41423  0.031130307  0.031371628            9 
  931000   0.85935696    -6.246692    347.78569  0.031130119  0.031348587            4 
  932000   0.87298228    -6.269064    346.38873  0.030971811  0.031325552            4 
  933000     0.888776   -6.2500446    347.25187  0.031015708  0.031302585            5 
  934000   0.86808794   -6.2527839    346.80867  0.030942957  0.031279628            9 
  935000   0.89822633    -6.254474    347.16148  0.030941308  0.031256806            5 
  936000   0.85630093   -6.2624968    348.17781  0.030998736  0.031234365            3 
  937000   0.86980612   -6.2760691    347.45143  0.030901052  0.031211834            6 
  938000   0.87432227   -6.2683228    348.31044  0.030944425  0.031189124           11 
  939000    0.8821674   -6.2435067    349.22397  0.030992543  0.031166342            4 
  940000   0.86837049   -6.2979182    348.76054  0.030918487  0.031143794            7 
  941000   0.86199951   -6.2608396    349.49409  0.030950592  0.031121108           10 
  942000   0.86748301   -6.2734384    350.04587  0.030966549  0.031098766            4 
  943000   0.87843628   -6.2455833     350.8474  0.031004543  0.031076831           10 
  944000   0.87377076   -6.2600192     349.8539  0.030883995  0.031054883            8 
  945000   0.88432235   -6.2818595    349.57467  0.030826691  0.031032777            6 
  946000   0.88730157   -6.2732628    350.42206  0.030868751  0.031010601            3 
  947000   0.86804068   -6.2866536    350.01366  0.030800217  0.030988509            9 
  948000   0.87311882     -6.26732    350.95839  0.030850772   0.03096656            8 
  949000   0.88629234   -6.2777242    350.02442   0.03073625  0.030944222            7 
  950000   0.86688679   -6.2606805    351.08348  0.030796796  0.030922155            4 
  951000   0.87260662   -6.2711405    350.37306  0.030702161  0.030900271            5 
  952000    0.8690648   -6.2805934     351.3243  0.030753178  0.030878383            7 
  953000   0.87232167   -6.2776026    351.26528  0.030715746  0.030856558            5 
  954000   0.87779038   -6.2746928    352.69958  0.030808838  0.030834839            5 
  955000   0.86590668   -6.2434412    352.95791  0.030799119  0.030813511            8 
  956000   0.88781124   -6.3008257    352.08362  0.030690692  0.030791909            8 
  957000   0.87042162   -6.2626366    352.97609  0.030736336  0.030770372            8 
  958000   0.87401759   -6.2893865    352.51858  0.030664455   0.03074879            5 
  959000   0.87059031   -6.2915597    353.67339  0.030732828  0.030727177           10 
  960000   0.87149795   -6.2569101    353.36166  0.030673755  0.030705434            6 
  961000   0.89071352    -6.317381    352.37756    0.0305565  0.030683539           10 
  962000   0.88554234   -6.2638721    354.48704  0.030707471  0.030661836            3 
  963000   0.86497158   -6.3067853     353.6103  0.030599714   0.03064028            3 
  964000   0.87521054    -6.268525    353.91429   0.03059425  0.030618623            9 
  965000   0.87402059   -6.3117956    353.45599   0.03052297  0.030596912           11 
  966000   0.86928003   -6.2931971    353.41008  0.030487412  0.030575187            6 
  967000   0.87962843    -6.279134    354.12881  0.030517822  0.030553484            6 
  968000    0.8702343   -6.2719733    354.09771  0.030483619  0.030532041            5 
  969000   0.87931251   -6.2821329    353.23272  0.030377771  0.030510355            4 
  970000   0.87334807     -6.28759    354.19436  0.030429069  0.030488807            9 
  971000   0.85595826   -6.2989434    354.25502  0.030402937  0.030467138            8 
  972000   0.85643384   -6.2911045    354.44109  0.030387611  0.030445387            8 
  973000   0.86943162   -6.3058057    353.56815  0.030281616  0.030423557           11 
  974000   0.86237203   -6.3164104    353.18526  0.030217767  0.030401662            5 
  975000   0.87097335   -6.2672148    355.16123   0.03035566  0.030379776            4 
  976000    0.8624875   -6.3007342    355.79221  0.030378433  0.030357973            3 
  977000   0.85003289   -6.2648206    354.57874  0.030243836  0.030336216            3 
  978000   0.86544125   -6.2922686    354.15678  0.030176958  0.030314644            6 
  979000   0.86548445   -6.3037529    354.77191  0.030198494  0.030292817            8 
  980000   0.84753041   -6.3086796     354.3915  0.030135331  0.030270898            3 
  981000   0.86757434   -6.3306587    354.97275  0.030153988  0.030248957            6 
  982000   0.85539553   -6.2711998    355.65802  0.030181434  0.030227101            4 
  983000   0.85400295   -6.2886162    355.40832  0.030129563  0.030205618            5 
  984000   0.84912101   -6.2812313    355.26623  0.030086909  0.030183598            7 
  985000   0.86158329   -6.2963887    356.14966  0.030131105  0.030161721           10 
  986000   0.84737937   -6.2869519    355.79303  0.030070405   0.03013985            7 
  987000   0.86950141   -6.3257084    355.19581  0.029989514  0.030117803            9 
  988000   0.87010248   -6.3120756    355.54572  0.029988674  0.030095999            6 
  989000   0.86753882   -6.2903047    356.08242  0.030003575  0.030074015            9 
  990000   0.86319449   -6.3576772    354.87549  0.029871674  0.030051963            8 
  991000   0.85350074   -6.2815233    355.53726   0.02989718  0.030029962            5 
  992000   0.85289564   -6.3402476    354.64754    0.0297923  0.030007904           16 
  993000   0.86825167   -6.3156673    354.62888  0.029760731  0.029985682            6 
  994000   0.85879198   -6.3312966     356.2633  0.029867815  0.029963491           11 
  995000   0.84958742   -6.3281617    356.65666  0.029870742  0.029941162            3 
  996000   0.86018823   -6.3356037     356.4616  0.029824431  0.029919137            8 
  997000   0.86835149    -6.332685    356.93708  0.029834259  0.029897161            4 
  998000   0.85670907   -6.3496879    355.83011  0.029711933  0.029875035            8 
  999000   0.83061969   -6.2991105    356.44779  0.029733716  0.029852722            7 
 1000000   0.85023305   -6.3351601    356.61719  0.029718099  0.029830667            7 
 1001000   0.83845625   -6.3188425    357.67338  0.029776338  0.029808796            4 
 1002000   0.86716425   -6.3049019    357.68832  0.029747864  0.029787148            4 
 1003000   0.83946969   -6.3111217    357.46101   0.02969932  0.029765457            7 
 1004000   0.85059046   -6.3239971    357.03071  0.029634023  0.029743645            6 
 1005000   0.85308305   -6.3290029    357.49068  0.029642676  0.029721892            6 
 1006000   0.84909369   -6.3493362    357.26597  0.029594597  0.029700215           16 
 1007000    0.8518088   -6.3182223    357.98405  0.029624631  0.029678544            6 
 1008000   0.84690744   -6.3168226    358.17684   0.02961118  0.029656686            8 
 1009000   0.84501398   -6.3581135    358.09376  0.029574972  0.029634736            6 
 1010000   0.85130865    -6.365184    357.09828  0.029463554  0.029612805            6 
 1011000   0.84229948   -6.3338172    358.93272  0.029585618  0.029590801           12 
 1012000   0.85200569    -6.335658    358.62559  0.029531093  0.029569022            7 
 1013000   0.85099452   -6.3462245    357.75392  0.029430234  0.029547276            7 
 1014000    0.8656238   -6.3366748    357.73037  0.029399274    0.0295257           14 
 1015000   0.84845646   -6.3578464    358.92554  0.029468435  0.029504105            4 
 1016000   0.84328828   -6.3547617    359.19362  0.029461419  0.029482362            3 
 1017000   0.86469796   -6.3187328    359.99296  0.029497948  0.029461016           12 
 1018000   0.82728161   -6.3349878    359.07338  0.029393695  0.029439614           12 
 1019000   0.85524003    -6.334056    359.81042  0.029425124  0.029417981            9 
 1020000   0.86718217   -6.3469225    360.35597  0.029440847  0.029396561            3 
 1021000   0.83694855   -6.3385492     360.0275  0.029385202  0.029375202            6 
 1022000   0.83760979   -6.3271957    359.46864  0.029310881  0.029353733           14 
 1023000   0.84179526   -6.3655849    359.11984  0.029253815  0.029332285            7 
 1024000   0.82811771   -6.3495517    360.20841  0.029313835  0.029310731            8 
 1025000   0.84050107   -6.3475258    359.92147  0.029261908  0.029289211            6 
 1026000   0.85215227   -6.3706547    359.84157  0.029226898  0.029267528            5 
 1027000   0.84071954   -6.3928447    359.58572   0.02917768  0.029245739           10 
 1028000   0.83166421   -6.3208716    361.10453  0.029272416   0.02922423            7 
 1029000   0.84709214   -6.3291287    360.97177  0.029233217  0.029202968            7 
 1030000   0.83854086    -6.356044    359.73514  0.029104785  0.029181586            4 
 1031000    0.8417364   -6.3464857     360.2629  0.029119213  0.029159972            8 
 1032000   0.83040545   -6.3386967    360.75142  0.029130444  0.029138358            8 
 1033000   0.84251067   -6.3600013    361.09105  0.029129642  0.029117036            8 
 1034000   0.83908708   -6.3542206    360.53269  0.029056471  0.029095735            4 
 1035000   0.84897626   -6.3321318    361.56509  0.029111521  0.029074331            5 
 1036000   0.84292732   -6.3558853     361.7402  0.029097506  0.029053015            8 
 1037000   0.82522411   -6.3721586     361.4883  0.029049205  0.029031694           22 
 1038000   0.83035176   -6.4000246    361.31801  0.029007547  0.029010356            5 
 1039000   0.83815215   -6.3615545    361.60834  0.029002915  0.028988953            9 
 1040000   0.86076351   -6.3776063    361.48054  0.028964787  0.028967784            6 
 1041000   0.83857023   -6.3360207    361.61199  0.028947486  0.028946555            5 
 1042000   0.81349032   -6.3640214    361.77605  0.028932825  0.028925513           10 
 1043000   0.82319334   -6.3041624    362.85381  0.028991196  0.028904411           10 
 1044000   0.84122395   -6.3408449    361.89018  0.028886509   0.02888335            5 
 1045000   0.83787785    -6.351677    363.27554  0.028969341  0.028862105            8 
 1046000   0.84029915   -6.3739705    362.11586  0.028849256  0.028840634            9 
 1047000   0.84272725   -6.3636113    361.77925   0.02879491  0.028819134           11 
 1048000   0.84957854   -6.3786755     361.6287  0.028755463  0.028797831            6 
 1049000      0.82899   -6.3947523    362.86031  0.028825891  0.028776625            5 
 1050000   0.82971774   -6.3528037    363.85518  0.028877396  0.028755646            3 
 1051000   0.83828224   -6.3685252    363.70474  0.028837991  0.028734524           11 
 1052000   0.86893426    -6.373334    363.17633  0.028768721  0.028713469           11 
 1053000   0.83960652   -6.3865524    363.19722  0.028743053  0.028692569           10 
 1054000   0.82929384   -6.3831081    363.77306  0.028761311  0.028671471            5 
 1055000   0.83257968    -6.326975    364.16945  0.028765359  0.028650514            5 
 1056000   0.82013744   -6.3532177    363.70925  0.028701803  0.028629443            8 
 1057000   0.84378306   -6.3789347    363.34293  0.028645768  0.028608508            6 
 1058000   0.83091275   -6.3460715    363.94987  0.028666499  0.028587401            6 
 1059000   0.84165864   -6.3899781    363.02946  0.028567001  0.028566325            3 
 1060000    0.8258043   -6.3695796    364.12879  0.028626477  0.028545293            5 
 1061000   0.84093782   -6.4055595    363.50309  0.028550352  0.028524107           11 
 1062000   0.82151917   -6.4092504    363.50299  0.028523462  0.028502917            6 
 1063000   0.81462581   -6.4179444    363.38351  0.028487262  0.028481497            9 
 1064000   0.83414503   -6.3897282    363.92135  0.028502612  0.028460271            5 
 1065000   0.82556694   -6.4028989      364.494  0.028520657  0.028439131           13 
 1066000    0.8149174   -6.3579912    365.36283  0.028561822   0.02841823            6 
 1067000   0.82211329   -6.3885702     364.1969  0.028443994  0.028397102            5 
 1068000   0.81222528   -6.3843537    365.04504  0.028483539  0.028376245           11 
 1069000   0.83196648   -6.3690015    366.18209  0.028545532  0.028355443            8 
 1070000   0.85390144   -6.4378095     365.7215  0.028482983  0.028334821            6 
 1071000   0.83940725   -6.4312885    365.38994  0.028430589  0.028314153            5 
 1072000   0.81028632   -6.3867637    365.45908  0.028409443  0.028293512            8 
 1073000    0.8211551    -6.362734    366.15268  0.028436835  0.028273022            6 
 1074000   0.82319486   -6.3827234    366.22958  0.028416324  0.028252455            4 
 1075000   0.81342883   -6.4054114    366.00132  0.028372196  0.028231843            8 
 1076000   0.83435656   -6.4218535    366.10943    0.0283542  0.028211244           16 
 1077000   0.83145815   -6.4032809    366.38033  0.028348834  0.028190529            4 
 1078000   0.84239793   -6.4114432    366.00981  0.028293894  0.028170039            5 
 1079000   0.82796687   -6.3959627    367.25342  0.028363718  0.028149616            8 
 1080000   0.84159556   -6.4101937    367.27143  0.028338845  0.028129235            4 
 1081000   0.82437574   -6.3886421    366.66552   0.02826592  0.028108841            5 
 1082000   0.81141629    -6.402676    367.11472  0.028274393  0.028088561            8 
 1083000   0.83100126   -6.3963704    367.23645  0.028257652  0.028068226            8 
 1084000   0.81725362   -6.4123971     367.4224   0.02824588  0.028047929            9 
 1085000   0.81634346   -6.3981508    367.59753  0.028233297  0.028027663            8 
 1086000   0.82908388    -6.423957    367.49757  0.028199629  0.028007349           10 
 1087000   0.81659399   -6.4372333     367.3097  0.028159284  0.027987121            8 
 1088000   0.81352679   -6.4220203    367.94319  0.028181924   0.02796702            7 
 1089000   0.82435259   -6.4016192    369.20423  0.028252543  0.027947064            7 
 1090000    0.8267625   -6.4152531    368.72411  0.028189917  0.027927111            9 
 1091000   0.82579496   -6.3976678    369.28642  0.028207029  0.027907231            8 
 1092000   0.83804503   -6.4017024    369.11238  0.028167917  0.027887479            4 
 1093000   0.80139367   -6.4107462    369.65589  0.028183584   0.02786765           12 
 1094000   0.82028879   -6.4276939    369.09055  0.028114759  0.027847772            7 
 1095000   0.82815031   -6.4677557    368.33206  0.028031359  0.027827984            8 
 1096000   0.82011266     -6.43702    368.44928  0.028014696  0.027808038           16 
 1097000   0.81462126    -6.418895    370.21977  0.028123653  0.027788093            7 
 1098000    0.8308551   -6.4336519    369.86982   0.02807148  0.027768557            7 
 1099000   0.81289062   -6.4152127    369.54833   0.02802156  0.027748744            7 
 1100000   0.81250695   -6.4271056    370.04415  0.028033648  0.027728865            8 
 1101000   0.81221714   -6.4582095    368.67698  0.027904707  0.027708965           10 
 1102000   0.79061062   -6.4498615    369.29688  0.027926261  0.027689038            9 
 1103000    0.8116787   -6.4331474    371.01973  0.028031107  0.027669336            7 
 1104000     0.827091   -6.4296655    371.19943  0.028019281  0.027649759            9 
 1105000   0.81515717   -6.3965798    371.46183  0.028013712  0.027630234            6 
 1106000   0.81503317   -6.4113063    370.83825  0.027941399  0.027610671            6 
 1107000   0.82233313    -6.440891    370.56071  0.027895266  0.027591092            4 
 1108000   0.80749985   -6.4280339    370.95279  0.027899578  0.027571687           10 
 1109000   0.82421187   -6.4394526    371.02345   0.02787973  0.027552112            5 
 1110000   0.81045667   -6.4527154    371.13002  0.027862614  0.027532398            7 
 1111000   0.83043963   -6.4214841    370.86092  0.027817351  0.027512609            8 
 1112000    0.8145545   -6.4154242    371.36448  0.027830072  0.027492981            4 
 1113000    0.7970703   -6.4525038    371.51356  0.027816229  0.027473141            4 
 1114000   0.81527078   -6.4240035    371.15323  0.027764305  0.027453285            4 
 1115000   0.79828852   -6.4528073    369.16162  0.027590554  0.027433351            7 
 1116000   0.79690419   -6.4797511    370.39674   0.02765806  0.027413458           16 
 1117000   0.81852209   -6.4492227    371.29669  0.027700439  0.027393569            8 
 1118000   0.80909523   -6.4246557    370.72944  0.027633381  0.027373811            7 
 1119000    0.8084352    -6.438117    371.29224  0.027650598  0.027353953            6 
 1120000    0.8154119   -6.4581642    371.54665   0.02764484  0.027334266            8 
 1121000   0.81374321   -6.4546775    371.20086  0.027594474  0.027314458            6 
 1122000     0.813799   -6.4931286    370.87324  0.027545547  0.027294608            7 
 1123000   0.79721954   -6.4393558      372.699  0.027656501  0.027274929           12 
 1124000   0.80342654   -6.4457999    371.43272  0.027538013  0.027255334           12 
 1125000   0.81695838   -6.4446255    371.56104   0.02752304  0.027235701           18 
 1126000   0.81310983   -6.4680827    371.56105  0.027498598  0.027216061            9 
 1127000   0.80490764   -6.4347336    372.35315  0.027532768  0.027196428            6 
 1128000   0.79398289   -6.4652986    371.78811  0.027466615  0.027176552           13 
 1129000   0.79730923   -6.4404436    372.84023  0.027519946   0.02715677           10 
 1130000    0.8254769   -6.4565966    372.01665  0.027434856  0.027137023           29 
 1131000    0.8163468   -6.4541002    372.57402  0.027451667  0.027117521           11 
 1132000   0.80736939   -6.4675621    372.69218  0.027436114  0.027097925            8 
 1133000   0.82116068   -6.4537964    373.98139  0.027506721  0.027078474            5 
 1134000   0.79441037   -6.4882415    372.19835  0.027351437  0.027058911           12 
 1135000   0.82298668    -6.442716    373.18158  0.027399529  0.027039372           11 
 1136000   0.79704657     -6.46406    373.24688    0.0273802   0.02701992            4 
 1137000   0.76712234   -6.4870965    371.85143  0.027253842  0.027000219            9 
 1138000   0.79278851   -6.4633268    372.01235  0.027241678  0.026980525            8 
 1139000   0.80417273   -6.4638712      372.809  0.027276047  0.026961042            9 
 1140000   0.80032043   -6.4539024    372.72436  0.027245933  0.026941727           15 
 1141000   0.79290593   -6.4684692    373.00767  0.027242745  0.026922335            6 
 1142000   0.80561406   -6.4339593    374.58558  0.027334032  0.026902904           10 
 1143000   0.80216185   -6.4519069    372.99878  0.027194428   0.02688363            5 
 1144000   0.78752896   -6.4526503    373.03608  0.027173374  0.026864112            4 
 1145000   0.79880435   -6.4970054     372.4941  0.027110197  0.026844489            6 
 1146000    0.7801671   -6.4810831    373.45619    0.0271565  0.026824931            6 
 1147000   0.80623512   -6.4639546    375.19613  0.027259237  0.026805566            8 
 1148000   0.79859712   -6.5029734    372.84426  0.027064769   0.02678619            5 
 1149000   0.78139444    -6.473437     373.6167  0.027097237  0.026766936            7 
 1150000   0.79885807   -6.4860437    374.19983  0.027115929  0.026747587            8 
 1151000   0.79827411   -6.5002781    374.19035  0.027091685  0.026728125            5 
 1152000   0.77781064   -6.4881302    374.25089  0.027072547  0.026708495           12 
 1153000   0.79403162   -6.4905573    374.18175   0.02704407  0.026689042            9 
 1154000   0.81004998   -6.4829985    374.41854  0.027037734  0.026669421           12 
 1155000   0.79519886   -6.4794919    374.16413  0.026995969  0.026649871           14 
 1156000   0.80191849    -6.501555    373.27248  0.026908339  0.026630269            9 
 1157000   0.79320055   -6.4917813    373.41514  0.026895357   0.02661067            7 
 1158000   0.78246236   -6.4767781    375.00635   0.02698664  0.026591133            6 
 1159000   0.79070265   -6.4892501    374.06205  0.026895459  0.026571448            9 
 1160000   0.78382011   -6.4913664    373.77137  0.026851392   0.02655192           10 
 1161000   0.79459607    -6.478612    373.59207  0.026815394  0.026532436            7 
 1162000   0.79622877   -6.4876541    374.38188  0.026848959  0.026512744           26 
 1163000   0.77248087   -6.5338866    372.46566  0.026688569  0.026493059           10 
 1164000   0.79574022   -6.4653276    374.46904  0.026809066  0.026473348            5 
 1165000   0.77166906   -6.4882175    373.22817  0.026697294   0.02645357            7 
 1166000   0.79232236   -6.4990131    374.68994   0.02677887  0.026433702            8 
 1167000   0.79195194   -6.5063832    373.86005  0.026696662  0.026413967           10 
 1168000   0.79210595     -6.51457    373.80629  0.026669969  0.026394132            5 
 1169000   0.77679405   -6.5137145    374.62595  0.026705585  0.026374232           10 
 1170000   0.78402247   -6.4963138    374.87571  0.026700549  0.026354493           15 
 1171000   0.78777304   -6.4987539    374.20257  0.026629844  0.026334873           13 
 1172000   0.78094647   -6.5170133    373.90714  0.026586117  0.026315307           30 
 1173000   0.78998118   -6.5217733    375.35923  0.026666612  0.026295765           13 
 1174000   0.77857252   -6.4867193    375.73631  0.026670664  0.026276095            6 
 1175000   0.79553074   -6.5120674    374.73621  0.026577036   0.02625669           13 
 1176000   0.77797736   -6.4941921    374.78505  0.026557897  0.026237106           10 
 1177000   0.76861725   -6.5114492     374.4469  0.026511392  0.026217567           11 
 1178000   0.79798818   -6.5073357    375.79481   0.02658424  0.026198152           10 
 1179000   0.79106177   -6.4676271    376.53869  0.026614269  0.026178848           12 
 1180000   0.78459354   -6.5087958    375.76269  0.026536913  0.026159656           12 
 1181000   0.78180252   -6.5218194    376.36945  0.026557257  0.026140451           19 
 1182000   0.77684102   -6.5244411    375.43159  0.026468668  0.026121124           12 
 1183000   0.79462251   -6.5543362    375.06823  0.026420698  0.026101715           10 
 1184000   0.78058251   -6.5102636    375.95481  0.026460784  0.026082417            7 
 1185000   0.78125176   -6.5308406    375.85623  0.026431521  0.026063048           11 
 1186000   0.77728622   -6.5349549    375.75266  0.026401958  0.026043675           11 
 1187000   0.79293945   -6.5323752     375.0714  0.026331887  0.026024483           11 
 1188000   0.79042965   -6.5215381    375.93873  0.026370562   0.02600526           21 
 1189000   0.78033949   -6.5286977    376.16104  0.026363964  0.025985858            6 
 1190000   0.78394465    -6.523496    376.66165  0.026376866  0.025966535           14 
 1191000   0.78118133   -6.5316969     376.4325  0.026338686  0.025947164           20 
 1192000   0.77373902   -6.5107551    377.00441  0.026356572  0.025927908            6 
 1193000   0.78593869   -6.5449077     376.4198  0.026293643  0.025908707           14 
 1194000   0.78067308   -6.5096555    376.87776  0.026303585  0.025889477           16 
 1195000   0.77612971   -6.5314097    376.01945  0.026221719  0.025870326           11 
 1196000   0.77935868   -6.5301481    375.48146  0.026162309  0.025850942            8 
 1197000   0.76459954   -6.5262685     376.4632    0.0262088  0.025831684            7 
 1198000   0.78579883   -6.5576191    376.02431  0.026156393  0.025812339            8 
 1199000   0.77799579   -6.5186593    375.88657  0.026125005  0.025792972            7 
 1200000    0.7929851   -6.5486684    376.40102   0.02613896  0.025773549            7 
 1201000   0.77080812   -6.5167457    376.42156  0.026118621  0.025754233            4 
 1202000   0.79456697   -6.5071943    376.16994  0.026079447  0.025734887            7 
 1203000   0.76899942   -6.5148016    375.72058   0.02602664  0.025715591            7 
 1204000   0.78770962   -6.5236969    376.35725   0.02604909  0.025696232           10 
 1205000   0.76728279   -6.5156708    376.45058  0.026033927  0.025676877            6 
 1206000   0.77395623   -6.5508252    376.84236  0.026039411  0.025657489            9 
 1207000   0.75936356   -6.5416664     377.7329  0.026079322  0.025638215           20 
 1208000   0.78408927   -6.5463059    377.07948  0.026012657  0.025619015           13 
 1209000   0.77843493   -6.5346455    376.81759   0.02597309  0.025599791           14 
 1210000   0.78204615   -6.5682102    376.89297  0.025956816  0.025580519           12 
 1211000   0.77248672   -6.5704189    376.63151   0.02591739  0.025561112            6 
 1212000   0.74722429   -6.5640198    376.20605  0.025866752  0.025541667           14 
 1213000   0.76240404     -6.57049     377.2831  0.025919421  0.025522167           12 
 1214000   0.76256092   -6.5674604    376.81536  0.025865964  0.025502737            6 
 1215000   0.77987135   -6.5790022    376.88315  0.025849324  0.025483383            7 
 1216000   0.77322074   -6.5722435    376.32237  0.025789636  0.025464005           19 
 1217000   0.76690117   -6.5337526    378.09618  0.025889905  0.025444761            6 
 1218000   0.77810406   -6.5345965    377.39558  0.025820716  0.025425579           11 
 1219000    0.7692401    -6.563443    377.35612  0.025796836  0.025406375            6 
 1220000   0.77739514   -6.5533198    378.06343  0.025824004  0.025387178            7 
 1221000   0.75700914   -6.5702283    377.11012  0.025737791  0.025367961           16 
 1222000   0.77175426   -6.5670788    377.33458  0.025732036  0.025348894            6 
 1223000   0.77064572    -6.521762    378.40546  0.025783964   0.02532999           14 
 1224000   0.78185719   -6.5659541    377.47333  0.025699437  0.025311009            7 
 1225000   0.75697536   -6.5540793    378.36521   0.02573913  0.025291824           14 
 1226000   0.77022831   -6.5577046    378.76848  0.025745547  0.025272827            7 
 1227000   0.76234225   -6.5640226      378.446  0.025702662  0.025253859            7 
 1228000   0.77462774    -6.555665    378.66704  0.025696732  0.025234882            6 
 1229000   0.76192644   -6.5857936    376.46087  0.025526232  0.025215757           10 
 1230000   0.75724197   -6.5579459    377.97952  0.025608369  0.025196726           14 
 1231000   0.76815634   -6.5455026    379.12818  0.025665325  0.025177837            8 
 1232000    0.7686668   -6.5470523    379.32411  0.025657745   0.02515895            7 
 1233000   0.75869034   -6.5256087    378.94337  0.025611204  0.025140216            6 
 1234000   0.75370614   -6.5575324    378.49207  0.025559972  0.025121403            8 
 1235000   0.74244589   -6.5762607    378.44772  0.025536284  0.025102453            9 
 1236000   0.76954726   -6.5589389     379.0295  0.025554848  0.025083454           10 
 1237000   0.74934753   -6.5710757    378.99498  0.025531863  0.025064495            6 
 1238000   0.76032119   -6.5286433     379.5593  0.025549226   0.02504555            8 
 1239000   0.75138529   -6.6011011    378.15812  0.025434364   0.02502653           16 
 1240000   0.76039637   -6.5954588    378.46335  0.025434365  0.025007555           11 
 1241000   0.74366259   -6.5831741    378.89452  0.025442823  0.024988587           16 
 1242000   0.76332159   -6.5931694    378.64327   0.02540548  0.024969709            7 
 1243000   0.76437105    -6.568066    379.36345  0.025433323  0.024950876            4 
 1244000   0.76226399   -6.5664337     378.8286   0.02537705  0.024932042           11 
 1245000   0.76395357   -6.5680549    379.13292  0.025377036  0.024913116           12 
 1246000   0.76048854   -6.5676455    379.49879  0.025381139   0.02489414            9 
 1247000   0.75436794   -6.5865004     378.7738  0.025312336  0.024875236            6 
 1248000   0.76591003   -6.5819453     379.5482  0.025343764   0.02485633           27 
 1249000   0.76915023   -6.5499776    379.37776  0.025312101  0.024837662            8 
 1250000   0.74849664   -6.5832242    378.81069  0.025254046  0.024818818           12 
 1251000   0.75067859   -6.5947566     378.9477  0.025242986  0.024799883           18 
 1252000   0.76111605   -6.5756775    378.67841    0.0252049   0.02478099           20 
 1253000   0.75084844   -6.5698922    378.24041  0.025155654  0.024762083           11 
 1254000   0.76141098    -6.606918    378.60311  0.025159696  0.024743316           11 
 1255000   0.75697107   -6.5838394    378.92641  0.025161116  0.024724432           11 
 1256000   0.76072953   -6.5818424    379.70479  0.025192727   0.02470552           16 
 1257000   0.74682497   -6.5876456    379.09487   0.02513225  0.024686692           10 
 1258000   0.74962135   -6.5928344    379.26377  0.025123461  0.024667803            5 
 1259000   0.75188353   -6.6056623    380.04358  0.025155122  0.024648965           16 
 1260000   0.75611009   -6.6037801    379.21278   0.02508021  0.024630244           12 
 1261000    0.7582917   -6.5813435    379.02089   0.02504764  0.024611497            9 
 1262000   0.74449896   -6.5943247    378.54765  0.024996543  0.024592757           13 
 1263000   0.74620071   -6.5548743    380.14074  0.025081864  0.024574144            5 
 1264000   0.74757431   -6.5516352    380.24619  0.025068974  0.024555513           10 
 1265000   0.73994294   -6.6113607    377.95639  0.024898313  0.024536779           17 
 1266000   0.74558196   -6.5924976    380.59351  0.025052232  0.024518018           23 
 1267000    0.7434987   -6.5993177    379.97236  0.024991605  0.024499308           17 
 1268000   0.75335417    -6.595549    380.27841  0.024992009  0.024480692            6 
 1269000    0.7496855   -6.6034754    380.00491  0.024954355  0.024461984           15 
 1270000   0.74923597   -6.6305224    380.21999  0.024948818   0.02444321           10 
 1271000   0.74426731   -6.6123623    380.10165   0.02492143   0.02442446           11 
 1272000   0.74275764   -6.6105745    379.90345  0.024888853  0.024405703           22 
 1273000   0.73260504     -6.60932    380.03121  0.024877665  0.024387103           35 
 1274000   0.74793512   -6.6230337    380.09543  0.024862338  0.024368431            9 
 1275000   0.75433558   -6.6157974     380.9046  0.024895726  0.024349819           10 
 1276000   0.77342595   -6.6214123     380.1762  0.024828644  0.024331241           15 
 1277000   0.74669673   -6.6293059    380.54976  0.024833579  0.024312766           11 
 1278000   0.75703905   -6.5968983    381.33191  0.024865148  0.024294301            6 
 1279000   0.72921357   -6.6211384    380.13958  0.024768021   0.02427585           11 
 1280000   0.74933079   -6.6249328    380.80399  0.024791926  0.024257328           12 
 1281000   0.74071769   -6.6402065    379.96666  0.024718102  0.024238709           10 
 1282000   0.74481044   -6.6015002    380.70195  0.024746617  0.024220129           11 
 1283000   0.74598937   -6.6421791    379.48853  0.024648514  0.024201539           14 
 1284000   0.73353252   -6.6119292    380.19193   0.02467497  0.024182963           10 
 1285000   0.73397995   -6.6288598    379.79293  0.024629892  0.024164496           16 
 1286000   0.73228387   -6.6233948    380.95798  0.024686235  0.024145945            8 
 1287000   0.75579977   -6.6002168    380.59767  0.024643724  0.024127397           17 
 1288000   0.75294028   -6.5942162    381.38535  0.024675553  0.024108942           10 
 1289000   0.74442103   -6.5921165    381.62979  0.024672213  0.024090587           16 
 1290000   0.73770452   -6.6260123     381.0976  0.024618708   0.02407219            9 
 1291000   0.74626149   -6.6260772    381.03093  0.024595335  0.024053724           20 
 1292000   0.74604762   -6.6240066    380.77498   0.02455979  0.024035303            8 
 1293000   0.73602716   -6.6164454     380.8148  0.024543362  0.024016889           18 
 1294000   0.73977959    -6.627467    380.22376  0.024486332  0.023998466            9 
 1295000   0.72212807   -6.6463937    380.21831  0.024467073  0.023979967            9 
 1296000   0.72379925   -6.6497495    379.85014   0.02442452   0.02396135           10 
 1297000   0.73014551   -6.6261099    380.74943  0.024463469  0.023942797           32 
 1298000   0.72832316   -6.6440432    380.73944   0.02444398  0.023924293            7 
 1299000   0.72046039   -6.6347506    380.92802  0.024437261  0.023905889           10 
 1300000   0.74533116   -6.6502668    381.10403  0.024429746  0.023887462           14 
 1301000   0.74861914   -6.6705439     380.6526  0.024382052  0.023868983           11 
 1302000   0.74273319   -6.6656871    380.50969  0.024354179  0.023850406            8 
 1303000   0.74038652   -6.6702766    380.27378  0.024320401  0.023831886           31 
 1304000   0.74463434   -6.6634498    380.42608  0.024311482  0.023813332           11 
 1305000   0.74142035   -6.6624878    381.94945  0.024390131  0.023794726            9 
 1306000   0.71890108   -6.6229007    379.86142  0.024238222  0.023776197            6 
 1307000   0.72021494    -6.643698    381.59529  0.024330228  0.023757857           12 
 1308000   0.73888375   -6.6379385    381.13147  0.024282076  0.023739403            5 
 1309000   0.73667576   -6.6174185    381.08276  0.024260425  0.023720946           16 
 1310000   0.71366248    -6.658493    381.21004  0.024250003  0.023702512           13 
 1311000   0.72535951   -6.6457642    380.93106  0.024213772  0.023684108           29 
 1312000   0.72937818   -6.6409355    381.64019  0.024240358  0.023665693           11 
 1313000   0.74739017   -6.6079336    381.05063  0.024184477  0.023647368           12 
 1314000   0.72770031   -6.6397247    381.22329  0.024177022  0.023629061           16 
 1315000   0.72337844   -6.6533179    381.70009  0.024188852  0.023610727           11 
 1316000    0.7467627   -6.6354816    380.92073   0.02412112  0.023592424            7 
 1317000   0.73534199   -6.6456528      381.327  0.024128511  0.023574005            9 
 1318000    0.7199997   -6.6634296    380.67542  0.024069007  0.023555751            9 
 1319000   0.71626171   -6.6312447    381.12686  0.024079281  0.023537317           27 
 1320000   0.72934831   -6.6636562    381.44969   0.02408142    0.0235188           10 
 1321000   0.73897437   -6.6497123    380.48876  0.024002571  0.023500456           17 
 1322000   0.73077218   -6.6608186    380.52604  0.023986765  0.023482004            7 
 1323000   0.71408149   -6.6452922    380.71433  0.023980494  0.023463578           22 
 1324000   0.72943937    -6.671924    380.79677  0.023967571  0.023445173           14 
 1325000    0.7175869   -6.6777766    380.37125   0.02392272  0.023426773            7 
 1326000     0.709988   -6.6720631    381.12677   0.02395216  0.023408337           19 
 1327000   0.72938956   -6.6587959    381.11129  0.023933138  0.023389861            7 
 1328000   0.71439657   -6.6787079    380.02289  0.023846818  0.023371458           16 
 1329000   0.72460516   -6.6756204     381.9682  0.023950853  0.023352985            9 
 1330000   0.71427028   -6.6815477     380.6367  0.023849417  0.023334579           17 
 1331000   0.72771026   -6.6767778    380.55815  0.023826581  0.023316129           18 
 1332000    0.7197881   -6.6757123    381.51042  0.023868269  0.023297737           18 
 1333000   0.72530163    -6.669241    382.43882  0.023908403  0.023279378            6 
 1334000   0.70750217   -6.6473322    381.62095   0.02383939  0.023261118           12 
 1335000   0.72013503   -6.6288916    381.82165  0.023834061  0.023242877           13 
 1336000   0.72082349   -6.6563617    381.12113  0.023772526   0.02322467           18 
 1337000   0.71379463    -6.662988    381.46299  0.023776053  0.023206457           12 
 1338000   0.71153817   -6.6579997    381.18172  0.023740765  0.023188185            7 
 1339000   0.71465958   -6.6975332    381.12999  0.023719815  0.023169973           11 
 1340000   0.72912338   -6.6894261    381.74009  0.023740055  0.023151709           16 
 1341000    0.7013762   -6.6978684     380.3336  0.023634949  0.023133415           15 
 1342000   0.72774334   -6.7067465    381.28225  0.023676245  0.023115041            9 
 1343000   0.72439547   -6.6808959    381.18021  0.023652284  0.023096696           12 
 1344000   0.70332277   -6.6417781    382.01808  0.023686637  0.023078433           11 
 1345000   0.73116328   -6.6438745    382.01442  0.023668799  0.023060249           14 
 1346000   0.73378445   -6.6914707    381.70181  0.023631861  0.023042053           27 
 1347000   0.70495325   -6.6873582    381.62865   0.02360979  0.023023838           13 
 1348000   0.71084197   -6.7012421    382.02727  0.023616918  0.023005618           28 
 1349000   0.71048958   -6.6860526    381.68416  0.023578216  0.022987452           15 
 1350000    0.7117002    -6.667135    381.63837  0.023557924  0.022969277           24 
 1351000   0.69854561   -6.7014832    380.40367  0.023464327  0.022951139           13 
 1352000   0.71647859   -6.7069475    381.17923  0.023494775  0.022933009            9 
 1353000    0.6977649   -6.6651625    382.09121   0.02353358  0.022914967            8 
 1354000    0.7184981   -6.6505849    382.41119  0.023535893  0.022897088           10 
 1355000   0.69735834    -6.674249    382.42144  0.023519154  0.022879173           16 
 1356000    0.6966425   -6.7021423    382.21495  0.023489119  0.022861203           10 
 1357000   0.71914868   -6.6887968    382.68265  0.023500531  0.022843197           16 
 1358000   0.71708835   -6.7014799    382.35635  0.023463203  0.022825203           45 
 1359000   0.69357239   -6.6811583    382.74697   0.02346989  0.022807235           15 
 1360000   0.69854837   -6.7002344    382.02597  0.023408454  0.022789239           26 
 1361000   0.71428476   -6.6991899    382.01556  0.023390617  0.022771217           13 
 1362000   0.73078532   -6.6952197    381.52249  0.023343275  0.022753224           20 
 1363000   0.72231188   -6.7144496    380.59021   0.02326915  0.022735263            8 
 1364000   0.70023445    -6.685068    382.54913   0.02337177  0.022717289           10 
 1365000   0.69916552   -6.6919653    381.19469  0.023271959  0.022699396           16 
 1366000   0.72661619   -6.6718321    382.66036  0.023344336  0.022681435           23 
 1367000   0.71051797   -6.7361457    381.69094  0.023268163  0.022663536           14 
 1368000   0.70669044   -6.7110259    382.92552   0.02332636    0.0226456           15 
 1369000    0.7017487   -6.7179547    381.56202  0.023226322  0.022627688            9 
 1370000   0.70311185   -6.7084236    383.13719  0.023305182  0.022609736           13 
 1371000   0.71112032   -6.7173384    381.70486  0.023201122  0.022591832           13 
 1372000   0.69426937   -6.7301267    381.55657  0.023175204  0.022573804           16 
 1373000   0.70278984   -6.7285888    381.69985  0.023167022  0.022555782            9 
 1374000   0.70879342   -6.7145033    382.43719  0.023194881  0.022537755           22 
 1375000   0.71124695   -6.7314877    381.58218  0.023126193  0.022519741           22 
 1376000   0.70207779   -6.7219332    381.90749  0.023129087  0.022501751           53 
 1377000   0.70993116   -6.7364394    381.06493  0.023061301   0.02248374           20 
 1378000    0.6925012    -6.744749    382.08395  0.023106189  0.022465712           37 
 1379000   0.70447364   -6.7176982    382.41979  0.023109729  0.022447724           38 
 1380000   0.70613835   -6.7160487    381.62501  0.023044988  0.022429781           20 
 1381000   0.71211935   -6.7091034    382.34293  0.023071623  0.022411965           34 
 1382000   0.69874026   -6.7250163    382.51272  0.023065166  0.022394069           12 
 1383000   0.71363243   -6.7121522    382.24971  0.023032641  0.022376316           25 
 1384000   0.70489914   -6.7183521    382.26374  0.023016844  0.022358591           18 
 1385000   0.69170268   -6.7223423    382.67963  0.023025249  0.022340859           21 
 1386000   0.71790793   -6.7247735    382.98847  0.023027205  0.022323134           19 
 1387000   0.68699347   -6.7003522    382.55259  0.022984414  0.022305392           10 
 1388000   0.70669689   -6.7301912    382.25441  0.022949952   0.02228762           27 
 1389000   0.70376902   -6.7358412    382.49312  0.022947751  0.022269863           13 
 1390000   0.68184091   -6.6879419    382.63282  0.022939617  0.022252203           23 
 1391000   0.70703357   -6.7386946    382.52609  0.022916732  0.022234498           10 
 1392000   0.69648144   -6.7341593    381.65988  0.022848413  0.022216698           34 
 1393000   0.69643998   -6.7531138    381.67315  0.022832804  0.022198886           19 
 1394000   0.68882443   -6.7632163    381.91483  0.022830872   0.02218102           40 
 1395000   0.70592852   -6.7329212    381.57869  0.022794426  0.022163237           20 
 1396000   0.69566853   -6.7451382    382.12707  0.022810833  0.022145441           16 
 1397000   0.69078857   -6.7439308    382.05159  0.022790002  0.022127641           15 
 1398000   0.69143323   -6.7565704    382.05405  0.022773846  0.022109763           34 
 1399000   0.68829975   -6.7435608    381.43799  0.022720872  0.022091974           36 
 1400000   0.69899883   -6.7623336    381.76708  0.022724231  0.022074081            6 
 1401000   0.69163175   -6.7769148    381.46813  0.022690229  0.022056171           16 
 1402000    0.7023383   -6.7608724    382.06706  0.022709644  0.022038246           11 
 1403000   0.70403781   -6.7766931    381.29604  0.022647662  0.022020365           23 
 1404000   0.68990017   -6.7733825    381.45451  0.022640937  0.022002537            8 
 1405000   0.69104417   -6.7677758    380.59433  0.022573804  0.021984709           19 
 1406000    0.6889638   -6.7662656    381.73292  0.022625232  0.021966994           15 
 1407000   0.70246263   -6.7627757    381.82856  0.022614816  0.021949262           13 
 1408000   0.69056396   -6.7853635    381.04501   0.02255238  0.021931498           22 
 1409000   0.66338439   -6.7436622    382.28533  0.022609731   0.02191379           29 
 1410000   0.69809952   -6.7611017    380.97051  0.022515987  0.021896106           17 
 1411000   0.69086437   -6.7492549    381.61865  0.022538309  0.021878379           16 
 1412000    0.6838427   -6.7493629    381.55782  0.022518757  0.021860719           11 
 1413000   0.68019698   -6.7743779    381.49463  0.022499094  0.021843083           16 
 1414000   0.69642257   -6.7445111    382.08143  0.022517765  0.021825395           12 
 1415000   0.68997851   -6.7783404     382.0793  0.022501726  0.021807772           10 
 1416000   0.69288044   -6.7845609    381.97375  0.022479623   0.02179015           13 
 1417000   0.66590884   -6.7604448    381.61362  0.022442579  0.021772513           25 
 1418000   0.67058261   -6.7635532    382.22459  0.022462658  0.021754974           10 
 1419000   0.68240898   -6.7750164    381.70037  0.022416042  0.021737434           12 
 1420000   0.69353955   -6.7808208     381.6113  0.022395029  0.021719861           20 
 1421000   0.68308133   -6.7642547    381.41319  0.022367651   0.02170239           20 
 1422000   0.69523095   -6.7746334    382.61408  0.022422297  0.021684934           24 
 1423000   0.68583063   -6.7759073    382.44092    0.0223964  0.021667513           16 
 1424000   0.70309173   -6.7818711     382.6328  0.022391901  0.021650055           27 
 1425000   0.67960939   -6.7892157    382.16584   0.02234888  0.021632638           11 
 1426000   0.69112226   -6.7892554     382.2068  0.022335601  0.021615253           21 
 1427000   0.69253271   -6.7807997    382.84316  0.022357111  0.021597886           18 
 1428000   0.67730928   -6.7716457    382.98505  0.022349734  0.021580501           13 
 1429000   0.68760846   -6.7811707    381.75053  0.022262102  0.021563119           23 
 1430000   0.68228298   -6.7813753    382.01708  0.022262068  0.021545763           14 
 1431000    0.6803497   -6.7670165    382.23724  0.022259332   0.02152845           22 
 1432000   0.67909989   -6.7707687    382.63337   0.02226684  0.021511151           19 
 1433000   0.68312401   -6.7779922    382.92485  0.022268251  0.021493868           12 
 1434000   0.66751162   -6.7920922    382.75738   0.02224299  0.021476562           11 
 1435000   0.66603866   -6.7817445    382.48742  0.022211813  0.021459285           17 
 1436000     0.682806   -6.7823783    381.68866  0.022149992  0.021442048           16 
 1437000   0.67262768   -6.7779333      383.236   0.02222431  0.021424797            9 
 1438000   0.66346215   -6.7964387    382.38558  0.022159573  0.021407582           25 
 1439000   0.68060139   -6.7835437    382.46061  0.022148518  0.021390298           12 
 1440000   0.66492638   -6.7889278    382.24778   0.02212082  0.021373069            8 
 1441000   0.67917854   -6.7794548    383.16296  0.022158395  0.021355873           13 
 1442000   0.68664047   -6.7794887    382.33667  0.022095277  0.021338621           21 
 1443000   0.68158024   -6.7750071    382.67048  0.022099242  0.021321403           23 
 1444000   0.67211421   -6.7752807    382.67911  0.022084436  0.021304224           22 
 1445000   0.67247397   -6.8117219    382.73736  0.022072512  0.021287034           23 
 1446000   0.67971024   -6.8101005    380.96452  0.021955078  0.021269774           22 
 1447000   0.67000615   -6.7701011    382.82893  0.022047278  0.021252502           16 
 1448000   0.69120636   -6.7970359    382.04122  0.021986718  0.021235294           21 
 1449000   0.68370243   -6.8051003    382.44963  0.021995033  0.021218031           10 
 1450000   0.66808721   -6.8153924    382.24218  0.021967942  0.021200834           26 
 1451000   0.68808905   -6.7753484    382.74781   0.02198184   0.02118364           17 
 1452000   0.67569269   -6.8049058     382.4785  0.021951245  0.021166512           20 
 1453000   0.67003694   -6.8184761    381.78654  0.021896452   0.02114935           45 
 1454000   0.68407765    -6.765472     381.5627  0.021868563  0.021132278           23 
 1455000   0.66452413    -6.790938    382.38721  0.021900757  0.021115226           58 
 1456000   0.67143103   -6.7999848    382.95475  0.021918197  0.021098112           15 
 1457000    0.6681362    -6.789131     382.4263   0.02187293  0.021081079           29 
 1458000    0.6897001   -6.8162769     382.1053  0.021839581  0.021064011           17 
 1459000   0.68758719   -6.7976436    382.92292  0.021871311   0.02104697           26 
 1460000   0.68013388    -6.811066    383.23242  0.021873997  0.021029982           19 
 1461000   0.67716233   -6.8105417    382.07673  0.021793106  0.021012942           23 
 1462000    0.6641536   -6.8225923    382.05516   0.02177697  0.020995868           14 
 1463000   0.65803375   -6.8098735     381.5828  0.021735179  0.020978764           26 
 1464000   0.65733572   -6.8371281    382.21714   0.02175644  0.020961684           14 
 1465000   0.65950687   -6.7959662    382.45031  0.021754853  0.020944697           31 
 1466000   0.66456759   -6.8094585    382.18467  0.021724913   0.02092773           40 
 1467000   0.66338057   -6.8202538     382.5167  0.021728965  0.020910736           17 
 1468000   0.68190229    -6.802337    382.78334  0.021729299  0.020893749           15 
 1469000   0.66968366   -6.8155797    383.31029    0.0217444  0.020876831           31 
 1470000   0.66478922   -6.8174762    382.90066  0.021706387  0.020859895           30 
 1471000   0.66846426   -6.8249185     382.8619  0.021689435  0.020842953           31 
 1472000   0.66537899   -6.8254325    383.04598  0.021685121   0.02082597           13 
 1473000    0.6708588   -6.8480666    381.97203  0.021609642  0.020809014           22 
 1474000   0.66848435   -6.8287608    381.89717  0.021590749  0.020791988           17 
 1475000   0.66421394   -6.8117136    381.83925  0.021572839  0.020775025           19 
 1476000   0.64503148    -6.844279    382.07549  0.021571561  0.020758111           32 
 1477000   0.66167944   -6.8238275    382.09656  0.021558145  0.020741193           20 
 1478000   0.65674791   -6.8464473    382.56768  0.021570122  0.020724342           32 
 1479000   0.66448076   -6.8271187    382.92559  0.021575704  0.020707499           29 
 1480000   0.66725024   -6.8212624    381.64466  0.021489001  0.020690641           69 
 1481000   0.65335717   -6.8166156    381.98021  0.021493372  0.020673824           33 
 1482000   0.66662221   -6.8165499    382.60458  0.021513978  0.020657084           21 
 1483000   0.66081631     -6.81311    382.40577  0.021488299  0.020640338           30 
 1484000   0.65377066   -6.8160234    383.03553  0.021509183  0.020623576           20 
 1485000   0.65767775   -6.8307595    382.77277  0.021479953  0.020606848           25 
 1486000   0.66933067   -6.8410448    382.44709  0.021447235  0.020590191           14 
 1487000   0.65730597    -6.852333    382.59283  0.021440979  0.020573456           19 
 1488000   0.65711744   -6.8238599    382.81009  0.021438737  0.020556732           16 
 1489000   0.65572836    -6.853405    381.95312  0.021376378  0.020540008           19 
 1490000   0.65119202   -6.8773154    382.66347   0.02140176   0.02052331           20 
 1491000   0.65710045   -6.8517851    382.00918  0.021350837  0.020506542           23 
 1492000   0.64758494   -6.8482942    381.90002   0.02133043  0.020489815           31 
 1493000   0.67548891   -6.8446953    382.80768  0.021366805  0.020473131           17 
 1494000   0.66121609    -6.852802    381.43162  0.021275749  0.020456477           31 
 1495000   0.67355056   -6.8354509     382.9052  0.021343657  0.020439865           29 
 1496000   0.65327365   -6.8425403    382.41341  0.021301995  0.020423266           12 
 1497000    0.6578503   -6.8471397    382.83035  0.021310975  0.020406607           21 
 1498000   0.66178838   -6.8324121    383.01496  0.021307018  0.020389989           18 
 1499000   0.67682066   -6.8587758    382.12727  0.021243455  0.020373417           39 
 1500000   0.66222094   -6.8744062    381.79062   0.02121059  0.020356755           15 
 1501000   0.64970196   -6.8693181    382.98779  0.021262924    0.0203401           26 
 1502000   0.66274736   -6.8614572    382.52105  0.021222872  0.020323443           26 
 1503000   0.64974648   -6.8329891     383.4359  0.021259476  0.020306879           24 
 1504000   0.66757393   -6.8592633    382.92798  0.021217197  0.020290318           18 
 1505000   0.65169514   -6.8460091     382.5806  0.021183865  0.020273765           33 
 1506000   0.65586329   -6.8589011    381.17705  0.021092134  0.020257247           16 
 1507000   0.65703825   -6.8849876    382.38106  0.021144717   0.02024069           75 
 1508000   0.65203098   -6.8814341    382.59601  0.021142573  0.020224182           32 
 1509000   0.64532291   -6.8437905    382.07397  0.021099734  0.020207684           52 
 1510000    0.6532022    -6.879945    383.36492  0.021157004  0.020191228           26 
 1511000    0.6594495   -6.8660769    382.71152  0.021106966  0.020174784           31 
 1512000   0.64887147   -6.8567718    382.91196  0.021104054  0.020158317           31 
 1513000   0.63973468     -6.85053    383.39766  0.021116857  0.020141832           35 
 1514000   0.63886978   -6.8489976    381.89432  0.021020163  0.020125372           19 
 1515000   0.62633571   -6.8657435    382.51262  0.021040298  0.020108918           30 
 1516000   0.64959382   -6.8670772    383.25929  0.021067463  0.020092449           32 
 1517000   0.65567511   -6.8752304    383.09406  0.021044499  0.020076026           16 
 1518000   0.63579103    -6.882556    382.28487  0.020986214  0.020059621           14 
 1519000   0.64422157   -6.8845912    381.76626  0.020943947  0.020043175           24 
 1520000   0.66792901   -6.8680718    383.09688  0.021003118  0.020026732           35 
 1521000   0.64359328   -6.8848036    382.32819  0.020947194  0.020010316           77 
 1522000   0.65109328    -6.885384    382.04603  0.020917982  0.019993943           21 
 1523000   0.64830279    -6.903565    381.61206  0.020880503  0.019977546           49 
 1524000   0.64542997   -6.8877283    382.39285  0.020909495   0.01996117           81 
 1525000   0.63573012   -6.8714838    382.15865  0.020882987   0.01994488           67 
 1526000   0.64920079   -6.8808562    381.51738  0.020834282  0.019928536           25 
 1527000   0.64026056   -6.9066405    382.01492  0.020847791  0.019912216           35 
 1528000   0.64685548   -6.9086272    382.00784  0.020833761  0.019895922           57 
 1529000   0.64215077   -6.8905083    382.52884   0.02084853  0.019879595           25 
 1530000   0.63952949   -6.8982508    381.05525  0.020754643  0.019863293           23 
 1531000   0.65257731   -6.9043889    381.42356  0.020761135  0.019846983           30 
 1532000   0.62774274   -6.9081494    382.64192  0.020813856  0.019830689           23 
 1533000   0.63578663   -6.9041126    381.86548  0.020758071  0.019814391           28 
 1534000   0.64027049   -6.9126841    382.12047  0.020758391  0.019798126           25 
 1535000   0.64537878   -6.8929983    382.21768  0.020750145  0.019781924           35 
 1536000   0.65364652   -6.8947506    381.91697  0.020720321  0.019765702           26 
 1537000   0.64638154   -6.8773113    382.66739  0.020747527  0.019749483           31 
 1538000      0.63006   -6.8859862    382.97318  0.020750606  0.019733306           43 
 1539000   0.63730524   -6.9163514    382.66954  0.020720681  0.019717148           25 
 1540000   0.64638392   -6.8810772    382.45544  0.020695641  0.019700992           76 
 1541000   0.65106068   -6.9078995    381.64418   0.02063834  0.019684875           42 
 1542000   0.62596628   -6.9189777    381.76015  0.020631223  0.019668728           86 
 1543000   0.63630185   -6.9204873    380.93978  0.020573546  0.019652564           51 
 1544000   0.63343828   -6.9224172    381.92644  0.020613474  0.019636426           60 
 1545000   0.62202461   -6.9153063    380.53937  0.020525317   0.01962022           28 
 1546000   0.64286477   -6.9286778    381.86081  0.020583269  0.019604035           47 
 1547000   0.63511073   -6.9219991    381.03466  0.020525461  0.019587845           22 
 1548000   0.63904221   -6.9289006     381.6218  0.020543809   0.01957171           21 
 1549000    0.6272356   -6.9319629    382.22687  0.020563098  0.019555603           33 
 1550000   0.64207182   -6.9296515    381.64125  0.020518347  0.019539548           30 
 1551000   0.63290307   -6.9451291    382.20607  0.020535465  0.019523489           38 
 1552000    0.6287784   -6.9266062    381.22913  0.020469777   0.01950744           31 
 1553000   0.64012544   -6.8946292    382.11638  0.020504206  0.019491399           48 
 1554000   0.62450646   -6.9172052    381.90104  0.020479464  0.019475355           31 
 1555000   0.63969741   -6.9396944    382.44262  0.020495317   0.01945936           49 
 1556000   0.62551999   -6.9357197    382.35281  0.020477335   0.01944335           33 
 1557000   0.63589691   -6.9293235    382.10457  0.020450898  0.019427378           19 
 1558000   0.62996759   -6.9236319    382.17708  0.020441649  0.019411403           20 
 1559000   0.62817552   -6.9446915    381.15655  0.020373987  0.019395415           28 
 1560000    0.6463083   -6.9248382    381.99398  0.020405662  0.019379452           30 
 1561000   0.63671641   -6.9415498    380.94714  0.020336704  0.019363464           25 
 1562000   0.62672019   -6.9483676    382.28859  0.020395251  0.019347476           40 
 1563000   0.61702371   -6.9270551    381.77931  0.020355049  0.019331558           27 
 1564000   0.63046043   -6.9478497    380.86959  0.020293563  0.019315644           47 
 1565000   0.62803998    -6.936326    382.34097  0.020358944  0.019299703           50 
 1566000   0.62312193   -6.9456401    381.67028  0.020310253  0.019283817           18 
 1567000   0.63832095   -6.9284738    381.77769  0.020303004   0.01926797           28 
 1568000   0.60816562   -6.9279428    382.12372  0.020308446   0.01925209           46 
 1569000   0.63881548   -6.9239289    382.75613  0.020329091  0.019236193           31 
 1570000   0.62651995   -6.9541078    381.64768  0.020257308   0.01922032           53 
 1571000   0.61828816   -6.9376876    381.62631   0.02024328  0.019204464           40 
 1572000   0.62466152   -6.9535917     381.9507  0.020247599  0.019188661           26 
 1573000    0.6412737    -6.935615    382.38225  0.020257589  0.019172856           32 
 1574000   0.63058981   -6.9341424    382.26716  0.020238626  0.019157107           84 
 1575000   0.62720947   -6.9342467    382.68596  0.020247934  0.019141403           39 
 1576000   0.61241478   -6.9414473    382.12426  0.020205386  0.019125723           24 
 1577000   0.63325984   -6.9234043    382.21555  0.020197398  0.019110049           20 
 1578000   0.61668196   -6.9183192    382.21024  0.020184318  0.019094358           17 
 1579000   0.62824652   -6.9477409    382.02567  0.020161794  0.019078692           16 
 1580000   0.61887938   -6.9081182    382.14763  0.020155465  0.019063046           31 
 1581000   0.62471918   -6.9297137    382.11978  0.020141249  0.019047403           50 
 1582000   0.61518802    -6.950193    382.48546   0.02014778   0.01903177           14 
 1583000   0.61134874   -6.9224331    382.40915  0.020131036  0.019016168           28 
 1584000   0.62503247   -6.9484167     381.5159  0.020071333  0.019000575           31 
 1585000   0.61831598   -6.9253431    381.87733  0.020077672  0.018984993           22 
 1586000   0.62511262    -6.938031    382.53149  0.020099385   0.01896945           47 
 1587000   0.62718177   -6.9346362     380.9833  0.020005424  0.018953867           38 
 1588000   0.63125206   -6.9261201    382.01572  0.020047005  0.018938336           27 
 1589000   0.61874982   -6.9247433     382.6049  0.020065288  0.018922822           20 
 1590000    0.6332515   -6.9371104    382.19998  0.020031445  0.018907306           12 
 1591000   0.63409298   -6.9343858    381.89601  0.020002934  0.018891807           15 
 1592000   0.60376795   -6.9483164    381.96708  0.019994089  0.018876372           30 
 1593000   0.61673941   -6.9721245    381.49867  0.019957034  0.018860857           27 
 1594000   0.61290528   -6.9388524    381.96125  0.019968698  0.018845337           12 
 1595000   0.59031337   -6.9829433    381.29659  0.019921452  0.018829829           21 
 1596000   0.61352435   -6.9462493    382.11636  0.019951773  0.018814352           12 
 1597000   0.63132235    -6.981332     382.0628  0.019936485  0.018798888           25 
 1598000   0.60689262   -6.9725888    382.12011  0.019926998  0.018783484           41 
 1599000   0.61106545   -6.9507292    382.33218  0.019925588  0.018768077           33 
 1600000   0.62248154   -6.9655044    381.89254  0.019890237  0.018752702           13 
 1601000   0.61438828   -6.9706603    381.54998  0.019859982  0.018737335           16 
 1602000   0.60768266   -6.9823646    382.67078  0.019905887  0.018721962           25 
 1603000   0.61480941   -6.9671836    382.40226   0.01987951  0.018706569           32 
 1604000   0.61175849   -6.9740331    382.52601  0.019873546  0.018691201           17 
 1605000   0.59313862   -6.9833611    381.86498  0.019826842  0.018675818           23 
 1606000   0.61836471   -6.9930415    381.85686  0.019814075  0.018660491           64 
 1607000   0.61377166    -6.942144    382.55414  0.019837904  0.018645202           17 
 1608000   0.60363445   -6.9650791    382.04198  0.019799025  0.018629974           30 
 1609000    0.5908566   -6.9700901     382.4525  0.019807981  0.018614778           41 
 1610000   0.59856832   -6.9619684    382.06874  0.019775815  0.018599562           18 
 1611000   0.59917653   -6.9395209    382.25489  0.019773168   0.01858434           18 
 1612000   0.59342526   -6.9687828    382.26497  0.019761423  0.018569121           34 
 1613000   0.61746331   -6.9732223    381.58242  0.019713909  0.018553891           19 
 1614000   0.60047532   -6.9735179    382.62143   0.01975534  0.018538695           44 
 1615000   0.60608544   -6.9808766     381.9643    0.0197092  0.018523495           47 
 1616000   0.60615861   -6.9696474    382.15701  0.019706941  0.018508289           60 
 1617000   0.60942961    -6.994727    382.51098  0.019712996   0.01849311           21 
 1618000   0.61036645   -6.9819393    382.46979  0.019698691  0.018477935           28 
 1619000   0.60446258   -7.0092626    381.93051  0.019658766  0.018462799           32 
 1620000   0.61352622   -6.9739267    381.91218  0.019645688  0.018447733           32 
 1621000   0.62151061    -6.975578    383.07099  0.019693141  0.018432688          120 
 1622000   0.60366972   -6.9942244    381.86218  0.019618895  0.018417653          164 
 1623000   0.59289858   -6.9912356    382.14036   0.01962109  0.018402571           83 
 1624000   0.58516251   -6.9778167    382.10802  0.019607349  0.018387537           87 
 1625000   0.61193428   -7.0062464    382.28361  0.019604288  0.018372454           95 
 1626000   0.61584992   -7.0136149    382.18033  0.019586938  0.018357398           68 
 1627000   0.60185277   -7.0252439    381.75249  0.019552986  0.018342375          125 
 1628000   0.60916958    -7.008924    381.23395  0.019514432  0.018327316           74 
 1629000   0.60587786   -7.0067029     381.9864  0.019540946  0.018312315           91 
 1630000   0.60977777   -7.0191193    381.31289  0.019494524  0.018297294           68 
 1631000   0.59421017   -7.0076525    381.59406  0.019496937  0.018282273           65 
 1632000   0.58723343   -7.0403251    381.27223  0.019468557  0.018267265          100 
 1633000   0.60079862   -7.0163222    381.82298  0.019484741  0.018252287           52 
 1634000   0.58883886   -7.0184682    381.54108  0.019458439    0.0182373           78 
 1635000    0.6062907   -7.0049193    380.73561  0.019405485  0.018222286           95 
 1636000   0.59833069   -7.0137726    382.05299  0.019460727  0.018207283          101 
 1637000   0.59964418    -7.009642    381.35418  0.019413265  0.018192358          152 
 1638000   0.59865806   -7.0220581    381.89699  0.019429029  0.018177452           97 
 1639000   0.59778016   -7.0019355    382.20044  0.019432603  0.018162569           38 
 1640000   0.58760565   -7.0057731    382.12911  0.019417129  0.018147682           32 
 1641000   0.58927281   -7.0059492    382.16237  0.019406986  0.018132804           70 
 1642000   0.59829643    -7.037402    381.34405  0.019353636  0.018117954           33 
 1643000   0.59596219   -7.0210929    381.83753  0.019366886   0.01810308           52 
 1644000   0.59102586   -7.0152098    381.91372  0.019358968  0.018088218           30 
 1645000   0.58940815   -7.0115334    380.79178  0.019290364  0.018073344           67 
 1646000   0.60077678   -7.0239847    381.33272  0.019306031  0.018058478           69 
 1647000   0.61466144   -7.0326525    381.67164  0.019311457  0.018043643          135 
 1648000   0.59994476    -7.034768    381.24084  0.019277955   0.01802878           93 
 1649000   0.59477208    -7.046522    381.19854  0.019264127  0.018013948          202 
 1650000   0.60400311   -7.0266752    382.13293  0.019299643  0.017999164           86 
 1651000   0.59523819    -7.024926    381.34109  0.019247986  0.017984398          134 
 1652000   0.60161883   -7.0284166    381.05991   0.01922215  0.017969608          120 
 1653000   0.58728978   -7.0255064    381.28325  0.019221781  0.017954841          155 
 1654000   0.59326209   -7.0347046    382.21129  0.019256917  0.017940086          193 
 1655000   0.59971369   -7.0257054    381.94429  0.019231837  0.017925339          184 
 1656000   0.59210167   -7.0191301    381.28081  0.019186836   0.01791059           90 
 1657000   0.59028698   -7.0372558    381.12684  0.019167513  0.017895855          167 
 1658000   0.58182262   -7.0380987    381.31227  0.019165273  0.017881124          111 
 1659000   0.59064466   -7.0180278    381.47938  0.019162115  0.017866438          133 
 1660000   0.59810799    -7.044968    381.46683  0.019149941  0.017851785          131 
 1661000   0.58328054   -7.0197711    381.67889  0.019149052  0.017837121           82 
 1662000   0.59068909   -7.0400046    381.30415   0.01911874  0.017822454           88 
 1663000   0.58649831   -7.0423028    381.63882  0.019124014  0.017807785          144 
 1664000   0.58540519   -7.0543838    380.63353  0.019062176   0.01779313           78 
 1665000   0.59512313   -7.0538732    381.38802  0.019088489  0.017778486          112 
 1666000   0.59310634   -7.0364096    380.84191  0.019049715  0.017763835          171 
 1667000   0.59641777   -7.0544093    381.67662  0.019080015  0.017749197          194 
 1668000   0.59307445   -7.0644101    379.72952  0.018971299  0.017734552          144 
 1669000   0.59616651   -7.0595913    380.88879  0.019017815  0.017719916          200 
 1670000   0.58425673   -7.0849516    381.55672  0.019039757  0.017705276          109 
 1671000   0.58554451   -7.0616726    381.91842    0.0190464  0.017690672          175 
 1672000   0.58337815   -7.0609777    380.93839  0.018986164   0.01767609          226 
 1673000    0.5852822   -7.0766739    380.49638  0.018952798  0.017661529          194 
 1674000   0.58670916    -7.067209    381.51634  0.018992251  0.017646954          153 
 1675000   0.58636634    -7.067462    381.39679  0.018974965  0.017632423          255 
 1676000   0.58203912   -7.0642247    381.34767  0.018961201  0.017617904          161 
 1677000   0.58561502   -7.0761433    380.81908  0.018923627  0.017603399          283 
 1678000   0.59048398    -7.059316    381.25099    0.0189338  0.017588885          390 
 1679000   0.58121154   -7.0690819    380.81335  0.018900802  0.017574422          278 
 1680000   0.58532488   -7.0486026    380.95584  0.018896619  0.017559954          342 
 1681000   0.57095709   -7.0560655    381.17158  0.018896073  0.017545486          335 
 1682000    0.5748758   -7.0509604    381.15616  0.018884075  0.017531059          296 
 1683000   0.58342268    -7.055416    381.15458  0.018872776  0.017516628          166 
 1684000   0.58146071   -7.0681024    380.67216  0.018837696  0.017502202          114 
 1685000    0.5847985   -7.0854144    381.33003  0.018859052   0.01748778          127 
 1686000   0.58180996   -7.0779568    380.48588  0.018806143  0.017473392          288 
 1687000   0.58671676   -7.0651671    381.32177  0.018836286   0.01745899          192 
 1688000   0.57506765   -7.0721169    380.55519  0.018787282  0.017444578          230 
 1689000   0.58656738   -7.0798786    380.74694   0.01878562  0.017430181          327 
 1690000    0.5778669   -7.0716089    381.05853  0.018789868  0.017415832          351 
 1691000   0.57074711   -7.0737282    381.23677   0.01878754  0.017401483          362 
 1692000   0.58346498   -7.0737778    381.21681  0.018775454  0.017387176          276 
 1693000   0.56495372   -7.0694694    380.75632  0.018741697  0.017372868          171 
 1694000   0.56940712    -7.066022    380.53886  0.018719936  0.017358567          409 
 1695000   0.56326081   -7.0812851    380.26375  0.018695366   0.01734427          493 
 1696000   0.57396463    -7.075189    380.39833  0.018690956  0.017329964          371 
 1697000   0.56785179   -7.0811174    380.64508  0.018692059  0.017315707          403 
 1698000   0.57392329   -7.0804839    380.95505  0.018696263  0.017301417          300 
 1699000   0.57331775   -7.0886085    379.92761  0.018634864  0.017287098          199 
 1700000   0.59477844   -7.1069569     380.3398  0.018644108  0.017272825          182 
 1701000   0.57356658   -7.0909961    380.05943  0.018619411  0.017258542          327 
 1702000   0.58449081   -7.0824117    380.91863   0.01865054  0.017244275          266 
 1703000   0.58085004   -7.0760539    380.97623  0.018642407   0.01723002          171 
 1704000   0.57564262   -7.0807707    380.38899  0.018602748  0.017215777          234 
 1705000   0.57658767   -7.0975579    380.16778  0.018581025  0.017201539          265 
 1706000   0.56925896   -7.1048363    380.39335  0.018581152    0.0171873          214 
 1707000   0.57293884    -7.098007    380.14731  0.018558256  0.017173064          298 
 1708000     0.564111    -7.105176    380.35268   0.01855741  0.017158822          209 
 1709000   0.57151323   -7.1082735    379.96895   0.01852784  0.017144594          455 
 1710000   0.54990409   -7.0925998     380.5136  0.018543548  0.017130389          330 
 1711000   0.57907692   -7.0889784    380.07414  0.018511306  0.017116209          452 
 1712000   0.56576556   -7.1168434    379.64569  0.018479638  0.017102032          365 
 1713000   0.58276878   -7.0962887    380.20758  0.018496185  0.017087869          362 
 1714000   0.56055795   -7.0845941    380.03654  0.018477078  0.017073738          382 
 1715000   0.57785711    -7.100634    380.59623    0.0184935  0.017059636          393 
 1716000   0.56109505   -7.1184301    380.99477  0.018502077  0.017045547          222 
 1717000   0.55667253   -7.1129018    380.12702  0.018449185  0.017031465          358 
 1718000   0.56274936   -7.1023992    381.23858  0.018492364  0.017017392          322 
 1719000   0.56651015   -7.1197333    380.25756  0.018434049  0.017003342          477 
 1720000   0.57949841   -7.0963721    380.28498   0.01842466  0.016989308          231 
 1721000   0.56256854   -7.1136484    380.42209  0.018420593  0.016975241          454 
 1722000   0.57293971   -7.1151325    379.90406  0.018384827  0.016961186          425 
 1723000   0.56529639   -7.1317497    380.43187  0.018399684  0.016947161          430 
 1724000   0.57773094   -7.1063608    379.39553  0.018338918  0.016933115          267 
 1725000   0.55697065    -7.115402    379.82363  0.018348968  0.016919064          507 
 1726000   0.56811838    -7.131533    380.30288  0.018361475  0.016905028          493 
 1727000    0.5648811   -7.1486819    379.12166  0.018293846  0.016891008          533 
 1728000    0.5534957   -7.1330567    378.90573  0.018272846  0.016876992          516 
 1729000   0.57738159   -7.0956084     379.7931  0.018305046  0.016862995          586 
 1730000   0.55709197   -7.1191622    379.09569  0.018260871  0.016849003          560 
 1731000   0.56445166   -7.1309956    379.67717  0.018278315  0.016835018          572 
 1732000    0.5594171   -7.1305616    380.03142  0.018284807  0.016821068          578 
 1733000   0.55607722    -7.132501    379.71593  0.018259085  0.016807111          680 
 1734000    0.5648797   -7.1260624    379.32078  0.018229565  0.016793157          649 
 1735000   0.55055759   -7.1278316    380.01681  0.018252488  0.016779242          543 
 1736000    0.5622052   -7.1110356    379.44701  0.018214622  0.016765338          614 
 1737000   0.55407377   -7.1128033    380.20856  0.018240672  0.016751457          690 
 1738000   0.53873415   -7.1449914    379.47113  0.018194818  0.016737576          685 
 1739000   0.55831951   -7.1420648    379.86671  0.018203312  0.016723676          708 
 1740000   0.56074774   -7.1488131     379.3182  0.018166581  0.016709807          741 
 1741000   0.55763886   -7.1406241    379.23212  0.018152026   0.01669593          693 
 1742000   0.55311718    -7.122071    379.13595  0.018137005  0.016682091          651 
 1743000   0.55749827   -7.1376374    379.66485  0.018151886  0.016668248          627 
 1744000   0.56412748   -7.1498995    379.39486  0.018128577  0.016654398          800 
 1745000   0.56637329   -7.1409553    379.24067  0.018110825  0.016640564          616 
 1746000   0.55980556   -7.1618415    379.51293  0.018113447  0.016626762          720 
 1747000   0.55875402   -7.1459664    379.42479  0.018098874  0.016612968          655 
 1748000   0.54798211   -7.1553853    378.69686  0.018053817   0.01659915          660 
 1749000   0.54593955   -7.1523335    378.73323  0.018045227  0.016585334          785 
 1750000   0.54352481   -7.1531329    378.89032  0.018042396  0.016571524          740 
 1751000   0.55751256   -7.1772544    379.32338  0.018052702  0.016557737          726 
 1752000   0.54720771   -7.1569948     379.0479  0.018029295  0.016543974          770 
 1753000     0.556303   -7.1560335    379.08943  0.018020985  0.016530208          621 
 1754000   0.54558289   -7.1519227    379.27818  0.018019678  0.016516488          550 
 1755000   0.57203224   -7.1731749    379.40788  0.018015569   0.01650279          711 
 1756000   0.55823892   -7.1574281    378.82173  0.017977493  0.016489069          685 
 1757000   0.54908028   -7.1682188    379.00388    0.0179759  0.016475391          642 
 1758000   0.53952388   -7.1654079    378.91087  0.017961266  0.016461722          664 
 1759000   0.54541359   -7.1629375    379.22482  0.017965929  0.016448066          568 
 1760000   0.55188791   -7.1599118    378.76083  0.017933752  0.016434429          580 
 1761000   0.55699856   -7.1565853    379.46384  0.017956835  0.016420798          631 
 1762000    0.5494831   -7.1619119    379.19533  0.017933945  0.016407192          668 
 1763000   0.54832485    -7.168336     378.8636  0.017908092  0.016393585          700 
 1764000   0.55821612   -7.1870453    378.12526   0.01786306   0.01637998          747 
 1765000   0.55403708   -7.1841122    378.98145  0.017893364  0.016366368          708 
 1766000   0.55051248   -7.1732005    378.71812  0.017870806  0.016352799          686 
 1767000   0.54347338   -7.1719021    378.84072  0.017866474  0.016339231          675 
 1768000   0.54139351    -7.179373    378.32753   0.01783218  0.016325652          716 
 1769000   0.53279845   -7.1651606    378.58867  0.017834401  0.016312089          619 
 1770000   0.55494373   -7.1569109    379.14959  0.017850734  0.016298539          562 
 1771000   0.54646011   -7.1848871    378.77407  0.017822985   0.01628503          649 
 1772000   0.54472184   -7.1811166    379.11538  0.017828978  0.016271509          721 
 1773000   0.53550238   -7.1539526    378.95108    0.0178112  0.016257996          680 
 1774000   0.54021368   -7.1933274    378.78647  0.017793427  0.016244479          752 
 1775000   0.53647583    -7.167571    379.11987  0.017799055  0.016231001          731 
 1776000   0.54434478   -7.1814688    378.84942  0.017776343  0.016217516          698 
 1777000   0.54044571   -7.1698209    378.50345  0.017750115  0.016204046          622 
 1778000   0.55219746   -7.1666705     379.2387  0.017774592  0.016190614          789 
 1779000   0.55346442   -7.1625453    378.84198  0.017746017  0.016177219          701 
 1780000   0.54839001   -7.1831431     379.1931  0.017752486  0.016163818          750 
 1781000   0.54314838   -7.1904175     378.3998    0.0177054  0.016150409          653 
 1782000   0.55093047   -7.1803317    378.41289  0.017696076     0.016137          780 
 1783000   0.53902269   -7.1798186    378.32598  0.017682089  0.016123617          809 
 1784000   0.55513943   -7.1767505    378.65431  0.017687514  0.016110234          775 
 1785000   0.55227156   -7.1916906    378.41591  0.017666476  0.016096878          803 
 1786000   0.54515242   -7.1799257    378.86498  0.017677537  0.016083564          736 
 1787000   0.53672729   -7.1704503    378.52295  0.017651695  0.016070257          743 
 1788000   0.53616622   -7.1661899    378.83174  0.017656214  0.016056943          755 
 1789000   0.53341836   -7.1778679    378.52016  0.017631832  0.016043639          761 
 1790000   0.54086049   -7.1755734    378.38776  0.017615818  0.016030361          752 
 1791000   0.53983263   -7.2046367    378.18843  0.017596707  0.016017084          776 
 1792000   0.53205237   -7.1803806    378.27126  0.017590739  0.016003814          852 
 1793000    0.5541138   -7.1898096    378.57544  0.017595066  0.015990556          832 
 1794000   0.53848799   -7.1882841    378.53348  0.017583309  0.015977313          853 
 1795000   0.54178696    -7.192475    378.88705  0.017589928  0.015964075          829 
 1796000   0.53551298   -7.1767492    378.55694  0.017564817  0.015950877          832 
 1797000   0.54739413   -7.1800421    378.64375  0.017559068  0.015937669          776 
 1798000   0.52969447   -7.1955608     378.8241  0.017557661  0.015924476          742 
 1799000   0.53101257   -7.1763131    378.41638  0.017529015  0.015911326          771 
 1800000   0.52207833   -7.1797903    378.20967  0.017509707  0.015898167          782 
 1801000   0.52697403   -7.1819355    378.94396  0.017533961  0.015885027          764 
 1802000   0.53437263   -7.1917998    378.34965  0.017496747  0.015871887          896 
 1803000   0.52365618   -7.1961877    378.35654  0.017487361  0.015858765          854 
 1804000   0.53634519   -7.1768829    378.40292   0.01747981  0.015845658          829 
 1805000   0.53936887   -7.2103238    378.54892  0.017476866  0.015832553          824 
 1806000   0.54343882   -7.1769261    378.93108  0.017484823  0.015819476          933 
 1807000    0.5401048   -7.1833592    377.99882  0.017432154  0.015806417          875 
 1808000   0.54738821   -7.1949334    378.89815  0.017463963  0.015793363          902 
 1809000   0.52561223   -7.1926973      378.409  0.017431776  0.015780317          887 
 1810000   0.53359359   -7.1865936    378.12028  0.017408853  0.015767273          855 
 1811000   0.52502437   -7.1899657    378.39679  0.017411963  0.015754258          933 
 1812000   0.53795718   -7.2046042    378.52625  0.017408308  0.015741248          926 
 1813000   0.52662426   -7.1925994    378.73493  0.017408298  0.015728273          874 
 1814000   0.52852679   -7.1982789    378.84269  0.017403652  0.015715309          845 
 1815000   0.53303505   -7.2053705    378.25432  0.017367049  0.015702335          885 
 1816000   0.51963743   -7.2217255    377.98146  0.017344964  0.015689352          866 
 1817000   0.52430283   -7.2008457    378.60295  0.017363922  0.015676388          876 
 1818000   0.53263445    -7.220952     377.8848  0.017321452  0.015663471          863 
 1819000   0.53459332   -7.1925134     378.8498  0.017356139  0.015650531          883 
 1820000   0.52300789    -7.215285    378.44392  0.017328019  0.015637615          858 
 1821000    0.5284535   -7.2191902      378.437  0.017318186  0.015624696          844 
 1822000   0.52716999   -7.2011024    377.93841  0.017285877  0.015611781          864 
 1823000   0.51636849   -7.2034478    377.95718  0.017277253  0.015598892          864 
 1824000   0.52141518   -7.2122243    378.30311  0.017283585     0.015586          747 
 1825000   0.53778831    -7.206423    377.05374  0.017217066  0.015573109          816 
 1826000   0.53391133   -7.2087818    377.93957  0.017248063  0.015560248          843 
 1827000   0.51535036   -7.1990319    377.95096  0.017239143  0.015547375          871 
 1828000   0.51043939   -7.2082686    377.66336  0.017216601  0.015534503          902 
 1829000   0.52023748   -7.2088774    377.49588  0.017199557  0.015521678          918 
 1830000   0.52623075    -7.238781    377.83157  0.017205445  0.015508839          909 
 1831000   0.52624524   -7.2239586    377.59869  0.017185449  0.015496009          932 
 1832000   0.52622786   -7.2225836    377.85125  0.017187557  0.015483208          926 
 1833000   0.51619975   -7.2042544     379.1629  0.017237811  0.015470404          982 
 1834000   0.51629434   -7.2218516     378.0294  0.017176909  0.015457621          902 
 1835000   0.52828598   -7.2290888    377.51339  0.017144114  0.015444869          886 
 1836000   0.51469513   -7.2167074    378.20883  0.017166341  0.015432124          962 
 1837000   0.51721388   -7.2149989    377.97821  0.017146535  0.015419396          893 
 1838000   0.53782587   -7.2302618    377.99351    0.0171379  0.015406681          784 
 1839000   0.51821706   -7.2105899    378.32084  0.017143413   0.01539397          853 
 1840000   0.51753404   -7.2197055    377.94484  0.017117067  0.015381278          913 
 1841000   0.52874969   -7.2331031    377.81087  0.017101705  0.015368572          909 
 1842000   0.51372004   -7.2349862    377.88455  0.017095754   0.01535588          934 
 1843000   0.52110432   -7.2096945    377.56678   0.01707211  0.015343189          941 
 1844000   0.51138717   -7.2110817    377.94792  0.017080076  0.015330543         1015 
 1845000   0.52303763   -7.2141181    377.95327   0.01707106  0.015317916          923 
 1846000   0.52638578   -7.2400684    377.88017  0.017058512  0.015305285          871 
 1847000   0.51328027   -7.2217881    377.90983  0.017050615   0.01529267          855 
 1848000   0.51034209   -7.2429403     378.3131  0.017059573  0.015280078          905 
 1849000   0.51611678   -7.2267289    377.17651  0.016999122  0.015267495          818 
 1850000   0.51528871   -7.2507404    377.59491   0.01700878  0.015254899          877 
 1851000   0.51414294   -7.2470389    377.77496  0.017007697  0.015242335          868 
 1852000   0.50941825   -7.2428173    377.11256  0.016968708  0.015229764          946 
 1853000   0.50099854   -7.2293866    377.41145  0.016972992  0.015217224          898 
 1854000   0.51052114   -7.2346617    377.97206  0.016989036  0.015204683          886 
 1855000   0.50396161   -7.2607858    377.67074  0.016966341  0.015192161          932 
 1856000   0.51249418   -7.2246217    377.18074  0.016935198  0.015179642          844 
 1857000   0.50991299   -7.2315564      378.497  0.016985146  0.015167135          857 
 1858000   0.50541371   -7.2465331    376.92223  0.016905375   0.01515465          821 
 1859000   0.50532868   -7.2437084    377.38213  0.016916897  0.015142187          881 
 1860000   0.51414386   -7.2359908    377.54054  0.016914899  0.015129723          886 
 1861000    0.5120219   -7.2492985     377.0597  0.016884278  0.015117237          849 
 1862000    0.5081327   -7.2492849     377.6732  0.016902667  0.015104794          904 
 1863000   0.51190666   -7.2538361    376.93066   0.01686038  0.015092353          789 
 1864000   0.49847259    -7.237654    377.71325  0.016886322   0.01507992          773 
 1865000   0.51581018    -7.247902    376.69724   0.01683187  0.015067496          913 
 1866000   0.51262388   -7.2528074    376.93416   0.01683343  0.015055081          925 
 1867000   0.50278196   -7.2700385    377.38576  0.016844571  0.015042667          959 
 1868000   0.51556215   -7.2238153    378.11976  0.016868297  0.015030284          859 
 1869000   0.51778126    -7.249181    377.14096   0.01681563  0.015017908          788 
 1870000   0.52531394   -7.2516648    377.77973  0.016835104  0.015005535          844 
 1871000    0.5031196    -7.266293    377.08205  0.016795032  0.014993173          873 
 1872000   0.50249118   -7.2544677    377.37688  0.016799184  0.014980817          958 
 1873000   0.49896939    -7.227534    377.50969  0.016796124  0.014968464          862 
 1874000   0.51083605   -7.2534198    377.50379  0.016786899   0.01495613          915 
 1875000   0.50797581   -7.2482386    377.72912  0.016787961  0.014943826          885 
 1876000   0.50361069   -7.2537271    377.32359  0.016760998  0.014931549          952 
 1877000   0.49965527   -7.2513584    376.30052  0.016706647  0.014919255          900 
 1878000   0.50900433   -7.2537567    376.69395  0.016715209   0.01490699          983 
 1879000   0.50391516   -7.2663711    377.30485  0.016733407  0.014894722          960 
 1880000    0.5099584   -7.2643748    377.15501  0.016717864   0.01488247          969 
 1881000   0.49734778   -7.2572698     376.2461  0.016668709   0.01487022          888 
 1882000   0.50063192   -7.2512498    376.97377  0.016692073  0.014857986          951 
 1883000   0.49772675   -7.2641848    376.98671  0.016683781   0.01484576          942 
 1884000   0.50703789    -7.263438    377.11318  0.016680519  0.014833545          971 
 1885000   0.49678431   -7.2802007    376.61864  0.016649807  0.014821346          887 
 1886000   0.50876095    -7.251503    376.85881  0.016651591   0.01480917          919 
 1887000   0.50284232    -7.276094    376.82752  0.016641385  0.014796998          911 
 1888000   0.50195702    -7.274835    377.45813  0.016660405  0.014784857          999 
 1889000   0.50394926   -7.2542088    376.38144  0.016604087  0.014772706          918 
 1890000   0.49744255   -7.2746005    377.05189  0.016624863  0.014760553          957 
 1891000   0.50192704   -7.2589733    376.68508  0.016599907  0.014748418          923 
 1892000   0.49917746   -7.2590794    377.04584  0.016607023  0.014736301         1041 
 1893000   0.50257442   -7.2726471    376.93347  0.016593303    0.0147242         1052 
 1894000   0.50144805   -7.2625048    377.46194  0.016607794  0.014712102          943 
 1895000   0.50037633   -7.2848435    376.53209  0.016558139  0.014700008          982 
 1896000   0.49966941     -7.26397    376.49419   0.01654774  0.014687916         1012 
 1897000   0.48766418   -7.2639379    377.11922  0.016566474  0.014675862         1006 
 1898000   0.49489615   -7.2777071    377.09068  0.016556493  0.014663804          962 
 1899000   0.49451712   -7.2734275    376.16558  0.016507178  0.014651768          955 
 1900000   0.48920931   -7.2722482    377.43856  0.016554323   0.01463973         1005 
 1901000   0.49189563   -7.2652575    376.69843   0.01651317  0.014627713          984 
 1902000    0.4900674   -7.2795885    376.88973  0.016512869  0.014615705          948 
 1903000   0.49432581   -7.2771695    376.38626  0.016482145  0.014603715         1013 
 1904000   0.49874807   -7.2795995    376.71088  0.016487696  0.014591727          986 
 1905000    0.4874134   -7.2969556    376.97705  0.016490685  0.014579749         1006 
 1906000   0.49894297   -7.2738413    376.41475  0.016457448  0.014567797          932 
 1907000   0.49196854   -7.2767088    376.43561  0.016449729  0.014555857         1037 
 1908000   0.48419845   -7.2790874    376.17157  0.016429576  0.014543921         1039 
 1909000   0.48836126   -7.2836612      376.363  0.016429326  0.014531988          909 
 1910000   0.48985188   -7.2872292    376.49512  0.016426489  0.014520064          914 
 1911000   0.48697666   -7.2901269    376.76377  0.016429608  0.014508151         1008 
 1912000   0.48984934   -7.2864571    376.25665  0.016398913   0.01449626          978 
 1913000   0.47778899   -7.3041962    376.56285  0.016403679  0.014484373          958 
 1914000   0.48725934    -7.282581    375.83734   0.01636352    0.0144725         1004 
 1915000   0.48416981   -7.2735559    376.68761  0.016391976  0.014460648          950 
 1916000   0.48893971   -7.2822087    376.72583  0.016385083  0.014448809          972 
 1917000   0.48737277   -7.2823198     376.7713  0.016378512  0.014436968          969 
 1918000   0.48200847   -7.2821776    376.96376  0.016378335   0.01442514          996 
 1919000   0.47034666    -7.283609    376.22471  0.016337707  0.014413317          903 
 1920000   0.47565222   -7.2956824    375.74982  0.016308586  0.014401512          913 
 1921000   0.48354239   -7.2790653     376.4358  0.016329854  0.014389739          941 
 1922000   0.48340902   -7.2927178    376.70565  0.016333058  0.014377973          878 
 1923000   0.48292685   -7.2712948    376.99201  0.016336974  0.014366217          888 
 1924000   0.48455858   -7.2721438    376.29867  0.016298452  0.014354468          965 
 1925000   0.48635159   -7.2861072    375.91479  0.016273368  0.014342735          895 
 1926000   0.48571971   -7.2824247     376.4683  0.016288867  0.014331001          975 
 1927000    0.4882538   -7.2805175    376.41007  0.016277896  0.014319281          932 
 1928000   0.48021357   -7.2935174    376.32698  0.016265862  0.014307573          942 
 1929000   0.48574176   -7.3048892    376.45216  0.016262837  0.014295895          857 
 1930000   0.49246076   -7.2808661    376.63583  0.016262342  0.014284232          908 
 1931000   0.48644679   -7.3072648    376.42582  0.016244857  0.014272564         1028 
 1932000   0.47673864   -7.2950533    376.19448   0.01622647  0.014260893          953 
 1933000   0.48327101   -7.2907206    376.94828  0.016250573  0.014249231          886 
 1934000   0.48121716   -7.2795546     375.9674  0.016199905  0.014237586          949 
 1935000   0.48230675   -7.2964405    376.81061  0.016227847  0.014225966         1001 
 1936000   0.47581039   -7.2876245    376.32369  0.016198506  0.014214365          952 
 1937000   0.46291051   -7.2937849    376.58451  0.016201364  0.014202774          932 
 1938000    0.4720541   -7.2956905    376.69978  0.016197961  0.014191178         1001 
 1939000   0.47663538   -7.2905095    376.40975  0.016177143  0.014179591          947 
 1940000   0.48138806   -7.2912579    376.22512  0.016160873  0.014168019         1035 
 1941000   0.46747989   -7.3179592    375.90422  0.016138769  0.014156454          935 
 1942000   0.47753308   -7.2997387    375.94643   0.01613227  0.014144901          936 
 1943000   0.47679156   -7.3048667    376.37558  0.016142373  0.014133374         1037 
 1944000   0.47423855   -7.3011589    376.39346  0.016134836  0.014121867          923 
 1945000   0.48243529   -7.3013884    375.73208  0.016098204  0.014110366          888 
 1946000   0.47802691    -7.299299    376.42874  0.016119764  0.014098862          969 
 1947000   0.46483825   -7.3050953    376.27671  0.016104978  0.014087378          990 
 1948000    0.4698796   -7.3038008    376.26797  0.016096337  0.014075883          955 
 1949000   0.47354767   -7.2962433     376.2937  0.016089178  0.014064412          959 
 1950000   0.46958729   -7.3226406    375.82942  0.016061086  0.014052946         1035 
 1951000   0.47890848   -7.2869818    376.35598  0.016075345  0.014041517         1013 
 1952000   0.48521566   -7.3064267    376.23202  0.016061818  0.014030093         1010 
 1953000   0.47514308   -7.3080345    375.79156  0.016034799  0.014018665          954 
 1954000   0.46816026   -7.3196734    375.69243  0.016022366  0.014007248         1002 
 1955000   0.46708621     -7.31556    375.93832  0.016024651  0.013995843         1006 
 1956000   0.47768546   -7.3100704    375.42362   0.01599453   0.01398444         1045 
 1957000   0.46768638   -7.2953756    376.06735  0.016013769  0.013973051          913 
 1958000    0.4780323   -7.3262764    375.78876  0.015993734  0.013961684         1111 
 1959000   0.47823225   -7.3074689    375.65569  0.015979909  0.013950328         1122 
 1960000   0.47966956   -7.3202672    375.93469  0.015983618  0.013938977         1047 
 1961000   0.47622213   -7.3075086    375.18761   0.01594372  0.013927623         1045 
 1962000   0.46892318   -7.3003124    376.07272  0.015973187  0.013916306          984 
 1963000   0.47511496   -7.3274928    376.55525  0.015985535  0.013904981          984 
 1964000   0.46022797   -7.3198187     375.5524  0.015934844  0.013893674         1030 
 1965000   0.46646456   -7.3248652    376.06834  0.015948615  0.013882376          957 
 1966000   0.47363529   -7.3229159    375.93569   0.01593488  0.013871094          844 
 1967000   0.47626779   -7.3195588    375.77415  0.015919935  0.013859822          975 
 1968000   0.45235487    -7.304455    376.04237  0.015923203  0.013848559         1004 
 1969000   0.47362264   -7.3046409    375.74251  0.015902426   0.01383732          984 
 1970000   0.46950599   -7.3117639    376.05232  0.015907459  0.013826087          999 
 1971000   0.46411172   -7.3160705     376.3599  0.015912392  0.013814867         1041 
 1972000   0.46078409   -7.3338374    375.30948  0.015859934  0.013803652          982 
 1973000   0.47116312   -7.3187668    375.34653   0.01585346  0.013792436         1051 
 1974000   0.47176432   -7.3177726    375.92546  0.015869869  0.013781245         1002 
 1975000    0.4652478   -7.3181931    375.36088  0.015838012  0.013770059          945 
 1976000   0.46135063   -7.3198963    376.27487  0.015868542  0.013758894         1009 
 1977000   0.46231054   -7.3285858     375.5932  0.015831782  0.013747724         1014 
 1978000   0.47620501   -7.3245575    375.99014  0.015840501  0.013736568         1041 
 1979000   0.45053367   -7.3243798    375.91189  0.015829202  0.013725426          991 
 1980000   0.44969196   -7.3255213    376.05542  0.015827248  0.013714277          978 
 1981000   0.46111794   -7.3123931    375.99631  0.015816772  0.013703153         1076 
 1982000   0.46517177   -7.3358947    375.65135  0.015794288  0.013692041         1040 
 1983000    0.4611134   -7.3251876    375.47754  0.015779019  0.013680919         1037 
 1984000    0.4598745   -7.3288983    375.07676  0.015754232  0.013669817         1046 
 1985000    0.4530309   -7.3289919    375.78536  0.015776044  0.013658726         1017 
 1986000   0.46297291   -7.3306518    375.32964  0.015748978  0.013647649          890 
 1987000    0.4677553   -7.3375238    375.43541  0.015745488  0.013636587         1044 
 1988000   0.44552656   -7.3397051    375.25021  0.015729804  0.013625525         1041 
 1989000   0.45770017   -7.3485193    375.84539  0.015746832   0.01361448         1009 
 1990000     0.453161    -7.300128    375.04531  0.015705415   0.01360344         1037 
 1991000   0.45802145   -7.3362543     375.2706  0.015706956   0.01359242         1089 
 1992000   0.46154466   -7.3338016    375.54648  0.015710612  0.013581409         1057 
 1993000   0.45605167   -7.3410546    374.78156  0.015670746  0.013570404         1124 
 1994000   0.46070739   -7.3399007    375.60454  0.015697281  0.013559413         1040 
 1995000   0.46717602    -7.346704    375.45194  0.015683038  0.013548426          993 
 1996000   0.46044196   -7.3360487    375.27164  0.015667653  0.013537463         1005 
 1997000   0.45017446   -7.3447332     375.1891  0.015656364  0.013526501         1014 
 1998000   0.44845092   -7.3342858    375.41292  0.015657863  0.013515558         1034 
 1999000   0.46313564   -7.3426451    374.99549  0.015632628  0.013504614         1029 
 2000000   0.46203683   -7.3392994    375.66465  0.015652694  0.013493702          991 
 2001000   0.44491174   -7.3280918    375.35527  0.015631987  0.013482789          962 
 2002000    0.4647848    -7.334281    375.18413  0.015617055  0.013471889          980 
 2003000   0.44423196   -7.3506259    375.29388  0.015613824  0.013460991         1015 
 2004000   0.44303842   -7.3417992    374.76672  0.015584112   0.01345011          974 
 2005000   0.44635825   -7.3303418    374.88867  0.015581408  0.013439234         1035 
 2006000   0.44840076   -7.3600952    375.14073  0.015584111  0.013428369          983 
 2007000    0.4483721   -7.3233981    375.25485  0.015581085  0.013417516          991 
 2008000   0.44615702   -7.3429199    375.39494  0.015579139   0.01340668         1042 
 2009000   0.45611921   -7.3417408    375.57247  0.015578749  0.013395846         1001 
 2010000   0.44616867   -7.3541798    374.79951  0.015538951  0.013385037         1009 
 2011000   0.43373332    -7.341482    375.43162  0.015557418  0.013374235         1083 
 2012000   0.45768604   -7.3476564     374.2022  0.015498766  0.013363446         1064 
Loop time of 5157.34 on 48 procs for 2000000 steps with 4000 atoms

Performance: 67011.319 tau/day, 387.797 timesteps/s
99.4% CPU use with 48 MPI tasks x no OpenMP threads

MPI task timing breakdown:
Section |  min time  |  avg time  |  max time  |%varavg| %total
---------------------------------------------------------------
Pair    | 371.43     | 415.33     | 449.08     |  90.9 |  8.05
Neigh   | 35.865     | 37.279     | 38.936     |  11.7 |  0.72
Comm    | 335.54     | 368.89     | 412.12     |  93.8 |  7.15
Output  | 5.3359     | 5.3379     | 5.3899     |   0.3 |  0.10
Modify  | 4264.8     | 4282.9     | 4299.5     |  12.3 | 83.04
Other   |            | 47.61      |            |       |  0.92

Nlocal:        83.3333 ave          90 max          77 min
Histogram: 4 2 2 8 5 10 12 3 1 1
Nghost:        2415.79 ave        2434 max        2405 min
Histogram: 5 3 5 12 12 6 3 1 0 1
Neighs:        16784.6 ave       18991 max       14200 min
Histogram: 2 1 6 7 6 8 5 2 4 7
FullNghs:      33569.5 ave       36158 max       31136 min
Histogram: 5 1 6 4 4 14 5 7 0 2

Total # of neighbors = 1611335
Ave neighs/atom = 402.83375
Neighbor list builds = 107029
Dangerous builds = 0

#clear
#
#next RN
#
#jump SELF
Total wall time: 1:26:00
