
units lj                  # Use reduced LJ style units
atom_style atomic         # Uncharged point particles
atom_modify map hash      # Needed for indexing of clusters etc
                          # Used to be able to find where atoms are in relation to each other.

lattice fcc 1.0 spacing 1 1 1
Lattice spacing in x,y,z = 1.5874011 1.5874011 1.5874011
region box block 0 10 0 10 0 10 units lattice
create_box 2 box
Created orthogonal box = (0.0000000 0.0000000 0.0000000) to (15.874011 15.874011 15.874011)
  3 by 4 by 4 MPI processor grid
create_atoms 1 box
Created 4000 atoms
  using lattice units in orthogonal box = (0.0000000 0.0000000 0.0000000) to (15.874011 15.874011 15.874011)
  create_atoms CPU = 0.030 seconds
set type 1 type/fraction 2 0.38 78393
Setting atom values ...
  1537 settings made for type/fraction
mass 1 1.0
mass 2 1.0
pair_style lj/cut  3.5
pair_modify tail  yes
pair_coeff 1  1  1.0  1.0   # Intearaction between 1 and 1 set with epsilon = 1 and sigma = 1
pair_coeff 1  2  1.5  0.8
pair_coeff 2  2  0.5  0.88

write_data data.0
System init for write_data ...
Neighbor list info ...
  update every 1 steps, delay 10 steps, check yes
  max neighbors/atom: 2000, page size: 100000
  master list distance cutoff = 3.8
  ghost atom cutoff = 3.8
  binsize = 1.9, bins = 9 9 9
  1 neighbor lists, perpetual/occasional/extra = 1 0 0
  (1) pair lj/cut, perpetual
      attributes: half, newton on
      pair build: half/bin/atomonly/newton
      stencil: half/bin/3d
      bin: standard
WARNING: Not all mixed pair coeffs generated from mixing. Use write_data with 'pair ij' option to store all pair coeffs. (../write_data.cpp:312)


#############################
#   M E L T   S Y S T E M   #
#############################

velocity all create 2.4 2750902 mom yes dist gaussian # Assign velocities
                                                    # Temperature 2.4, random number seed, zero linear momentum
                                                                                # Gaussian distribution

timestep 0.002   # simulation timestep
thermo 1000       # output thermodynamic data every 1000 steps bf 100

# Define a fix  in this case with index 1 applied to all
# particles in the simulation. This fix is for simulations
# in the anisotropic NPT ensemble. Note that we use the MTK
# correction.
fix 1 all npt temp 2.4 2.4 0.1 iso 5.68 5.68 0.5 mtk yes tchain 5 pchain 5 # Use NPT ensemble
                                                                         # Set temperature and pressure and damping
                                                                         # Numbers of thermostats in chain and in barostat
run 10000          # run for 10000 steps
Per MPI rank memory allocation (min/avg/max) = 3.642 | 3.644 | 3.648 Mbytes
Step Temp E_pair E_mol TotEng Press Volume 
       0          2.4   -5.9717516            0   -2.3726516   -4.1474152         4000 
    1000    2.3869482   -5.0903721            0   -1.5108449    5.4428729    3929.1981 
    2000    2.4152511   -5.0098055            0   -1.3878345    5.7892627    3928.3339 
    3000    2.3489215   -5.0162424            0    -1.493741    5.5840152    3946.0722 
    4000    2.3841453   -5.0382288            0   -1.4629048    5.2375795    3967.0189 
    5000    2.3807174   -5.0175619            0   -1.4473786    5.4689699    3952.8919 
    6000    2.4479337   -5.0169751            0   -1.3459926    6.2381375    3911.2929 
    7000    2.4042081   -5.0483204            0   -1.4429099    5.6323479    3938.4653 
    8000     2.367115   -5.0229003            0   -1.4731154    5.7152713    3934.9786 
    9000    2.4246413   -5.0715969            0   -1.4355442    5.5723886    3931.6629 
   10000    2.3772367   -5.1074805            0   -1.5425169    5.5336476    3910.2664 
Loop time of 2.54627 on 48 procs for 10000 steps with 4000 atoms

Performance: 678639.969 tau/day, 3927.315 timesteps/s
99.6% CPU use with 48 MPI tasks x no OpenMP threads

MPI task timing breakdown:
Section |  min time  |  avg time  |  max time  |%varavg| %total
---------------------------------------------------------------
Pair    | 1.0893     | 1.1834     | 1.2823     |   3.2 | 46.48
Neigh   | 0.20751    | 0.21757    | 0.23707    |   1.1 |  8.54
Comm    | 0.77729    | 0.8658     | 0.9728     |   4.9 | 34.00
Output  | 0.0002579  | 0.00026205 | 0.00033337 |   0.0 |  0.01
Modify  | 0.2103     | 0.26371    | 0.30837    |   5.9 | 10.36
Other   |            | 0.01551    |            |       |  0.61

Nlocal:        83.3333 ave          92 max          76 min
Histogram: 5 4 0 8 4 17 5 0 3 2
Nghost:        1672.33 ave        1708 max        1635 min
Histogram: 1 0 6 5 10 13 6 5 1 1
Neighs:        9769.40 ave       11261 max        8476 min
Histogram: 5 3 2 1 14 13 5 2 1 2

Total # of neighbors = 468931
Ave neighs/atom = 117.23275
Neighbor list builds = 903
Dangerous builds = 180

# Equilibrate just above the melting temperature to avoid step fn in T

fix 1 all npt temp 1.25 1.25 0.1 iso 5.68 5.68 0.5 mtk yes tchain 5 pchain 5
run 2000
Per MPI rank memory allocation (min/avg/max) = 3.643 | 3.645 | 3.649 Mbytes
Step Temp E_pair E_mol TotEng Press Volume 
   10000    2.3772367   -5.1074805            0   -1.5425169    5.5336476    3910.2664 
   11000    1.2374376   -6.9813825            0   -5.1256902     5.849357    3134.8178 
   12000     1.215279   -7.1038207            0   -5.2813579    5.4560686    3113.6008 
Loop time of 0.610073 on 48 procs for 2000 steps with 4000 atoms

Performance: 566489.356 tau/day, 3278.295 timesteps/s
99.6% CPU use with 48 MPI tasks x no OpenMP threads

MPI task timing breakdown:
Section |  min time  |  avg time  |  max time  |%varavg| %total
---------------------------------------------------------------
Pair    | 0.26247    | 0.29527    | 0.33255    |   2.5 | 48.40
Neigh   | 0.038866   | 0.042143   | 0.047631   |   0.8 |  6.91
Comm    | 0.18442    | 0.22238    | 0.25824    |   3.2 | 36.45
Output  | 5.3463e-05 | 5.6381e-05 | 0.00015156 |   0.0 |  0.01
Modify  | 0.040642   | 0.045354   | 0.048801   |   1.1 |  7.43
Other   |            | 0.004867   |            |       |  0.80

Nlocal:        83.3333 ave          92 max          77 min
Histogram: 5 3 7 8 7 6 4 2 5 1
Nghost:        1945.83 ave        1962 max        1934 min
Histogram: 3 5 11 8 3 4 5 4 2 3
Neighs:        12270.8 ave       14443 max       10810 min
Histogram: 2 5 9 11 9 4 4 1 2 1

Total # of neighbors = 588999
Ave neighs/atom = 147.24975
Neighbor list builds = 143
Dangerous builds = 11

#############################
# L I N E A R  Q U E N C H  #
#############################

# Define solid atoms. This closely follows ten Wolde  Ruiz-Montero and Frenkel  Faraday Discuss  1996  104  93-110
# Compute components of the per-atom q6 vector
compute q6 all orientorder/atom degrees 1 6 components 6 nnn NULL cutoff 1.3 # compute the Q6 parameter.
                                                                             # Use all neighbours within 1.3 unit cell.

# get number of connections
compute coord_number all coord/atom orientorder q6 0.5

# An atom is solid if it has 8 or more connections (of a possible 14)
variable is_solid atom c_coord_number>=8
group solid dynamic all var is_solid    # Must be dynamic to update
dynamic group solid defined

# do clustering
compute cluster solid cluster/atom 1.3 # Create a cluster where all atoms within are solid and max 1.3 units from another member

# define chunks one chunk per cluster
compute clus_chunks solid chunk/atom c_cluster nchunk every compress yes  # Says which atoms are in which chunk

# count the size of each chunk
compute size_chunks solid property/chunk clus_chunks count


# Find the maximum entry in the vector of chunk sizes
variable max_n equal max(c_size_chunks)


# Thermo style which includes this variable
# thermo_style custom step temp pe vol v_max_n

thermo ${N}  # Print the thermo information every 100 steps
thermo 1000  

# Reset the npt fix at a lower temperature (below freezing)
fix 1  all npt temp  ${temp} ${temp}  0.1  iso  5.68  5.68  0.5  mtk yes tchain  5  pchain  5
fix 1  all npt temp  0.45 ${temp}  0.1  iso  5.68  5.68  0.5  mtk yes tchain  5  pchain  5
fix 1  all npt temp  0.45 0.45  0.1  iso  5.68  5.68  0.5  mtk yes tchain  5  pchain  5

dump dmp2 all dcd ${N} traj.dcd
dump dmp2 all dcd 1000 traj.dcd


compute msd all msd com yes
variable twopoint equal c_msd[4]/6/(step*dt+1.0e-6)
fix 9 all vector 10 c_msd[4]
variable fit equal slope(f_9)/6/(10*dt)
thermo_style custom step temp pe c_msd[4] v_twopoint v_fit v_max_n

fix 1 all npt temp 1.25 ${temp} 0.1 iso 5.68 5.68 0.5 mtk yes tchain 5 pchain 5
fix 1 all npt temp 1.25 0.45 0.1 iso 5.68 5.68 0.5 mtk yes tchain 5 pchain 5
run 500000 # 5000000  # Run for this many steps
Neighbor list info ...
  update every 1 steps, delay 10 steps, check yes
  max neighbors/atom: 2000, page size: 100000
  master list distance cutoff = 3.8
  ghost atom cutoff = 3.8
  binsize = 1.9, bins = 8 8 8
  4 neighbor lists, perpetual/occasional/extra = 1 3 0
  (1) pair lj/cut, perpetual
      attributes: half, newton on
      pair build: half/bin/atomonly/newton
      stencil: half/bin/3d
      bin: standard
  (2) compute orientorder/atom, occasional
      attributes: full, newton on
      pair build: full/bin/atomonly
      stencil: full/bin/3d
      bin: standard
  (3) compute coord/atom, occasional
      attributes: full, newton on
      pair build: full/bin/atomonly
      stencil: full/bin/3d
      bin: standard
  (4) compute cluster/atom, occasional
      attributes: full, newton on
      pair build: full/bin/atomonly
      stencil: full/bin/3d
      bin: standard
Per MPI rank memory allocation (min/avg/max) = 9.823 | 9.828 | 9.833 Mbytes
Step Temp PotEng c_msd[4] v_twopoint v_fit v_max_n 
   12000     1.215279   -7.1038207 4.1294896e-30 2.867701e-32 8.3333333e+20            2 
   13000    1.2025548   -7.0728499   0.48758128 0.0031255209  0.039861248            1 
   14000    1.2634179   -7.0662536    0.9735603 0.0057950016  0.039584396            2 
   15000    1.2406933   -7.0952888    1.3981403  0.007767446  0.039069382            1 
   16000    1.2354588   -7.1101807    1.7790208 0.0092657331   0.03733444            2 
   17000    1.2246248   -7.0801701    2.1749407  0.010661474  0.036034324            1 
   18000    1.2149685   -7.0326895     2.588918  0.011985731  0.035313156            1 
   19000    1.2313599   -7.0363041    2.9965803  0.013142896  0.034821016            1 
   20000    1.2229705   -7.1476153    3.4946098  0.014560874  0.034863023            1 
   21000     1.230304   -7.0946303    3.9615417  0.015720403  0.035247493            1 
   22000    1.2333567   -7.0738827    4.3773439  0.016580848  0.035607518            2 
   23000    1.2368557   -7.1062598    4.7642761  0.017261869  0.035676967            3 
   24000    1.2317038   -7.1606714    5.1773465  0.017976897  0.035572926            1 
   25000    1.2269572   -7.0780795    5.5891485  0.018630495  0.035468834            1 
   26000    1.2187224   -7.1187745    6.1125183  0.019591404  0.035475535            1 
   27000    1.2347371   -7.1547859    6.5044057  0.020075326  0.035637116            2 
   28000    1.2190445   -7.1310411    6.9031555  0.020545105  0.035685285            1 
   29000    1.2210953   -7.1527065    7.3591618  0.021147016  0.035683699            1 
   30000    1.2291362   -7.1421432    7.7295512  0.021470975  0.035679679            1 
   31000    1.2353374   -7.1426183    8.1144905  0.021813146  0.035598303            1 
   32000    1.2370499   -7.0977654    8.6086802  0.022418438  0.035564048            1 
   33000    1.2179758   -7.1184659    9.0865185  0.022945753  0.035570146            1 
   34000    1.2053593   -7.1336142    9.4884362  0.023255971  0.035608082            1 
   35000    1.2353827   -7.1260546    9.7525447  0.023220344  0.035526101            1 
   36000    1.1861745   -7.1726707    10.127715  0.023443785  0.035411579            1 
   37000    1.1908259   -7.1542499    10.511883  0.023675412  0.035293497            2 
   38000    1.2109853   -7.0984493    10.941711  0.023994979  0.035169461            2 
   39000    1.1909851   -7.1326134    11.306499  0.024159185  0.035026395            2 
   40000    1.1943575   -7.1773284    11.741952  0.024462399  0.034930084            1 
   41000    1.2343802   -7.1616776    12.195615  0.024787834   0.03486481            1 
   42000    1.2251444    -7.213096    12.532888  0.024866841  0.034811901            2 
   43000    1.1885008   -7.1963839    12.885422  0.024971747  0.034712414            1 
   44000    1.1756784   -7.1458849    13.355545  0.025294593   0.03465357            3 
   45000    1.1818483   -7.1827888    13.728952  0.025423985  0.034592848            1 
   46000    1.2003763    -7.178503    14.112344   0.02556584   0.03452239            2 
   47000    1.2015403   -7.1742861    14.517833  0.025740838  0.034455316       -1e+20 
   48000    1.1750227   -7.1861144     15.12739   0.02626283  0.034438728            1 
   49000    1.1955692   -7.1973576    15.571614  0.026482336  0.034457138            1 
   50000    1.1902284   -7.1652188    15.999993  0.026666654  0.034485497            4 
   51000    1.1807555   -7.2113915    16.244635  0.026543521  0.034480189            1 
   52000    1.1973078   -7.2123876    16.709533  0.026778098  0.034457407            2 
   53000    1.1779045   -7.1924292    17.130792  0.026935207  0.034439979            1 
   54000    1.1966564   -7.2058503     17.49314  0.026995586  0.034422106            2 
   55000    1.2009691   -7.2157607    17.921508    0.0271538  0.034415341            2 
   56000    1.1792752    -7.191965    18.267003   0.02718304  0.034411473            3 
   57000    1.1780457   -7.2615359    18.652037  0.027269059  0.034393722            2 
   58000    1.1917225   -7.2668566    19.221877  0.027617639  0.034386497            1 
   59000    1.1648708   -7.2092284    19.656036  0.027762762  0.034400964            1 
   60000    1.1697173    -7.253949    19.785957  0.027480495  0.034367655            1 
   61000    1.1713434   -7.2431854    19.951216  0.027255759  0.034300174            1 
   62000    1.1659343   -7.2186165     20.37206  0.027381801   0.03422218            2 
   63000    1.1664996   -7.2251817    20.677777  0.027351557  0.034137686            3 
   64000    1.1495334   -7.2453717     20.98811  0.027328268   0.03404006            1 
   65000    1.1539126   -7.2298575     21.39207  0.027425731  0.033944368            2 
   66000     1.159223   -7.2793679    21.594883  0.027266266  0.033851008            3 
   67000    1.1617582   -7.2700892    21.905452  0.027245587   0.03374288            2 
   68000    1.1643461   -7.2844372    22.202038   0.02720838  0.033613245            1 
   69000    1.1402757   -7.2254541    22.651075  0.027356371  0.033506354            2 
   70000    1.1647429    -7.287518    22.850752  0.027203277  0.033395836            1 
   71000    1.1690278   -7.2453698     23.32624  0.027378215  0.033281994            1 
   72000    1.1574302   -7.2635955    23.651081  0.027373936  0.033174713            1 
   73000    1.1334793   -7.2840942    23.950195  0.027340405  0.033072155            1 
   74000    1.1453696   -7.2910545     24.30036   0.02736527  0.032972089            1 
   75000    1.1491743   -7.2935257    24.487817  0.027208686  0.032867683            2 
   76000     1.126427   -7.3329605    24.731105  0.027117439  0.032751546            2 
   77000    1.1187697    -7.324056    25.153328  0.027222217  0.032636212            3 
   78000    1.1268667   -7.2793461     25.51164  0.027256026  0.032525167            1 
   79000     1.131783   -7.2881866    25.787499  0.027202003  0.032418884            2 
   80000    1.1308034   -7.3238754    26.013224  0.027097108  0.032308225            2 
   81000      1.12644   -7.3276327    26.412671   0.02717353  0.032196039            2 
   82000    1.1492814   -7.3680221    26.663269  0.027096818  0.032091931            1 
   83000    1.1042386   -7.3663218    27.019583  0.027128095  0.031989791            2 
   84000    1.1622009   -7.3297093    27.361042  0.027143891  0.031884468            2 
   85000    1.1386021   -7.3307494    27.527863  0.026988101  0.031782161            2 
   86000    1.1095966   -7.3396453    27.984373   0.02711664  0.031684904            1 
   87000    1.1160339   -7.3332196    28.238891  0.027048746  0.031586156            1 
   88000    1.1194422   -7.3494328     28.59278  0.027076496  0.031494818            1 
   89000    1.1479925   -7.3390735    29.012848  0.027165588  0.031411589            1 
   90000    1.1186866   -7.2919373    29.281105  0.027112134  0.031326254            1 
   91000    1.1337219   -7.3652397    29.462865  0.026980646  0.031240527            1 
   92000    1.1226097   -7.4166417    29.749517  0.026947026  0.031154071            8 
   93000    1.1161666   -7.3418649    30.031891  0.026910297  0.031064063            2 
   94000    1.1106654   -7.3732206    30.497519  0.027036808  0.030978878            3 
   95000    1.1144719   -7.3344544     30.83009  0.027043938  0.030898035            1 
   96000    1.1057301   -7.3994337    30.974438  0.026887533   0.03081616            1 
   97000    1.0773736   -7.3610793    31.240366  0.026838802  0.030727148            2 
   98000    1.1048866   -7.3734679    31.583671  0.026856863  0.030635974            2 
   99000    1.1129434   -7.3504492    31.945752  0.026890363  0.030553083            1 
  100000    1.1074216   -7.3707108    31.998583  0.026665486   0.03046534            1 
  101000    1.1190742   -7.3889122    32.184614  0.026554962  0.030374784            5 
  102000    1.1082976   -7.3842216    32.557529  0.026599288  0.030279603            4 
  103000    1.1384985   -7.4479059     32.71025  0.026464603  0.030185707            1 
  104000    1.0981625   -7.4081148    33.062055  0.026492031  0.030094137            2 
  105000    1.0745895   -7.3906091    33.334372  0.026455851  0.030005334            4 
  106000    1.1190797   -7.4318864    33.532428  0.026361972  0.029915707            1 
  107000     1.079855   -7.4020897    33.886792  0.026391582  0.029822259            1 
  108000    1.1087887   -7.4515856    34.064251  0.026284144  0.029735682            1 
  109000    1.1146279   -7.4689293    34.552797  0.026416512  0.029651913            1 
  110000    1.0913807   -7.4412588    34.879083  0.026423548  0.029572323            1 
  111000     1.123412   -7.4037422    35.128554  0.026372788  0.029491071            2 
  112000    1.0933927    -7.421798    35.451439  0.026377559  0.029414157            1 
  113000    1.1191349   -7.4847122    35.618714  0.026267488  0.029335098            3 
  114000    1.0901586    -7.459703    36.042547  0.026346891  0.029260482            2 
  115000    1.0892989   -7.3878779    36.328184  0.026324771  0.029188644            1 
  116000      1.09092   -7.4973038    36.333931  0.026101962  0.029113024            2 
  117000    1.0802149   -7.4668717    36.574039  0.026049885  0.029036092            3 
  118000    1.1085905   -7.4795921    36.946021  0.026091823  0.028956596            3 
  119000    1.0851561   -7.4470909    37.175803  0.026033476  0.028876721            1 
  120000    1.1002944   -7.4849354     37.36296    0.0259465   0.02879598            2 
  121000    1.0841555   -7.4720153    37.608258  0.025901004  0.028716156            4 
  122000    1.0557378   -7.4806983    37.566842  0.025660411  0.028633398            2 
  123000     1.065455   -7.4878144    37.654588  0.025511239  0.028540425            2 
  124000     1.088092   -7.5201064    37.904236  0.025473276  0.028445769            3 
  125000    1.0802816     -7.48174    38.353749  0.025569166  0.028355843            2 
  126000     1.073353   -7.4944776    38.520706  0.025476657  0.028267037            2 
  127000    1.0851796   -7.5431859    38.702641  0.025395434  0.028177819            3 
  128000    1.0745427   -7.4905606    39.154787  0.025491398  0.028095454            2 
  129000    1.0465694   -7.5173866    39.290205  0.025381269  0.028012688            2 
  130000    1.0546947   -7.5180395    39.377354  0.025241893  0.027925663            1 
  131000    1.0762971   -7.5213682    39.876306  0.025366607   0.02784055            1 
  132000    1.0599649   -7.4874126    40.112283  0.025323411  0.027760498            1 
  133000    1.0479903   -7.4978191    40.205505  0.025191419  0.027681142            2 
  134000    1.0507822   -7.5252419    40.462413  0.025163192  0.027600393            4 
  135000    1.0422332   -7.5375128    40.797438  0.025183604  0.027520311            1 
  136000    1.0525012   -7.5336824    41.054484  0.025155934  0.027440068            1 
  137000    1.0526117   -7.5516144    41.126771  0.025016284   0.02736171            2 
  138000    1.0644425   -7.5293619    41.363168  0.024977758  0.027281252            1 
  139000    1.0567171   -7.5828095    41.379439  0.024807817  0.027201857            1 
  140000    1.0535641   -7.5436858    41.477225  0.024688825  0.027118115            1 
  141000    1.0578291   -7.5599215    41.815473  0.024713637  0.027033583            3 
  142000    1.0214964    -7.544494    42.096841  0.024704719   0.02694927            1 
  143000    1.0684192   -7.5796445      42.3176  0.024660606  0.026868402            1 
  144000    1.0314663   -7.5934509    42.637707  0.024674599   0.02679036            1 
  145000    1.0386749   -7.5944261    42.798225  0.024596681  0.026710581            3 
  146000    1.0407707   -7.5339752    43.002555  0.024544837  0.026634801            3 
  147000    1.0549144   -7.5959516    43.151574  0.024462344  0.026558208            2 
  148000    1.0145916   -7.5971481    43.480761  0.024482411  0.026482315            1 
  149000    1.0171892   -7.6095736    43.696832  0.024438944  0.026409083            1 
  150000     1.017095    -7.573043    43.740387  0.024300215  0.026332556            3 
  151000    1.0397239   -7.5740052    43.938784  0.024248777  0.026254996            2 
  152000    1.0216944   -7.6169238    44.135496  0.024197092  0.026175257            3 
  153000    1.0170754      -7.5741    44.051266  0.023993064  0.026094177            1 
  154000    1.0218249   -7.6056453    44.303107  0.023973543  0.026010925            1 
  155000    1.0363374   -7.6089751    44.563666   0.02395896  0.025927526            1 
  156000    1.0313193   -7.6233981    44.672352  0.023863436  0.025844567            1 
  157000   0.98877908   -7.5929201    44.822208  0.023790981  0.025763395            1 
  158000     1.020518   -7.5990808     44.87859  0.023670142  0.025679587            1 
  159000    1.0382783   -7.6118021    45.129488  0.023652771  0.025597812            2 
  160000    1.0131535   -7.6294344    45.236751  0.023560808  0.025518097            2 
  161000    1.0161272   -7.6617183    45.513765  0.023557849  0.025437337            2 
  162000    1.0274634   -7.6630429    45.726202  0.023521709  0.025356159            3 
  163000     1.008593   -7.6560126     45.85296  0.023442209  0.025275477            1 
  164000    1.0301676   -7.6386791    46.285064  0.023518833  0.025198522            1 
  165000    1.0119831   -7.6207629    46.446889  0.023458025   0.02512427            2 
  166000    1.0118906   -7.6212841     46.79386  0.023490893   0.02505104            3 
  167000    1.0022037   -7.6585438    46.879256  0.023392842  0.024979467            5 
  168000    1.0029462   -7.6655799    46.920237  0.023273927  0.024906106            4 
  169000   0.99511623   -7.6476898    47.046784  0.023198611  0.024831854            2 
  170000    1.0105915   -7.6718859      47.2959  0.023184264   0.02475684            4 
  171000     1.004583   -7.6698589     47.44547  0.023121574  0.024682867            3 
  172000   0.99587226   -7.6523415    47.609583  0.023066659  0.024610387            2 
  173000    1.0139843   -7.6252345    47.858999  0.023053468  0.024538765            1 
  174000    1.0053196   -7.6431761     47.91352  0.022947088  0.024466267            2 
  175000   0.98483051   -7.6988751    48.023211  0.022868196  0.024390697            2 
  176000    1.0057583    -7.658606    48.246399  0.022843939  0.024317026            1 
  177000   0.97387683   -7.6822142    48.442007  0.022806971  0.024245781            1 
  178000   0.98044659   -7.6880138    48.676595  0.022788668  0.024175309            1 
  179000   0.98978011    -7.693648    48.862198  0.022747764   0.02410671            3 
  180000   0.98176363   -7.7014568    48.979255  0.022675581   0.02403729            3 
  181000    1.0075896   -7.7045376    49.236456  0.022668718  0.023968588            4 
  182000   0.97399015   -7.6902748    49.572916  0.022698222  0.023899809            2 
  183000    1.0048071   -7.7104548    49.590847  0.022582353   0.02383094            1 
  184000   0.96964109   -7.6909278    49.695725  0.022507122  0.023761988            3 
  185000   0.98061995   -7.7290271    49.758286  0.022413642  0.023693093            2 
  186000    0.9589654   -7.7142582    50.123652  0.022456833  0.023624921            1 
  187000   0.97210004   -7.7202016     50.14186  0.022344857  0.023558177            2 
  188000   0.97036925   -7.7309896    50.372052  0.022328037   0.02349115            3 
  189000   0.96389653   -7.7207025    50.687211  0.022348859  0.023424693            3 
  190000   0.95170405   -7.7312565    50.792639  0.022277473  0.023360323            1 
  191000   0.96146655   -7.7413224    50.876648   0.02219749  0.023295042            2 
  192000   0.97600449   -7.7612768     50.79416  0.022046076  0.023227389            7 
  193000   0.95055593   -7.7604537     50.88562  0.021971338  0.023157911            1 
  194000   0.95163762    -7.759794    51.068673  0.021936715  0.023088737            4 
  195000   0.97033564   -7.7793911    51.291519  0.021919452  0.023020708            3 
  196000   0.96754867    -7.747404    51.453395  0.021876443   0.02295316            1 
  197000   0.94393941   -7.7420209    51.577919   0.02181807  0.022884917            1 
  198000   0.95111541   -7.7433077    51.793758   0.02179872  0.022817529            3 
  199000   0.95319125   -7.7641848    51.765145  0.021677196  0.022749461            3 
  200000   0.94765173   -7.7736564    51.737285  0.021557202  0.022680482            1 
  201000   0.97546053    -7.717844    51.929849  0.021529788    0.0226108            2 
  202000   0.98612467   -7.7898894    51.882194  0.021403546  0.022540887            2 
  203000   0.94424605    -7.760506    52.086933  0.021382156  0.022470832            2 
  204000   0.89929919   -7.7933003    52.244199  0.021341585  0.022400756            2 
  205000   0.96021762   -7.7965356    52.452323  0.021322082  0.022332311            1 
  206000   0.95793573   -7.7876419    52.592682  0.021275357  0.022264111            2 
  207000   0.93205674   -7.8243742     52.63659  0.021190254  0.022196338            2 
  208000   0.96241083   -7.8524606    52.801576  0.021154477   0.02212872            1 
  209000    0.9314072   -7.8349648    53.063025  0.021157506  0.022062164            3 
  210000   0.92504628   -7.8176392     53.35638  0.021173167  0.021997367            2 
  211000    0.9398955   -7.8098968    53.488051  0.021124823  0.021935464            1 
  212000   0.92707902   -7.8335443    53.534601  0.021043475  0.021872778            2 
  213000   0.93306616   -7.8032005    53.761332  0.021033385  0.021809125            1 
  214000   0.91410458   -7.8419896    53.737401  0.020925779  0.021745667            3 
  215000   0.93029044   -7.8572769    53.849705  0.020871979  0.021682115            2 
  216000   0.91608859   -7.8311797    54.087273  0.020867003  0.021620057            2 
  217000   0.91388023   -7.8527988    54.158538   0.02079821   0.02155912            1 
  218000   0.93128041   -7.8578722    54.259147  0.020741264  0.021496591            1 
  219000   0.91668095   -7.8398774    54.540633  0.020753665  0.021434879            3 
  220000   0.90419511   -7.8738016    54.540328  0.020659215  0.021373793            2 
  221000   0.92319345   -7.9020325    54.453945  0.020533162  0.021311125            1 
  222000   0.90806001   -7.8871487    54.636897  0.020509346  0.021248076            2 
  223000   0.92841688   -7.8774722    54.770105  0.020467154  0.021185147            1 
  224000   0.90190389   -7.9052117    54.800107  0.020386944  0.021121758            3 
  225000   0.88782101   -7.8402315    54.884731  0.020327678  0.021058121            2 
  226000   0.91014413   -7.9057514    54.879084   0.02023565  0.020993452            3 
  227000   0.92180175   -7.9264157    54.961949  0.020176927  0.020929272            1 
  228000   0.90437879   -7.9327286    54.925751  0.020075201  0.020865195            3 
  229000   0.90734025    -7.897952    55.361854  0.020146235  0.020801926            2 
  230000   0.88411473   -7.8765148     55.44613  0.020089177  0.020739506            1 
  231000    0.9196695   -7.9236871    55.266803  0.019937519  0.020675913            1 
  232000   0.89576209   -7.9422042     55.53137  0.019946613  0.020612029            2 
  233000   0.90710374   -7.9232778    55.695002  0.019919529  0.020549714            4 
  234000    0.9013831   -7.9051057    55.893852  0.019905218  0.020487529            2 
  235000    0.9025426   -7.9401349    55.723105  0.019759966  0.020425966            2 
  236000   0.88659457   -7.9614324     55.82414  0.019711914  0.020362932            2 
  237000   0.87525634   -7.9542967    55.975382   0.01968192  0.020300005            1 
  238000   0.88527674   -7.9303219    55.945551  0.019588778  0.020237229            1 
  239000   0.89447269    -7.967292    55.954132  0.019509809  0.020174282            2 
  240000   0.87882914   -7.9645051    56.099065  0.019478842  0.020111226            2 
  241000   0.88701921   -7.9585407    56.189998   0.01942946  0.020048508            3 
  242000   0.90161816   -7.9375837    56.456647  0.019440994  0.019987035            3 
  243000   0.89515535   -7.9882989    56.412818  0.019345959  0.019926562            2 
  244000   0.88702412   -7.9529394     56.67523  0.019356295  0.019865866            3 
  245000   0.87133891   -7.9518226    56.710827  0.019289397  0.019805354            1 
  246000   0.86486401   -7.9894583    56.846366  0.019256899  0.019744929            2 
  247000   0.87629323   -8.0150258     56.82014  0.019170088  0.019684624            1 
  248000   0.87298361   -7.9980277    56.955567  0.019138295   0.01962439            2 
  249000    0.8664208   -8.0117369    56.912552  0.019047039  0.019563612            2 
  250000   0.88010106   -7.9880454    57.126787  0.019042262  0.019503082            2 
  251000   0.87719967    -7.992499    57.251323  0.019007743  0.019443281            3 
  252000   0.86482753   -7.9837023     57.23602  0.018927255  0.019383535            6 
  253000   0.86323964    -8.026278    57.309138  0.018876528  0.019324413            4 
  254000   0.87531373   -8.0353942    57.434711  0.018843409  0.019265284            3 
  255000   0.85304273   -8.0323077    57.516795  0.018796338  0.019205858            4 
  256000   0.85934129   -8.0245172    57.486822  0.018713158  0.019146563            3 
  257000    0.8482185   -8.0294611     57.60733  0.018679419  0.019086691            3 
  258000   0.85184186   -8.0110674    57.828099  0.018678327  0.019027724            4 
  259000   0.84251509   -8.0361639    57.761079  0.018584646  0.018969815            2 
  260000   0.84874837   -8.0689748    57.847515   0.01854087   0.01891096            3 
  261000   0.83802287   -8.0499337    57.811719  0.018458403  0.018852517            4 
  262000   0.84123368   -8.0450317    58.050985  0.018464054  0.018794525            1 
  263000   0.83905441   -8.0201383    58.268613  0.018462805  0.018737635            1 
  264000   0.86090278    -8.030653    58.291596  0.018400125  0.018680994            3 
  265000   0.84149908   -8.0299746     58.42815  0.018373632  0.018624192            4 
  266000   0.82972249   -8.0525128    58.350832  0.018280336  0.018567715            2 
  267000   0.83862006   -8.0756857    58.480325  0.018252286  0.018511578            2 
  268000   0.83648171   -8.0859557    58.679943  0.018246251  0.018455887            1 
  269000   0.85063046   -8.0403291    58.759389  0.018203033  0.018400808            1 
  270000   0.83472152   -8.0659523    58.819998   0.01815432  0.018345254            1 
  271000   0.83144734   -8.0673341    58.982132  0.018137187  0.018290097            3 
  272000   0.82766161   -8.0653755    58.861211  0.018033459  0.018235157            4 
  273000   0.83693008   -8.0761221    58.930143  0.017988444  0.018179833            2 
  274000   0.83529012   -8.0916478    59.202375  0.018005588  0.018124767            6 
  275000   0.82866584   -8.1335843    59.033377  0.017888902  0.018070154            3 
  276000   0.84591509    -8.077938     59.13891  0.017855951  0.018015605            2 
  277000   0.82941995   -8.1303394    58.976361  0.017742588  0.017960026            1 
  278000   0.81909375    -8.120318    59.034277  0.017696126  0.017904341            1 
  279000   0.81003553   -8.1078996    59.134631  0.017662673  0.017848651            2 
  280000   0.82984241   -8.1252368    58.963236  0.017548582  0.017792643            2 
  281000   0.83192969   -8.1508928    59.306002  0.017587782  0.017736713            1 
  282000   0.80304824   -8.1022787    59.451706  0.017568471  0.017682053            4 
  283000   0.82120251   -8.1342547    59.500498  0.017520759  0.017628015            2 
  284000   0.82871757   -8.1520173    59.477617  0.017452352  0.017573503            2 
  285000   0.80159767   -8.1456977    59.525017  0.017404976  0.017519199            5 
  286000   0.80172661   -8.1531033    59.529472  0.017345417  0.017464632            3 
  287000   0.82036553    -8.128131    59.549837  0.017290893  0.017409683            2 
  288000   0.81125983    -8.150655    59.619835   0.01725111  0.017354698            3 
  289000   0.80894427   -8.1434212    59.535635  0.017167138   0.01730013            5 
  290000   0.79412487   -8.1406474    59.635452  0.017136624  0.017245717            4 
  291000   0.79263204   -8.1582162    59.788861  0.017121667  0.017191787            2 
  292000   0.79046531    -8.182654    59.555477  0.016996426  0.017137556            6 
  293000   0.80969186    -8.186568    59.596742  0.016950154  0.017083009            3 
  294000   0.79224052   -8.2061998    59.675673  0.016914873   0.01702807            3 
  295000    0.7924222   -8.1780619    59.724312  0.016871274  0.016973419            2 
  296000   0.79670159   -8.1730176    59.763984  0.016825446   0.01691922            2 
  297000   0.79148366   -8.1815596     59.90869  0.016809397  0.016865011            2 
  298000   0.78122155   -8.2070795    59.628275  0.016674573  0.016810785            2 
  299000   0.79604444   -8.2182996     59.95368  0.016709498  0.016756597            4 
  300000   0.79954626   -8.2121898    59.941435  0.016650399  0.016702761            2 
  301000   0.78607567   -8.1903183    60.148388  0.016652378  0.016649445            2 
  302000   0.77806941   -8.2180922    60.035667  0.016566133  0.016595877            2 
  303000   0.80627998   -8.2334224    60.142087  0.016540728  0.016542421            2 
  304000   0.79443095   -8.2622131    60.110584  0.016477682  0.016489259            1 
  305000   0.77337604   -8.2427927     60.19439  0.016446555  0.016435918            3 
  306000    0.7925139   -8.2320172    60.087688   0.01636375   0.01638296            3 
  307000   0.77557682   -8.2263543    60.157566  0.016329415  0.016329838            2 
  308000   0.78615894   -8.2181552    60.092783   0.01625887  0.016276394            5 
  309000   0.76209041   -8.2445697    60.282984  0.016257547  0.016223395            7 
  310000   0.76819114    -8.285537    60.159199  0.016171828    0.0161705            5 
  311000   0.77169769   -8.2383933    60.299096  0.016157314  0.016118184            7 
  312000   0.76440727   -8.2665307     60.28393  0.016101477  0.016065545            5 
  313000   0.77116145   -8.2749055    60.295032   0.01605299  0.016012887            4 
  314000   0.78140042    -8.273253    60.267448  0.015994546  0.015959909            2 
  315000   0.76762079   -8.2949575    60.222822  0.015931964  0.015906988            3 
  316000   0.75227064   -8.2813936    60.297797  0.015901318  0.015854186            3 
  317000   0.75873924   -8.2878752    60.235294  0.015834725   0.01580194            1 
  318000   0.76768546   -8.2919981    60.448662  0.015840844  0.015749914            5 
  319000   0.75754123   -8.2810537    60.594084  0.015829175  0.015698885            4 
  320000   0.76279029    -8.276738    60.604291  0.015782367   0.01564814            2 
  321000   0.75797661    -8.324857    60.516798  0.015710488  0.015597213            5 
  322000    0.7649862   -8.3057201    60.552789  0.015671012  0.015546124            3 
  323000   0.75895859   -8.3339153    60.537779  0.015618622  0.015495538            1 
  324000   0.76061674     -8.27511    60.584768  0.015582502  0.015444848            4 
  325000   0.75198345   -8.3098417    60.678074  0.015558481  0.015394366            2 
  326000   0.74269346    -8.299208    60.576698  0.015484841  0.015343792            3 
  327000    0.7517333   -8.3270404    60.634886  0.015452315  0.015293433            4 
  328000   0.73545825    -8.333721    60.631967  0.015404463  0.015243092            5 
  329000   0.72889904   -8.3292792    60.703195  0.015375683  0.015192586            2 
  330000   0.74701051   -8.3524896    60.699555   0.01532817  0.015142455            3 
  331000   0.75263525   -8.3260065    60.736755  0.015291227   0.01509234            2 
  332000   0.72889287   -8.3540314    60.717676   0.01524038  0.015042483            2 
  333000   0.74479363   -8.3666519    60.780591  0.015210358  0.014992925            3 
  334000   0.74025439   -8.3499742    60.752995  0.015157933  0.014943189            4 
  335000   0.73047187   -8.3542654    60.757913  0.015113909  0.014893432            7 
  336000   0.73421697   -8.3658857    60.583436  0.015025654  0.014843643            3 
  337000   0.73086456   -8.3557078    60.797257  0.015033941  0.014794184            2 
  338000   0.70570327   -8.3772163    60.836968  0.014999253  0.014744957            3 
  339000   0.72172706   -8.3600203    60.703709  0.014922249  0.014695513            1 
  340000   0.71266714   -8.3934281    60.656546    0.0148668  0.014646053            5 
  341000   0.72274163   -8.3937278    60.742267  0.014844151  0.014596619            3 
  342000   0.73213366   -8.3816818     60.67261  0.014783774  0.014547501            3 
  343000   0.70640583   -8.4202348    60.692266  0.014745449  0.014498384           20 
  344000   0.71485031   -8.4114186    60.755395  0.014717877   0.01444929            2 
  345000    0.7238094   -8.4232266    60.686227  0.014658509  0.014400298            3 
  346000   0.71812356   -8.4037531    60.729813  0.014626641  0.014351377            3 
  347000   0.70657982   -8.4273395    60.628402  0.014560135  0.014302889            7 
  348000   0.72023951   -8.4220123    60.738091  0.014544562  0.014254421            2 
  349000   0.70398605   -8.4266378    60.692132  0.014491913  0.014206162            4 
  350000   0.70312188    -8.421785    60.710058  0.014454776  0.014158031            2 
  351000   0.69342911   -8.3900167    60.787645  0.014432015  0.014109969            4 
  352000   0.69295508   -8.3932934    60.862183  0.014408661  0.014062188            5 
  353000   0.71080438   -8.4201873    60.664471  0.014321169  0.014014502            2 
  354000   0.70469796   -8.4094726    60.769941  0.014305542   0.01396696            3 
  355000   0.68364099   -8.4266396    60.855981  0.014285442  0.013919505            3 
  356000    0.6957206   -8.4275135    60.899042  0.014255394   0.01387229            1 
  357000   0.70878302   -8.4509355    60.762112    0.0141835  0.013825156            2 
  358000   0.69949242   -8.4561518    60.863255  0.014167424  0.013778016            2 
  359000   0.69397564   -8.4328542    60.798854  0.014113012  0.013731053            3 
  360000   0.70304036   -8.4505564    60.694619   0.01404968  0.013683832            2 
  361000   0.68412031   -8.4408054    60.695421  0.014010947  0.013636672            2 
  362000   0.68072419   -8.4790477    60.862645  0.014010738  0.013589849            1 
  363000   0.69754452   -8.4853945    60.764457    0.0139496  0.013543312            2 
  364000   0.68495098    -8.458464    60.697106  0.013895858   0.01349692            3 
  365000   0.68344301   -8.4684603    60.862929  0.013895646  0.013450595            2 
  366000   0.68793455   -8.4787635     60.83991  0.013852439  0.013404418            1 
  367000   0.68268884   -8.4767148    60.720338  0.013787543   0.01335844            3 
  368000   0.67575866   -8.4983164    60.831348  0.013775215  0.013312555            6 
  369000   0.67494176   -8.5026128    60.740561   0.01371738  0.013266559            3 
  370000   0.67093201   -8.5024521    60.811091  0.013696192  0.013220872            3 
  371000      0.66513   -8.5088327    60.704066  0.013635235  0.013175309            2 
  372000   0.68725472   -8.5028534    60.617825  0.013579262  0.013129924            2 
  373000     0.678061    -8.520285    60.701338  0.013561514  0.013084618            2 
  374000   0.67741582   -8.5071417    60.774593  0.013541576  0.013039485            2 
  375000   0.66470979   -8.5234627    60.655068  0.013478904  0.012994677            2 
  376000   0.67244707   -8.5481276    60.721842  0.013457855  0.012949912            2 
  377000   0.65369652   -8.5346309     60.85878  0.013452427  0.012905491            1 
  378000    0.6497369   -8.5356985    60.858196   0.01341671   0.01286109            3 
  379000   0.66154354    -8.551763    60.576941  0.013319468  0.012816847            1 
  380000   0.66195603   -8.5615416    60.614871  0.013292735  0.012772335            1 
  381000    0.6647305   -8.5555399    60.688093  0.013273861  0.012728251            2 
  382000   0.65335256   -8.5408011    60.759465  0.013254683   0.01268415            6 
  383000   0.65553104   -8.5570744    60.593575  0.013183981  0.012639952            4 
  384000   0.65270305   -8.5488485    60.632696  0.013158137  0.012595891            5 
  385000    0.6540253   -8.5722568    60.510493  0.013097509  0.012551867            2 
  386000    0.6464863   -8.5459515    60.622913  0.013087848  0.012508002            2 
  387000   0.65879867   -8.5519688    60.666064  0.013063321  0.012464413            4 
  388000    0.6444216   -8.5621052    60.533084  0.013001092  0.012421048            2 
  389000   0.62913922   -8.5481714    60.431512  0.012945911  0.012377753            3 
  390000   0.65234225   -8.5672304     60.61709   0.01295237  0.012334644            4 
  391000   0.65850842   -8.5956508    60.592288  0.012913957  0.012291693            4 
  392000   0.63899627   -8.5836933     60.57463   0.01287726  0.012248847            2 
  393000   0.65099821   -8.5922123    60.525453  0.012834066   0.01220619            2 
  394000   0.63087271   -8.6077923    60.466715  0.012789068  0.012163706            1 
  395000   0.62835292   -8.6059513    60.592666  0.012783263  0.012121263            1 
  396000    0.6396173   -8.6010462    60.524162  0.012736566   0.01207903            2 
  397000   0.62551977   -8.5940736    60.640249  0.012728852  0.012037046            1 
  398000   0.62412055   -8.6170458    60.472265  0.012661697  0.011995161            2 
  399000   0.64728974    -8.630199    60.505318  0.012636867  0.011953338            4 
  400000   0.61443104   -8.6185403    60.518539  0.012608029  0.011911835            2 
  401000   0.61663343   -8.6349897    60.490193  0.012570697  0.011870379            3 
  402000   0.61706339   -8.6247755    60.509161  0.012543358  0.011829131            6 
  403000   0.63005257   -8.6132157    60.607137  0.012532493  0.011788042            2 
  404000   0.62355502   -8.6189639    60.511135   0.01248167  0.011747141            2 
  405000   0.63349188   -8.6269263    60.553824  0.012459634  0.011706351            6 
  406000   0.61203552   -8.6268673     60.39051  0.012395425  0.011665759            8 
  407000   0.61577944   -8.6332206    60.637894  0.012415621  0.011625243            4 
  408000    0.6108374    -8.639502    60.505346  0.012358118  0.011584919            4 
  409000   0.60777014   -8.6543337    60.461191  0.012318906  0.011544746            3 
  410000   0.60716357   -8.6766762    60.395704   0.01227555  0.011504633            2 
  411000   0.59510881   -8.6652216     60.34143  0.012234678  0.011464574            2 
  412000   0.59676022   -8.6644995    60.415262  0.012219915  0.011424816            2 
  413000   0.62095427   -8.6661928    60.389783  0.012185186   0.01138516            4 
  414000   0.59534284   -8.6551389    60.519153  0.012181794  0.011345618            2 
  415000   0.61145193   -8.6515113    60.419488  0.012132427  0.011306198            2 
  416000   0.61020823    -8.676356    60.446628  0.012108699  0.011267012            2 
  417000    0.6104661   -8.6857306    60.373898  0.012065127  0.011227802            4 
  418000   0.59579424   -8.6982137    60.317465  0.012025013  0.011188837            4 
  419000   0.60575516   -8.6907593    60.420951  0.012016896  0.011150002            4 
  420000   0.59786494   -8.6851451    60.396501  0.011983433  0.011111357            6 
  421000   0.59134193      -8.6932     60.35872   0.01194749  0.011072813            5 
  422000   0.60960914   -8.6813359    60.346068   0.01191668  0.011034471            3 
  423000   0.59127009   -8.7011484    60.424643  0.011903988  0.010996289            4 
  424000   0.58914923   -8.6868354     60.43792  0.011878522  0.010958283            1 
  425000   0.59115989   -8.7029779    60.322022  0.011827847  0.010920353            1 
  426000   0.60047342   -8.6987672    60.267665  0.011789449  0.010882576            2 
  427000   0.59707998   -8.7181012     60.27378  0.011763033  0.010844946            2 
  428000   0.58030698   -8.7111168    60.266934  0.011734216   0.01080741            1 
  429000   0.58967303   -8.7179947    60.322802  0.011717716  0.010770052            3 
  430000    0.5666131   -8.7252429    60.292359  0.011684566   0.01073279            2 
  431000   0.58193878   -8.7334053    60.212489  0.011642013  0.010695675            2 
  432000   0.57680812   -8.7101387     60.33172  0.011638063  0.010658625            1 
  433000   0.58164493   -8.7169966    60.290233  0.011603201  0.010621705            5 
  434000     0.587637   -8.7389466    60.260316  0.011570721   0.01058505            4 
  435000   0.57559542   -8.7361141    60.123236  0.011517861  0.010548412            3 
  436000   0.56448216   -8.7204866    60.219489  0.011509841  0.010511965            2 
  437000   0.57439083   -8.7400043    60.208668  0.011481439  0.010475564            3 
  438000   0.56582404   -8.7553421    60.292463  0.011471169  0.010439388            1 
  439000   0.56688896   -8.7508228    60.222975  0.011431848  0.010403371            2 
  440000   0.56408387    -8.731667    60.243316  0.011409719  0.010367586            3 
  441000   0.56701316   -8.7526294    60.091026  0.011355069  0.010331777            1 
  442000    0.5569684   -8.7574227    60.168512  0.011343988  0.010296154            1 
  443000   0.55884654   -8.7683117    60.222246  0.011328489   0.01026068            4 
  444000   0.55691934    -8.750627    60.096734  0.011279417  0.010225352            2 
  445000   0.56061725   -8.7665485    60.219606   0.01127708  0.010190138            4 
  446000   0.54706798   -8.7787174    60.098519   0.01122917  0.010155069            3 
  447000   0.55263793   -8.7634096    60.241602  0.011230724  0.010120189            2 
  448000   0.55587418   -8.7770471    60.062346  0.011172311  0.010085381            2 
  449000   0.55646636   -8.7747552    60.106714  0.011155663   0.01005079            2 
  450000   0.54558534    -8.752174    60.146879  0.011138311  0.010016307            2 
  451000    0.5503428   -8.7917865    60.075427  0.011100412  0.009982015            1 
  452000   0.55507621   -8.7911733    60.092957  0.011079085 0.0099477585            3 
  453000   0.56086887   -8.7720984    60.070193   0.01105044 0.0099136447            4 
  454000   0.53915207   -8.7791553    60.117775  0.011034834 0.0098797352            2 
  455000   0.53453407   -8.7929003    60.083855  0.011004369 0.0098459397            3 
  456000   0.54810277   -8.7972953    60.087722  0.010980943 0.0098122265            1 
  457000   0.54518105   -8.7942621    59.955253  0.010932759 0.0097787133            2 
  458000   0.53577018   -8.8083383    59.986403  0.010914557 0.0097452781            2 
  459000   0.53207862   -8.8061741    60.047001  0.010901779 0.0097119275            3 
  460000    0.5435976   -8.8181055    60.083034  0.010884608 0.0096787897            2 
  461000   0.52767148   -8.8147382    60.015218  0.010848738 0.0096457224            1 
  462000   0.52415291   -8.8111214    60.029829  0.010827891   0.00961284            1 
  463000     0.533028   -8.8200767    60.022419  0.010803171 0.0095800387            2 
  464000   0.52628738   -8.8069723    59.936671  0.010764488 0.0095473299            2 
  465000   0.52977347   -8.8263541    59.924876  0.010739225 0.0095147715            2 
  466000   0.51848652   -8.8322163    59.945789  0.010719919 0.0094823595            2 
  467000   0.50744823   -8.8401537    59.955314  0.010698664  0.009450121            2 
  468000   0.50743592   -8.8386654    59.837522  0.010654829 0.0094179898            2 
  469000   0.51703617   -8.8287331    60.057293  0.010671161 0.0093860327            1 
  470000   0.51277093   -8.8354205    59.942255  0.010628059 0.0093541883            2 
  471000   0.52085732   -8.8366739    60.070247   0.01062814 0.0093224825            2 
  472000   0.52559538   -8.8418471    59.971537  0.010588195 0.0092908943            2 
  473000   0.51907788   -8.8174177    59.928848  0.010558289  0.009259468            2 
  474000    0.5096613   -8.8318985     59.97848   0.01054474  0.009228195            3 
  475000    0.5044029    -8.850865    60.040632  0.010533444 0.0091970136            1 
  476000   0.50118717   -8.8492565    59.909825  0.010488415 0.0091659949            2 
  477000     0.509623   -8.8578939    59.909671    0.0104664 0.0091350754            2 
  478000   0.50654012   -8.8658137    59.897647  0.010442407 0.0091042938            2 
  479000   0.50029727   -8.8569291    59.910943   0.01042292 0.0090736294            2 
  480000   0.50893811   -8.8566844    59.858814  0.010392155 0.0090431486            2 
  481000   0.50296097   -8.8623314    59.944874   0.01038546 0.0090127599            2 
  482000   0.48545364   -8.8743151    59.934997  0.010362206 0.0089825607            4 
  483000   0.49563862   -8.8712546    59.823252  0.010321472 0.0089524374            2 
  484000   0.49781948    -8.865539    59.955996  0.010323002 0.0089224908            1 
  485000   0.49453669   -8.8691602    59.792197  0.010273573 0.0088926758            2 
  486000   0.50245463   -8.8707769    59.892029  0.010269552 0.0088629563            1 
  487000   0.49772128   -8.8597378    59.893608  0.010248735 0.0088333988            1 
  488000   0.49296266   -8.8748274    59.885313  0.010226317 0.0088039675            3 
  489000   0.48854514   -8.8912854    59.936058  0.010214052 0.0087745757            3 
  490000   0.49102919   -8.8970039    59.790738  0.010168493  0.008745328            1 
  491000   0.48816879    -8.903524    59.805777  0.010150335 0.0087162016            3 
  492000   0.48430782   -8.8867333    59.800798  0.010128861 0.0086871487            2 
  493000   0.48068857   -8.8890698    59.909416  0.010126676 0.0086582762            1 
  494000   0.47315261   -8.9039678    59.750014  0.010079287 0.0086294857            3 
  495000   0.46876968   -8.9039087    59.875658  0.010080077  0.008600839            2 
  496000   0.47750063    -8.899478    59.759328   0.01004021 0.0085722964            4 
  497000    0.4760113   -8.9077386    59.692876  0.010008866 0.0085438538            1 
  498000   0.46867977   -8.9083666    59.757986  0.009999663 0.0085155553            2 
  499000   0.47030682   -8.9001058    59.753618 0.0099788941 0.0084873468            4 
  500000    0.4628408   -8.9201135    59.842858 0.0099738096 0.0084592776            1 
  501000   0.46287192   -8.9242566    59.694916 0.0099292941  0.008431339            2 
  502000   0.46080638   -8.9024636    59.746022 0.0099179984 0.0084034757            3 
  503000   0.46772566   -8.9150177    59.657901 0.0098836814 0.0083757093            1 
  504000   0.46695291   -8.9341284    59.712689 0.0098731298 0.0083480738            3 
  505000   0.45674532    -8.922925    59.715227 0.0098539978 0.0083205573            4 
  506000   0.46095241   -8.9365091    59.764344 0.0098426127 0.0082931193            1 
  507000    0.4535264   -8.9268766    59.711945 0.0098145866 0.0082658593            2 
  508000   0.45740372   -8.9371409     59.80378 0.0098103314 0.0082387897            2 
  509000   0.46060715   -8.9411753    59.674099 0.0097698263 0.0082118191            1 
  510000   0.45020213   -8.9320186     59.70612 0.0097559019 0.0081849513            2 
  511000   0.44912642    -8.952633    59.784295 0.0097495589 0.0081581788            1 
  512000   0.44475936   -8.9379509     59.71981 0.0097200211 0.0081315229            1 
Loop time of 1229.9 on 48 procs for 500000 steps with 4000 atoms

Performance: 70249.609 tau/day, 406.537 timesteps/s
99.4% CPU use with 48 MPI tasks x no OpenMP threads

MPI task timing breakdown:
Section |  min time  |  avg time  |  max time  |%varavg| %total
---------------------------------------------------------------
Pair    | 76.109     | 85.745     | 92.386     |  36.8 |  6.97
Neigh   | 8.1403     | 8.4606     | 8.7794     |   5.7 |  0.69
Comm    | 78.503     | 85.171     | 97.057     |  40.1 |  6.93
Output  | 0.84543    | 0.84639    | 0.87758    |   0.5 |  0.07
Modify  | 1033.9     | 1037.9     | 1041       |   4.7 | 84.38
Other   |            | 11.83      |            |       |  0.96

Nlocal:        83.3333 ave          93 max          75 min
Histogram: 2 5 1 12 1 15 9 1 1 1
Nghost:        2151.60 ave        2170 max        2135 min
Histogram: 2 3 3 9 9 8 6 6 1 1
Neighs:        14312.7 ave       15822 max       12554 min
Histogram: 2 1 6 3 4 12 10 5 0 5
FullNghs:      28625.6 ave       31950 max       25747 min
Histogram: 4 3 2 9 6 12 9 1 1 1

Total # of neighbors = 1374027
Ave neighs/atom = 343.50675
Neighbor list builds = 26712
Dangerous builds = 0

#clear
#
#next RN
#
#jump SELF
Total wall time: 0:20:33
