
units lj                  # Use reduced LJ style units
atom_style atomic         # Uncharged point particles
atom_modify map hash      # Needed for indexing of clusters etc
                          # Used to be able to find where atoms are in relation to each other.

lattice fcc 1.0 spacing 1 1 1
Lattice spacing in x,y,z = 1.5874011 1.5874011 1.5874011
region box block 0 10 0 10 0 10 units lattice
create_box 2 box
Created orthogonal box = (0.0000000 0.0000000 0.0000000) to (15.874011 15.874011 15.874011)
  3 by 4 by 4 MPI processor grid
create_atoms 1 box
Created 4000 atoms
  using lattice units in orthogonal box = (0.0000000 0.0000000 0.0000000) to (15.874011 15.874011 15.874011)
  create_atoms CPU = 0.002 seconds
set type 1 type/fraction 2 0.77 78393
Setting atom values ...
  3073 settings made for type/fraction
mass 1 1.0
mass 2 1.0
pair_style lj/cut  3.5
pair_modify tail  yes
pair_coeff 1  1  1.0  1.0   # Intearaction between 1 and 1 set with epsilon = 1 and sigma = 1
pair_coeff 1  2  1.5  0.8
pair_coeff 2  2  0.5  0.88

write_data data.0
System init for write_data ...
Neighbor list info ...
  update every 1 steps, delay 10 steps, check yes
  max neighbors/atom: 2000, page size: 100000
  master list distance cutoff = 3.8
  ghost atom cutoff = 3.8
  binsize = 1.9, bins = 9 9 9
  1 neighbor lists, perpetual/occasional/extra = 1 0 0
  (1) pair lj/cut, perpetual
      attributes: half, newton on
      pair build: half/bin/atomonly/newton
      stencil: half/bin/3d
      bin: standard
WARNING: Not all mixed pair coeffs generated from mixing. Use write_data with 'pair ij' option to store all pair coeffs. (../write_data.cpp:312)


#############################
#   M E L T   S Y S T E M   #
#############################

velocity all create 2.4 9580093 mom yes dist gaussian # Assign velocities
                                                    # Temperature 2.4, random number seed, zero linear momentum
                                                                                # Gaussian distribution

timestep 0.002   # simulation timestep
thermo 1000       # output thermodynamic data every 1000 steps bf 100

# Define a fix  in this case with index 1 applied to all
# particles in the simulation. This fix is for simulations
# in the anisotropic NPT ensemble. Note that we use the MTK
# correction.
fix 1 all npt temp 2.4 2.4 0.1 iso 5.68 5.68 0.5 mtk yes tchain 5 pchain 5 # Use NPT ensemble
                                                                         # Set temperature and pressure and damping
                                                                         # Numbers of thermostats in chain and in barostat
run 10000          # run for 10000 steps
Per MPI rank memory allocation (min/avg/max) = 3.642 | 3.644 | 3.648 Mbytes
Step Temp E_pair E_mol TotEng Press Volume 
       0          2.4   -3.8453673            0  -0.24626728   -3.4249601         4000 
    1000    2.4398417    -3.310559            0   0.34828868     5.869142    3730.1862 
    2000    2.4196733   -3.2862078            0   0.34239481    5.5057708    3758.9515 
    3000    2.3905685   -3.3499982            0   0.23495807    5.5682228    3705.1857 
    4000    2.4212403   -3.3221071            0   0.30884535    5.6977817     3723.757 
    5000    2.4194275   -3.2857963            0   0.34243768    5.5557572    3763.7383 
    6000    2.3903782   -3.2672356            0   0.31743529    5.5942672     3772.485 
    7000    2.4136562   -3.3082917            0   0.31128744     5.666439    3733.2191 
    8000    2.3798995   -3.2677149            0   0.30124187      5.60728    3755.1984 
    9000    2.3635422   -3.2829975            0   0.26142946    5.6788991    3754.9075 
   10000     2.405608   -3.3180003            0   0.28950962    5.7326169    3722.9972 
Loop time of 2.63382 on 48 procs for 10000 steps with 4000 atoms

Performance: 656080.961 tau/day, 3796.765 timesteps/s
99.6% CPU use with 48 MPI tasks x no OpenMP threads

MPI task timing breakdown:
Section |  min time  |  avg time  |  max time  |%varavg| %total
---------------------------------------------------------------
Pair    | 1.1714     | 1.2372     | 1.3891     |   3.4 | 46.97
Neigh   | 0.21639    | 0.22313    | 0.25305    |   1.3 |  8.47
Comm    | 0.76019    | 0.90197    | 1.0054     |   5.1 | 34.25
Output  | 0.00024491 | 0.00025185 | 0.00031792 |   0.0 |  0.01
Modify  | 0.20752    | 0.25412    | 0.30495    |   5.7 |  9.65
Other   |            | 0.01712    |            |       |  0.65

Nlocal:        83.3333 ave          97 max          68 min
Histogram: 1 0 3 6 14 9 7 5 1 2
Nghost:        1723.52 ave        1752 max        1691 min
Histogram: 2 1 4 9 7 5 8 4 5 3
Neighs:        10243.0 ave       12061 max        8121 min
Histogram: 1 0 2 10 7 13 7 3 3 2

Total # of neighbors = 491663
Ave neighs/atom = 122.91575
Neighbor list builds = 908
Dangerous builds = 217

# Equilibrate just above the melting temperature to avoid step fn in T

fix 1 all npt temp 1.25 1.25 0.1 iso 5.68 5.68 0.5 mtk yes tchain 5 pchain 5
run 2000
Per MPI rank memory allocation (min/avg/max) = 3.644 | 3.646 | 3.649 Mbytes
Step Temp E_pair E_mol TotEng Press Volume 
   10000     2.405608   -3.3180003            0   0.28950962    5.7326169    3722.9972 
   11000    1.2490911   -4.8800796            0   -3.0069114    5.6568929    2859.2852 
   12000    1.2855932   -4.8705302            0   -2.9426225    5.3481949    2878.6021 
Loop time of 0.650411 on 48 procs for 2000 steps with 4000 atoms

Performance: 531356.690 tau/day, 3074.981 timesteps/s
99.6% CPU use with 48 MPI tasks x no OpenMP threads

MPI task timing breakdown:
Section |  min time  |  avg time  |  max time  |%varavg| %total
---------------------------------------------------------------
Pair    | 0.28909    | 0.31621    | 0.34368    |   2.3 | 48.62
Neigh   | 0.040794   | 0.044008   | 0.046378   |   0.6 |  6.77
Comm    | 0.2068     | 0.2375     | 0.26839    |   2.9 | 36.52
Output  | 5.2453e-05 | 5.3946e-05 | 6.9539e-05 |   0.0 |  0.01
Modify  | 0.043703   | 0.047688   | 0.051635   |   1.0 |  7.33
Other   |            | 0.004947   |            |       |  0.76

Nlocal:        83.3333 ave          91 max          77 min
Histogram: 5 1 9 4 5 12 2 8 1 1
Nghost:        2050.27 ave        2074 max        2024 min
Histogram: 1 3 5 4 7 10 8 2 5 3
Neighs:        13266.6 ave       14817 max       11754 min
Histogram: 2 2 6 5 8 11 6 3 2 3

Total # of neighbors = 636799
Ave neighs/atom = 159.19975
Neighbor list builds = 145
Dangerous builds = 12

#############################
# L I N E A R  Q U E N C H  #
#############################

# Define solid atoms. This closely follows ten Wolde  Ruiz-Montero and Frenkel  Faraday Discuss  1996  104  93-110
# Compute components of the per-atom q6 vector
compute q6 all orientorder/atom degrees 1 6 components 6 nnn NULL cutoff 1.3 # compute the Q6 parameter.
                                                                             # Use all neighbours within 1.3 unit cell.

# get number of connections
compute coord_number all coord/atom orientorder q6 0.5

# An atom is solid if it has 8 or more connections (of a possible 14)
variable is_solid atom c_coord_number>=8
group solid dynamic all var is_solid    # Must be dynamic to update
dynamic group solid defined

# do clustering
compute cluster solid cluster/atom 1.3 # Create a cluster where all atoms within are solid and max 1.3 units from another member

# define chunks one chunk per cluster
compute clus_chunks solid chunk/atom c_cluster nchunk every compress yes  # Says which atoms are in which chunk

# count the size of each chunk
compute size_chunks solid property/chunk clus_chunks count


# Find the maximum entry in the vector of chunk sizes
variable max_n equal max(c_size_chunks)


# Thermo style which includes this variable
# thermo_style custom step temp pe vol v_max_n

thermo ${N}  # Print the thermo information every 100 steps
thermo 1000  

# Reset the npt fix at a lower temperature (below freezing)
fix 1  all npt temp  ${temp} ${temp}  0.1  iso  5.68  5.68  0.5  mtk yes tchain  5  pchain  5
fix 1  all npt temp  0.45 ${temp}  0.1  iso  5.68  5.68  0.5  mtk yes tchain  5  pchain  5
fix 1  all npt temp  0.45 0.45  0.1  iso  5.68  5.68  0.5  mtk yes tchain  5  pchain  5

dump dmp2 all dcd ${N} traj.dcd
dump dmp2 all dcd 1000 traj.dcd


compute msd all msd com yes
variable twopoint equal c_msd[4]/6/(step*dt+1.0e-6)
fix 9 all vector 10 c_msd[4]
variable fit equal slope(f_9)/6/(10*dt)
thermo_style custom step temp pe c_msd[4] v_twopoint v_fit v_max_n

fix 1 all npt temp 1.25 ${temp} 0.1 iso 5.68 5.68 0.5 mtk yes tchain 5 pchain 5
fix 1 all npt temp 1.25 0.45 0.1 iso 5.68 5.68 0.5 mtk yes tchain 5 pchain 5
run 2000000 # 5000000  # Run for this many steps
Neighbor list info ...
  update every 1 steps, delay 10 steps, check yes
  max neighbors/atom: 2000, page size: 100000
  master list distance cutoff = 3.8
  ghost atom cutoff = 3.8
  binsize = 1.9, bins = 8 8 8
  4 neighbor lists, perpetual/occasional/extra = 1 3 0
  (1) pair lj/cut, perpetual
      attributes: half, newton on
      pair build: half/bin/atomonly/newton
      stencil: half/bin/3d
      bin: standard
  (2) compute orientorder/atom, occasional
      attributes: full, newton on
      pair build: full/bin/atomonly
      stencil: full/bin/3d
      bin: standard
  (3) compute coord/atom, occasional
      attributes: full, newton on
      pair build: full/bin/atomonly
      stencil: full/bin/3d
      bin: standard
  (4) compute cluster/atom, occasional
      attributes: full, newton on
      pair build: full/bin/atomonly
      stencil: full/bin/3d
      bin: standard
Per MPI rank memory allocation (min/avg/max) = 9.836 | 9.843 | 9.848 Mbytes
Step Temp PotEng c_msd[4] v_twopoint v_fit v_max_n 
   12000    1.2855932   -4.8705302            0            0 8.3333333e+20            5 
   13000    1.2414332   -4.9143541   0.72411426 0.0046417579  0.060474535            2 
   14000    1.2760707   -4.8502582    1.4698125 0.0087488835  0.061179615            4 
   15000     1.259541   -4.8861974    2.1770053  0.012094474  0.060795396            4 
   16000    1.2335408   -4.9223154    2.9619529  0.015426838  0.061368555            1 
   17000    1.2769374   -4.8689522    3.7193937  0.018232322  0.062058146            5 
   18000    1.2464729   -4.8827267    4.4416881   0.02056337  0.062124206            1 
   19000    1.2530388   -4.8954286    5.1379904  0.022535045  0.062080484            1 
   20000    1.2760371    -4.909695    5.8731059  0.024471274  0.061662024            2 
   21000    1.2649616   -4.9081931    6.6027932   0.02620156  0.061345611            2 
   22000    1.2265185    -4.904053    7.4546561  0.028237333  0.061572377            4 
   23000    1.2559114   -4.8496836    8.1868136  0.029662368  0.062002294            4 
   24000    1.2577161   -4.8984899    8.9084941  0.030932271  0.062053267            2 
   25000    1.2695704   -4.9012863     9.666986  0.032223286  0.062121733            2 
   26000     1.261499   -4.8957436    10.462381   0.03353327  0.062128873            1 
   27000    1.2516288   -4.9284074     11.27111  0.034787375  0.062257408            3 
   28000    1.2483661   -4.8858856    11.971575  0.035629688  0.062408522            2 
   29000    1.2405916   -4.9308685     12.45319  0.035785028  0.062295747            4 
   30000    1.2352526   -4.8836441    13.124392  0.036456645  0.061965937            3 
   31000    1.2642569   -4.9389271    13.807867  0.037117921  0.061618911            3 
   32000    1.2323664   -4.8926277    14.527333  0.037831597  0.061303864            2 
   33000    1.2434459   -4.8793969    15.179592  0.038332302  0.061011992            1 
   34000    1.2201028   -4.9143852    15.909756    0.0389945  0.060788853            2 
   35000    1.2306027   -4.8865067    16.594727  0.039511255  0.060553014            1 
   36000    1.2268861   -4.8924242    17.296264  0.040037648   0.06032507            3 
   37000     1.240238   -4.8604106    17.976001  0.040486488  0.060183398            1 
   38000    1.2502593   -4.9230086    18.679682  0.040964215  0.059993742            1 
   39000    1.2309522   -4.9105641    19.420515  0.041496825  0.059883286            6 
   40000    1.2647916   -4.9043951    20.100094  0.041875195  0.059782653            2 
   41000    1.2567918   -4.9030109    21.000643  0.042684234  0.059689991            1 
   42000     1.253455   -4.9406026    21.658107  0.042972433  0.059695417            4 
   43000     1.231165   -4.9129742    22.426989  0.043463156  0.059706255            2 
   44000    1.2437069     -4.88859    23.319048  0.044164862  0.059757477            2 
   45000     1.228711   -4.9169348    23.823283  0.044117191  0.059821769            3 
   46000    1.2087121   -4.8942558    24.610996  0.044585137  0.059797524            2 
   47000    1.2233054   -4.9248706    25.218633  0.044713887  0.059795779            1 
   48000    1.2303552   -4.9123931    26.039844  0.045208062   0.05980074            2 
   49000    1.2268961   -4.8662809    26.739515  0.045475366  0.059800498            3 
   50000    1.2364769   -4.8900328    27.404152  0.045673586  0.059788035            2 
   51000    1.2695693   -4.8715073    28.340686   0.04630831  0.059786701            1 
   52000    1.2389608   -4.9377254     28.71705  0.046020913  0.059769734            3 
   53000    1.2593954   -4.9067402    29.572185  0.046497145  0.059757576            1 
   54000    1.2411838   -4.8993568    30.246843  0.046677226   0.05975301            5 
   55000    1.2517714   -4.9305853    30.928881   0.04686194    0.0597515            4 
   56000      1.21482   -4.9379636    31.660282  0.047113515  0.059751112            1 
   57000    1.2225651   -4.9249663    32.489331  0.047499022  0.059751569            2 
   58000      1.25728   -4.8962569    33.167411  0.047654325  0.059756282            1 
   59000    1.2394809   -4.9210805    34.052684  0.048097011  0.059773873            3 
   60000    1.2291912     -4.89425    34.792051  0.048322292  0.059802512            3 
   61000    1.2540936   -4.8608996    35.572419  0.048596201   0.05984615            3 
   62000    1.2164142   -4.8839196    36.225739   0.04869051  0.059879955            2 
   63000    1.2582471   -4.9356579    36.756111  0.048619194  0.059892665            4 
   64000    1.2539119   -4.9466112    37.567922  0.048916565  0.059895333            3 
   65000    1.2427533   -4.9338398    38.543745  0.049415057  0.059920188            2 
   66000    1.2330546   -4.9218038    39.096551  0.049364331  0.059932598            3 
   67000    1.2307531   -4.9418807    39.702797  0.049381587  0.059932914            1 
   68000    1.2315991   -4.9384941    40.354847  0.049454469  0.059938824            1 
   69000    1.2605359   -4.9480666    41.149687   0.04969769  0.059944395            3 
   70000    1.2216406    -4.869707    42.090408  0.050107628  0.059947646            2 
   71000    1.2094733   -4.9407078    42.685099  0.050099881  0.059971754            2 
   72000    1.2190505    -4.957498    43.431381  0.050267802  0.059983275            5 
   73000    1.2288071   -4.9538084     44.60186  0.050915365  0.060040232            3 
   74000    1.2240799   -4.8665424    45.256653  0.050964699   0.06009477            6 
   75000    1.2023078   -4.9205355    45.629844  0.050699826  0.060130843            5 
   76000    1.2356247   -4.9706022    46.250919  0.050713726  0.060138948            3 
   77000    1.2252847   -4.9604457     46.91006  0.050768463   0.06014238            3 
   78000    1.2559405   -4.9757262     47.63268  0.050889615  0.060149674            3 
   79000    1.2271908   -4.9872683     48.43805  0.051094989  0.060141345            6 
   80000    1.2341381   -4.9093286     49.04237  0.051085802  0.060123008            4 
   81000    1.2300115   -4.9381272    49.531452  0.050958284   0.06010806            4 
   82000    1.2236574   -4.9360853    50.166065  0.050981773   0.06006789            4 
   83000    1.2163571   -4.9366392    50.900236  0.051104654  0.060034234            2 
   84000    1.2165548    -4.923798    52.041295  0.051628268  0.060022859            1 
   85000    1.2292257    -4.913625    52.549512  0.051519129  0.060007627            1 
   86000    1.1985544   -4.9528456    53.054817  0.051409706  0.059988286            6 
   87000    1.2035261   -4.9240836    54.141298   0.05185948  0.059987286            2 
   88000    1.2370072   -4.9547042    54.944192  0.052030484  0.059981518       -1e+20 
   89000    1.2344515   -4.9176389    55.686185  0.052140622  0.059986623            4 
   90000    1.2092422   -4.9495734    56.145644  0.051986707  0.059996215            2 
   91000    1.2217196   -4.9362081     57.02203  0.052217976  0.060000874            3 
   92000    1.2139033   -4.9614916    57.547787  0.052126618  0.060000045            2 
   93000    1.2389549   -4.9743708    58.510963  0.052429178  0.059988974            1 
   94000    1.2239893   -4.9695277    58.784762  0.052114151   0.05996871            2 
   95000    1.2550662   -4.9594266    59.364575  0.052074188  0.059953642            3 
   96000    1.2103936   -4.9393523    60.038358   0.05211663  0.059937356            7 
   97000    1.2197367   -4.9355266    61.300877  0.052663984  0.059919117            4 
   98000    1.2092044   -4.9329086    61.794221  0.052546106  0.059906206            1 
   99000     1.210296   -4.9343556    62.543872  0.052646356  0.059896858            3 
  100000    1.2032846   -4.9374945    63.055459  0.052546216  0.059876136            3 
  101000    1.2231895   -4.9242501    63.917439  0.052737161  0.059863413            3 
  102000    1.2134528   -4.9275353    64.345245  0.052569644  0.059848461            2 
  103000    1.2312042   -4.9385217    64.957246  0.052554406  0.059827848            2 
  104000    1.2110178   -4.9443259    65.931915   0.05283006  0.059801508            1 
  105000    1.2230674   -4.9502412    66.459944  0.052745987   0.05977187            4 
  106000    1.2191068   -4.9389962    67.034451   0.05270004  0.059739955            3 
  107000    1.2044151   -4.9636361    67.538398  0.052599998  0.059709422            5 
  108000    1.2029828   -4.9366639    68.469516  0.052831416  0.059676035            3 
  109000    1.2189361   -4.9470987    69.067378  0.052803806  0.059642862            2 
  110000    1.1998703   -4.9543935    69.837314  0.052907056  0.059613464            5 
  111000    1.2228981   -4.9627223    70.786536  0.053143045  0.059591077            3 
  112000     1.203114   -4.9657934    71.496192  0.053196571  0.059566204            3 
  113000    1.2022079   -4.9639474     71.92844  0.053044572  0.059544072            5 
  114000    1.2463829   -4.9622511    72.699887  0.053143192  0.059525846            1 
  115000    1.2291311   -4.9590153     73.28596  0.053105768  0.059506522            1 
  116000     1.186695    -4.974801    73.937755  0.053116203   0.05948635            2 
  117000    1.2158308   -4.9778489    74.477786  0.053046856  0.059456389            1 
  118000    1.2435211   -4.9585002    74.992194  0.052960589  0.059419524            3 
  119000    1.2045299   -4.9680878    75.649923  0.052976136  0.059388389            2 
  120000    1.2165776   -4.9443997    76.302334  0.052987732  0.059348623            2 
  121000    1.2075867   -4.9335798    76.613599  0.052764187  0.059302838            2 
  122000     1.183726   -4.9543161    77.366536  0.052845994  0.059247138            1 
  123000     1.195958   -4.9771375    77.623028  0.052590127  0.059190135            3 
  124000    1.1811239   -4.9962998    78.116487  0.052497639  0.059126624            1 
  125000    1.1957959   -4.9827692    79.331949  0.052887966  0.059067103            2 
  126000    1.2258333   -4.9867364    79.679597  0.052698146  0.059011895            2 
  127000    1.1979635   -4.9733348    80.295863  0.052687574  0.058948365            3 
  128000     1.187915   -4.9926938    80.735294   0.05256204  0.058883244            7 
  129000    1.2035808   -4.9857568    81.385768  0.052574785   0.05882219            2 
  130000    1.1888068   -4.9506981    82.070929   0.05260957   0.05876166            4 
  131000    1.2076534   -4.9974148    82.296447  0.052351429  0.058693661            4 
  132000    1.1962555   -4.9765115    83.539679  0.052739696   0.05862713            3 
  133000    1.2054509   -5.0252186    83.904211   0.05257156  0.058561455            1 
  134000    1.2195106   -5.0201182    84.732192  0.052694149  0.058506061            2 
  135000    1.1837858   -4.9773798    85.361052  0.052692007  0.058452026            3 
  136000    1.1847787   -4.9768375    86.090969  0.052751819  0.058402275            3 
  137000    1.1778556   -4.9741206    86.521972  0.052628936  0.058348429            2 
  138000    1.1883448   -4.9975011    86.999761  0.052536087  0.058284986            2 
  139000    1.2103904   -5.0030008    87.349284  0.052367676  0.058227008            2 
  140000    1.2132737   -5.0013393    89.073315   0.05301983  0.058176072            1 
  141000    1.1890298   -5.0226993    89.373488   0.05282121  0.058126275            3 
  142000     1.211379   -4.9605071    90.317752  0.053003375  0.058084995            2 
  143000    1.1943639   -4.9974759    90.865862  0.052952134  0.058049575            3 
  144000    1.2010433   -4.9916008    91.766524  0.053105627   0.05800994            1 
  145000    1.2011562   -4.9546703    92.384961  0.053094805  0.057967474            4 
  146000    1.2157342   -4.9973151    92.398745  0.052739009  0.057920738            2 
  147000     1.181249   -4.9427398    93.285216  0.052882775   0.05786958            3 
  148000    1.1942875    -4.959706    93.914231  0.052879634  0.057826184            2 
  149000    1.1809311   -4.9797652    94.257867  0.052716928  0.057779307            3 
  150000      1.19726   -5.0061638    94.701218  0.052611787    0.0577239            3 
  151000    1.1961918   -4.9828075    95.102322  0.052484725   0.05767023            1 
  152000    1.1932868   -4.9716384    95.958255  0.052608692  0.057614967            3 
  153000    1.1971466   -4.9987738    96.190646  0.052391419  0.057561305            1 
  154000    1.1666887   -4.9930962    97.434318  0.052724198  0.057508835            2 
  155000    1.1896189   -4.9838761    98.149298   0.05276844  0.057460322            2 
  156000    1.2079658   -4.9801205    98.668558  0.052707563  0.057412679            3 
  157000    1.2166699   -4.9586672    99.373053  0.052745781  0.057368215            1 
  158000    1.1720211   -5.0149876    100.18026  0.052837692  0.057329189            3 
  159000    1.1692805   -4.9894819    100.84562  0.052854099  0.057289113            4 
  160000    1.1725244   -4.9979437     101.2345  0.052726302  0.057245641            4 
  161000    1.1931032   -5.0087904    101.99542  0.052792658  0.057199787            2 
  162000    1.1952718    -4.998959    102.15072  0.052546669  0.057149212            2 
  163000    1.2230986   -4.9565403     103.9043  0.053120809  0.057108868            1 
  164000    1.1992636    -4.989311    104.19049  0.052942321  0.057073345            2 
  165000    1.1617632   -4.9802946    104.75113  0.052904611  0.057038513            4 
  166000    1.1993743   -4.9748906    105.43089  0.052927154   0.05700088            3 
  167000    1.1987032   -5.0064556    105.74683  0.052767881  0.056966844            3 
  168000    1.1813939    -5.020627    106.22755  0.052692239  0.056929824            3 
  169000    1.1773461   -5.0380785    106.43373  0.052482117   0.05689392            1 
  170000    1.1821389    -5.043238    107.38113   0.05263781  0.056849143            6 
  171000    1.1817749   -5.0301242    108.21507   0.05273639  0.056808603            3 
  172000    1.1841432   -5.0218319    108.41181  0.052525104  0.056766962            3 
  173000    1.1532461   -4.9894785    109.49625  0.052743856  0.056725466            4 
  174000    1.1699946   -5.0015185    110.11617  0.052737627  0.056687215            2 
  175000    1.1962382   -4.9844219    110.65012  0.052690535  0.056652487            1 
  176000    1.1886965    -4.999584    111.42062  0.052755973  0.056618351            2 
  177000     1.212705    -5.017817    112.26869  0.052857197  0.056586775            2 
  178000    1.1792979   -4.9920282    113.24289  0.053016333  0.056559814            3 
  179000    1.1651274   -5.0167684    114.00646  0.053075633  0.056539958            2 
  180000    1.1800733    -5.015664    114.46926   0.05299503  0.056521875            2 
  181000    1.1736464   -4.9907202    115.80473  0.053317096  0.056503893            2 
  182000    1.2187718   -4.9810431    116.52123  0.053352212  0.056490268            3 
  183000    1.1848561   -4.9804927    117.43142  0.053475145  0.056479958            2 
  184000    1.1814335   -5.0191395    117.66234  0.053289101  0.056470876            4 
  185000    1.1932457   -4.9692905      118.667  0.053453603  0.056459013            3 
  186000    1.1799862   -5.0049336    119.06761  0.053345704  0.056447977            3 
  187000    1.1659241    -5.003225    119.07927   0.05306563  0.056428217            2 
  188000     1.173529   -5.0308666    119.16632   0.05282195   0.05640183            6 
  189000    1.1666175   -5.0137123    120.17401  0.052986776  0.056375892            2 
  190000    1.1903277   -4.9707261    121.60063  0.053333608  0.056356237            2 
  191000    1.1647956    -5.009968     122.1543  0.053295941   0.05633684            1 
  192000    1.1787236   -5.0486252    122.52419    0.0531789  0.056317873            3 
  193000    1.2107506    -5.000437    123.03618  0.053124431  0.056302652            2 
  194000    1.1794366   -5.0101688    123.87658  0.053211587  0.056283831            3 
  195000    1.1456951   -5.0578995    124.50035  0.053205279  0.056264878            2 
  196000    1.1710221   -5.0069081    124.94037  0.053120905  0.056247325            4 
  197000     1.154373   -5.0047088    125.66527  0.053157898   0.05622971            3 
  198000    1.1874483   -5.0281183    126.05934  0.053055277  0.056208008            4 
  199000    1.1696783   -4.9950564    127.73109  0.053488731  0.056190433            2 
  200000    1.1685292   -4.9843023    128.25433  0.053439305  0.056175786            3 
  201000    1.1758198   -5.0361237     128.5983  0.053316046  0.056162737            2 
  202000    1.1773852   -5.0337369    128.85126  0.053156459  0.056149589            2 
  203000    1.1735187   -5.0124647    129.63581  0.053216669   0.05613529            4 
  204000    1.1596043   -5.0498163    130.37285  0.053256883  0.056119905            3 
  205000    1.2052819   -5.0534999     130.4407  0.053024675  0.056102153            2 
  206000    1.1309993   -5.0181729    131.19766  0.053073487  0.056084859            2 
  207000    1.1590554   -5.0305893    131.65247  0.053000189  0.056061993            2 
  208000    1.1655619   -5.0012867    133.16837  0.053352713  0.056042072            2 
  209000    1.1549303   -5.0465616    134.04817  0.053448235  0.056029233            1 
  210000    1.1485551   -5.0019657    134.10026  0.053214388  0.056014724            4 
  211000    1.1561277   -5.0505903    134.69524  0.053197174  0.056001579            3 
  212000    1.1469982   -5.0525902    135.45031  0.053243048  0.055986968            3 
  213000    1.1573912   -5.0222003    136.31963  0.053333188  0.055971759            5 
  214000    1.1561223   -5.0274968    136.64128  0.053209222   0.05595772            2 
  215000     1.146498   -5.0576176    137.60266  0.053334365  0.055943397            2 
  216000    1.1582373    -5.020412    138.29727   0.05335543  0.055930726            2 
  217000    1.1515537   -5.0351154    139.30874   0.05349798  0.055918695            2 
  218000    1.2044006   -5.0635529    139.22184  0.053219356  0.055908345            2 
  219000     1.204209   -5.0380365    140.21059  0.053352582  0.055894943            2 
  220000    1.1445445   -5.0479382      140.459  0.053204168  0.055881724            2 
  221000    1.1699915   -5.0652108    141.21839   0.05324977   0.05586851            4 
  222000    1.1345086   -5.0670327    141.65357  0.053173263  0.055853845            2 
  223000    1.1571445   -5.0198615    143.01514  0.053443626  0.055838342            3 
  224000    1.1631414    -5.084109    142.90066  0.053162449  0.055824788            3 
  225000    1.1822135   -5.0086216    144.37256   0.05347132   0.05581126            7 
  226000    1.1724221   -5.0405825    144.48437  0.053275949  0.055801106            4 
  227000    1.1642984   -5.0101759    145.23169  0.053315599  0.055788006            2 
  228000    1.1586562   -5.0067367    146.51575   0.05355108  0.055775953            1 
  229000    1.1549704   -5.0525936    146.26772  0.053226972  0.055763518            2 
  230000    1.1869634   -5.0341929    146.86484  0.053211898  0.055749387            3 
  231000    1.1409565   -5.0563016    147.95333  0.053374215  0.055737031            2 
  232000    1.1593126   -5.0447724    148.42676   0.05331421  0.055722675            4 
  233000    1.1415192   -5.0669529    148.97001  0.053279687  0.055709164            1 
  234000     1.193737   -5.0355977    150.00955  0.053422205  0.055698025            3 
  235000    1.1814527   -5.0492035    150.34445  0.053313634   0.05568657            3 
  236000    1.1365982   -5.0579837    151.28369  0.053419381  0.055673627            3 
  237000    1.1764234   -5.0709755    151.56017  0.053291199  0.055659776            3 
  238000    1.1648659   -5.0209203    152.19666  0.053290148  0.055643316            2 
  239000    1.1727319   -5.0424573    153.20041  0.053417157  0.055631022            6 
  240000    1.1662293   -5.0797748    153.36897  0.053253115  0.055620045            5 
  241000    1.1730771   -5.0593719    154.56746  0.053446564  0.055610228            2 
  242000    1.1690676   -5.0652256    154.39937  0.053167828  0.055598607            2 
  243000    1.1657482   -5.0897197    155.24703  0.053239721  0.055586559            3 
  244000    1.1637068   -5.0564219    155.67405  0.053167368  0.055571999            3 
  245000    1.1469457   -5.0522815     156.5711  0.053255475  0.055558124            6 
  246000    1.1616681   -5.0718332    157.08556  0.053213266  0.055544304            2 
  247000    1.1770725   -5.0641055    156.95448  0.052953603  0.055526986            2 
  248000    1.1416529   -5.1043685    157.71629  0.052996065  0.055508875            4 
  249000    1.1647899   -5.0680215    158.12269  0.052919239  0.055490265            3 
  250000    1.1549045   -5.0861772    159.19338  0.053064459  0.055472465            2 
  251000    1.1558074   -5.0671042    159.76838  0.053043952   0.05545526            2 
  252000     1.159461   -5.0645946    160.73911  0.053154468  0.055439381            2 
  253000    1.1740665   -5.0774977    160.79256  0.052961975  0.055423695            3 
  254000    1.1639535   -5.0521677    160.95925  0.052808153  0.055403508            3 
  255000    1.1619201   -5.0406823    162.28653  0.053034814  0.055385432            4 
  256000    1.1334067   -5.0692503    163.23822  0.053137441  0.055368492            2 
  257000    1.1574281   -5.0847908    163.05861   0.05287244  0.055352498            2 
  258000    1.1436069    -5.062334    164.53963  0.053145875  0.055336048            2 
  259000    1.1458973   -5.0492751    165.22068  0.053159807  0.055319953            2 
  260000    1.1705653   -5.0553003    166.12472  0.053245103  0.055302169            4 
  261000    1.1403961   -5.0721516     165.8943  0.052967529   0.05528649            4 
  262000    1.1605956   -5.0305095    167.70539   0.05334141  0.055272061            3 
  263000    1.1392727   -5.0896134    166.99957  0.052914947  0.055258243            3 
  264000    1.1266931   -5.0762243     168.2366  0.053104988  0.055244166            3 
  265000     1.155628   -5.0872604    168.81016  0.053084957  0.055230267            2 
  266000    1.1329339   -5.1078559    168.92863  0.052922503  0.055215674            3 
  267000    1.1490984   -5.1237169    170.07826  0.053083101  0.055202656            4 
  268000    1.1484257   -5.0519919    171.33686  0.053276387  0.055187329            3 
  269000    1.1480204   -5.0629979      170.784  0.052907062   0.05517337            1 
  270000    1.1557482   -5.0969292    171.91312  0.053059606  0.055159091            3 
  271000    1.1460439   -5.0331872    173.10528  0.053230406  0.055144178            2 
  272000    1.1325184   -5.0845962    172.71672  0.052915661  0.055127078            3 
  273000    1.1144411   -5.0589081    173.16394  0.052858344  0.055107445            2 
  274000    1.1548907   -5.0792642    174.17172  0.052971934    0.0550904            2 
  275000    1.1459348   -5.1171593    174.31532  0.052822825  0.055071974            2 
  276000      1.13922   -5.0951985    174.60098  0.052717688  0.055050651            6 
  277000    1.1303191   -5.0646653    175.63327  0.052837928  0.055027997            1 
  278000    1.1196092   -5.1376926    174.89307   0.05242598   0.05500424            3 
  279000    1.1533595   -5.1101289    175.68917  0.052475856  0.054979825            4 
  280000    1.1517157    -5.112385    176.50999  0.052532734   0.05495539            3 
  281000    1.1322918   -5.0816795    178.35321  0.052892411  0.054934396            3 
  282000      1.13991   -5.0778867    178.80988    0.0528398   0.05491393            3 
  283000     1.153542   -5.1378224    178.70293  0.052621594  0.054895395            3 
  284000    1.1372352   -5.1346755    178.52291  0.052383483  0.054873915            4 
  285000    1.1312458   -5.0856616    180.20369  0.052691138  0.054853615            2 
  286000    1.1692777   -5.1166141    180.24046  0.052517615  0.054832703            2 
  287000    1.1194711   -5.1034878    181.10624  0.052586017  0.054811681            1 
  288000    1.1418846   -5.0831492    181.85133  0.052619019  0.054791947            2 
  289000    1.1476869   -5.1019688    182.43021  0.052603868    0.0547711            5 
  290000    1.1379795   -5.0738803    182.42737  0.052421658  0.054748327            2 
  291000    1.1308319   -5.0568053    183.03728  0.052416173  0.054725418            3 
  292000    1.1776791   -5.0637025     184.5267  0.052661731  0.054705271            3 
  293000    1.1410461   -5.0496493    185.09564  0.052643811  0.054683764            2 
  294000    1.1320289   -5.1239078    185.09575  0.052464781  0.054662538            2 
  295000    1.1481885   -5.0862457    185.77342  0.052478367  0.054640227            4 
  296000    1.1321656   -5.1152072    186.65018   0.05254791  0.054618287            2 
  297000     1.158659   -5.0753911    187.33114  0.052562049  0.054598349            2 
  298000    1.1244718    -5.141192    187.57163  0.052452916  0.054574532            2 
  299000     1.135975   -5.1470639    186.56014  0.051995581   0.05455124            6 
  300000    1.1436929   -5.0858276    188.32509  0.052312526  0.054528893            2 
  301000    1.1357974   -5.1198153    189.22765  0.052388608  0.054506285            3 
  302000    1.1386583    -5.126879    189.53682  0.052300448  0.054484265            7 
  303000    1.1555052   -5.1194278    189.49601  0.052116615  0.054461705            2 
  304000    1.1292185    -5.120719     190.7808  0.052297369  0.054439353            3 
  305000    1.1467482   -5.0703622    191.83328  0.052413464  0.054419149            6 
  306000    1.1271878    -5.119967    192.29479  0.052367861  0.054398167            3 
  307000    1.1155686   -5.1157244    192.82517   0.05234125  0.054376032            3 
  308000    1.1182288   -5.0982842     193.2976  0.052299134  0.054355628            2 
  309000     1.120244   -5.0971429    194.66445  0.052498504  0.054335306            2 
  310000    1.1262779   -5.0883385    195.31212  0.052503258  0.054315341            2 
  311000    1.1335204   -5.1404789    194.19322  0.052034625  0.054294061            2 
  312000    1.1023563    -5.109318    195.49271  0.052214932  0.054272311            4 
  313000    1.1352083   -5.1336499    195.36306  0.052013595  0.054249157            3 
  314000    1.1178019   -5.0961922     196.9984  0.052281954  0.054226573            2 
  315000    1.1258112   -5.0937867    197.63243  0.052283712  0.054206748            2 
  316000    1.1117236   -5.0962583    197.87227  0.052181506  0.054185851            6 
  317000    1.1303914     -5.11322    198.58187  0.052203436  0.054164368            4 
  318000    1.1226787   -5.1182445    199.24007  0.052211757   0.05414541            7 
  319000    1.1291757   -5.0866521    200.47379  0.052370374  0.054125741            5 
  320000    1.1448965   -5.1071882    200.57846  0.052233974  0.054104953            3 
  321000    1.1065867   -5.0923319    201.76302  0.052378769  0.054084657            4 
  322000    1.1440183   -5.1029971    201.41427  0.052125845  0.054061016            4 
  323000     1.112041   -5.1521605    201.57867  0.052006881  0.054039337            4 
  324000    1.1276312   -5.1180079    202.84155  0.052171179   0.05401805            2 
  325000    1.1393591   -5.1074772    203.28821  0.052125181   0.05399667            4 
  326000    1.1399955   -5.0821702    203.76604  0.052087433  0.053975507            7 
  327000    1.1347318   -5.1008551    204.14296  0.052024199  0.053954306            2 
  328000    1.1323118   -5.1247102    204.29467  0.051904132   0.05393047            2 
  329000    1.1340689   -5.0995119    204.85343  0.051887899  0.053907249            3 
  330000    1.1179378   -5.1166733    205.82085  0.051974961  0.053885068            2 
  331000    1.1483667   -5.1399795     206.0233  0.051868906  0.053862184            3 
  332000    1.1295805    -5.086184    207.06875  0.051975088  0.053840297            3 
  333000     1.109939   -5.1380828    207.61406  0.051955471  0.053820011            2 
  334000     1.112182   -5.1269621    208.92391  0.052126725  0.053798865            3 
  335000    1.1188091   -5.1002907     209.2946  0.052063334  0.053778413            6 
  336000    1.1297783   -5.0816689    210.63844  0.052241676  0.053758361            2 
  337000    1.1164816   -5.1368785     208.9153  0.051660559  0.053738852            3 
  338000    1.1077907   -5.1176294    209.10572  0.051554665  0.053715072            4 
  339000     1.118106   -5.1177778     210.7907   0.05181679   0.05369034            2 
  340000    1.1181915   -5.1301815    210.99444  0.051714324  0.053666938            2 
  341000    1.1372674   -5.1095939    211.81287  0.051762676  0.053644824            3 
  342000    1.1218213   -5.1488105    212.07193  0.051674447  0.053621439            2 
  343000    1.1034006    -5.115021    212.78662  0.051697429  0.053597546            4 
  344000    1.1024467   -5.1156448    213.10159  0.051623447  0.053573819            3 
  345000    1.1428084   -5.1584336    213.23105  0.051505085  0.053548559            1 
  346000    1.1178076   -5.1680787    213.78336   0.05148925  0.053523078            2 
  347000    1.1034627   -5.1229789    215.12555  0.051663197  0.053498426            3 
  348000    1.1095239    -5.151772    215.82765  0.051682867  0.053474172            1 
  349000    1.1353979   -5.1163997    216.15687  0.051613389  0.053450138            2 
  350000     1.097389   -5.1590091     216.1069  0.051454023  0.053424285            1 
  351000    1.1325964     -5.11476    216.90681  0.051497343  0.053397941            6 
  352000     1.105548   -5.1205617    217.43688  0.051476534  0.053372407            3 
  353000     1.110272   -5.1233351    217.35751  0.051311971  0.053346792            2 
  354000    1.0945834   -5.1471784    217.64991  0.051235855  0.053321454            2 
  355000    1.1005144   -5.1229646    219.02099  0.051413377  0.053296097            3 
  356000    1.1090733   -5.1372211    219.68707  0.051424876   0.05326943            5 
  357000    1.1175113   -5.1203346    220.50522  0.051471807  0.053244203            2 
  358000    1.1131989    -5.140689    220.21341  0.051260105  0.053219336            3 
  359000    1.1284126   -5.1237752    221.16346  0.051337851  0.053193568            2 
  360000    1.1049237   -5.1243465    220.51912  0.051046092  0.053167671            2 
  361000     1.122173   -5.1996748    220.23275  0.050838585  0.053140339            2 
  362000    1.1292649   -5.1965603    221.65333  0.051025169  0.053112367            2 
  363000    1.0980874   -5.1267526    223.29175  0.051260733  0.053085274            3 
  364000    1.1091073     -5.19404    223.31657  0.051125589   0.05306045            4 
  365000    1.0985505   -5.1235492    224.03041  0.051148495  0.053033779            2 
  366000     1.111937   -5.1522171    224.15907   0.05103804   0.05300753            2 
  367000    1.0768047    -5.162237    225.53228  0.051210782  0.052981725            7 
  368000    1.1003804   -5.1400684    226.52723  0.051296927  0.052956625            2 
  369000    1.1182158   -5.1491467    226.02602  0.051044721  0.052931594            2 
  370000    1.1355572   -5.1481089    226.76481  0.051073156  0.052905822            2 
  371000    1.1103565   -5.1437301    226.83986   0.05095235  0.052881334            2 
  372000    1.1181867   -5.1839001    227.23398  0.050903669  0.052856451            3 
  373000    1.1150983   -5.1802806     227.6101  0.050851228  0.052831284            1 
  374000    1.0989898   -5.1593278    228.35608  0.050881479  0.052805024            4 
  375000    1.1084829    -5.162588    229.93119   0.05109582  0.052780909            5 
  376000    1.1010854   -5.1955629    229.61675  0.050890237  0.052758114            2 
  377000    1.1040571   -5.1638945    230.25461  0.050896244  0.052733626            2 
  378000     1.085332   -5.2023026    229.43162  0.050580164  0.052706949            3 
  379000    1.1162567   -5.1370068    230.73988  0.050734362  0.052679993            8 
  380000    1.1215651   -5.1606831    231.30431   0.05072463  0.052652378            5 
  381000    1.1206606   -5.1671278    231.29018  0.050588403  0.052624429            3 
  382000    1.0685442    -5.140246    232.83802  0.050793634  0.052598428            3 
  383000    1.1087026    -5.144759    232.74196  0.050640114   0.05257062            3 
  384000    1.0950927   -5.1692574    233.41648  0.050654618  0.052541536            1 
  385000     1.099495   -5.1366471    233.57661  0.050557708  0.052513527            2 
  386000    1.0650447   -5.1532586    233.98678  0.050515281  0.052484301            2 
  387000    1.0848384   -5.1509481    234.82656   0.05056558   0.05245565            2 
  388000    1.1223185    -5.136233    234.87146  0.050444902  0.052426515            3 
  389000    1.1021414   -5.1674984    235.67378    0.0504871  0.052398257            2 
  390000    1.1181809   -5.1632176    235.91066   0.05040826  0.052369662            3 
  391000    1.0980813   -5.1503823    237.09089   0.05053088  0.052341961            1 
  392000    1.0880857   -5.1580449    236.86784  0.050354557  0.052313323            6 
  393000     1.107912   -5.1429776    237.75257  0.050414031  0.052285458            2 
  394000    1.1149056   -5.1863282    237.99447   0.05033724  0.052256699            2 
  395000    1.0936763   -5.1754753    239.02874  0.050428005    0.0522303            5 
  396000     1.106589   -5.1646499    239.64336      0.05043  0.052203481            2 
  397000    1.0957785   -5.1883173    241.19513  0.050628702  0.052178607            1 
  398000    1.1136075    -5.187125    240.72244   0.05040252  0.052153737            3 
  399000    1.0836027   -5.1521573    242.15365  0.050575115  0.052128671            4 
  400000    1.0801658   -5.2249093    242.42479  0.050505164  0.052102748            4 
  401000    1.0886167   -5.1617795    242.36189  0.050366145  0.052077611            3 
  402000    1.1105409    -5.195901    241.91254  0.050147707  0.052051256            3 
  403000    1.1069674   -5.1608337    243.74311  0.050401802  0.052025022            3 
  404000    1.1130605   -5.2011234    243.70414  0.050269007  0.051999101            4 
  405000    1.0844236   -5.1945353    243.14191    0.0500292   0.05197202            2 
  406000    1.1101354   -5.1907198    243.88721  0.050058952  0.051943453            3 
  407000    1.0804075   -5.1894609    244.34714  0.050030128   0.05191382            5 
  408000    1.0965689   -5.1075381    245.46861  0.050136562  0.051883074            3 
  409000    1.0762653   -5.1896869    245.31666   0.04998302  0.051853273            3 
  410000    1.0981027   -5.1865722    246.01283  0.050002608  0.051823385            3 
  411000     1.091227   -5.2042433    245.06246  0.049688252  0.051793326            3 
  412000     1.113653   -5.2075521    245.82858   0.04972261  0.051763137            6 
  413000    1.0767564   -5.2019733    247.56331  0.049952242  0.051734125            9 
  414000    1.0610332   -5.2094258    246.94897  0.049707924  0.051704936            4 
  415000     1.076856     -5.19962    247.80251   0.04975954  0.051674913            9 
  416000    1.0887016   -5.1899448    248.05958  0.049691421  0.051645456            1 
  417000    1.1062056   -5.2222429    248.54399  0.049669062  0.051614765            4 
  418000    1.1058119   -5.1876452    249.36986  0.049714885  0.051584757            4 
  419000    1.0789077   -5.2052512     249.6726  0.049656444  0.051554139            3 
  420000    1.0884834   -5.2070645    249.63619   0.04953099  0.051523335            5 
  421000    1.1032783   -5.1902113     250.7815  0.049640043  0.051493245            2 
  422000    1.1085973   -5.2011547    251.00085  0.049565729  0.051464566            4 
  423000    1.0961661   -5.2387165    251.53659  0.049554097  0.051433289            3 
  424000    1.0512671   -5.2105394      251.501  0.049430228  0.051402875            3 
  425000    1.0984966    -5.207932    253.31401  0.049669413  0.051373163            3 
  426000    1.0931895   -5.2213843    251.77112  0.049251002  0.051343922            4 
  427000    1.0971521   -5.1798406    253.05142  0.049385522  0.051312863            4 
  428000    1.0865538   -5.2443916    254.00802   0.04945639  0.051281321            3 
  429000    1.0939669   -5.1823177    254.85689     0.049506   0.05124963            5 
  430000    1.0754964   -5.1872476    254.10672  0.049245489  0.051217685            2 
  431000    1.0668508   -5.1796142    254.96341  0.049296869  0.051186263            4 
  432000    1.0737109   -5.1988228    255.66246  0.049317605  0.051155531            2 
  433000    1.0827845   -5.2317499    255.29604  0.049133187  0.051124003            3 
  434000     1.096246   -5.2081624    255.77887  0.049112685  0.051092065            3 
  435000    1.1002832   -5.1955623    257.10795  0.049254397  0.051059966            7 
  436000    1.0765789    -5.221482       257.09  0.049137997  0.051028586            4 
  437000    1.0704426    -5.223606     258.2474  0.049246262  0.050998173            3 
  438000     1.073778   -5.1913428    259.11903  0.049299664  0.050967643            3 
  439000    1.0922145   -5.2127947    259.71571  0.049300628  0.050938523            2 
  440000    1.0613259   -5.1940102    260.09384  0.049260197  0.050909439            3 
  441000    1.0633229   -5.1859068    260.20356   0.04916923  0.050880077            3 
  442000     1.052115   -5.2463434     259.6127  0.048946588   0.05085029            2 
  443000    1.0606098   -5.2266196    260.80372  0.049060144  0.050820053            3 
  444000    1.0803682   -5.1830424    262.23812  0.049218866  0.050791648            9 
  445000    1.0926151   -5.2500594    261.90959  0.049046739  0.050761739            1 
  446000    1.0596898   -5.1817788    263.02503  0.049145184  0.050733724            3 
  447000     1.054949   -5.1923411    263.08048  0.049045578  0.050705506            7 
  448000    1.0580463   -5.2083121    264.10916  0.049127447  0.050677665            2 
  449000    1.0586451   -5.2408218    264.30833  0.049054998  0.050649375            4 
  450000    1.0828543    -5.228315    265.24849  0.049120091  0.050622773            2 
  451000    1.0703592   -5.2134648    266.67872  0.049275447  0.050597284            3 
  452000    1.0803159   -5.2408869    266.38468  0.049112219   0.05057027            6 
  453000    1.0795629   -5.2277648    267.18926  0.049151814  0.050543581            2 
  454000    1.0715149   -5.1803024    268.12101  0.049214577  0.050516918            3 
  455000    1.0796414   -5.2041899    267.36047   0.04896712  0.050490522            2 
  456000    1.0686958   -5.2402025    267.62922  0.048908849  0.050463493            4 
  457000     1.064541   -5.2334963    268.21637  0.048908893  0.050436075            7 
  458000    1.0747257   -5.1928886    269.22133  0.048984958  0.050408997            3 
  459000     1.056377   -5.2206826    269.48858  0.048926757  0.050383207            2 
  460000    1.0774552   -5.2036618    270.90411  0.049076831  0.050357076            4 
  461000    1.0853169     -5.21369    270.18817  0.048840955  0.050331147            3 
  462000    1.0734887   -5.2278887    271.29856  0.048935527  0.050304419            6 
  463000    1.0840614   -5.2109157    271.03531  0.048782452  0.050277516            4 
  464000    1.0922935   -5.2400431    271.33385  0.048730935  0.050249406            3 
  465000    1.0732904     -5.24059    271.18466  0.048599401  0.050221812            3 
  466000    1.0630456   -5.2206157    272.48157  0.048727034  0.050195496            3 
  467000    1.0558545   -5.2576492     272.1905  0.048570754  0.050168397            4 
  468000    1.0857939   -5.2478793    273.57383  0.048713289  0.050140786            6 
  469000    1.0567188   -5.2057831    275.01397  0.048865311  0.050114701            4 
  470000    1.0818782   -5.2307534      274.831    0.0487289  0.050088604            2 
  471000    1.0796059   -5.2293262      274.745  0.048610226  0.050061095            3 
  472000    1.0618743    -5.204842    276.45837   0.04880974  0.050034492            2 
  473000    1.0707363   -5.2734052    274.74391  0.048404494  0.050007189            2 
  474000     1.066624   -5.2012585    276.54445  0.048618926  0.049979311            3 
  475000    1.0859688   -5.2647322    275.69237  0.048367083  0.049951632            4 
  476000    1.0539636   -5.2422562    277.22888  0.048534467  0.049924111            5 
  477000    1.0737906   -5.2409296    277.65144  0.048506541  0.049896746            2 
  478000    1.0547931   -5.2512037    276.94201  0.048281382  0.049868606            2 
  479000    1.0815814   -5.2047028    278.35077  0.048425673  0.049840787            3 
  480000    1.0535546   -5.2272032    278.83509  0.048408869  0.049813563            6 
  481000     1.062624    -5.227106    279.00599  0.048337836  0.049784995            1 
  482000    1.0636745   -5.2922072    278.56988   0.04816215    0.0497571            2 
  483000    1.0541512   -5.2390324    281.15845  0.048509049  0.049729641            3 
  484000    1.0562919   -5.2835421    280.18589  0.048241373   0.04970268            2 
  485000    1.0582402   -5.2594097    281.34984  0.048341897  0.049674607            1 
  486000    1.0789597   -5.2501142    281.56298  0.048278974  0.049648749            1 
  487000    1.0456561    -5.229464    283.23208  0.048465448  0.049622755            3 
  488000    1.0726142   -5.2309732    283.84975   0.04847161  0.049598081            2 
  489000    1.0566995   -5.2590609    283.57879  0.048326311  0.049572415            3 
  490000    1.0451177   -5.2506793    282.66651  0.048072536  0.049546115            3 
  491000    1.0444158   -5.2369896    283.94696  0.048191949  0.049520474            6 
  492000    1.0842624   -5.2320758    285.29582  0.048322462  0.049495079            4 
  493000    1.0548537   -5.2447826    285.09526  0.048190545  0.049469993            3 
  494000    1.0643504   -5.2416835    285.94322  0.048236036  0.049443963            2 
  495000    1.0545223   -5.2788522     286.1445  0.048172475  0.049418456            2 
  496000    1.0591957   -5.2313252    285.97632  0.048047096  0.049392547            5 
  497000    1.0643875   -5.2605809     286.6607  0.048065174  0.049367697            3 
  498000    1.0595384   -5.2392379    287.87769  0.048172304  0.049343275            2 
  499000    1.0567222   -5.2433729    289.33235  0.048318696  0.049318571            5 
  500000    1.0512739   -5.2244763    289.28045  0.048213408   0.04929399            3 
  501000    1.0667193    -5.273095    289.06851  0.048081921   0.04926933            7 
  502000    1.0448531   -5.2340209     290.2809    0.0481874  0.049244677            4 
  503000    1.0318763     -5.26317    290.00049  0.048045144  0.049219908            4 
  504000    1.0308688   -5.2334304    290.28942   0.04799759  0.049194976            2 
  505000    1.0428915   -5.2255679    292.12948  0.048206185  0.049170483            2 
  506000    1.0476802   -5.2557309    291.91729   0.04807597  0.049146118            3 
  507000    1.0431167   -5.2606105    292.74509  0.048117208  0.049122378            2 
  508000    1.0693991   -5.2616879     292.4222  0.047969521  0.049098163            2 
  509000    1.0366302   -5.2553122    292.49255  0.047886796  0.049073212            3 
  510000    1.0568874   -5.2409396    292.19772  0.047744725  0.049047077            5 
  511000    1.0539735   -5.2638422    292.97054  0.047777322  0.049020809            3 
  512000    1.0468284   -5.2711894    294.08792  0.047865872  0.048994062            3 
  513000    1.0250398   -5.2456066    294.04768   0.04776603  0.048968235            2 
  514000    1.0252143    -5.257317    294.58377  0.047760015  0.048942701            2 
  515000    1.0539635   -5.3072166    294.32279  0.047625046  0.048916784            3 
  516000    1.0474812   -5.2408771    296.46273  0.047878348  0.048891047            2 
  517000    1.0131245   -5.2986236    295.44143  0.047621121  0.048865491            5 
  518000    1.0568629   -5.2399963     297.0375  0.047785956  0.048840143            3 
  519000     1.053476    -5.259698    297.56584  0.047778715  0.048815462            2 
  520000    1.0538486   -5.2677681    297.46564  0.047670776   0.04878953            3 
  521000    1.0390882   -5.2567668    298.12935  0.047685437  0.048764254            2 
  522000    1.0299526   -5.2953364    297.86575  0.047552003  0.048737543            3 
  523000    1.0369491   -5.3008231    298.16515  0.047508787  0.048711917            5 
  524000    1.0446486   -5.2499116    299.27682  0.047594913  0.048686535            2 
  525000     1.056436   -5.2776006    299.61702  0.047558258  0.048660756            3 
  526000    1.0397938   -5.2891411    299.33269  0.047422796  0.048634521            3 
  527000     1.041757   -5.2777977    300.44487  0.047508676  0.048608812            3 
  528000    1.0549126   -5.2636688    300.80609  0.047475708  0.048582608            7 
  529000     1.020267   -5.2829905    300.20209  0.047290815  0.048556505            4 
  530000    1.0523399    -5.274845    302.04351  0.047491118  0.048530541            4 
  531000    1.0476271    -5.292116    302.10527  0.047411373  0.048504582            4 
  532000    1.0473698   -5.2933619    302.53285  0.047389231  0.048479011            2 
  533000    1.0244367    -5.231184    304.03038  0.047534456  0.048454583            4 
  534000    1.0403225   -5.3219336    301.50049  0.047050638  0.048429887            3 
  535000    1.0317156   -5.2729772    304.27794  0.047395317  0.048404888            5 
  536000    1.0247606   -5.3106722    304.66248   0.04736668  0.048380376            3 
  537000    1.0363795   -5.3126171    304.60052  0.047268858  0.048356061            3 
  538000    1.0712794   -5.3201438    305.51529  0.047322691  0.048331706            2 
  539000    1.0332496   -5.2801377    306.22774  0.047345044   0.04830689            3 
  540000    1.0488867   -5.2703593    306.15896  0.047246752  0.048281684            3 
  541000    1.0410364   -5.2946151    307.07038  0.047299812  0.048256643            3 
  542000    1.0172851   -5.2833963    307.37004  0.047258616  0.048231706            2 
  543000    1.0369397   -5.3405211    307.87427  0.047248967  0.048207074            3 
  544000    1.0351317    -5.276497    308.58172  0.047270485   0.04818332            3 
  545000    1.0364925     -5.32328    308.19868   0.04712518  0.048160139            3 
  546000    1.0337332   -5.2954558    310.03236  0.047318737  0.048136726            2 
  547000    1.0409093   -5.3111911    310.76058  0.047343172  0.048113363            6 
  548000    1.0208551   -5.2751704    310.19952  0.047171459  0.048090779            4 
  549000    1.0282622   -5.3007257    311.03737  0.047212715  0.048067988            2 
  550000    1.0476133   -5.3082387    311.09383  0.047135429  0.048045671            4 
  551000    1.0378373   -5.2952711    311.49694   0.04711085  0.048022759            3 
  552000    1.0299261   -5.3220777    312.87745  0.047233915  0.048000346            4 
  553000    1.0169349   -5.2970599    313.03032  0.047171538  0.047977752            7 
  554000    1.0089135   -5.3266412    312.86812  0.047061991  0.047955746            2 
  555000    1.0298064   -5.3132276    314.17949  0.047174097  0.047932786            2 
  556000    1.0119369   -5.2965197     315.1299  0.047231699  0.047910582            4 
  557000    1.0250711    -5.302462    315.46343  0.047196802  0.047888638            6 
  558000    1.0162526   -5.3050256    314.67509  0.046994487  0.047866658            2 
  559000    1.0217574   -5.3234058    315.49016  0.047031925  0.047844445            2 
  560000   0.99964893   -5.3104635    315.89837  0.047008687  0.047822245            3 
  561000    1.0239161   -5.3061673    315.06881  0.046801666  0.047799229            3 
  562000    1.0409383   -5.3285583    317.53601  0.047084224  0.047776193            2 
  563000    1.0542913   -5.3152559    316.75829  0.046885478  0.047753269            5 
  564000     1.030556   -5.3266744    317.42554  0.046900937  0.047729891            2 
  565000    1.0176056   -5.3499891    317.25351  0.046792553   0.04770694            7 
  566000    1.0492778   -5.2963091    317.50242  0.046746529  0.047683176            4 
  567000    1.0285335     -5.30797     316.9971  0.046589815   0.04765927            2 
  568000    1.0224517   -5.3084659    318.06423  0.046664353  0.047635114            3 
  569000     1.049814   -5.3486593    317.65745  0.046522767  0.047610891            2 
  570000     1.017967   -5.2890427     318.3172  0.046537603  0.047586023            4 
  571000    1.0170744   -5.3558248    318.06689   0.04641957  0.047561005           11 
  572000    1.0581158   -5.2946148    319.61018  0.046563255  0.047535746            4 
  573000    1.0192165   -5.3644452    318.14789  0.046269327  0.047510484            5 
  574000    1.0357607   -5.3779751    318.19779  0.046195962  0.047484027            4 
  575000    1.0376999   -5.3469815    320.37801  0.046431596  0.047457915            2 
  576000    1.0501794    -5.369625    320.05066  0.046303626  0.047432164            4 
  577000    1.0173898   -5.3318035    320.67329    0.0463133  0.047406237            1 
  578000    1.0182336   -5.3062693    322.56233  0.046505526  0.047380397            8 
  579000    1.0254779   -5.3205103    321.00605  0.046201216  0.047354226            2 
  580000    1.0168016   -5.3018519    322.11548   0.04628096  0.047327655            2 
  581000   0.99535119   -5.3052419    323.08616  0.046340528    0.0473016            4 
  582000    1.0433574   -5.3328514     321.4189  0.046022179  0.047275227            3 
  583000    1.0313849   -5.3200169    322.32539  0.046072811  0.047248572            4 
  584000    1.0088766   -5.3275339     323.4619  0.046156092  0.047222464            2 
  585000    1.0198741   -5.3541792    324.21069  0.046183859  0.047196878            2 
  586000    1.0261498   -5.3001122    324.74597  0.046181168  0.047171431            2 
  587000    1.0098561   -5.3538268    324.66657  0.046091223  0.047145014            2 
  588000    1.0209547    -5.344173    324.30758  0.045961959  0.047119481            3 
  589000    1.0381406   -5.3450594    324.95082  0.045974931  0.047093338            5 
  590000    1.0160658   -5.2988876    326.19473  0.046072703  0.047067211            2 
  591000    1.0163788   -5.3507773    326.90295  0.046094606  0.047041159            8 
  592000    1.0201367    -5.338608    327.30086  0.046072756  0.047014775            5 
  593000   0.99213394   -5.3280586     326.3236  0.045857729  0.046987522            3 
  594000   0.99864418   -5.3267992    327.75932  0.045981947   0.04696036            5 
  595000    1.0107607   -5.3284292    326.75964  0.045764655   0.04693377            5 
  596000    1.0235085    -5.378605    326.02794  0.045585563  0.046906015            3 
  597000    1.0218994   -5.3941379    326.76759  0.045612449  0.046878561            3 
  598000    1.0490918    -5.302388    330.21035  0.046015935   0.04685185            4 
  599000    1.0238022   -5.3136008    330.39852  0.045965292  0.046825687            4 
  600000    1.0052672   -5.3353576    329.53099  0.045768193  0.046799249            5 
  601000   0.99061633   -5.3421728    328.94541  0.045610844   0.04677251            3 
  602000    1.0204533   -5.3671078    328.60003  0.045487269  0.046744914            3 
  603000    1.0197103   -5.3654492    329.09814  0.045480671  0.046717376            6 
  604000   0.98921105   -5.3150968    330.74834  0.045633049  0.046689629            2 
  605000    0.9888668   -5.3312701    329.96201  0.045449312  0.046661675            5 
  606000    1.0082558   -5.3506423    330.64063  0.045467633  0.046633923            8 
  607000    1.0203367   -5.3472286    330.49857  0.045373225  0.046605919            6 
  608000    1.0150567    -5.341031    331.24844  0.045401375  0.046578196            5 
  609000   0.98841965   -5.3509334    331.43064  0.045351756  0.046550923            5 
  610000    1.0042202   -5.3573881    333.66832  0.045583104  0.046524244            3 
  611000   0.99453351   -5.3436008    333.27421  0.045454748   0.04649761            4 
  612000   0.98740957   -5.3484116    333.87222  0.045461904  0.046471083            2 
  613000    1.0108254   -5.3661293    333.35368  0.045317249  0.046444502            5 
  614000   0.99079929   -5.3456958    334.57343  0.045408989  0.046417921            7 
  615000    1.0077291   -5.3350325    334.67622  0.045349082  0.046391408            2 
  616000    1.0106428   -5.3683925    334.42772  0.045241845  0.046364317            7 
  617000    1.0419231   -5.3220439    335.08325  0.045257057  0.046338344            5 
  618000    1.0326838   -5.3592794    335.39971  0.045226497  0.046311859            3 
  619000     1.039728   -5.3555931    335.60959  0.045181689  0.046284905            3 
  620000    1.0136792   -5.3958549    335.25918  0.045061717   0.04625709            2 
  621000    1.0151891   -5.3698753    336.25317   0.04512254  0.046229886            4 
  622000    1.0071534   -5.3893054    335.93391  0.045007223  0.046202067            6 
  623000    1.0190088   -5.3501437    337.47833  0.045141563  0.046173791            3 
  624000    1.0011098   -5.3528454    336.74896  0.044971816  0.046145767            4 
  625000   0.99486728   -5.3371615    337.30919  0.044974559  0.046118013            3 
  626000    1.0036647    -5.359374    337.72188  0.044957652  0.046089667            3 
  627000    1.0200057   -5.3886307    338.08886  0.044934724  0.046061577            2 
  628000    1.0071476    -5.385075     337.1762  0.044742065  0.046033366            2 
  629000    1.0224302   -5.3605018    339.11977  0.044928428  0.046005305            4 
  630000    1.0028595   -5.3686295    338.30354  0.044749145  0.045977241            4 
  631000    1.0003977   -5.3564332    339.72089  0.044865411   0.04594982            9 
  632000   0.98112423   -5.3578049    340.99074  0.044961859  0.045922731            4 
  633000    1.0272451   -5.3527865    340.73921  0.044857716  0.045895296            4 
  634000    1.0299308   -5.3628454    340.97584  0.044818065  0.045867919            5 
  635000   0.98745617    -5.369277     341.5051  0.044816943  0.045840888            4 
  636000    1.0048665   -5.3941144    340.84085  0.044659441  0.045813371            4 
  637000   0.98682557   -5.3573441    341.70177  0.044701959  0.045785812            4 
  638000    1.0173352   -5.3608878    341.27505  0.044576156  0.045757583            2 
  639000     1.011434   -5.3952801    340.87179  0.044453807  0.045729036            4 
  640000    1.0002276   -5.3557737    343.50175   0.04472679  0.045701055            2 
  641000    1.0424782   -5.3666388    343.03444  0.044596261  0.045673279            4 
  642000    1.0202511   -5.3411479    344.21793  0.044680416  0.045646097            6 
  643000   0.99032645   -5.3693639    343.27359  0.044488542  0.045618837            3 
  644000    1.0048884   -5.3893443    344.80509  0.044617636  0.045590576            2 
  645000     1.005251   -5.3891672    344.72654  0.044538312  0.045562266            3 
  646000    1.0103704   -5.3519179     344.9757  0.044501509   0.04553448            4 
  647000    1.0024983   -5.4084329     344.3449  0.044351481  0.045507002            5 
  648000   0.99922149   -5.3962445     343.8023  0.044213259  0.045478536            3 
  649000   0.97249353   -5.3901087    344.71744   0.04426264  0.045450284            8 
  650000   0.99659181   -5.4252292    344.56717  0.044175278  0.045422018            5 
  651000    1.0060603   -5.3864348    346.93414  0.044410412  0.045394084            6 
  652000    1.0034812   -5.3974049    346.27583  0.044258158  0.045366141            5 
  653000     0.998462   -5.3842353      348.113  0.044424834  0.045338483            2 
  654000   0.97796987    -5.366964    347.42066  0.044268688  0.045310454            2 
  655000    1.0088679   -5.4021222    346.05993  0.044027981  0.045282352            3 
  656000   0.98335914   -5.3663374    348.21057  0.044234067  0.045253886            3 
  657000    1.0047881   -5.3748269    347.62217  0.044092107  0.045225565            6 
  658000   0.99405083   -5.3789609    347.36962  0.043993113  0.045197319            4 
  659000    1.0198967   -5.3876317    348.26873  0.044040051  0.045168952            4 
  660000   0.99585713   -5.4036745    347.94391  0.043932312  0.045140743            6 
  661000    0.9784465   -5.3627413    349.93011  0.044116252  0.045112408            3 
  662000   0.98468732   -5.3871851    349.06798  0.043941085  0.045084505            4 
  663000   0.98703642   -5.3879484    350.44786  0.044048248  0.045056499            5 
  664000   0.98785368   -5.3988238    350.16405  0.043946291  0.045028638            4 
  665000   0.96713469   -5.4233867    349.79078  0.043833431  0.045000358            4 
  666000   0.99905435   -5.4000453    349.85464  0.043775606  0.044972192            9 
  667000   0.97759523   -5.3972392    351.52179  0.043918264  0.044943982            6 
  668000   0.98897798   -5.3861975    351.07937  0.043797327  0.044915803            8 
  669000   0.97195347   -5.3876052    351.77092  0.043818002  0.044887947            2 
  670000   0.99316665   -5.3950396    351.94343  0.043774059   0.04486044            3 
  671000   0.97374471   -5.4026233    353.22398  0.043867856   0.04483359            3 
  672000    1.0114758   -5.4258777     352.8598  0.043757416  0.044806357            4 
  673000   0.99571119   -5.3877985    354.35912  0.043878048  0.044778408            4 
  674000   0.98743017   -5.3849125    354.84224  0.043872681  0.044751328            2 
  675000    1.0167077    -5.415658    354.36149  0.043748332  0.044724012            4 
  676000   0.99311247   -5.4170737     354.5612  0.043708235  0.044697096            2 
  677000   0.98413319   -5.4024679     354.6799  0.043658284  0.044670487            1 
  678000   0.97326705   -5.4023684    356.20855  0.043781779  0.044643612            3 
  679000   0.96715773   -5.4033681    355.79526  0.043666575  0.044617358            2 
  680000   0.98887673     -5.41365    356.28396   0.04366225  0.044590951            2 
  681000   0.96738476   -5.4007778    357.31443  0.043724233  0.044563968            9 
  682000   0.96421823    -5.405615    356.81973  0.043599674  0.044536779            4 
  683000   0.97640804   -5.4250375    357.34344  0.043599737  0.044509974            5 
  684000   0.99470923   -5.4529816     356.6872  0.043456043  0.044483152            7 
  685000    1.0112448   -5.4642218    356.77667  0.043403488   0.04445552            4 
  686000   0.98599849   -5.3864166    358.75318  0.043580319  0.044428097            4 
  687000   0.96069531   -5.4230098    358.27481  0.043458856  0.044400923            2 
  688000   0.96766019   -5.4249864     358.9171  0.043473486  0.044374029            8 
  689000   0.98228177   -5.4159621    360.53555  0.043606138  0.044347333            4 
  690000   0.98373884   -5.4134538    360.38915  0.043525259  0.044320998            3 
  691000   0.96409552   -5.3943169    360.89232  0.043522952  0.044294235            3 
  692000    1.0005675   -5.4192279    361.00523  0.043473655   0.04426783            5 
  693000     0.977389   -5.3588889    363.12018  0.043665245  0.044241931            4 
  694000   0.98473946   -5.4138096    361.11969  0.043362115  0.044216301            5 
  695000    0.9580324   -5.4055561    363.34972  0.043567113  0.044190115            4 
  696000   0.97917944   -5.4119427    362.87735  0.043447958  0.044164305            3 
  697000   0.95823632   -5.4366745    363.48084  0.043457776  0.044138158            5 
  698000   0.97272123   -5.4062246    362.20509  0.043243206  0.044112235            3 
  699000   0.98432577   -5.4319606    363.49292  0.043334874  0.044086264            5 
  700000   0.96216994   -5.4534479    363.48077  0.043271521  0.044060345            4 
  701000   0.95333777   -5.4225411    364.50593   0.04333166  0.044034775            2 
  702000   0.99621924   -5.4283844    363.92168  0.043200579  0.044008803            2 
  703000   0.98435927   -5.4022645    364.30375  0.043184418  0.043983162            6 
  704000   0.98169075   -5.4562942    363.97451  0.043084104  0.043957758            4 
  705000   0.97647917   -5.4519304    364.88634  0.043130773  0.043931783            3 
  706000   0.96790711   -5.4789558    364.62303  0.043038601  0.043905744            2 
  707000   0.97738593   -5.4565231    365.50656  0.043081868   0.04388038            7 
  708000   0.96329952   -5.4247179    366.76988  0.043169713  0.043854811            4 
  709000    0.9606955   -5.4375463    366.15927  0.043037056  0.043829117            3 
  710000   0.97217115   -5.4399121    365.85391    0.0429406  0.043803557            4 
  711000   0.97051295   -5.4260477    366.79532  0.042990543  0.043777833            4 
  712000   0.96731284   -5.4438648    367.58953  0.043023119  0.043752085            3 
  713000   0.98698723   -5.4297181    368.65574  0.043087394  0.043726689            4 
  714000   0.96881274   -5.4443246    368.99798  0.043066992  0.043700886            7 
  715000    0.9741779   -5.4139595    370.15198  0.043141256  0.043675607            7 
  716000   0.98424744   -5.4373263    370.79783  0.043156172  0.043650712            6 
  717000    0.9595215   -5.4525551     369.1674  0.042906485  0.043625814            6 
  718000   0.96785028   -5.4246887    369.72288  0.042911197  0.043600536            2 
  719000   0.96889346   -5.4460881    369.47343  0.042822604  0.043574507            2 
  720000   0.96661917   -5.4587278    368.59341  0.042661274  0.043548208            3 
  721000   0.98565126   -5.4378339    370.51181  0.042823834  0.043522332            3 
  722000   0.97560407   -5.4363599    370.59762  0.042774426  0.043496444            6 
  723000   0.97334221   -5.4369149    370.13119  0.042661502  0.043470489            6 
  724000   0.96784431   -5.4697558    370.92467  0.042693908  0.043444085            5 
  725000   0.98023914   -5.4604602     370.7861  0.042619092  0.043417684            8 
  726000   0.96167441   -5.4734012    372.57038  0.042765196  0.043392313            3 
  727000    0.9495826   -5.4606782     373.1039  0.042767526  0.043366672            4 
  728000   0.94552443    -5.411194    373.32866  0.042734508  0.043341168            3 
  729000   0.96935342   -5.4445922    373.28421  0.042670806  0.043316432            3 
  730000   0.96071709   -5.4054413    374.06862  0.042701897  0.043291755            5 
  731000   0.97293518   -5.4591371    373.69642  0.042601051  0.043266946            4 
  732000   0.96089656    -5.447866    374.68422  0.042655307  0.043242512            3 
  733000   0.97796278   -5.4235173    376.07747   0.04275551  0.043218316            5 
  734000   0.95215056   -5.4784166    374.06976  0.042469319  0.043193257            3 
  735000   0.95509726   -5.4817016     374.4952  0.042459774  0.043168049            4 
  736000   0.96662583   -5.4597621    376.35521  0.042612682  0.043142689            4 
  737000   0.96157026   -5.4391938    376.48047  0.042569026  0.043116962            3 
  738000   0.94871296   -5.4345413    376.08596  0.042466798  0.043091796            3 
  739000   0.95126312   -5.4482745    376.28614  0.042431906  0.043066712            3 
  740000    0.9752483   -5.4749696    376.86419  0.042439661  0.043041362            6 
  741000   0.94277028   -5.4632273    376.00153  0.042285372  0.043015797            5 
  742000   0.96423571    -5.455401    375.46545  0.042168178   0.04299002            7 
  743000   0.93929332    -5.493301    375.49174  0.042114372  0.042963776            3 
  744000   0.92948186   -5.4546182    377.54013  0.042287201  0.042937558            3 
  745000   0.96726455   -5.4595917    376.18936  0.042079346  0.042911103            4 
  746000   0.94662782   -5.4538145    377.54994  0.042174926  0.042884823            4 
  747000    0.9622794   -5.4572306    377.69489  0.042134638  0.042858478           10 
  748000   0.95039443   -5.4639813    377.34228  0.042039024  0.042832822            2 
  749000   0.96388313   -5.4497438     378.7306  0.042137361  0.042806397            3 
  750000   0.97067443   -5.4541627    378.39646  0.042044051  0.042780431            4 
  751000   0.96748573   -5.4613328    379.12925   0.04206938  0.042755086            2 
  752000   0.97429954     -5.48032    380.72789  0.042190591  0.042729618            3 
  753000    0.9622373   -5.4441301     380.0108  0.042055201  0.042704374            6 
  754000   0.95939108   -5.4855015    378.26813  0.041806823  0.042678801            5 
  755000   0.94441535   -5.4916975    380.34643  0.041980842  0.042653165            7 
  756000   0.93543257   -5.4499321    381.55299   0.04205831  0.042628261            3 
  757000   0.93023931   -5.4933066    381.22816  0.041966993  0.042603265            4 
  758000   0.97243937   -5.5039766    381.15859  0.041903979  0.042577836            5 
  759000   0.93216382   -5.4883162    381.73694  0.041912268  0.042552683            4 
  760000   0.94984018   -5.4777637    382.92675  0.041987583  0.042527725            5 
  761000   0.96028295   -5.4843321    382.19127  0.041851869  0.042502857            5 
  762000    0.9570819   -5.4641852    383.83025  0.041976186  0.042478322            7 
  763000   0.94632882   -5.4677158    384.88771  0.042036665   0.04245384            4 
  764000   0.94962892   -5.4644218    384.94296   0.04198767  0.042429913            2 
  765000   0.91900656   -5.4695968    386.01156  0.042049189  0.042405521            5 
  766000   0.94911529   -5.4454567    386.03272  0.041996597  0.042381601            3 
  767000   0.94263154   -5.4813158    384.63166   0.04178962  0.042357502            4 
  768000   0.93404739   -5.4678278    386.29267  0.041915437  0.042333222            3 
  769000   0.97616523   -5.4810106    388.09648  0.042056402  0.042309425            5 
  770000   0.94904393   -5.4870356    386.52651  0.041831873  0.042285611            4 
  771000    0.9439907   -5.4881875    386.57532  0.041782892  0.042261708            2 
  772000   0.96159857   -5.4884505    387.48435  0.041826894  0.042237831            3 
  773000   0.94482172   -5.5225458    386.43632  0.041659801  0.042213989            4 
  774000   0.95575542    -5.488969    388.12343  0.041787621  0.042189746            8 
  775000   0.93000932   -5.4893432    388.09715  0.041730876  0.042165975            4 
  776000   0.96006554   -5.5065119    387.45886  0.041608555  0.042141957            2 
  777000   0.93134421   -5.4601361    389.78061  0.041804012  0.042117947            3 
  778000   0.93985766   -5.4826303     389.8312  0.041755698  0.042094568            6 
  779000   0.94908871   -5.5037546    389.89972  0.041709427  0.042071039            2 
  780000   0.93711943   -5.5175312    389.22198  0.041583545   0.04204766            3 
  781000   0.93490217   -5.4750495    390.43841  0.041660095  0.042024239            3 
  782000   0.95732776    -5.503876    390.83869  0.041649477  0.042000864            5 
  783000   0.93614144   -5.4782411    391.44967   0.04166131  0.041977431            4 
  784000   0.96292972   -5.4833135    391.91962  0.041658123  0.041954203            3 
  785000   0.95140929   -5.4880119    391.65366  0.041576822  0.041930998            4 
  786000   0.93238119   -5.4779939    391.66222  0.041524833  0.041907974            4 
  787000   0.93697777   -5.4806101    391.89419  0.041496631  0.041884705            3 
  788000   0.93287458   -5.5171186    391.71425  0.041424942  0.041861719           11 
  789000   0.94735986   -5.4810093    392.79601  0.041486693  0.041838547            4 
  790000   0.94226374   -5.4672875    393.53911  0.041512564    0.0418156            2 
  791000   0.92444904   -5.4937632    393.61324  0.041467893  0.041792699            6 
  792000   0.92900253   -5.4581037    393.73233  0.041428065  0.041769692            6 
  793000   0.95239501   -5.4983805    393.28784  0.041329113  0.041746516           11 
  794000   0.91974029   -5.5166004    394.05296  0.041357364  0.041722795            7 
  795000   0.94461845   -5.5147496    393.89888   0.04128919   0.04169929            3 
  796000   0.95269154   -5.4836713    394.84394  0.041336258  0.041675474            3 
  797000   0.96749405   -5.4898486    394.07512  0.041204007  0.041651707            2 
  798000    0.9377645   -5.5111309    395.59789  0.041311392  0.041628221            4 
  799000   0.91415461   -5.5142667     395.4153  0.041240644  0.041604736            2 
  800000   0.91317446   -5.5362456    394.20229  0.041062739  0.041581343            8 
  801000   0.92540491   -5.5051702    396.94062   0.04129636   0.04155738            4 
  802000   0.92858196   -5.5508516    395.34208   0.04107877  0.041534132            3 
  803000   0.93213998   -5.5194229    396.90859  0.041190181  0.041510778            2 
  804000   0.92697482   -5.5209991    397.15535  0.041164526  0.041487267            8 
  805000   0.91785402   -5.5319884    397.07025  0.041104581  0.041463986            4 
  806000   0.92173734   -5.5456288    397.18074  0.041065006  0.041440435            4 
  807000    0.9363834   -5.5532345    396.31221  0.040924433  0.041416874            3 
  808000   0.93079794   -5.5325331    396.73283  0.040917165  0.041393165            7 
  809000   0.91506971   -5.5758868    396.78636  0.040872102  0.041369242            4 
  810000   0.93138905    -5.561495     398.4916  0.040997078  0.041345506            3 
  811000   0.91772618   -5.5156845     398.8421  0.040982542  0.041322113            7 
  812000   0.92796881   -5.5615073    397.63324  0.040808009  0.041298187            5 
  813000   0.94481551   -5.5055856    399.49574  0.040948723  0.041274372            2 
  814000   0.91923368   -5.4939277    400.98455  0.041050834  0.041251148            5 
  815000   0.92672367   -5.5299787    399.22065  0.040820107  0.041227762            8 
  816000   0.93533999   -5.4973045    399.31785  0.040780009  0.041204222            3 
  817000   0.93248541   -5.5546965    400.97246  0.040898864  0.041180746            6 
  818000   0.94369104   -5.5568659    399.97404  0.040747152  0.041157104            7 
  819000   0.92656544   -5.5089208    401.77904  0.040881059  0.041133803            8 
  820000   0.91115414   -5.5359825     400.9924   0.04075126  0.041110738            8 
  821000   0.91443607   -5.5588976    401.12062  0.040714639  0.041087059            8 
  822000   0.91752146    -5.543721    402.01177  0.040755451  0.041063575            6 
  823000    0.9393894   -5.5674078    400.42065   0.04054482  0.041039931            3 
  824000   0.93077263   -5.5434111    403.07381  0.040763937  0.041016068            5 
  825000   0.92162671   -5.5102797    402.42698   0.04064919  0.040992662            3 
  826000   0.91230552   -5.5342139     402.8976  0.040647458  0.040969113           13 
  827000    0.9298356   -5.5666752    402.31843  0.040539947  0.040945932            7 
  828000   0.91559196   -5.5000446    405.73681  0.040835025  0.040922942            5 
  829000   0.91447801   -5.5782298    403.71891  0.040582922  0.040900183            8 
  830000   0.92077392   -5.5291039    405.44051  0.040706878  0.040877464            4 
  831000   0.90396887   -5.5473244     403.6951  0.040482862  0.040854522            3 
  832000   0.92919192   -5.5557455    405.87724  0.040652768   0.04083143            4 
  833000   0.92745266   -5.5308637    406.15041  0.040631293  0.040808326           14 
  834000   0.91603801   -5.5615319    405.32182  0.040499782  0.040785162            5 
  835000   0.92443868   -5.5578476    405.00482  0.040419642   0.04076184            4 
  836000   0.94105821   -5.5274127    404.42269  0.040313267  0.040738421            5 
  837000   0.93509072   -5.5522588    405.81212  0.040403437   0.04071499           10 
  838000    0.9100993   -5.5311318    406.60764  0.040434331   0.04069141            6 
  839000   0.92875198   -5.4985565    407.68989  0.040493632  0.040668089            4 
  840000   0.91900919   -5.5463213    405.48088  0.040226278  0.040644302            2 
  841000   0.89989333   -5.5668917    407.08465  0.040337361  0.040620671            4 
  842000   0.90589304    -5.581548    406.85656   0.04026688  0.040597197            2 
  843000   0.92863386   -5.5526351    406.21824  0.040156014  0.040574019            6 
  844000   0.92862727   -5.5224588    408.38351  0.040322226  0.040550922            3 
  845000   0.90097131   -5.5226595    407.97092  0.040233818  0.040527998            3 
  846000   0.91826577   -5.5562964    407.72113  0.040161655   0.04050468            7 
  847000   0.90854078   -5.5738282    408.55965  0.040196739   0.04048138            2 
  848000   0.90938609   -5.5172657    408.85447  0.040178309  0.040457712            8 
  849000   0.90347166   -5.5596248    407.27377  0.039975832  0.040434442            6 
  850000   0.90963115   -5.5378584     409.4981  0.040146873  0.040411082            5 
  851000   0.90833519   -5.5503212     409.0538  0.040056189  0.040387556            4 
  852000   0.89800651   -5.5794958    408.78452  0.039982836  0.040363911            3 
  853000   0.91452899     -5.55772    408.55558  0.039913597  0.040339762            3 
  854000   0.91305752   -5.5661524    409.73964    0.0399824  0.040315687            6 
  855000   0.92150339   -5.5774746    409.01444  0.039864955  0.040291453            3 
  856000   0.91421791   -5.5515668    410.31989  0.039945472  0.040267359            5 
  857000   0.91193837   -5.5641141     410.6115  0.039927217  0.040243684            7 
  858000   0.91334387   -5.5542781    411.76217  0.039992441  0.040220257            3 
  859000   0.90251532   -5.5569138    410.61364  0.039834463  0.040196263            4 
  860000   0.92063326   -5.5766776    410.86535  0.039812534  0.040172361            4 
  861000    0.8820608   -5.5477288    410.83451  0.039763309  0.040147698            5 
  862000   0.90428654   -5.6030291    409.97492   0.03963408  0.040123718            6 
  863000    0.8983572   -5.5749949     410.2243  0.039612235   0.04009952            3 
  864000    0.9013169   -5.5763749     410.8025  0.039622154  0.040075445            3 
  865000   0.91862293   -5.5992481     411.1564  0.039610443  0.040051162            5 
  866000   0.92012094   -5.5969974    412.07303  0.039652909  0.040027387            3 
  867000   0.88896262   -5.5544887    412.40724  0.039639297  0.040003491            5 
  868000   0.91895917   -5.5758332    411.90958  0.039545851   0.03997968            5 
  869000   0.88349545   -5.5566297    412.31207   0.03953894  0.039955613            4 
  870000   0.89964091    -5.564234    413.62427  0.039619182  0.039931772            7 
  871000   0.90481682   -5.5612324    414.39936  0.039647853  0.039908255            2 
  872000   0.91265459    -5.568861    412.87367  0.039456582  0.039884707            6 
  873000   0.90200061   -5.5914844    412.77065  0.039401551  0.039860538            8 
  874000   0.90868048   -5.5598615    414.73906  0.039544152  0.039836645            7 
  875000   0.91678968   -5.5893753    413.32882  0.039364649  0.039812706            4 
  876000   0.90528034   -5.6008032     415.2379  0.039501322  0.039788735            5 
  877000   0.90937822    -5.568283    414.86179  0.039420542  0.039765023            6 
  878000    0.8991688   -5.5937368     416.0076  0.039484397  0.039741454            3 
  879000   0.89181678   -5.5646543     415.0428  0.039348009  0.039717533           13 
  880000   0.91144735   -5.5622181    415.88268   0.03938283  0.039693743            6 
  881000   0.91095727   -5.5951599    416.74956  0.039420125  0.039670004            6 
  882000   0.89883685   -5.5814387    414.39881  0.039153327  0.039646567           16 
  883000   0.89348402   -5.5995633    416.80137  0.039335728  0.039623121           12 
  884000   0.92281691   -5.6097049    416.98302  0.039308354  0.039599326            7 
  885000   0.91398585   -5.5714694     416.7335  0.039240442  0.039575931            4 
  886000   0.90284656   -5.6090963    416.57292  0.039181049  0.039552054            8 
  887000   0.89794241   -5.5927507    418.44361  0.039312628  0.039528022            7 
  888000   0.89475492   -5.5721503    417.20915   0.03915251  0.039504064            5 
  889000   0.90212925   -5.5932271     417.8647  0.039169919  0.039480139            9 
  890000   0.89034869   -5.5686297    418.14588  0.039152236  0.039456274            4 
  891000   0.92922383   -5.6213219    417.77794  0.039073881  0.039432151            3 
  892000   0.89353584   -5.5760631    418.88476  0.039133479  0.039408268           19 
  893000   0.88472219   -5.6062214    418.23816  0.039029317  0.039384151            8 
  894000   0.89573366   -5.5971799    418.21625  0.038983618  0.039360115            3 
  895000   0.87970579   -5.5892899    419.03567  0.039016357  0.039336105            4 
  896000   0.88638457   -5.5802427    419.08349   0.03897726  0.039312106            5 
  897000   0.92294176   -5.6000886    418.59365  0.038888299  0.039288409            6 
  898000   0.87920708   -5.6081408    419.14106  0.038895792  0.039264874            9 
  899000   0.92184989   -5.6015985    419.47418  0.038883406  0.039241028            4 
  900000   0.90321353   -5.5896927    420.12175  0.038900162  0.039217365            5 
  901000   0.88491868    -5.622052    419.39193  0.038789487  0.039193701            5 
  902000   0.89518296   -5.6020064    420.37382  0.038837197  0.039169907            8 
  903000   0.88377796   -5.6009195    420.55139  0.038810575  0.039145606            7 
  904000    0.9000625   -5.6202867    420.73765  0.038784813  0.039121652            2 
  905000   0.90311054   -5.6057187     419.6592  0.038642652  0.039097636            6 
  906000   0.88599691   -5.6171869    420.45022  0.038672758  0.039073453            8 
  907000   0.87609057   -5.6127295    421.55821  0.038731919  0.039049633            7 
  908000   0.89869079   -5.6071135    422.17293   0.03874568  0.039025947            6 
  909000   0.86580301   -5.5968546    422.39963  0.038723839  0.039002122            4 
  910000   0.87071653   -5.5835045    421.44287  0.038593669  0.038978446            5 
  911000   0.88710022   -5.6224858    421.94369  0.038597118  0.038954596            4 
  912000   0.88083385   -5.6512354    421.96927  0.038557133  0.038930616            2 
  913000   0.88255602   -5.6072693    422.51169  0.038564411  0.038906763            5 
  914000   0.85638183   -5.6120005    423.16406  0.038581698  0.038882799            3 
  915000   0.89587174   -5.5867864    423.58932  0.038578262  0.038859196            3 
  916000   0.88156399   -5.5989671    423.75657  0.038551362  0.038835516            6 
  917000   0.86632745   -5.6077211    423.40001  0.038476919   0.03881179            4 
  918000   0.88191015    -5.601997    423.25343  0.038421699  0.038788274            4 
  919000    0.8933936   -5.6358384    423.56518  0.038408159  0.038764711            8 
  920000   0.88440374   -5.6445762    424.42858  0.038444618  0.038741099            6 
  921000   0.88561439   -5.6131339    425.63321  0.038511872   0.03871768            4 
  922000   0.89600049   -5.6133231    424.86244  0.038400438  0.038694005            3 
  923000   0.87529707   -5.6400893    424.87745  0.038360188  0.038670383            3 
  924000   0.89022565   -5.6320024    424.78658  0.038310478  0.038646833            3 
  925000   0.91260538    -5.633427    425.89126  0.038368582  0.038623176            5 
  926000    0.8813116   -5.6376821    426.05783  0.038342138  0.038600044            8 
  927000   0.88587871   -5.6341204    426.96219  0.038382074  0.038577026            5 
  928000   0.90612073   -5.6180239    427.06324  0.038349788  0.038553993            6 
  929000   0.90030157   -5.6332226    425.67952  0.038184385  0.038530509            4 
  930000   0.88225229   -5.6208379     427.1862  0.038278333  0.038506716            6 
  931000   0.89727881   -5.6165744    427.26871  0.038244604    0.0384838            4 
  932000   0.91989232   -5.5861423    428.16217  0.038283456  0.038460648            8 
  933000   0.90556013   -5.6323205    427.82194  0.038212034  0.038437162            4 
  934000   0.87923545   -5.6396261    427.85552  0.038174118  0.038413588            3 
  935000   0.87926388   -5.6312101    427.11271  0.038067086  0.038389861            7 
  936000   0.89254242   -5.6405697    428.96766  0.038191565  0.038366066            6 
  937000   0.88484255   -5.6373184    426.33831  0.037916961  0.038342216            4 
  938000   0.89921311   -5.6266131     427.9391  0.038018755  0.038318411            8 
  939000   0.87401051   -5.6491245    428.02346  0.037985753  0.038294575            4 
  940000   0.87779807   -5.6853643    425.78897  0.037747249  0.038270333            5 
  941000   0.87734263   -5.6048601     428.6237  0.037958174  0.038246538            5 
  942000   0.90540219     -5.66207    429.17625   0.03796676  0.038222538            3 
  943000   0.89800547   -5.6067743    429.18303  0.037927097  0.038198684            6 
  944000   0.87143458   -5.6435505    429.38461  0.037904715  0.038174999            6 
  945000    0.8662879   -5.6260672    430.00962  0.037919719  0.038151305            3 
  946000   0.88722245   -5.6212931    430.26834  0.037902426  0.038127493            5 
  947000   0.85492595   -5.6336077    431.10778  0.037936271  0.038103784            4 
  948000   0.88862857   -5.6283112    429.54344  0.037758741  0.038080143            6 
  949000   0.88444204   -5.6419446     430.4499  0.037798551  0.038056492            6 
  950000   0.86471085   -5.6333929    430.31051  0.037746536  0.038032715            5 
  951000   0.88170262   -5.6326227    431.00857  0.037768013  0.038008899            3 
  952000   0.87427414   -5.6324052     431.2557  0.037749973  0.037985232            9 
  953000   0.87216558   -5.6667239    429.84371  0.037586893  0.037961495            4 
  954000    0.8878472    -5.643566    429.41699  0.037510219  0.037937562            3 
  955000   0.86988478   -5.6435708    430.14083  0.037534104  0.037913606            5 
  956000   0.87779479   -5.6614441    430.65131   0.03753934  0.037889407            2 
  957000   0.88402775   -5.6633941    431.23993   0.03755137  0.037865475            7 
  958000   0.85546566   -5.6553371    432.01803  0.037579857  0.037841514            7 
  959000   0.87492076   -5.6475946    430.43089  0.037402754  0.037817423            6 
  960000   0.88246623   -5.6497965    431.30736  0.037439875  0.037793231            8 
  961000   0.86408457   -5.6340322    432.33798  0.037490286  0.037769075            4 
  962000    0.8586286   -5.6321468    431.91608  0.037414768  0.037745043            6 
  963000   0.86971058    -5.669886    432.98289  0.037468232  0.037721127            4 
  964000   0.87533763   -5.6415115     432.4591  0.037384086  0.037697068            4 
  965000   0.85909955   -5.6399774    431.93906  0.037300437  0.037673045            5 
  966000   0.85799574   -5.6669802    432.31666  0.037294398  0.037648798            5 
  967000   0.88662614   -5.6542281    432.67686  0.037286872  0.037624491           10 
  968000   0.87626194   -5.6775465    431.62491  0.037157792  0.037600159            7 
  969000   0.86474643   -5.6711451    431.95779  0.037148073  0.037575735            2 
  970000   0.86811211   -5.6600325    433.08901   0.03720696  0.037551346            4 
  971000    0.8741292   -5.6713257    433.87396  0.037236007  0.037527143            9 
  972000   0.85972367   -5.6423198    434.42765  0.037245169  0.037503191            5 
  973000   0.85297273   -5.6954274    433.77936  0.037151367  0.037479116            4 
  974000   0.85742487   -5.6657654      432.478  0.037001882  0.037454797            6 
  975000   0.87039274   -5.6733435    433.69356  0.037067825  0.037430558            5 
  976000   0.85814028   -5.6715194    435.22176  0.037160328  0.037406483            3 
  977000   0.85286343   -5.6581886     435.4492  0.037141692  0.037382803            4 
  978000   0.85680068   -5.6516801    435.84047  0.037137055  0.037358912            3 
  979000    0.8585731   -5.6825768    435.63216  0.037081389  0.037335165            6 
  980000   0.86575597   -5.6813022    436.04683  0.037078812  0.037311714            5 
  981000   0.89604727   -5.6897824    435.18187  0.036967539  0.037288068            4 
  982000   0.85391757   -5.6731149    436.02512  0.037001453  0.037264189            4 
  983000   0.87203045   -5.6801297    437.24184  0.037066958  0.037240637            6 
  984000   0.89541017   -5.6855682    437.14432   0.03702103  0.037217225            6 
  985000   0.87832228   -5.6541559    437.39483  0.037004639  0.037193712            5 
  986000   0.86592296    -5.690235     435.1992  0.036781541   0.03717021            3 
  987000   0.85876106   -5.6976071    436.36124  0.036842388  0.037146283           18 
  988000   0.87502682    -5.704549    436.41888  0.036809959  0.037122416           10 
  989000   0.87788468   -5.6651936    437.80727  0.036889727  0.037098781            5 
  990000   0.85071861   -5.6583076     438.3557  0.036898628    0.0370755            3 
  991000   0.87743374   -5.6748944    437.94962  0.036827247  0.037051973            6 
  992000   0.84803402   -5.6919631    437.81323  0.036778665  0.037028394            5 
  993000   0.86306278    -5.687382    436.97203  0.036671033   0.03700475            8 
  994000   0.85888005   -5.6787746    437.22848  0.036655641  0.036981122            4 
  995000    0.8350446   -5.6791416    437.03587  0.036602669  0.036957236            5 
  996000   0.87161374   -5.6726371    438.90558  0.036722355   0.03693334            6 
  997000   0.84450013    -5.677953    438.53135  0.036654242  0.036909717            5 
  998000   0.84614958   -5.7019001    437.70154  0.036548225  0.036886035            4 
  999000   0.86447316   -5.6812734    439.59999  0.036670002   0.03686243            8 
 1000000     0.866151   -5.6722149    438.96917  0.036580764  0.036838586            9 
 1001000   0.85572992   -5.6979689    439.65415  0.036601245  0.036814984            3 
 1002000   0.85968506   -5.7102191    438.17045  0.036441322   0.03679132           10 
 1003000   0.85444948   -5.6809978    439.11368  0.036483356   0.03676742            5 
 1004000   0.85056882   -5.6864723    440.38468  0.036552513  0.036743648           10 
 1005000   0.85840135   -5.6891563    439.92369  0.036477918  0.036719758            6 
 1006000   0.84940273   -5.6958288    440.36055  0.036477845  0.036695925            6 
 1007000   0.86488704   -5.7094094    440.73703  0.036472776  0.036672055            4 
 1008000   0.85747443    -5.743254    438.88277  0.036283298  0.036648096            5 
 1009000   0.86212675   -5.7352467    438.38375  0.036206124   0.03662381            5 
 1010000   0.83786045    -5.685362    440.15334  0.036316282  0.036599904           12 
 1011000   0.85202642   -5.6924272    441.04056  0.036353491  0.036576147            4 
 1012000    0.8503109   -5.7039454    441.47779  0.036353573  0.036552487            5 
 1013000   0.83054536   -5.6710032    441.44135  0.036314688  0.036528982            8 
 1014000   0.85419652   -5.7186883    440.29099  0.036184335  0.036505422            6 
 1015000   0.86099256   -5.6735268    441.26276  0.036228469  0.036481645            6 
 1016000   0.84587997   -5.6924291    442.78658  0.036317797  0.036457769            4 
 1017000   0.84394046   -5.7086372    440.52556  0.036096817  0.036433961            6 
 1018000   0.85141176   -5.7252407    441.06596  0.036105596  0.036410214            3 
 1019000   0.86365662   -5.7235171    443.19863  0.036244573  0.036386304            6 
 1020000   0.82751748   -5.7319874    441.29386   0.03605342  0.036362571            9 
 1021000   0.82891775   -5.7221107    442.34086  0.036103564  0.036338836           10 
 1022000   0.85728071   -5.7269594    442.18457  0.036055493  0.036315009            5 
 1023000   0.85846128   -5.7220026     442.1383   0.03601648  0.036291239            3 
 1024000    0.8309024   -5.7163004     443.0832  0.036058203  0.036267471            7 
 1025000    0.8264596   -5.6957337    444.30102  0.036122034  0.036243587            5 
 1026000    0.8454965   -5.7190309    443.16175  0.035994294  0.036220018           15 
 1027000   0.83520992   -5.6944449    444.15111  0.036039525  0.036196298            4 
 1028000   0.86259399   -5.7404503    443.96538  0.035989412   0.03617272            5 
 1029000   0.83291866   -5.6997849    443.43335   0.03591135  0.036149424            4 
 1030000   0.85038664   -5.7396024     444.3138  0.035947718  0.036125918            5 
 1031000    0.8390653   -5.7339932    443.38306  0.035837622  0.036102557            5 
 1032000    0.8374183   -5.6748883     445.5374  0.035976857  0.036079017            4 
 1033000   0.84429081   -5.7212677    444.82483  0.035884546  0.036055736           12 
 1034000   0.86510275    -5.710234    443.18742  0.035717877  0.036032132            3 
 1035000   0.83413741   -5.7207354    444.18789  0.035763921  0.036008556            6 
 1036000   0.85981124   -5.7261574    443.15337  0.035646185  0.035984622            5 
 1037000   0.83712733   -5.7363166    443.66997  0.035653324  0.035960804            3 
 1038000   0.83290901   -5.7211476    444.04715  0.035649258  0.035936801            4 
 1039000   0.83624743   -5.7632769    445.07083  0.035697051  0.035912737           10 
 1040000   0.82687067   -5.7594653     444.7801  0.035639431    0.0358888            4 
 1041000   0.83235089   -5.7232906    445.11052  0.035631646  0.035865085           23 
 1042000   0.83685807   -5.7415121    444.37454  0.035538591  0.035841204            6 
 1043000   0.81890783   -5.7331702     445.0151  0.035555696  0.035817489            8 
 1044000   0.83640226    -5.727483    445.40238  0.035552552  0.035793656            5 
 1045000   0.83467872   -5.7163482    445.91164  0.035559142  0.035770172            4 
 1046000   0.81687927   -5.7024857     445.9706  0.035529844  0.035746663            3 
 1047000   0.83063691    -5.760784    445.50658  0.035458976  0.035722978           11 
 1048000   0.82277349   -5.7397947    445.96274  0.035461414  0.035699321            8 
 1049000   0.82606714   -5.7232877    447.37224   0.03553958  0.035675531            4 
 1050000   0.85391121   -5.7422875    448.02307  0.035557387   0.03565209            4 
 1051000   0.81343397   -5.7112644    447.71954  0.035499488  0.035628826           11 
 1052000   0.80088678   -5.7104585    447.16784  0.035422041   0.03560558            5 
 1053000   0.82548706   -5.7125338    448.10587  0.035462636   0.03558217            6 
 1054000   0.81359618   -5.7221233    448.19108  0.035435728  0.035558815           13 
 1055000   0.83474249   -5.7460487    447.48035  0.035345999  0.035535354            3 
 1056000   0.82467781   -5.7291888    448.52924    0.0353953  0.035511967            6 
 1057000   0.83028351   -5.7544533    447.59057  0.035287809  0.035488785            5 
 1058000   0.83589082   -5.7698489    449.23027  0.035383607  0.035465552            8 
 1059000   0.83167404   -5.7543324    448.71196  0.035309408  0.035442434            8 
 1060000   0.83199833   -5.7607759    449.13083  0.035309028  0.035419407            9 
 1061000   0.82837629   -5.7578751    449.24697   0.03528487  0.035396421            7 
 1062000   0.85633259   -5.7622503    449.21667  0.035249268  0.035373442           10 
 1063000   0.81943921   -5.7788718    448.96264  0.035196193  0.035350263            5 
 1064000   0.82952414   -5.7850214    447.93919  0.035082957  0.035326703           13 
 1065000    0.8301171   -5.7672541    450.37238  0.035240405  0.035303389           11 
 1066000   0.83806245   -5.7635998    448.44114  0.035056375  0.035280322            6 
 1067000   0.82794957   -5.7884475    449.57218  0.035111854  0.035257072            5 
 1068000   0.82171457    -5.761487    449.49083   0.03507263    0.0352337            3 
 1069000   0.82703421   -5.7619639    449.52731  0.035042665  0.035210448            5 
 1070000   0.82212004   -5.7782376    449.79926  0.035031095  0.035187385            6 
 1071000   0.81527709   -5.7638937    451.46757  0.035128196  0.035164139            7 
 1072000   0.83011198   -5.7691746    450.34073   0.03500783  0.035141258            4 
 1073000   0.83330347   -5.7866466    450.31202  0.034972975  0.035118316            8 
 1074000   0.82818366   -5.7767922     450.8927  0.034985467  0.035095095            6 
 1075000   0.84095891   -5.7806585    449.91329  0.034876999   0.03507198            5 
 1076000   0.82209768   -5.7594726    451.31949  0.034953492  0.035048865            6 
 1077000   0.81618943   -5.7145406    453.02009  0.035052622  0.035026054            4 
 1078000   0.82651468   -5.7287172    451.97944   0.03493966  0.035003263            4 
 1079000   0.81203455   -5.7410621    451.93423  0.034903787  0.034980294            6 
 1080000   0.82870614   -5.7320117    453.11322   0.03496244  0.034957626            8 
 1081000   0.82488637   -5.7666278     453.0873  0.034928099   0.03493477            9 
 1082000   0.82929287   -5.7696534    452.59592  0.034857973  0.034911931            6 
 1083000   0.82930995   -5.7441096    452.94396  0.034852567  0.034889162            9 
 1084000   0.81788338   -5.7812556    451.64063   0.03472022   0.03486637            9 
 1085000   0.81462412   -5.7764822    453.68765  0.034845441  0.034843302            8 
 1086000   0.80778452    -5.758234    452.67231  0.034735444  0.034820251            7 
 1087000   0.81508977    -5.759442     451.9769  0.034650176  0.034797276            7 
 1088000   0.81236623   -5.7905591    451.97844  0.034618447  0.034774151            6 
 1089000      0.82082   -5.7212139    454.30287   0.03476453  0.034751219           11 
 1090000   0.82165061   -5.7558718    453.31294  0.034656952  0.034728394           10 
 1091000   0.82750484   -5.7988803    453.17667  0.034614778  0.034705451            5 
 1092000    0.8191018   -5.7864137    453.56962  0.034613066  0.034682493            9 
 1093000   0.83032084   -5.7882261    452.16636   0.03447441  0.034659256           10 
 1094000   0.82324967    -5.751208     453.4968  0.034544242  0.034636151            6 
 1095000   0.80922267    -5.792293    453.48108  0.034511498  0.034613215           15 
 1096000   0.79957537   -5.7858966    452.81533  0.034429389  0.034589901           16 
 1097000   0.80991085   -5.7625432    453.63449  0.034460232  0.034566937            6 
 1098000   0.80931943   -5.7754273    453.24825  0.034399533  0.034543833            6 
 1099000   0.81913942   -5.7541964    453.98191  0.034423864  0.034520742            5 
 1100000   0.80445204   -5.7917615    453.19194  0.034332723  0.034497507            5 
 1101000   0.80816266   -5.7766377    454.69528  0.034415325  0.034474537            6 
 1102000    0.8096301    -5.786662    454.84907  0.034395725  0.034451412            4 
 1103000    0.8325433    -5.776479    455.57471  0.034419365  0.034428361            8 
 1104000   0.80459271   -5.8022109    455.04601   0.03434828  0.034405261            6 
 1105000   0.82063111   -5.7944464    454.87531  0.034304322  0.034382089            8 
 1106000   0.81007439   -5.7772773    457.73218  0.034488561  0.034359142            8 
 1107000   0.79771042     -5.78578    454.05088  0.034180283  0.034336173            3 
 1108000   0.80203858   -5.7952495    453.76062  0.034127604  0.034313064            8 
 1109000   0.82805959   -5.7853596    454.92616  0.034184412  0.034289946           14 
 1110000   0.80884879   -5.7901172    455.05466  0.034163263  0.034266738            6 
 1111000   0.82050823   -5.7794908    454.22546  0.034070317  0.034243328            5 
 1112000   0.81687535   -5.7970131    455.72768  0.034152254  0.034220321            6 
 1113000   0.81723369   -5.8140464    456.30517  0.034164807  0.034197285            8 
 1114000   0.80929312   -5.7930613     455.8603  0.034100861   0.03417434            6 
 1115000   0.81906183   -5.7968172    456.32607  0.034105088  0.034151449            7 
 1116000   0.80160532   -5.7948954    455.96686  0.034047704  0.034128377            8 
 1117000   0.81783719   -5.7784011    457.85346  0.034157972  0.034105472            4 
 1118000   0.78883791   -5.8082265    456.22046  0.034005699   0.03408274           11 
 1119000   0.79870568   -5.7937293    456.70073  0.034011076  0.034059929            4 
 1120000   0.82716254   -5.8185522    457.33004  0.034027532  0.034037362            3 
 1121000   0.80956024   -5.7822093    456.68485  0.033949215  0.034014545            6 
 1122000   0.81084911   -5.8110911    456.40133    0.0338979  0.033991656            6 
 1123000    0.8131288   -5.7879525    457.64265  0.033959829   0.03396873            8 
 1124000     0.791222   -5.8128505     457.5064  0.033919514  0.033946079           13 
 1125000   0.79816408   -5.8036958    457.43375  0.033883982    0.0339232            4 
 1126000   0.81193147   -5.7906357    457.44803  0.033854946  0.033900591           14 
 1127000   0.79708476   -5.8365377    457.67896  0.033841981  0.033877894            8 
 1128000     0.790704   -5.8018391    459.28908  0.033930931   0.03385553            8 
 1129000   0.81599486   -5.8202815      458.856  0.033868911  0.033833057            3 
 1130000   0.79623136    -5.799688    458.36083  0.033802421  0.033810651           12 
 1131000   0.81608412   -5.8163002      457.948  0.033742116  0.033788213            5 
 1132000   0.78929827   -5.7948458    459.76676  0.033846198  0.033765719            5 
 1133000   0.78231462   -5.8316371    457.63065  0.033659212  0.033743237            6 
 1134000   0.81147529    -5.804216    459.24519  0.033748177  0.033720909           15 
 1135000   0.80335725   -5.7950615    459.79057  0.033758485   0.03369876           13 
 1136000   0.81580296   -5.8570422    459.87567  0.033735011  0.033676502            3 
 1137000   0.79548861   -5.7958927    459.54982  0.033681459   0.03365414            5 
 1138000   0.80714982   -5.8034633    459.98058  0.033683405  0.033631708            9 
 1139000   0.80433402   -5.8214646    459.88689  0.033646977  0.033609424            6 
 1140000   0.79264877   -5.7979022    460.71085  0.033677694  0.033587379           26 
 1141000   0.79491858   -5.8241265    461.04248  0.033672399  0.033565279           11 
 1142000    0.7972573   -5.8030005    461.36545  0.033666481  0.033543166            6 
 1143000   0.82529426   -5.8295519    461.21368  0.033625961  0.033521045            5 
 1144000   0.78900679    -5.826929    461.52966  0.033619585  0.033499005            5 
 1145000   0.77961084   -5.8241406    461.22987  0.033568404  0.033476881            6 
 1146000   0.80182575   -5.8400463    461.08895  0.033528865  0.033454847            5 
 1147000   0.78825687   -5.8268649     460.7992  0.033478582  0.033432522           11 
 1148000   0.77963895   -5.8194252    461.05512  0.033467997  0.033410445            5 
 1149000   0.77577586   -5.8091241    461.57918  0.033476877  0.033388246            6 
 1150000   0.79202116   -5.8535482    460.64116  0.033379794  0.033366183            4 
 1151000   0.80166865   -5.8362848    460.98605  0.033375764  0.033343726            6 
 1152000   0.79283503   -5.8301688     460.5829  0.033317628  0.033321239           13 
 1153000   0.79468463   -5.8451827    461.56064  0.033359398   0.03329893           12 
 1154000   0.79409879   -5.8369649     461.4332  0.033321288    0.0332765            4 
 1155000   0.79899931   -5.8430748    460.78907  0.033245965  0.033254057            6 
 1156000    0.7854287   -5.8450354    462.37626  0.033331622  0.033231657            9 
 1157000   0.79926055   -5.8286254    461.88966  0.033267766  0.033209326            8 
 1158000   0.79808902   -5.8381796    462.33798  0.033271299  0.033187083           12 
 1159000   0.80068937   -5.8514672     460.9984  0.033146276   0.03316486           10 
 1160000   0.79024968   -5.8549409    461.93854   0.03318524  0.033142597           10 
 1161000   0.80308934   -5.8461603    462.60981  0.033204839  0.033120336            6 
 1162000   0.79836903   -5.8396751       462.74  0.033185599  0.033098091            4 
 1163000   0.78979586   -5.8541859     462.9491  0.033172048  0.033076039            8 
 1164000   0.81488166   -5.8529471    462.31825  0.033098386  0.033053771           14 
 1165000   0.79158503   -5.8309143    462.59246  0.033089589  0.033031588            5 
 1166000   0.79952893   -5.8622889    462.23165  0.033035424  0.033009442            8 
 1167000   0.78107009   -5.8479112    462.69196  0.033039986  0.032987311           20 
 1168000   0.79490888   -5.8354673    464.14497  0.033115366  0.032965235            7 
 1169000   0.78948862   -5.8441342    462.78939  0.032990404  0.032943241            8 
 1170000   0.79620543   -5.8620912    462.93865  0.032972838  0.032921188           14 
 1171000   0.78124332   -5.8368435    463.36395  0.032974947  0.032898925            9 
 1172000    0.7697523   -5.8399234    463.91046   0.03298567  0.032876877            4 
 1173000   0.76355682   -5.8371665    463.64852   0.03293894  0.032854948           13 
 1174000    0.7754913    -5.809484    464.81474  0.032993664  0.032832851            9 
 1175000   0.77642064    -5.848248    464.01722  0.032909022  0.032810764            5 
 1176000   0.79790558   -5.8464438     464.7596  0.032933645  0.032788815           12 
 1177000   0.77763726   -5.8424205    465.08656  0.032928813  0.032766766            9 
 1178000   0.77338606   -5.8319338    464.61506  0.032867506  0.032744586           17 
 1179000   0.77550699   -5.8712332     464.1041  0.032803513  0.032722481            9 
 1180000   0.77380541   -5.8521957    463.95153  0.032764939    0.0327003           22 
 1181000   0.77870213   -5.8447116    467.26663  0.032971114  0.032678171            5 
 1182000   0.77527992   -5.8740514    463.99973  0.032712897  0.032656103            4 
 1183000   0.80088465   -5.8380296    465.28114   0.03277551  0.032634141            6 
 1184000   0.78582526   -5.8412851    464.83309  0.032716293  0.032612359            5 
 1185000   0.76136051   -5.8346922      465.782  0.032755415  0.032590415           10 
 1186000    0.7697632   -5.8558011    465.61101  0.032715782   0.03256861            4 
 1187000   0.77761971   -5.8440617    465.86923  0.032706349  0.032546733            5 
 1188000   0.79741059   -5.8500155    466.03229  0.032690256  0.032524977            8 
 1189000   0.75479056    -5.863867    466.95656  0.032727541  0.032503309           11 
 1190000   0.78251052   -5.8992433    465.51106  0.032598813  0.032481441            4 
 1191000   0.76963658   -5.8821638    466.09841  0.032612539  0.032459535            5 
 1192000   0.76960789   -5.8740798    465.59418  0.032549929   0.03243763            9 
 1193000   0.78160916   -5.8768491    467.16552  0.032632405  0.032415866           20 
 1194000   0.79751073   -5.8710231    467.14838  0.032603879  0.032394314            8 
 1195000   0.78054987   -5.8628428    465.94166  0.032492445  0.032372672           11 
 1196000   0.77078646   -5.8986414    464.64435  0.032374885  0.032350922           12 
 1197000   0.77989223   -5.8859122    466.04488  0.032445341  0.032329117            6 
 1198000   0.77820397   -5.8702255    466.55217  0.032453546  0.032307403            5 
 1199000   0.78807884   -5.8754605    467.11215  0.032465398  0.032285744           20 
 1200000   0.78203101   -5.8508883    467.99107   0.03249938  0.032264293           10 
 1201000   0.78117297   -5.8765687    468.28052  0.032492404  0.032242832            7 
 1202000   0.78183416   -5.8754722    467.81887  0.032433366  0.032221503            8 
 1203000   0.77754749   -5.8782231    469.61891  0.032531096  0.032200182           10 
 1204000   0.76689928   -5.8758633    467.14492  0.032332844  0.032178835           10 
 1205000   0.75475435   -5.8968348    468.23408  0.032381333  0.032157187           10 
 1206000   0.76190752   -5.8940836    468.35767  0.032363023  0.032135521            7 
 1207000   0.78852723   -5.8663491    467.83253  0.032299954  0.032113978            4 
 1208000   0.77352937   -5.8777572    467.72012  0.032265461  0.032092442            9 
 1209000   0.77224265   -5.8793831    467.66496  0.032234971  0.032070987           10 
 1210000   0.79754459   -5.9137543    467.29093  0.032182571  0.032049326            8 
 1211000   0.77028896   -5.8887632    468.92635  0.032268535  0.032027751            5 
 1212000    0.7665138   -5.8843545     468.5922  0.032218936  0.032006282            6 
 1213000   0.76462957   -5.8993101    469.81237    0.0322762  0.031984689            8 
 1214000   0.76975162   -5.8873564    469.02766  0.032195748  0.031963245            7 
 1215000   0.76339377   -5.8760282    468.18179  0.032111234  0.031941829            7 
 1216000     0.748686   -5.8823187    468.19465  0.032085708  0.031920358           18 
 1217000   0.76565533   -5.8758589    467.38572  0.032003953  0.031898907           13 
 1218000   0.76488106   -5.8832306    470.28691  0.032176171  0.031877607            7 
 1219000   0.80830239   -5.9026638    469.90105  0.032123397  0.031856186           12 
 1220000   0.78078331   -5.8625158    470.72994  0.032153685  0.031834808            4 
 1221000   0.77970763   -5.8933121    469.29503  0.032029418  0.031813405            5 
 1222000   0.75594736     -5.86955    469.97921  0.032049865  0.031791993            5 
 1223000   0.76175467   -5.9126076    469.67467  0.032002907  0.031770599            5 
 1224000   0.76526589   -5.8947398    470.09813  0.032005592  0.031749192           13 
 1225000   0.75206053   -5.9219812    470.01634  0.031973901  0.031727657            9 
 1226000   0.76681995   -5.8905665    470.46142  0.031978074  0.031706376           11 
 1227000   0.74491219   -5.8687766    470.10886  0.031928067  0.031685016            7 
 1228000   0.75775263    -5.907049    470.48975  0.031927914  0.031663628           15 
 1229000   0.76180072   -5.8992203    470.14084  0.031878278  0.031642155            5 
 1230000   0.75674533   -5.9141937    468.46901  0.031739093  0.031620505            7 
 1231000   0.75323819   -5.9176077    468.07191  0.031686427  0.031598871            4 
 1232000   0.78109758   -5.8933981    469.59526  0.031763749  0.031577023           11 
 1233000   0.76008354   -5.9201316     469.4704  0.031729549  0.031555225            4 
 1234000   0.75936732   -5.9201138    468.70121  0.031651892  0.031533291           10 
 1235000   0.75387517   -5.9157409    469.76157  0.031697812  0.031511591            5 
 1236000   0.77246469   -5.8854846    470.60839   0.03172926   0.03148981           13 
 1237000   0.77521598   -5.8906884    469.81866  0.031650408  0.031468078            9 
 1238000   0.76827712    -5.952489    468.95199  0.031566504  0.031446144           13 
 1239000   0.76675414   -5.9290219    468.98768  0.031543427  0.031424132            7 
 1240000   0.75500106   -5.9031431    469.67448  0.031564145  0.031402244            6 
 1241000   0.76631937   -5.8931793    470.57976  0.031599501  0.031380561            4 
 1242000   0.75986188   -5.9247147    469.88574  0.031527492  0.031358884            7 
 1243000   0.74839778   -5.9297178    469.93784  0.031505621  0.031337275           16 
 1244000   0.75211259   -5.9083894    470.48547   0.03151698  0.031315578            3 
 1245000   0.73490028   -5.9212758    470.17167   0.03147066  0.031293826           10 
 1246000   0.74824724   -5.9174074    469.61135  0.031407929  0.031271881           10 
 1247000   0.75708501   -5.9161837    471.03449  0.031477846  0.031250108            5 
 1248000   0.75212896   -5.9101163    469.98745  0.031382709   0.03122818            5 
 1249000    0.7585493   -5.9246784    469.25606  0.031308784  0.031206247           12 
 1250000   0.74423964   -5.9235184    469.65532  0.031310354  0.031184104            9 
 1251000   0.74777301   -5.9063714    469.97538  0.031306647  0.031162314            6 
 1252000    0.7580906   -5.8991828    471.16281  0.031360677  0.031140466           10 
 1253000   0.76192541   -5.9340416    468.94335  0.031188039  0.031118698            7 
 1254000   0.75499462   -5.9509331    470.12747  0.031241857  0.031096756           12 
 1255000   0.75647811   -5.9601614    468.92086  0.031136843  0.031074853           10 
 1256000   0.76034733   -5.9611916    470.06595  0.031188027  0.031052853            7 
 1257000   0.74728099   -5.9274324    469.08628  0.031098268  0.031030905            6 
 1258000   0.76001184   -5.9419677    469.79874  0.031120743   0.03100902            9 
 1259000   0.75479695   -5.9404951    471.24626  0.031191836  0.030987135           11 
 1260000   0.75046477   -5.9574535    470.02949  0.031086606  0.030965304           10 
 1261000   0.74106926   -5.9315999    471.64299  0.031168582  0.030943546           12 
 1262000   0.74149471   -5.9439152    470.69809   0.03108149  0.030921944            8 
 1263000   0.73828161    -5.952408    470.58078  0.031049141  0.030900182           13 
 1264000   0.75702524   -5.9153155    470.77437   0.03103734  0.030878501           14 
 1265000    0.7428312    -5.941396     471.4966  0.031060382  0.030856852            5 
 1266000   0.74848884   -5.9335057    471.49942  0.031036033  0.030835267            8 
 1267000    0.7338503   -5.9597724    470.66384   0.03095658  0.030813576            7 
 1268000   0.75263062   -5.9087559    473.09703  0.031092076  0.030792111           15 
 1269000   0.75809771   -5.9145296    472.46572  0.031026118  0.030770902            7 
 1270000    0.7150524   -5.9551509    470.99086  0.030904912  0.030749465           11 
 1271000   0.75905685    -5.934023    473.18539  0.031024481   0.03072794            9 
 1272000   0.74050896   -5.9532226    469.75967   0.03077566  0.030706426            8 
 1273000   0.75865537   -5.9241887    472.73456  0.030946227   0.03068508           22 
 1274000   0.74458022   -5.9528602    471.78446  0.030859789  0.030663516           12 
 1275000   0.75473725    -5.943676    472.33666  0.030871677  0.030641978           12 
 1276000    0.7496938    -5.928355    473.21515  0.030904856  0.030620452           18 
 1277000   0.74995066   -5.9516065    472.01017  0.030802021  0.030598825           10 
 1278000   0.73630132   -5.9461004    472.85698  0.030833136  0.030577245            6 
 1279000   0.73997301   -5.9721471    472.00371  0.030753434  0.030555743           33 
 1280000   0.74810232   -5.9928074    471.49731   0.03069644   0.03053403           31 
 1281000   0.74268226   -5.9657846    472.09068  0.030711077  0.030512344           20 
 1282000   0.73981479   -5.9628982    470.88719  0.030608892  0.030490626           16 
 1283000   0.75729626    -5.974146    472.31999  0.030678097  0.030469033           16 
 1284000   0.73775114   -5.9702723    473.25047  0.030714594  0.030447441            8 
 1285000   0.73889835   -5.9657114    473.29886   0.03069383  0.030426142            8 
 1286000    0.7549667   -5.9611875    472.92699  0.030645865  0.030404655           14 
 1287000   0.72381349   -5.9743316    473.34134  0.030648882  0.030383304            4 
 1288000   0.73346379   -5.9619808    472.87564  0.030594956  0.030362017            7 
 1289000   0.72729385   -5.9735701    473.22737   0.03059396  0.030340673           10 
 1290000   0.74528098   -5.9716872    474.84183  0.030674537  0.030319408           10 
 1291000   0.72877747   -5.9814166    473.63787  0.030573062  0.030298139            5 
 1292000   0.75402273   -5.9720188    474.58094  0.030610226  0.030277046           14 
 1293000   0.74900936   -5.9698176    474.44146  0.030577563   0.03025609            7 
 1294000   0.72678457   -5.9545059    474.47918  0.030556361  0.030235171           11 
 1295000   0.74958679   -5.9353152     474.4282  0.030529485   0.03021429            8 
 1296000   0.74204983   -5.9578601    474.71922  0.030524641  0.030193465           13 
 1297000   0.74130234   -5.9747976    475.34547  0.030541343  0.030172675           10 
 1298000   0.76503216   -5.9566407     474.7202  0.030477671  0.030151795           26 
 1299000    0.7339763   -5.9711656    474.84345  0.030462115  0.030130886           11 
 1300000   0.72881498   -5.9621397    475.70213  0.030493726  0.030110048            9 
 1301000   0.73497168   -5.9826779    475.61137  0.030464474  0.030089388           10 
 1302000   0.74264637   -5.9787452    474.41591  0.030364561  0.030068566           10 
 1303000    0.7346849   -5.9654738    475.46317  0.030408235  0.030047897            6 
 1304000    0.7423137   -5.9943868    475.68128  0.030398855  0.030027209           21 
 1305000   0.73963216   -5.9796365    475.83215  0.030385195   0.03000664           12 
 1306000   0.72178182     -5.98477    477.47185  0.030466555   0.02998607            9 
 1307000   0.73569408   -6.0258974    476.01818   0.03035056   0.02996553            9 
 1308000   0.75534934   -5.9643223    477.37844  0.030414019  0.029944985            8 
 1309000    0.7133568    -5.971688    477.16457  0.030377169  0.029924639           14 
 1310000     0.750992   -5.9920188    476.16621  0.030290471  0.029904135           15 
 1311000   0.73133931   -5.9860915    477.28516  0.030338492  0.029883523            5 
 1312000   0.72289826   -5.9813541    477.06751  0.030301544  0.029863022            9 
 1313000   0.72430057   -5.9921935    476.85387  0.030264906  0.029842436            8 
 1314000   0.72009611   -5.9779004    478.00685  0.030314996  0.029821901            7 
 1315000   0.72769397   -5.9602575    477.44604  0.030256403  0.029801479            9 
 1316000   0.73268256   -5.9577382    477.07141  0.030209689  0.029781208           10 
 1317000   0.73052366   -5.9985872    476.07534  0.030123725  0.029760671            8 
 1318000   0.73146277   -5.9823921    478.22237  0.030236619  0.029740232            8 
 1319000   0.71871604   -5.9989102    478.05894   0.03020337  0.029719657            6 
 1320000   0.72282143   -5.9796599    475.73206  0.030033589  0.029699029            9 
 1321000   0.72871286   -5.9954871    477.37705  0.030114626  0.029678391           13 
 1322000   0.73561748   -5.9785362    476.88329  0.030060722  0.029657845            9 
 1323000   0.72892424   -5.9814418    478.14537  0.030117496   0.02963742            9 
 1324000   0.72367534   -6.0027174    477.51629  0.030055154  0.029617188            9 
 1325000   0.72824858    -6.007665    478.03787  0.030065275  0.029597067            7 
 1326000   0.72713771   -6.0189439    477.77259  0.030025929  0.029576799           12 
 1327000   0.73205897   -6.0155641    478.82032  0.030069098  0.029556477           19 
 1328000   0.73335989   -5.9876449    478.10376  0.030001491  0.029536079            7 
 1329000   0.70602375   -5.9952754    479.02253  0.030036527  0.029515961           16 
 1330000   0.71521788   -6.0048698    477.36891  0.029910332  0.029495689           15 
 1331000   0.72998982   -5.9830198    478.21263  0.029940685  0.029475524            5 
 1332000   0.72427186   -6.0011532       478.22  0.029918669  0.029455321            5 
 1333000   0.71516509   -6.0271003    476.95867  0.029817371  0.029435022           10 
 1334000   0.72445744   -5.9956293    478.26998  0.029876936   0.02941472            9 
 1335000    0.7209471   -6.0244104     478.4134  0.029863508  0.029394378           12 
 1336000   0.71490038   -6.0091264    479.77172  0.029925881  0.029374054           10 
 1337000    0.7217658   -5.9987053    478.01687   0.02979412  0.029353693           13 
 1338000   0.70528811   -6.0119728    478.95681  0.029830394  0.029333565           11 
 1339000   0.70917272   -6.0250911    478.23278  0.029763056  0.029313555           11 
 1340000   0.70407357   -6.0062087    479.48404  0.029818659  0.029293441           12 
 1341000   0.72652747   -6.0097281    479.51021  0.029798049  0.029273393            7 
 1342000   0.72325034    -6.015129    479.97839  0.029804918  0.029253321            6 
 1343000   0.72909222   -6.0107721    479.50057  0.029753076  0.029233346            9 
 1344000   0.71649015   -6.0192649    479.84919  0.029752554  0.029213423           12 
 1345000   0.72880652   -6.0163861    477.26835   0.02957053   0.02919342           10 
 1346000   0.74041791   -6.0159361    478.94116  0.029652127   0.02917344            5 
 1347000   0.71612144   -6.0302546      479.273  0.029650643  0.029153477            6 
 1348000   0.73414996    -6.013233    480.62247  0.029712072  0.029133424           16 
 1349000    0.7079424   -6.0320376    480.26746  0.029668116  0.029113406           10 
 1350000   0.71387995   -6.0289129     479.7977  0.029617142  0.029093435            9 
 1351000   0.70627201    -6.059673    479.76078  0.029592942  0.029073468           13 
 1352000   0.71654696   -6.0065773    481.45902  0.029675728  0.029053573            7 
 1353000   0.71613042   -6.0180877    481.74833  0.029671615  0.029033704            7 
 1354000   0.72761093   -6.0276837    480.85178  0.029594521  0.029013913            7 
 1355000   0.71889864   -6.0170939    480.41996  0.029546123  0.028994141            9 
 1356000   0.70654229   -6.0163005    480.19189  0.029510317  0.028974288           10 
 1357000   0.70521825   -6.0560174    479.24863  0.029430646  0.028954294            9 
 1358000   0.69471656   -6.0383589    479.14891  0.029402854  0.028934257           11 
 1359000   0.71708017   -6.0328521    479.84619  0.029423975  0.028914287            8 
 1360000   0.72369034   -6.0386165    479.82816  0.029401235  0.028894317           29 
 1361000   0.70527195   -6.0396721    481.00968  0.029451977   0.02887431           13 
 1362000   0.70118895   -6.0169703    479.96916  0.029366689  0.028854297           12 
 1363000   0.71705201   -6.0250115    480.57191  0.029381995  0.028834292           12 
 1364000   0.71120531    -6.057671     479.8399  0.029315732  0.028814235           16 
 1365000   0.71631023   -6.0440044    481.25396  0.029380584  0.028794239            8 
 1366000   0.71084533   -6.0393381    479.89125  0.029275943  0.028774241           13 
 1367000   0.70587674   -6.0295723    479.62093  0.029238048  0.028754258            8 
 1368000   0.71021631   -6.0518738    480.25317  0.029255188  0.028734283            8 
 1369000     0.704839   -6.0463447    479.97217  0.029216713  0.028714229           19 
 1370000   0.70480432   -6.0769157    479.73281  0.029180828  0.028694252           23 
 1371000   0.70303676   -6.0718886    479.70716  0.029157985  0.028674164            6 
 1372000    0.7215297   -6.0568583    480.02263  0.029155893  0.028654173           12 
 1373000   0.70308153   -6.0514677    479.01475  0.029073486   0.02863416            9 
 1374000   0.70250136   -6.0657601    480.65913  0.029152058  0.028614202           13 
 1375000   0.70768837   -6.0515428    480.47169  0.029119496  0.028594176           16 
 1376000   0.68969644   -6.0322688    480.96844  0.029128418  0.028574279           25 
 1377000   0.71692886   -6.0497674    480.96919   0.02910731  0.028554454           12 
 1378000   0.69293452   -6.0583867    480.57528  0.029062366  0.028534596           16 
 1379000   0.70471153   -6.0438178    481.49499  0.029096869  0.028514781           11 
 1380000   0.69992761   -6.0690159    480.00696  0.028985928  0.028494758           12 
 1381000   0.70612457   -6.0617416    480.57727  0.028999353  0.028474949           12 
 1382000   0.71806009   -6.0679697    481.00959  0.029004437  0.028455281           19 
 1383000   0.70234706   -6.0567803    482.52327  0.029074673  0.028435659           10 
 1384000   0.70840989    -6.062668    482.71857  0.029065424  0.028415959            7 
 1385000   0.70330209   -6.0585528    482.70437  0.029043584  0.028396262           10 
 1386000   0.71073824   -6.0580911    481.84958  0.028971235  0.028376635           12 
 1387000   0.70413389   -6.0594154    482.54674  0.028992234   0.02835688            6 
 1388000   0.70033228    -6.067185    480.94879  0.028875407  0.028337227           10 
 1389000   0.70081692   -6.0930135    481.50291  0.028887864  0.028317571           11 
 1390000   0.68930764   -6.0725849    481.92492  0.028892381  0.028297948           20 
 1391000   0.69797911    -6.059028    481.14945  0.028825153  0.028278422           10 
 1392000   0.69586934    -6.054639    482.89308  0.028908829  0.028258961            7 
 1393000   0.69240588   -6.0499018    482.86356   0.02888631  0.028239465            9 
 1394000   0.70886387   -6.0547985    482.80958  0.028862361  0.028219831           12 
 1395000   0.71580366    -6.073786    481.95564   0.02879066  0.028200258            6 
 1396000   0.69747075   -6.0470233    482.93746  0.028828645   0.02818087            9 
 1397000   0.70686099   -6.0515616    482.53697  0.028784119  0.028161517           14 
 1398000   0.68702496   -6.0718413    483.94562  0.028847498   0.02814219           10 
 1399000   0.69725917   -6.0821282    483.89925  0.028824115  0.028122826            8 
 1400000   0.69858188   -6.0800683    482.92028  0.028745255  0.028103437            6 
 1401000   0.69653316   -6.0793321    483.41797   0.02875434  0.028084162            5 
 1402000    0.6870309   -6.0726066    482.23039  0.028663242  0.028064832            8 
 1403000   0.69476974   -6.0919585     484.6335  0.028785549  0.028045442            9 
 1404000   0.68732371   -6.0728099    485.30619  0.028804973  0.028026105           22 
 1405000   0.68581511   -6.0740746     483.3835  0.028670433  0.028006805           11 
 1406000   0.70398103   -6.0844473    483.28147  0.028643994  0.027987504           17 
 1407000   0.69165531   -6.0857294    483.71365  0.028649233  0.027968189            8 
 1408000   0.68871309   -6.0934201    485.04542  0.028707707  0.027948871           23 
 1409000   0.68504294   -6.0715958    483.44297  0.028592558  0.027929606           16 
 1410000   0.69201536    -6.062695    483.17217  0.028556275  0.027910417            8 
 1411000   0.69110625   -6.0839686    484.62733  0.028621978  0.027891219            8 
 1412000   0.68171583    -6.090693    483.06433  0.028509462  0.027871897           14 
 1413000   0.67509246   -6.0962516    482.05674  0.028429862  0.027852583            3 
 1414000   0.68036503   -6.0997738    481.38995  0.028370459  0.027833162           10 
 1415000   0.69219336   -6.0795894    483.38578  0.028467949  0.027813714           16 
 1416000   0.69074008   -6.0692566    484.55124  0.028516434  0.027794476           11 
 1417000   0.68562915   -6.0947687    483.75414  0.028449432  0.027775118           14 
 1418000   0.68017149    -6.101302    483.25973  0.028400313  0.027755793            8 
 1419000   0.67677959   -6.1087592    484.08224  0.028428602   0.02773643            8 
 1420000   0.68167287   -6.1097874    482.66376  0.028325338  0.027717123            9 
 1421000   0.68216739    -6.118341    484.79889  0.028430617  0.027697798           28 
 1422000   0.68014048   -6.1117884    484.32974  0.028383131  0.027678503           26 
 1423000   0.68559399   -6.0934615    483.91477  0.028338883  0.027659267            8 
 1424000   0.68010484   -6.1112275    483.29507  0.028282717  0.027639928           13 
 1425000   0.67654889   -6.1095071    483.16007  0.028254975  0.027620699           19 
 1426000    0.6930751   -6.0869649    483.69759  0.028266573  0.027601525            9 
 1427000   0.68701716   -6.0794277    484.50971   0.02829419  0.027582321            5 
 1428000    0.6896112   -6.1341521     483.2822  0.028202742  0.027563024           11 
 1429000   0.68563106   -6.0782193    483.91036  0.028219638  0.027543699           16 
 1430000   0.68421401   -6.1049445    482.98756  0.028146128  0.027524435           17 
 1431000    0.6817426   -6.0753857    484.36499  0.028206673   0.02750518           12 
 1432000   0.66355509   -6.0970238    485.12162  0.028231007  0.027485961           10 
 1433000   0.68961299   -6.1108234     483.9997  0.028146063  0.027466758           31 
 1434000   0.68272609   -6.1103746    485.19346  0.028195808  0.027447538           32 
 1435000     0.679719   -6.1227926    483.41603   0.02807294  0.027428388           13 
 1436000   0.66537051   -6.0922663    484.86147  0.028137272  0.027409286           11 
 1437000    0.6747141   -6.1062403    484.12864  0.028075194  0.027390242           10 
 1438000   0.66914266   -6.1108468    484.33889  0.028067854  0.027371227           11 
 1439000   0.69347058   -6.0985345    484.59857  0.028063387  0.027352297           12 
 1440000   0.69544086    -6.086514    486.29669   0.02814217  0.027333358           10 
 1441000    0.6847888   -6.1316777    484.38558   0.02801212  0.027314289           10 
 1442000   0.68315211   -6.1128492    485.79097  0.028073912  0.027295171           18 
 1443000   0.69005899   -6.1277779    485.75292  0.028052259  0.027276172            7 
 1444000    0.6836083   -6.1141753    485.64135  0.028026393  0.027257179           13 
 1445000   0.68139893   -6.1225932    485.63331  0.028006535  0.027238184            8 
 1446000   0.68311427   -6.1172742     485.0444  0.027953227  0.027219199           13 
 1447000   0.67667745    -6.103576    486.18876  0.027999813  0.027200325            6 
 1448000     0.669741    -6.119743    484.91489  0.027907164  0.027181429           16 
 1449000   0.67522477   -6.1463737    486.74524   0.02799317  0.027162589            9 
 1450000   0.66681605   -6.1329669      485.212  0.027885747   0.02714369           17 
 1451000   0.68483661   -6.1338429    486.34768  0.027931753  0.027124887            8 
 1452000   0.68350396   -6.1626562    484.94972  0.027832284  0.027105974           11 
 1453000   0.67906857   -6.1501638    485.22339  0.027828825  0.027087093           11 
 1454000   0.66792749   -6.1356162    485.43342  0.027821723  0.027068251           19 
 1455000   0.66206408   -6.0985608    486.46009  0.027861402  0.027049514           18 
 1456000   0.66789072     -6.15376    486.06052  0.027819398  0.027030864           22 
 1457000   0.68791061   -6.1302525    486.61615  0.027832084  0.027012167            9 
 1458000   0.67663279   -6.1121307    487.85163  0.027883609  0.026993559           10 
 1459000   0.66338245   -6.1240136    487.32834  0.027834609  0.026974996            6 
 1460000   0.66390008   -6.1519501    486.44192   0.02776495   0.02695638           33 
 1461000   0.65731843    -6.140258    487.59341  0.027811625  0.026937728           12 
 1462000   0.67793162    -6.167315    486.19404  0.027712838  0.026919062           12 
 1463000   0.68027773   -6.1454431    486.23392  0.027696168  0.026900333           12 
 1464000   0.66070113     -6.14429    487.05866  0.027724195  0.026881666            6 
 1465000   0.66521712   -6.1372767    486.19058  0.027655892  0.026862997           10 
 1466000   0.66909616   -6.1430108     486.0911  0.027631372  0.026844344            7 
 1467000   0.66676598   -6.1352089    486.61397  0.027642239  0.026825755           10 
 1468000   0.68379234   -6.1294129    487.09381  0.027650648  0.026807184           28 
 1469000   0.67998874   -6.1481144    487.51969  0.027655984  0.026788669           16 
 1470000   0.66294764   -6.1520053    486.09186  0.027556228  0.026770146           14 
 1471000   0.66005815   -6.1344628    487.73397  0.027630522  0.026751591           13 
 1472000   0.65147795   -6.1454771    486.71342  0.027553976  0.026732988           10 
 1473000   0.66745631   -6.1728763    487.61711  0.027586395  0.026714382           15 
 1474000   0.65156851   -6.1527444    487.58013  0.027565589  0.026695763           17 
 1475000   0.67534236   -6.1583758    485.89485  0.027451686  0.026677201           20 
 1476000   0.66490518   -6.1331478    487.32331  0.027513737  0.026658761           14 
 1477000   0.66718768   -6.1407987    486.29107  0.027436869  0.026640191           21 
 1478000   0.65262811   -6.1327507    487.71515  0.027498599  0.026621628           10 
 1479000   0.66887219   -6.1620743    487.90979  0.027490973  0.026603113           11 
 1480000   0.65493938   -6.1775038    486.39437  0.027387071  0.026584648           13 
 1481000   0.66345019   -6.1267939     486.8808  0.027395949  0.026566121           17 
 1482000    0.6541687    -6.161658    486.95889  0.027381854  0.026547581           15 
 1483000   0.65782929   -6.1800653     485.5133  0.027282159   0.02652897           19 
 1484000   0.65700425   -6.1870698    485.89106  0.027284988  0.026510469           11 
 1485000   0.66095857   -6.1541641    487.03093   0.02733058  0.026491925           19 
 1486000   0.66121431   -6.1627086     485.7449  0.027240068  0.026473366           20 
 1487000   0.66593413   -6.1918477     486.4873  0.027263355  0.026454911           16 
 1488000   0.64916216   -6.1729837    486.43823  0.027242285  0.026436426           19 
 1489000   0.65493485   -6.1631361     487.3329   0.02727406  0.026418069           16 
 1490000   0.67134064   -6.1596112    488.15107  0.027301514  0.026399692           21 
 1491000   0.67076198   -6.1593544    487.61945   0.02725349  0.026381301           16 
 1492000   0.66452962   -6.1886401    488.00584  0.027256805  0.026362889           10 
 1493000   0.66507925   -6.1578041    486.57437   0.02715865  0.026344485           13 
 1494000    0.6684117   -6.1568729    487.27435  0.027179515  0.026326035           22 
 1495000   0.65735397   -6.1735567    487.50017  0.027173923  0.026307775           30 
 1496000   0.67274691    -6.161728    487.24151  0.027141349  0.026289493           11 
 1497000   0.65793829   -6.1697504    487.41753  0.027133018  0.026271168           32 
 1498000   0.65202443     -6.16429    488.63662  0.027182723  0.026252851           52 
 1499000    0.6524223   -6.1379083     488.2151  0.027141155  0.026234652           16 
 1500000    0.6369619   -6.1720016    488.12653  0.027118141  0.026216395           12 
 1501000   0.66951753   -6.1739547    488.47093  0.027119194  0.026198111           19 
 1502000    0.6516745   -6.1518666    489.07348  0.027134569  0.026179842           15 
 1503000   0.64072529   -6.1635135    488.76382  0.027099347  0.026161662            8 
 1504000   0.66237671   -6.1644227    488.54377  0.027069136  0.026143414           11 
 1505000   0.65695356   -6.1552561    488.48978  0.027048161  0.026125162           14 
 1506000   0.66001839   -6.1605391    488.31494  0.027020526  0.026106951           16 
 1507000   0.65342391   -6.1550463    487.00229   0.02693001  0.026088609           15 
 1508000   0.64827537   -6.1881051    486.87097  0.026904895  0.026070245           20 
 1509000   0.64779905   -6.2049071    487.34862  0.026913443  0.026051847            6 
 1510000   0.65575743   -6.1698448    487.28194  0.026891939  0.026033436           16 
 1511000   0.63870895   -6.1853357    486.96244  0.026856521  0.026015172           10 
 1512000   0.65229721      -6.1892      488.219  0.026908014   0.02599679           14 
 1513000   0.65156012   -6.1658979    487.86115  0.026870519   0.02597851           12 
 1514000   0.64429043   -6.2080102    486.81291  0.026795074  0.025960222           14 
 1515000   0.64910663    -6.203935    487.76123  0.026829551  0.025941984           19 
 1516000   0.65447077   -6.1914165    486.76278  0.026756969  0.025923673           29 
 1517000   0.65198891   -6.2158974    486.54971  0.026727626  0.025905274           14 
 1518000   0.65208576   -6.1943911    487.12009  0.026741331  0.025886928           17 
 1519000   0.64174092    -6.220527    487.19582  0.026727881  0.025868526           22 
 1520000   0.65386093    -6.185791     488.0789  0.026758712  0.025850156            9 
 1521000   0.64414304   -6.1798073    487.19325  0.026692595  0.025831964           16 
 1522000   0.65862343   -6.2083406    486.03635  0.026611714  0.025813592            8 
 1523000   0.64913904   -6.2045754     487.7774  0.026689505  0.025795256           13 
 1524000   0.64547738   -6.1934095    487.17352  0.026638972  0.025776939           22 
 1525000   0.64021433   -6.1896199    486.15507  0.026565851  0.025758644           17 
 1526000   0.65563823    -6.214344    487.30683  0.026611339  0.025740443            9 
 1527000   0.65314033   -6.1962465    487.75335  0.026618279  0.025722267           12 
 1528000   0.64039455    -6.182543    488.41492  0.026636939  0.025704138           10 
 1529000   0.65158622   -6.1945622    488.37551   0.02661737  0.025686057           14 
 1530000   0.65516404   -6.2039635    487.11225  0.026531168  0.025667908           11 
 1531000   0.64574592   -6.1875217    487.10229  0.026513297  0.025649716           18 
 1532000   0.64765457   -6.2332244    486.18932  0.026446329  0.025631423           19 
 1533000   0.63948389   -6.2069524    487.63475  0.026507651  0.025613169           11 
 1534000   0.64136505   -6.2171516    488.72498  0.026549597  0.025594964           11 
 1535000   0.63912982   -6.2219576    486.99564  0.026438417  0.025576711            7 
 1536000   0.63897084   -6.2125566    487.08552  0.026426081  0.025558502            9 
 1537000   0.64421125   -6.2184462    487.66159  0.026440121  0.025540398           11 
 1538000   0.63958771   -6.2353575    486.91067  0.026382243  0.025522248            8 
 1539000   0.63431415   -6.2419869    486.13081  0.026322873  0.025504045           11 
 1540000   0.63733023   -6.2240706    487.01596  0.026353678  0.025485925           10 
 1541000   0.64563157   -6.2211932    487.07345  0.026339685  0.025467847           12 
 1542000   0.64343921    -6.225072    487.59451  0.026350762   0.02544978           16 
 1543000   0.63320116   -6.2446009    487.83832  0.026346853  0.025431626           15 
 1544000    0.6550111   -6.2433401    488.50951  0.026366014  0.025413472           28 
 1545000   0.63213086   -6.2256848    488.94485   0.02637243  0.025395395           26 
 1546000   0.63349103   -6.2168622     487.2446  0.026263723  0.025377372           22 
 1547000   0.65484233   -6.2337117    487.37107  0.026253559  0.025359374           27 
 1548000   0.63367832   -6.1963777    487.76344  0.026257722  0.025341351           18 
 1549000   0.64149245   -6.2052185    487.75171   0.02624014  0.025323442           16 
 1550000   0.64956626   -6.2119609    487.69405   0.02622011  0.025305448            9 
 1551000   0.64174271   -6.2038163    488.73249  0.026258999  0.025287522            8 
 1552000   0.63166627   -6.2091024    487.71915  0.026187669  0.025269531           12 
 1553000   0.62207337   -6.2413743    488.44543  0.026209778  0.025251598           11 
 1554000   0.63846887   -6.2426463     488.9242  0.026218586  0.025233648            7 
 1555000   0.63269666   -6.2390507      488.603  0.026184512  0.025215737           26 
 1556000   0.63950051   -6.2463396    487.52031    0.0261097   0.02519778           22 
 1557000   0.62611415   -6.2580171    487.16051  0.026073673   0.02517978           35 
 1558000   0.62746899   -6.2175829    488.11394  0.026107934  0.025161812           18 
 1559000    0.6242423   -6.2396239    487.86256  0.026077751   0.02514386           66 
 1560000   0.63090967   -6.2570125    488.35511  0.026087345  0.025125979           74 
 1561000   0.64327431   -6.2530421    488.21816  0.026063323  0.025108082          106 
 1562000   0.64054786   -6.2317692    489.30221  0.026104471  0.025090183          103 
 1563000   0.63545872   -6.2367744    488.70063  0.026055696  0.025072322          112 
 1564000   0.62908395   -6.2486022    487.59173  0.025979951  0.025054452           56 
 1565000   0.62374609   -6.2330692    487.67667  0.025967874  0.025036593           45 
 1566000   0.62472713   -6.2124459    488.22724   0.02598059  0.025018745           65 
 1567000   0.62868631   -6.2340705    488.43423  0.025975018  0.025000983           45 
 1568000   0.62579028   -6.2406322    488.61301  0.025967953  0.024983213           73 
 1569000    0.6226925   -6.2729194    489.52591  0.025999889  0.024965436           30 
 1570000   0.62902623   -6.2310783    487.61207  0.025881745  0.024947625           30 
 1571000    0.6371689   -6.2259829    488.81528  0.025929094   0.02492988           21 
 1572000   0.63072486   -6.2222869    487.97333  0.025867967  0.024912091           24 
 1573000   0.62816982   -6.2429097    488.14333  0.025860528  0.024894342           23 
 1574000   0.62491439    -6.228284    489.61926   0.02592224  0.024876569           27 
 1575000   0.63327577   -6.2497132    488.91783  0.025868668  0.024858829           10 
 1576000   0.63740817   -6.2195324    489.18396  0.025866326  0.024841134           18 
 1577000   0.61801322   -6.2410159    489.70231  0.025877315  0.024823479           36 
 1578000   0.60991098   -6.2523064    487.59581  0.025749673  0.024805808           18 
 1579000    0.6275579   -6.2487671    489.22348  0.025819267  0.024788157           15 
 1580000   0.62178162   -6.2536495    488.41348  0.025760205  0.024770492           13 
 1581000    0.6276631   -6.2171398    489.64435  0.025808789   0.02475282           12 
 1582000   0.61524591   -6.2529817     488.2995  0.025721634  0.024735124           44 
 1583000   0.62145699   -6.2541229    489.35571  0.025760987  0.024717366           27 
 1584000    0.6308742   -6.2602244    489.55199   0.02575505  0.024699678           35 
 1585000   0.61506207   -6.2798997    487.21226  0.025615787  0.024681911           24 
 1586000   0.62664368   -6.2591994     487.9759  0.025639759  0.024664165           49 
 1587000   0.61458112   -6.2840788    487.43043   0.02559496  0.024646337           59 
 1588000   0.62124201   -6.2669978    489.10894  0.025666926   0.02462858           23 
 1589000    0.6164709   -6.2781588    487.72787  0.025578345  0.024610827           28 
 1590000    0.6273326   -6.2761053    488.38354  0.025596622  0.024593069           30 
 1591000   0.61695909   -6.2590954    488.51114  0.025587217  0.024575377           53 
 1592000    0.6191749   -6.2597067    487.82447    0.0255352  0.024557721           19 
 1593000    0.6086923   -6.2852608    487.20595  0.025486815  0.024540004           23 
 1594000   0.62666811   -6.2879295    487.25426  0.025473351  0.024522227           23 
 1595000   0.62572878    -6.266833    488.50478  0.025522716  0.024504493           28 
 1596000   0.61224732   -6.2701579    487.27598  0.025442564  0.024486865           26 
 1597000   0.60244333   -6.2641486    487.23336  0.025424408  0.024469207           18 
 1598000   0.61050562   -6.2734319    487.58171  0.025426664  0.024451552           37 
 1599000   0.60792274   -6.2845841    488.07939  0.025436699  0.024433864           27 
 1600000    0.6113107   -6.2754783    486.95522  0.025362251  0.024416237           37 
 1601000   0.61838703   -6.2894299    488.83577  0.025444294  0.024398553           11 
 1602000   0.61158234   -6.2677063    488.27005  0.025398983  0.024380961           23 
 1603000   0.62422087   -6.2857764    487.18072  0.025326508  0.024363325           27 
 1604000   0.61263146   -6.2951972    487.15004  0.025309125  0.024345642           29 
 1605000   0.63224448    -6.300377    488.23006  0.025349432  0.024327924           11 
 1606000   0.61616037   -6.3019983    486.68935  0.025253702  0.024310183           16 
 1607000   0.60943415   -6.2839667    486.73096  0.025240145  0.024292405           16 
 1608000   0.59833522   -6.3115256    486.80586   0.02522833  0.024274645           66 
 1609000   0.60418373   -6.3003943    487.64034   0.02525587  0.024256908           29 
 1610000   0.61011589   -6.2877533     488.5084  0.025285114  0.024239232           22 
 1611000   0.61752684    -6.309512    486.89345  0.025185881  0.024221573           50 
 1612000    0.6165853   -6.2906801    487.11807  0.025181869  0.024203935           22 
 1613000   0.60597993   -6.2882575    486.94281  0.025157202  0.024186241           61 
 1614000   0.62191202    -6.280729    487.78135  0.025184911  0.024168551           47 
 1615000    0.6066479   -6.2804388    487.12891  0.025135651  0.024150928           22 
 1616000   0.61111459   -6.2890645    487.20976  0.025124266  0.024133268           31 
 1617000   0.61775883   -6.2981498    486.83378  0.025089352  0.024115622           19 
 1618000   0.62083704   -6.2727317    488.46112   0.02515766  0.024098007           14 
 1619000   0.62366132   -6.2910069    487.81725  0.025108979  0.024080455           56 
 1620000   0.60118495   -6.2776609    487.40771  0.025072413    0.0240629           52 
 1621000   0.60621724   -6.3018077     487.2102  0.025046792  0.024045364           54 
 1622000   0.60926348   -6.2931522    486.11841  0.024975257    0.0240278           52 
 1623000   0.60172993   -6.2827512    487.46959  0.025029246  0.024010282           52 
 1624000   0.60255442   -6.2874956    487.92065  0.025036979  0.023992698           22 
 1625000   0.60557058   -6.2982193    487.38855  0.024994285  0.023975124           16 
 1626000   0.61026932   -6.3014996    486.42676  0.024929621  0.023957556           16 
 1627000   0.60501306   -6.2958738    486.72696  0.024929674   0.02394005           32 
 1628000    0.6046742   -6.2984773    487.64664  0.024961437  0.023922529           22 
 1629000   0.60465429    -6.305112    487.80337  0.024954132   0.02390498           22 
 1630000   0.60199755   -6.2932258    486.18633  0.024856152  0.023887357           35 
 1631000    0.6189902   -6.3116126    486.40738  0.024852206  0.023869745           60 
 1632000   0.58705888   -6.3073078    487.75726  0.024905906  0.023852155           21 
 1633000   0.60230776   -6.2890109    486.11728  0.024806965  0.023834591           25 
 1634000     0.601027    -6.299053    485.40622  0.024755519  0.023817059           16 
 1635000    0.6011595   -6.2951812    486.65604   0.02480408  0.023799561           20 
 1636000   0.60470046   -6.2658127    486.79571  0.024796032  0.023782042            8 
 1637000   0.59907793   -6.3166791    487.31829  0.024807488  0.023764588           14 
 1638000   0.60016374    -6.299093    487.06189  0.024779298  0.023747114           12 
 1639000   0.59646751   -6.2851121    488.05152  0.024814496  0.023729645           20 
 1640000   0.60204773    -6.312376    487.13599  0.024752845  0.023712178           17 
 1641000   0.59578999   -6.3094389    487.18312  0.024740154  0.023694755           20 
 1642000   0.61002894   -6.3220944    487.40904  0.024736553  0.023677317           16 
 1643000   0.59096615   -6.3422392    486.85495  0.024693394  0.023659893           12 
 1644000   0.61488248    -6.312127    487.93382  0.024733061  0.023642471           32 
 1645000   0.58957472   -6.3093336    488.62729  0.024753155  0.023625128           14 
 1646000   0.60470378   -6.3299507    487.49765  0.024680926  0.023607851           22 
 1647000   0.60656594   -6.2948091    488.34157   0.02470864  0.023590506           34 
 1648000   0.58616513   -6.3334922    486.72652   0.02461198  0.023573153           33 
 1649000    0.6008335   -6.3326528    486.50518  0.024585869  0.023555844           21 
 1650000   0.59557416   -6.3182678    487.48581  0.024620495  0.023538555           20 
 1651000   0.59335666   -6.3257367    487.79297  0.024621087   0.02352127           22 
 1652000   0.58830989   -6.3245801    488.07168  0.024620242  0.023504009           14 
 1653000   0.58474543   -6.3198346    488.11682  0.024607623  0.023486818           15 
 1654000   0.58717296   -6.3387191    486.60412  0.024516532  0.023469614           13 
 1655000   0.59152529   -6.3282165    487.32357  0.024537944  0.023452393           20 
 1656000   0.59696109   -6.3166692    487.54667  0.024534353  0.023435145           11 
 1657000   0.58653024   -6.3374635    488.26026  0.024555434  0.023417946           22 
 1658000   0.59862816   -6.3081666    487.93163  0.024524107  0.023400792           39 
 1659000   0.58622638   -6.3266682    486.87767  0.024456383  0.023383615           16 
 1660000   0.59481838   -6.3339594    486.81748  0.024438629  0.023366404           29 
 1661000   0.59351105    -6.341974    487.94502  0.024480485  0.023349217           20 
 1662000   0.60112533   -6.3490592    487.21654  0.024429229   0.02333206           27 
 1663000   0.58816854   -6.3328697    487.22377  0.024414901  0.023314813           18 
 1664000   0.57880097   -6.3407108    487.41379  0.024409745  0.023297574           13 
 1665000   0.58224853   -6.3574858    487.07826  0.024378291  0.023280413           40 
 1666000   0.58334238   -6.3425285    486.46017  0.024332742  0.023263188           41 
 1667000   0.58859448   -6.3338799    487.08712  0.024349486  0.023246032           17 
 1668000   0.58809325   -6.3304712    487.93272  0.024377134  0.023228966           31 
 1669000    0.5933868    -6.333077    487.80501  0.024356152  0.023211902           33 
 1670000    0.5917213   -6.3442229    487.40118  0.024321416  0.023194873           23 
 1671000   0.58255354   -6.3383032    486.84874  0.024279311  0.023177824           27 
 1672000   0.58217696   -6.3530535    486.99441   0.02427205  0.023160734           10 
 1673000   0.58927599   -6.3398658    487.11171  0.024263385  0.023143674           22 
 1674000    0.5912095   -6.3366003    487.00738  0.024243697  0.023126579           20 
 1675000   0.57174854    -6.349041    486.80426  0.024219117  0.023109523           30 
 1676000   0.58769193   -6.3577159    487.44347  0.024236449  0.023092458           21 
 1677000   0.57701847   -6.3299885    488.57136  0.024278044  0.023075424           28 
 1678000   0.59394306   -6.3555322    485.66616  0.024119297  0.023058368           20 
 1679000   0.57089767   -6.3649568    485.75656  0.024109418  0.023041312           32 
 1680000   0.59306745   -6.3677008    485.96848  0.024105579  0.023024274           46 
 1681000   0.56696953   -6.3587385    485.55661  0.024070821  0.023007183           58 
 1682000   0.58995958   -6.3762158    485.72271   0.02406474  0.022990079           51 
 1683000   0.57334577   -6.3843554    485.71075  0.024049849  0.022972961           45 
 1684000    0.5785789   -6.4103135    486.51985  0.024075606  0.022955792           66 
 1685000   0.58281899    -6.402188    485.42973  0.024007405  0.022938699           44 
 1686000   0.58491809   -6.3635353     487.3619  0.024088666  0.022921623           54 
 1687000   0.57211067   -6.3918722    486.31209  0.024022529    0.0229046           40 
 1688000     0.572373   -6.3820355    485.18392  0.023952603  0.022887602          116 
 1689000   0.57476399   -6.3773027    486.46504   0.02400163  0.022870539           84 
 1690000   0.58254283   -6.3602567    486.35194  0.023981851  0.022853579           64 
 1691000   0.57981736   -6.3761108    485.54604  0.023927954  0.022836607           48 
 1692000    0.5797965   -6.3727636    486.69152  0.023970229  0.022819612           65 
 1693000   0.57358355   -6.3730276    486.32796  0.023938175  0.022802708           81 
 1694000   0.58878774   -6.3774304    485.67878  0.023892108  0.022785804           34 
 1695000   0.57898037   -6.3784873    487.28598   0.02395703  0.022768908           42 
 1696000   0.58237728    -6.390369    486.81956  0.023919986  0.022751988           45 
 1697000   0.56493095   -6.3904045    486.19852  0.023875394  0.022735046           54 
 1698000   0.57732973   -6.3876084    486.33854  0.023868205  0.022718088           98 
 1699000   0.58206136   -6.3881543    486.08212  0.023841579  0.022701121           55 
 1700000   0.55888421   -6.3826215    486.43544  0.023844874  0.022684256           65 
 1701000   0.57806891   -6.4134712    486.11162  0.023814992  0.022667358           56 
 1702000   0.56747903   -6.3865884    486.28221  0.023809352  0.022650493           49 
 1703000   0.57376536    -6.382055    486.44096   0.02380314  0.022633674           50 
 1704000   0.57089727   -6.3773862    486.26628  0.023780628  0.022616937           45 
 1705000   0.56869651   -6.3791098    486.99419  0.023802258  0.022600186           34 
 1706000    0.5745485   -6.4119306    486.07647  0.023743477   0.02258342           77 
 1707000   0.57229371   -6.3725033    487.16463   0.02378269  0.022566681           39 
 1708000   0.57948961   -6.3949798    486.36637  0.023729819  0.022549949           50 
 1709000   0.56622939    -6.378378    486.70565  0.023732478   0.02253326           44 
 1710000   0.56755215   -6.3933868    486.12336  0.023690222  0.022516477           22 
 1711000   0.56483384   -6.4054613    485.72866  0.023657153  0.022499724           38 
 1712000   0.56891576   -6.4198696    485.88567  0.023650977  0.022482955           35 
 1713000   0.57065264   -6.3928201    485.97918  0.023641719  0.022466234           62 
 1714000   0.57834713   -6.3888484     486.3997  0.023648371   0.02244951           46 
 1715000    0.5769656   -6.3872139    486.43521  0.023636308   0.02243282           33 
 1716000   0.56851671   -6.4003859    486.85129  0.023642739   0.02241615          133 
 1717000   0.57199974    -6.385561    487.69687  0.023670009  0.022399466           25 
 1718000   0.56661811   -6.3914684    487.17934  0.023631128  0.022382867           61 
 1719000   0.57366684    -6.362907    487.42222  0.023629155  0.022366319           31 
 1720000   0.56736506     -6.38927    487.19735  0.023604523  0.022349815           74 
 1721000   0.56697995   -6.3975311    487.52668  0.023606754  0.022333275           64 
 1722000   0.57490407   -6.4179412    486.73021  0.023554501  0.022316781           25 
 1723000   0.55101963   -6.3911599    485.90699  0.023501015  0.022300256          105 
 1724000   0.56728056   -6.3945207    486.30168  0.023506462  0.022283752           56 
 1725000   0.58083287   -6.4029036    486.53286  0.023504003  0.022267277           43 
 1726000   0.55079795   -6.4018681    486.43954   0.02348588  0.022250752           58 
 1727000   0.57288143   -6.4185382    486.70669  0.023485171  0.022234297           39 
 1728000    0.5696598   -6.3937763    487.23062  0.023496847   0.02221786           37 
 1729000   0.56730938   -6.4214142     485.8102  0.023414796   0.02220144           45 
 1730000   0.55780451   -6.4142664    487.24666  0.023470456  0.022185029           38 
 1731000   0.56045632   -6.4012755    486.18063  0.023405576  0.022168646           46 
 1732000   0.56319434   -6.4192964    487.21073  0.023441625   0.02215226           54 
 1733000   0.56532492   -6.4201629    486.72452  0.023404718  0.022135909           43 
 1734000   0.54555395   -6.4139334    486.09225  0.023360835  0.022119559           59 
 1735000   0.56752645   -6.4258847    486.78394  0.023380593  0.022103193           34 
 1736000     0.552211   -6.4252738    486.42109  0.023349707  0.022086863           35 
 1737000   0.56256355   -6.4075609    487.73066  0.023399092  0.022070504           50 
 1738000   0.56107184   -6.4245055    486.10026  0.023307454  0.022054147           43 
 1739000    0.5603569   -6.4061646    487.38933  0.023355824  0.022037771           65 
 1740000   0.54396223   -6.4208502      486.094  0.023280364  0.022021398           34 
 1741000   0.56341901   -6.4145496     487.8871  0.023352819  0.022005045           85 
 1742000   0.56046879   -6.3922804    487.12258   0.02330284  0.021988728           58 
 1743000   0.56171488   -6.4194781     486.1695  0.023243904  0.021972388           35 
 1744000   0.54580434   -6.4328786    486.46672  0.023244778   0.02195611           66 
 1745000   0.55098526   -6.4189894    486.38372  0.023227494  0.021939839           58 
 1746000   0.56340326   -6.4307461    486.56812  0.023222991  0.021923577           40 
 1747000   0.55820458   -6.4266534    485.41904  0.023154887  0.021907302           63 
 1748000   0.55347153    -6.419748    486.65155  0.023200398  0.021891009           53 
 1749000   0.56049842   -6.4174827    486.42932  0.023176545   0.02187475          151 
 1750000   0.55206441   -6.4242067    486.08681  0.023146991  0.021858477          153 
 1751000   0.56028537   -6.4370673    485.91514  0.023125602  0.021842213           96 
 1752000   0.54978871   -6.4321321    486.15072  0.023123607  0.021825934           65 
 1753000   0.55819693   -6.4177339    486.58177  0.023130907  0.021809695          111 
 1754000   0.55030055   -6.4263598    486.55701  0.023116544  0.021793474          152 
 1755000   0.55674395   -6.4534995    485.84812  0.023069711  0.021777235          245 
 1756000   0.54784729    -6.437417    487.12987  0.023117401  0.021761066          268 
 1757000   0.55495575     -6.43467    486.20908  0.023060571  0.021744857          248 
 1758000   0.55196581   -6.4370024    486.35389  0.023054318  0.021728688          187 
 1759000   0.54421423   -6.4292656    485.65935  0.023008307  0.021712523          242 
 1760000    0.5457416   -6.4353341    486.05792  0.023014106  0.021696354          291 
 1761000   0.55211847   -6.4298808     486.0382  0.023000104  0.021680195          207 
 1762000   0.54899623   -6.4520119    486.77067  0.023021693  0.021664087          164 
 1763000   0.54819081   -6.4278775    486.92716  0.023016031  0.021647998          223 
 1764000   0.54236821   -6.4376542    485.97851  0.022958168  0.021631905          194 
 1765000   0.56364772   -6.4380454    485.50025   0.02292258   0.02161582          150 
 1766000   0.55480115   -6.4426117    486.41481  0.022952756  0.021599723          162 
 1767000   0.55409645   -6.4451048    485.63428  0.022902956  0.021583691          212 
 1768000   0.55587112   -6.4476938    485.57495  0.022887206  0.021567611          225 
 1769000   0.55154166   -6.4247774    486.66247  0.022925498  0.021551546          215 
 1770000   0.55994949   -6.4501387    484.98785  0.022833703  0.021535484          305 
 1771000    0.5480354   -6.4607423    485.63409  0.022851218  0.021519417          330 
 1772000   0.55115589   -6.4490253    487.08818  0.022906705  0.021503368          247 
 1773000   0.54293817   -6.4597518    485.62095  0.022824824  0.021487316          156 
 1774000   0.55171915   -6.4705307    486.13773  0.022836233  0.021471249          267 
 1775000   0.55396433   -6.4561293    485.62832  0.022799451  0.021455203          153 
 1776000   0.54171415   -6.4401421    485.27782  0.022770168  0.021439178          278 
 1777000   0.55149008   -6.4683263    485.94026   0.02278842  0.021423165          223 
 1778000   0.53473005   -6.4368299    486.30477  0.022792687  0.021407163          281 
 1779000   0.53394373   -6.4638411    485.89739  0.022760792  0.021391216          262 
 1780000   0.54485259   -6.4695928     484.4603  0.022680725  0.021375213          286 
 1781000    0.5489905   -6.4467176    484.79836  0.022683809  0.021359182          228 
 1782000   0.54177979   -6.4891698    484.98289  0.022679708  0.021343167          330 
 1783000    0.5332025   -6.4662369      486.453  0.022735698   0.02132718          357 
 1784000   0.53240538   -6.4677453    485.28039   0.02266818  0.021311234          250 
 1785000   0.54319728    -6.470626    485.23842  0.022653521  0.021295305          395 
 1786000   0.52486772   -6.4594906    486.51053  0.022700193  0.021279394          350 
 1787000   0.53961047   -6.4751649    486.62949  0.022693037  0.021263465          388 
 1788000   0.53263153    -6.462732    485.22645  0.022614954  0.021247602          243 
 1789000   0.54261953   -6.4556415     486.2381  0.022649436  0.021231756          200 
 1790000   0.54389391   -6.4497428    485.08254  0.022582986  0.021215954          295 
 1791000   0.53715108   -6.4797005    485.19489  0.022575604   0.02120012          423 
 1792000   0.53585308   -6.4590145    485.65657  0.022584476  0.021184299          474 
 1793000   0.54536013   -6.4724532    486.39022  0.022605978  0.021168498          399 
 1794000   0.53269449   -6.4689309    484.72332  0.022515947  0.021152691          345 
 1795000   0.53622361   -6.4738756    486.40355  0.022581409   0.02113692          332 
 1796000   0.53652679   -6.4962009    485.53161  0.022528378  0.021121183          309 
 1797000   0.53557272   -6.4713948    485.47573   0.02251325  0.021105422          279 
 1798000   0.53546321   -6.4759648    486.00612  0.022525311  0.021089653          192 
 1799000   0.53579221   -6.4717338    484.52027  0.022443963   0.02107388          376 
 1800000   0.54479561   -6.4873295    484.92376  0.022450174  0.021058105          367 
 1801000   0.53611863   -6.4802195     485.4942  0.022464103  0.021042364          332 
 1802000   0.53011167   -6.4895825    486.27054  0.022487539  0.021026664          442 
 1803000   0.53087402   -6.4730375    484.94748  0.022413916  0.021010931          379 
 1804000   0.52623528   -6.4869363    485.58842  0.022431098  0.020995214          418 
 1805000   0.52511612   -6.4959653    485.37488  0.022408812  0.020979483          427 
 1806000   0.53301495   -6.4859052    486.34226  0.022441042  0.020963772          430 
 1807000   0.53815658   -6.4848774    485.55852  0.022392479  0.020948106          200 
 1808000   0.52288894   -6.5025677    484.17591  0.022316368  0.020932428          462 
 1809000   0.52125775   -6.5000304    484.69158  0.022327786   0.02091674          417 
 1810000   0.52494647   -6.4944032    484.68177  0.022314999  0.020901087          377 
 1811000   0.53689774   -6.5018953    485.05192  0.022319709  0.020885449          381 
 1812000   0.53150245    -6.490883    485.60559  0.022332855  0.020869814          214 
 1813000   0.52533109   -6.5127647    484.66683  0.022277387  0.020854167          334 
 1814000   0.53244402   -6.4984408    484.58487  0.022261341  0.020838508          271 
 1815000   0.54014037   -6.5048161    484.73004  0.022255741  0.020822841          288 
 1816000   0.52612987    -6.500288    484.70305  0.022242247  0.020807177          300 
 1817000   0.52641272   -6.5101268    484.35085  0.022213853  0.020791535          383 
 1818000   0.52191768   -6.5140806    485.50746  0.022254651   0.02077589          324 
 1819000   0.52942628   -6.5176087    484.94656   0.02221672    0.0207603          426 
 1820000   0.53556608   -6.5018773    484.81076  0.022198295  0.020744715          495 
 1821000   0.52451041   -6.5066665      483.972  0.022147721  0.020729132          381 
 1822000   0.51913388   -6.5144919    484.86274  0.022176305  0.020713563          380 
 1823000   0.53490973   -6.5258823    484.94933  0.022168099   0.02069801          367 
 1824000   0.52585636   -6.5181649    484.79307  0.022148806  0.020682484          372 
 1825000   0.52696241   -6.5125479    484.55894  0.022125979  0.020666965          471 
 1826000   0.52590235   -6.5006614    485.09124  0.022138154   0.02065144          305 
 1827000   0.52362428   -6.5050521    484.32071  0.022090892  0.020635948          282 
 1828000   0.51805403    -6.525077    485.01071  0.022110262  0.020620468          468 
 1829000   0.53058631   -6.5245044    484.66942  0.022082624  0.020604978          438 
 1830000   0.52388875   -6.5184653     484.8676  0.022079581  0.020589502          340 
 1831000   0.51845452   -6.5221873    484.33815  0.022043426  0.020574037          463 
 1832000   0.51241795   -6.5072647    484.42266  0.022035237  0.020558575          351 
 1833000   0.53007194   -6.5434408    484.29294  0.022017319  0.020543143          422 
 1834000   0.51533345    -6.521263    485.01236  0.022038003  0.020527677          508 
 1835000   0.51786557    -6.522833    485.20118  0.022034568  0.020512273          365 
 1836000   0.50993163   -6.5185897    484.63538  0.021996886  0.020496869          390 
 1837000   0.52380859    -6.521362    484.65338  0.021985727  0.020481445          363 
 1838000   0.52191272   -6.5201639    483.98453  0.021943441  0.020466031          408 
 1839000   0.53083961   -6.5202323     484.1618  0.021939541  0.020450592          464 
 1840000   0.51764359   -6.5381102    484.07785  0.021923816  0.020435182          316 
 1841000    0.5080952    -6.524538    483.78259  0.021898542  0.020419814          375 
 1842000   0.53012792   -6.5298998     483.7419  0.021884813  0.020404423          381 
 1843000   0.51710232   -6.5406532    484.36369  0.021901053  0.020389014          556 
 1844000   0.51072943   -6.5406387    483.47099  0.021848834  0.020373628          411 
 1845000   0.53355946   -6.5216156    483.86028  0.021854575  0.020358242          525 
 1846000   0.51934469   -6.5333526    484.18147  0.021857235  0.020342883          426 
 1847000   0.51665288   -6.5397348    484.08153  0.021840892   0.02032752          493 
 1848000   0.52832087   -6.5393911    484.10101  0.021829952  0.020312181          365 
 1849000   0.51014522   -6.5261146    483.76177  0.021802856  0.020296876          430 
 1850000   0.51614394    -6.538592    484.00883    0.0218022  0.020281587          420 
 1851000   0.51339847   -6.5346238    483.87437  0.021784367  0.020266326          468 
 1852000   0.51753086   -6.5461614    484.66132  0.021808015  0.020251076          422 
 1853000   0.52334236   -6.5418563     484.9259  0.021808144  0.020235836          428 
 1854000   0.51969528   -6.5366129    484.72453  0.021787331  0.020220625          424 
 1855000   0.51494473   -6.5222324    485.12119  0.021793405  0.020205409          457 
 1856000   0.51060352   -6.5355392    483.91219  0.021727379  0.020190198          524 
 1857000   0.50517158    -6.540306     483.2953  0.021687996  0.020175015          512 
 1858000   0.51031944   -6.5317714    484.29911  0.021721345  0.020159856          436 
 1859000   0.51076937   -6.5445619    484.68715  0.021727055  0.020144717          579 
 1860000   0.50736959    -6.548042    483.76856  0.021674219  0.020129545          626 
 1861000   0.50587329   -6.5448537     484.5575    0.0216979  0.020114374          552 
 1862000   0.51656092   -6.5249771    484.76404   0.02169549  0.020099268          489 
 1863000   0.51707176   -6.5505026    483.20875  0.021614276  0.020084137          584 
 1864000   0.49975493   -6.5360387    483.57814  0.021619194  0.020069034          499 
 1865000   0.50649986   -6.5474216    484.07949  0.021630004   0.02005394          493 
 1866000    0.5134259   -6.5422872    483.54755  0.021594657  0.020038844          487 
 1867000   0.49590919   -6.5515621    484.51937  0.021626467  0.020023798          462 
 1868000   0.51216595   -6.5462421    483.50877  0.021569806  0.020008729          548 
 1869000   0.51135926   -6.5499945    483.25086  0.021546766  0.019993666          589 
 1870000   0.50607722   -6.5573242    484.68848  0.021599308  0.019978614          608 
 1871000   0.49918832   -6.5472028    483.34656  0.021527996   0.01996358          557 
 1872000   0.51387028   -6.5538507    483.83399  0.021538194  0.019948566          563 
 1873000    0.5000521     -6.55811    484.33035  0.021548779  0.019933551          498 
 1874000   0.49829303   -6.5461915    483.88005  0.021517256  0.019918553          606 
 1875000   0.49398437   -6.5523879    483.46959  0.021487537  0.019903531          664 
 1876000   0.50346465   -6.5469896     483.9509  0.021497464   0.01988857          682 
 1877000   0.49293099   -6.5636661    483.48605  0.021465373  0.019873579          606 
 1878000   0.50950423   -6.5491858    484.40451  0.021494698  0.019858615          630 
 1879000   0.50633868   -6.5587928    483.18964  0.021429379  0.019843649          552 
 1880000   0.50105827   -6.5446468    483.84878  0.021447198  0.019828679          617 
 1881000   0.50642595   -6.5575586     483.7643  0.021432053  0.019813769          613 
 1882000   0.50814352   -6.5671307      482.954  0.021384786  0.019798851          649 
 1883000    0.5050768    -6.549463    483.22656  0.021385491  0.019783914          583 
 1884000    0.5011023   -6.5636139    483.35608  0.021379869  0.019769008          539 
 1885000   0.49419179   -6.5718714    483.12354  0.021358247  0.019754097          540 
 1886000   0.50250426   -6.5650536    483.22562  0.021351433  0.019739226          635 
 1887000   0.49791634   -6.5541099    483.27675  0.021342375  0.019724362          584 
 1888000   0.51362983   -6.5762078    483.16882  0.021326307   0.01970951          528 
 1889000   0.49832219   -6.5646289    482.77776  0.021297766   0.01969465          575 
 1890000   0.49020453    -6.587781     482.9688  0.021294921  0.019679779          593 
 1891000   0.50667962   -6.5800089    483.20376  0.021294014  0.019664925          728 
 1892000   0.49816786    -6.566722    482.56969  0.021254831  0.019650072          675 
 1893000   0.49976929   -6.5901019    483.26621  0.021274265   0.01963525          622 
 1894000   0.49720201   -6.5782244    483.21274   0.02126068  0.019620434          712 
 1895000   0.49625846   -6.5959282    483.23954  0.021250639  0.019605673          746 
 1896000   0.49268391   -6.5735464    482.23301  0.021195192  0.019590869          690 
 1897000   0.49894906   -6.5738463    482.59808  0.021200056  0.019576118          641 
 1898000   0.49154052   -6.6001615    483.14302  0.021212813  0.019561356          715 
 1899000   0.49098313   -6.5730618     482.3666  0.021167571  0.019546612          654 
 1900000   0.50156986   -6.5874055    482.94384  0.021181748  0.019531859          734 
 1901000   0.48780788   -6.5926869     482.9261  0.021169827  0.019517136          687 
 1902000   0.49946303   -6.5912988    483.82858  0.021198238  0.019502426          675 
 1903000   0.48397542    -6.584584    483.00102  0.021150859  0.019487703          619 
 1904000   0.49180485   -6.5775737    483.13465  0.021145599  0.019472983          622 
 1905000   0.48611949   -6.5778759    483.07903  0.021132066  0.019458299          610 
 1906000   0.47579527   -6.5774365    482.71842  0.021105213  0.019443633          595 
 1907000   0.50302974   -6.5862371    482.46303  0.021082985  0.019428948          663 
 1908000   0.49040455   -6.5922815    482.58335   0.02107719  0.019414272          643 
 1909000   0.48659407   -6.5824782    482.69567  0.021071052  0.019399598          697 
 1910000   0.49305087   -6.5868251    481.63983  0.021013954  0.019384955          648 
 1911000   0.48459807   -6.5859491    481.98848  0.021018162  0.019370322          644 
 1912000   0.48912892   -6.5928623     482.5732  0.021032653  0.019355696          556 
 1913000   0.48608764   -6.6032235     482.2395  0.021007122  0.019341061          571 
 1914000   0.48536542   -6.5996104    482.35435  0.021001147  0.019326451          418 
 1915000   0.48266137   -6.5940529    482.50928  0.020996923  0.019311851          599 
 1916000   0.48703903   -6.6030059    482.09778  0.020968066  0.019297242          535 
 1917000    0.4784974   -6.5884336    482.34305   0.02096779  0.019282687          547 
 1918000   0.48913726   -6.5882253     482.0194  0.020942796  0.019268127          641 
 1919000   0.48993977   -6.5901168    482.78525   0.02096514  0.019253573          541 
 1920000   0.49001159   -6.6095782    482.36751   0.02093609  0.019239024          608 
 1921000   0.48980909   -6.5877514     482.4723  0.020929737  0.019224506          685 
 1922000    0.4924034   -6.6152718    481.11204   0.02085987  0.019209967          541 
 1923000   0.48777726   -6.6012282    481.98588   0.02088689  0.019195442          548 
 1924000   0.48543298   -6.5978039    481.44988  0.020852819  0.019180938          697 
 1925000   0.48177576   -6.5961795    481.86666  0.020860029  0.019166442          557 
 1926000   0.48733087   -6.6071583     481.9461  0.020852635  0.019151961          680 
 1927000   0.48415969   -6.6152247    481.49652  0.020822372  0.019137489          762 
 1928000    0.4732877   -6.6185924    482.43708  0.020852225   0.01912301          703 
 1929000   0.47066793   -6.6192018    482.44666  0.020841829  0.019108515          749 
 1930000   0.47805365   -6.6118214    481.61419  0.020795086  0.019094073          662 
 1931000   0.47583798   -6.6155762    481.58112   0.02078289  0.019079656          674 
 1932000   0.47893326    -6.606847    482.71159  0.020820893  0.019065243          781 
 1933000    0.4744705   -6.6096124    482.74451  0.020811541   0.01905084          749 
 1934000   0.48538647   -6.6234766    483.16233  0.020818784  0.019036426          732 
 1935000   0.47522572   -6.6170001    481.50586  0.020736686  0.019022026          730 
 1936000   0.47226991   -6.5947449    481.50913  0.020726116   0.01900765          711 
 1937000   0.48026867   -6.6088187    482.36298   0.02075215  0.018993291          727 
 1938000   0.47620233   -6.6273615    481.88171  0.020720748  0.018978927          759 
 1939000   0.48317237   -6.6205333    481.70483   0.02070246  0.018964588          751 
 1940000   0.47497236   -6.5962547    481.85669  0.020698311  0.018950256          745 
 1941000    0.4804058   -6.6253593    482.24594  0.020704359  0.018935942          771 
 1942000   0.47512163    -6.621081     481.7552   0.02067264  0.018921617          701 
 1943000   0.46817034   -6.6201564    481.54613  0.020653033    0.0189073          667 
 1944000   0.48871986   -6.6127279    481.30154  0.020631925  0.018892999          791 
 1945000   0.47493113   -6.6071555    481.08261  0.020611937  0.018878721          799 
 1946000   0.47256983   -6.6140957    481.53412   0.02062068  0.018864443          815 
 1947000   0.47151035   -6.6184092    481.46667  0.020607202  0.018850172          840 
 1948000   0.47831437   -6.6260164    481.45647  0.020596187  0.018835925          818 
 1949000   0.46667107   -6.6364303    480.81147  0.020558041  0.018821685          799 
 1950000   0.46712079   -6.6305547    481.39638  0.020572495  0.018807444          637 
 1951000    0.4710363   -6.6282788    480.69033  0.020531793  0.018793204          855 
 1952000   0.47693773   -6.6444841    481.58203  0.020559342  0.018778969          881 
 1953000   0.48215755   -6.6218613    481.18624  0.020531927  0.018764765          748 
 1954000   0.47065242   -6.6304855    481.31375  0.020526857  0.018750576          817 
 1955000   0.47198924   -6.6249107      481.343  0.020517604  0.018736384          732 
 1956000   0.47387522   -6.6537034    481.52247  0.020514761  0.018722226          797 
 1957000   0.46980332   -6.6300255    481.01441  0.020482644  0.018708078          824 
 1958000    0.4893674   -6.6223325    481.46621  0.020491412  0.018693936          747 
 1959000   0.46517375   -6.6424648    481.87204  0.020498215  0.018679826          763 
 1960000   0.46676582   -6.6353246    481.02396  0.020451699  0.018665715          822 
 1961000   0.46380343   -6.6351672    480.52567  0.020420095  0.018651594          812 
 1962000   0.45418974     -6.65363    480.90471  0.020425786  0.018637484          820 
 1963000   0.47022876    -6.645956    482.64164  0.020489117  0.018623387          786 
 1964000   0.46865509   -6.6445593    480.55887  0.020390312  0.018609293          792 
 1965000   0.47181993   -6.6330991    481.20821  0.020407473  0.018595213          818 
 1966000   0.45994905   -6.6482318    480.76192  0.020378176  0.018581142          829 
 1967000   0.47155794   -6.6374346    480.50559  0.020356956  0.018567089          863 
 1968000   0.47172903   -6.6364731    481.61043  0.020393396  0.018553065          831 
 1969000   0.46920642    -6.649466     481.3389  0.020371546  0.018539033          826 
 1970000   0.46771954   -6.6383744    481.42648   0.02036491  0.018524993          792 
 1971000   0.45664809   -6.6387592    481.45502  0.020355785  0.018510999          807 
 1972000   0.45627312   -6.6539869     481.0193  0.020327049  0.018496997          837 
 1973000    0.4625167   -6.6462219    481.50466  0.020337247  0.018483018          776 
 1974000   0.44964266   -6.6289238    481.26716  0.020316918  0.018469076          826 
 1975000   0.46158292   -6.6461798    480.54289  0.020276071  0.018455126          879 
 1976000    0.4700475   -6.6569701    481.07991  0.020288458  0.018441179          875 
 1977000   0.45893367   -6.6548706    481.43743  0.020293266  0.018427264          804 
 1978000   0.46206878   -6.6532675    481.38673   0.02028087  0.018413346          895 
 1979000   0.46349842   -6.6617434    481.17715  0.020261797  0.018399433          836 
 1980000   0.45991804   -6.6394069    481.28509  0.020256106  0.018385538          830 
 1981000   0.46493213   -6.6465606     480.4595  0.020211152  0.018371647          919 
 1982000   0.45683052   -6.6410762    480.33283  0.020195628   0.01835775          961 
 1983000   0.45332907   -6.6516557    480.10703  0.020175955  0.018343868          958 
 1984000   0.46378117   -6.6797329    481.06946   0.02020621  0.018329994         1014 
 1985000   0.45574364   -6.6625807    480.55153  0.020174288   0.01831612          807 
 1986000   0.45885711   -6.6443789    480.72716  0.020171499   0.01830225          901 
 1987000   0.45835748   -6.6542943    480.09077  0.020134657  0.018288394          913 
 1988000   0.46204931   -6.6577933    480.16272  0.020127545  0.018274571          870 
 1989000   0.46269925   -6.6490197    479.50583  0.020089904  0.018260742         1021 
 1990000   0.45465485   -6.6579002    480.37541  0.020116223  0.018246946          890 
 1991000   0.46029793   -6.6591185    481.44776  0.020151003  0.018233149          743 
 1992000   0.46184932   -6.6589386    480.04499  0.020082203  0.018219384          891 
 1993000   0.45668589   -6.6725203     480.8694  0.020106598  0.018205612          944 
 1994000   0.45424797   -6.6786522    480.87603  0.020096792  0.018191836          927 
 1995000   0.45456191    -6.644137    481.24404   0.02010209  0.018178073          887 
 1996000   0.44724947   -6.6894006    481.08756  0.020085486  0.018164325          940 
 1997000   0.44757079   -6.6839455    480.32832  0.020043746  0.018150575          874 
 1998000   0.46003226   -6.6579044    480.62468  0.020046074  0.018136857          874 
 1999000   0.46227658   -6.6833326     481.6524   0.02007889  0.018123139          954 
 2000000   0.45282594   -6.6716477    480.63325  0.020026385   0.01810942          991 
 2001000    0.4442475   -6.6691932    479.58255   0.01997262  0.018095712          965 
 2002000   0.46275618   -6.6756771    479.97113  0.019978818  0.018082018          956 
 2003000   0.45605087   -6.6720732    478.86174  0.019922688  0.018068322          975 
 2004000   0.45526625   -6.6592455    479.80547   0.01995199  0.018054641          957 
 2005000   0.45556422    -6.692364    479.88796  0.019945468  0.018040988          961 
 2006000   0.45938778   -6.6759527    480.81167  0.019973898  0.018027341         1005 
 2007000   0.44678999    -6.674456    479.83003  0.019923187  0.018013687          919 
 2008000   0.45664108   -6.6792124    480.49726  0.019940955  0.018000066          998 
 2009000   0.43914318   -6.6978175    480.48456  0.019930503  0.017986443          978 
 2010000   0.45339444   -6.6787142    480.01516  0.019901126  0.017972829          953 
 2011000   0.45356701    -6.676437     480.3139  0.019903609  0.017959212          957 
 2012000   0.44291381   -6.6781323    480.17862  0.019888114  0.017945622          943 
Loop time of 5089.17 on 48 procs for 2000000 steps with 4000 atoms

Performance: 67908.918 tau/day, 392.991 timesteps/s
99.4% CPU use with 48 MPI tasks x no OpenMP threads

MPI task timing breakdown:
Section |  min time  |  avg time  |  max time  |%varavg| %total
---------------------------------------------------------------
Pair    | 353.6      | 383.62     | 406.55     |  66.7 |  7.54
Neigh   | 35.322     | 36.584     | 38.302     |  13.3 |  0.72
Comm    | 329.92     | 351.81     | 383.95     |  66.4 |  6.91
Output  | 5.0011     | 5.003      | 5.052      |   0.3 |  0.10
Modify  | 4258.1     | 4266.3     | 4276.9     |   7.3 | 83.83
Other   |            | 45.84      |            |       |  0.90

Nlocal:        83.3333 ave          88 max          78 min
Histogram: 1 2 1 4 8 7 12 8 2 3
Nghost:        2382.94 ave        2402 max        2364 min
Histogram: 2 2 8 7 8 3 7 3 6 2
Neighs:        16457.1 ave       18642 max       14775 min
Histogram: 6 6 8 4 3 5 4 8 3 1
FullNghs:      32912.8 ave       34950 max       30681 min
Histogram: 3 0 3 8 6 11 10 4 0 3

Total # of neighbors = 1579815
Ave neighs/atom = 394.95375
Neighbor list builds = 107325
Dangerous builds = 0

#clear
#
#next RN
#
#jump SELF
Total wall time: 1:24:52
