
units lj                  # Use reduced LJ style units
atom_style atomic         # Uncharged point particles
atom_modify map hash      # Needed for indexing of clusters etc
                          # Used to be able to find where atoms are in relation to each other.

lattice fcc 1.0 spacing 1 1 1
Lattice spacing in x,y,z = 1.5874011 1.5874011 1.5874011
region box block 0 10 0 10 0 10 units lattice
create_box 2 box
Created orthogonal box = (0.0000000 0.0000000 0.0000000) to (15.874011 15.874011 15.874011)
  3 by 4 by 4 MPI processor grid
create_atoms 1 box
Created 4000 atoms
  using lattice units in orthogonal box = (0.0000000 0.0000000 0.0000000) to (15.874011 15.874011 15.874011)
  create_atoms CPU = 0.003 seconds
set type 1 type/fraction 2 0.75 78393
Setting atom values ...
  3002 settings made for type/fraction
mass 1 1.0
mass 2 1.0
pair_style lj/cut  3.5
pair_modify tail  yes
pair_coeff 1  1  1.0  1.0   # Intearaction between 1 and 1 set with epsilon = 1 and sigma = 1
pair_coeff 1  2  1.5  0.8
pair_coeff 2  2  0.5  0.88

write_data data.0
System init for write_data ...
Neighbor list info ...
  update every 1 steps, delay 10 steps, check yes
  max neighbors/atom: 2000, page size: 100000
  master list distance cutoff = 3.8
  ghost atom cutoff = 3.8
  binsize = 1.9, bins = 9 9 9
  1 neighbor lists, perpetual/occasional/extra = 1 0 0
  (1) pair lj/cut, perpetual
      attributes: half, newton on
      pair build: half/bin/atomonly/newton
      stencil: half/bin/3d
      bin: standard
WARNING: Not all mixed pair coeffs generated from mixing. Use write_data with 'pair ij' option to store all pair coeffs. (../write_data.cpp:312)


#############################
#   M E L T   S Y S T E M   #
#############################

velocity all create 2.4 5300450 mom yes dist gaussian # Assign velocities
                                                    # Temperature 2.4, random number seed, zero linear momentum
                                                                                # Gaussian distribution

timestep 0.002   # simulation timestep
thermo 1000       # output thermodynamic data every 1000 steps bf 100

# Define a fix  in this case with index 1 applied to all
# particles in the simulation. This fix is for simulations
# in the anisotropic NPT ensemble. Note that we use the MTK
# correction.
fix 1 all npt temp 2.4 2.4 0.1 iso 5.68 5.68 0.5 mtk yes tchain 5 pchain 5 # Use NPT ensemble
                                                                         # Set temperature and pressure and damping
                                                                         # Numbers of thermostats in chain and in barostat
run 10000          # run for 10000 steps
Per MPI rank memory allocation (min/avg/max) = 3.642 | 3.644 | 3.648 Mbytes
Step Temp E_pair E_mol TotEng Press Volume 
       0          2.4    -3.937065            0  -0.33796495   -3.5201857         4000 
    1000    2.4059861   -3.4045569            0   0.20352001    5.8935578    3713.5159 
    2000    2.4324849   -3.4184304            0    0.2293848    5.4955349    3757.7325 
    3000    2.3817642   -3.3937676            0   0.17798555    5.6809041     3740.615 
    4000    2.3700374   -3.4405031            0   0.11366422    5.6294463    3717.5634 
    5000    2.4005175     -3.46496            0   0.13491605    5.9036604    3681.9321 
    6000    2.4327956   -3.4108833            0    0.2373978    5.9010454    3717.1168 
    7000    2.3579942   -3.4144443            0   0.12166274    5.9444626    3697.7991 
    8000    2.4049401   -3.4524486            0   0.15405962    5.5325896    3722.2421 
    9000    2.4048518    -3.438681            0   0.16769479    5.7702049    3706.8461 
   10000    2.3863929   -3.3908658            0    0.1878286    5.6514961    3755.7919 
Loop time of 2.6093 on 48 procs for 10000 steps with 4000 atoms

Performance: 662247.351 tau/day, 3832.450 timesteps/s
99.6% CPU use with 48 MPI tasks x no OpenMP threads

MPI task timing breakdown:
Section |  min time  |  avg time  |  max time  |%varavg| %total
---------------------------------------------------------------
Pair    | 1.1761     | 1.2466     | 1.3521     |   2.9 | 47.78
Neigh   | 0.21236    | 0.22076    | 0.23778    |   0.9 |  8.46
Comm    | 0.77678    | 0.88185    | 0.94263    |   3.9 | 33.80
Output  | 0.0002472  | 0.00025228 | 0.00032588 |   0.0 |  0.01
Modify  | 0.21086    | 0.24417    | 0.28007    |   4.4 |  9.36
Other   |            | 0.01564    |            |       |  0.60

Nlocal:        83.3333 ave          94 max          71 min
Histogram: 3 0 2 8 6 6 17 1 3 2
Nghost:        1705.94 ave        1740 max        1655 min
Histogram: 1 1 1 6 7 4 10 10 6 2
Neighs:        10169.3 ave       11518 max        8332 min
Histogram: 1 2 3 4 6 6 10 8 5 3

Total # of neighbors = 488125
Ave neighs/atom = 122.03125
Neighbor list builds = 902
Dangerous builds = 182

# Equilibrate just above the melting temperature to avoid step fn in T

fix 1 all npt temp 1.25 1.25 0.1 iso 5.68 5.68 0.5 mtk yes tchain 5 pchain 5
run 2000
Per MPI rank memory allocation (min/avg/max) = 3.644 | 3.646 | 3.649 Mbytes
Step Temp E_pair E_mol TotEng Press Volume 
   10000    2.3863929   -3.3908658            0    0.1878286    5.6514961    3755.7919 
   11000    1.2413312   -5.0578487            0   -3.1963173    5.8735556    2841.9658 
   12000    1.2389083   -5.0767054            0   -3.2188075    5.2603142    2858.0369 
Loop time of 0.649462 on 48 procs for 2000 steps with 4000 atoms

Performance: 532132.594 tau/day, 3079.471 timesteps/s
99.6% CPU use with 48 MPI tasks x no OpenMP threads

MPI task timing breakdown:
Section |  min time  |  avg time  |  max time  |%varavg| %total
---------------------------------------------------------------
Pair    | 0.29065    | 0.32049    | 0.34408    |   1.9 | 49.35
Neigh   | 0.041473   | 0.043966   | 0.048287   |   0.5 |  6.77
Comm    | 0.20714    | 0.23528    | 0.26914    |   2.4 | 36.23
Output  | 5.1748e-05 | 5.3372e-05 | 6.8995e-05 |   0.0 |  0.01
Modify  | 0.041302   | 0.044832   | 0.047987   |   0.9 |  6.90
Other   |            | 0.004841   |            |       |  0.75

Nlocal:        83.3333 ave          91 max          77 min
Histogram: 2 2 8 9 8 9 3 4 1 2
Nghost:        2060.85 ave        2088 max        2036 min
Histogram: 7 2 5 4 7 7 6 4 3 3
Neighs:        13357.4 ave       15414 max       12143 min
Histogram: 5 4 9 10 10 4 3 0 1 2

Total # of neighbors = 641156
Ave neighs/atom = 160.28900
Neighbor list builds = 145
Dangerous builds = 11

#############################
# L I N E A R  Q U E N C H  #
#############################

# Define solid atoms. This closely follows ten Wolde  Ruiz-Montero and Frenkel  Faraday Discuss  1996  104  93-110
# Compute components of the per-atom q6 vector
compute q6 all orientorder/atom degrees 1 6 components 6 nnn NULL cutoff 1.3 # compute the Q6 parameter.
                                                                             # Use all neighbours within 1.3 unit cell.

# get number of connections
compute coord_number all coord/atom orientorder q6 0.5

# An atom is solid if it has 8 or more connections (of a possible 14)
variable is_solid atom c_coord_number>=8
group solid dynamic all var is_solid    # Must be dynamic to update
dynamic group solid defined

# do clustering
compute cluster solid cluster/atom 1.3 # Create a cluster where all atoms within are solid and max 1.3 units from another member

# define chunks one chunk per cluster
compute clus_chunks solid chunk/atom c_cluster nchunk every compress yes  # Says which atoms are in which chunk

# count the size of each chunk
compute size_chunks solid property/chunk clus_chunks count


# Find the maximum entry in the vector of chunk sizes
variable max_n equal max(c_size_chunks)


# Thermo style which includes this variable
# thermo_style custom step temp pe vol v_max_n

thermo ${N}  # Print the thermo information every 100 steps
thermo 1000  

# Reset the npt fix at a lower temperature (below freezing)
fix 1  all npt temp  ${temp} ${temp}  0.1  iso  5.68  5.68  0.5  mtk yes tchain  5  pchain  5
fix 1  all npt temp  0.45 ${temp}  0.1  iso  5.68  5.68  0.5  mtk yes tchain  5  pchain  5
fix 1  all npt temp  0.45 0.45  0.1  iso  5.68  5.68  0.5  mtk yes tchain  5  pchain  5

dump dmp2 all dcd ${N} traj.dcd
dump dmp2 all dcd 1000 traj.dcd


compute msd all msd com yes
variable twopoint equal c_msd[4]/6/(step*dt+1.0e-6)
fix 9 all vector 10 c_msd[4]
variable fit equal slope(f_9)/6/(10*dt)
thermo_style custom step temp pe c_msd[4] v_twopoint v_fit v_max_n

fix 1 all npt temp 1.25 ${temp} 0.1 iso 5.68 5.68 0.5 mtk yes tchain 5 pchain 5
fix 1 all npt temp 1.25 0.45 0.1 iso 5.68 5.68 0.5 mtk yes tchain 5 pchain 5
run 5000000 # 5000000  # Run for this many steps
Neighbor list info ...
  update every 1 steps, delay 10 steps, check yes
  max neighbors/atom: 2000, page size: 100000
  master list distance cutoff = 3.8
  ghost atom cutoff = 3.8
  binsize = 1.9, bins = 8 8 8
  4 neighbor lists, perpetual/occasional/extra = 1 3 0
  (1) pair lj/cut, perpetual
      attributes: half, newton on
      pair build: half/bin/atomonly/newton
      stencil: half/bin/3d
      bin: standard
  (2) compute orientorder/atom, occasional
      attributes: full, newton on
      pair build: full/bin/atomonly
      stencil: full/bin/3d
      bin: standard
  (3) compute coord/atom, occasional
      attributes: full, newton on
      pair build: full/bin/atomonly
      stencil: full/bin/3d
      bin: standard
  (4) compute cluster/atom, occasional
      attributes: full, newton on
      pair build: full/bin/atomonly
      stencil: full/bin/3d
      bin: standard
Per MPI rank memory allocation (min/avg/max) = 9.838 | 9.844 | 9.849 Mbytes
Step Temp PotEng c_msd[4] v_twopoint v_fit v_max_n 
   12000    1.2389083   -5.0767054 8.4084684e-30 5.8392139e-32 8.3333333e+20            1 
   13000    1.2206938   -5.1200893    0.6720882 0.0043082575  0.055053716            2 
   14000    1.2532602   -5.1257634    1.3999059 0.0083327727  0.058093162            1 
   15000    1.2407481   -5.0963297    2.1441818  0.011912121  0.059679671            2 
   16000    1.2469242   -5.1178149    2.8381281  0.014781917  0.060242963            2 
   17000    1.2360139   -5.0716937    3.5290172  0.017299103  0.059445279            2 
   18000    1.2554941   -5.1110709    4.1962523  0.019427093  0.058903826            4 
   19000    1.2360814   -5.0941598    4.8760496  0.021386182   0.05854296            2 
   20000    1.2774379   -5.0981836     5.505698  0.022940408  0.057975843            2 
   21000    1.2583634   -5.1024352    6.0910575  0.024170862  0.057181166            3 
   22000    1.2400326    -5.099519    6.7680984  0.025636736  0.056539006            3 
   23000    1.2221067   -5.0882458    7.4448709  0.026974169  0.056152237            1 
   24000    1.2499174   -5.0873804    8.2419955  0.028618039  0.056187515            2 
   25000    1.2344108   -5.0825469    8.9990834  0.029996944  0.056429731            2 
   26000    1.2664303   -5.1100486     9.628146  0.030859442  0.056584251            3 
   27000    1.2303454    -5.115832     10.21369  0.031523735  0.056659519            4 
   28000    1.2528066   -5.0856285    10.939581  0.032558277  0.056641472            3 
   29000    1.2317259   -5.0972948    11.566964  0.033238403  0.056583554            2 
   30000    1.2444239   -5.0943804    12.210678  0.033918549  0.056465692            3 
   31000    1.2689566   -5.0948581    13.018579  0.034996179  0.056429344            1 
   32000    1.2423255   -5.1442595    13.735111  0.035768519  0.056503081            1 
   33000    1.2529284    -5.088396     14.50713  0.036634166  0.056659481            3 
   34000    1.2733328   -5.0797151    15.057122  0.036904711  0.056735575            1 
   35000      1.24662   -5.1057819    15.946717  0.037968374  0.056856851            2 
   36000    1.2393548   -5.1408923    16.517985  0.038236076  0.056999627            1 
   37000    1.2321727   -5.1084191    17.285072  0.038930341  0.057057808            1 
   38000    1.2372186   -5.0974036    18.007316  0.039489728  0.057144111            5 
   39000    1.2438195   -5.1118489    18.740193  0.040043147  0.057248412            2 
   40000    1.2164208   -5.0799996      19.4231  0.040464791  0.057370393            3 
   41000    1.2279642   -5.1362896    20.202607  0.041062209   0.05748079            2 
   42000    1.2518325   -5.1196927    21.000626  0.041667907   0.05765362            2 
   43000    1.2389222   -5.1089988    21.780333  0.042209948  0.057880443            4 
   44000    1.2825843   -5.1276964    22.555881  0.042719471  0.058064487            6 
   45000    1.2398638   -5.0926878    23.262799  0.043079257  0.058200909            4 
   46000    1.2353474   -5.0727749    23.848412  0.043203644  0.058282112            2 
   47000    1.2526851   -5.1222191    24.316697  0.043114711  0.058308021            2 
   48000    1.2626234   -5.1000283    25.111621  0.043596564  0.058319414            3 
   49000    1.2620368   -5.1048349    25.687018  0.043685404  0.058329621            4 
   50000    1.2433192   -5.0619488    26.392031  0.043986717  0.058320368            1 
   51000     1.243084    -5.135218    27.053663  0.044205331  0.058301542            2 
   52000    1.2664297   -5.1411264    27.536703  0.044129331  0.058261555            2 
   53000    1.2145021   -5.1429172    27.968868  0.043976207   0.05815521            2 
   54000    1.2617339   -5.0862955    28.787745  0.044425533  0.058036031            3 
   55000    1.2483314   -5.0782507    29.334219  0.044445786  0.057904613            2 
   56000     1.242707     -5.15073    29.905836  0.044502732  0.057779102            2 
   57000    1.2834538    -5.131921    30.524459  0.044626402  0.057647471            1 
   58000    1.2159957   -5.0919153    31.438119   0.04516971  0.057534367            3 
   59000    1.2280364   -5.1118261    31.866842  0.045009664  0.057418275            4 
   60000    1.2216011   -5.1087462    32.643505    0.0453382  0.057307862            3 
   61000    1.2362608   -5.1179374    33.360925  0.045575034  0.057211768            1 
   62000    1.2620924   -5.1291978     33.88281   0.04554141  0.057150088            4 
   63000    1.2426785   -5.1214719    34.764491  0.045984776  0.057083433            2 
   64000    1.2461969    -5.117833    35.221017  0.045860699  0.057020502            2 
   65000    1.2862668    -5.131893    36.147877  0.046343431  0.056989501            4 
   66000    1.2473318   -5.1302067    37.036855  0.046763705   0.05697562            2 
   67000    1.2315406   -5.1199708    37.737704  0.046937442  0.056973147            5 
   68000    1.2372231   -5.1253584    38.612274  0.047318963  0.056991275            2 
   69000    1.2278624   -5.1135515    39.509314  0.047716562  0.057035768            2 
   70000    1.2281592   -5.1083124    40.305998  0.047983331  0.057090125            3 
   71000    1.2369365   -5.0877679    41.119835  0.048262716  0.057154415            2 
   72000    1.2286158   -5.0896726      41.8795  0.048471643  0.057215342            1 
   73000    1.2345559   -5.1341477    42.108657  0.048069243  0.057250667            2 
   74000    1.2578132   -5.1553366    42.819732  0.048220419  0.057278012            2 
   75000    1.2494444   -5.1428376    43.520977  0.048356641  0.057305379            4 
   76000    1.2186687   -5.1256436    44.051384  0.048301955  0.057322957            1 
   77000    1.2340031   -5.1010117    44.627532  0.048298194  0.057317159            1 
   78000    1.2436322   -5.1104679    44.915897  0.047987069  0.057272426            4 
   79000    1.2130727   -5.1569445    45.551079  0.048049661   0.05721432            1 
   80000    1.2451378   -5.1738316    46.327587  0.048257903  0.057166827            4 
   81000    1.2510034   -5.1296571    47.268253   0.04862989  0.057149838            3 
   82000    1.2474539   -5.0763902    48.014267  0.048794987  0.057138327            2 
   83000    1.2475745   -5.0954118    48.628207    0.0488235  0.057124062            4 
   84000    1.2285256   -5.0954275    49.333332  0.048941798  0.057106278            3 
   85000    1.2639389   -5.1070007     49.92834  0.048949352  0.057097812            2 
   86000    1.2225417   -5.1585712    50.612734  0.049043347  0.057090491            3 
   87000    1.2627986   -5.1173629    51.559575  0.049386566  0.057087478            1 
   88000    1.2529578   -5.1382779    52.111101  0.049347633  0.057093063            2 
   89000    1.2192782   -5.0842027    52.871938   0.04950556  0.057098063            1 
   90000    1.2300086   -5.1384274    53.337586  0.049386654  0.057086894            3 
   91000    1.2317829   -5.1224467    53.893342  0.049352877  0.057086947            1 
   92000    1.2259413   -5.1317198    54.441589  0.049313033  0.057067085            1 
   93000    1.2344914   -5.1082401    55.125083  0.049395235  0.057031398            3 
   94000    1.2741243   -5.1471302    55.742513  0.049417121  0.057004747            3 
   95000    1.2255693    -5.110667    56.374243   0.04945109  0.056986427            1 
   96000     1.243082   -5.1215782    57.306744  0.049745437  0.056969048            2 
   97000    1.2244833   -5.0992474    57.642964  0.049521447  0.056944755            2 
   98000    1.2235951   -5.1381057     58.40276  0.049662211  0.056915744            1 
   99000    1.2041602   -5.1608903    59.030014  0.049688564  0.056891531            3 
  100000    1.2310401   -5.1142919     59.95524    0.0499627  0.056873507            2 
  101000    1.2377345    -5.123828    60.777013   0.05014605  0.056863372            1 
  102000    1.2038539   -5.1254673    61.363965  0.050133958  0.056845688            1 
  103000    1.2238593   -5.1239026    61.912744  0.050091216  0.056831048            3 
  104000    1.2366774   -5.1330762    62.720796  0.050257048  0.056816884            2 
  105000    1.2509728   -5.1046396    63.690014   0.05054763  0.056806301            2 
  106000    1.2386122    -5.144503    64.333553  0.050576692  0.056801314            3 
  107000    1.2398265   -5.1282763    64.366274  0.050129497  0.056793232            4 
  108000    1.2294025   -5.1593004    64.920196  0.050092743  0.056774038            1 
  109000    1.2389607   -5.1559637     65.73455  0.050255772  0.056742757            3 
  110000     1.230993   -5.1219071    66.710516  0.050538269  0.056720128            2 
  111000    1.2468265   -5.1365288    67.315715  0.050537323  0.056702986            1 
  112000    1.2445878   -5.1788023     67.43855  0.050177492  0.056687055            2 
  113000    1.2553586   -5.1349545    68.613092  0.050599625  0.056670251            3 
  114000    1.2495599   -5.1297678    69.331421  0.050680863    0.0566665            7 
  115000    1.2227313   -5.0895317    70.272913    0.0509224  0.056659887            1 
  116000    1.2427113   -5.1239609    70.824737   0.05087984  0.056651779            2 
  117000    1.2512081   -5.1738402    71.598013  0.050995735   0.05663889            2 
  118000      1.22713   -5.1218312    72.103672  0.050920672  0.056634327            1 
  119000    1.2411624   -5.1310004    72.946811  0.051083201  0.056632093            4 
  120000     1.228295   -5.1099572    73.527967  0.051061088  0.056628319            1 
  121000    1.2356455   -5.1107061    74.253481  0.051138761  0.056619385            2 
  122000    1.2505422   -5.0957943    74.945905  0.051192558  0.056605476            3 
  123000    1.2392889   -5.1077654    75.105883  0.050884744  0.056590306            2 
  124000    1.2297257   -5.1091969    75.847712  0.050972924  0.056573867            1 
  125000    1.2384589   -5.0969699    77.053572  0.051369048  0.056554654            1 
  126000    1.2438602   -5.1386437    77.129709  0.051011712  0.056538109            2 
  127000    1.2264771   -5.1265192    77.924636  0.051131651  0.056521601            2 
  128000    1.2023393   -5.1220507    78.752067  0.051270877  0.056507064            2 
  129000    1.2347634   -5.1447457    79.246964  0.051193129  0.056494859            2 
  130000    1.2513014   -5.1179047    79.917854  0.051229393  0.056488862            1 
  131000    1.2383749   -5.1301894    80.844658  0.051427899  0.056477781            1 
  132000    1.2210321   -5.0982559     80.71339  0.050955423  0.056458342            4 
  133000    1.2096461   -5.1268596    81.848552  0.051283554   0.05643333            3 
  134000     1.222589   -5.1457072    82.073434  0.051040692  0.056416576            2 
  135000    1.2220838   -5.1195779    82.985463  0.051225594  0.056396548            2 
  136000    1.2306551   -5.1466849    83.285214  0.051032606  0.056369166            4 
  137000    1.2136207     -5.11803    84.127505  0.051172448  0.056341791            2 
  138000    1.2145587   -5.1944605    84.752275   0.05117891  0.056315044            1 
  139000    1.2670695   -5.1686218    85.381843  0.051188155  0.056290178            3 
  140000    1.2348983   -5.1715901    85.958421  0.051165727  0.056265464            1 
  141000    1.2144801   -5.1559589     86.80885  0.051305467  0.056242831            2 
  142000    1.2277683   -5.1261585    87.050937   0.05108623  0.056214137            4 
  143000    1.2105739   -5.1118403    87.982198  0.051271677  0.056189363            2 
  144000      1.23982   -5.1195462    88.581823  0.051262629  0.056162479            4 
  145000    1.2565339   -5.1424293    88.812498  0.051041665  0.056135199            1 
  146000    1.2322041   -5.1526679    89.083691  0.050846855  0.056102765            1 
  147000    1.2199988   -5.1592331    90.147288  0.051103905  0.056067342            2 
  148000    1.2305132    -5.139944    90.714094  0.051077755  0.056032029            2 
  149000    1.2513531   -5.1403595     91.83056  0.051359374  0.056005199            3 
  150000    1.2163793   -5.1427833    92.365588  0.051314215  0.055981878            2 
  151000    1.2013246   -5.1518447     93.01814  0.051334514  0.055953981            2 
  152000    1.2216829   -5.1013614    94.232831  0.051662736  0.055933165            6 
  153000    1.2117771   -5.1470867    94.515582  0.051479075  0.055919805            5 
  154000    1.2385063   -5.1120451    95.209307  0.051520188  0.055905155            2 
  155000    1.2409952   -5.1546693    95.401322  0.051291033  0.055888084            2 
  156000    1.2151314   -5.1087145    96.754397  0.051685041  0.055871118            4 
  157000     1.226684   -5.1398368    97.439055  0.051719243   0.05586046            3 
  158000    1.2343561   -5.1760053    97.687477  0.051522931   0.05584886            5 
  159000     1.216853    -5.179397    98.843259  0.051804643  0.055843525            2 
  160000    1.2090525   -5.1786225    98.973161  0.051548521  0.055831982            4 
  161000     1.195413   -5.1209565    99.965242  0.051741843  0.055820601            2 
  162000    1.2331166     -5.13396    100.23986  0.051563711  0.055808276            2 
  163000    1.2194685   -5.1377006    101.27165  0.051774872  0.055788531            3 
  164000    1.2091532   -5.1294123    101.75934  0.051706983  0.055773126            3 
  165000    1.2372956   -5.1527632    102.25266  0.051642755  0.055756613            3 
  166000    1.2099273   -5.1383967    102.74906  0.051580855   0.05573736            2 
  167000    1.2464235   -5.1645332    103.21932  0.051506644  0.055717638            3 
  168000    1.2129135   -5.1732021    103.72301  0.051449907  0.055691905            2 
  169000    1.2190589   -5.1370576     104.7895   0.05167135  0.055666472            4 
  170000    1.2050406   -5.1714691    105.19032  0.051563884  0.055644829            2 
  171000     1.240777   -5.1725191    105.78252  0.051550936  0.055620716            2 
  172000    1.2071039   -5.1410075    106.21374  0.051460146  0.055596664            2 
  173000    1.2280638   -5.1209393     107.6039  0.051832322  0.055578416            3 
  174000    1.2246053   -5.1599498    108.03471  0.051740761  0.055564883            1 
  175000    1.2116949   -5.1303168    108.70088  0.051762325  0.055550747            2 
  176000    1.2287023   -5.1346615    108.95194  0.051587091  0.055532099            2 
  177000    1.2233004   -5.1786233    110.30572  0.051933013  0.055517951            2 
  178000    1.2147982    -5.135782    111.30048  0.052106968  0.055507134            3 
  179000    1.2172832   -5.1814371    110.77573  0.051571568  0.055494826            6 
  180000    1.2070554   -5.1558352    111.68122  0.051704267  0.055474427            2 
  181000    1.2181898    -5.158658    112.16952  0.051643423  0.055453904            2 
  182000    1.2376363   -5.1877615    112.30415  0.051421314  0.055424336            4 
  183000     1.225496   -5.1341184    113.04215   0.05147639  0.055399436            1 
  184000    1.2582746    -5.120422    113.86545  0.051569497  0.055372321            2 
  185000    1.2211539    -5.123234    114.14097   0.05141485  0.055346986            2 
  186000    1.2447808   -5.1816684    115.42382   0.05171318  0.055324171            2 
  187000    1.2075502   -5.1288789    116.30724  0.051830323  0.055303637            2 
  188000    1.1867809   -5.1572531    116.77852   0.05176353  0.055283184            6 
  189000    1.2328454   -5.1781591    117.20325  0.051676916  0.055260749            4 
  190000    1.2215011   -5.1568193    117.99194  0.051750849  0.055240112            2 
  191000    1.2014067   -5.1349359    118.47433  0.051690371  0.055221916            3 
  192000    1.2350071   -5.1016745    119.65567  0.051933886  0.055204069            2 
  193000    1.2198358   -5.1842947    119.46509  0.051582508  0.055186283            2 
  194000    1.2184922   -5.1589232    120.67083  0.051834549  0.055170339            2 
  195000    1.2187872    -5.164054    121.25639   0.05181897  0.055154036            4 
  196000    1.2327132    -5.150613    122.05594  0.051894533  0.055138869            3 
  197000    1.2362046   -5.1510689    123.29808  0.052156548  0.055129719            1 
  198000    1.2246454   -5.1641157    123.50697  0.051981049  0.055122742            1 
  199000    1.2230498   -5.1357745    124.38705  0.052088378  0.055116622            3 
  200000     1.215895   -5.1640844      125.152  0.052146666  0.055113074            3 
  201000    1.1993466   -5.1181427    126.48463   0.05243973  0.055115072            2 
  202000    1.2076258   -5.1295451    127.52196  0.052608069  0.055120952            3 
  203000    1.2302969   -5.1785639      127.573  0.052369868  0.055124993            4 
  204000    1.2426793   -5.1841881    128.45019  0.052471481  0.055127505            3 
  205000    1.2171125   -5.1833482    128.42258    0.0522043  0.055127906            3 
  206000    1.2029519   -5.1684031    129.14492  0.052243089  0.055126785            3 
  207000    1.2172899   -5.1675782     129.9514   0.05231538  0.055124721            3 
  208000    1.2028541   -5.1921262    129.60081  0.051923403  0.055115176            5 
  209000    1.2232028   -5.2161906    130.12459  0.051883809  0.055106502            1 
  210000    1.2068509    -5.165228    131.72169  0.052270512  0.055100432            2 
  211000    1.2292317   -5.2084626    131.70304  0.052015418  0.055094135            2 
  212000    1.1944622   -5.1510777    133.21194  0.052363185  0.055089159            2 
  213000    1.2199209   -5.1887848    133.25182   0.05213295   0.05508519            3 
  214000     1.252639   -5.1427115    134.10811  0.052222786  0.055080518            5 
  215000    1.2063841   -5.1438745    134.81056  0.052252156  0.055072484            2 
  216000     1.217783   -5.1399581    135.57965  0.052306965  0.055065624            3 
  217000    1.2029908   -5.1759952    135.55801  0.052057606  0.055055353            4 
  218000     1.223983   -5.1946164     136.4035   0.05214201  0.055046266            2 
  219000    1.2102115    -5.126246    137.75852  0.052419526   0.05503803            1 
  220000    1.2177956   -5.1885287    137.87013  0.052223534  0.055033244            2 
  221000    1.2449646   -5.1165319    139.37366   0.05255417  0.055025937            2 
  222000    1.2009882   -5.1537064    139.60457  0.052404118  0.055020653            5 
  223000    1.2007347   -5.1478866    140.07786  0.052345987  0.055018864            4 
  224000    1.2235596   -5.1754375    141.40925  0.052607606  0.055017277            1 
  225000    1.1933164   -5.1635787    141.48407  0.052401508  0.055017185            3 
  226000    1.2156706   -5.1863043    142.25106  0.052452454  0.055014002            1 
  227000    1.2303279   -5.1915558    142.30163  0.052239954  0.055011425            1 
  228000     1.222292   -5.1785812     143.6123  0.052489875  0.055008873            1 
  229000    1.2371963   -5.1723219    144.33542  0.052523807  0.055008345            5 
  230000    1.2158605   -5.1765327    144.69537  0.052425858   0.05500522            2 
  231000    1.1964467   -5.1634122    145.66194  0.052547598  0.055001967            5 
  232000    1.2112584   -5.1782866    145.19037  0.052151715  0.054993567            3 
  233000    1.1953707   -5.1600863    145.61965  0.052081421  0.054984943            3 
  234000    1.2137044   -5.1863506    146.42486  0.052145604  0.054977904            2 
  235000     1.230152   -5.1184606    147.70284  0.052376893  0.054972066            2 
  236000     1.196475   -5.2088581    147.91545  0.052230031  0.054965139            3 
  237000    1.2175772   -5.1766668    148.99263  0.052388407  0.054956351            3 
  238000       1.2258   -5.2011506    149.23092  0.052251721  0.054948002            2 
  239000    1.2218119   -5.2070411    149.91624  0.052272051  0.054937597            3 
  240000    1.2307971   -5.1823763    150.50715  0.052259426  0.054930317            2 
  241000    1.2256447   -5.1576772     150.8328  0.052155187  0.054919182            1 
  242000     1.234563    -5.142143    151.31682  0.052106344  0.054904223            3 
  243000    1.2010736   -5.1927718    152.28086  0.052222517   0.05489033            3 
  244000    1.2418585   -5.1605971    152.67611   0.05214348  0.054878581            4 
  245000    1.2253835   -5.1679708    153.87098  0.052337069  0.054869157            3 
  246000    1.2159131   -5.2041754    153.97115  0.052158248  0.054859468            5 
  247000    1.2017194   -5.1926859    154.96493  0.052282365  0.054852085            2 
  248000    1.2081021   -5.1993898    156.09262  0.052450477   0.05484437            1 
  249000     1.177343   -5.1879005    157.04975  0.052560157  0.054837264            1 
  250000    1.1910139   -5.1867816    156.99807  0.052332689  0.054831057            2 
  251000    1.2023737   -5.1792067    157.81908  0.052396774  0.054824806            2 
  252000    1.1966297   -5.1630487    159.22754  0.052654611  0.054821036            2 
  253000    1.2297893    -5.147575    160.20143  0.052767271  0.054821795            1 
  254000    1.1812374   -5.1774755    160.57884  0.052683348   0.05482043            4 
  255000    1.1972104   -5.1609848    161.27568  0.052704471   0.05481974            2 
  256000    1.2125657   -5.1663828    162.13813  0.052779341  0.054817275            2 
  257000    1.2301833   -5.1811148    162.48767  0.052687311  0.054818795            2 
  258000    1.1857014   -5.1626823     163.8632  0.052927391   0.05482334            2 
  259000    1.2114614   -5.1662517     164.2315  0.052841538  0.054826016            2 
  260000    1.1891227   -5.1804502    163.72378  0.052475571  0.054828922            2 
  261000    1.2258672   -5.1996167    165.29253  0.052775394   0.05483131            2 
  262000    1.2125197    -5.159106    165.15331  0.052529679  0.054830311            2 
  263000    1.2162274   -5.1495986    166.14294  0.052643516  0.054829328            3 
  264000    1.1966505   -5.1741647     167.1777  0.052770738  0.054827568            1 
  265000    1.1994597   -5.1766305    167.67899  0.052729241  0.054823961            2 
  266000     1.213951   -5.1638721     168.0623  0.052651097  0.054821541            2 
  267000    1.2323417   -5.1791476    168.69167  0.052650335  0.054817821            2 
  268000    1.2124869   -5.1885995    169.53838  0.052717158  0.054812069            3 
  269000    1.2225687   -5.1492338    170.05935  0.052682573  0.054805936            5 
  270000    1.2429697    -5.165614    170.60637  0.052656287  0.054800775            2 
  271000    1.1978191   -5.2161804    171.36648  0.052695721  0.054798016            2 
  272000    1.1860867   -5.1894441    172.23616   0.05276843     0.054794            2 
  273000    1.2070337   -5.1751613    172.06243  0.052522108   0.05479081            1 
  274000    1.2207875   -5.1695395    173.53669  0.052778798  0.054789185            1 
  275000    1.2034781   -5.1538195     174.1548  0.052774182  0.054784888            1 
  276000    1.2310919   -5.1754136     175.0445  0.052851601  0.054783847            3 
  277000    1.2350687   -5.2127507    175.14315  0.052690479  0.054782342            4 
  278000    1.2120714   -5.1590757    176.31296  0.052851608  0.054781688            7 
  279000    1.2305444   -5.1514885     177.4641  0.053006004  0.054780868            6 
  280000    1.2054465   -5.1804732    177.99454  0.052974565  0.054779385            2 
  281000    1.2057944   -5.1858235    178.82965  0.053033705  0.054777362            5 
  282000    1.2267886   -5.1821137    178.14961  0.052644683  0.054776069            3 
  283000    1.2171325   -5.1564231    179.82547   0.05295214  0.054771969            2 
  284000    1.1993557    -5.186398    179.47994  0.052664303  0.054769252            2 
  285000    1.2070241   -5.1697832    181.49037   0.05306736  0.054767069            1 
  286000    1.1906669   -5.1663587    181.10536  0.052769627  0.054765216            1 
  287000    1.2261095   -5.1800556    182.26507  0.052922494  0.054764567            2 
  288000    1.1880905   -5.1928351    182.39059  0.052775054  0.054765318            2 
  289000    1.2071973   -5.1965242    183.20259  0.052826584  0.054763669            3 
  290000    1.1820876     -5.18526    184.48278  0.053012292   0.05476588            4 
  291000     1.233618   -5.1134829    185.84346  0.053219776  0.054770038            4 
  292000    1.1910692   -5.1978894    186.24344  0.053151667  0.054771944            5 
  293000    1.2266471   -5.1964088    186.51308   0.05304695  0.054773682            3 
  294000    1.1906355   -5.1836028    186.45842  0.052851027  0.054775933            1 
  295000    1.1930479   -5.1912369    187.76284   0.05304035  0.054776431            3 
  296000    1.2015873   -5.2228666    187.12764  0.052682331  0.054775344            2 
  297000    1.2087191   -5.1643834     189.1112  0.053061503  0.054776035            2 
  298000    1.2101412   -5.1901517    189.36085  0.052953258  0.054776023            5 
  299000    1.1752329   -5.1921543    189.80826  0.052900851  0.054775126            2 
  300000    1.1934763   -5.1921708    189.53649  0.052649026  0.054773745            4 
  301000    1.1960074   -5.1632166    190.59494  0.052767149  0.054771362            4 
  302000    1.2036685   -5.2072537    191.60459  0.052871023  0.054767304            4 
  303000    1.2137642   -5.1546607    192.48033  0.052937384  0.054763354            1 
  304000    1.2023015   -5.1653306    193.33071  0.052996356  0.054759434            2 
  305000    1.1779869   -5.1745241    192.90111   0.05270522  0.054753303            3 
  306000    1.1974691    -5.179745    193.02554  0.052566868  0.054747658            1 
  307000    1.1976738   -5.2398636    193.75591  0.052593896  0.054743467            4 
  308000    1.1876734   -5.1878698    195.81979  0.052981546  0.054741187            2 
  309000    1.2042883   -5.1935138    196.28599  0.052935812  0.054741083            3 
  310000    1.2071462   -5.1847429    197.44355  0.053076222  0.054739771            1 
  311000    1.2470688   -5.1866922    197.97236  0.053047255  0.054737638            3 
  312000    1.2212777   -5.1806798    198.91961  0.053130238  0.054739126            3 
  313000    1.2125625   -5.1856334    199.39572  0.053087253  0.054739389            3 
  314000    1.2138161    -5.172292    199.98369  0.053074229  0.054740748            2 
  315000    1.2067141   -5.1719143    201.71126  0.053362768  0.054743609            2 
  316000    1.2073962   -5.2141136    201.70543   0.05319236   0.05474824            2 
  317000    1.2090466   -5.2001191    202.36282  0.053197378  0.054752815            2 
  318000    1.2033565   -5.2127899    202.43134  0.053048045  0.054756938            2 
  319000    1.2266652   -5.1811564    203.94267  0.053276559  0.054760312            1 
  320000    1.2017239   -5.2250641    203.27124  0.052935218  0.054762625            2 
  321000    1.1894853   -5.1976438    204.79465  0.053165796  0.054763837            2 
  322000    1.1854509    -5.215851    204.96988  0.053046035  0.054765676            3 
  323000    1.2179808   -5.1858401    205.32047  0.052972257  0.054765941            3 
  324000    1.1813536   -5.1750056    206.47663  0.053106129  0.054765776            3 
  325000     1.209542   -5.1589462    207.55546  0.053219349  0.054766055            3 
  326000    1.2199883   -5.1829199     207.3278  0.052997903  0.054765705            1 
  327000     1.172171   -5.2253942    207.90579  0.052983127  0.054763606            5 
  328000    1.1920817   -5.1933904    208.62163  0.053003462  0.054762917            6 
  329000    1.1743405   -5.1803706    209.29274  0.053012345  0.054762088            2 
  330000    1.1989507   -5.2150487    209.81928  0.052984668  0.054760468            2 
  331000    1.2213176   -5.2304514    211.37379   0.05321596  0.054758027            4 
  332000    1.1971976   -5.1880215    211.45771  0.053076735  0.054756776            1 
  333000    1.1691858   -5.2021928    211.72285  0.052983697   0.05475535            1 
  334000    1.2091201   -5.2083777     212.1704  0.052936727  0.054750571            6 
  335000    1.2129374   -5.2327409     212.9776  0.052979503  0.054747578            2 
  336000    1.2117573   -5.1522055    214.70454  0.053250133   0.05474779            1 
  337000     1.192125   -5.1964575    215.06769   0.05318192  0.054747357            2 
  338000    1.2148338   -5.1649739    216.29444  0.053327032  0.054748045            3 
  339000    1.1995447   -5.2096054    215.33717  0.052934407  0.054747653            2 
  340000    1.1862787   -5.1695032    216.60903  0.053090447  0.054744762            3 
  341000    1.2329332   -5.2252685    216.95284  0.053018779  0.054742071            2 
  342000    1.2024453   -5.1498402    217.25884  0.052938313  0.054739825            2 
  343000    1.1995957   -5.2142987    218.45437  0.053074435  0.054737149            1 
  344000     1.221974    -5.189183    219.35299  0.053137837  0.054732895            1 
  345000    1.1826056   -5.2109669    219.91252  0.053118966  0.054731031            2 
  346000    1.1918876   -5.1791019    220.35893  0.053072961  0.054726891            3 
  347000    1.1949105    -5.218818    219.96758  0.052826027  0.054721604            4 
  348000    1.1937238   -5.1598033    221.90996  0.053139358  0.054718007            2 
  349000    1.2108663   -5.2121428    221.08996    0.0527913  0.054711758            2 
  350000    1.1946209    -5.201954    221.34781   0.05270186  0.054705508            3 
  351000    1.1967866   -5.2244568    222.38368  0.052797644  0.054698089            3 
  352000     1.204692   -5.2285183    222.76644  0.052738266  0.054690165            2 
  353000    1.2266603   -5.2149027    223.74121  0.052818982  0.054681595            1 
  354000    1.1913319   -5.1882858    223.91253  0.052710107  0.054673771            4 
  355000    1.1975753   -5.1940899     225.4289  0.052917583  0.054667558            2 
  356000    1.2166898   -5.2052524    226.12469  0.052931809  0.054660061            2 
  357000    1.1970865    -5.223082    226.98934  0.052985374  0.054653819            2 
  358000     1.205512   -5.2320768     227.0342  0.052847813   0.05464867            7 
  359000    1.1998038   -5.1903595    226.83423  0.052654186  0.054642759            2 
  360000    1.1513972   -5.1752849    229.32349  0.053084142  0.054638722            5 
  361000    1.1976756   -5.2056958    229.29708  0.052930997  0.054635351            3 
  362000    1.2053542   -5.2129196    229.18142  0.052758153  0.054629848            3 
  363000    1.1853591   -5.1868052    230.58282  0.052934531  0.054624916            2 
  364000    1.2009148   -5.2120549     231.7434  0.053054808  0.054620236            6 
  365000    1.2210238   -5.2448607    231.37594  0.052825558  0.054615176            3 
  366000      1.20688   -5.2202516    231.87607  0.052795098  0.054610168            5 
  367000    1.1825116   -5.2403033    232.39189  0.052768367  0.054605081            2 
  368000    1.1984732   -5.2424503    232.82979  0.052724136  0.054599828            3 
  369000    1.2108245   -5.2347842     234.1039  0.052868993  0.054593373            1 
  370000    1.2056499   -5.1852817    234.74788  0.052871143  0.054585852            4 
  371000    1.2063345   -5.2210948    234.18422  0.052602027  0.054577428            2 
  372000     1.194995   -5.1705856    235.39602  0.052732083  0.054569201            2 
  373000    1.2094756   -5.2172224    235.94849  0.052714139  0.054561111            2 
  374000    1.1754971   -5.2390116    236.15574  0.052619372  0.054553178            3 
  375000    1.2136926   -5.2342294    237.55281  0.052789513  0.054544839            2 
  376000    1.1842371   -5.2083478    238.73933  0.052912087  0.054537706            3 
  377000    1.1979472   -5.2606459    237.81805  0.052568092  0.054528381            2 
  378000    1.1929381   -5.1938533    239.25245   0.05274525  0.054519709            4 
  379000    1.1680437   -5.2346535    239.19871  0.052594262   0.05451151            4 
  380000    1.1909296   -5.1727591    241.05414   0.05286275  0.054503916            1 
  381000    1.2109846   -5.2631287    240.00316   0.05249413  0.054495595            5 
  382000    1.2056447   -5.2342144     240.8912  0.052550437  0.054487854            3 
  383000    1.2014663   -5.2245507     241.8817  0.052628743  0.054480524            2 
  384000    1.1957922   -5.1934852    242.66768  0.052662257  0.054472908            3 
  385000    1.1725646   -5.1931011    243.85774  0.052783061  0.054464855            3 
  386000    1.1893655   -5.2193507     244.0489  0.052687586  0.054455991            2 
  387000    1.1989304   -5.2317353    245.07211  0.052771773  0.054447805            2 
  388000    1.1791334   -5.2079656    245.21338  0.052666104  0.054439826            2 
  389000     1.154399   -5.2152017    246.21375   0.05274502  0.054432246            4 
  390000    1.1622503   -5.2311578     246.8313  0.052741732  0.054423843            5 
  391000     1.199519   -5.1982534    246.66477  0.052571349  0.054415625            2 
  392000    1.2033843   -5.2099028    247.58165  0.052632154  0.054407403            5 
  393000    1.1998567    -5.215705    247.90377  0.052566534  0.054401166            2 
  394000    1.1831273   -5.2483188    248.50796  0.052560905   0.05439181            5 
  395000    1.2036508   -5.2244155    249.44758  0.052626071  0.054383333            4 
  396000    1.1986864   -5.1749911    250.28098  0.052668556  0.054376635            3 
  397000    1.2172994   -5.2055093    251.43849  0.052778861  0.054369254            2 
  398000    1.1933832   -5.1991932    252.17678  0.052800832  0.054363079            6 
  399000    1.1852534   -5.2541912    252.67849  0.052773286  0.054354802            2 
  400000    1.1763024   -5.2099648    253.51389  0.052815394  0.054349032            2 
  401000    1.2026975   -5.2078367    253.33339  0.052646173  0.054342321            3 
  402000    1.1869731   -5.2523412    254.41729  0.052739902  0.054335832            3 
  403000     1.161451   -5.2085163     255.2535  0.052781947  0.054329457            2 
  404000    1.2089551   -5.2170603    256.49736  0.052907871  0.054324074            1 
  405000    1.1845688   -5.2484335    256.14523  0.052704779  0.054318728            2 
  406000    1.1865032   -5.2313261    257.07989  0.052766808     0.054313            2 
  407000    1.1719046   -5.2420353    256.44567  0.052507302  0.054306454            2 
  408000    1.1885775   -5.2139049    257.50864   0.05259572  0.054299398            2 
  409000    1.1722066   -5.1990177    258.94336  0.052759446  0.054293418            1 
  410000    1.1832276   -5.2216548    260.36931  0.052920592  0.054289393            2 
  411000    1.1627606   -5.2263002    260.59322   0.05283723  0.054284744            5 
  412000    1.2020253   -5.2503971    260.14374   0.05261807  0.054279401            5 
  413000    1.1756153   -5.2214825    262.32861   0.05293152  0.054273739            5 
  414000    1.1840351    -5.243455    262.40605  0.052819254  0.054268796            2 
  415000    1.1762966   -5.2196832    263.10672  0.052832674  0.054264183            2 
  416000    1.2126136   -5.2296358    263.22348  0.052729062   0.05425699            1 
  417000    1.1793025   -5.2395082    263.47239  0.052652356  0.054251114            4 
  418000    1.2045918   -5.2185812    263.30403   0.05249283  0.054245377            3 
  419000    1.1879256   -5.1901677    265.72714  0.052849471  0.054239617            6 
  420000    1.1802739   -5.2537978    265.56479  0.052691427  0.054233011            4 
  421000    1.2080328   -5.2113289    267.17885  0.052885759  0.054227244            2 
  422000     1.190595   -5.2129949    267.18101  0.052760862  0.054221036            2 
  423000    1.1824317   -5.2351655    267.66226  0.052730941  0.054215147            2 
  424000    1.2026233   -5.2165446    269.18776  0.052906399  0.054208873            5 
  425000    1.1777704   -5.2519957    268.47072  0.052641317  0.054201987            3 
  426000    1.1978979   -5.2082966    268.64154  0.052551161  0.054195063            3 
  427000    1.1949667   -5.2285654    269.25894  0.052548584  0.054187212            2 
  428000    1.1581556   -5.2459024    269.03777  0.052382744  0.054179484            6 
  429000    1.1998313   -5.2302604    271.51109  0.052741081  0.054172306            4 
  430000    1.2002785   -5.2087333    271.24494  0.052566849    0.0541647            4 
  431000    1.2126445   -5.2760589     270.4958   0.05230004  0.054156465            2 
  432000    1.1925417   -5.2381767    272.26214  0.052519703  0.054147791            2 
  433000    1.1627186   -5.2414233    272.38813  0.052422658  0.054139634            2 
  434000    1.2134966   -5.2122837    273.93322  0.052598544   0.05413052            2 
  435000    1.1912647   -5.1949426    274.56247  0.052598174  0.054120869            2 
  436000    1.1983957   -5.2749743     274.5457  0.052474331  0.054113026            5 
  437000    1.1698805   -5.2000731    276.19286  0.052668357  0.054106035            3 
  438000    1.1663821     -5.24412    274.73176  0.052270121  0.054096768            4 
  439000    1.1940896   -5.2443087    275.80935   0.05235561  0.054087671            2 
  440000    1.2103726   -5.2388146    277.20408  0.052500774  0.054078494            3 
  441000    1.1714583   -5.2715696    275.66249  0.052090418  0.054068197            4 
  442000     1.186168   -5.2032076    277.40217   0.05230056    0.0540582            1 
  443000    1.1943734   -5.2181044     278.6144  0.052410534  0.054048701            2 
  444000    1.1992812   -5.2235155    278.63821  0.052296961  0.054038297            3 
  445000    1.1827518   -5.2721995    278.44411  0.052143091   0.05402759            5 
  446000    1.1975527   -5.2520045    279.10539  0.052149737  0.054015543            2 
  447000    1.1673124   -5.2486511    280.40452  0.052275264  0.054004816            4 
  448000    1.1794722   -5.2084057    281.11015  0.052289834  0.053993695            2 
  449000    1.1959288   -5.2358726    281.87305  0.052314968   0.05398291            3 
  450000    1.1747215   -5.2594159    282.21225  0.052261528  0.053972214            3 
  451000    1.1834886   -5.2365991    283.91471  0.052460219  0.053962179            3 
  452000    1.1750824   -5.2778235    284.34486  0.052423462  0.053951634            4 
  453000    1.1751158   -5.2376097    283.92443  0.052230396  0.053940325            2 
  454000    1.1547516   -5.2308067    284.26765  0.052178349  0.053929099            2 
  455000    1.1932781   -5.2197446    285.71758  0.052329227  0.053919496            3 
  456000    1.1739744   -5.2332857    285.25439  0.052129822  0.053908876            6 
  457000    1.1645599   -5.2614187    287.55746  0.052435714  0.053899314            2 
  458000    1.1727654   -5.2584165    286.89798  0.052201234  0.053890163            6 
  459000    1.1830847   -5.2243656    287.75876  0.052243783  0.053880876            2 
  460000    1.1800017   -5.2541479    288.57641  0.052278335  0.053870663            2 
  461000    1.2047846    -5.212895    288.59331  0.052167988  0.053860209            1 
  462000    1.1597282   -5.2131118    291.28761  0.052541055    0.0538501            3 
  463000    1.1960227   -5.2263556     290.6339  0.052309916   0.05383963            1 
  464000     1.166617   -5.2565134    290.44153  0.052162631  0.053828419            2 
  465000    1.1932687   -5.2579744    290.46835   0.05205526  0.053817351            1 
  466000    1.2043036   -5.2729429     292.2032  0.052253791  0.053806408            3 
  467000     1.187047   -5.2195562    291.72364  0.052056325  0.053796035            3 
  468000    1.1603522   -5.2647141    294.24469  0.052393997   0.05378724            4 
  469000    1.1631709   -5.2628452    293.55221   0.05215924  0.053778134            2 
  470000    1.1808219   -5.2537697    294.79064  0.052267844  0.053768647            3 
  471000    1.1382202   -5.2551208    295.75783  0.052327995  0.053760053            2 
  472000    1.1819475   -5.2971957    294.52959   0.05200028  0.053750606            2 
  473000     1.151744   -5.2615884    294.88848  0.051953573  0.053741973            4 
  474000    1.1544862   -5.1858012    297.84521  0.052363785  0.053732979            2 
  475000    1.1599545   -5.2476868    297.73975  0.052235044  0.053724155            3 
  476000    1.1759865   -5.1878238    299.10806  0.052364856  0.053715023            2 
  477000    1.1766082    -5.274358    298.89866  0.052218494  0.053707698            2 
  478000     1.169128   -5.2831924    298.07327  0.051965354  0.053698579            1 
  479000    1.1861835   -5.2110223    300.35469  0.052253774   0.05368999            3 
  480000    1.1813711   -5.2439181    300.52674  0.052174782  0.053680319            2 
  481000    1.1755232    -5.253104    301.53808  0.052241525  0.053671037            3 
  482000    1.1763846   -5.2768773    301.71774  0.052164201  0.053661244            3 
  483000    1.1759348   -5.2515237    301.37566  0.051997182  0.053651228            2 
  484000    1.1509761   -5.2567331    301.94677  0.051988081  0.053640175            3 
  485000    1.1845298   -5.2565509    301.41628  0.051789739   0.05362934            3 
  486000     1.146941   -5.2217962    303.60485  0.052058445  0.053618439            2 
  487000    1.1711666   -5.2797329    302.42972  0.051750465  0.053606624            2 
  488000    1.1673916    -5.216329    305.74219  0.052210073  0.053595269            5 
  489000    1.1705348    -5.230772    306.28988  0.052196639  0.053585645            3 
  490000    1.1816049   -5.2468702    305.76339  0.052000577   0.05357557            6 
  491000    1.1923782   -5.2352905     305.8742  0.051913477  0.053564315            1 
  492000    1.2036084   -5.2764362    307.24944  0.052040894  0.053553717            3 
  493000    1.1737883   -5.2258281    307.39078  0.051959225  0.053543603            2 
  494000    1.1794354   -5.2148837    308.90252  0.052109062  0.053533463            2 
  495000    1.1670735   -5.2450855    310.04242  0.052195693  0.053524128            2 
  496000    1.1785585   -5.2641891    309.22499  0.051953123  0.053513696            4 
  497000    1.1945514   -5.2244909    311.34151  0.052203472  0.053504136            2 
  498000    1.1719618   -5.2468134    311.50199    0.0521255  0.053494298            3 
  499000    1.1834577   -5.2304801    312.53598  0.052193718  0.053486418            2 
  500000    1.1441403   -5.2353759    313.96787  0.052327979  0.053479878            1 
  501000    1.1439829   -5.2264185    313.91357    0.0522145  0.053472062            3 
  502000    1.1605801   -5.2022567    314.90753  0.052275487  0.053464288            3 
  503000    1.1625583   -5.2647928    314.05584  0.052030457  0.053456788            2 
  504000    1.1649519   -5.2416936    315.33227  0.052138272  0.053448782            5 
  505000    1.1517015   -5.2210703    316.33634  0.052200717  0.053440749            2 
  506000    1.1691246   -5.2438553    316.13703  0.052064728  0.053432506            2 
  507000    1.1778453    -5.285239    316.25037  0.051980666   0.05342518            3 
  508000    1.1748959   -5.2253555    318.11399  0.052184053  0.053415587            2 
  509000    1.1921517   -5.2469243    317.39804  0.051964316  0.053406633            2 
  510000    1.1600133   -5.2220819    318.11633  0.051979793  0.053397876            2 
  511000    1.1661808   -5.2715306     318.9926  0.052020973  0.053388048            2 
  512000    1.1647305   -5.2288414    320.91969  0.052233022  0.053379347            1 
  513000    1.1605114   -5.2273706    321.31511  0.052195438  0.053371102            2 
  514000    1.1786382   -5.2499754    321.86123   0.05218243  0.053364127            2 
  515000    1.1794816    -5.214662    322.45287   0.05217684  0.053356981            2 
  516000    1.2011668   -5.2622114    321.87674  0.051982678  0.053348735            2 
  517000    1.1697832   -5.2221794     323.6425  0.052166747  0.053340184            3 
  518000    1.1678403   -5.2731444    322.69393  0.051913438  0.053332387            4 
  519000    1.1651301   -5.2421442     323.7104  0.051976622  0.053324252            6 
  520000    1.1629152   -5.2758501    324.65019  0.052027274  0.053315275            3 
  521000    1.1670853    -5.212661    325.43151  0.052052384  0.053306216            6 
  522000    1.1731253   -5.2383176    326.05226  0.052051766  0.053297898            2 
  523000    1.1596154   -5.2395448    326.84987  0.052079329   0.05328867            2 
  524000    1.1699308   -5.2429243    326.47817  0.051920829  0.053279053            2 
  525000    1.1730073   -5.2768976      326.949  0.051896666  0.053271068            3 
  526000    1.1476295   -5.2751916    328.22455  0.052000087  0.053262315            2 
  527000    1.1758617   -5.2855387    328.08468  0.051879298  0.053254293            5 
  528000    1.1781884   -5.2619774    328.82653  0.051898127  0.053245806            4 
  529000    1.1784156   -5.2942754    330.05518  0.051993569  0.053236068            1 
  530000    1.1784792   -5.2691094    329.45981  0.051801857  0.053226786            4 
  531000    1.1420286   -5.2609123     329.3677  0.051689847  0.053216953            3 
  532000    1.1856524   -5.2589546    331.81134  0.051975461  0.053206972            2 
  533000    1.1654931   -5.2785829    331.34645  0.051805262  0.053198593            2 
  534000    1.1877942   -5.2097489    333.09208  0.051980662   0.05319058            3 
  535000    1.1631331   -5.2018982    334.82597  0.052153577   0.05318325            1 
  536000    1.1650428   -5.2625332     333.7857  0.051894543  0.053175533            2 
  537000    1.1617416    -5.297722    334.51426  0.051910965  0.053167389            3 
  538000    1.1536068    -5.258903    334.53025  0.051816952  0.053159798            3 
  539000    1.1679812   -5.2481076    337.09954  0.052118049  0.053153005            3 
  540000    1.1518073   -5.3090422    337.14985  0.052029297  0.053146969            6 
  541000    1.1766577   -5.2656021    339.73231  0.052330916  0.053140802            1 
  542000    1.1878213   -5.2916314    337.95153  0.051960567  0.053134745            2 
  543000    1.1422911   -5.2922148    339.20545  0.052057313  0.053128595            3 
  544000     1.183875   -5.2886593    339.71215  0.052039239  0.053123671            3 
  545000    1.1617711   -5.2687564    340.87408   0.05212142  0.053117585            3 
  546000    1.1625603   -5.2532554    340.50432  0.051969523  0.053109877            4 
  547000    1.1689084    -5.302985    340.66215  0.051898561  0.053102631            1 
  548000    1.1594678   -5.2899263    342.04348  0.052013911  0.053095346            2 
  549000    1.1551408   -5.3128898     341.5448  0.051843473  0.053088295            2 
  550000    1.1503841   -5.3060581    343.83189  0.052095741  0.053081577            5 
  551000    1.1399884   -5.2611042    344.29416  0.052071108  0.053075584            2 
  552000    1.1580108   -5.2940624    344.14711  0.051954575  0.053068484            4 
  553000    1.1465662   -5.2902771    345.51755  0.052067142  0.053061738            3 
  554000    1.1702378   -5.2539897    345.44603  0.051962399  0.053054456            2 
  555000    1.1530776   -5.2525041    346.07617  0.051963389   0.05304799            3 
  556000    1.1525835   -5.2619776    346.65368  0.051956487  0.053040053            6 
  557000    1.1713715   -5.2492057    346.71393  0.051872221  0.053031417            2 
  558000    1.1993065   -5.3160556    346.11793  0.051690253  0.053023581            2 
  559000     1.172953    -5.248905    347.69737  0.051833239  0.053017046            3 
  560000    1.1785422   -5.2864444    348.29437  0.051829519  0.053009346            2 
  561000    1.1420815   -5.2344661    350.38999  0.052048424  0.053002562            4 
  562000    1.1720607   -5.2770735    348.90317  0.051735345  0.052994835            2 
  563000    1.1926202   -5.2179794    350.87635  0.051935517  0.052987479            3 
  564000    1.1591564   -5.2780284    350.87742   0.05184359  0.052979986            3 
  565000    1.1601991   -5.2889978    349.57171   0.05155925  0.052971167            4 
  566000    1.1760226   -5.2864129    351.08964  0.051691643  0.052962782            1 
  567000    1.1566173   -5.2437454    352.04536  0.051740941  0.052953676            2 
  568000    1.1502292   -5.2819092    351.84365  0.051620253  0.052943909            1 
  569000    1.1591889   -5.2535837    354.53797  0.051924131  0.052936086            1 
  570000    1.1581561   -5.2356056    355.08715  0.051913326  0.052928841            2 
  571000    1.1626439    -5.273992    353.28153  0.051558892  0.052920235            5 
  572000    1.1659379   -5.2755289    352.98983  0.051426257  0.052911009            2 
  573000    1.1513814   -5.3303284    354.51884  0.051558877  0.052901545            2 
  574000    1.1506319   -5.2885331    355.93714  0.051674962  0.052892833            2 
  575000    1.1748005   -5.2892389    357.68318  0.051838142  0.052883865            2 
  576000    1.1653517   -5.2677875    357.58907  0.051734529  0.052874924            2 
  577000    1.1521632   -5.3144837    356.95554  0.051553371  0.052866642            2 
  578000    1.1634156   -5.2876702    357.37343  0.051524427  0.052857672            2 
  579000    1.1335043   -5.2892232    358.83007  0.051645087  0.052848864            1 
  580000    1.1702199   -5.2892484    361.01621  0.051870145  0.052840949            2 
  581000     1.160231   -5.2802026    360.85352  0.051757534  0.052833992            3 
  582000    1.1711631   -5.2835128    361.68547  0.051787725  0.052826362            2 
  583000    1.1562118   -5.2581679    364.07894  0.052041014  0.052819894            1 
  584000     1.168479   -5.2710918    363.13805  0.051817644  0.052813308            3 
  585000    1.1665223   -5.2928361     362.5841  0.051650157  0.052806183            3 
  586000    1.1641895   -5.2935832    363.49357  0.051691349  0.052798822            3 
  587000    1.1583955   -5.2989048    363.79096  0.051645508   0.05279127            4 
  588000    1.1775253   -5.3142622    363.15528  0.051467586  0.052783884            2 
  589000    1.1706099   -5.2449871    365.63355  0.051730836  0.052776324            2 
  590000    1.1654048   -5.2870771    364.75059  0.051518445  0.052769581            4 
  591000    1.1784169   -5.2962632     365.5088  0.051538184   0.05276076            2 
  592000    1.1540372   -5.2728979    367.51453  0.051733464  0.052753214            1 
  593000    1.1849454   -5.2291847    368.61669  0.051801109  0.052745449            3 
  594000    1.1722549   -5.3100111    368.93312  0.051758293  0.052738099            6 
  595000    1.1422646   -5.2840006    368.58393  0.051622399  0.052730352            2 
  596000    1.1457784   -5.2722745    369.77816  0.051702763  0.052722819            3 
  597000       1.1472    -5.300375    370.02459  0.051650557  0.052715306            2 
  598000    1.1396746   -5.2613233    370.95369  0.051693658  0.052707807            2 
  599000    1.1597298   -5.2695684    371.77356  0.051721419  0.052700817            3 
  600000     1.168362   -5.2974635    370.09724  0.051402395  0.052692147            3 
  601000    1.1607437   -5.2800632    372.00902   0.05158195  0.052683907            2 
  602000    1.1393074   -5.3109681    372.77223  0.051601914  0.052675122            4 
  603000    1.1671466   -5.2110177    373.68508  0.051642494  0.052666434            1 
  604000    1.1712114    -5.263458    375.05097  0.051745443  0.052658712            4 
  605000    1.1615648   -5.2915433    375.27684  0.051691024  0.052650704            2 
  606000    1.1346602   -5.2924335    373.98654  0.051428292  0.052642126            4 
  607000    1.1526358   -5.3028524    374.27462  0.051383116  0.052633214            2 
  608000    1.1500348   -5.2792756    375.78259  0.051505289  0.052623337            2 
  609000    1.1283345   -5.2887124    374.22026  0.051206933  0.052613112            1 
  610000    1.1563676   -5.2928882    375.11797  0.051245624  0.052602996            4 
  611000     1.146233   -5.2813447    377.74428  0.051519951  0.052592297            2 
  612000     1.143824   -5.3036424    374.85463  0.051042298  0.052581493            1 
  613000    1.1502523    -5.280687    376.67823  0.051206937  0.052571019            3 
  614000    1.1407275   -5.2843031    377.06983  0.051176688  0.052559068            4 
  615000    1.1568561   -5.2780178    377.84997  0.051199182  0.052547308            3 
  616000    1.1935452   -5.2510756     379.5208    0.0513421  0.052536756            2 
  617000    1.1662768   -5.2647828    379.81721  0.051298921  0.052526648            1 
  618000    1.1308316   -5.2868346    379.76029  0.051208238    0.0525165            2 
  619000    1.1471278   -5.2740794    381.49338  0.051358829  0.052506696            5 
  620000    1.1379624   -5.2533595    381.54715  0.051283219  0.052496979            2 
  621000    1.1791178   -5.3011013    381.85782  0.051242326  0.052486773            5 
  622000    1.1521345    -5.278537    382.64982  0.051266054  0.052477103            2 
  623000    1.1370819    -5.312739    382.11831  0.051112668  0.052466478            1 
  624000     1.149555   -5.2870564    383.73318  0.051246419  0.052456388            3 
  625000    1.1496851    -5.302079    384.12252  0.051216336  0.052446684            4 
  626000    1.1652259   -5.2836093    383.79168  0.051090479  0.052436109            2 
  627000    1.1454821   -5.3005298    386.21136   0.05133059  0.052426082            2 
  628000     1.142667   -5.2962699    384.94949  0.051081408    0.0524161            6 
  629000     1.130225   -5.2870136    387.24821  0.051304745  0.052405695            3 
  630000    1.1334931   -5.3003954    387.32333  0.051233245  0.052395955            7 
  631000    1.1453723   -5.2534782    387.66248  0.051196841  0.052385689            2 
  632000    1.1409544   -5.3163362     386.3524   0.05094309  0.052374865            3 
  633000    1.1333789   -5.2768995    389.55474  0.051284194   0.05236431            2 
  634000    1.1677721   -5.2946427    388.36626   0.05104709  0.052353913            2 
  635000    1.1460621   -5.2992746    388.70375   0.05101099  0.052343544            3 
  636000    1.1322011   -5.3246335    389.77742  0.051071465  0.052333346            2 
  637000    1.1477007   -5.2604322    390.51022  0.051087155  0.052323223            1 
  638000    1.1086247   -5.3124912    390.42541  0.050996005  0.052312563            3 
  639000    1.1637929   -5.2663421     391.7013   0.05108259  0.052301616            5 
  640000    1.1685948   -5.3285166    390.91575  0.050900488  0.052290508            2 
  641000    1.1792633   -5.2731278    392.51966  0.051029597   0.05227908            9 
  642000    1.1364412   -5.2943752    393.59246  0.051089364  0.052268111            2 
  643000    1.1392784   -5.2890505    393.31717  0.050974232  0.052257571            2 
  644000    1.1531245   -5.2914947    395.53316  0.051181827  0.052247284            5 
  645000     1.163403   -5.3177368    395.34521  0.051078192  0.052236427            2 
  646000    1.1217831   -5.2752304    395.36489  0.051001663  0.052225983            2 
  647000    1.1450389   -5.3147307    396.40765  0.051057142  0.052215519            3 
  648000    1.1289637   -5.2470389    398.08316  0.051193822  0.052206193            3 
  649000     1.153651   -5.2762887     399.4562  0.051291243  0.052196887            1 
  650000    1.1138095    -5.276036    400.15186   0.05130152  0.052188137            3 
  651000     1.154737   -5.3031932    399.79845  0.051177477  0.052178656            3 
  652000    1.1571026   -5.2959939    400.60185  0.051201668  0.052169712            3 
  653000    1.1673114   -5.3126898    399.72143  0.051010902  0.052160286            3 
  654000    1.1624021   -5.2582841     402.1676  0.051244597  0.052151046            3 
  655000    1.1423355   -5.3012479    401.55167  0.051087999  0.052142437            4 
  656000      1.13147   -5.2873259    401.85974  0.051049256  0.052132751            3 
  657000    1.1370421   -5.2817447    402.84378  0.051096369  0.052123796            2 
  658000     1.148103    -5.319482     402.2378   0.05094197  0.052114182            5 
  659000    1.1471532   -5.2719921    402.77299  0.050932345  0.052103623            5 
  660000    1.1480208   -5.3068703    403.23107  0.050913014  0.052093146            4 
  661000    1.1697826   -5.2681891    405.12606  0.051074895  0.052083572            1 
  662000     1.142035   -5.2735959    405.78605  0.051080822  0.052073931            3 
  663000    1.1364549   -5.2868197    406.10492  0.051043856  0.052063888            2 
  664000    1.1407183    -5.332716    405.11215  0.050842389   0.05205393            2 
  665000    1.1184039   -5.3238994    407.49458  0.051064484  0.052044302            4 
  666000    1.1340014   -5.2894358    407.65618   0.05100803  0.052035097            5 
  667000    1.1508613   -5.2918744     406.6499  0.050805835   0.05202588            1 
  668000     1.151719   -5.2714711    409.65772  0.051105006  0.052016223            2 
  669000    1.1258818   -5.3197602    409.20443  0.050972151  0.052006802            2 
  670000    1.1602302   -5.3286213    409.36514  0.050916062  0.051997748            3 
  671000    1.1239786   -5.3374849    410.50385  0.050981601  0.051989087            3 
  672000    1.1314516    -5.273585    411.56582  0.051037428  0.051980585            3 
  673000    1.1315484   -5.2804147    412.84681  0.051120209  0.051971657            3 
  674000    1.1573607    -5.360026    410.13564  0.050709154  0.051963405            4 
  675000    1.1549061   -5.2837869    412.97454  0.050984511  0.051954803            3 
  676000    1.1578337   -5.2661013     415.9866  0.051280399  0.051946343            5 
  677000    1.1504262   -5.3171248    413.14655  0.050855066  0.051938347            2 
  678000    1.1410462   -5.2798085    414.51711  0.050948514  0.051930678            2 
  679000    1.1595396   -5.2874281    415.19626  0.050956831  0.051922003            2 
  680000    1.1521092   -5.3170935     417.0228  0.051105735  0.051914154            2 
  681000     1.168397   -5.2950722    416.90315  0.051016049  0.051906237            4 
  682000    1.1434037   -5.2864641    417.22682  0.050980794  0.051897643            2 
  683000    1.1477566   -5.3309818    417.18397  0.050900923  0.051888621            3 
  684000    1.1285251   -5.3010301    417.02086  0.050806635  0.051879682            4 
  685000      1.17634    -5.316134    416.38367  0.050654947   0.05187092            3 
  686000    1.1639356   -5.2813453    418.82258  0.050877379  0.051862544            2 
  687000     1.134677   -5.3054072    419.24625  0.050854712  0.051853422            3 
  688000    1.1205706    -5.297322    419.58811  0.050822203  0.051844054            2 
  689000    1.1256727   -5.3324015    419.86698  0.050782169  0.051835135            4 
  690000     1.156023   -5.3362483    420.31625  0.050762832  0.051826183            2 
  691000    1.1511716   -5.3140031    420.64747  0.050729314  0.051816411            4 
  692000    1.1424643   -5.3330197    420.03888  0.050582717  0.051806534            5 
  693000    1.1509361   -5.2998909    422.34846  0.050787453  0.051796555            2 
  694000     1.131303   -5.3215689    421.63485  0.050628585  0.051786573            2 
  695000    1.1342935   -5.3041116    423.69671  0.050802963  0.051776811            2 
  696000    1.1184609   -5.3392805    423.45504  0.050701035  0.051767852            3 
  697000    1.1487815     -5.32559    424.14473  0.050710752   0.05175821            2 
  698000    1.1545352   -5.3259285    425.85911  0.050842778  0.051749447            6 
  699000    1.1190021   -5.3012265    427.60354  0.050978009  0.051741422            4 
  700000    1.1369475   -5.3306458    427.90235  0.050940755   0.05173303            3 
  701000    1.1076623   -5.3483537    426.98857  0.050759459  0.051724265            4 
  702000    1.1307554   -5.3200608    428.14408   0.05082432  0.051715714            5 
  703000    1.1304407   -5.3344498    427.45783  0.050670677  0.051706224            2 
  704000    1.1320608   -5.2718096    430.75389   0.05098886   0.05169715            1 
  705000    1.1504217   -5.2991837    428.98844  0.050707853  0.051687871            2 
  706000    1.1529422   -5.2742402    431.70004  0.050956095  0.051679009            3 
  707000    1.1418375   -5.3292795    429.38048  0.050610617  0.051670213            5 
  708000    1.1250587   -5.3258321    430.37866  0.050656622  0.051660992            8 
  709000    1.1411829   -5.2734632     431.6257  0.050731747  0.051652332            1 
  710000     1.151028   -5.2762731    432.65162  0.050780707   0.05164371            2 
  711000    1.1094642   -5.2961606     433.5743  0.050817428  0.051635225            4 
  712000    1.1200463   -5.2806572    434.79058   0.05088841  0.051626604            2 
  713000    1.1103868   -5.2991329    435.10144  0.050853371  0.051618399            4 
  714000    1.1447435    -5.329731    435.58274  0.050838322  0.051610301            5 
  715000    1.1528922   -5.3199353    436.20819  0.050840115  0.051602567            2 
  716000    1.1343068   -5.2932162    436.13576  0.050760679  0.051595124            3 
  717000     1.151072    -5.308852    438.42302  0.050955721  0.051588391            3 
  718000    1.1334179   -5.3465713    436.99969  0.050719555  0.051581061            8 
  719000    1.1287416   -5.3315272     439.5458  0.050944112  0.051573634            1 
  720000    1.1304131   -5.3064998    439.39201  0.050855556  0.051567011            2 
  721000    1.1321214   -5.3273961    440.59711  0.050924308  0.051560001            5 
  722000    1.1171814    -5.339488    439.27357  0.050701013  0.051552211            2 
  723000    1.1543064   -5.3463429    438.73804   0.05056916  0.051544259            3 
  724000    1.1403019   -5.3352812    440.51549  0.050703901   0.05153593            5 
  725000     1.123824   -5.2863693     442.4069  0.050851368  0.051528006            4 
  726000    1.1408022   -5.2799739    442.93124   0.05084151  0.051520787            1 
  727000    1.1355379   -5.3550751     440.1968  0.050458139  0.051512456            5 
  728000    1.1416005    -5.310679    443.43195  0.050759152  0.051503813            2 
  729000    1.1671877   -5.3511483    442.06387  0.050533135  0.051495949            2 
  730000    1.1143603   -5.3454944    441.65737  0.050417508  0.051486637            2 
  731000    1.1578683   -5.2998252    444.38096  0.050659024  0.051477865            2 
  732000    1.1434938   -5.3091608    444.14968  0.050563488  0.051468884            2 
  733000    1.1304874   -5.3574254    443.56486  0.050428019  0.051459854            6 
  734000    1.1466308   -5.3546102    443.30532  0.050329851  0.051450234            3 
  735000    1.1340127   -5.3639643    443.75623  0.050312498  0.051440285            4 
  736000    1.1367309   -5.3300675    444.77372  0.050359343  0.051430418            3 
  737000    1.1411507   -5.3304339    445.68843   0.05039444  0.051420848            2 
  738000    1.1340007   -5.3125247    446.48322  0.050415901  0.051410806            3 
  739000    1.1477692   -5.3623493    446.28939  0.050325822  0.051401038            3 
  740000    1.1589669   -5.3297421    444.25824  0.050029081  0.051390221            3 
  741000    1.1324751    -5.336995    446.43518  0.050206385  0.051379663            2 
  742000    1.1440061   -5.3505933    446.93514  0.050194872  0.051368844            3 
  743000    1.1389936   -5.3192967    447.93803  0.050239797  0.051357685            6 
  744000    1.1492732   -5.3334252    448.62737  0.050249481  0.051347458            2 
  745000    1.1310763   -5.3380273     449.2601  0.050252808  0.051337077            1 
  746000    1.1408427   -5.3462524    448.91229  0.050146591  0.051325787            2 
  747000    1.1290124   -5.2944034    450.40516  0.050246002  0.051314899            3 
  748000    1.1236692   -5.2931919    450.48555  0.050187784  0.051303754            2 
  749000     1.133057   -5.3435427    450.06482  0.050073968  0.051292534            1 
  750000    1.1012868   -5.3357795    450.20399  0.050022666  0.051281093            2 
  751000     1.127476   -5.3410289    450.88693  0.050031839  0.051269591            5 
  752000    1.1380027   -5.3111221    451.76769  0.050062909  0.051257818            2 
  753000    1.1357981   -5.3294028    451.45581  0.049961909   0.05124562            3 
  754000    1.1196992   -5.3326675    451.27824  0.049876021  0.051233568            3 
  755000    1.1385589    -5.320279    452.02883  0.049892807  0.051221338            2 
  756000    1.1331541   -5.3493319    453.45324  0.049983823  0.051209244           13 
  757000    1.1078999   -5.3591334    452.84402  0.049850728   0.05119707            3 
  758000    1.1303369   -5.3375213    454.46676  0.049963364   0.05118541            3 
  759000    1.1365284   -5.3248606     456.6349  0.050135584  0.051174473            3 
  760000    1.1065772   -5.3303241    458.08913  0.050229071  0.051163484            8 
  761000    1.1317121   -5.3062976    456.86564  0.050029089  0.051152503            2 
  762000    1.1813744   -5.3544831     455.8187  0.049848939  0.051140631            2 
  763000    1.1159892   -5.3233172    457.32241  0.049947838  0.051129349            7 
  764000     1.138897    -5.360143    456.83218   0.04982899  0.051117645            2 
  765000    1.1161175   -5.3328307    458.89928  0.049989028  0.051105842            2 
  766000    1.1042961   -5.3180526    459.95626  0.050038757  0.051094793            3 
  767000    1.1143428   -5.3188909    459.73419  0.049949391  0.051083466            5 
  768000    1.1263764   -5.3591032    460.05054  0.049918679  0.051073212            2 
  769000    1.1303205   -5.3476833    461.03071  0.049959982  0.051061372            2 
  770000    1.1582264    -5.335841     459.9195  0.049774838  0.051049693            2 
  771000    1.1183922   -5.3435005    460.47771  0.049770613  0.051037884            2 
  772000    1.1057798    -5.330952    461.85822  0.049855161  0.051026094            3 
  773000    1.0929832   -5.3375592    463.55403  0.049973483  0.051015223            5 
  774000    1.1290876   -5.3569737    462.85373   0.04983352  0.051004474            3 
  775000    1.1037121   -5.3718931    462.76774  0.049759972  0.050993902            3 
  776000    1.1208564   -5.3286324    465.59203  0.049999144  0.050983344            1 
  777000    1.1322247   -5.3895614    464.27176  0.049793196  0.050972514            3 
  778000     1.124831   -5.3075613    466.66284  0.049985309  0.050962171            2 
  779000    1.1031163   -5.3458287    466.95358  0.049952245  0.050952033            5 
  780000    1.1395276   -5.3464364    468.19884  0.050021243   0.05094175            3 
  781000    1.1386466   -5.3130923    470.36797  0.050188643  0.050931451            4 
  782000    1.1259436   -5.3444596     467.5841  0.049827803  0.050921529            2 
  783000    1.1110592   -5.3448192     467.6237   0.04976838  0.050911323            2 
  784000    1.1253311   -5.3711996    469.40896   0.04989466  0.050901473            3 
  785000     1.130214   -5.3316674    471.38264   0.05004062  0.050891959            3 
  786000    1.1075515   -5.3860349    469.79165  0.049808275  0.050882327            3 
  787000    1.0981103   -5.3438746    471.50062  0.049925945  0.050872603            2 
  788000    1.1432578   -5.3096611     473.1408  0.050036041  0.050863922            2 
  789000    1.1265616   -5.3518409    474.19166  0.050083614  0.050854557            2 
  790000    1.1145116   -5.3270264    475.26866  0.050133825  0.050845753            2 
  791000     1.124416   -5.3801863     473.5316  0.049887442  0.050836422            2 
  792000    1.1383592    -5.334816    472.53465  0.049719555   0.05082647            2 
  793000    1.1063935   -5.3503769    474.01371  0.049812285  0.050816645            6 
  794000    1.1133323   -5.3463722    475.66594  0.049922957  0.050806823            3 
  795000    1.1136096   -5.3224507    476.77765  0.049976693  0.050797415            2 
  796000    1.1458473   -5.3704161    476.05696  0.049838459  0.050787752            3 
  797000    1.1161498   -5.3356767    476.97933  0.049872369  0.050777815            4 
  798000    1.1119691   -5.3503367    477.37806   0.04985151  0.050767948            1 
  799000    1.1477019   -5.3595214    476.14681  0.049660701   0.05075833            4 
  800000    1.1190408   -5.3350648    479.19389   0.04991603  0.050748711            2 
  801000    1.1410517   -5.3045037    478.54904  0.049786625  0.050739123            2 
  802000    1.1095293   -5.3378727    480.73756  0.049951949  0.050729639            1 
  803000    1.1318485   -5.3413314     480.3868  0.049853342  0.050719411            3 
  804000    1.1221725   -5.3788232    477.68924  0.049511737  0.050709066            4 
  805000    1.1300753   -5.3577791    479.93616  0.049682832  0.050698826            2 
  806000    1.1526882   -5.3510526    481.25046  0.049757078  0.050689085            2 
  807000    1.1034382   -5.3520719    482.27228  0.049800937  0.050679324            5 
  808000    1.1372158   -5.3422769    482.84243  0.049798106  0.050670153            3 
  809000     1.114478    -5.357466    482.74527  0.049726542  0.050660142            2 
  810000    1.1212626   -5.3255572    483.33248  0.049725564  0.050650877            2 
  811000    1.1407065   -5.3585509    484.33502  0.049767264  0.050640621           10 
  812000    1.1442276   -5.3958901    483.74134  0.049645047  0.050629869            4 
  813000    1.1177889   -5.3843101    483.85254  0.049595381  0.050619495            3 
  814000    1.1079577   -5.3474223    485.63307  0.049716736  0.050608908            2 
  815000     1.106425   -5.3995889    483.56385  0.049444157  0.050598206            4 
  816000    1.1176711   -5.3249401    487.86229  0.049822538  0.050587925            3 
  817000    1.1307413   -5.4001934    484.55305  0.049424016  0.050577394            1 
  818000    1.1196317   -5.3656875    484.80574  0.049389338  0.050566541            2 
  819000     1.109991   -5.3504694    485.02298  0.049351137  0.050556057            2 
  820000    1.1000385   -5.3572972    486.45633  0.049436619  0.050545153            4 
  821000    1.1195527    -5.315945    488.36408  0.049570045  0.050534371            2 
  822000    1.1225266   -5.3143995    489.04357  0.049578626   0.05052422            4 
  823000    1.1044137   -5.3555454    488.25707  0.049438747  0.050513724            1 
  824000    1.1012866   -5.3805215    487.47413  0.049299568  0.050502553            4 
  825000    1.0890757   -5.3602782    488.72585  0.049366247  0.050491464            3 
  826000    1.1039162   -5.3329608     489.3585  0.049370309  0.050480705            3 
  827000    1.1306594   -5.3627019    489.40029  0.049314821  0.050469134            2 
  828000    1.1284121    -5.373323    488.02156  0.049116502  0.050457672            8 
  829000    1.1180263   -5.3891007    489.76993  0.049233004  0.050445638            3 
  830000    1.1119871   -5.4135233    490.32403   0.04922932  0.050433551            3 
  831000    1.1079018     -5.34888    492.75791  0.049414151  0.050422674            4 
  832000     1.110834   -5.3020054    494.31984  0.049511202  0.050411899            3 
  833000    1.1141984   -5.3715455    492.27379  0.049247078  0.050400959            2 
  834000    1.1318668   -5.3675567    494.56378  0.049416844  0.050389584            5 
  835000    1.1012857   -5.3768377     493.0292  0.049204511  0.050377882            2 
  836000    1.1322192   -5.3538323    493.30401  0.049173047   0.05036652            3 
  837000     1.145181   -5.3949011     493.9941  0.049183005  0.050354968            3 
  838000     1.096535   -5.3567264    494.16405  0.049141214  0.050343064            2 
  839000    1.0895684   -5.3753478    493.85659  0.049052104  0.050330694            4 
  840000    1.1204907   -5.3479971      495.984  0.049204762  0.050318743            4 
  841000    1.1333249   -5.3385138    497.20716  0.049267456  0.050306779            3 
  842000    1.0956772   -5.3604307    494.81779  0.048972466  0.050294331            6 
  843000    1.1381086    -5.357919    496.73447  0.049103842  0.050281743            3 
  844000    1.1096795   -5.3725892    495.25903  0.048899983  0.050269091            2 
  845000    1.1205898   -5.3612683    496.26684  0.048941503  0.050256166            3 
  846000      1.09245    -5.396168    495.62319  0.048820251  0.050242877            5 
  847000    1.1313019   -5.3661914    498.97868  0.049092747   0.05022951            2 
  848000    1.1231726   -5.3473497    498.44954  0.048982856  0.050216519            4 
  849000    1.1138304   -5.3709664    498.65869   0.04894569  0.050203278            2 
  850000     1.143035   -5.3927684    499.64545  0.048984848  0.050189839            2 
  851000    1.1367111   -5.3576251    500.25634  0.048987107  0.050177051            3 
  852000    1.1135175    -5.403236    499.98977  0.048903538  0.050163874            2 
  853000    1.1483173   -5.3768026     499.3351  0.048782248  0.050149967            3 
  854000    1.0997016   -5.3676361    500.06728  0.048796573  0.050136174            2 
  855000    1.0884303   -5.3732127    499.96112  0.048729154  0.050122935            3 
  856000    1.1131598   -5.3892822    498.85474  0.048564519  0.050109722            6 
  857000    1.1385238   -5.3444512    500.67386  0.048684739  0.050096253            3 
  858000    1.0924434   -5.3723427    502.57396  0.048812545  0.050083173            2 
  859000    1.1278222   -5.3548669    503.27404  0.048823636  0.050070311            3 
  860000    1.1052898    -5.356349    504.38824   0.04887483  0.050057607            3 
  861000    1.1199998   -5.3364215    506.35633   0.04900855  0.050044914            1 
  862000     1.121872   -5.3763167    505.63725  0.048882178   0.05003221            5 
  863000    1.1074922    -5.360538    505.79622  0.048840886  0.050019989            3 
  864000    1.1105189   -5.3778256    506.56336  0.048858349   0.05000722            2 
  865000    1.1001658   -5.3724583    505.85559  0.048733679  0.049994588            2 
  866000    1.1037069   -5.3297519     507.6166  0.048846863  0.049982056            2 
  867000     1.103099   -5.3418736    507.45767  0.048775247  0.049969413            3 
  868000    1.1258865   -5.3586824    509.16356  0.048882831  0.049956593            3 
  869000    1.1128337   -5.3628471    508.53439  0.048766243  0.049943712            5 
  870000    1.1037737   -5.3475908    511.58272  0.049002176  0.049931637            3 
  871000    1.0813029   -5.3872671    507.91931  0.048595418  0.049918999            3 
  872000    1.1371511   -5.3711541    508.14385  0.048561148  0.049906065            4 
  873000     1.106152   -5.3789164    510.53524  0.048733796   0.04989333            1 
  874000     1.113624   -5.3825433    510.09945  0.048636484  0.049880682            3 
  875000    1.0931571   -5.3302709    511.36785    0.0487017    0.0498678            3 
  876000     1.126938    -5.411951    509.74304  0.048491538   0.04985468            3 
  877000    1.1296357   -5.3566537    511.43317  0.048596842  0.049841393            3 
  878000    1.1216128   -5.3622916    512.50857  0.048643562    0.0498279            1 
  879000    1.1154708     -5.38124    512.14561  0.048553813  0.049814298            5 
  880000    1.1235938   -5.3735396    511.47268  0.048434913  0.049800772            6 
  881000    1.1036021   -5.3871591    511.89913  0.048420274  0.049786669            2 
  882000    1.0956909   -5.4144222    512.16232  0.048390241  0.049772702            9 
  883000    1.1119466   -5.3969338    511.75252  0.048296765  0.049758877            3 
  884000    1.1011551   -5.3674276     514.9888   0.04854721  0.049745123            2 
  885000     1.114931   -5.4092332    512.16623  0.048226575  0.049730949            3 
  886000    1.1159254   -5.3937502    514.44609  0.048386578  0.049717273            4 
  887000    1.1262898   -5.3948476    514.41802  0.048329389  0.049703319            4 
  888000    1.1111625   -5.3974076    514.38853  0.048272197  0.049689588            8 
  889000    1.1227845   -5.3575299      516.123  0.048380483  0.049675958            2 
  890000    1.1181791   -5.3446355    515.32793  0.048251679  0.049661932            3 
  891000    1.1175043   -5.3726603    517.99168  0.048446659  0.049648579            4 
  892000    1.1027388   -5.3541306    518.68823  0.048457421    0.0496349            1 
  893000    1.1110021   -5.3656838    517.48344  0.048290728  0.049621467            2 
  894000    1.0921927   -5.3550918    518.64841  0.048345303  0.049608198            3 
  895000    1.1161509   -5.3759202    518.05469  0.048236005  0.049594945            2 
  896000    1.0795746   -5.3781731     519.1767  0.048286523  0.049581733            3 
  897000    1.1184934   -5.4031742    519.97437  0.048306797  0.049568198            3 
  898000    1.1147861   -5.4088711    519.31499  0.048191814  0.049554656            3 
  899000    1.1023968   -5.3660867    520.80405  0.048276238  0.049541717            2 
  900000    1.0906457   -5.3964265    522.36735  0.048367348  0.049528594            2 
  901000    1.1004246   -5.3836271    524.05091  0.048469377  0.049515224            5 
  902000    1.0927715   -5.3882102    522.37555   0.04826086  0.049502277            2 
  903000    1.1169963   -5.3783914     524.0698  0.048363769  0.049489393            1 
  904000    1.1118255   -5.3948918    524.40045  0.048340749  0.049476699            3 
  905000    1.1073534   -5.3972108    523.54408  0.048208479  0.049463472            1 
  906000    1.1001063   -5.3649069    526.67547  0.048443292  0.049450603            2 
  907000    1.0945185   -5.3938683    524.18184  0.048160772  0.049438104            3 
  908000     1.093888   -5.3703052    525.72171  0.048249056  0.049425567            5 
  909000    1.1030327   -5.3854697    528.17828  0.048421184  0.049413405            2 
  910000    1.1156591   -5.4059806    526.38131  0.048203416  0.049401369            2 
  911000    1.1118712   -5.3362591    527.96102  0.048295007  0.049388593            2 
  912000    1.1119685   -5.3741054    527.15089  0.048168028  0.049376103            3 
  913000    1.1007371   -5.3787313    528.30656  0.048220752  0.049363497            3 
  914000    1.1052549   -5.3811089    529.04622  0.048235432  0.049351241            2 
  915000     1.112603      -5.4217    529.53038  0.048226811  0.049339222            8 
  916000     1.092809   -5.3603985    532.25708  0.048422223  0.049327136            3 
  917000     1.104952   -5.3942625    530.65575  0.048223896  0.049315257            4 
  918000    1.1095029   -5.3610038    533.70244  0.048447934  0.049303567            3 
  919000    1.1092198   -5.3963611    531.12044  0.048161084  0.049291793            2 
  920000    1.0999667   -5.3932668    532.80879  0.048261666  0.049279509            3 
  921000    1.1176241   -5.3792797    534.12306  0.048328182  0.049267297            4 
  922000     1.089428   -5.3978488    532.83153  0.048159032  0.049255395            3 
  923000    1.1117602   -5.3785522     535.4228  0.048340809  0.049243139            6 
  924000    1.1088393   -5.3970691    534.29891  0.048187131  0.049230741            3 
  925000    1.0803018   -5.3998467    534.60246  0.048162384  0.049218568            4 
  926000    1.1152706   -5.3903792    535.76025  0.048214566  0.049206185            4 
  927000    1.0924898     -5.36288    534.96082  0.048090688  0.049193838            3 
  928000     1.106482    -5.360492    538.73561  0.048377838  0.049181954            2 
  929000    1.0754946   -5.3958597    536.99935  0.048170017  0.049170168            3 
  930000    1.0969801   -5.4214438    537.73875  0.048184476   0.04915813            3 
  931000    1.0904998   -5.3864716    538.57627  0.048207686  0.049146642            4 
  932000    1.1176671   -5.4016242    539.00304   0.04819412  0.049134747            4 
  933000    1.1020329   -5.3826423    538.85162  0.048128941   0.04912326            6 
  934000    1.1117288   -5.3801935    540.15765  0.048193938  0.049111257            3 
  935000    1.1012074    -5.409812     538.7091  0.048013289  0.049099922            2 
  936000     1.102655   -5.3741362    541.63278  0.048222292  0.049088096            4 
  937000    1.1296315   -5.3960231    540.99105  0.048113754  0.049076099            5 
  938000    1.0911001   -5.3856896    542.07043  0.048158353  0.049064722            5 
  939000    1.1117245   -5.3720709    542.50153  0.048145326  0.049053111            3 
  940000    1.1248067   -5.4151608    541.60811  0.048014903  0.049040785            5 
  941000    1.0726232   -5.4210553     539.7491  0.047799248  0.049028511            2 
  942000    1.1023586   -5.3871444    542.07642   0.04795439   0.04901603            2 
  943000    1.1056816   -5.4104171    542.80543   0.04796796  0.049003501            2 
  944000    1.1063054   -5.3825765    545.07802  0.048117763  0.048991212            1 
  945000    1.0634347   -5.4017433    543.97748  0.047969795  0.048978616            2 
  946000    1.0872615   -5.3865122    544.79464  0.047991071  0.048966144            3 
  947000    1.1019225   -5.4072424     543.5823  0.047833711  0.048954033            3 
  948000    1.1022934   -5.3950609    542.59321  0.047696309  0.048941135            3 
  949000    1.1136922   -5.4344904    544.63035  0.047824934  0.048928555            2 
  950000    1.0986742    -5.385457     547.5239  0.048028412  0.048915931            2 
  951000    1.1155868   -5.3909895    546.18785  0.047860835  0.048903523            3 
  952000    1.1092769   -5.4054324    547.80725  0.047952316  0.048891534            1 
  953000    1.1036018   -5.4027397    547.53117  0.047877857  0.048879428            4 
  954000    1.1099415   -5.4205112    546.74148  0.047758689  0.048866765            4 
  955000    1.0944205   -5.4061074    545.59574  0.047608703  0.048853888            2 
  956000    1.1138901   -5.4027234    547.48156  0.047723288  0.048840801            3 
  957000    1.0969262   -5.3483819    550.90457  0.047971488  0.048828001            3 
  958000    1.0887352    -5.394237    550.01155  0.047843733   0.04881574            2 
  959000    1.0876189   -5.4308567     548.7302  0.047682499  0.048803344            2 
  960000    1.1161641   -5.3638934    551.37447  0.047862367  0.048790995            5 
  961000    1.1064881    -5.410308    550.24207  0.047714366  0.048778505            2 
  962000    1.1038319   -5.4122658    550.26744  0.047666965  0.048766028            2 
  963000    1.0796884   -5.4011178    552.77116  0.047834126  0.048753597            8 
  964000    1.0832525   -5.4042255    552.68009  0.047776633   0.04874143            3 
  965000    1.1196511   -5.3983723    552.14503  0.047680918  0.048729081            2 
  966000    1.0955372   -5.4306459    553.34863  0.047735389  0.048717299            4 
  967000    1.0909092   -5.3644246    556.90733  0.047992703  0.048705584            3 
  968000    1.0920971   -5.4004642    554.38127   0.04772566  0.048693681            3 
  969000    1.1068553   -5.3610581     557.1769   0.04791683  0.048681533            1 
  970000    1.1014089   -5.4131784    556.21931  0.047785164  0.048669641            2 
  971000    1.1073796    -5.433908     555.2291   0.04765097   0.04865705            4 
  972000    1.1099972   -5.4181006    554.20671  0.047514292   0.04864474            4 
  973000     1.113311    -5.394548    556.75916  0.047684066  0.048632402            5 
  974000    1.1076304   -5.3838886     557.3197  0.047683068  0.048620183            3 
  975000    1.0990833   -5.4134257    558.36541  0.047723539  0.048607399            2 
  976000    1.0980525   -5.3998831    556.02024  0.047474405  0.048594681            2 
  977000     1.079839   -5.3788439    558.22347  0.047613739  0.048581952            3 
  978000    1.1046762   -5.4089514    556.48279  0.047416734  0.048569161            2 
  979000    1.1111391   -5.3711004    559.04719  0.047586584  0.048556672            3 
  980000     1.101091   -5.3974322    559.70973  0.047594365  0.048543968            4 
  981000    1.0970124   -5.4048129    557.31271  0.047342228  0.048531052            1 
  982000    1.1207716   -5.3506321    561.72756  0.047668666   0.04851844            2 
  983000    1.1169083   -5.4748317    559.40664  0.047423418  0.048505997            4 
  984000    1.0985532   -5.4091231    561.69354  0.047568897  0.048493439            4 
  985000    1.0853904   -5.4199283    559.47874  0.047333227  0.048480827            3 
  986000    1.0872002   -5.3455043    562.57326   0.04754676  0.048468186            3 
  987000     1.112578   -5.3647758    560.56245  0.047328812  0.048455907            3 
  988000    1.1005329   -5.3894035    563.26353  0.047508732  0.048443277            3 
  989000    1.0745809   -5.4348418    562.18953    0.0473702   0.04843017            3 
  990000    1.1031618   -5.4236178    561.84254  0.047293143  0.048417575            4 
  991000    1.1228663   -5.4018671    564.84391  0.047497806  0.048405355            5 
  992000    1.0944913   -5.4089944    563.64757  0.047349426  0.048393097            5 
  993000    1.0922904   -5.3880088    562.81058  0.047231502  0.048380944            2 
  994000    1.0827858   -5.4018115    563.04241  0.047203421  0.048368416            2 
  995000    1.1063273   -5.4454228    565.22027  0.047338381  0.048355544            4 
  996000    1.0818183   -5.4234223    566.17047  0.047370354   0.04834285            3 
  997000    1.0825531   -5.4296068    566.12144  0.047318742  0.048330053            2 
  998000    1.0838326   -5.4139766    566.60443  0.047311659   0.04831767            5 
  999000    1.0743722   -5.4466354     567.4291  0.047333091  0.048305275            4 
 1000000    1.0921138    -5.408725    568.18603  0.047348836   0.04829244            2 
 1001000    1.1000754   -5.3885442    568.67456  0.047342204  0.048279729            4 
 1002000    1.0885973   -5.4403164    567.78428  0.047220915   0.04826723            2 
 1003000    1.0884327   -5.4287215    568.68971  0.047249062  0.048254401            5 
 1004000    1.0979736   -5.4058344    571.86996  0.047465967  0.048242615           11 
 1005000    1.0914795   -5.4418744    570.68784  0.047320716  0.048230276            2 
 1006000    1.0872393   -5.3889151    572.58876  0.047431143  0.048218135            1 
 1007000    1.0810495   -5.4310141    571.57705  0.047300319  0.048206306            5 
 1008000    1.0952342   -5.4155017    572.02575  0.047290489  0.048194072            3 
 1009000    1.0969807   -5.4348909    573.87136  0.047396049  0.048182198            5 
 1010000    1.0789795   -5.4071821    574.17745  0.047374377  0.048170669            2 
 1011000    1.1020406   -5.4456315    574.39763  0.047345667  0.048159553            2 
 1012000    1.0923173   -5.4163592    575.11754  0.047358164  0.048148206            2 
 1013000    1.0839278   -5.4206644     575.7022   0.04735951  0.048136916            3 
 1014000    1.0932595   -5.4292925    575.43899  0.047291173  0.048125098            3 
 1015000    1.0781731    -5.447113    574.64695  0.047179552  0.048113553            3 
 1016000    1.1158752   -5.4469765    577.07721  0.047332448  0.048102079            5 
 1017000      1.11239   -5.4151141    575.81004  0.047182074  0.048090639            2 
 1018000    1.0743351   -5.4678105    576.47785  0.047190394  0.048079215            3 
 1019000    1.1007902   -5.4343009    578.67403  0.047323686  0.048067963            4 
 1020000    1.0741303   -5.3810872    578.39284  0.047254317  0.048056693            4 
 1021000    1.0948423   -5.4049239    579.09703   0.04726551   0.04804533            2 
 1022000    1.0875563    -5.452643    580.00117  0.047292985  0.048033595            6 
 1023000    1.1158106   -5.4510245    580.22605  0.047265074  0.048022209            2 
 1024000    1.1011165   -5.4381731    580.34536  0.047228626  0.048010923            3 
 1025000    1.1013782   -5.4230213    582.82113  0.047383831  0.047999836            3 
 1026000     1.070265   -5.4238032    582.09448  0.047278629  0.047988699            3 
 1027000    1.0651475    -5.364625    585.91493  0.047542594  0.047977598            4 
 1028000    1.0877046   -5.4440205    583.47926  0.047298902  0.047966647            3 
 1029000    1.0842037   -5.4297343    581.54147  0.047096005  0.047955183            5 
 1030000    1.0784468   -5.4513595     583.3267  0.047194717  0.047944015            2 
 1031000    1.0932343   -5.4348052    584.09101  0.047210719  0.047932767            2 
 1032000    1.0941432   -5.4591747    582.22955   0.04701466  0.047921233            2 
 1033000    1.1154714   -5.4624331    585.21314  0.047209837  0.047910077            3 
 1034000    1.0930945   -5.4157046    584.75708  0.047127424  0.047898891            1 
 1035000    1.0783556   -5.4641445    583.46098  0.046977534  0.047887625            2 
 1036000    1.0845096   -5.4148396    585.27093  0.047077777  0.047876298            3 
 1037000    1.0752962   -5.4243093    585.75863  0.047071571  0.047864954            5 
 1038000    1.0736826   -5.4276547    586.99673  0.047125621  0.047853921            7 
 1039000    1.0700008   -5.4239452    587.17825  0.047094822  0.047842688            1 
 1040000    1.0903048   -5.4043618    589.63942  0.047246748  0.047831643            4 
 1041000     1.103382   -5.4052701    590.19626  0.047245938  0.047820995            5 
 1042000    1.0767038   -5.4254364    587.41039  0.046977798  0.047810547            2 
 1043000    1.0836337   -5.4111718    589.06848  0.047065235  0.047799835            4 
 1044000    1.0864541   -5.3682871    592.03749  0.047257143  0.047789328            2 
 1045000    1.0913128   -5.4259587    589.43227  0.047004168   0.04777882            1 
 1046000    1.1022995   -5.4692171    589.08264  0.046931376  0.047768048            6 
 1047000    1.0818167   -5.4410372    591.55297  0.047083171  0.047757362            5 
 1048000    1.0663903   -5.4281898    592.79663  0.047137137  0.047746693            3 
 1049000    1.0804237   -5.4411743     591.3843  0.046980005   0.04773594            4 
 1050000    1.0651891   -5.4436652    593.74918  0.047122951  0.047725189            2 
 1051000    1.1108396   -5.4103831    594.13449  0.047108665  0.047714804            2 
 1052000    1.0863797   -5.3952022    594.27286  0.047074846  0.047704003            6 
 1053000    1.0892863   -5.4223788    592.96406  0.046926564  0.047693003            2 
 1054000     1.085565   -5.4220467    593.19887  0.046900607  0.047681782            3 
 1055000    1.0773298   -5.4426944    593.83358  0.046906286  0.047670201            6 
 1056000    1.0991865   -5.4266225    595.86102  0.047021861  0.047658875            2 
 1057000    1.0804032   -5.4299279    594.53546  0.046872868  0.047647409            6 
 1058000    1.0849098   -5.4311369    594.46613  0.046823104  0.047636209            2 
 1059000    1.0905926   -5.4179157    597.35423  0.047006156  0.047624969            5 
 1060000    1.0923789   -5.4182929    597.44565  0.046968998  0.047614241            3 
 1061000    1.0910867   -5.4343631    597.02297  0.046891531  0.047603128            4 
 1062000     1.090856   -5.3991334    598.40056  0.046955474   0.04759235            3 
 1063000    1.1031658   -5.4658703     594.1013  0.046574263  0.047580972            1 
 1064000    1.0811241   -5.4579864    596.26187  0.046699708  0.047569553            4 
 1065000    1.0760729   -5.4489039    597.20541  0.046729687  0.047557971            2 
 1066000    1.0618129   -5.4342785    598.08253  0.046754419   0.04754616            2 
 1067000    1.0598699   -5.4418033    598.03485  0.046706876  0.047534495            2 
 1068000    1.0955627   -5.4566708     597.4885  0.046620513  0.047522924            2 
 1069000    1.0784203   -5.4718912    599.23042  0.046712692  0.047511115            4 
 1070000    1.0729522   -5.4644905     598.6226  0.046621697  0.047499532            3 
 1071000    1.1083939     -5.45121    599.91962  0.046679086  0.047488095            2 
 1072000    1.0591243   -5.4334885    600.75525  0.046700501   0.04747659            3 
 1073000    1.1032292   -5.4363211     602.0836  0.046760143  0.047465317            3 
 1074000    1.0754507   -5.4812956    602.25279  0.046729732  0.047453937            2 
 1075000     1.084663   -5.4408372    602.16309  0.046679309  0.047442687            3 
 1076000    1.0437135   -5.4184637    604.43647  0.046811994  0.047431565            4 
 1077000    1.0719941   -5.4551333    603.99008  0.046733989   0.04742055            2 
 1078000    1.0666518   -5.4559265    604.14662  0.046702738  0.047409387            3 
 1079000    1.0720105   -5.4333928    602.69166  0.046547085  0.047398323            2 
 1080000    1.1124785   -5.4588351    603.96175  0.046601987  0.047387068            3 
 1081000    1.0452826   -5.4450266    604.04636    0.0465654  0.047375613            7 
 1082000    1.0691299   -5.4260245    605.09512  0.046603136  0.047363796            4 
 1083000    1.0715012   -5.4566378     604.2941  0.046498468  0.047352024            3 
 1084000     1.071923   -5.4584978    606.12875  0.046596614  0.047340052            1 
 1085000      1.09066   -5.4626508    602.82522   0.04629994  0.047328147            3 
 1086000    1.0866476   -5.4304911    607.80081  0.046639104  0.047316487            2 
 1087000    1.0781347   -5.4647782    607.11293  0.046543463  0.047304705            4 
 1088000     1.100931   -5.4598655    607.70341  0.046545911  0.047293358            1 
 1089000    1.0801991   -5.4569532     607.1155   0.04645818  0.047281769            2 
 1090000    1.0669838   -5.4636571    608.91426  0.046553078  0.047270297            3 
 1091000    1.0797925   -5.4645507    609.95464  0.046589875  0.047259434            3 
 1092000    1.0833891   -5.5019058    608.54791  0.046439859  0.047248579            2 
 1093000     1.067038   -5.4587578    609.14291  0.046442735  0.047237357            3 
 1094000    1.0720909   -5.4430696    611.44149  0.046575372  0.047226436            2 
 1095000    1.0564832   -5.4236209    612.31036  0.046598962  0.047215457           11 
 1096000    1.0740842   -5.4419063    614.82675  0.046747776  0.047204301            2 
 1097000    1.0759397   -5.4545056    612.00343  0.046490689  0.047193251            4 
 1098000    1.0935659   -5.4739005     612.4434  0.046481739  0.047182097            1 
 1099000    1.0784597   -5.4269222    614.67934  0.046608989  0.047170366            3 
 1100000    1.1160069   -5.4529427     613.5897  0.046484068   0.04715893            7 
 1101000    1.0610889   -5.4043285    615.44332  0.046582146  0.047147633            4 
 1102000    1.0754654   -5.4563934    613.41285  0.046386332  0.047135904            2 
 1103000     1.084552    -5.465109    611.58067  0.046205853  0.047124065            8 
 1104000     1.065541   -5.4377248    614.70287  0.046399673  0.047112301            3 
 1105000    1.0920859   -5.3762122    615.92907  0.046450156  0.047100223            4 
 1106000     1.061322   -5.3975416    616.96004  0.046485838  0.047089031            2 
 1107000    1.0608612   -5.4516977    614.11087  0.046229364  0.047077226            2 
 1108000    1.0790083   -5.4189352    617.11254  0.046413398  0.047065229            4 
 1109000    1.0713371   -5.4413319    614.42618  0.046169686  0.047053152            3 
 1110000    1.0632642   -5.4762201    612.71112  0.045999333  0.047040768            3 
 1111000    1.0703312   -5.4344314    615.04522  0.046133005  0.047028054            2 
 1112000    1.0729891   -5.4593738    615.03898  0.046091051  0.047015946            4 
 1113000    1.0616088   -5.4865425    614.91132   0.04604008  0.047003741            7 
 1114000    1.0611967   -5.4741862    615.58575  0.046049203  0.046991306            5 
 1115000    1.0582024   -5.4578975    616.23598  0.046056501  0.046978771            4 
 1116000    1.0752376    -5.432539    616.39164  0.046026855  0.046966798            4 
 1117000    1.0758163   -5.4741825    615.53497  0.045921737  0.046954458            2 
 1118000    1.0660086    -5.458528     619.8902  0.046205292  0.046942096            2 
 1119000    1.0859234   -5.4580624     618.6989  0.046075283  0.046930356            1 
 1120000    1.0441731   -5.4617541    619.52351  0.046095499  0.046918666            5 
 1121000    1.0805503    -5.450557    620.80495   0.04614964  0.046906632            3 
 1122000    1.0907891   -5.4743884    621.52523  0.046162004  0.046894659            4 
 1123000    1.0961483   -5.4552542    619.80574  0.045993302  0.046882436            2 
 1124000    1.0777013   -5.4065294    620.99982  0.046040912   0.04687033            3 
 1125000     1.062012   -5.4721413    620.67762   0.04597612  0.046857936            1 
 1126000    1.0939656   -5.4520704    622.13231  0.046042948  0.046845691            2 
 1127000    1.0728836   -5.4692854    622.88105  0.046057457  0.046833396            4 
 1128000    1.0586646   -5.4573269    621.22481  0.045894268  0.046821282            2 
 1129000    1.0559438   -5.4707178    623.09822  0.045991897  0.046808982            6 
 1130000    1.0751952   -5.4431943    622.61873  0.045915835  0.046797055            2 
 1131000     1.056552   -5.4577696    621.73924  0.045810437  0.046784699            6 
 1132000    1.0629512    -5.455706    624.72378  0.045989678  0.046772424            2 
 1133000    1.0592163   -5.4833641    623.53383  0.045861565  0.046760231            4 
 1134000    1.0617481   -5.4300715    627.02929   0.04607799  0.046748066            3 
 1135000    1.0638286   -5.4720013    623.92805  0.045809696  0.046736013            5 
 1136000     1.062661   -5.4676202    625.22721  0.045864672  0.046723912            3 
 1137000    1.0804676   -5.4937121    625.07914  0.045813482  0.046711282            2 
 1138000    1.0604272    -5.459748    625.94554  0.045836668  0.046698718            3 
 1139000     1.083934   -5.4517945    625.40629  0.045756972  0.046686336            2 
 1140000     1.076041   -5.4280047    627.62901  0.045879313  0.046673965            2 
 1141000     1.079896   -5.4611735     627.7597  0.045848649  0.046661697            2 
 1142000    1.0727644   -5.4575884    625.76196  0.045662724  0.046649401            7 
 1143000    1.0654933   -5.4914588     626.8771  0.045704076  0.046637049            7 
 1144000    1.0643618   -5.4790635    628.06939  0.045750975  0.046624482            5 
 1145000    1.0554587   -5.4638006    629.99531  0.045851187  0.046612096            2 
 1146000    1.0567464    -5.473374    628.44352  0.045698336  0.046599714            1 
 1147000    1.0467129   -5.4668708    630.69681  0.045822203  0.046587523            2 
 1148000     1.071209   -5.4900878    628.73712  0.045640034  0.046575395            4 
 1149000    1.0538955   -5.4531391    628.95179  0.045615883  0.046563191            3 
 1150000    1.0899583   -5.4258271    633.71523  0.045921394  0.046551322            3 
 1151000    1.0636334   -5.4376765    633.11035  0.045837703  0.046539176            2 
 1152000    1.0603623   -5.4693946    628.94601  0.045496673  0.046526456            5 
 1153000    1.0518603   -5.4495304    631.99203  0.045677365   0.04651398            2 
 1154000    1.0734083   -5.4658941    631.58557  0.045608432   0.04650149            2 
 1155000    1.0711673   -5.4505604    631.26323  0.045545687  0.046489091            2 
 1156000    1.0774411    -5.453292    631.77265  0.045543011  0.046476833            2 
 1157000    1.0365274    -5.448424    632.75238  0.045574213  0.046464383            1 
 1158000    1.0740444   -5.4594298    633.71441  0.045604088  0.046451966            4 
 1159000    1.0639874    -5.490484    632.14358  0.045451796  0.046439164            2 
 1160000    1.0763282   -5.4637588    633.55197  0.045513791  0.046426415            1 
 1161000    1.0596099   -5.5128208    631.55273  0.045331089  0.046413943            6 
 1162000    1.0595278   -5.4504321    634.23967  0.045484773  0.046401528            5 
 1163000    1.0718655   -5.4931971    636.77404   0.04562726  0.046389328            3 
 1164000    1.0539782   -5.4978096    637.13509  0.045613909  0.046376609            3 
 1165000    1.0788505    -5.453699    637.12865  0.045574295  0.046364083            2 
 1166000    1.0559553   -5.4472488    637.67301  0.045574115  0.046351574            4 
 1167000    1.0772417   -5.4799743    637.46622  0.045520296  0.046339092            7 
 1168000    1.0486641    -5.444368    639.50511  0.045626791  0.046326986            4 
 1169000    1.0697295   -5.4647173    636.33673    0.0453619  0.046314744            6 
 1170000      1.04998   -5.4764331    638.48613   0.04547622  0.046302055            3 
 1171000    1.0546685   -5.4501139     639.7172  0.045524993  0.046289539            2 
 1172000    1.0505166   -5.4880266    638.39629  0.045392228  0.046277089            3 
 1173000     1.069704   -5.4802124    639.37959  0.045423386  0.046264374            6 
 1174000    1.0897097   -5.4861589      639.092  0.045364282  0.046251832            3 
 1175000     1.067935   -5.4684617    639.47473  0.045352818  0.046239514            5 
 1176000    1.0320981   -5.4508858    643.37302  0.045590492  0.046227795            4 
 1177000      1.07798   -5.4620576    642.26363  0.045473211  0.046215661            4 
 1178000      1.05665   -5.4954047    638.97987  0.045202311  0.046203294            3 
 1179000    1.0795068   -5.4816712    641.48068  0.045340733  0.046190927            3 
 1180000    1.0391908   -5.4612466    643.43829  0.045440557  0.046178555            4 
 1181000    1.0376985    -5.464561    643.56502  0.045411023   0.04616661            5 
 1182000    1.0602505   -5.5134382    643.01424  0.045333773  0.046154581            5 
 1183000    1.0508842   -5.4940629    642.25616  0.045242051  0.046142467            3 
 1184000    1.0735157   -5.4953463    644.61493  0.045369857  0.046130594            7 
 1185000    1.0624511   -5.4935386    645.22725  0.045374631  0.046118745            5 
 1186000    1.0640349   -5.4819724    646.16674  0.045402385  0.046106938            8 
 1187000    1.0605665   -5.4837594    644.65788  0.045258205  0.046095311            3 
 1188000    1.0729013   -5.4984662    646.75036  0.045366889  0.046083653            3 
 1189000    1.0626919   -5.4640107    647.62371  0.045389943   0.04607225            2 
 1190000     1.061019   -5.4487594    649.46739   0.04548091  0.046060546            5 
 1191000    1.0606413   -5.5034086    650.89741   0.04554278  0.046049237            2 
 1192000    1.0570116   -5.4708493    649.31509  0.045393952  0.046038081            3 
 1193000     1.062853   -5.4470883    650.20542  0.045418093  0.046027123            2 
 1194000    1.0785049   -5.4534857      649.956  0.045362647  0.046016069            2 
 1195000    1.0709927   -5.5145336    650.35179  0.045352286  0.046004937            3 
 1196000    1.0490591     -5.49107      649.216  0.045235228  0.045993147            5 
 1197000    1.0653671   -5.5277241    650.57533  0.045292072  0.045981664            4 
 1198000    1.0665988   -5.4550077    651.10907  0.045291394  0.045970179            1 
 1199000    1.0819621      -5.4787    653.43932  0.045415577  0.045959036            4 
 1200000    1.0530355   -5.4895514    653.93876  0.045412414  0.045947652            1 
 1201000    1.0686735    -5.502351    651.34591  0.045194692  0.045936271            6 
 1202000    1.0503241   -5.4544157    656.01249  0.045480622  0.045924988            2 
 1203000    1.0636725   -5.4423254    655.66704  0.045418886  0.045913891            6 
 1204000    1.0380088   -5.4544963    654.87536  0.045326368  0.045902449            3 
 1205000    1.0581181   -5.4842657    653.60015  0.045200564  0.045890873            3 
 1206000    1.0665709   -5.5174899    654.20806   0.04520509   0.04587936            3 
 1207000    1.0443896    -5.482072    656.68282  0.045338499  0.045868295            2 
 1208000    1.0666482   -5.4658417    658.02515  0.045393567  0.045857241            3 
 1209000    1.0741356   -5.4528353    658.38716  0.045380973  0.045846669            2 
 1210000    1.0612133   -5.4772264    658.56626  0.045355803  0.045836026            3 
 1211000    1.0501894   -5.4887784    661.21557  0.045500658  0.045825292            4 
 1212000    1.0721152   -5.5019842    658.15032   0.04525236  0.045814598            2 
 1213000    1.0580479   -5.4887323    658.91845  0.045267824  0.045803821            3 
 1214000    1.0524138   -5.4813217    658.96197  0.045233524  0.045793019            5 
 1215000    1.0588459   -5.4776473    662.46472  0.045436537   0.04578228            2 
 1216000    1.0556108   -5.4756027    661.01382  0.045299741  0.045771571            3 
 1217000     1.061869   -5.4555093    662.11752  0.045338094  0.045761295            3 
 1218000    1.0435354   -5.5095422     662.7623  0.045344985  0.045750428            6 
 1219000    1.0312745   -5.4515625    663.47443  0.045356469   0.04573989            2 
 1220000    1.0511715    -5.496229    661.88788  0.045210921  0.045729063            5 
 1221000    1.0685169   -5.5221196    661.93087  0.045176827  0.045717994            3 
 1222000     1.048828    -5.489311    662.14204  0.045154258  0.045707519            3 
 1223000    1.0584938   -5.4711139    663.12095  0.045184039  0.045697061            2 
 1224000    1.0701569   -5.4771347    665.69034  0.045322055  0.045686813            4 
 1225000     1.063079   -5.4644209    664.53839  0.045206693  0.045676162            2 
 1226000     1.078181   -5.4650893    665.61913   0.04524328  0.045665724            6 
 1227000    1.0258495   -5.5072297    663.73817  0.045078659   0.04565528            6 
 1228000    1.0639919    -5.480107    664.98817  0.045126776  0.045644647            3 
 1229000    1.0429996   -5.4769272    664.92599  0.045085841  0.045633729            3 
 1230000    1.0503282   -5.4922265    666.01352  0.045122867  0.045622809            4 
 1231000    1.0695595     -5.50866    665.61877  0.045059489  0.045611717            3 
 1232000    1.0556086    -5.540719     663.3978  0.044872687  0.045600617            2 
 1233000    1.0329383   -5.5043706    662.52125  0.044777051  0.045589197            2 
 1234000    1.0387282   -5.4859719    668.18772  0.045123428  0.045578052            3 
 1235000    1.0578984   -5.5367695    665.90257  0.044932697  0.045567254            3 
 1236000    1.0688956    -5.475487    668.72049  0.045086333  0.045556341            6 
 1237000    1.0724692   -5.5218561    667.68574  0.044980176  0.045545638            4 
 1238000    1.0491254   -5.4615654    670.87669  0.045158635  0.045534966            5 
 1239000     1.038394   -5.5252418    668.64632  0.044972177  0.045524098            2 
 1240000    1.0549579   -5.4801068    669.34367  0.044982773  0.045513148            2 
 1241000    1.0665834   -5.5139224    670.35426  0.045014388  0.045502401            3 
 1242000    1.0541373   -5.4883792    669.76845  0.044938839  0.045491489            3 
 1243000     1.071515   -5.5101623    668.79033   0.04483711   0.04548063            3 
 1244000    1.0269107   -5.5037271    670.98865  0.044948329  0.045469632            3 
 1245000    1.0415009   -5.5004207    673.72359  0.045095287  0.045459101            1 
 1246000    1.0403348   -5.5001216    672.72504  0.044992311  0.045448616            4 
 1247000    1.0764916    -5.485379    671.43399  0.044869954  0.045437922            4 
 1248000    1.0539103   -5.5028965    671.04677  0.044808144  0.045426942            4 
 1249000    1.0515244   -5.5237708    669.68817  0.044681623  0.045415679            4 
 1250000    1.0423597   -5.4847166    673.46187  0.044897458  0.045404295            5 
 1251000    1.0465223   -5.4446616    674.46655  0.044928494   0.04539332            3 
 1252000    1.0655265   -5.5241196    673.56229   0.04483242  0.045381854            6 
 1253000    1.0687766   -5.5181858    672.62298   0.04473417  0.045370502            3 
 1254000    1.0551965    -5.478308    672.17912  0.044669001  0.045359196            2 
 1255000    1.0438687   -5.4919533    673.71575  0.044735442  0.045347709            5 
 1256000    1.0509371   -5.4962963    673.70786    0.0446993  0.045336567            3 
 1257000    1.0236904   -5.4706676    673.98703  0.044682248  0.045325603            4 
 1258000    1.0457574   -5.5226702    677.27252  0.044864369  0.045314398            3 
 1259000    1.0481223   -5.5207685    676.88916   0.04480336  0.045303279            8 
 1260000    1.0636378   -5.4918843    678.21459  0.044855462  0.045292136            3 
 1261000    1.0510818   -5.4997848    676.87245  0.044731195     0.045281            3 
 1262000    1.0262264   -5.4512531     680.0301  0.044904259  0.045269922            4 
 1263000    1.0508837   -5.5137082    677.18589  0.044681043  0.045258881            2 
 1264000     1.049548   -5.4882507    678.57196  0.044737075  0.045247827            4 
 1265000    1.0484815   -5.4864522    680.83305  0.044850662  0.045236835            3 
 1266000    1.0474445   -5.4774978    680.48614    0.0447924  0.045225705            2 
 1267000     1.062508   -5.5035835    679.91143  0.044719247  0.045214838            4 
 1268000    1.0395992   -5.5418049    678.26288  0.044575636  0.045203715            6 
 1269000    1.0413908   -5.4996077     677.0619  0.044461643  0.045192241            4 
 1270000    1.0489436   -5.5065988    680.95738  0.044682243  0.045181344            4 
 1271000    1.0495122    -5.475171    680.60443  0.044623947    0.0451703            2 
 1272000    1.0549452   -5.5010872    682.54141  0.044715763  0.045159505            3 
 1273000    1.0407643    -5.522211    681.83857  0.044634628  0.045148732            5 
 1274000    1.0146231   -5.4916647    683.30145   0.04469528  0.045138032            3 
 1275000       1.0396   -5.5307856    683.87786  0.044697899  0.045126988            3 
 1276000    1.0389756   -5.4921533    682.98854   0.04460479  0.045115738            4 
 1277000    1.0190021   -5.4836684    684.08628  0.044641496  0.045105012            4 
 1278000    1.0602975    -5.514175    683.53487   0.04457061  0.045094336            3 
 1279000    1.0716343   -5.5035107    688.74494  0.044875224  0.045084366            5 
 1280000    1.0549584   -5.5286736    685.05861   0.04460017  0.045074144            6 
 1281000    1.0649081   -5.5438445    685.29405  0.044580669  0.045063764            6 
 1282000     1.031514   -5.5429266      685.797  0.044578588  0.045053188            3 
 1283000    1.0401642   -5.5169583    688.16343  0.044697547  0.045042218            4 
 1284000    1.0427186   -5.4870412    688.94448  0.044713427  0.045032151            5 
 1285000    1.0408327   -5.5036151     689.4332  0.044710324  0.045021805            3 
 1286000     1.039309   -5.4981799    687.91879  0.044577423  0.045011474            3 
 1287000     1.027481   -5.4949649    688.29207  0.044566956   0.04500126            3 
 1288000    1.0429629   -5.5015591    691.26272  0.044724555  0.044991101            4 
 1289000    1.0286076    -5.481915    689.81816  0.044596468  0.044980814            5 
 1290000    1.0400394   -5.5026879    690.85506   0.04462888  0.044970409            5 
 1291000    1.0293791   -5.5051989     689.3553  0.044497502  0.044959881            2 
 1292000     1.052653   -5.5596872     689.2464  0.044456037  0.044949126            3 
 1293000    1.0444917   -5.5146861    691.62593  0.044575015  0.044938232            4 
 1294000       1.0459   -5.5056037    692.75494  0.044613276  0.044928011            4 
 1295000    1.0284137   -5.5129958    690.03656  0.044403897  0.044917785            3 
 1296000    1.0392618   -5.5028498    692.68439  0.044539891   0.04490763            4 
 1297000    1.0140367   -5.5270322    695.59477  0.044692545   0.04489757            3 
 1298000    1.0217673   -5.5312556    693.50937  0.044524228  0.044887243            4 
 1299000    1.0199779   -5.5260314    692.78423  0.044443433  0.044876987            2 
 1300000    1.0302568   -5.4975316    695.34645  0.044573491  0.044866628            2 
 1301000    1.0387353   -5.5061909     696.4579  0.044610421   0.04485647            1 
 1302000    1.0436502     -5.55026    692.69171  0.044335107  0.044846251            3 
 1303000     1.054046   -5.4999352    695.38661  0.044473434  0.044835904            3 
 1304000    1.0420897   -5.5040957    696.94921  0.044539188  0.044825824            2 
 1305000    1.0374507   -5.5121465    697.55244  0.044543578  0.044815382            3 
 1306000    1.0220155   -5.5119245    695.36498  0.044369894  0.044804883            2 
 1307000     1.050005   -5.5384667    694.63006  0.044289088  0.044794326            3 
 1308000    1.0483619   -5.5340292    696.27691   0.04436015  0.044783755            3 
 1309000      1.04358   -5.5439265    692.94728  0.044114291  0.044773051            3 
 1310000    1.0686582   -5.5378781    699.67247  0.044508427  0.044762552            2 
 1311000    1.0306384   -5.5082199    697.17626  0.044315806  0.044752163            3 
 1312000    1.0584324   -5.5050672    697.74346  0.044318055  0.044741584            5 
 1313000    1.0495995    -5.523432    696.78905  0.044223727  0.044731063            3 
 1314000    1.0421045   -5.5304734    698.82745  0.044319346  0.044720521            2 
 1315000    1.0529846   -5.5394717    698.11183  0.044240293  0.044709729            4 
 1316000     1.029228   -5.4860304    700.69354  0.044370159  0.044699256            5 
 1317000    1.0301873   -5.5293288    698.44976  0.044194492  0.044688641            4 
 1318000    1.0533785   -5.5212905    699.27504  0.044213141  0.044678219            3 
 1319000    1.0555722   -5.5372632    701.37182  0.044312094  0.044667582            3 
 1320000    1.0430758   -5.5319621    699.99405  0.044191544  0.044657071            5 
 1321000    1.0271582   -5.5217042    701.23044  0.044236086  0.044646509            5 
 1322000    1.0621648   -5.4883526     702.4931  0.044282217   0.04463618            3 
 1323000    1.0601864   -5.5148677    700.61815  0.044130647  0.044625532            3 
 1324000    1.0431601   -5.5607451    700.99391  0.044120966  0.044615017            6 
 1325000    1.0410655   -5.5426362    701.11444  0.044095248  0.044604526            3 
 1326000    1.0251984   -5.5097608    702.86715  0.044172144  0.044594008            4 
 1327000    1.0350483   -5.5090002    702.61087  0.044122762  0.044583602            3 
 1328000    1.0610029    -5.539442    702.93698  0.044110001   0.04457303            2 
 1329000    1.0471092   -5.5209432     704.9766  0.044204703  0.044562541            3 
 1330000    1.0184834   -5.5292155     703.1871  0.044059342  0.044551987            3 
 1331000    1.0494734   -5.5320372    705.06779  0.044143989  0.044541568            2 
 1332000    1.0288305   -5.5013483    705.13208   0.04411487  0.044531118            8 
 1333000    1.0483148   -5.5245871    704.45364  0.044039363  0.044520762            5 
 1334000    1.0246255   -5.4807559    709.92639  0.044348225  0.044510336            4 
 1335000    1.0380174   -5.5230298    705.52841  0.044040475  0.044499933            5 
 1336000    1.0491306   -5.5234886    707.12914  0.044107356  0.044489511            4 
 1337000    1.0463913   -5.5306087    707.43109  0.044093187   0.04447901            3 
 1338000    1.0328546   -5.5790692    706.22143  0.043984892  0.044468539            5 
 1339000    1.0442128   -5.5196465    712.78547  0.044360559  0.044458149            2 
 1340000    1.0489249   -5.5257386    709.67672  0.044134124  0.044448116            3 
 1341000    1.0264711   -5.5033973    711.55258  0.044217784  0.044438103            4 
 1342000    1.0415276   -5.5084323    714.49679   0.04436766  0.044428209            3 
 1343000    1.0732219   -5.5319053    711.59956   0.04415485  0.044418317            5 
 1344000    1.0361843   -5.5286791    713.82094  0.044259731  0.044408077            6 
 1345000    1.0472956    -5.556471    710.62492  0.044028805  0.044398085            6 
 1346000    1.0357891   -5.5105817    713.40016  0.044167915  0.044388304            4 
 1347000    1.0269271   -5.5250592    713.20141  0.044122829  0.044378453            4 
 1348000    1.0418026    -5.553419    711.79467  0.044003132  0.044368575            2 
 1349000    1.0372717   -5.5279647    713.75305   0.04409149  0.044358596            3 
 1350000    1.0341776   -5.5536062    713.32959  0.044032691  0.044348752            5 
 1351000    1.0340499   -5.4915492    717.09402  0.044232298  0.044338829            2 
 1352000    1.0341451   -5.5909801    713.82809   0.04399828  0.044328918            3 
 1353000    1.0505218   -5.5220357     715.7526  0.044084294  0.044319381            2 
 1354000    1.0325411    -5.564069    717.70602  0.044171961  0.044310061            2 
 1355000    1.0166522   -5.5296731    716.77562  0.044082141  0.044300398            2 
 1356000     1.029822   -5.5468247    716.07963   0.04400686  0.044290669            6 
 1357000    1.0396096   -5.5101809    720.08061   0.04422013  0.044281273            3 
 1358000     1.041699   -5.5636197    718.32679  0.044079945  0.044271529            2 
 1359000    1.0450529     -5.56511    719.20829  0.044101563  0.044262076            2 
 1360000    1.0387685    -5.501433    722.18929  0.044251795  0.044252602            5 
 1361000    1.0260425   -5.5489631    719.06718  0.044028115  0.044243252            5 
 1362000    1.0444309   -5.5248726    720.48435  0.044082498  0.044233629            3 
 1363000    1.0168602   -5.5693553    719.58006  0.043994868  0.044224188            2 
 1364000    1.0247744   -5.5392849    721.46317  0.044077662  0.044214781            2 
 1365000    1.0215462    -5.563782    719.02731  0.043896661  0.044205409            2 
 1366000    1.0268855   -5.5170987    723.26652   0.04412314  0.044195878            3 
 1367000    1.0290099   -5.5345188    722.93125  0.044070425  0.044186551            4 
 1368000    1.0132542   -5.5452396     723.3854  0.044065875   0.04417733            5 
 1369000    1.0320481   -5.5579734    725.83355  0.044182709  0.044168074            3 
 1370000    1.0294583   -5.5491228    724.19651  0.044050883  0.044158873            7 
 1371000    1.0247576    -5.516947     725.4808  0.044096815  0.044149903            7 
 1372000    1.0359688   -5.5349642    725.42682  0.044061396  0.044140801            5 
 1373000    1.0334094   -5.5207987    727.66636  0.044165232  0.044131779            6 
 1374000    1.0516892   -5.5339379    727.24648  0.044107622  0.044122788            3 
 1375000    1.0422402   -5.5368216    728.38563  0.044144583   0.04411385            3 
 1376000    1.0225324   -5.5132105    729.40625  0.044174313  0.044104719            4 
 1377000    1.0542874   -5.5226752    729.76786  0.044164116  0.044095733            3 
 1378000    1.0302043   -5.5309724    730.39848  0.044170203  0.044086728            2 
 1379000    1.0479366   -5.5593611    726.99598  0.043932559  0.044077766            3 
 1380000    1.0242615   -5.5137095    732.74272  0.044247749  0.044069308           10 
 1381000    1.0296499    -5.529133    728.89784  0.043983698   0.04406064            3 
 1382000    1.0142197   -5.5276812    732.72258    0.0441825  0.044051963            3 
 1383000    1.0315574    -5.563013    732.15357  0.044116267  0.044043304            5 
 1384000     1.030335   -5.5589483     729.3761  0.043917154  0.044034509            2 
 1385000    1.0165514    -5.552897    731.87815   0.04403599  0.044025724            5 
 1386000    1.0220785   -5.5152501    732.99429  0.044071326  0.044017059            3 
 1387000    1.0038469   -5.5534623    730.76957  0.043905886  0.044008432            3 
 1388000    1.0166641   -5.5404649    732.04337  0.043950731  0.043999654            3 
 1389000    1.0259263    -5.507919    735.56891  0.044130604  0.043990846            3 
 1390000    1.0366082   -5.5669575    732.47034   0.04391309  0.043982118            2 
 1391000    1.0163934   -5.5223387    734.47051  0.044001348  0.043973075            5 
 1392000    1.0329194   -5.5474213    732.98815  0.043880996   0.04396429           10 
 1393000    1.0292915   -5.5500726    734.23911  0.043924331  0.043955537            5 
 1394000    1.0463528   -5.5606176    732.74351  0.043803414  0.043946796            2 
 1395000    1.0371156   -5.5330351    736.15634  0.043975886  0.043937996            3 
 1396000     1.044642   -5.5511404    733.74733  0.043800581  0.043929117            3 
 1397000    1.0376687    -5.534469    736.48456  0.043932507  0.043920005            4 
 1398000    1.0214381   -5.5511254    733.81429   0.04374191  0.043910867            3 
 1399000     1.015296   -5.5405726    736.15648   0.04385016  0.043901956            5 
 1400000    1.0186882   -5.5556405    735.81665   0.04379861  0.043892727            3 
 1401000    1.0073927   -5.5508016    734.90357  0.043713036  0.043883205            3 
 1402000    1.0209232   -5.5771102    735.97133  0.043745324  0.043873851            1 
 1403000    1.0241336   -5.6001962    734.43307  0.043622777  0.043864193            5 
 1404000    1.0110464   -5.5417301    737.20871  0.043756452  0.043855018            3 
 1405000    1.0034835   -5.5575672    737.88262   0.04376528  0.043845672            2 
 1406000    1.0495395   -5.5537654    736.36021  0.043643919  0.043836505            2 
 1407000    1.0480472    -5.550835    737.96603  0.043708009  0.043827284            4 
 1408000    1.0329639   -5.5489947    737.68978  0.043660617  0.043818309            4 
 1409000    1.0294271   -5.5707542    737.99374  0.043647607  0.043809217            4 
 1410000    1.0362576   -5.5491425    740.61364  0.043771492  0.043800178            3 
 1411000    1.0402844   -5.5826964    739.85098  0.043695428  0.043791139            3 
 1412000     1.038843   -5.5811902    738.36289  0.043576658  0.043782107            5 
 1413000    1.0320034   -5.5314978    738.25464  0.043539434   0.04377284            2 
 1414000    1.0425038   -5.5540704    741.66567  0.043709669  0.043763978            6 
 1415000    1.0370118   -5.5672023    741.70078  0.043680847  0.043754984            7 
 1416000    1.0118871   -5.5406073    743.02965  0.043728205  0.043746038            5 
 1417000    1.0362682   -5.5397059    746.11454  0.043878766  0.043737326            4 
 1418000    1.0377575    -5.542042    745.35797   0.04380336  0.043728258            2 
 1419000     1.030694   -5.5497524    744.78025  0.043738563  0.043719411            5 
 1420000     1.022267   -5.5698627    742.85083  0.043594532  0.043710355            2 
 1421000    1.0270659   -5.5260616    744.10521  0.043637416  0.043701337            4 
 1422000    1.0222106    -5.587377    743.97353  0.043599011  0.043692265            6 
 1423000    1.0072481   -5.5736708    743.80409   0.04355845  0.043683181            3 
 1424000    1.0264612   -5.5575259    744.32236  0.043558191  0.043673537            4 
 1425000    1.0238432   -5.5661835    743.50449  0.043479795  0.043664177            4 
 1426000    1.0193512   -5.5699702    745.13526  0.043544604  0.043654958            3 
 1427000    1.0185651    -5.523926     748.1535  0.043690347  0.043645653            1 
 1428000    1.0333769   -5.5447965    744.37434  0.043439212  0.043636256            2 
 1429000    1.0293789   -5.5794833    745.39299  0.043468217  0.043626832            5 
 1430000    1.0348759   -5.5690439    749.54281  0.043679651  0.043617485            5 
 1431000   0.99677671   -5.5801202    747.20418  0.043512938   0.04360801            3 
 1432000     1.022481    -5.558174    746.15779  0.043421659  0.043598589            3 
 1433000    1.0202418   -5.5618859    746.76933  0.043426921   0.04358933            2 
 1434000    1.0363043   -5.5610517    746.39294  0.043374764  0.043579887            4 
 1435000    1.0198256   -5.5621747    745.67798  0.043303019  0.043570524            2 
 1436000    1.0431903   -5.5611343    749.03601  0.043467735  0.043561096            5 
 1437000    1.0218146   -5.5760605    749.80754  0.043482228  0.043551539            2 
 1438000    1.0107244   -5.5740403    747.94465  0.043344034  0.043542001            4 
 1439000    1.0079962   -5.5468262    748.25067  0.043331635  0.043532438            2 
 1440000    0.9951712   -5.5669002    749.08592  0.043349879  0.043522827            3 
 1441000    1.0506758   -5.6116793    746.86696  0.043191474  0.043513141            4 
 1442000    1.0375838   -5.5775715    748.13089  0.043234564  0.043503251            2 
 1443000    1.0346164   -5.5573853    748.67158  0.043235827  0.043493408            2 
 1444000    1.0239336    -5.567623    750.46765  0.043309537  0.043483863            5 
 1445000    1.0118067   -5.5914963    748.66964  0.043175873  0.043473686            7 
 1446000   0.99130955   -5.5650393    752.87794   0.04338854  0.043463955            4 
 1447000    1.0064212   -5.5889884    750.98344   0.04324945  0.043454347            4 
 1448000    1.0158255   -5.5781832    751.96522  0.043276083  0.043444672            3 
 1449000    1.0337216   -5.6004449    752.39538  0.043270956  0.043435082            4 
 1450000     1.011341   -5.5540536    753.97959   0.04333216  0.043425625            6 
 1451000    1.0353793    -5.546776    754.13615  0.043311288  0.043416398            3 
 1452000    1.0181641   -5.5414917    754.93131  0.043327095  0.043406971            4 
 1453000    1.0238942   -5.5482857     756.5213  0.043388466  0.043397567            5 
 1454000    1.0141368   -5.5757857    752.27306  0.043115145   0.04338823            3 
 1455000    1.0164217   -5.5601754    754.70763   0.04322495  0.043378677            5 
 1456000    1.0149648   -5.5629599    757.93095  0.043379748  0.043369081            3 
 1457000    1.0048561   -5.5663156    754.41672  0.043148977  0.043359505            5 
 1458000    1.0023621   -5.5878936    755.08518  0.043157589  0.043349843            3 
 1459000    1.0381206    -5.576115    756.83575  0.043227996  0.043340177           12 
 1460000    1.0385901   -5.5631839      756.815  0.043197203  0.043330554            3 
 1461000    1.0307469   -5.5327391    757.08442  0.043183004  0.043320874            5 
 1462000     1.004851   -5.5615256    754.04126  0.042980008  0.043311284            4 
 1463000    1.0105679   -5.5924589      757.588  0.043152654  0.043301697            3 
 1464000    1.0025374   -5.5564403    759.13707  0.043211354  0.043292079            2 
 1465000    1.0077279   -5.5649939    756.81239  0.043049624  0.043282526            2 
 1466000    1.0397681    -5.576983    756.43811  0.042998983  0.043272939            3 
 1467000    1.0183333   -5.5720249    758.79903  0.043103785  0.043263249            4 
 1468000    1.0295772   -5.5710611    758.38342   0.04305083  0.043253492            3 
 1469000    1.0195754   -5.5655624    758.07012  0.043003751  0.043243669            5 
 1470000    1.0226819   -5.5684635    756.10185  0.042862917  0.043233832            3 
 1471000    1.0033261   -5.5838948    759.13395  0.043005549  0.043224018            4 
 1472000   0.99645334   -5.5850267    760.43437  0.043049953  0.043214056            3 
 1473000    1.0085027   -5.6114834    757.00435  0.042826678  0.043204201            2 
 1474000    1.0186735   -5.5881806     761.4649  0.043049802  0.043194278            5 
 1475000    1.0193273    -5.580567    762.78692  0.043095306  0.043184366            3 
 1476000    1.0321726   -5.5769068    760.75649  0.042951473  0.043174667            5 
 1477000    1.0190658   -5.5985672    759.53232  0.042853325  0.043165093            5 
 1478000    1.0061546    -5.581438    762.73481  0.043004895  0.043155388            4 
 1479000     1.027061   -5.5703334    761.71831  0.042918543  0.043145531            2 
 1480000    1.0052996   -5.5637623    763.51175  0.042990527  0.043135851            5 
 1481000    1.0053949   -5.5435395    765.96874  0.043099749  0.043126436            3 
 1482000    1.0123051   -5.5881962    761.31827   0.04280917  0.043117016            4 
 1483000    1.0355196   -5.6240456    761.91396  0.042813776  0.043107329            3 
 1484000    1.0255218   -5.5731254    763.53361  0.042875877  0.043097559            3 
 1485000    1.0135495   -5.6116333    765.67746   0.04296731  0.043087989            3 
 1486000    1.0030085   -5.5639074    766.99821  0.043012461   0.04307806            4 
 1487000    1.0031192   -5.5710886    765.77459  0.042914962  0.043068477            3 
 1488000    1.0473425    -5.567944    765.25756  0.042857166  0.043058942            4 
 1489000    1.0170317   -5.6050606    766.02227  0.042871181  0.043049433            3 
 1490000    1.0105968   -5.5632083    767.85822  0.042945091  0.043039934            3 
 1491000   0.98941377    -5.591315    764.78097  0.042744297  0.043030211            3 
 1492000    1.0178423   -5.5477677    767.95959  0.042893185  0.043020642            2 
 1493000    1.0276507   -5.5962473    766.49005  0.042782432  0.043010837            2 
 1494000    0.9814337   -5.6209801    763.80686  0.042604131  0.043000932            3 
 1495000   0.98880215   -5.5250468    768.98193  0.042864099  0.042991123            4 
 1496000    1.0186829   -5.5822767    769.42549  0.042860154  0.042981381            2 
 1497000    1.0464064   -5.5775866    765.98484  0.042639994  0.042971692            4 
 1498000    1.0279299   -5.5607663    768.53254  0.042753257  0.042961944            3 
 1499000    1.0078058   -5.5548853    769.45973   0.04277628  0.042952493            6 
 1500000    1.0141957    -5.579428    768.55509  0.042697505  0.042942917            3 
 1501000    1.0122192   -5.6251365    766.49612  0.042554748  0.042933124            8 
 1502000    1.0259359   -5.5256177    772.12397  0.042838658  0.042923452           12 
 1503000    1.0023591    -5.572943    768.70609  0.042620652   0.04291369            3 
 1504000     1.002818   -5.5666296    771.41902  0.042742632  0.042903824            3 
 1505000      0.98665   -5.5854621    771.06686  0.042694732  0.042894091            7 
 1506000    1.0157453   -5.6119742    770.35114  0.042626779  0.042884172            4 
 1507000   0.99426955   -5.5699301    771.61743  0.042668515  0.042874431            3 
 1508000    1.0070744   -5.5969422    771.15544   0.04261469   0.04286454            5 
 1509000    1.0291828   -5.6105805    769.79687  0.042511424   0.04285443            5 
 1510000    1.0230404   -5.5747909    773.94277  0.042712073  0.042844473            5 
 1511000    1.0013044   -5.5887646    773.15672  0.042640454  0.042834811            2 
 1512000   0.99613792   -5.5375001    773.13886  0.042611269   0.04282502            2 
 1513000    1.0064446   -5.5970184    773.82539  0.042620918  0.042815139            9 
 1514000    1.0002726   -5.5655914    773.93353  0.042598719  0.042805285            7 
 1515000   0.98122569   -5.5748162    773.88297   0.04256782   0.04279533            3 
 1516000    1.0171514   -5.5929883    772.18454   0.04244638  0.042785434            3 
 1517000   0.99992033   -5.6024355    775.69837  0.042611424   0.04277541            3 
 1518000    1.0233002   -5.5878471    774.77669  0.042532756  0.042765638            3 
 1519000    1.0263605   -5.5738623    773.95369  0.042459606  0.042755925            5 
 1520000   0.98847566   -5.5663505    776.14155   0.04255162  0.042746141            3 
 1521000    1.0076268   -5.6180588    774.42904  0.042429818  0.042736284            5 
 1522000    1.0278628   -5.5576489    777.95002  0.042594723  0.042726617            6 
 1523000   0.99952759   -5.6012692     778.3056  0.042586211  0.042717182            3 
 1524000    1.0089398   -5.6001772    777.72466  0.042526502  0.042707541            4 
 1525000    1.0382468   -5.5913398    779.57596  0.042599779  0.042697939            3 
 1526000   0.99939232   -5.5761075    779.43977  0.042564426  0.042688693            3 
 1527000    1.0023297   -5.5691806    781.28566  0.042637288  0.042679346            6 
 1528000   0.99202398   -5.6240204    779.81585  0.042529224  0.042670035            7 
 1529000   0.99754048   -5.5617489    782.52979  0.042649324  0.042660549            3 
 1530000    1.0154725   -5.6009075    780.01978  0.042484738  0.042650974            3 
 1531000   0.99424186   -5.5908571    779.85738  0.042448148  0.042641099            4 
 1532000   0.99905606   -5.6102507    778.39442  0.042340863  0.042631593            4 
 1533000   0.98081967   -5.5880112    779.92152  0.042396256  0.042621942            2 
 1534000   0.98593233   -5.6244296    780.21474  0.042384547  0.042612207            8 
 1535000   0.98366427   -5.5831714    779.34054  0.042309476  0.042602351            7 
 1536000    1.0275842   -5.6178357     780.6488  0.042352908  0.042592949            3 
 1537000    1.0300471   -5.6338307    781.80157  0.042387854  0.042583342            5 
 1538000    1.0009396   -5.5873142    782.23128  0.042383576  0.042573705            2 
 1539000    1.0059162   -5.6037865    788.06505  0.042671922  0.042564555            2 
 1540000    1.0036779   -5.6259839    782.40967  0.042338185  0.042555128            4 
 1541000   0.98825808   -5.5825572     785.0613  0.042454105  0.042546035            3 
 1542000    0.9996763   -5.6139966    785.95665  0.042474959  0.042536663            6 
 1543000   0.98849251   -5.6107068    787.18036  0.042513521  0.042527621            3 
 1544000   0.99419185   -5.6293573    786.08571  0.042426906  0.042518436            4 
 1545000    0.9935068   -5.5862357    791.07048  0.042668311  0.042509316            2 
 1546000    1.0174771   -5.5951809    786.98734   0.04242062  0.042500161            2 
 1547000    1.0100221   -5.6208737     788.2185  0.042459518  0.042491183            3 
 1548000   0.99833524   -5.5790303    789.31009  0.042490853  0.042481918            6 
 1549000    1.0082461   -5.5699294    792.87057  0.042654969  0.042472899            2 
 1550000     1.007154   -5.5854336    790.94159  0.042523741  0.042464047            3 
 1551000     1.002684   -5.5863198    791.63293  0.042533469   0.04245498            4 
 1552000   0.99607857   -5.5697571    789.28403  0.042379941  0.042445941            3 
 1553000    1.0011827   -5.5960345    788.88494  0.042331238  0.042436621            4 
 1554000   0.98355481   -5.5865791    789.16012  0.042318754   0.04242713            3 
 1555000   0.98824749   -5.6166077    788.07528  0.042233402  0.042417785            4 
 1556000   0.98003661   -5.5973526    789.61904  0.042288938  0.042408422            3 
 1557000    1.0160447   -5.5535815    789.97198  0.042280667  0.042399063            5 
 1558000   0.98419162   -5.5988552    792.93471  0.042411998  0.042389938            4 
 1559000   0.98701557   -5.6336726    787.80824  0.042110768  0.042380658            4 
 1560000    1.0015252   -5.6206596    792.87749  0.042354567  0.042371381            3 
 1561000    1.0025012    -5.562618    795.82839  0.042484966  0.042362239            8 
 1562000     1.005435   -5.6032501     792.4001  0.042274866  0.042353188            4 
 1563000   0.99209003   -5.5919669    792.02449  0.042227793  0.042343976            4 
 1564000   0.99627331   -5.6451252    793.98512   0.04230526  0.042334607            4 
 1565000    1.0098439   -5.6088206    792.60911  0.042204958  0.042325353            3 
 1566000   0.99047767   -5.5953454    795.23844  0.042317925  0.042316133            4 
 1567000   0.97621088   -5.6042574    796.15846  0.042339846  0.042307051            5 
 1568000   0.99091317    -5.638373    791.68923   0.04207532  0.042297834            9 
 1569000   0.99339094   -5.6302018    792.49648  0.042091379  0.042288492            2 
 1570000   0.99144627   -5.5914009    795.13155  0.042204435  0.042279183            5 
 1571000    1.0077886    -5.646482    793.79843  0.042106855  0.042270012            4 
 1572000    1.0096378   -5.5984554     794.6726   0.04212641  0.042260813            5 
 1573000   0.98379775   -5.6205012    793.88208   0.04205775  0.042251418            4 
 1574000     1.002727   -5.6338626     794.7264  0.042075731  0.042242136            4 
 1575000    0.9926951   -5.6132452    796.55486   0.04214576  0.042232761            6 
 1576000    1.0033294   -5.5872284    801.06189  0.042357333  0.042223682            5 
 1577000    1.0026978   -5.6350551    798.96986  0.042219925  0.042214653            8 
 1578000    0.9772746   -5.6258379    796.05276  0.042039119  0.042205438            3 
 1579000     1.016461   -5.6203189    798.57416  0.042145565  0.042196265            5 
 1580000    1.0201915   -5.5862983     798.5533   0.04211779  0.042187273            3 
 1581000   0.99634885   -5.5894498    798.01146   0.04206259  0.042178005            5 
 1582000   0.98031178    -5.595813    797.71004  0.042020124  0.042168827            5 
 1583000    1.0093978   -5.6174535    798.01379   0.04200957  0.042159615            6 
 1584000    1.0164842   -5.6459495    798.63735  0.042015854  0.042150402           11 
 1585000   0.94854603   -5.6160782    802.03705  0.042168089  0.042141195            3 
 1586000    1.0050296   -5.5750721    800.55893  0.042063836  0.042131868            3 
 1587000   0.99199226   -5.6284824    803.16615  0.042174236  0.042122614            4 
 1588000    1.0060518   -5.6264136    801.78114  0.042074997  0.042113249            5 
 1589000    1.0145067    -5.617065    800.53496  0.041983163  0.042103992            4 
 1590000    0.9647724   -5.6463674    799.38377  0.041896424  0.042094661            5 
 1591000    1.0020913   -5.6051926    802.31505  0.042023625  0.042085279            2 
 1592000   0.99769988     -5.62879    801.18684  0.041938172  0.042075846            3 
 1593000    1.0065718   -5.6272712    803.67831   0.04204218   0.04206646            9 
 1594000    1.0032662   -5.6209603    799.11166  0.041777063  0.042057023            4 
 1595000    1.0060726   -5.6201821    802.75284   0.04194111  0.042047742            3 
 1596000   0.99389469   -5.6116141    802.62424  0.041908116  0.042038293            3 
 1597000    1.0023024    -5.591275    803.58961  0.041932248  0.042029068            3 
 1598000    1.0084683   -5.6234732     800.8658  0.041763965  0.042019643            4 
 1599000    1.0077722   -5.6539783     803.9816  0.041900229   0.04201006            3 
 1600000    1.0068228   -5.6210138    805.37892  0.041946819  0.042000708            5 
 1601000    1.0051304   -5.6175753    803.37058  0.041816083  0.041991213            4 
 1602000    1.0179009   -5.5984985    807.46459  0.042002944  0.041981947            4 
 1603000   0.97065762   -5.5969377    806.53574  0.041928454  0.041972759            5 
 1604000     1.010777   -5.6153015    809.10744  0.042035923  0.041963748            3 
 1605000   0.98821485   -5.6164773    807.98682  0.041951548  0.041954655           10 
 1606000   0.98543645   -5.6465147    805.40575  0.041791498  0.041945381            3 
 1607000   0.99817191   -5.5959918    807.99577  0.041899801  0.041935965            3 
 1608000   0.98959545   -5.6036891    809.01175  0.041926397  0.041926772            3 
 1609000     1.017165    -5.573762    809.79459  0.041940884  0.041917686            3 
 1610000    1.0289195   -5.6398488    807.94131  0.041818909  0.041908644            4 
 1611000      1.01888   -5.6316581    809.88089   0.04189328    0.0418997            3 
 1612000   0.99567395   -5.5914777    809.26211  0.041835303  0.041890643            2 
 1613000   0.98617861   -5.6548326    806.66435  0.041675157  0.041881503            5 
 1614000   0.99985913   -5.6271803     806.7801  0.041655313  0.041872269            6 
 1615000     1.012701   -5.6037189    812.26075  0.041912319  0.041863078            4 
 1616000   0.99885983   -5.6322141    809.94918  0.041767181  0.041853877           12 
 1617000    1.0012189   -5.6518662    810.45012  0.041767168   0.04184476            3 
 1618000    1.0080007   -5.6464543     812.5283  0.041848388   0.04183555            2 
 1619000   0.97483113   -5.6268324    809.25197    0.0416539  0.041826079            4 
 1620000   0.99802004   -5.6268545    813.64103  0.041853963  0.041816871            1 
 1621000   0.98136685   -5.6341793    810.38372  0.041660689   0.04180767            3 
 1622000   0.98229328   -5.5986051    815.78432   0.04191247   0.04179841            4 
 1623000    1.0089264   -5.6219239    811.65676  0.041674715  0.041789158            3 
 1624000   0.98794921   -5.6049399    813.00153  0.041718059  0.041779981            5 
 1625000   0.97493522   -5.6289567    813.19989  0.041702558  0.041770685            6 
 1626000   0.98538417   -5.5871135    817.05318  0.041874394  0.041761593            3 
 1627000    1.0114373   -5.6169542    817.63307  0.041878358  0.041752526            2 
 1628000   0.99583614   -5.6200384    815.84772  0.041761247  0.041743517            4 
 1629000    1.0059764    -5.636427    816.90183  0.041789535  0.041734399            6 
 1630000    0.9943714   -5.6338011    815.24728  0.041679309  0.041725341            5 
 1631000   0.99477858   -5.6379223    815.10753  0.041646614  0.041716211            4 
 1632000    1.0083375   -5.6803412    814.13484  0.041571428  0.041707162            2 
 1633000   0.98891389   -5.6471772      816.791  0.041681517  0.041698168            7 
 1634000   0.99957651   -5.6448453    817.10081  0.041671808  0.041688791            2 
 1635000    1.0107788   -5.6078083    816.32276  0.041606664  0.041679501            3 
 1636000   0.99213691   -5.6045352    819.92743  0.041764845  0.041670506            4 
 1637000   0.99364251   -5.5979551    821.07372  0.041797685  0.041661383            6 
 1638000   0.99070874   -5.6194895    816.67643  0.041548455  0.041652327            4 
 1639000    1.0023176   -5.6418069    820.37931  0.041711374  0.041643089            4 
 1640000   0.98048635   -5.6125474    819.16088  0.041624028  0.041634069            5 
 1641000   0.97850882   -5.6272862    820.08844  0.041645767  0.041625125            4 
 1642000    1.0001204   -5.6095815    819.20015  0.041575322  0.041616169           10 
 1643000   0.99342057   -5.6706533    819.49527  0.041564986  0.041607031            3 
 1644000   0.98959063   -5.6206603    823.15597  0.041725262  0.041597796            3 
 1645000   0.98763797   -5.6501291    818.80628  0.041479548  0.041588532            4 
 1646000    0.9801423   -5.6490279    819.66169  0.041497655  0.041579086            2 
 1647000   0.98664774   -5.6784005    819.27968  0.041453131  0.041569675            4 
 1648000   0.95790464   -5.6289204    822.36592  0.041584037  0.041560542            2 
 1649000   0.99221171   -5.6602645    820.28625  0.041453722  0.041551072            7 
 1650000   0.99502677   -5.6243452    818.59053  0.041342956  0.041541811            4 
 1651000   0.99454751    -5.638931    820.42333  0.041410424  0.041532537            3 
 1652000   0.99440913   -5.6463305    819.93569  0.041360759  0.041523323            3 
 1653000   0.98286897   -5.6469343    823.12206  0.041496373   0.04151423            5 
 1654000    0.9752869   -5.6350548    823.89145  0.041510049  0.041505134            3 
 1655000   0.99811567   -5.5953086    826.16175  0.041599283  0.041496252            3 
 1656000   0.98801025   -5.6516649    824.94865  0.041513116  0.041487232            4 
 1657000   0.97400248   -5.6296211    824.22716  0.041451778  0.041478389            3 
 1658000    1.0025634   -5.6481954    825.42273  0.041486868  0.041469392            4 
 1659000   0.98208122   -5.6571233     823.2756  0.041354009   0.04146038            4 
 1660000   0.97228651   -5.6406151    828.75315  0.041604074  0.041451276            7 
 1661000   0.99877899   -5.6502046    827.93646  0.041538052   0.04144221            4 
 1662000   0.99341005   -5.6328071     828.9395  0.041563352  0.041433347            2 
 1663000    1.0034617   -5.6457139    826.61443  0.041421849  0.041424274            3 
 1664000   0.98908773   -5.6738291    826.93411  0.041412966  0.041415187            3 
 1665000   0.98765718   -5.6535198    826.72383  0.041377569  0.041406158            8 
 1666000   0.97466014   -5.6460411    827.11514  0.041372306  0.041397055            3 
 1667000   0.99363387   -5.6441302    828.63629   0.04142353  0.041387905            6 
 1668000    0.9836704   -5.6235907    826.02638  0.041268304  0.041378739            6 
 1669000   0.97091894   -5.6636518      827.502  0.041317256  0.041369605            5 
 1670000   0.95325592   -5.6457858     829.6682  0.041400609  0.041360538            6 
 1671000   0.98083301   -5.6396897     830.4567  0.041415156  0.041351353            2 
 1672000   0.98215062   -5.6700134    830.36422  0.041385777  0.041342306            3 
 1673000    1.0050696   -5.6567323     831.2539  0.041405355   0.04133317            2 
 1674000   0.98852278   -5.6432161     829.2158  0.041279162  0.041324293            3 
 1675000   0.97472489   -5.6107331     833.7177  0.041478493  0.041315345           12 
 1676000     1.000746   -5.6066957    836.61809  0.041597956  0.041306585            6 
 1677000   0.98286356   -5.6381125    833.67785  0.041427045  0.041297749            3 
 1678000   0.97743864   -5.6420823    830.63201  0.041251093  0.041288886            5 
 1679000    0.9835533   -5.6750672    830.12567  0.041201393  0.041279968            2 
 1680000    1.0006424   -5.6391379    831.33282  0.041236747  0.041271015            5 
 1681000    1.0009435   -5.6592249    832.53149  0.041271638  0.041262121            3 
 1682000   0.97705984   -5.6650841    833.36116  0.041288207   0.04125309            3 
 1683000   0.99177608    -5.647506    837.61113   0.04147411  0.041244233            4 
 1684000    0.9860554    -5.645206    836.16871  0.041378103   0.04123535            5 
 1685000   0.99436912   -5.6387498    834.23727  0.041258025  0.041226479            5 
 1686000   0.95557621   -5.6607889    835.06812   0.04127462  0.041217666            2 
 1687000   0.98123881   -5.6508294     837.4627   0.04136844  0.041208886            3 
 1688000   0.97457077      -5.6404    838.38675  0.041389551  0.041200198            2 
 1689000    1.0109346   -5.6497323    838.44556  0.041367947  0.041191433            4 
 1690000   0.99010768   -5.6496163    839.65108  0.041402913  0.041182714            6 
 1691000   0.98787059   -5.6160449    837.26311  0.041260748   0.04117408            6 
 1692000   0.98952436   -5.6809311    839.40203  0.041341708   0.04116552            3 
 1693000   0.97017777   -5.6463195    838.44128  0.041269998  0.041157114            3 
 1694000   0.96824469   -5.6545756    841.53786  0.041397966  0.041148814            5 
 1695000   0.97500292   -5.6524002    839.84443  0.041290287  0.041140659            3 
 1696000    1.0007204    -5.610336     844.7762  0.041508265  0.041132537            2 
 1697000    0.9704326   -5.6443677    845.69966  0.041529153  0.041124479            9 
 1698000   0.96951513   -5.6823612    839.26916  0.041189103  0.041116001            4 
 1699000   0.97270427   -5.6489954    840.74738  0.041237364  0.041107656            2 
 1700000   0.95638122   -5.6704655    840.63348  0.041207523  0.041099059            2 
 1701000   0.97285709   -5.6241324    843.85861    0.0413413  0.041090638            5 
 1702000   0.97873346   -5.6562979    844.16504  0.041332013  0.041082278            5 
 1703000   0.98335021   -5.6742456      842.677  0.041234928   0.04107395            6 
 1704000   0.98020679   -5.6654864    845.42544  0.041345141  0.041065438            3 
 1705000   0.99399099   -5.6393359    841.80365  0.041143873  0.041056756            3 
 1706000   0.99066737   -5.6291434    845.03283  0.041277493  0.041048377            6 
 1707000    1.0130371   -5.6417263    844.65089  0.041234666  0.041040017            4 
 1708000   0.99816966   -5.6844721     843.9232   0.04117502  0.041031368            3 
 1709000   0.99949632   -5.6664732    841.92157  0.041053324  0.041022723            2 
 1710000   0.98957274   -5.6840749    844.03754  0.041132434  0.041013913            4 
 1711000   0.95852203   -5.6814543    843.29343  0.041072152  0.041005126            2 
 1712000   0.98715665   -5.6725117    844.80925  0.041121946  0.040996419            9 
 1713000   0.97400751   -5.6478413    843.50923  0.041034697  0.040987398            3 
 1714000   0.97497467   -5.6405202    844.15571  0.041042187  0.040978455            4 
 1715000   0.99264387   -5.6771386    843.36529  0.040979849  0.040969543            3 
 1716000   0.99066871   -5.6485246    845.74938  0.041071746   0.04096079            5 
 1717000    0.9870476   -5.6597633    845.50987    0.0410362  0.040951819            3 
 1718000   0.97068475   -5.6596158    843.20459  0.040900494    0.0409428            2 
 1719000   0.98779278   -5.6531767    844.44046  0.040936613  0.040933847            4 
 1720000   0.97917423   -5.6477066    845.60331  0.040969153  0.040924888            3 
 1721000   0.98504561   -5.6443264    846.39991   0.04098392  0.040915967            2 
 1722000   0.98538719   -5.6908289    841.62874  0.040729227  0.040907194            6 
 1723000   0.98018473   -5.6000033     848.8624  0.041055446  0.040898075            3 
 1724000   0.97361697   -5.6800701    842.48559  0.040723395  0.040888662            3 
 1725000   0.99832857   -5.6771362    847.14376  0.040924819  0.040879592            3 
 1726000   0.96050187   -5.6622845    846.91644  0.040890133  0.040870614            6 
 1727000   0.97535367   -5.6547123    848.21557  0.040929144  0.040861559            3 
 1728000    1.0094789   -5.6846115     847.3509  0.040863759  0.040852529            4 
 1729000   0.97373006   -5.6595149    849.63593  0.040950257  0.040843447            3 
 1730000   0.98082916   -5.6741273    845.68616  0.040736328  0.040834471            2 
 1731000   0.98689349   -5.6559491    848.78903  0.040862171  0.040825591            2 
 1732000   0.98063797    -5.687787    848.22843  0.040811607  0.040816535            4 
 1733000    0.9702716   -5.6463558    852.32659  0.040985122  0.040807689            2 
 1734000   0.98689126   -5.6339873    850.23664  0.040861046  0.040798947            4 
 1735000   0.98460193   -5.6266491    852.09509  0.040926757  0.040789998            9 
 1736000   0.97482266   -5.7029069    850.96785  0.040849071  0.040781135            5 
 1737000   0.97765914   -5.6346373    851.78647  0.040864828   0.04077212            8 
 1738000   0.97173807   -5.6470136     853.2312  0.040910587  0.040763245            5 
 1739000   0.98464612   -5.6465207    853.64618  0.040906948   0.04075441            4 
 1740000   0.98419248   -5.6658195    851.47933  0.040779662  0.040745437            5 
 1741000   0.97076165    -5.645173    853.39937  0.040848142  0.040736622            3 
 1742000   0.98472549     -5.65113    853.36447  0.040823023  0.040727746            3 
 1743000   0.96009467   -5.6643696    852.60775  0.040763423  0.040718976            4 
 1744000   0.98526998   -5.6625647    854.56422  0.040833535  0.040710255            3 
 1745000   0.96328084   -5.6852271     855.1511  0.040838162  0.040701643            3 
 1746000   0.99069349   -5.6832778    853.64326  0.040742806  0.040692908            4 
 1747000   0.97008107   -5.6583967     855.0368  0.040785957  0.040684194            2 
 1748000   0.98382289   -5.6478384    855.07819  0.040764597  0.040675336            7 
 1749000   0.97111617   -5.6457125     855.8235  0.040776801  0.040666589            2 
 1750000   0.98544161   -5.6626653    855.03337  0.040715875  0.040657856            5 
 1751000   0.96438457   -5.6190936    857.24695   0.04079797  0.040649121            5 
 1752000   0.99067124   -5.6704547     855.6048  0.040696575  0.040640208            4 
 1753000   0.96212577   -5.6747805    855.63075  0.040674593  0.040631281            4 
 1754000    0.9472151   -5.6602143    857.67198  0.040748384   0.04062223            3 
 1755000   0.99687104   -5.6973186    854.40392  0.040569987  0.040613185            4 
 1756000   0.97545956   -5.6647459    857.56441  0.040696868   0.04060427            7 
 1757000   0.95159966   -5.7052745    855.43965   0.04057293  0.040595293            5 
 1758000   0.96593651   -5.6843501    855.60972  0.040557912  0.040586253            6 
 1759000   0.97448885   -5.7002106    852.42322  0.040383893  0.040577196            3 
 1760000   0.95448383   -5.6673846    857.75601  0.040613447  0.040568118            5 
 1761000   0.97578777   -5.6907986    854.89889  0.040455181  0.040559203            4 
 1762000   0.97358943   -5.7054293    853.56048  0.040368922  0.040550114            3 
 1763000    0.9927527   -5.6874255    858.53574  0.040581194  0.040540925            4 
 1764000   0.96518562   -5.6643831    858.44523  0.040553913  0.040532099            3 
 1765000   0.98274206   -5.6827348    859.03912  0.040558976  0.040523095            4 
 1766000   0.99742824   -5.6381729     858.8959  0.040529252  0.040514207            4 
 1767000   0.96406089    -5.676929    863.58875  0.040727634  0.040505328            5 
 1768000   0.98300824   -5.7062351    855.79103  0.040337058  0.040496512            3 
 1769000   0.96965492    -5.696798    859.43706  0.040486012  0.040487488            5 
 1770000    0.9709256   -5.6671455     862.0692  0.040587062  0.040478676            4 
 1771000   0.97587728   -5.6684518    864.12788  0.040661014  0.040470017            5 
 1772000   0.97587363   -5.7056783    860.79185  0.040481182   0.04046128            6 
 1773000   0.95600615   -5.6725445    863.20093   0.04057158   0.04045237            3 
 1774000   0.96488236   -5.6927887    861.49153  0.040468411  0.040443606            4 
 1775000   0.96523733   -5.6836414    864.40003  0.040582161  0.040434733            4 
 1776000   0.97033474   -5.6909035    861.07991  0.040403524  0.040426045            3 
 1777000   0.98450392    -5.648584    865.56887    0.0405913  0.040417326            3 
 1778000   0.96950567   -5.6852113    862.36664  0.040418384  0.040408577            4 
 1779000   0.95339767   -5.7027175    863.75234  0.040460574  0.040399764            4 
 1780000   0.97247436   -5.6727676    867.29642  0.040603765  0.040390957            3 
 1781000   0.96971906   -5.6579961    866.69642  0.040552892  0.040382142            4 
 1782000   0.95792044   -5.6732716    862.44424  0.040331287  0.040373464            3 
 1783000   0.96502039   -5.6707646    868.18178  0.040576827  0.040364713            6 
 1784000   0.98081935   -5.6495281    869.75606  0.040627619   0.04035612            3 
 1785000   0.98100537   -5.7084615     865.6639  0.040413814  0.040347458            5 
 1786000   0.96940416   -5.7046493     866.1702   0.04041481  0.040338723            5 
 1787000    0.9903108   -5.6938363    862.20104  0.040207099  0.040329845            2 
 1788000   0.97632755   -5.6913451    865.71359  0.040348322  0.040320933           14 
 1789000   0.94394038   -5.6896126    865.27403  0.040305293   0.04031213            4 
 1790000   0.95456097   -5.6869324    864.35916  0.040240185  0.040303165            2 
 1791000   0.94780503   -5.6862713    867.61315  0.040369121  0.040294183            4 
 1792000   0.96963804   -5.6827317    865.14382  0.040231763  0.040285237            4 
 1793000   0.96597117   -5.6498618    869.38096  0.040406254  0.040276312            3 
 1794000   0.96068562   -5.6889045      868.651  0.040349824  0.040267354            6 
 1795000   0.95400148   -5.6724279    866.18477  0.040212849  0.040258311            2 
 1796000   0.96444446   -5.6993869    866.26189  0.040194037  0.040249086            3 
 1797000   0.97446792   -5.7331219     864.2134  0.040076674    0.0402397            2 
 1798000   0.96798849   -5.6365143    868.01511  0.040230585   0.04023067            4 
 1799000   0.96558603    -5.685978    869.02142  0.040254837  0.040221498            4 
 1800000   0.97847613   -5.7007908    865.05899  0.040049027  0.040212369            3 
 1801000   0.95687274   -5.7062029    865.48203  0.040046365  0.040202978            3 
 1802000   0.98883814   -5.6826892     868.9775  0.040185789  0.040193824            3 
 1803000   0.98401347     -5.66245    866.22843   0.04003644  0.040184649            5 
 1804000   0.94138552   -5.6621486    868.92944  0.040139017  0.040175328            8 
 1805000    0.9536393   -5.6936231    866.40598  0.040000276  0.040166176            3 
 1806000   0.95263472   -5.6973156     867.4226  0.040025037  0.040156704            3 
 1807000   0.98037918   -5.7156695    867.11761  0.039988822  0.040147129            3 
 1808000   0.98107748     -5.65495    870.46422  0.040120954   0.04013783            5 
 1809000   0.97337638   -5.6866393     870.8517  0.040116625  0.040128706            5 
 1810000   0.98994593   -5.6843561    869.30873  0.040023422  0.040119349            4 
 1811000   0.94728301   -5.7336328    868.85945  0.039980648   0.04010998            5 
 1812000   0.94772159   -5.6944546     868.9706  0.039963696   0.04010053            5 
 1813000   0.94094481   -5.7093105    868.41921  0.039916309  0.040091216            6 
 1814000   0.95404163   -5.6970167    868.38101  0.039892549  0.040081951            3 
 1815000   0.94631743   -5.7032262     868.0346  0.039854665  0.040072596            4 
 1816000   0.96463951     -5.68788    870.32994  0.039938048  0.040063346            3 
 1817000   0.96643905   -5.6792428    869.66535  0.039885587  0.040054009            5 
 1818000   0.95584228   -5.6928346    872.39856  0.039988933  0.040044623            3 
 1819000   0.96122842   -5.6866701    869.77936  0.039846956   0.04003528            5 
 1820000   0.96915061   -5.7039701    872.60005  0.039954215  0.040025751            3 
 1821000   0.96746909   -5.6787569    872.93607  0.039947651  0.040016195            6 
 1822000   0.97075334   -5.7216547    870.44044  0.039811582  0.040006787            4 
 1823000   0.94351112   -5.6738764    872.33674  0.039876428   0.03999733            2 
 1824000   0.96613353   -5.6852679    871.55188  0.039818708   0.03998784            4 
 1825000   0.95879587   -5.7129278    874.20226  0.039917912  0.039978298            4 
 1826000   0.95246472   -5.7014534    874.51417  0.039910285  0.039968697            4 
 1827000   0.96975747   -5.7377958    869.26665   0.03964909  0.039959076            3 
 1828000   0.94790965   -5.7125859    876.11251  0.039939483  0.039949391            4 
 1829000   0.97620275   -5.7155285     871.4535  0.039705372  0.039939868            8 
 1830000   0.96131391   -5.7234125    871.09505  0.039667352   0.03993026            3 
 1831000   0.93889444   -5.6862237    874.24373  0.039788992  0.039920743            4 
 1832000   0.95791396   -5.7043596    877.00185  0.039892733    0.0399113            4 
 1833000   0.96038992   -5.6829993    878.35769   0.03993261  0.039901946            4 
 1834000   0.96714937   -5.7204366     876.7053  0.039835755  0.039892579            3 
 1835000   0.95820385   -5.7090679    876.86335  0.039821224  0.039883335            6 
 1836000   0.95396575    -5.761295    876.46555  0.039781479  0.039873833            4 
 1837000   0.96057262    -5.686638    878.18516  0.039837832  0.039864404            9 
 1838000   0.95813398   -5.7164827    874.67846  0.039657166  0.039855141            4 
 1839000   0.94753991   -5.7253676    877.05149  0.039743134  0.039845886            5 
 1840000   0.95588195    -5.750078    873.65365  0.039567647  0.039836523            3 
 1841000   0.94030067   -5.7287057     874.8214  0.039599013  0.039827102            2 
 1842000   0.95456502   -5.7239397    879.97974  0.039810882  0.039817839            9 
 1843000    0.9512181    -5.723628    876.95371  0.039652456  0.039808482            5 
 1844000   0.94676657    -5.695834     880.3262   0.03978336  0.039799146            4 
 1845000   0.95019331    -5.746608    877.87896  0.039651263  0.039789841            3 
 1846000    0.9513957   -5.7109563    878.56345  0.039660683  0.039780449            7 
 1847000   0.97228332    -5.694884    879.63725  0.039687658  0.039771076            4 
 1848000   0.93895625   -5.6901901    882.19347  0.039781451  0.039761802            3 
 1849000   0.95605803   -5.7447279    880.69579  0.039692437   0.03975259            5 
 1850000   0.95538955   -5.7075951    882.56344   0.03975511  0.039743397           11 
 1851000   0.96026132   -5.7440399      881.048  0.039665406  0.039734228            3 
 1852000   0.96442793    -5.716993    882.51192   0.03970986  0.039725084           10 
 1853000   0.97284018   -5.7238391    879.62282  0.039558501  0.039716026            3 
 1854000   0.95132932   -5.6959838    884.89784  0.039774265  0.039706922            5 
 1855000   0.94829466   -5.7296357    883.80857  0.039703889  0.039697901            7 
 1856000   0.95225842    -5.719153     882.5644  0.039626634  0.039688754            8 
 1857000   0.98001787   -5.7440023     881.9552  0.039577957  0.039679396            4 
 1858000   0.97544074   -5.7120555    885.47389  0.039714473  0.039670115            8 
 1859000   0.97047628   -5.6774337    885.91725  0.039712984  0.039660969            4 
 1860000   0.92220061   -5.7356284    882.51764  0.039539321  0.039651676            4 
 1861000   0.94408328   -5.6866651    885.50036  0.039651637  0.039642426            5 
 1862000   0.92928445   -5.7007356    884.55398  0.039587987  0.039633342            6 
 1863000    0.9553738   -5.7289308     883.1269  0.039502903  0.039624244            8 
 1864000   0.96237236   -5.6845281    884.22066  0.039530609  0.039615004            5 
 1865000   0.93929279   -5.6968507    888.70352  0.039709719  0.039605915            2 
 1866000   0.96316054   -5.6879465    887.07597  0.039615754  0.039596717            3 
 1867000   0.94448081   -5.6841276    887.32248  0.039605538  0.039587521            2 
 1868000   0.94511384   -5.7371513    882.91762  0.039387831  0.039578293            6 
 1869000   0.93693059   -5.7163997    884.86228  0.039453464  0.039569092            6 
 1870000   0.95925404   -5.7650223     884.9321  0.039435477  0.039559818            3 
 1871000   0.96404273   -5.7081706    885.81128  0.039453558  0.039550411            5 
 1872000   0.96349958   -5.7250514    887.45227  0.039505532  0.039541145            4 
 1873000   0.95071811   -5.7132019     886.9059  0.039460131  0.039531846            4 
 1874000   0.95369857   -5.7201556    885.33451  0.039369197  0.039522618            4 
 1875000   0.96475067   -5.7167581    887.81166  0.039458296  0.039513363            2 
 1876000   0.93218862   -5.7111731    887.57025  0.039426539  0.039504045            8 
 1877000   0.93332681   -5.7221321    887.96437  0.039423032  0.039494837            4 
 1878000    0.9542339   -5.6998464    888.93677  0.039445189  0.039485698            9 
 1879000   0.96520511   -5.7201094    891.19356  0.039524284  0.039476566            7 
 1880000   0.98005054   -5.7287993    887.41584  0.039335809  0.039467282            5 
 1881000   0.95017656   -5.7495081    887.38935  0.039313723  0.039457819            3 
 1882000   0.95720963   -5.7390109    891.42723  0.039471627  0.039448491            6 
 1883000   0.93678466   -5.7201727    888.30073    0.0393123   0.03943943            3 
 1884000   0.95776652   -5.7029976    890.29549  0.039379666  0.039430305            8 
 1885000   0.95657131   -5.6891999    891.96777  0.039432704  0.039421251            2 
 1886000   0.95881121   -5.7085189    892.61981  0.039440607  0.039412235            5 
 1887000   0.92441896   -5.7359675    888.63012  0.039243513  0.039403037            4 
 1888000   0.95261482   -5.7486045    890.79334  0.039318209  0.039393892            5 
 1889000   0.96043622   -5.7265051    891.23957   0.03931708  0.039384606            3 
 1890000   0.94498436   -5.7328571    890.51934  0.039264521  0.039375292            9 
 1891000   0.95380329    -5.727686     892.6989  0.039339807  0.039365955            5 
 1892000   0.95097803   -5.7112573    892.83712  0.039325102  0.039356877            3 
 1893000   0.95346638   -5.7259195    891.01869  0.039224278  0.039347625            3 
 1894000   0.94850972   -5.7257528    893.74839  0.039323671  0.039338436            3 
 1895000   0.96270476    -5.737288    892.88264  0.039264848   0.03932922            4 
 1896000   0.94716362   -5.7434873    895.65048  0.039365791  0.039320075            3 
 1897000   0.96034472   -5.7382323    893.21748   0.03923816  0.039310818            4 
 1898000   0.96483178    -5.714873    892.86589   0.03920205  0.039301558            4 
 1899000   0.95032103   -5.7683893    891.25496  0.039110714   0.03929224            5 
 1900000   0.96844468   -5.7353539     893.8036  0.039201912  0.039283087            5 
 1901000   0.94236576   -5.7403029    895.67879  0.039263492  0.039273965            4 
 1902000   0.93605411   -5.7393432    893.02613  0.039126627  0.039264721            5 
 1903000   0.96419806   -5.7328413    897.69509  0.039310522   0.03925537            4 
 1904000   0.94797314   -5.7258103    894.71721  0.039159542  0.039246024            3 
 1905000   0.93114726    -5.703919    895.82828  0.039187589  0.039236669            4 
 1906000   0.92346406   -5.7001705    896.20247  0.039183389    0.0392273            6 
 1907000   0.95433445   -5.7240776    896.26015  0.039165362  0.039217891            4 
 1908000   0.92822845   -5.7467048    893.41288  0.039020479  0.039208489            5 
 1909000   0.96064436   -5.7062909    894.77333  0.039059426  0.039199038            5 
 1910000   0.94076319   -5.7291894     898.0119  0.039180275   0.03918947            4 
 1911000   0.94122876    -5.756978    893.09003  0.038945144  0.039179981            3 
 1912000   0.93137946   -5.7052001    898.58148  0.039164116  0.039170497            5 
 1913000   0.90658688   -5.7335255    894.18008  0.038951911  0.039160934            3 
 1914000   0.94613423   -5.6915443    898.33001  0.039112243  0.039151503            6 
 1915000   0.95549067   -5.7444878    897.95244  0.039075389   0.03914221            4 
 1916000   0.96042511   -5.7042768    897.35862  0.039029167   0.03913258            5 
 1917000   0.94464929   -5.6968087     898.1699  0.039044075  0.039122991            3 
 1918000   0.94820614    -5.731712    897.29485  0.038985699    0.0391135            3 
 1919000   0.95633073   -5.7127208    897.55428  0.038976649  0.039103924            4 
 1920000    0.9393518   -5.7147574    900.61081  0.039089011  0.039094548            4 
 1921000   0.97619844   -5.7601519    898.49998  0.038977094  0.039084983            3 
 1922000    0.9501116   -5.6970692    900.52755  0.039044726  0.039075633            4 
 1923000   0.94431241   -5.7431171    897.89372  0.038910284  0.039066164            4 
 1924000    0.9243358   -5.7329968    901.21141  0.039033758  0.039056771            9 
 1925000   0.95760977   -5.7370968    901.22821  0.039014208  0.039047489            5 
 1926000   0.94575717   -5.7238921    900.25958  0.038952041  0.039038173            6 
 1927000   0.93151286   -5.7558238    900.04496  0.038922546  0.039028896            2 
 1928000    0.9509533   -5.7364297    902.18922  0.038995039  0.039019684            3 
 1929000   0.93109052   -5.7359864    902.75398  0.038999222  0.039010263            4 
 1930000   0.95025208   -5.7611388    898.91018  0.038813047  0.039001109            4 
 1931000   0.94228097   -5.7117902      903.656  0.038997756  0.038991977            3 
 1932000   0.94411281   -5.7311766    905.68032  0.039064886  0.038982791            8 
 1933000   0.96913334   -5.7685347    903.85841  0.038966133   0.03897361            5 
 1934000   0.94958643   -5.7344326    901.04227  0.038824641  0.038964387            3 
 1935000   0.95168377    -5.758699    905.63431  0.039002339  0.038955174            7 
 1936000   0.93211624   -5.7173936    903.98536  0.038911216  0.038946027            3 
 1937000   0.94108542   -5.7349523    906.19743  0.038986295  0.038936954            5 
 1938000   0.95285281   -5.7706883    903.18001   0.03883643  0.038927974            3 
 1939000   0.92116767   -5.7562497    904.88147  0.038889525  0.038918838            4 
 1940000    0.9326984   -5.7591938    906.02817  0.038918736  0.038909737            2 
 1941000   0.95425941   -5.7262347    903.41448  0.038786471  0.038900719            4 
 1942000   0.94745363   -5.7419191    907.47946  0.038940931  0.038891808            3 
 1943000   0.93416685   -5.7370423    907.34854  0.038915274  0.038882699            4 
 1944000   0.95246634   -5.7445045    909.54507  0.038989415  0.038873669            4 
 1945000   0.94857379   -5.7438749    909.15687  0.038952737  0.038864647            3 
 1946000   0.92297876   -5.7518456    907.40271  0.038857601  0.038855574            6 
 1947000   0.95247388   -5.7566879    907.10223  0.038824783  0.038846343            4 
 1948000   0.95578027   -5.7353918    907.78638   0.03883412  0.038837219            5 
 1949000    0.9380118   -5.7211123    906.49822  0.038759116  0.038828208            3 
 1950000   0.94078321   -5.7245255    908.89666  0.038841738  0.038819243            9 
 1951000   0.94978317   -5.7532453    909.20168  0.038834857  0.038810197            7 
 1952000   0.92882831   -5.7253798    910.92865  0.038888689   0.03880114            6 
 1953000    0.9457998    -5.748364    908.06177  0.038746449  0.038792183            3 
 1954000   0.93558238   -5.7455489    909.95832  0.038807502  0.038783408            5 
 1955000   0.96027148   -5.7013619    913.05085  0.038919473  0.038774615            3 
 1956000   0.93455057   -5.7332357    909.15127  0.038733438  0.038765733            6 
 1957000    0.9487835   -5.7589624    909.28516  0.038719348  0.038756906            4 
 1958000    0.9233351   -5.7648834    912.68892  0.038844438  0.038747998            4 
 1959000    0.9338514   -5.7532859    914.35182  0.038895347   0.03873916            4 
 1960000   0.94204483   -5.7335745     913.0526  0.038820264  0.038730497            3 
 1961000   0.93188311   -5.7405692    913.15327  0.038804745  0.038721793            4 
 1962000   0.93698611   -5.7646468    911.62703  0.038720142  0.038712972           10 
 1963000   0.93341005    -5.714867    915.84973   0.03887968  0.038704085            9 
 1964000   0.92145532   -5.7508956    913.12122  0.038744112  0.038695285            4 
 1965000   0.92306314   -5.7073593    913.96207  0.038760054  0.038686417           12 
 1966000   0.94412816   -5.7591785    912.24157  0.038667411   0.03867761            3 
 1967000   0.94338401   -5.7689124    916.46792  0.038826806   0.03866875            4 
 1968000   0.93773665   -5.7511189     913.7779   0.03869317  0.038659957            4 
 1969000   0.94959482   -5.7586211    913.36987   0.03865625  0.038651065            7 
 1970000   0.93825662   -5.7096664    915.11934  0.038710632  0.038642333            5 
 1971000   0.92399736   -5.7622946    915.79931  0.038719741  0.038633551            5 
 1972000     0.939331   -5.7569264    915.38165  0.038682456  0.038624724            4 
 1973000   0.92368559   -5.7528543    915.49015  0.038667433  0.038615881            5 
 1974000   0.94413168   -5.7262302    916.25618  0.038680183  0.038607085            2 
 1975000   0.94856031   -5.7560942     914.7604  0.038597485  0.038598348            8 
 1976000   0.95342807   -5.7372088    919.16362  0.038763648   0.03858941            6 
 1977000   0.94954155   -5.7929932    915.40851  0.038585757   0.03858058            5 
 1978000   0.94043345   -5.7402567     915.9867  0.038590609  0.038571635            3 
 1979000   0.93849801   -5.7864214    914.16811   0.03849453  0.038562712            6 
 1980000   0.91406132   -5.7736946    916.26402  0.038563301  0.038553795            4 
 1981000   0.95068573   -5.7740099     918.7069  0.038646597  0.038545119            5 
 1982000   0.95604532   -5.7542613    918.14872  0.038603629  0.038536337            4 
 1983000   0.94651575   -5.7405354    917.72108  0.038566191  0.038527523            8 
 1984000   0.94878588   -5.7151713    921.19165  0.038692525  0.038518718            7 
 1985000   0.95294147   -5.7125193    921.87918  0.038701897  0.038509984            3 
 1986000    0.9400531   -5.7488555     920.2765   0.03861516  0.038501331            4 
 1987000   0.92794164    -5.729416    921.87935  0.038662949  0.038492437            5 
 1988000   0.94429297   -5.7716417    918.14095  0.038486794  0.038483514            5 
 1989000   0.93691167   -5.7430559     919.0773  0.038506674  0.038474446            3 
 1990000   0.94379251   -5.7574695    919.40305  0.038500965  0.038465454            6 
 1991000   0.93040126   -5.7712596    920.91643   0.03854497  0.038456453            4 
 1992000   0.91709639    -5.799693     920.7808  0.038519946  0.038447493            2 
 1993000   0.93485907   -5.7683186    923.02026  0.038594257   0.03843863            5 
 1994000   0.93350266   -5.7579797    920.94464  0.038488158  0.038429864            4 
 1995000   0.94041167   -5.7290331    922.05542  0.038515264  0.038421081            3 
 1996000   0.93951948   -5.7619256    923.54992  0.038558363  0.038412291            4 
 1997000   0.93137427   -5.7417751    918.88442  0.038344367  0.038403381           11 
 1998000   0.92403927   -5.7567064    918.78709  0.038321116   0.03839443            4 
 1999000    0.9456609   -5.7137658    923.82423  0.038511932  0.038385529            3 
 2000000   0.95559865   -5.7609702    922.98009  0.038457504  0.038376667            3 
 2001000   0.92956752   -5.7552901    923.87822  0.038475688  0.038367835            5 
 2002000    0.9410752   -5.7345335    925.53578  0.038525465  0.038359025            5 
 2003000   0.93258346   -5.7887247    923.58582  0.038425105  0.038350153            4 
 2004000   0.90607999   -5.7669589    921.94329  0.038337628  0.038341138            7 
 2005000   0.93952981   -5.7563167    925.70428  0.038474825  0.038332243            4 
 2006000   0.92939241   -5.7363951    923.61377    0.0383688  0.038323435            5 
 2007000   0.91642696   -5.7674188    922.77721  0.038314948  0.038314495            3 
 2008000   0.94575777   -5.7558235    922.92745  0.038302102  0.038305605            3 
 2009000    0.9301622   -5.7754471    921.43087  0.038220958  0.038296615           10 
 2010000   0.91820907   -5.7456046    924.20884  0.038317116  0.038287606            3 
 2011000   0.92996586   -5.7399709    924.94239   0.03832846   0.03827862            1 
 2012000   0.92369955   -5.8115465    921.58159  0.038170212  0.038269572            5 
 2013000   0.90958734    -5.777134    921.84447  0.038162132  0.038260448            6 
 2014000   0.95225428   -5.7611504    922.89319  0.038186577  0.038251218            7 
 2015000   0.92823606    -5.797335    922.04751  0.038132651  0.038242043            7 
 2016000   0.93277234   -5.7734896    923.74488  0.038183899  0.038232716            3 
 2017000   0.93657072   -5.7779573    924.52773  0.038197312  0.038223414            5 
 2018000   0.94232785   -5.7842392    924.64415  0.038183191  0.038214206            5 
 2019000   0.90767801   -5.7776059    922.34069  0.038069205  0.038204859            6 
 2020000   0.92674132   -5.7623126    925.65021   0.03818689  0.038195797            5 
 2021000   0.91569674   -5.7786483    926.49235  0.038202719  0.038186421            2 
 2022000   0.91152488   -5.7644459    927.41171  0.038221716  0.038177142            5 
 2023000   0.91818205   -5.7518745    924.92412  0.038100351  0.038167993            6 
 2024000   0.89817684   -5.7857072    924.41639  0.038060622  0.038158723            3 
 2025000   0.94411264   -5.7668457    924.98512  0.038065231  0.038149349            7 
 2026000   0.91879515   -5.7852648    925.01779  0.038047787  0.038140073            4 
 2027000   0.92202637   -5.7429819    929.13925  0.038198456  0.038130828            3 
 2028000   0.94027508   -5.7673165    930.16289  0.038221683  0.038121568           12 
 2029000   0.92520343    -5.784704    928.48457  0.038133915  0.038112331            7 
 2030000     0.923974    -5.790997    925.54769  0.037994569   0.03810313            4 
 2031000   0.93523503   -5.7751947     931.1789  0.038206913  0.038094019            3 
 2032000    0.9244174   -5.8044783    926.85496  0.038010784  0.038084966            7 
 2033000   0.91700709   -5.8224457     926.1609  0.037963637  0.038075757            8 
 2034000   0.91756895   -5.7401755    933.27277  0.038236347  0.038066689            4 
 2035000   0.92683622   -5.7481668    928.87439  0.038037444  0.038057685            5 
 2036000   0.91874371   -5.7847391    929.55269  0.038046525  0.038048556            5 
 2037000   0.90571046    -5.811561     928.0662  0.037967035  0.038039322            3 
 2038000   0.91768472   -5.7521054    931.56135  0.038091321  0.038030055            2 
 2039000   0.91542871   -5.7801751    928.88937  0.037963437  0.038020849            6 
 2040000   0.95093713   -5.7916558    931.20258  0.038039321  0.038011613            5 
 2041000   0.94492656   -5.7827014    930.72319   0.03800111  0.038002503            4 
 2042000   0.93260769   -5.8169324    930.87819  0.037988826  0.037993239            6 
 2043000    0.9159031   -5.7804932    932.86703  0.038051355  0.037984223            7 
 2044000   0.93224359   -5.7829383    931.88943  0.037992883  0.037975177            4 
 2045000   0.93541594   -5.8170654    929.07856  0.037859762  0.037966129            6 
 2046000   0.91983781   -5.7695269    931.88338  0.037955498  0.037957004            5 
 2047000   0.92981371   -5.7970389    932.82696  0.037975369  0.037948028            2 
 2048000   0.92837325   -5.7805876    932.91545  0.037960427  0.037938954           11 
 2049000   0.93319549   -5.7662902    932.56961  0.037927835  0.037929782            4 
 2050000   0.92832319   -5.7799575    934.63322  0.037993221   0.03792066            6 
 2051000   0.92300695   -5.8040487    932.84116  0.037901884  0.037911584            3 
 2052000   0.92596156   -5.7707587    934.76629  0.037961594  0.037902465            5 
 2053000   0.92565088   -5.7986206     934.3334  0.037925532  0.037893294            6 
 2054000   0.93229346   -5.7613427    934.46173  0.037912274  0.037884119            5 
 2055000   0.91847876   -5.8043146    932.50808  0.037814602  0.037875016            6 
 2056000   0.90465963   -5.7991109    932.92651  0.037813169  0.037865895            4 
 2057000   0.93703539   -5.7798421    932.84382  0.037791437  0.037856527            4 
 2058000   0.91165625   -5.7713912    934.84238     0.037854  0.037847293            6 
 2059000   0.94479109   -5.8097563    934.66568  0.037828464  0.037838163            4 
 2060000   0.92880556   -5.7769872     934.5635  0.037805967  0.037828979            5 
 2061000   0.91864061    -5.777918    935.74629  0.037835448  0.037819991            3 
 2062000   0.91366304   -5.8035694    935.72682  0.037816312  0.037810948            3 
 2063000   0.91532846   -5.7899797    937.15159  0.037855534  0.037802026           11 
 2064000   0.92078037   -5.7696209    939.42089  0.037928815   0.03779307            5 
 2065000   0.91058826   -5.7650882    936.26527  0.037783102  0.037784088            6 
 2066000   0.90747859   -5.7865144    938.23021  0.037844071  0.037775138            3 
 2067000   0.90878407     -5.80718    935.08979  0.037699153  0.037766083            6 
 2068000   0.91825569    -5.780242    937.87658  0.037793221  0.037757087            5 
 2069000   0.91926277   -5.7861304    939.53624  0.037841801  0.037748137            5 
 2070000   0.91120111    -5.795755    936.91091  0.037717831  0.037739103            7 
 2071000    0.9075159   -5.8254332    934.44112  0.037600238  0.037730016            3 
 2072000   0.91085549   -5.7513635    938.84959  0.037759395  0.037720745            7 
 2073000   0.92496868   -5.8082374    936.75799  0.037657099   0.03771163            5 
 2074000   0.91103809   -5.7846478     936.6545  0.037634784  0.037702581            4 
 2075000   0.92097723    -5.818054    938.96581   0.03770947  0.037693263            4 
 2076000   0.92503712   -5.8047696    938.44516  0.037670406  0.037683935           10 
 2077000   0.92273361   -5.7844229    936.98689  0.037593761  0.037674782            3 
 2078000   0.91202993   -5.7792513    941.09946  0.037740594  0.037665584            4 
 2079000   0.90498695   -5.7784116    940.56016  0.037700824  0.037656548            3 
 2080000    0.9149906   -5.7856917    940.85183  0.037694384  0.037647576            4 
 2081000   0.93664054   -5.7677794    941.82298   0.03771516  0.037638528            6 
 2082000   0.92246723   -5.7878045    941.86661  0.037698792  0.037629576            3 
 2083000   0.92443092   -5.7815725    940.66129  0.037632473  0.037620502            6 
 2084000   0.90982523   -5.8235682    936.41115  0.037444464  0.037611391            5 
 2085000   0.91739611   -5.8027786    938.14832  0.037495936  0.037602344            5 
 2086000   0.91045447   -5.8159046    941.42972  0.037609049  0.037593266            7 
 2087000   0.90889675   -5.7720125    942.42679  0.037630841  0.037584254            5 
 2088000   0.90061374    -5.781462    943.26453  0.037646253  0.037575334            4 
 2089000   0.92628631   -5.8171183    939.56669   0.03748072  0.037566412            3 
 2090000   0.92453819    -5.763345    943.16729  0.037606351  0.037557412            7 
 2091000   0.91048504   -5.8097571    943.76209  0.037612071  0.037548354            4 
 2092000   0.90443334   -5.7633806    945.09194  0.037647066  0.037539523            8 
 2093000   0.90472287   -5.7691534     947.7328  0.037734225  0.037530796           13 
 2094000   0.91430413   -5.7891468    942.54726   0.03750984  0.037521956            7 
 2095000   0.91330549   -5.8034917     943.9717  0.037548596  0.037513106            4 
 2096000   0.87975419   -5.8030722    942.88677  0.037487546  0.037504216            6 
 2097000   0.91269791   -5.8253239     941.6616  0.037420982  0.037495282            5 
 2098000   0.93714422   -5.7819262     947.4935  0.037634791  0.037486316            3 
 2099000   0.92721923   -5.7696384    946.67003  0.037584168  0.037477362            8 
 2100000   0.89874438   -5.8096806    946.28995  0.037551188  0.037468431            4 
 2101000   0.91789621   -5.8076983    942.86511  0.037397474  0.037459471            5 
 2102000   0.90250942   -5.7907328    946.62724  0.037528831  0.037450698            6 
 2103000   0.89746472   -5.8164154    948.17667  0.037572384  0.037441932            4 
 2104000    0.9219527   -5.8066037    944.49663   0.03740877  0.037433188            4 
 2105000   0.94161075   -5.7764963    950.04275   0.03761056  0.037424405            7 
 2106000    0.8952279   -5.7754322    950.82578  0.037623686  0.037415689            5 
 2107000   0.91948668   -5.7574736    950.63335  0.037598218  0.037406963           10 
 2108000   0.91746159   -5.7749364    949.79139  0.037547098   0.03739828            5 
 2109000   0.91980712   -5.7885471    950.82451  0.037570117   0.03738954            4 
 2110000   0.92971604   -5.7912142    951.82965  0.037592008  0.037380773            4 
 2111000   0.93090031    -5.775241     948.2201  0.037431711   0.03737213            8 
 2112000    0.9159718    -5.829322    947.38407     0.037381  0.037363398            5 
 2113000   0.92022394   -5.8294699    947.80626   0.03737996  0.037354531            7 
 2114000    0.9330964   -5.8252138    948.59541  0.037393386  0.037345575            7 
 2115000   0.92770309    -5.787657    949.46318  0.037409897  0.037336736            7 
 2116000   0.89285635   -5.8044218    951.76223   0.03748276  0.037327987            5 
 2117000   0.90494256   -5.8125936    947.85472  0.037311239   0.03731922            3 
 2118000   0.92868879   -5.7991569    952.76826  0.037486948  0.037310592            3 
 2119000   0.90805914   -5.8050069    951.82909  0.037432322  0.037301865            8 
 2120000   0.91886007   -5.7993081    949.66409  0.037329563   0.03729305            6 
 2121000   0.91932643   -5.8085797    953.66517  0.037469164  0.037284287            6 
 2122000    0.9219668   -5.8208576    952.08718  0.037389537  0.037275491            4 
 2123000   0.91655915   -5.7995349    949.75392  0.037280339  0.037266764            8 
 2124000   0.90110737   -5.8117084    953.36643  0.037404521  0.037258016            4 
 2125000   0.92350076   -5.8105964    950.54202  0.037276158  0.037249267            4 
 2126000   0.91623639   -5.7909014    953.85277  0.037388397  0.037240531            8 
 2127000    0.8943099   -5.8029312    951.97966  0.037297432  0.037231682            2 
 2128000   0.91462305   -5.8257963    952.16852  0.037287301  0.037222916            8 
 2129000   0.91751251   -5.7837155     954.1839  0.037348673  0.037213991            1 
 2130000   0.90119931   -5.8077377    954.45782  0.037341855  0.037205221            4 
 2131000   0.91969973   -5.8083491    953.23373  0.037276464  0.037196363            6 
 2132000   0.89967483   -5.7789082    956.00943  0.037367473  0.037187528            3 
 2133000   0.88808322   -5.8098721     955.6942  0.037337639  0.037178663            4 
 2134000   0.92694673   -5.7867818    955.38506   0.03730807   0.03717003            5 
 2135000   0.92113854    -5.803561      956.659   0.03734032  0.037161377            3 
 2136000   0.92622843   -5.8229539    953.20819   0.03718821  0.037152567            4 
 2137000   0.89787125   -5.8250021    956.62938  0.037304219  0.037143841            5 
 2138000   0.91207212   -5.8266998    955.57851   0.03724581  0.037135134            3 
 2139000    0.9076711   -5.8142617    957.79114    0.0373146  0.037126461            4 
 2140000   0.90900444   -5.8313125    954.35394  0.037163316  0.037117644            3 
 2141000   0.91113602   -5.8145091    955.05292  0.037173164  0.037108746            5 
 2142000   0.91215014   -5.7957054    956.86267  0.037226217   0.03709991            4 
 2143000   0.91246977   -5.8158675    956.49846  0.037194683  0.037091077            3 
 2144000   0.90498467   -5.8414134    956.22287  0.037166623  0.037082081           12 
 2145000   0.91092005   -5.8066412    954.11037  0.037067225  0.037073247            3 
 2146000   0.88612864   -5.8106778     955.8641  0.037118053   0.03706439            5 
 2147000   0.90161151    -5.829377     956.5424  0.037127092  0.037055484            7 
 2148000   0.91767503   -5.8546677     957.2746  0.037138214  0.037046577           11 
 2149000   0.91754127   -5.8361485    955.50294  0.037052231  0.037037541            7 
 2150000   0.89810831   -5.8145683    956.81658  0.037085914  0.037028566            8 
 2151000   0.91430416   -5.8218252    959.63961  0.037178042  0.037019689            4 
 2152000   0.91266568   -5.8102172    959.08984  0.037139476  0.037011035            3 
 2153000   0.90428596    -5.817825    957.28266  0.037052278  0.037002202            4 
 2154000   0.92078914   -5.8120077    958.21266  0.037071056  0.036993291            5 
 2155000   0.91275004   -5.8159933    958.73196  0.037073935  0.036984606            6 
 2156000   0.92052424   -5.8105134    959.04273  0.037068751  0.036975779            4 
 2157000    0.9072195   -5.8447313    957.16158   0.03697889   0.03696688            9 
 2158000   0.91440029   -5.8341153     961.3962  0.037125278   0.03695819            9 
 2159000   0.91715546    -5.797825    959.97132  0.037053085  0.036949445            4 
 2160000   0.93045616   -5.7824681    964.01902  0.037192092  0.036940742            5 
 2161000   0.89131143   -5.8153738    960.91846  0.037055316  0.036932098            2 
 2162000   0.90112556   -5.8073629    961.15277  0.037047208  0.036923481            4 
 2163000   0.88609982   -5.8296766    961.92131   0.03705969  0.036914779           10 
 2164000   0.90058463   -5.8277531     959.9113  0.036965161  0.036906049            3 
 2165000   0.92250917    -5.828182    960.90112  0.036986186  0.036897219            4 
 2166000   0.91007266   -5.8219181    959.86108  0.036929096  0.036888483            9 
 2167000   0.88983091    -5.828672    963.36104  0.037046648  0.036879734            5 
 2168000   0.90870818   -5.8249814     962.6311  0.037001503   0.03687093            3 
 2169000   0.90949416   -5.8366065    960.73933  0.036911761  0.036862068            4 
 2170000   0.90963103   -5.8294141    963.14376  0.036987088  0.036853257            5 
 2171000   0.90223238   -5.8738656    960.49644  0.036868434  0.036844393            7 
 2172000    0.9072388   -5.8124481    964.57172  0.037007816  0.036835618            3 
 2173000   0.89811859   -5.8460414     961.9211  0.036889136  0.036826772            5 
 2174000   0.92205108   -5.8176543    964.89332  0.036986098  0.036818037           16 
 2175000   0.89959623    -5.822047    962.83114  0.036890082  0.036809223            5 
 2176000   0.91010352     -5.82175    963.10682  0.036883686  0.036800464            3 
 2177000   0.90447207   -5.8489119     961.0003  0.036786109  0.036791402            4 
 2178000    0.8895451    -5.820286    966.26687  0.036970725  0.036782587            3 
 2179000   0.89830015   -5.8232195    964.27858  0.036877718  0.036773756            5 
 2180000   0.90968802   -5.8105488    966.32628  0.036939078  0.036764925            6 
 2181000   0.88047573   -5.8268604    966.02944  0.036910799  0.036756241            5 
 2182000    0.9120098    -5.828681    966.18259  0.036899732  0.036747402            5 
 2183000   0.92657867   -5.8648986     962.6533  0.036748103  0.036738716            4 
 2184000   0.88853553   -5.8251131    962.77494  0.036735918  0.036729981            4 
 2185000   0.89772267    -5.806008    967.65949  0.036905396  0.036721296            2 
 2186000   0.89773479   -5.8459325    965.47625  0.036805285  0.036712508            5 
 2187000     0.890833   -5.8477917    962.35323  0.036669457  0.036703711            3 
 2188000    0.9047499   -5.8226841    968.95116   0.03690399  0.036694754            5 
 2189000   0.90997922   -5.8037029    968.31979  0.036863095  0.036686003            3 
 2190000   0.92154265   -5.8597357    965.93672  0.036755583   0.03667718            8 
 2191000    0.9121752   -5.8184729    968.81524   0.03684829  0.036668319            5 
 2192000    0.8752702   -5.8310832    966.64887  0.036749121  0.036659466            5 
 2193000    0.9042154   -5.8237328    964.85159  0.036664067  0.036650536            4 
 2194000   0.89659647   -5.8180019    966.87778  0.036724315  0.036641563            5 
 2195000   0.89509872   -5.7967095    969.26345  0.036798157    0.0366328            4 
 2196000   0.89122158   -5.8614693    964.76572  0.036610721  0.036623837            6 
 2197000    0.9014281   -5.8266953    965.97611  0.036639968  0.036615041           10 
 2198000   0.89052652   -5.8201906    966.35801  0.036637777  0.036606319            6 
 2199000   0.89386443   -5.8061098    972.84275  0.036866862  0.036597664            6 
 2200000   0.88639387   -5.8388787     970.6695  0.036767784  0.036588985            3 
 2201000   0.89399446   -5.7722946    971.63682  0.036787703  0.036580344            9 
 2202000   0.89485496   -5.7946679    971.46137  0.036764357  0.036571732            5 
 2203000   0.91172497   -5.8212572    971.78931  0.036760074  0.036563038            3 
 2204000   0.90950859   -5.8539513    970.35982  0.036689346  0.036554333            6 
 2205000   0.90331615   -5.8381093      971.885  0.036730348  0.036545457            3 
 2206000   0.90608182   -5.8296109    974.02946  0.036794706   0.03653684            7 
 2207000   0.89394915   -5.8078853    971.19699  0.036671084  0.036528223            3 
 2208000   0.89922236   -5.8434749    972.13972  0.036690056  0.036519558            7 
 2209000   0.89572285   -5.8108455    973.42324  0.036721867  0.036510837            4 
 2210000   0.88522981   -5.8242918    970.82222  0.036607173  0.036502041            6 
 2211000   0.89023114   -5.8429593    973.48023  0.036690797  0.036493317            4 
 2212000   0.86924378   -5.8381935    970.84838  0.036575059  0.036484571            3 
 2213000   0.90518167    -5.846693     968.8505    0.0364833  0.036475722            7 
 2214000   0.89077221    -5.832086    975.44418  0.036715002  0.036466963            5 
 2215000   0.90484829   -5.8235423    975.11315  0.036685972  0.036458113            5 
 2216000   0.89346779   -5.8522176    969.89271  0.036473101  0.036449259            3 
 2217000   0.86084708   -5.8776991    971.53649  0.036518437  0.036440416            5 
 2218000   0.90762793   -5.8464111    972.39544  0.036534244   0.03643156            9 
 2219000   0.88897548   -5.8747653    968.81965  0.036383493   0.03642262            9 
 2220000   0.89074427   -5.8288889    974.48434  0.036579743  0.036413746            3 
 2221000   0.90992333   -5.8287305    970.13804  0.036400197  0.036404906            5 
 2222000   0.89994883   -5.8593648    971.10359  0.036420026  0.036396097            6 
 2223000   0.90398142   -5.8323665    973.32022  0.036486738  0.036387209            4 
 2224000   0.89527479   -5.8418377    973.31468  0.036470124  0.036378435            2 
 2225000   0.90309338   -5.8690839    971.95815  0.036402927   0.03636959            3 
 2226000   0.90266337   -5.8488147    974.99398  0.036500224  0.036360746            4 
 2227000   0.91053086   -5.8545928    971.50822  0.036353398  0.036351828            3 
 2228000   0.88779579   -5.8681209    973.14202  0.036398191  0.036342977            5 
 2229000   0.89831352   -5.8487673    978.07262  0.036566196  0.036334291            6 
 2230000   0.89381176   -5.8535243    974.48866  0.036415869  0.036325591            6 
 2231000   0.89250034    -5.838977    973.34729  0.036356914   0.03631672            3 
 2232000   0.88285553   -5.8281635    973.70057  0.036353815  0.036307941            3 
 2233000   0.89833095   -5.8737534    974.25305  0.036358152  0.036299162            4 
 2234000   0.88555304    -5.856482    978.45134  0.036498483  0.036290386            4 
 2235000   0.87824699   -5.8825392    973.73863  0.036306437  0.036281619            8 
 2236000   0.87721654    -5.882276    972.79542  0.036255047  0.036272811            5 
 2237000   0.91437378   -5.8609414    977.79616  0.036425129  0.036263974            3 
 2238000   0.89344672   -5.8568818    977.49083  0.036397484  0.036255304            7 
 2239000   0.90118365   -5.8282932    976.92473  0.036360158  0.036246638            3 
 2240000   0.90078366   -5.8446028    978.29507  0.036394906  0.036237883           12 
 2241000   0.87600399   -5.8537702    975.54172   0.03627628  0.036229138            3 
 2242000   0.86492072   -5.8411934    978.47581  0.036369157  0.036220377            6 
 2243000   0.90086643   -5.8586921    976.15477   0.03626671  0.036211497            8 
 2244000   0.87791032   -5.8778605    975.55362  0.036228224   0.03620257            6 
 2245000   0.87593528   -5.8706529    977.29156  0.036276598  0.036193656            9 
 2246000   0.89362632   -5.8563933     974.0907  0.036141685  0.036184708            6 
 2247000   0.89818249   -5.8189127    979.11787  0.036312041  0.036175762           10 
 2248000    0.8959475   -5.8213783    977.49129  0.036235591   0.03616673            4 
 2249000   0.89783541   -5.8673584     975.4447  0.036143645  0.036157701            4 
 2250000   0.88793028   -5.8437221    977.11151  0.036189315  0.036148674            3 
 2251000    0.8980542   -5.8750231    973.40221  0.036035918   0.03613955            6 
 2252000   0.89467324   -5.8552241    974.32272  0.036053979  0.036130525            6 
 2253000   0.90259225   -5.8662468    977.33228  0.036149293  0.036121463            2 
 2254000   0.88826862   -5.8927988    973.85444  0.036004675   0.03611233            6 
 2255000   0.88792106   -5.8445637    977.60724  0.036127392  0.036103237            4 
 2256000   0.88451435   -5.8589818    975.50947   0.03603389  0.036094237            5 
 2257000   0.89298748   -5.8584143    979.42578  0.036162523  0.036085122            8 
 2258000   0.90713251   -5.8530954    979.68659  0.036156133   0.03607609           13 
 2259000   0.88935532   -5.8486539      977.997    0.0360778  0.036067102            7 
 2260000   0.89287405   -5.8411373    981.65725  0.036196801  0.036058131            9 
 2261000    0.8833031   -5.8513048    979.08978  0.036086163  0.036049128            4 
 2262000   0.88148805   -5.8539234    981.30026  0.036151645  0.036040139            3 
 2263000   0.88351013   -5.8679019    981.20369  0.036132114   0.03603113            6 
 2264000   0.90624878   -5.8428319    982.06261   0.03614777  0.036022134           15 
 2265000   0.88604507   -5.8970716    978.85042  0.036013628  0.036013192            5 
 2266000   0.90891486   -5.8587759    979.50006  0.036021626  0.036004155            4 
 2267000   0.91404404   -5.8395116    982.11853   0.03610199  0.035995302            5 
 2268000   0.91714799   -5.8838642    980.44211  0.036024475  0.035986359            4 
 2269000   0.89188248      -5.8332    981.98882  0.036065404  0.035977402            5 
 2270000   0.89209206   -5.8563411    982.11635  0.036054198   0.03596865            8 
 2271000   0.90382729   -5.8329341    983.10556   0.03607462  0.035959884            2 
 2272000    0.8900224   -5.8794759     981.6354   0.03600482  0.035951096            8 
 2273000   0.88531504   -5.8502007    985.14286  0.036117571  0.035942324            5 
 2274000   0.87006895   -5.8531542    984.97742  0.036095625   0.03593354            5 
 2275000   0.90413027   -5.8642948    984.03176  0.036045119  0.035924747            5 
 2276000   0.88217416   -5.8595575    982.71456  0.035981055  0.035915999            5 
 2277000   0.89609621     -5.86068    985.75303  0.036076454  0.035907277           12 
 2278000   0.89527742   -5.8872226    984.01023  0.035996862  0.035898528            5 
 2279000    0.8923922   -5.8792305    981.81865   0.03590093  0.035889754            5 
 2280000   0.90296201   -5.8658791    985.53165  0.036020894  0.035881024            5 
 2281000   0.90268895   -5.8958013    982.07549  0.035878836   0.03587222            7 
 2282000   0.88527102   -5.8763891    985.43309  0.035985725  0.035863367            6 
 2283000   0.90434885   -5.8918371    983.63666   0.03590439  0.035854581            7 
 2284000   0.88730457    -5.884418    985.90076  0.035971277  0.035845686            4 
 2285000   0.88810318    -5.877621    985.95613  0.035957554  0.035836943            7 
 2286000   0.86444333   -5.8947111    982.82743  0.035827772  0.035828167            9 
 2287000   0.88724556   -5.8830468    986.44702  0.035943996  0.035819303            5 
 2288000   0.85905186   -5.8362757    989.03353  0.036022491  0.035810552            6 
 2289000   0.90142773   -5.8408703    986.53551  0.035915811   0.03580182            6 
 2290000   0.89027658   -5.8632552    987.61617  0.035939453  0.035793086            3 
 2291000   0.87869523   -5.8776342     986.7661  0.035892845  0.035784249            6 
 2292000   0.89227551   -5.8716878    986.88897  0.035881652  0.035775395            6 
 2293000   0.88171152   -5.8684657    988.64035  0.035929654  0.035766506            4 
 2294000   0.90561702   -5.8995959    986.05971  0.035820245  0.035757769            9 
 2295000   0.88805351   -5.8456239    986.91245  0.035835601  0.035749046            5 
 2296000    0.8823978   -5.8670486    989.74935  0.035922959  0.035740316            3 
 2297000   0.89207195   -5.8517033    987.62439  0.035830227  0.035731654            4 
 2298000   0.86563671   -5.8785945    987.67514  0.035816476  0.035722868            7 
 2299000   0.86657768   -5.8601794    990.00616  0.035885391  0.035714223            4 
 2300000   0.88593031   -5.8715377    987.25447  0.035770089  0.035705557            6 
 2301000   0.88638796   -5.8667914    987.53549  0.035764721  0.035696792            4 
 2302000   0.90042162   -5.8656197    987.90214  0.035762458  0.035688069            3 
 2303000   0.87989942   -5.8351094    991.33795  0.035871253  0.035679348            5 
 2304000    0.8758563   -5.8711324    989.08977   0.03577437  0.035670635            3 
 2305000    0.9030071   -5.8876203    989.19537  0.035762667  0.035661846            2 
 2306000   0.86800192   -5.8588765    989.92441  0.035773504  0.035653052            8 
 2307000   0.88312032   -5.9028176    987.26279  0.035661855  0.035644241            8 
 2308000   0.89893168   -5.9082611    989.75693  0.035736458  0.035635343            3 
 2309000   0.89401377   -5.8869435    990.35659  0.035742623  0.035626595            3 
 2310000   0.88816908   -5.8787697    992.28331  0.035796656  0.035617773            3 
 2311000    0.8801612   -5.8639335    991.10999  0.035738857  0.035609033           11 
 2312000   0.88025273   -5.8880943    986.69215  0.035564163  0.035600186            3 
 2313000   0.86195198   -5.9014099    990.16326  0.035673846  0.035591283            3 
 2314000   0.88226281   -5.8815256    989.32381  0.035628198  0.035582393            6 
 2315000   0.88443869   -5.8734351    992.87645  0.035740693  0.035573609            5 
 2316000   0.89591404   -5.8867547    991.75584   0.03568494  0.035564856            6 
 2317000   0.88591902   -5.8943934    989.81527  0.035599744  0.035555904            8 
 2318000   0.89364199   -5.8638068    992.34553   0.03567535  0.035547074            7 
 2319000   0.90021535   -5.8603998    992.77142   0.03567527  0.035538244            9 
 2320000    0.8704087   -5.8695606    990.43345  0.035575914  0.035529442            7 
 2321000   0.87894367   -5.8905575    991.06473  0.035583252  0.035520587            8 
 2322000   0.89637334   -5.9088441    991.26851  0.035575241  0.035511635            9 
 2323000    0.8729869   -5.9075765    990.65023  0.035537747  0.035502737            8 
 2324000    0.8892641   -5.8728017    993.46209  0.035623282  0.035493933            4 
 2325000   0.88172444   -5.8781454    990.63274   0.03550655  0.035485081            8 
 2326000     0.878556   -5.8763718     991.4139  0.035519271  0.035476111            5 
 2327000   0.88508113     -5.83847    992.68198  0.035549419  0.035467164            6 
 2328000   0.86189699   -5.8769619    990.85199  0.035468642  0.035458198            6 
 2329000   0.86605144   -5.8614432    991.16968   0.03546478  0.035449422            5 
 2330000   0.89346593   -5.8752506    993.04834   0.03551675  0.035440532            4 
 2331000   0.85977052    -5.900827     989.8893  0.035388578  0.035431558            7 
 2332000   0.89114574   -5.8896653    992.54683  0.035468369  0.035422519            8 
 2333000    0.8832354   -5.8893267    992.75521  0.035460609  0.035413645            8 
 2334000   0.87449224   -5.8977977    993.30157  0.035464923  0.035404771            6 
 2335000   0.90059629   -5.8841713    994.60967  0.035496419  0.035395967            4 
 2336000   0.86045378   -5.8451033    994.59458  0.035480686  0.035387072            4 
 2337000    0.8929252   -5.8888432    994.37032  0.035457507  0.035378266            3 
 2338000   0.88978376   -5.9156821    995.50296  0.035482712  0.035369278            3 
 2339000    0.8777347   -5.8820037      995.533  0.035468612  0.035360361           10 
 2340000   0.87433652   -5.9078946    995.79922  0.035462935   0.03535143            3 
 2341000   0.86950737   -5.9194724    992.91421  0.035345088  0.035342507            7 
 2342000   0.88328688   -5.8730033     997.3505  0.035487849  0.035333674            6 
 2343000   0.88560542   -5.8818167    994.45435  0.035369695  0.035324779            9 
 2344000   0.89197252   -5.9319366    994.07905  0.035341263    0.0353159            4 
 2345000    0.8881868   -5.8926274    993.64335  0.035310709  0.035306898            3 
 2346000   0.87959549   -5.9382233    993.37056  0.035285968  0.035297827            3 
 2347000   0.89228802   -5.8623352    997.65323  0.035422995   0.03528888            4 
 2348000   0.87631278   -5.8568969    997.72831  0.035410573  0.035279941            5 
 2349000   0.89590619   -5.8959261    994.25035  0.035272114  0.035271052            7 
 2350000    0.8951777   -5.8865069    996.54157  0.035338353  0.035262215            2 
 2351000   0.86265536   -5.8844611    994.29959  0.035243853  0.035253346            4 
 2352000   0.86626163   -5.8701346    999.54837  0.035414837  0.035244532            5 
 2353000    0.8797453   -5.9137397    997.61922  0.035331464  0.035235679            6 
 2354000   0.87373524   -5.9118217      995.164  0.035229538  0.035226767            4 
 2355000   0.87584998   -5.8849742    996.50486  0.035262026  0.035217909            5 
 2356000   0.87199485    -5.879277    997.62162   0.03528656  0.035209152            3 
 2357000   0.87300089    -5.885819    997.06719  0.035251987  0.035200216           10 
 2358000   0.87654348   -5.8923077    995.33317  0.035175755  0.035191257           13 
 2359000   0.86810599   -5.8908724    996.33154  0.035196112  0.035182463            8 
 2360000   0.86817622   -5.8552059     1000.387    0.0353244  0.035173609           10 
 2361000    0.8733154   -5.8639075    1001.8083  0.035359604  0.035164836            2 
 2362000   0.86888159   -5.8746622    1002.6564  0.035374554  0.035156189            7 
 2363000   0.86315877   -5.9045696    998.25661  0.035204423  0.035147479            5 
 2364000   0.89198336   -5.9158207     999.0401   0.03521715   0.03513877            7 
 2365000   0.86720955   -5.8839235    1002.2178  0.035314227  0.035130127            5 
 2366000   0.86430412   -5.8866798     1004.489  0.035379298  0.035121414            6 
 2367000   0.87409305    -5.913466    1002.3034  0.035287403  0.035112642            4 
 2368000   0.87131571   -5.8821216     1003.003  0.035297123  0.035103911            3 
 2369000   0.88259899   -5.8987443    1002.6245  0.035268906  0.035095319            8 
 2370000   0.87356587   -5.8878657    1005.1831  0.035343989  0.035086741            4 
 2371000   0.87245308   -5.8966446    1002.5124  0.035235217  0.035078103            5 
 2372000   0.87852539   -5.8983492    1003.8089  0.035265911  0.035069465            5 
 2373000   0.86763634   -5.9130421    1000.4096  0.035131675  0.035060737            5 
 2374000   0.87563616   -5.8822987     1004.784   0.03527043  0.035052028            5 
 2375000   0.86973225    -5.912512    1004.7356  0.035253881  0.035043288            6 
 2376000   0.88185358   -5.9164074    1003.0223  0.035178953  0.035034517            5 
 2377000   0.85725406   -5.8937015    1004.5602  0.035218071  0.035025682            7 
 2378000   0.85050326   -5.9064462    1003.2027  0.035155687  0.035016971            8 
 2379000    0.8888485   -5.9183553    1003.5658   0.03515363  0.035008246            3 
 2380000   0.86245007    -5.939001    1001.2943  0.035059324  0.034999467            5 
 2381000   0.85293136    -5.892845    1002.4708  0.035085776  0.034990576           14 
 2382000   0.86826875   -5.9174512    998.85399  0.034944514  0.034981789            5 
 2383000   0.87039851   -5.8915389    1003.5327  0.035093463  0.034972961            7 
 2384000   0.85710407   -5.9296831    1002.7949  0.035052953  0.034964058            6 
 2385000   0.88506303   -5.8898654    1004.2618  0.035089512  0.034955173            6 
 2386000   0.86201628   -5.8878858    1002.1823  0.035002178  0.034946343            5 
 2387000   0.87599283   -5.8957669    1004.0079  0.035051247  0.034937568            3 
 2388000   0.89246261   -5.9195924    1003.3105   0.03501223  0.034928812            5 
 2389000   0.86816085   -5.9173012    1003.5689  0.035006588  0.034920046            5 
 2390000   0.88147924   -5.9192857    1003.9802  0.035006285  0.034911258            5 
 2391000   0.86226678   -5.8885215    1008.1156  0.035135773  0.034902525           10 
 2392000   0.87889301   -5.9199413    1006.6092  0.035068605  0.034893834           10 
 2393000   0.86578322   -5.8731033    1006.2385  0.035041039  0.034885233            5 
 2394000   0.88244806   -5.8860134    1006.5546  0.035037408  0.034876473            4 
 2395000   0.86766607    -5.914515    1007.1406  0.035043168  0.034867739           12 
 2396000   0.85311332   -5.9110018     1007.516  0.035041598  0.034858947            8 
 2397000   0.86772965   -5.9191522    1006.5718  0.034994152  0.034850175            7 
 2398000   0.87661265   -5.8896336    1008.4919  0.035046286  0.034841534           13 
 2399000   0.85438019   -5.9000549    1008.1273  0.035019013  0.034832782            6 
 2400000   0.86680823   -5.8917217    1006.8561  0.034960281  0.034824111           12 
 2401000   0.89234616   -5.9406836    1007.2335  0.034958821  0.034815555            5 
 2402000   0.86542269   -5.9050721    1009.9776  0.035039469  0.034806998            6 
 2403000   0.87116721   -5.9352028    1006.6546  0.034909648  0.034798403            7 
 2404000   0.86719476   -5.9132267    1008.6887  0.034965639   0.03478973            2 
 2405000   0.87243886   -5.9126392    1007.8788  0.034923035  0.034780969            7 
 2406000   0.87027455    -5.921648    1007.3142  0.034888966  0.034772264            3 
 2407000   0.87853102   -5.8989647    1008.5653  0.034917786  0.034763675            6 
 2408000   0.87319248   -5.9120716    1007.4567  0.034864921  0.034755024            4 
 2409000   0.85646089   -5.9088107    1008.8444  0.034898451  0.034746355            9 
 2410000   0.86376071   -5.9317749    1010.7785  0.034950849  0.034737724            7 
 2411000   0.87620406   -5.9247834    1010.4984  0.034926669  0.034729082            7 
 2412000   0.86286619   -5.9141729    1008.2907  0.034835913  0.034720413            7 
 2413000   0.88183363   -5.9345442    1008.6412  0.034833583  0.034711622            4 
 2414000   0.88750389   -5.9517489    1008.9666  0.034830384  0.034702894            4 
 2415000   0.86505491   -5.9175536    1008.3017  0.034793021  0.034694144            6 
 2416000   0.87110699   -5.9273792     1008.706  0.034792564  0.034685387            9 
 2417000   0.85811469   -5.9315646    1008.5533  0.034772904   0.03467675            6 
 2418000   0.85025148   -5.9266784    1008.3192  0.034750456  0.034668066            3 
 2419000   0.86589653   -5.9088707    1008.8202  0.034753347  0.034659353            8 
 2420000   0.84397646   -5.9527781    1009.4848  0.034761875  0.034650557            5 
 2421000   0.86798579   -5.9304875    1011.0502  0.034801398  0.034641778            5 
 2422000   0.85428337   -5.9496717    1013.2771   0.03486365   0.03463313            6 
 2423000    0.8600995   -5.9311743    1011.2537  0.034779671  0.034624493            6 
 2424000   0.87676943   -5.9065485    1012.6792  0.034814329  0.034616004            9 
 2425000   0.86501682   -5.9385826    1014.1132  0.034849251  0.034607476            4 
 2426000   0.86297105   -5.9103637     1014.136  0.034835669  0.034598907            5 
 2427000    0.8620415   -5.9132326    1012.7907  0.034775124  0.034590486            8 
 2428000     0.843228   -5.9189121    1011.6664  0.034722215  0.034581975            6 
 2429000   0.88555958   -5.9574909    1013.7076  0.034777948  0.034573406            9 
 2430000   0.87881613   -5.9110257    1013.9924    0.0347734  0.034564859           16 
 2431000   0.85555543   -5.9114545     1014.961    0.0347923  0.034556366            4 
 2432000   0.86865744   -5.9156089    1016.3544  0.034825739  0.034547986            4 
 2433000   0.86250597   -5.9327668    1015.9693  0.034798235   0.03453956            3 
 2434000   0.85278153   -5.9315839    1014.1056   0.03472013  0.034531113            5 
 2435000   0.84811249   -5.8946382    1014.2044  0.034709255  0.034522612            6 
 2436000   0.85877412   -5.8927819    1018.8003  0.034852226  0.034514203            3 
 2437000   0.86416554   -5.9443937    1019.5371  0.034863121  0.034505729            5 
 2438000    0.8635122   -5.9050272    1017.9573  0.034794821  0.034497307            4 
 2439000   0.86025091   -5.9324233     1014.926  0.034676984  0.034488897            5 
 2440000   0.88135261   -5.9323613    1017.8144   0.03476142  0.034480359            6 
 2441000   0.85746676    -5.939579    1016.9513  0.034717715  0.034471832            6 
 2442000    0.8740185    -5.894568     1017.802  0.034732527  0.034463395            3 
 2443000   0.86701153   -5.9259712    1018.7197  0.034749613  0.034454975            5 
 2444000   0.85285925   -5.9475382    1012.3428  0.034517961  0.034446517            6 
 2445000   0.84602652   -5.9291824    1016.7966  0.034655643  0.034438031            9 
 2446000   0.87362211   -5.9222229    1017.0957  0.034651666  0.034429552            2 
 2447000   0.86010082   -5.9297464     1016.721  0.034624744  0.034421128           10 
 2448000   0.85193356   -5.9422869    1017.0431  0.034621567  0.034412677            5 
 2449000   0.86350368   -5.9171855    1018.0479   0.03464162   0.03440419            5 
 2450000   0.85413825   -5.9568869    1016.6982  0.034581572  0.034395751            9 
 2451000   0.88464522   -5.9250382      1019.52  0.034663402  0.034387278            6 
 2452000   0.87886146   -5.9712345    1016.1685  0.034535361  0.034378747            4 
 2453000   0.87204067   -5.9272968    1017.6767  0.034572519  0.034370192           14 
 2454000   0.85044966   -5.9349056     1018.044  0.034570904  0.034361573            4 
 2455000   0.88071792   -5.9430438    1013.2907  0.034395475  0.034353044            5 
 2456000   0.84772444   -5.9620002    1018.0495  0.034542938  0.034344449            8 
 2457000   0.87181781   -5.9336227    1018.8351  0.034555526  0.034335698           10 
 2458000   0.84931301   -5.9190624    1019.6934  0.034570567  0.034327084            5 
 2459000   0.85525524   -5.9355203    1016.5514  0.034450028    0.0343184            4 
 2460000   0.87110016   -5.9413114    1016.2781  0.034426765  0.034309747            6 
 2461000   0.86819426   -5.9020921    1020.6847  0.034561992  0.034301253            5 
 2462000   0.84284324   -5.9256263    1017.5929    0.0344433  0.034292773            7 
 2463000   0.83789929   -5.9072552    1020.4634  0.034526439  0.034284247            3 
 2464000   0.84728445   -5.9637184    1019.5057  0.034480036  0.034275678            4 
 2465000   0.85592136   -5.9290879    1018.7534  0.034440616  0.034267135            7 
 2466000   0.87900305   -5.9346817    1018.7519  0.034426599  0.034258621           22 
 2467000   0.85015842   -5.9425442    1019.9252  0.034452275  0.034250066            3 
 2468000   0.86171362   -5.9382914    1022.3064  0.034518719  0.034241583           11 
 2469000   0.86610848   -5.9488632    1021.4148  0.034474645  0.034233092            7 
 2470000   0.87920443   -5.9434027    1023.4971  0.034530941  0.034224571            5 
 2471000   0.85922631   -5.9441453     1019.925  0.034396499  0.034216148            5 
 2472000    0.8610383   -5.9432524    1020.7721  0.034411142  0.034207644            5 
 2473000   0.86833778   -5.9182359    1021.3244  0.034415837  0.034199211            3 
 2474000   0.85710278   -5.9482545    1023.8705  0.034487688   0.03419082            5 
 2475000   0.84052443   -5.9391624    1023.7117  0.034468406  0.034182322            5 
 2476000   0.85408595   -5.9161069    1025.5827  0.034517458  0.034173954            7 
 2477000    0.8269058   -5.9467348    1022.6442  0.034404664  0.034165577            5 
 2478000   0.84914022   -5.9178755    1022.8472  0.034397605  0.034157202            5 
 2479000   0.86702886   -5.9405254    1022.6134  0.034375871  0.034148815            5 
 2480000   0.82574809   -5.9481207    1022.7748  0.034367434  0.034140358            6 
 2481000   0.88691298   -5.9380208    1019.6909  0.034249996  0.034131854            6 
 2482000   0.84564705   -5.9271154    1025.5824  0.034434004  0.034123429            4 
 2483000   0.83784198   -5.9430329    1024.5401  0.034385156  0.034115015            6 
 2484000   0.82653794   -5.9934444    1021.0263  0.034253433  0.034106462            6 
 2485000   0.86527554   -5.9751524    1023.9968  0.034339261  0.034097953           10 
 2486000   0.85774321   -5.9776262    1022.5189  0.034275908  0.034089456            8 
 2487000   0.84826127   -5.9738319    1022.2622  0.034253524  0.034080923            5 
 2488000   0.83695219   -5.9476581    1026.7856  0.034391264  0.034072498            6 
 2489000    0.8549238   -5.9296494    1026.6246  0.034372058  0.034064114            5 
 2490000   0.84833489   -5.9353202    1026.4731  0.034353182  0.034055738            5 
 2491000    0.8813946   -5.9114398    1027.7399   0.03438177  0.034047359            4 
 2492000   0.85517333   -5.9261715    1023.6313  0.034230581  0.034038925            9 
 2493000    0.8413267   -5.9873885    1023.6808  0.034218506  0.034030457            4 
 2494000   0.86841746   -5.9475478    1025.9293  0.034279915  0.034021957            3 
 2495000   0.82664163   -5.9555799    1026.1792  0.034274524  0.034013493            3 
 2496000   0.86231301   -5.9551565    1024.6412  0.034209441  0.034004913           10 
 2497000   0.85252916    -5.985818    1026.8685  0.034270076  0.033996348            6 
 2498000   0.87509328   -5.9738321    1023.7402  0.034151996  0.033987752            6 
 2499000   0.84282605   -5.9472519    1025.4467  0.034195234  0.033979214            5 
 2500000    0.8509506   -5.9414657    1025.7398  0.034191326  0.033970638            6 
 2501000   0.85542652    -5.944671    1030.7574  0.034344842  0.033962144            6 
 2502000   0.86586103   -5.9408005    1025.0291  0.034140324  0.033953737           11 
 2503000   0.84731994   -5.9456925     1025.338   0.03413697  0.033945201            7 
 2504000   0.85857705   -5.9123675    1028.1787  0.034217876  0.033936705            4 
 2505000   0.84358255   -5.9476598    1025.7948  0.034124911  0.033928103            9 
 2506000   0.84144017   -5.9151949    1027.3031   0.03416145  0.033919581            3 
 2507000   0.85735923   -5.9219274    1026.8406  0.034132449  0.033911087           15 
 2508000   0.84247775   -5.9502393    1023.7112   0.03401486  0.033902516            3 
 2509000   0.84285305   -5.9618016    1025.0743  0.034046577  0.033893823            3 
 2510000   0.86776767   -5.9678365    1025.9667  0.034062641  0.033885257            3 
 2511000   0.83912987   -5.9379454    1025.2583  0.034025566  0.033876663            4 
 2512000   0.84265335    -5.963609    1029.2925  0.034145848  0.033868014            5 
 2513000   0.85232701   -5.9522997    1026.8277  0.034050527  0.033859363            4 
 2514000   0.86247043   -5.9771713    1025.7685  0.034001874  0.033850691            7 
 2515000   0.84284526   -5.9722902     1028.507  0.034079091  0.033842063            5 
 2516000   0.83944101   -5.9563242    1025.7423  0.033973977  0.033833515            8 
 2517000   0.84961241   -5.9728563    1029.0356  0.034069515  0.033824884            5 
 2518000   0.85343804   -5.9350739     1026.158  0.033960751   0.03381625            5 
 2519000    0.8430491   -5.9769943    1025.3337  0.033919997  0.033807602            6 
 2520000   0.82877493   -5.9624277    1027.4225  0.033975612  0.033799095            6 
 2521000   0.85549331   -5.9616867    1026.6357  0.033936126  0.033790519            5 
 2522000   0.83864193   -5.9735858    1025.1527  0.033873669  0.033781963            7 
 2523000     0.844192   -5.9702991    1030.0833  0.034023098  0.033773341            5 
 2524000   0.84214766   -5.9709983     1028.575  0.033959819  0.033764807            4 
 2525000   0.84496589   -5.9635009    1027.9868  0.033926956  0.033756234            7 
 2526000   0.84758439   -5.9355539    1026.9512  0.033879363  0.033747698            3 
 2527000   0.84608427    -5.965119    1029.3569  0.033945287  0.033739212            8 
 2528000   0.84923753   -5.9764386    1026.9478  0.033852446  0.033730677            6 
 2529000    0.8693999   -5.9543196    1031.4043  0.033985905   0.03372218            4 
 2530000   0.85651977   -5.9589053    1030.7363   0.03395047  0.033713692            4 
 2531000   0.84557011   -5.9452839    1028.1785   0.03385284  0.033705095            4 
 2532000   0.83969981   -5.9779284     1029.056  0.033868351  0.033696462            9 
 2533000   0.85638043   -5.9582137     1029.629  0.033873833  0.033687848            5 
 2534000   0.85518421   -5.9682247    1027.4902  0.033790127  0.033679324            6 
 2535000   0.83311275   -5.9886756    1028.3004  0.033803432  0.033670842            8 
 2536000   0.84736352   -5.9331173    1030.0269  0.033846834  0.033662288           11 
 2537000   0.85151688   -5.9378769     1031.437  0.033879811  0.033653803            6 
 2538000   0.83257464   -5.9545459    1029.4615  0.033801598  0.033645308            5 
 2539000   0.83633727   -5.9367694    1031.9297  0.033869295  0.033636858           11 
 2540000    0.8412659   -5.9280638    1034.2521  0.033932156  0.033628348            7 
 2541000   0.85373902   -5.9393734    1031.6311  0.033832844  0.033619949            7 
 2542000   0.84509993   -5.9621725    1032.8811  0.033860515  0.033611513           10 
 2543000   0.86388035   -5.9788289    1030.0416  0.033754149  0.033603028           13 
 2544000   0.84966794   -5.9763523    1032.0066  0.033805249  0.033594606            5 
 2545000   0.85613501   -5.9596005    1033.2189   0.03383166  0.033586124            4 
 2546000   0.85020446   -5.9513071    1035.4386  0.033891027  0.033577672            8 
 2547000   0.85037107   -5.9939882    1033.4376  0.033812251  0.033569151            7 
 2548000   0.85882165   -5.9532155     1032.683  0.033774302  0.033560603            6 
 2549000   0.83488946   -5.9725095    1032.1277  0.033742896  0.033552107            7 
 2550000    0.8421619   -6.0112698    1031.9152  0.033722717  0.033543646            3 
 2551000   0.83148804    -5.963288    1033.6671   0.03376673  0.033535039            8 
 2552000   0.83024208   -5.9580448    1035.7043  0.033820021   0.03352659            5 
 2553000   0.84160831   -5.9816123    1032.6394   0.03370673  0.033518066            8 
 2554000   0.85030951   -5.9623081      1032.37  0.033684744  0.033509545            4 
 2555000   0.83530586   -5.9518513     1037.538  0.033840117   0.03350109            4 
 2556000   0.84491345    -5.960734    1035.0122   0.03374453  0.033492776           12 
 2557000   0.83853909   -5.9664501    1034.1268  0.033702477  0.033484246           11 
 2558000   0.83945154   -5.9485929     1034.974  0.033716901  0.033475733            3 
 2559000   0.82163602   -5.9774932    1032.4674  0.033622097   0.03346722           10 
 2560000   0.83226826   -5.9576703    1035.4869  0.033707256  0.033458695            5 
 2561000   0.84583014   -5.9721267    1035.2622  0.033686783  0.033450198            4 
 2562000   0.82175625   -5.9928548    1032.8828  0.033596241  0.033441684            7 
 2563000   0.84261992   -5.9681935    1039.1246  0.033786076  0.033433278            5 
 2564000   0.82691119   -5.9502046    1036.0296  0.033672309  0.033424799            5 
 2565000   0.85245577   -5.9720798    1033.1143  0.033564466  0.033416223            7 
 2566000   0.83779902   -5.9572543    1035.9582  0.033643746  0.033407629            5 
 2567000   0.84571499   -5.9425661    1037.0524   0.03366616  0.033399085            4 
 2568000   0.87136617    -5.985452    1033.8501  0.033549134  0.033390566            7 
 2569000   0.86252053   -5.9942405    1034.0858  0.033543721    0.0333819            9 
 2570000   0.83775453    -5.971219    1035.6885  0.033582635  0.033373275            8 
 2571000   0.83779882   -6.0042375    1031.0996  0.033420835  0.033364513            6 
 2572000   0.83568539   -5.9718684    1032.4869   0.03345279  0.033355798            5 
 2573000   0.85069481   -6.0005087    1033.0676  0.033458597  0.033347078            6 
 2574000   0.81119817   -5.9725465    1033.4491  0.033457947  0.033338506           12 
 2575000   0.84291216   -5.9454475    1036.1795  0.033533317   0.03332993            7 
 2576000   0.82996521   -5.9965324    1032.2102  0.033391892  0.033321306            4 
 2577000   0.84356297   -5.9813203    1035.7309  0.033492787  0.033312658            7 
 2578000   0.85547841   -5.9810446    1035.2206  0.033463298  0.033304058            4 
 2579000    0.8390473    -5.986607    1034.4334  0.033424886  0.033295414            3 
 2580000   0.85249186   -5.9948856     1031.833   0.03332794  0.033286837            8 
 2581000   0.84053518   -5.9873828    1033.5154  0.033369347  0.033278115           10 
 2582000   0.82795639   -5.9812879    1035.7654   0.03342904   0.03326947            6 
 2583000   0.84134141   -5.9519567    1039.4849    0.0335361  0.033260923            8 
 2584000   0.84287419   -5.9650831    1035.7334  0.033402136  0.033252264            7 
 2585000   0.82816302   -5.9838977     1032.267  0.033277466  0.033243618            7 
 2586000   0.81662057   -5.9711164    1035.0705  0.033354939  0.033235038            6 
 2587000   0.84100724   -6.0093701    1036.9881  0.033403817  0.033226448           19 
 2588000   0.84447399   -5.9800222    1036.1141  0.033362767  0.033217827            9 
 2589000   0.83127482   -5.9893428    1036.7837  0.033371435  0.033209106            8 
 2590000   0.82983872   -5.9786645    1037.4872  0.033381184  0.033200355            3 
 2591000   0.85368963   -5.9489098      1037.91  0.033381898  0.033191797            7 
 2592000   0.85668175   -5.9649617    1036.4912  0.033323404  0.033183168            4 
 2593000   0.83244735   -5.9838192     1035.948  0.033293098  0.033174534            4 
 2594000   0.82298673   -5.9742235    1038.6144  0.033365923  0.033165928            9 
 2595000   0.81911916   -5.9634622    1036.3235  0.033279496  0.033157403           10 
 2596000   0.83203765   -5.9985846    1038.0983  0.033323648  0.033148785           15 
 2597000   0.82253425    -5.981229    1038.5624   0.03332571  0.033140142            4 
 2598000   0.85005883   -5.9807048    1037.4783  0.033278109  0.033131503           11 
 2599000   0.82872915   -5.9838221     1039.022  0.033314799   0.03312283            7 
 2600000    0.8510012   -5.9745816    1038.1265  0.033273284  0.033114149            6 
 2601000   0.85350379   -6.0129551    1038.3001  0.033266055  0.033105595            7 
 2602000   0.83794042   -5.9814899    1041.3251   0.03335015  0.033097037            7 
 2603000    0.8468025   -5.9856295    1039.4851  0.033278433  0.033088497            9 
 2604000   0.82602457   -5.9777364    1038.2527  0.033226213  0.033079962            6 
 2605000   0.82456568   -5.9982601    1038.4247   0.03321896  0.033071376            6 
 2606000   0.83793374    -5.982915    1040.9447  0.033286796  0.033062788           10 
 2607000   0.81691546   -5.9952865    1041.2432  0.033283569  0.033054199            7 
 2608000   0.83219269   -5.9388796    1041.7373  0.033286595  0.033045684            5 
 2609000   0.82372102   -5.9936373    1040.7722  0.033243012  0.033037164           11 
 2610000   0.82505175   -6.0331976     1039.212  0.033180461  0.033028588            6 
 2611000   0.84862077   -5.9911166    1042.4538  0.033271219  0.033019983            5 
 2612000   0.82959646   -6.0194487    1039.5665  0.033166365  0.033011366            3 
 2613000    0.8561274   -5.9688774    1039.0448  0.033137032  0.033002725            5 
 2614000   0.83067315   -5.9670804    1041.4607  0.033201373  0.032994136            7 
 2615000   0.85085795   -6.0106876    1042.3232  0.033216162  0.032985518            6 
 2616000   0.84190014   -5.9798094    1039.7545  0.033121638  0.032976877            4 
 2617000   0.83780685   -5.9767323     1040.891  0.033145172  0.032968195            7 
 2618000   0.83673469   -6.0005697    1038.6224  0.033060302  0.032959581            5 
 2619000    0.8294966   -6.0085129    1039.9041   0.03308846  0.032950895            7 
 2620000   0.83615837   -5.9825147    1040.0403  0.033080163  0.032942284            6 
 2621000   0.82352831   -5.9967207    1039.3256  0.033044818  0.032933656            3 
 2622000   0.82039304   -5.9828895    1041.7048  0.033107832  0.032925023            5 
 2623000   0.83699159   -5.9864077    1042.4314  0.033118292  0.032916442            7 
 2624000   0.82579349   -5.9367371    1043.6616  0.033144739  0.032907983            3 
 2625000   0.81716699   -5.9717283    1042.8925  0.033107697  0.032899487            4 
 2626000   0.84384785   -5.9894915    1041.2476  0.033042892  0.032890924            5 
 2627000    0.8209233   -5.9844557    1044.6842  0.033139329  0.032882373            8 
 2628000   0.83696089    -5.965238    1045.5898  0.033155436  0.032873879            4 
 2629000   0.83496406   -6.0036609    1042.9769  0.033060001  0.032865405            4 
 2630000   0.81727819   -5.9918609    1044.1776  0.033085474  0.032856815           11 
 2631000    0.8324234   -6.0004698    1044.7229   0.03309017  0.032848233            5 
 2632000   0.82435699   -6.0000155    1043.4495  0.033037281    0.0328397           11 
 2633000   0.83163736   -5.9974826    1045.4725  0.033088761   0.03283119            4 
 2634000   0.83435731   -6.0285245    1041.6337  0.032954749  0.032822633            7 
 2635000   0.84797758   -6.0263962     1039.491  0.032874477   0.03281399            6 
 2636000   0.82762306   -6.0157884    1042.6378  0.032961489  0.032805332           11 
 2637000    0.8289473   -6.0105451    1044.5885  0.033010635  0.032796671            5 
 2638000   0.82482343   -5.9908179     1045.783  0.033035853   0.03278805           10 
 2639000   0.82054237   -6.0230799     1044.363  0.032978496  0.032779561            8 
 2640000   0.83560683    -6.012583    1043.1206  0.032926788     0.032771           14 
 2641000   0.83293592   -5.9973043    1044.4131  0.032955102  0.032762365            5 
 2642000   0.83487842   -6.0089039    1044.0202  0.032930235  0.032753906           13 
 2643000   0.81402482   -5.9832058    1046.1908  0.032986214  0.032745425            6 
 2644000   0.82491905   -6.0087034     1048.813  0.033056386  0.032736973           11 
 2645000   0.83058403   -5.9729684    1047.2504  0.032994656  0.032728569            8 
 2646000    0.8259461   -6.0045453    1046.1849  0.032948629  0.032720213            6 
 2647000   0.83531553   -6.0165428    1048.5774  0.033011502  0.032711798            9 
 2648000   0.82394126   -6.0078025    1049.0975  0.033015403  0.032703444            5 
 2649000    0.8309175   -6.0300571    1046.8307  0.032931633  0.032695077            9 
 2650000   0.83287757    -6.035809    1045.4077  0.032874455  0.032686602            7 
 2651000   0.81490941   -6.0294056    1047.0559  0.032913867  0.032678006            5 
 2652000   0.82893773   -6.0392311    1044.3461  0.032816304  0.032669516            6 
 2653000   0.83575689   -6.0179492    1048.1636  0.032923849  0.032661038            6 
 2654000   0.82504244   -5.9936828    1051.5785  0.033018666  0.032652588            4 
 2655000    0.8150058    -6.012778    1046.5546  0.032848545  0.032644263           13 
 2656000   0.83945436   -5.9669535    1049.2063  0.032919373  0.032635846            4 
 2657000   0.83857971   -5.9864991    1051.3308  0.032973616  0.032627502            5 
 2658000   0.82220141   -5.9989216    1048.8101  0.032882183   0.03261908            5 
 2659000   0.83341412    -6.009946    1050.5529  0.032924435  0.032610627            4 
 2660000   0.83643375   -6.0015588    1049.4244  0.032876704  0.032602231           22 
 2661000   0.82763012   -6.0144213    1048.2727  0.032828283  0.032593719            5 
 2662000   0.80710909    -6.037112     1045.827  0.032739388  0.032585235            6 
 2663000   0.81008176    -6.012967    1048.2131  0.032801762  0.032576749            4 
 2664000   0.81928707   -5.9976867    1048.7603  0.032806565  0.032568249            5 
 2665000   0.81788237   -6.0378568    1046.0804  0.032710458  0.032559808            7 
 2666000   0.82595897   -6.0121012    1050.4658  0.032835266  0.032551289            9 
 2667000   0.81497347   -6.0443151    1047.7483  0.032738041  0.032542829            7 
 2668000   0.83773602   -6.0200555    1049.3158  0.032774731  0.032534393            5 
 2669000   0.83191118   -6.0330035    1051.1618  0.032820089  0.032525961            3 
 2670000   0.82047592   -6.0155425    1049.8551  0.032767014  0.032517467            5 
 2671000   0.82159976   -6.0163829    1049.8443  0.032754408  0.032509043            9 
 2672000   0.82040755   -6.0034029    1053.2205  0.032847446  0.032500627            5 
 2673000   0.83245452    -6.020074    1051.9654  0.032796029  0.032492197           10 
 2674000    0.8348269   -6.0255216    1048.7013   0.03268204  0.032483778            5 
 2675000   0.81546609   -6.0166551    1055.1081  0.032869412    0.0324753            8 
 2676000   0.82059734   -6.0235597    1053.0604  0.032793362  0.032466833            4 
 2677000   0.83363698   -6.0401636    1046.5435  0.032578244  0.032458324            9 
 2678000   0.84064135   -6.0550544    1050.1998  0.032679854   0.03244984           18 
 2679000   0.82478333   -6.0300592     1050.716  0.032683713  0.032441395            6 
 2680000   0.81203559   -6.0332971    1052.9386  0.032740627  0.032432938            5 
 2681000   0.83734987   -6.0016309    1054.1245  0.032765277  0.032424554            8 
 2682000   0.81160772   -6.0390421    1050.1391   0.03262923  0.032416155            5 
 2683000   0.83643697   -6.0388733    1050.0149  0.032613209  0.032407733           14 
 2684000   0.82657221   -6.0053693    1054.7085  0.032746786   0.03239934            7 
 2685000   0.82566259   -5.9966646    1052.7644  0.032674251  0.032391002            4 
 2686000   0.82076427   -6.0311252    1051.7537   0.03263073  0.032382591           13 
 2687000   0.81670744   -6.0323042    1053.6603  0.032677718  0.032374185           10 
 2688000   0.79988614   -6.0188644    1050.5117  0.032567946  0.032365743            4 
 2689000   0.81484248   -6.0223338    1052.1317  0.032606039  0.032357326            6 
 2690000   0.81752615   -6.0181732    1048.8981  0.032493744  0.032348874            5 
 2691000   0.83476185   -6.0407236    1049.2514  0.032492612   0.03234043           11 
 2692000   0.83550284   -6.0204635    1052.3301  0.032575844  0.032331975            5 
 2693000    0.8279616    -6.022069    1054.5496   0.03263243  0.032323572           10 
 2694000   0.81273955   -6.0239647    1054.0207  0.032603955  0.032315197           20 
 2695000   0.82865453   -6.0326343    1052.4271  0.032542582  0.032306768            5 
 2696000   0.81870866   -6.0168864    1052.3136  0.032527003  0.032298381            5 
 2697000   0.80537399    -6.060076     1050.234  0.032450687  0.032289922           10 
 2698000   0.83498137   -6.0304674    1054.2514  0.032562744  0.032281562            6 
 2699000   0.82306772   -6.0473228    1052.4952  0.032496454  0.032273148            6 
 2700000   0.82506201   -6.0014248    1054.8328  0.032556567   0.03226481           15 
 2701000   0.81552731   -5.9936371    1056.9119  0.032608661  0.032256549            6 
 2702000   0.82824678   -5.9890972    1054.4226  0.032519819  0.032248273            8 
 2703000   0.82883453   -6.0138687    1053.9305  0.032492617  0.032239905            6 
 2704000   0.82129592   -6.0201278    1056.7081  0.032566202  0.032231525            7 
 2705000   0.81400433   -6.0505805    1052.6402  0.032428843  0.032223107            7 
 2706000   0.82471928   -6.0365684    1050.6638  0.032355992  0.032214758            8 
 2707000   0.81106867   -6.0155385    1054.4944  0.032461964  0.032206311            7 
 2708000   0.82402465   -6.0181166     1054.182  0.032440362  0.032197905           18 
 2709000   0.82684226   -6.0083739    1058.9613  0.032575407  0.032189571            8 
 2710000   0.81354862   -6.0293075    1053.4861   0.03239502   0.03218121            8 
 2711000   0.81710978   -6.0182075    1054.2692  0.032407144  0.032172838            6 
 2712000   0.81291064    -6.028055    1057.1878  0.032484875  0.032164466            6 
 2713000   0.81660903   -6.0236953    1055.2629  0.032413778  0.032155991            9 
 2714000   0.81212394   -6.0237212    1055.1673  0.032398897   0.03214757            4 
 2715000   0.81207289   -6.0279326    1055.2814  0.032390465  0.032139168           11 
 2716000    0.8227781   -6.0389658    1053.6906   0.03232973  0.032130754            9 
 2717000   0.80013965   -6.0130806    1056.6132  0.032407471  0.032122314            4 
 2718000    0.8127109   -6.0301354    1056.7905  0.032400985  0.032113947           15 
 2719000   0.81796888   -6.0414393    1055.3141   0.03234382  0.032105502            8 
 2720000   0.81661104   -6.0532483    1054.2624  0.032299707  0.032097018           17 
 2721000   0.81884137   -6.0712163    1053.7368  0.032271739   0.03208841            8 
 2722000   0.82688444   -6.0222392    1056.1248   0.03233299  0.032079914            7 
 2723000   0.81323406   -6.0526308     1057.488  0.032362835  0.032071465            9 
 2724000   0.81267742   -6.0484115    1054.3582  0.032255206  0.032063002            7 
 2725000   0.80811038    -6.069008    1053.1886  0.032207602  0.032054601            7 
 2726000   0.81162788   -6.0272041    1056.2335   0.03228887  0.032046172            8 
 2727000   0.81622098   -6.0506587    1052.4705  0.032162037  0.032037779            5 
 2728000   0.81914679   -6.0461689    1059.0888   0.03235242  0.032029343            6 
 2729000   0.82596368   -6.0427212    1056.7421  0.032268904  0.032020939            3 
 2730000   0.82136192   -6.0453168    1055.5249   0.03221993  0.032012543            9 
 2731000   0.82680936   -6.0465651    1056.9987  0.032253105  0.032004192            5 
 2732000    0.8287413    -6.018488    1058.7481  0.032294659  0.031995822            6 
 2733000   0.82939858   -6.0233936     1055.496  0.032183681  0.031987489            9 
 2734000   0.81671787   -6.0064762     1059.335  0.032288924   0.03197914            7 
 2735000   0.80754089   -6.0295994    1059.9472  0.032295771  0.031970769            4 
 2736000   0.80572047   -6.0394181    1057.3494  0.032204844  0.031962437           10 
 2737000   0.81482321   -6.0112116    1060.4226  0.032286645  0.031954085           17 
 2738000   0.79554989   -6.0358447     1058.308  0.032210495   0.03194572            5 
 2739000   0.81423778   -6.0301637    1055.9787  0.032127865  0.031937315            5 
 2740000   0.80141614   -6.0033251    1061.3316  0.032278941  0.031929082            7 
 2741000   0.81855643    -6.025035    1060.1001  0.032229725  0.031920759            9 
 2742000    0.8110652   -6.0260096    1061.0897  0.032248047   0.03191242           10 
 2743000   0.80382275   -6.0676789     1060.046  0.032204582  0.031904067            6 
 2744000   0.80863793   -6.0654979    1056.4212  0.032082762  0.031895689            5 
 2745000    0.8275489   -6.0387968     1059.722   0.03217128  0.031887323            9 
 2746000   0.80332344   -6.0505661    1059.6348   0.03215692  0.031878948           14 
 2747000   0.80058829   -6.0462705    1054.3016  0.031983425  0.031870597           11 
 2748000   0.80857061   -6.0545593    1061.2496  0.032182484  0.031862238           19 
 2749000   0.81342816   -6.0669776    1058.6537  0.032092086  0.031853883           14 
 2750000   0.79841849   -6.0443565    1061.7411  0.032173974  0.031845565            5 
 2751000   0.81295953   -6.0484208    1058.5967  0.032067027   0.03183731            5 
 2752000    0.8237838   -6.0686746    1059.9119  0.032095202  0.031828909            4 
 2753000   0.82476664   -6.0733385    1060.6262  0.032105164  0.031820519            7 
 2754000   0.82188143   -6.0550189       1059.8  0.032068508  0.031812205            7 
 2755000   0.81555675   -6.0496941    1059.8386  0.032058035   0.03180386            5 
 2756000    0.8134269   -6.0288171    1064.1632  0.032177166  0.031795551            6 
 2757000   0.80733804   -6.0534913    1059.3379  0.032019644  0.031787195            9 
 2758000   0.82486747   -6.0342635    1064.9987  0.032179077  0.031778819           12 
 2759000   0.79781075   -6.0579487    1063.2481  0.032114538  0.031770501            8 
 2760000   0.81509384   -6.0604282    1060.3158  0.032014367  0.031762098            4 
 2761000   0.80680091   -6.0305596    1061.1737  0.032028665  0.031753697           10 
 2762000    0.8247851   -6.0344197    1060.6461   0.03200115  0.031745277            5 
 2763000   0.80526086    -6.045288    1060.7146  0.031991633  0.031736906            6 
 2764000   0.80015858   -6.0770212    1059.3751  0.031939675  0.031728479            6 
 2765000   0.80776005   -6.0580411    1061.3062  0.031986322  0.031720023            5 
 2766000   0.81815015   -6.0480544    1062.4734  0.032009924   0.03171171            4 
 2767000   0.81185397   -6.0538364    1061.1379  0.031958135  0.031703367            8 
 2768000    0.8406316    -6.056954     1060.136  0.031916425  0.031694998            7 
 2769000    0.8077626   -6.0815465    1060.3498  0.031911335  0.031686651            8 
 2770000   0.79882959   -6.0559159    1059.6676  0.031879289  0.031678262            6 
 2771000   0.80227373   -6.0618389    1059.5453  0.031864109   0.03166995            8 
 2772000   0.80881144   -6.0737707    1064.5636  0.032003477  0.031661532            9 
 2773000   0.82257324   -6.0793588    1062.2585  0.031922663   0.03165315            5 
 2774000   0.79684747    -6.060521    1061.0936  0.031876158  0.031644712           12 
 2775000   0.80602229   -6.0681424    1061.0982  0.031864811  0.031636275           16 
 2776000   0.79710842   -6.0441581    1060.8001  0.031844384  0.031627869            5 
 2777000   0.79988372   -6.0512744    1060.5686  0.031825969  0.031619489            3 
 2778000   0.80922246   -6.0455299    1062.6158  0.031875925  0.031611149            8 
 2779000   0.81853023   -6.0712721    1059.0367  0.031757127  0.031602738            8 
 2780000   0.82452683   -6.0568032    1065.4872  0.031939064  0.031594308           14 
 2781000    0.7907965   -6.0760115    1063.8429  0.031878309  0.031585972            7 
 2782000   0.80798112   -6.0649647    1063.0952  0.031844451  0.031577574            6 
 2783000   0.80835269   -6.0445232    1064.2597  0.031867879  0.031569267            4 
 2784000   0.79328302   -6.0553918    1066.3366    0.0319186  0.031560968           12 
 2785000   0.81750643   -6.0499421    1062.2515  0.031784904  0.031552672            8 
 2786000   0.81169761    -6.055797    1065.6429  0.031874938  0.031544419            5 
 2787000   0.80696736   -6.0244025    1066.1679  0.031879199  0.031536185            6 
 2788000   0.82412442   -6.0626167    1063.3969  0.031784939   0.03152788            4 
 2789000   0.80479689   -6.0514345    1067.5055  0.031896303  0.031519528           13 
 2790000   0.80045476   -6.0662609    1063.4643  0.031764166  0.031511181            4 
 2791000   0.79989351   -6.0640534    1066.0243  0.031829221  0.031502843            3 
 2792000   0.80334241   -6.0785677    1062.6209  0.031716239  0.031494529            6 
 2793000   0.80076859   -6.0547682    1064.0029  0.031746119  0.031486162            8 
 2794000   0.79997738   -6.0575467    1064.3394  0.031744791  0.031477775            5 
 2795000   0.81810443   -6.0419331    1064.5333  0.031739217  0.031469378            6 
 2796000   0.80776283   -6.0704781    1065.3749  0.031752949  0.031460968           11 
 2797000   0.79907308   -6.0626369    1064.7453  0.031722838  0.031452616           12 
 2798000   0.80543701   -6.0660687    1063.4786  0.031673774  0.031444247            4 
 2799000   0.81872092   -6.0752446    1063.8916  0.031674753  0.031435878           15 
 2800000   0.79606515   -6.0733777    1064.3073  0.031675812  0.031427519            6 
 2801000   0.81087073    -6.098257    1063.0287  0.031626463  0.031419112            9 
 2802000   0.79772862   -6.0824449    1064.4782  0.031658285  0.031410704            5 
 2803000   0.80321638    -6.045374     1065.372  0.031673563  0.031402269            7 
 2804000   0.81235749   -6.0610454    1063.5541  0.031608243  0.031393851            5 
 2805000   0.82708464   -6.0483151    1065.1146  0.031643332  0.031385474            5 
 2806000   0.79745446   -6.0621097    1062.4333  0.031552427  0.031377083            9 
 2807000   0.79586862   -6.0928601    1062.6226  0.031546806  0.031368687            8 
 2808000   0.78124134   -6.0784799    1066.6576  0.031655318   0.03136019            9 
 2809000   0.79502548   -6.0712399    1066.0951  0.031627362  0.031351777            6 
 2810000   0.80890491   -6.0683184     1067.132  0.031646855  0.031343402            5 
 2811000   0.79485067   -6.0490385    1068.4516  0.031674719  0.031335108            3 
 2812000   0.79974461   -6.0577662    1066.5523  0.031607167  0.031326818           11 
 2813000   0.82255719   -6.0551391    1070.5297  0.031713761  0.031318573           23 
 2814000   0.79746618   -6.0786481    1069.5062  0.031672182  0.031310314            3 
 2815000   0.79655853     -6.05755    1065.8265  0.031551998  0.031302074            9 
 2816000   0.79458464   -6.0391034    1066.2359  0.031552908  0.031293813            6 
 2817000   0.79374391   -6.0718599    1065.4763  0.031519236  0.031285488            8 
 2818000   0.79976265    -6.107586    1065.8688  0.031519658  0.031277143            9 
 2819000   0.78937291   -6.0857012    1066.4627  0.031526034  0.031268815            7 
 2820000   0.82072695   -6.0633011    1068.2136  0.031566596  0.031260545            7 
 2821000   0.80093059   -6.0637974    1069.0331  0.031579615  0.031252242            6 
 2822000   0.82005636    -6.084075    1066.5416  0.031494851  0.031243987           13 
 2823000   0.80009107   -6.0463258    1071.9667   0.03164384  0.031235764            3 
 2824000   0.78217232   -6.0711298    1067.8477  0.031511088  0.031227538           15 
 2825000   0.81914563   -6.1212847    1067.6757  0.031494857  0.031219302            4 
 2826000   0.81672564   -6.0782993    1069.4708  0.031536647  0.031211041            3 
 2827000   0.78281965   -6.0793331    1068.1522  0.031486624  0.031202874            5 
 2828000   0.80221074   -6.1002041    1070.1712  0.031534985  0.031194647            8 
 2829000   0.78432871    -6.062435    1071.5267  0.031563764  0.031186406            6 
 2830000   0.78682401   -6.0865362    1071.1844  0.031542533  0.031178267           12 
 2831000   0.81375749   -6.0758799    1072.5058  0.031570287  0.031170117            3 
 2832000   0.79333953   -6.0810387    1071.3403  0.031524845  0.031161986           11 
 2833000   0.80235688   -6.0742391    1073.9911  0.031591691   0.03115377            7 
 2834000   0.80503265   -6.0856738    1072.3871  0.031533377  0.031145555            4 
 2835000   0.78752622   -6.0762049    1072.3423  0.031520937  0.031137355           18 
 2836000   0.78906323   -6.0690351    1071.8395  0.031495049  0.031129183            8 
 2837000   0.79043946   -6.0623737    1070.0735  0.031432073  0.031121013            7 
 2838000   0.79855148   -6.0795737     1068.065  0.031362023  0.031112786            6 
 2839000     0.811562   -6.0584263    1071.1073  0.031440275  0.031104578            6 
 2840000   0.80266054   -6.0925499    1074.1414  0.031518232  0.031096365            9 
 2841000   0.78179251   -6.0739573    1071.9886  0.031443993  0.031088209            4 
 2842000   0.79603149   -6.0683607    1071.6544   0.03142313  0.031080026            6 
 2843000   0.79440605   -6.0937052    1070.3957  0.031375181  0.031071884            9 
 2844000   0.79645977   -6.0941288    1071.2313  0.031388633  0.031063691           11 
 2845000   0.79967767   -6.0650856     1071.465  0.031384447  0.031055499            7 
 2846000   0.78850443   -6.0873734    1071.3746  0.031370772  0.031047352            5 
 2847000   0.79642791   -6.1030121    1071.7155  0.031369733  0.031039157           10 
 2848000   0.78205239   -6.0561965    1072.5968  0.031384503   0.03103096            4 
 2849000   0.79754784   -6.0582879    1074.1013  0.031417496  0.031022884            4 
 2850000   0.81313242   -6.1061066    1072.6769  0.031364821  0.031014762            3 
 2851000   0.79845663   -6.0800084     1076.385  0.031462206  0.031006667            7 
 2852000   0.79572326   -6.0738167    1074.9142  0.031408198  0.030998607            5 
 2853000   0.79801768   -6.0936688    1074.7102  0.031391232  0.030990531            6 
 2854000    0.7877324   -6.0918584    1075.0423  0.031389931  0.030982496           12 
 2855000   0.78895137   -6.1080601    1071.3601  0.031271458  0.030974353            9 
 2856000   0.80523814   -6.0923908    1069.8087  0.031215238  0.030966182            6 
 2857000   0.78107885   -6.0844305    1073.9242  0.031324356  0.030957987            6 
 2858000    0.8264555   -6.0881911    1072.6513  0.031276279    0.0309498            6 
 2859000   0.78001123   -6.1228699    1071.2511  0.031224529  0.030941568           10 
 2860000   0.78484968   -6.0630689    1076.1872  0.031357434  0.030933408           14 
 2861000   0.78685078   -6.0850973    1074.8933  0.031308786  0.030925317            5 
 2862000   0.79269583   -6.1095833    1075.5577  0.031317194  0.030917188           13 
 2863000   0.79653838   -6.0920876    1074.6783  0.031280659  0.030909113            7 
 2864000   0.78783532   -6.1064746    1076.4185  0.031320372  0.030900964            7 
 2865000   0.79139764   -6.1106198    1074.1494  0.031243439  0.030892836            9 
 2866000    0.7927418   -6.0983128    1076.7552  0.031308306  0.030884704            5 
 2867000   0.79719878   -6.1244693    1074.5963  0.031234634  0.030876567           10 
 2868000   0.79632025   -6.0954626    1075.6712  0.031254975  0.030868389            9 
 2869000   0.78213528   -6.1003421    1075.1479   0.03122888  0.030860221            5 
 2870000   0.79149199   -6.0862633    1073.3689  0.031166345  0.030852085            5 
 2871000   0.80585215   -6.0973972    1075.4932  0.031217148  0.030843892            8 
 2872000   0.79736124   -6.0815559    1074.5589  0.031179168  0.030835772            5 
 2873000   0.78640443   -6.0881384    1075.8792  0.031206614  0.030827594            5 
 2874000   0.80377978   -6.1063501    1075.3674  0.031180915  0.030819418           12 
 2875000   0.80059761   -6.1055664    1072.7982  0.031095599  0.030811234            8 
 2876000   0.79136104    -6.095857    1074.5757  0.031136291  0.030803038            7 
 2877000   0.79752949   -6.1101258    1076.1874  0.031172154  0.030794854           15 
 2878000   0.78405118    -6.118183    1074.0777  0.031100233  0.030786703            6 
 2879000   0.78502786   -6.0852397    1075.3959  0.031127589  0.030778474            7 
 2880000   0.77655711   -6.1236082    1072.1546  0.031022993  0.030770227            5 
 2881000    0.8014219   -6.1231449    1073.8097  0.031060097  0.030761932           12 
 2882000   0.78757324    -6.126617    1075.1553  0.031088229  0.030753666           17 
 2883000    0.7986295   -6.0982875    1078.7099  0.031180192  0.030745454            5 
 2884000   0.79796552    -6.101274    1076.4693  0.031104638  0.030737304           12 
 2885000   0.79928391   -6.0950208    1075.5133  0.031066242  0.030729184            4 
 2886000   0.78896177   -6.1210564    1075.2302  0.031047303  0.030721021            3 
 2887000   0.78234207   -6.1284334    1072.3408  0.030953145  0.030712876           18 
 2888000   0.79515699   -6.0788838    1075.6831  0.031038872  0.030704677           27 
 2889000    0.7906033   -6.1031615    1080.1494  0.031156957  0.030696515           10 
 2890000   0.77704365   -6.1027992    1076.3812   0.03103752  0.030688383            5 
 2891000   0.79127135   -6.0903825    1076.0455  0.031017107  0.030680258            6 
 2892000   0.80633043   -6.1166587    1076.5577  0.031021141  0.030672135           11 
 2893000   0.80357899   -6.1104062    1079.6885  0.031100602  0.030663962           11 
 2894000   0.79924308   -6.1194035    1074.9094  0.030952241  0.030655825           10 
 2895000   0.78931504   -6.1209423     1076.791  0.030995712  0.030647684            5 
 2896000   0.79531147    -6.081577    1079.3673  0.031059143  0.030639545           15 
 2897000   0.79328133   -6.1206559     1076.468  0.030965021  0.030631476            5 
 2898000   0.79856735   -6.1021165    1079.6386  0.031045508  0.030623417            5 
 2899000   0.78363063   -6.1040033     1079.831   0.03104033  0.030615298            5 
 2900000   0.77050336   -6.1111945     1075.548  0.030906551  0.030607202            4 
 2901000   0.80840284   -6.0815088     1076.892  0.030934504  0.030599174            7 
 2902000    0.8016273   -6.1079682    1078.6046  0.030973024  0.030591115            8 
 2903000   0.79300475   -6.1478516    1078.8498  0.030969393  0.030583064           11 
 2904000   0.78688877   -6.1247762    1079.2326  0.030969714  0.030574886            5 
 2905000   0.77637129   -6.0965507     1075.875  0.030862736  0.030566727           11 
 2906000   0.78140152   -6.1142686    1077.3868   0.03089547  0.030558618            6 
 2907000   0.77723597   -6.0997411    1079.6608   0.03095003  0.030550494           32 
 2908000   0.79726997   -6.0908846    1081.3825  0.030988723  0.030542318            5 
 2909000   0.78674202    -6.113814    1078.6579  0.030900019  0.030534244            9 
 2910000   0.79856644    -6.092802    1080.7724  0.030949954  0.030526101           10 
 2911000   0.77572089   -6.0969217    1077.7145  0.030851783  0.030517965           19 
 2912000   0.78092751   -6.0886822    1080.7374  0.030927696  0.030509832            8 
 2913000   0.79176864   -6.1365066    1080.0614  0.030897741  0.030501657           10 
 2914000    0.7807019   -6.1312714    1075.8778  0.030767496  0.030493498            4 
 2915000   0.76849136   -6.0913494    1077.6619  0.030807944  0.030485266            8 
 2916000   0.78995448    -6.090204    1082.0311  0.030922242  0.030477104           11 
 2917000   0.78179029   -6.1004299    1076.6143  0.030756892  0.030468955            8 
 2918000   0.78572044   -6.0984579    1079.9136  0.030840576  0.030460735            6 
 2919000   0.76945851   -6.1212591    1077.4883  0.030760773  0.030452552            6 
 2920000   0.77721347   -6.1345907    1075.6883  0.030698866  0.030444332            8 
 2921000   0.78089655   -6.1259662    1077.3239  0.030735019  0.030436169            6 
 2922000   0.76776963   -6.1400151    1076.3275  0.030696085  0.030427965            9 
 2923000    0.7942261   -6.0896294    1079.4809  0.030775485  0.030419775           13 
 2924000   0.79471174   -6.1031997    1076.5234  0.030680671  0.030411568            8 
 2925000   0.77539979   -6.1162591    1079.1481  0.030744959  0.030403371            6 
 2926000   0.80575285   -6.1109517    1081.6238  0.030804961  0.030395234           13 
 2927000   0.79230959   -6.1021589    1081.0741  0.030778787  0.030387115            7 
 2928000   0.79185977   -6.0911727    1081.1552  0.030770582  0.030379008            6 
 2929000   0.78566774   -6.1186717    1079.7174  0.030719171  0.030370828            8 
 2930000   0.77534484   -6.1194198    1078.9506  0.030686877   0.03036262            6 
 2931000    0.7673969   -6.1233673    1079.8416  0.030701739  0.030354379            7 
 2932000   0.77577538   -6.1209699    1080.0893  0.030698309  0.030346244            7 
 2933000   0.80515706   -6.1126847    1078.4576  0.030641481  0.030338065            7 
 2934000   0.79932658   -6.1210599    1081.0565  0.030704854  0.030329947            5 
 2935000   0.78837281   -6.1042445    1083.7602  0.030771159  0.030321893           12 
 2936000   0.77816083   -6.1251366    1075.8973  0.030537502  0.030313779            5 
 2937000   0.77432807   -6.1021859    1083.6407  0.030746813  0.030305637            7 
 2938000   0.77310274   -6.1255114     1079.886  0.030629851  0.030297603            8 
 2939000   0.81258004   -6.1207557    1080.8727  0.030647407  0.030289569           15 
 2940000   0.77076293   -6.1393558    1080.7312   0.03063297  0.030281434            8 
 2941000   0.78542528   -6.1311986    1079.5645  0.030589497  0.030273303            8 
 2942000   0.76820207    -6.137154    1080.0684  0.030593371   0.03026516           18 
 2943000    0.7769233   -6.1335704    1079.2544  0.030559929  0.030257004            6 
 2944000     0.786617   -6.1264094    1081.1229  0.030602437  0.030248951            7 
 2945000   0.78184292   -6.1470961    1081.1371  0.030592447  0.030240836           12 
 2946000   0.76929554   -6.1151349    1080.9033   0.03057545  0.030232686            5 
 2947000   0.79765822   -6.0833355    1082.5659  0.030612087  0.030224598            8 
 2948000   0.78076492   -6.1607887     1077.638  0.030462403  0.030216496           10 
 2949000     0.769868   -6.1192542    1081.3632  0.030557342  0.030208345            6 
 2950000   0.77848002   -6.1220751    1081.3279  0.030545986  0.030200246            8 
 2951000   0.78043699   -6.1394218    1079.5374  0.030485073  0.030192131           10 
 2952000   0.77705379   -6.1124252    1083.5336  0.030587556  0.030184041            9 
 2953000   0.77699936   -6.1233495    1082.5501  0.030549445  0.030175951           16 
 2954000   0.79439772   -6.1559546    1080.6494  0.030485484  0.030167797            8 
 2955000   0.78839318   -6.0978109    1084.9777  0.030597229  0.030159736            5 
 2956000    0.7744766   -6.1373671    1084.2674  0.030566851  0.030151683            8 
 2957000   0.77469311   -6.1188797    1084.0674  0.030550878  0.030143571            8 
 2958000   0.77703537   -6.1146141    1085.6884  0.030586218  0.030135464            6 
 2959000    0.7746895   -6.1419037    1079.2224  0.030393783  0.030127372            8 
 2960000   0.78915217   -6.1366029    1084.4677  0.030531184  0.030119286           15 
 2961000   0.77969809   -6.1351087    1083.8803  0.030504342  0.030111184            7 
 2962000   0.78138414   -6.1451404    1079.0349  0.030357724  0.030103063            6 
 2963000   0.76034164   -6.1344622    1082.6629  0.030449512  0.030094947           11 
 2964000   0.77738143   -6.1318548    1083.5515  0.030464224  0.030086841            5 
 2965000   0.77554666   -6.1348414    1080.4871  0.030367821  0.030078679            9 
 2966000   0.78696141   -6.1137123    1085.2504  0.030491413  0.030070621            6 
 2967000   0.77356189   -6.1397525    1083.0344  0.030418897  0.030062532            4 
 2968000    0.7781871    -6.132643    1083.3865  0.030418535  0.030054454            7 
 2969000   0.77714534   -6.1220978    1086.6468  0.030499798  0.030046325            8 
 2970000   0.76307295     -6.12678     1088.958  0.030554378  0.030038251            6 
 2971000   0.78295812   -6.1476887    1083.1485  0.030381143  0.030030141           11 
 2972000    0.7623201   -6.1239206    1084.4483  0.030407365  0.030022026           15 
 2973000   0.76984303   -6.1838812    1079.2018  0.030250078  0.030013875           10 
 2974000   0.77958095   -6.1375521    1085.5016  0.030416431  0.030005682            4 
 2975000   0.77838976   -6.1382232    1084.1807  0.030369208  0.029997566           11 
 2976000    0.7714972   -6.1349052     1083.496   0.03033983  0.029989506            5 
 2977000   0.77710999   -6.1201886    1086.2539  0.030406839  0.029981484            8 
 2978000    0.7816796   -6.1271642    1085.5954  0.030378201  0.029973385           10 
 2979000   0.77411982   -6.1298701    1086.4406  0.030391648  0.029965282            6 
 2980000   0.79056069   -6.1492003    1084.0451  0.030314462  0.029957126           16 
 2981000   0.77347963   -6.1795773    1083.0321  0.030275973  0.029948958           12 
 2982000   0.76422369   -6.1312883    1086.5174  0.030363219  0.029940848            5 
 2983000   0.78806246   -6.1599614     1083.053  0.030256258  0.029932751           20 
 2984000   0.77006301   -6.1327603    1087.0981  0.030359085  0.029924642            7 
 2985000   0.77678326   -6.1535553    1084.4104   0.03027388  0.029916517            6 
 2986000   0.77335018   -6.1803177    1083.1723  0.030229188  0.029908385           16 
 2987000   0.77895657   -6.1769954    1081.3532  0.030168318  0.029900247            5 
 2988000   0.76842949   -6.1352032    1084.3399  0.030241519  0.029892154            8 
 2989000   0.79434249   -6.1433006    1084.2163  0.030227955  0.029884091           14 
 2990000   0.76221538   -6.1421785    1086.0094  0.030267821  0.029876058           15 
 2991000    0.7652486   -6.1741091    1085.6439  0.030247518  0.029868015            8 
 2992000   0.77383856   -6.1524053    1084.6449  0.030209585  0.029859917            7 
 2993000   0.76467205   -6.1452423    1087.5844  0.030281335  0.029851877           13 
 2994000   0.77414244   -6.1390344    1087.6768  0.030273792  0.029843828            7 
 2995000   0.77590733   -6.1237479    1086.9231  0.030242713  0.029835764            3 
 2996000   0.78393012   -6.1305228       1087.9  0.030259792  0.029827757            7 
 2997000   0.79397036   -6.1383011    1089.7067  0.030299931  0.029819745           15 
 2998000      0.78747   -6.1481795    1088.2101  0.030248223  0.029811774            5 
 2999000   0.75742769   -6.1757261    1086.7571  0.030197764  0.029803704            8 
 3000000   0.75787974   -6.1288231    1090.8179  0.030300497  0.029795694            6 
 3001000   0.77386261   -6.1261677    1090.7443  0.030288357  0.029787756            6 
 3002000   0.77015708   -6.1392458    1088.2718  0.030209632  0.029779834            4 
 3003000   0.76042321   -6.1488242    1086.5909  0.030152928  0.029771841            8 
 3004000   0.75687403   -6.1402294    1088.0681  0.030183868  0.029763923           10 
 3005000   0.75861259   -6.1395847    1091.2569  0.030262254  0.029755972            6 
 3006000   0.76074719   -6.1407263    1091.2838  0.030252933  0.029748073            4 
 3007000   0.78262591   -6.1139803    1090.1275  0.030210827  0.029740129            7 
 3008000   0.77186348   -6.1539895    1088.9264   0.03016751  0.029732261           16 
 3009000   0.77575171   -6.1578981    1090.0584  0.030188834  0.029724313            9 
 3010000   0.77039286   -6.1299709    1091.1631  0.030209388   0.02971647           22 
 3011000   0.75587795   -6.1434067    1093.2113  0.030256042  0.029708596           12 
 3012000   0.76615492   -6.1592534    1091.7993  0.030206931    0.0297007            8 
 3013000   0.76606039   -6.1394569    1089.6342  0.030137023  0.029692753           15 
 3014000   0.76857262   -6.1432528    1087.1754  0.030059041  0.029684807            6 
 3015000   0.76863159   -6.1486862    1090.0343   0.03012809  0.029676847            9 
 3016000   0.77896879   -6.1409478    1090.2226  0.030123304  0.029668904           10 
 3017000   0.76300241   -6.1491633    1091.3535  0.030144557  0.029660957            6 
 3018000   0.77194297   -6.1503074    1089.1652  0.030074145  0.029653022            6 
 3019000   0.75214772   -6.1421902    1092.3699  0.030152641   0.02964506            7 
 3020000    0.7820979   -6.1807748    1088.4417  0.030034263  0.029637024            9 
 3021000   0.75879531   -6.1568586     1090.424  0.030079004  0.029629011           15 
 3022000   0.74631934   -6.1495868    1090.6183  0.030074408   0.02962106           11 
 3023000   0.78830848   -6.1597689    1090.3863  0.030058063  0.029613144            6 
 3024000   0.75716764   -6.1448606     1093.061  0.030121831  0.029605184           24 
 3025000    0.7701474   -6.1621362     1090.188  0.030032726  0.029597215           10 
 3026000    0.7740298   -6.1628096    1087.9028  0.029959869  0.029589287           16 
 3027000   0.77125803   -6.1921967    1089.7446  0.030000677  0.029581271           13 
 3028000   0.77397333    -6.155791    1090.2808  0.030005527  0.029573297            4 
 3029000    0.7655962   -6.1407619    1090.8424  0.030011071   0.02956531            7 
 3030000   0.75758222   -6.1445907    1095.2933  0.030123578  0.029557387            5 
 3031000   0.76566573   -6.1620562    1090.6143  0.029984997  0.029549536           12 
 3032000   0.75624563   -6.1816191    1090.4462  0.029970488   0.02954162           12 
 3033000   0.77128804   -6.1673899    1091.0301  0.029976648  0.029533694           18 
 3034000   0.77059469   -6.1397551    1093.8706  0.030044786  0.029525737            5 
 3035000   0.77237737   -6.1612778    1087.3984  0.029857177  0.029517777           15 
 3036000   0.76673702   -6.1726233    1091.2249  0.029952375  0.029509884           14 
 3037000   0.77379013    -6.144909    1093.5526  0.030006383  0.029501967            5 
 3038000   0.75267373   -6.1660381    1094.1088  0.030011763  0.029494069           10 
 3039000   0.76297577   -6.1608316    1091.1139  0.029919761  0.029486183            9 
 3040000   0.76532335   -6.1535804     1091.601  0.029923274   0.02947831           17 
 3041000   0.75813199   -6.1730137    1092.3985  0.029935288  0.029470356           11 
 3042000   0.77115607   -6.1693387    1094.6496  0.029987114  0.029462384           12 
 3043000   0.78275364   -6.1619928    1092.3963  0.029915553  0.029454431           11 
 3044000   0.75453921    -6.204192    1090.5321   0.02985469  0.029446394            7 
 3045000   0.78166591   -6.1948061    1089.6859  0.029821726  0.029438381            4 
 3046000   0.75438226   -6.1752276    1090.3355  0.029829707  0.029430309           13 
 3047000   0.76159288   -6.1924581    1087.7304   0.02974867  0.029422296           10 
 3048000   0.75433856   -6.1648492    1092.3684  0.029865715  0.029414338           16 
 3049000   0.75787506   -6.1695861    1092.8746  0.029869755  0.029406391           16 
 3050000   0.76252711   -6.1607773    1091.4332  0.029820579  0.029398472            9 
 3051000   0.76812618    -6.149153    1092.5203  0.029840497  0.029390612            8 
 3052000   0.75888607   -6.1450883    1093.6498   0.02986156  0.029382713           14 
 3053000   0.76734034   -6.1543208    1091.3396  0.029788721  0.029374768            7 
 3054000    0.7672384   -6.1312296    1094.0697  0.029853464  0.029366868            5 
 3055000    0.7636991   -6.1747888    1094.4513    0.0298541  0.029358995            9 
 3056000   0.75674225    -6.167718    1092.0085   0.02977772   0.02935108           12 
 3057000   0.76967162   -6.1782682    1091.6894  0.029759278  0.029343177           11 
 3058000   0.77368834   -6.1665749    1091.9434   0.02975647  0.029335278            9 
 3059000   0.75194839   -6.1650474    1092.7115  0.029767666  0.029327372           11 
 3060000   0.75647635   -6.2080414    1095.6927  0.029839125  0.029319419           11 
 3061000   0.76071256   -6.2149194    1093.2125  0.029761857  0.029311444            8 
 3062000   0.75290755   -6.1867578    1094.3619  0.029783416  0.029303486            8 
 3063000   0.77199561   -6.1818131    1095.1675  0.029795613  0.029295623           10 
 3064000   0.76077878   -6.1838086    1092.0628  0.029701447  0.029287738           23 
 3065000   0.76470289   -6.1819109    1095.5681  0.029787061  0.029279871            6 
 3066000   0.75998767   -6.1903578    1095.4454   0.02977401  0.029272035            5 
 3067000   0.76498742    -6.200035    1093.5688  0.029713315  0.029264207            8 
 3068000   0.76436048   -6.1750326    1094.3099  0.029723759  0.029256348            9 
 3069000   0.76529763   -6.1713242    1093.8741  0.029702239  0.029248487            4 
 3070000   0.77638741   -6.1631375    1097.9325  0.029802728  0.029240661            9 
 3071000    0.7674987   -6.1525998    1094.2433  0.029692914   0.02923285            4 
 3072000   0.75854492   -6.1751534    1092.7903  0.029643833  0.029224974           10 
 3073000   0.75592336   -6.1519962    1097.4035  0.029759287  0.029217064           12 
 3074000   0.76245844   -6.1566077    1094.6838  0.029675878   0.02920925            9 
 3075000   0.75232487   -6.1658877    1097.0424  0.029730145  0.029201385            4 
 3076000    0.7692143   -6.1558863    1099.1044  0.029776343  0.029193514           20 
 3077000   0.76624854   -6.1570084    1096.7127  0.029701892  0.029185646           22 
 3078000    0.7628612   -6.1278457    1099.5679  0.029769545  0.029177877            8 
 3079000   0.74454372   -6.1885355    1095.3253   0.02964505  0.029170054           18 
 3080000   0.77561688   -6.1664075     1097.136  0.029684416  0.029162203           10 
 3081000   0.76122307   -6.1685881    1094.4929  0.029603292  0.029154383            5 
 3082000   0.78773653   -6.1496567    1096.5956  0.029650541   0.02914658           18 
 3083000   0.75822346   -6.1517304    1099.6618  0.029723802  0.029138838            9 
 3084000   0.75582939   -6.1766707    1096.3124   0.02962366  0.029131004            5 
 3085000   0.75867237   -6.1926087    1097.3711  0.029642656  0.029123203            9 
 3086000   0.74623484    -6.180951    1097.7117  0.029642246  0.029115373            6 
 3087000   0.76221109   -6.1815321    1095.1864  0.029564476  0.029107591            8 
 3088000   0.75680183   -6.1618891    1097.0492   0.02960517  0.029099812           10 
 3089000   0.75697608   -6.1764589    1094.8251  0.029535587  0.029092063            6 
 3090000   0.74984043   -6.1658752    1097.2562  0.029591591  0.029084315           10 
 3091000   0.75488845   -6.2001239    1096.2423  0.029554684  0.029076489           11 
 3092000   0.76644636   -6.1683669    1098.5369  0.029606968  0.029068705            7 
 3093000   0.73353047   -6.2043331     1095.435  0.029513823  0.029060937           11 
 3094000   0.75275156   -6.1911028      1097.29  0.029554243  0.029053142           14 
 3095000   0.75234454   -6.2059946    1098.8184  0.029585849  0.029045365           13 
 3096000   0.76591062   -6.1936523    1095.7785   0.02949447  0.029037576            9 
 3097000   0.76200008   -6.1942953    1096.3879  0.029501341  0.029029787            7 
 3098000   0.74723288   -6.1776724    1098.6218   0.02955191  0.029022043           13 
 3099000   0.74340459   -6.1809655    1100.7714  0.029600179  0.029014341            4 
 3100000    0.7477976   -6.1941336    1096.5003  0.029475814  0.029006563           29 
 3101000   0.76426765   -6.1721644    1098.3763  0.029516723   0.02899874            7 
 3102000   0.76019919   -6.1974751    1098.2483  0.029503769  0.028990927            5 
 3103000    0.7697505   -6.1891078    1096.9597  0.029459655   0.02898311            7 
 3104000   0.74988888   -6.2053248    1095.3238  0.029406244   0.02897533            7 
 3105000   0.74747661    -6.208962    1097.2046  0.029447253  0.028967492            7 
 3106000   0.76809944    -6.188221     1099.414  0.029497049  0.028959718            9 
 3107000   0.75879083   -6.1779762    1099.9037  0.029500689  0.028951964           10 
 3108000   0.75339981   -6.2015086     1098.199   0.02944549  0.028944195           12 
 3109000   0.75216962   -6.1888877     1099.867  0.029480729  0.028936443            5 
 3110000   0.75946704   -6.1990778    1097.9663  0.029420319    0.0289287            5 
 3111000   0.75346067   -6.1801845     1099.541  0.029453044  0.028920908            3 
 3112000   0.74800842   -6.1589176    1101.1305  0.029486142  0.028913166            7 
 3113000   0.74742666    -6.178806    1098.1704  0.029397431  0.028905458           13 
 3114000   0.75518644   -6.1987622    1099.8662  0.029433372  0.028897725           11 
 3115000   0.76198635   -6.1966294    1098.8029  0.029395476   0.02888993           11 
 3116000   0.75378669   -6.2068079     1100.847   0.02944071  0.028882238           10 
 3117000   0.74139683   -6.2184058    1098.3982  0.029365795   0.02887442           15 
 3118000   0.75736683   -6.2242673    1099.3315   0.02938132  0.028866659           11 
 3119000   0.75726202   -6.2099427    1099.2965  0.029370965  0.028858821           12 
 3120000   0.73999763   -6.2363795    1098.4277  0.029338345  0.028850986            7 
 3121000   0.73058018   -6.2400246    1097.2495  0.029297487  0.028843155            6 
 3122000   0.75205599   -6.1946395    1101.5259   0.02940225  0.028835377           12 
 3123000    0.7426181   -6.1963612    1097.8484  0.029294705  0.028827605           11 
 3124000   0.75983704   -6.2129212    1098.9854  0.029315659  0.028819816            6 
 3125000   0.74698943   -6.1685482    1104.1744  0.029444652  0.028812084            6 
 3126000   0.76215322   -6.2115246    1101.4848  0.029363533  0.028804371           10 
 3127000   0.73846843   -6.2162053    1100.8508  0.029337247  0.028796637           15 
 3128000    0.7577619   -6.2012725     1099.357   0.02928807  0.028788886            5 
 3129000   0.75525939   -6.2156304    1101.2355   0.02932874  0.028781109            7 
 3130000   0.74089457   -6.2228163    1101.0893  0.029315477  0.028773286            9 
 3131000   0.75553546   -6.2033729    1100.4773  0.029289826  0.028765521           12 
 3132000   0.75787925   -6.2117114    1098.9714  0.029240407  0.028757788           11 
 3133000   0.74848636   -6.2405199    1098.5541  0.029219972  0.028750006           13 
 3134000   0.75789243   -6.2408687    1099.4144  0.029233525  0.028742187           13 
 3135000   0.73063219   -6.1888145    1101.9537    0.0292917  0.028734412            6 
 3136000   0.76936128   -6.2119557    1099.1206  0.029207074  0.028726661            8 
 3137000    0.7491987   -6.1965657    1102.9373  0.029299154  0.028718861            9 
 3138000     0.764888   -6.2295898     1102.517  0.029278655  0.028711057           11 
 3139000   0.76064466   -6.2138711     1099.186  0.029180896  0.028703307            5 
 3140000   0.75859693   -6.1850204    1104.2695  0.029306515  0.028695601           21 
 3141000    0.7516632   -6.1864637     1104.531  0.029304123  0.028687958            5 
 3142000   0.75593762   -6.2018953    1102.9366  0.029252508  0.028680243           10 
 3143000   0.75140342   -6.1998096    1105.2475  0.029304473  0.028672514            4 
 3144000   0.71369276   -6.2024103    1102.3723  0.029218944  0.028664792           12 
 3145000   0.74488091    -6.204473    1102.6558  0.029217165  0.028657085            3 
 3146000   0.74648056    -6.208228     1102.106  0.029193314  0.028649374           10 
 3147000   0.76016438   -6.1997751    1100.9187  0.029152597  0.028641652           11 
 3148000   0.76659812   -6.2179191    1103.1053  0.029201219  0.028633956           18 
 3149000   0.74777376   -6.2227936    1102.4204  0.029173821  0.028626196           15 
 3150000   0.75256067   -6.1994761    1099.2466  0.029080598  0.028618377            8 
 3151000   0.76011026   -6.2063016     1101.117  0.029120834  0.028610648            5 
 3152000   0.75242151   -6.2004577    1102.0843  0.029137169  0.028602914            6 
 3153000   0.75405789    -6.200434     1104.292  0.029186277  0.028595149           10 
 3154000   0.74529217   -6.1803952    1100.2946  0.029071407  0.028587405           16 
 3155000   0.76005236   -6.2126803    1101.0371  0.029081803  0.028579664            7 
 3156000   0.73102181   -6.2330165    1100.1111  0.029048139   0.02857189            7 
 3157000   0.72439624   -6.2361297    1103.2312  0.029121296  0.028564094            5 
 3158000   0.74661424   -6.1833665    1102.3538  0.029088922  0.028556371           11 
 3159000   0.75194917   -6.2128912    1100.9769  0.029043393  0.028548672            5 
 3160000   0.74680317    -6.210911    1100.2216  0.029014283  0.028540915            5 
 3161000   0.76831315   -6.2212233    1102.1188  0.029055119  0.028533167            5 
 3162000   0.74023919   -6.2259552    1103.9115  0.029093176  0.028525386            6 
 3163000   0.75929058    -6.177654    1103.9926  0.029086115  0.028517684           11 
 3164000   0.75045218   -6.2063713    1103.9763  0.029076494  0.028510013            6 
 3165000   0.73536317   -6.1807307    1107.5761  0.029162088  0.028502331            9 
 3166000   0.72297346   -6.2049967    1102.6968  0.029024446  0.028494641            8 
 3167000   0.75102594   -6.1899804    1103.6685  0.029040851  0.028486955            7 
 3168000   0.73691048   -6.2258966    1104.1176  0.029043496  0.028479255            6 
 3169000   0.74236006   -6.2203103     1103.135  0.029008494  0.028471589            9 
 3170000   0.75022631    -6.213505    1104.6062  0.029038018   0.02846392            9 
 3171000   0.74303485   -6.2078199    1102.8299  0.028982178  0.028456231           17 
 3172000   0.73461383   -6.2134579    1102.8283  0.028973002  0.028448512            6 
 3173000   0.73442946   -6.2193477    1104.8116  0.029015958  0.028440837           10 
 3174000    0.7489076   -6.2238494    1102.1211  0.028936176  0.028433158            4 
 3175000   0.74718353    -6.188855    1107.8088  0.029076346  0.028425548           12 
 3176000    0.7483745   -6.2083783     1104.468  0.028979535  0.028417922            4 
 3177000   0.74675901   -6.2122383    1107.0529  0.029038215  0.028410266            8 
 3178000   0.73748594   -6.2222562    1104.6386   0.02896577  0.028402577           10 
 3179000   0.73785464   -6.2231822    1104.2038  0.028945262  0.028394957           10 
 3180000     0.748354   -6.2501825    1102.5663  0.028893246  0.028387235            8 
 3181000   0.74700939   -6.2631106    1102.6194  0.028885556  0.028379505            6 
 3182000   0.74751661   -6.2185105    1102.9051  0.028883959  0.028371802            5 
 3183000    0.7402683   -6.2379511    1103.4217  0.028888411  0.028364113            8 
 3184000   0.73864717   -6.1915462     1107.506  0.028986233  0.028356428            9 
 3185000   0.73066061   -6.1622587    1106.9718  0.028963156   0.02834881            5 
 3186000   0.74584552   -6.2292356    1105.3026  0.028910406  0.028341108            6 
 3187000   0.73964985   -6.2323349    1104.5927  0.028882772  0.028333374            6 
 3188000   0.74299683   -6.2401138     1103.542  0.028846245  0.028325683           14 
 3189000   0.74640729   -6.2191967    1105.7685  0.028895382  0.028317945            9 
 3190000   0.73621233   -6.2267185    1106.4053  0.028902959  0.028310247            7 
 3191000   0.75765471   -6.2358765    1107.5504  0.028923806  0.028302538           16 
 3192000   0.73075149   -6.2295337    1102.6127  0.028785836  0.028294838           25 
 3193000   0.74512664   -6.2125942    1107.1867  0.028896197  0.028287156           19 
 3194000   0.74502748   -6.2499288    1104.6583  0.028821182  0.028279492           18 
 3195000   0.74211271   -6.2320312     1105.582  0.028836254  0.028271804           16 
 3196000   0.76178548   -6.2121788     1103.072  0.028761786  0.028264146           17 
 3197000   0.73076317    -6.239084    1104.2853  0.028784414    0.0282565           17 
 3198000   0.72808862   -6.2003589    1108.6215  0.028888406  0.028248821           10 
 3199000     0.764296   -6.2342041    1104.1024  0.028761653  0.028241166           26 
 3200000   0.73194831   -6.2589348    1105.7609  0.028795856  0.028233481           11 
 3201000   0.75162131   -6.2209372    1106.9337  0.028817394  0.028225817            6 
 3202000   0.75853476   -6.2225792    1107.2293  0.028816087  0.028218175           14 
 3203000   0.74788753   -6.2720495    1105.5397  0.028763131  0.028210506           29 
 3204000   0.76109365   -6.2215103    1105.7474  0.028759556  0.028202847            9 
 3205000   0.75597444   -6.2227401    1104.9362   0.02872949  0.028195191           20 
 3206000   0.71678311   -6.2190003    1107.7853  0.028794586  0.028187512           11 
 3207000   0.74916703   -6.2071693    1107.5209  0.028778737   0.02817989            8 
 3208000   0.71276398     -6.23441    1102.3603  0.028635711  0.028172274           14 
 3209000   0.75369978   -6.2335269    1107.2447  0.028753628  0.028164647            9 
 3210000   0.74223001   -6.2366714    1108.8088  0.028785276   0.02815707            6 
 3211000   0.73937281   -6.2139602    1110.7144  0.028825766  0.028149511           17 
 3212000   0.75270011   -6.2327378    1109.4131   0.02878303  0.028141927            6 
 3213000   0.74862252   -6.2135915    1108.0527  0.028738787  0.028134315           12 
 3214000   0.72968362   -6.2274742    1107.1854  0.028707359  0.028126673            6 
 3215000   0.75969049   -6.2198958    1107.5856  0.028708803   0.02811904            8 
 3216000   0.70275038   -6.2195876    1106.7942   0.02867937  0.028111446           24 
 3217000   0.74110662   -6.2557417    1103.9148  0.028595866  0.028103818           26 
 3218000   0.73350672   -6.2350563    1107.3484  0.028675896  0.028096184           25 
 3219000   0.74023462   -6.2700133     1105.457  0.028618024  0.028088511           10 
 3220000   0.75204086   -6.2099941    1108.8395  0.028696675   0.02808086            9 
 3221000   0.72061887   -6.2336415    1107.7545  0.028659695  0.028073216            8 
 3222000   0.75906294   -6.2386739    1105.7214  0.028598214  0.028065603           13 
 3223000   0.74336634   -6.2702418    1105.5514  0.028584946  0.028057941           14 
 3224000   0.73527145   -6.2688101    1106.4099  0.028598271  0.028050306            6 
 3225000   0.73742895   -6.2569917    1107.8931  0.028627729  0.028042658           15 
 3226000   0.71385668   -6.2360067    1108.6879  0.028639386  0.028035032            4 
 3227000    0.7460914   -6.2205576    1105.5444  0.028549333  0.028027435           11 
 3228000   0.73969179   -6.2058376    1106.0971  0.028554759  0.028019893           17 
 3229000   0.75283215   -6.2398181    1108.6239  0.028611126  0.028012292           10 
 3230000   0.72782627   -6.2283982    1108.0449   0.02858733  0.028004658            8 
 3231000   0.72712988   -6.2743082    1105.6172  0.028515868  0.027997034           23 
 3232000   0.72148288   -6.2679702    1105.3235  0.028499471  0.027989364            9 
 3233000   0.74311495   -6.2512372    1105.8073  0.028503126  0.027981733           13 
 3234000   0.73768383   -6.2230585    1110.0905  0.028604681  0.027974078           13 
 3235000   0.72512756   -6.2717151    1107.0767  0.028518205  0.027966423            9 
 3236000   0.73922217   -6.2273383    1108.8777  0.028555771  0.027958748           51 
 3237000    0.7312414   -6.2507948    1106.9259  0.028496702  0.027951067           21 
 3238000   0.72269309   -6.2388965    1109.2892  0.028548722  0.027943381            6 
 3239000   0.73161895   -6.2417266    1107.9412  0.028505228  0.027935701            6 
 3240000   0.73485111   -6.2652018    1103.8092  0.028390153  0.027927991            9 
 3241000    0.7213373   -6.2233826    1109.6421  0.028531371  0.027920295            7 
 3242000   0.73702002   -6.2174844    1109.2866  0.028513433  0.027912654           12 
 3243000   0.72258111   -6.2292767    1107.8581  0.028467933   0.02790494           10 
 3244000   0.72674948   -6.2614286    1107.4958  0.028449851  0.027897241            7 
 3245000   0.73145535   -6.2505664    1108.2043  0.028459277  0.027889562           13 
 3246000   0.71778454   -6.2297072    1107.3288  0.028428034  0.027881864            5 
 3247000   0.72698972   -6.2508642     1108.712  0.028454779  0.027874192            8 
 3248000   0.73390854   -6.2575299     1106.563  0.028390881  0.027866534           10 
 3249000   0.73792753    -6.249761    1106.9507  0.028392088  0.027858827           13 
 3250000   0.73857737   -6.2264363    1109.6296  0.028452041  0.027851149            8 
 3251000   0.72186583   -6.2598124     1107.344  0.028384703  0.027843449           18 
 3252000   0.74124356   -6.2818299    1104.4566  0.028301984  0.027835702            9 
 3253000   0.72426439   -6.2526996    1105.8863  0.028329909  0.027827934            9 
 3254000   0.73623706   -6.2634082    1106.7556  0.028343463  0.027820197            9 
 3255000    0.7461548    -6.259741    1106.2203  0.028321052  0.027812445           13 
 3256000   0.72852311   -6.2524177      1109.58  0.028398341  0.027804798            6 
 3257000   0.73890968   -6.2518356    1109.7501  0.028393975   0.02779713            8 
 3258000   0.72902116    -6.238723    1107.9685   0.02833969  0.027789419            6 
 3259000   0.72467634   -6.2150193    1108.0313    0.0283326  0.027781764           11 
 3260000   0.71282629   -6.2492746     1112.284  0.028432617  0.027774102           11 
 3261000   0.73829248   -6.2419623    1109.1115  0.028342828  0.027766426           13 
 3262000   0.73112937   -6.2552324    1107.2958  0.028287752  0.027758742            8 
 3263000   0.73376853   -6.2709857    1106.4635  0.028257828  0.027751055           14 
 3264000   0.74389682   -6.2532921      1108.98  0.028313419  0.027743368           11 
 3265000   0.72710785    -6.275768    1108.6194  0.028295543  0.027735685            5 
 3266000   0.73324861   -6.2476029     1107.044  0.028246683  0.027727999            6 
 3267000   0.72820993   -6.2473224    1110.2185   0.02831901  0.027720319            4 
 3268000    0.7271341   -6.2625152    1108.3401  0.028262447  0.027712691            8 
 3269000   0.71321052    -6.282858    1107.4727   0.02823169  0.027704963            9 
 3270000   0.71365332   -6.2735071    1108.5237  0.028249838   0.02769731           13 
 3271000   0.72736891   -6.2538941    1109.9855  0.028278444  0.027689696           10 
 3272000   0.72984871   -6.2501461    1109.9997  0.028270164  0.027682012           11 
 3273000   0.73988506   -6.2735235      1109.15  0.028239892  0.027674341           15 
 3274000   0.72324684   -6.2821872    1108.1233  0.028205134  0.027666614           11 
 3275000   0.72790797   -6.2634745    1107.9129  0.028191167  0.027658884           11 
 3276000   0.72705046   -6.2342417    1111.7112  0.028279181  0.027651246           21 
 3277000   0.72970773   -6.2184661    1111.3422  0.028261169  0.027643618           13 
 3278000   0.73441057   -6.2687121    1108.3739  0.028177088  0.027635974           10 
 3279000   0.72837339   -6.2747482    1109.6676  0.028201371  0.027628319           13 
 3280000   0.72329377   -6.2759345    1112.4746  0.028264091  0.027620663           16 
 3281000    0.7243217   -6.2410561    1112.4647  0.028255225  0.027613043           11 
 3282000   0.73562442   -6.2421827    1111.3324  0.028217865  0.027605429           24 
 3283000    0.7168632   -6.2253878    1108.6267  0.028140591   0.02759781           17 
 3284000   0.73454118   -6.2179943    1111.8609  0.028214091  0.027590236           14 
 3285000   0.74118402    -6.242552    1108.9348  0.028131275   0.02758262           12 
 3286000   0.71554882   -6.2256958    1113.0276  0.028226508  0.027575011            9 
 3287000     0.720683   -6.2558465    1108.3725    0.0280999  0.027567312           17 
 3288000   0.73226377   -6.2489811    1110.2309  0.028138457  0.027559624            5 
 3289000   0.73586366   -6.2437821    1108.7218  0.028091663  0.027551968           11 
 3290000    0.7204692   -6.2707453    1110.4661  0.028127307  0.027544285            7 
 3291000   0.73320573   -6.2646005    1111.0446   0.02813341  0.027536607            6 
 3292000   0.74187762   -6.2351794    1108.3153  0.028055775  0.027528951           10 
 3293000   0.72671947   -6.2728239    1107.8667  0.028035902  0.027521294            7 
 3294000   0.72797875   -6.2488783    1110.1939  0.028086267  0.027513635            6 
 3295000   0.72668664   -6.2830876      1103.33  0.027904147  0.027505936           14 
 3296000   0.72098432   -6.2376847    1108.5181  0.028026854  0.027498237            6 
 3297000   0.72476155   -6.2606857    1107.9266  0.028003401  0.027490557            9 
 3298000   0.74569876   -6.2735917    1110.4131  0.028057741  0.027482842           15 
 3299000   0.71486469   -6.2843099    1106.9892  0.027962746  0.027475107           10 
 3300000   0.72614824   -6.2736143    1109.0239  0.028005655  0.027467433            9 
 3301000   0.71981046    -6.282802    1108.1289  0.027974577   0.02745974            9 
 3302000   0.72621262   -6.2637096     1110.988  0.028038261  0.027452081            5 
 3303000   0.72524714   -6.2471226    1111.8534  0.028051605  0.027444457           16 
 3304000   0.73075536   -6.2738323    1107.9387  0.027944379  0.027436775           11 
 3305000   0.72923757    -6.285155    1107.4372  0.027923278  0.027429136           12 
 3306000   0.70068488   -6.2466972    1110.5516  0.027993336  0.027421491           13 
 3307000   0.72682877   -6.2572005    1110.9953  0.027996052   0.02741386            7 
 3308000   0.70898831   -6.2720758    1108.7819  0.027931829    0.0274062            9 
 3309000   0.73413042    -6.264949    1111.5895  0.027994095  0.027398568           15 
 3310000   0.71344281   -6.2722048    1108.5081  0.027908059  0.027390902           11 
 3311000   0.72273311   -6.2692831    1109.8268  0.027932819  0.027383217           13 
 3312000   0.72293411   -6.2738222    1107.9294  0.027876646  0.027375578           17 
 3313000     0.743798   -6.2592806    1113.4478  0.028007038  0.027367984           12 
 3314000   0.72829871   -6.2833444    1108.8446  0.027882834  0.027360332           17 
 3315000   0.72300038   -6.2942725    1109.0088  0.027878552  0.027352616           10 
 3316000   0.73227443   -6.2747024    1110.0053  0.027895188  0.027344931           21 
 3317000    0.7248826   -6.2733271    1110.6078  0.027901913  0.027337247            7 
 3318000   0.71031586   -6.2854419     1109.621  0.027868722  0.027329511           11 
 3319000   0.69553847   -6.2580762     1110.627  0.027885584   0.02732181            9 
 3320000   0.73400797   -6.2742999    1110.5841  0.027876106  0.027314154            9 
 3321000   0.73010975   -6.3114152    1109.4228  0.027838572  0.027306483            8 
 3322000   0.73075418   -6.2332955    1114.8828  0.027967158  0.027298858           10 
 3323000   0.73144477   -6.2630111    1110.2898   0.02784356  0.027291249           12 
 3324000   0.71644014    -6.276993    1111.3602  0.027862018  0.027283608            4 
 3325000   0.71653454   -6.2953117    1111.1981  0.027849578  0.027275975            7 
 3326000   0.70936778   -6.2596739    1109.4336  0.027796993  0.027268323           13 
 3327000   0.72696164   -6.3083716    1106.4626  0.027714223  0.027260671            9 
 3328000    0.7157277   -6.2814443    1113.9548  0.027893499  0.027253022           13 
 3329000   0.70230093   -6.2837984    1110.7167  0.027804062  0.027245383           13 
 3330000    0.7393754   -6.2746953     1111.463   0.02781439  0.027237735            7 
 3331000   0.70599231   -6.2762779    1110.3772  0.027778876  0.027230116            8 
 3332000     0.714961   -6.3102695    1107.0414  0.027687111  0.027222399           11 
 3333000   0.71326375   -6.3127377    1109.0718  0.027729569   0.02721468           13 
 3334000   0.73224251   -6.2642537    1113.9537  0.027843275  0.027207018            6 
 3335000    0.7254389   -6.2828311     1109.139  0.027714617  0.027199362            6 
 3336000   0.72215355   -6.2801312    1109.8123  0.027723129  0.027191733           13 
 3337000   0.72638375   -6.3040868     1109.114  0.027697382  0.027184112           14 
 3338000   0.70897617   -6.2857932    1109.9234  0.027709293  0.027176429           26 
 3339000    0.7075517   -6.2616543    1111.6797  0.027744826  0.027168744            8 
 3340000     0.719872    -6.279254    1111.3271  0.027727722  0.027161051           25 
 3341000   0.71562431   -6.2873211    1114.7372   0.02780448  0.027153407           29 
 3342000   0.71791673   -6.2833213    1109.9381  0.027676493  0.027145823           12 
 3343000   0.71376842   -6.3032974    1106.8385  0.027590949  0.027138188            6 
 3344000   0.72441886   -6.2782705    1112.3304  0.027719558  0.027130535            4 
 3345000   0.71972007   -6.2899417    1113.4054  0.027738051  0.027122938           12 
 3346000   0.71585997    -6.289194    1112.3411  0.027703256  0.027115324           19 
 3347000   0.71358641   -6.2719867    1114.0788  0.027738244  0.027107768            7 
 3348000   0.72290603     -6.24483    1115.8327  0.027773612  0.027100231           12 
 3349000   0.72178248   -6.2740977    1110.1651  0.027624295  0.027092682            6 
 3350000   0.72440987   -6.2716467     1112.673  0.027678434   0.02708507           12 
 3351000   0.72971877   -6.2980179    1110.4229  0.027614216   0.02707744            9 
 3352000   0.72638749   -6.2923655    1110.5325  0.027608703   0.02706977           15 
 3353000   0.71396289   -6.3105552    1109.6548  0.027578655  0.027062151           13 
 3354000   0.71671543   -6.3025731    1113.9721  0.027677702  0.027054528           14 
 3355000   0.70266302   -6.2842644    1110.3748  0.027580099    0.0270469           12 
 3356000   0.71554414   -6.3145793     1112.903   0.02763466  0.027039242            7 
 3357000   0.72017798   -6.2819192    1110.6901  0.027571495  0.027031572           11 
 3358000    0.7241874   -6.3094988    1111.1085  0.027573667  0.027023926           11 
 3359000   0.70748561   -6.2908876    1112.7119  0.027605238  0.027016285           25 
 3360000   0.70991391   -6.2905946    1116.5346   0.02769183  0.027008688           24 
 3361000   0.71355053   -6.3163954    1112.3539  0.027579934  0.027001099           15 
 3362000   0.72463513   -6.3033545    1111.8075  0.027558187  0.026993471           13 
 3363000   0.72753261   -6.3084648    1110.6914  0.027522336  0.026985833           11 
 3364000   0.71210166   -6.3079111    1110.8417  0.027517879   0.02697824           11 
 3365000   0.71237277   -6.3165464    1110.7277  0.027506878  0.026970647            7 
 3366000     0.710887   -6.2851538    1113.8598  0.027576247  0.026963039           16 
 3367000   0.73891305    -6.287781    1110.9975  0.027497216  0.026955416           16 
 3368000   0.72026207   -6.2524394    1114.1457  0.027566946  0.026947852           11 
 3369000    0.7230868   -6.2949626    1113.8508  0.027551468  0.026940299           23 
 3370000   0.70751531   -6.2848612    1111.7542  0.027491449  0.026932725            8 
 3371000   0.71249081   -6.2952492    1114.4667  0.027550348  0.026925092           16 
 3372000   0.70404041    -6.309674    1112.1856  0.027485805  0.026917443           26 
 3373000   0.71057639   -6.3171936    1111.0966  0.027450751  0.026909785           20 
 3374000   0.72179891   -6.2907601    1113.2649  0.027496168  0.026902149           10 
 3375000   0.70888981   -6.2953646    1112.1932  0.027461561   0.02689456           19 
 3376000   0.70283041   -6.3258546    1111.1868  0.027428584   0.02688699           10 
 3377000   0.71859156   -6.3217195     1112.711  0.027458074  0.026879408           19 
 3378000   0.69597271   -6.3087427    1112.4783  0.027444204  0.026871812            9 
 3379000   0.70045208   -6.2920497     1113.791  0.027468456  0.026864203           14 
 3380000   0.70686835   -6.3080095    1110.8668  0.027388234  0.026856566           14 
 3381000   0.71247703   -6.2914036    1113.2065  0.027437802  0.026848958           12 
 3382000   0.70080539   -6.3065372    1110.0168  0.027351094  0.026841318           17 
 3383000   0.71307963   -6.2897079    1113.4077  0.027426536  0.026833713            8 
 3384000   0.68767751   -6.2927906    1112.2229  0.027389255  0.026826136           13 
 3385000   0.72470238   -6.2896846    1113.9607  0.027423947  0.026818517           11 
 3386000   0.70458927   -6.2956315    1110.5918  0.027332935  0.026810916            8 
 3387000   0.70053461   -6.3359797    1113.8959  0.027406159  0.026803331            7 
 3388000   0.71087206   -6.3134856    1112.9974   0.02737597  0.026795738           14 
 3389000   0.71208221   -6.3017148    1110.5776  0.027308389  0.026788114           22 
 3390000    0.7073557   -6.2810958    1114.8491  0.027405336  0.026780483           14 
 3391000   0.71866548   -6.2953226    1113.9201  0.027374426  0.026772884           31 
 3392000   0.71904157   -6.3025878    1113.7701  0.027362668  0.026765276            7 
 3393000   0.69077469   -6.2804702    1114.1064  0.027362865  0.026757697           10 
 3394000   0.71471473   -6.3198674    1112.1212   0.02730606  0.026750115           13 
 3395000   0.69992969   -6.2912961    1114.3785  0.027353424  0.026742474           11 
 3396000   0.69903719   -6.3095396    1109.1759  0.027217706  0.026734827            8 
 3397000   0.72721856   -6.3270294    1111.1531  0.027258195  0.026727201           11 
 3398000   0.70487467   -6.3165583     1111.899  0.027268468  0.026719588            8 
 3399000    0.7143252   -6.2915591    1113.6846  0.027304222  0.026712029           11 
 3400000   0.69811368   -6.2964231    1115.9283  0.027351184  0.026704506            4 
 3401000   0.70626558   -6.3060774    1114.7435  0.027314112  0.026696969            8 
 3402000   0.70107394   -6.2808111    1114.6644  0.027304145  0.026689449            6 
 3403000   0.71037086   -6.3153891     1111.506  0.027218778  0.026681891            6 
 3404000     0.710077   -6.2922809    1116.2804  0.027327663  0.026674341           13 
 3405000   0.70012871   -6.3091902    1114.7603  0.027282436  0.026666764           29 
 3406000   0.69568775   -6.3048664    1111.9931  0.027206721  0.026659203           11 
 3407000   0.71291756   -6.3253069    1114.9569  0.027271227  0.026651612            7 
 3408000   0.70406054   -6.2945756    1114.6713  0.027256242  0.026644015            8 
 3409000   0.71298561   -6.3139426    1115.0934  0.027258565   0.02663645           10 
 3410000   0.71365215    -6.325549     1112.029  0.027175685   0.02662883           10 
 3411000   0.71713007   -6.2971436    1117.2235  0.027294623  0.026621273           25 
 3412000   0.70075805   -6.3147879     1113.753   0.02720186  0.026613704            7 
 3413000   0.69438918   -6.3113586    1114.2414  0.027205815  0.026606134            8 
 3414000   0.69743182   -6.3332333    1111.5151    0.0271313  0.026598557           13 
 3415000   0.71986652   -6.3086969    1114.8523   0.02720479  0.026591008           12 
 3416000   0.70531329   -6.2636992    1116.3758  0.027233991  0.026583459            6 
 3417000   0.68611222   -6.3412004    1112.8179  0.027139253  0.026575912           15 
 3418000     0.710983   -6.3018776    1115.9596  0.027207909  0.026568379           16 
 3419000   0.70936329    -6.303288    1115.1252  0.027179614   0.02656084           13 
 3420000   0.70688706   -6.2842907     1116.622  0.027208137  0.026553294           14 
 3421000   0.69437523   -6.3097023    1114.9958  0.027160571  0.026545739           10 
 3422000   0.69750376   -6.3194319    1113.7117  0.027121364  0.026538223           15 
 3423000   0.69793375   -6.3081174    1115.0454  0.027145909  0.026530682           11 
 3424000     0.700782   -6.3050329    1112.9607  0.027087245   0.02652313            8 
 3425000   0.70114723   -6.3274173    1114.3774  0.027113806  0.026515563           27 
 3426000   0.71431116   -6.3166192    1113.5494   0.02708575  0.026507965           13 
 3427000   0.71683607   -6.3159558    1113.0074  0.027064668  0.026500407           35 
 3428000   0.70181714   -6.3328616    1111.8112  0.027027692  0.026492856           13 
 3429000   0.70027474   -6.3327209    1112.4112  0.027034392  0.026485301           15 
 3430000   0.68429567   -6.3055558    1116.3026  0.027121055  0.026477754            7 
 3431000   0.70185618   -6.3261213    1116.6347  0.027121216  0.026470227           14 
 3432000   0.72150363   -6.3161047    1113.3958  0.027034668  0.026462696            8 
 3433000   0.70556167   -6.3237465    1111.7615  0.026987123  0.026455153           10 
 3434000   0.69959745   -6.3300141    1112.9748  0.027008706  0.026447614           10 
 3435000   0.70107401   -6.3304659    1117.3926   0.02710802  0.026440056            7 
 3436000   0.71289375   -6.3529768     1115.239  0.027047899  0.026432517           12 
 3437000   0.70123675   -6.3186489    1116.6137   0.02707336  0.026424977            6 
 3438000   0.69447826    -6.313145    1118.0823  0.027101083  0.026417503           31 
 3439000   0.70183198   -6.3223641    1114.8303  0.027014401  0.026410013           18 
 3440000   0.71570965   -6.3197701    1117.8001  0.027078491  0.026402522           12 
 3441000   0.70367466   -6.3345163    1114.3797  0.026987786  0.026395041           21 
 3442000   0.71687658    -6.327246     1118.375  0.027076676  0.026387609           14 
 3443000   0.69271227   -6.3091362    1118.3674  0.027068628  0.026380174           10 
 3444000    0.6961573   -6.3300709    1114.8653  0.026976029  0.026372711           18 
 3445000   0.71402318   -6.3151991    1115.9881  0.026995359  0.026365253           16 
 3446000    0.6928575   -6.3253692    1115.5912  0.026977927  0.026357795           17 
 3447000   0.69113701   -6.3337885    1114.9469  0.026954524  0.026350342           19 
 3448000   0.69385491   -6.3301867    1115.3158  0.026955622  0.026342895           14 
 3449000   0.70549892   -6.3407765    1113.9686  0.026915254  0.026335388           20 
 3450000   0.69338319   -6.3406985    1119.0766  0.027030836  0.026327875           11 
 3451000   0.70833252   -6.3420714    1115.5331  0.026937436  0.026320403            6 
 3452000   0.69929033   -6.3299188    1114.4094  0.026902506  0.026312962           14 
 3453000   0.69998282   -6.3345666    1116.1961  0.026937835    0.0263055           10 
 3454000   0.68861412   -6.3347964    1117.7568   0.02696769  0.026298046            9 
 3455000    0.7001705   -6.3114719    1117.2276   0.02694712  0.026290629            7 
 3456000   0.69517635   -6.3437979    1116.9509   0.02693265  0.026283193            6 
 3457000   0.70840642   -6.2995357     1118.658  0.026966012  0.026275743           17 
 3458000   0.70002052   -6.3240322    1117.4799  0.026929822  0.026268346            7 
 3459000   0.71033337   -6.3254819    1118.9003  0.026956258   0.02626092            7 
 3460000   0.70330036   -6.3359354    1114.8992  0.026852101  0.026253452           14 
 3461000   0.69637219   -6.3086861     1115.037   0.02684766  0.026245996           11 
 3462000   0.69780655   -6.3437785    1114.5489  0.026828156  0.026238538           26 
 3463000   0.70462858   -6.3607647    1114.2844  0.026814045  0.026231081            7 
 3464000   0.70411789    -6.356896    1114.9478  0.026822263  0.026223621           30 
 3465000   0.68481561    -6.349474    1116.1469  0.026843359  0.026216132            7 
 3466000   0.69534344   -6.3412916    1116.3881  0.026841415  0.026208648           10 
 3467000   0.69118251   -6.3306372    1118.3152  0.026879993  0.026201202           18 
 3468000   0.69881986   -6.3519905    1116.1675  0.026820633  0.026193747           12 
 3469000   0.69863129   -6.3692668    1114.4252  0.026771047  0.026186223           12 
 3470000   0.70232854   -6.3526003    1115.8595  0.026797778  0.026178722           10 
 3471000   0.70672469   -6.3483745    1116.9238  0.026815609  0.026171227           15 
 3472000   0.69114641   -6.3364003    1117.4022   0.02681937   0.02616376           13 
 3473000   0.68675079   -6.3409433    1118.4393  0.026836531  0.026156306           14 
 3474000   0.69864879   -6.3460127    1117.6069  0.026808838  0.026148822            8 
 3475000   0.68678758   -6.3170945    1118.1786  0.026814836  0.026141374            6 
 3476000   0.69536135   -6.3333092     1119.522  0.026839326  0.026133958            8 
 3477000   0.69561467   -6.3470202    1115.7952  0.026742286  0.026126549           12 
 3478000   0.70130689    -6.362012     1116.972  0.026762796  0.026119131            7 
 3479000   0.69881887   -6.3667873    1117.3689   0.02676461  0.026111707           15 
 3480000   0.68265525   -6.3228382    1120.0489  0.026821094  0.026104357           12 
 3481000   0.69435054   -6.2985089    1119.8072  0.026807602  0.026096969           15 
 3482000   0.68750187   -6.3321607    1122.1193   0.02685524  0.026089618           22 
 3483000    0.6824878   -6.3466531    1118.8042  0.026768213  0.026082296           13 
 3484000   0.71272937   -6.3622416     1117.886  0.026738567  0.026074951           12 
 3485000   0.69998362   -6.3477414    1115.5095  0.026674068  0.026067586           23 
 3486000   0.69134655   -6.3677913    1119.1693  0.026753903  0.026060217            8 
 3487000    0.6940375   -6.3308142    1119.7796  0.026760816   0.02605286           14 
 3488000    0.6957352   -6.3570761    1118.3861  0.026719851  0.026045479           14 
 3489000   0.69572412   -6.3600018     1119.135  0.026730081  0.026038065            7 
 3490000   0.68954822   -6.3502146    1116.8898  0.026668812  0.026030654           17 
 3491000   0.69594283   -6.3526968     1118.773  0.026706126  0.026023242            7 
 3492000   0.68470315   -6.3672148    1116.6912  0.026648797   0.02601584           11 
 3493000   0.69079276   -6.3363982    1115.9471  0.026623417  0.026008441           14 
 3494000   0.68993389   -6.3582036    1117.8397  0.026660936  0.026001049           15 
 3495000   0.70091821   -6.3601638    1118.2205  0.026662387  0.025993648           25 
 3496000   0.68322164   -6.3696277    1118.9122  0.026671249  0.025986223           14 
 3497000   0.68795363    -6.350857    1120.1453  0.026693005  0.025978831            9 
 3498000   0.68750755   -6.3563475    1120.1373  0.026685184  0.025971473           14 
 3499000   0.69136662   -6.3375423    1120.0253  0.026674891  0.025964094           17 
 3500000   0.69067677   -6.3664654    1119.5639  0.026656283  0.025956787           11 
 3501000   0.67866615   -6.3217427    1120.7417  0.026676703  0.025949446           12 
 3502000   0.68884589   -6.3517071     1118.207  0.026608772  0.025942074           17 
 3503000   0.69159962   -6.3336927    1119.3754   0.02662897  0.025934765            9 
 3504000   0.68982929   -6.3358171    1121.5814  0.026673834  0.025927479            9 
 3505000     0.705617   -6.3659226    1116.6223  0.026548319  0.025920143           13 
 3506000   0.68183514   -6.3382748    1120.9757  0.026644221  0.025912814           18 
 3507000   0.68567306   -6.3595596    1119.4816  0.026601121   0.02590548            9 
 3508000   0.69438731   -6.3602508    1119.4957  0.026593874  0.025898161           12 
 3509000   0.70430677   -6.3373812    1123.2636  0.026675777  0.025890839           11 
 3510000   0.69805293   -6.3427569    1119.5695  0.026580474  0.025883508           19 
 3511000   0.68900418   -6.3600499    1119.0496  0.026560563  0.025876193           17 
 3512000   0.69313235   -6.3669375    1121.1431  0.026602674  0.025868872           10 
 3513000   0.69008333   -6.3635204     1119.835  0.026564071  0.025861536            9 
 3514000   0.69025969   -6.3221731    1121.4819  0.026595568  0.025854256           13 
 3515000   0.69160573   -6.3784959    1118.5271  0.026517949  0.025846923           36 
 3516000   0.69688469   -6.3672927    1118.0321  0.026498675  0.025839603           15 
 3517000   0.68781751   -6.3586899    1120.3794  0.026546759  0.025832288           23 
 3518000   0.69442407   -6.3435117    1121.2675   0.02656025  0.025824975           24 
 3519000   0.68139111   -6.3558122    1119.3076   0.02650629  0.025817671           21 
 3520000   0.68655353   -6.3436376    1122.7624  0.026580549  0.025810331           11 
 3521000   0.68649742    -6.368121    1122.7686  0.026573147  0.025803058           11 
 3522000   0.67841877   -6.3402866    1120.6256  0.026514897  0.025795797           12 
 3523000   0.69061762   -6.3577598    1121.0496  0.026517399  0.025788507           16 
 3524000   0.69551563   -6.3925421    1117.9231  0.026435941  0.025781186           11 
 3525000   0.68446774   -6.3437765     1121.706  0.026517872  0.025773853           12 
 3526000   0.68398493   -6.3520194    1119.8965  0.026467586  0.025766546            8 
 3527000   0.68493645   -6.3698716    1121.9379  0.026508314   0.02575922            8 
 3528000   0.68741791   -6.3529599    1122.3742  0.026511106  0.025751917           17 
 3529000   0.69789747   -6.3631136    1122.8401  0.026514596  0.025744615           21 
 3530000   0.68849788   -6.3671079    1122.0588  0.026488641  0.025737324           11 
 3531000   0.67256717   -6.3520614    1122.3979   0.02648914  0.025730034            9 
 3532000   0.68264486   -6.3608636    1119.3394  0.026409479  0.025722759            5 
 3533000   0.67710568   -6.3445484    1118.4318  0.026380597  0.025715504           11 
 3534000   0.69407019   -6.3467897     1123.766  0.026498915  0.025708215            6 
 3535000   0.68586999   -6.3787442    1118.8833  0.026376316  0.025700942           11 
 3536000   0.69074581   -6.3707231    1120.5284  0.026407625  0.025693672            8 
 3537000   0.67918253   -6.3631496    1122.3456  0.026442975  0.025686396           27 
 3538000   0.67103588   -6.3867217    1120.2976  0.026387263   0.02567909           16 
 3539000   0.68060322   -6.3741551    1122.6444  0.026435066  0.025671789           15 
 3540000   0.67440766   -6.3635825    1120.1606   0.02636913  0.025664496           35 
 3541000    0.6798552   -6.3405104    1120.7879  0.026376446  0.025657195           15 
 3542000   0.69562548    -6.335609    1124.8129  0.026463695  0.025649945           22 
 3543000   0.69478759   -6.3586727    1123.9138  0.026435079  0.025642719           15 
 3544000   0.69658515   -6.3715338    1122.8232  0.026401976  0.025635477           10 
 3545000   0.69100972   -6.3635449    1122.1912  0.026379672  0.025628231           17 
 3546000   0.66881724   -6.3512615    1122.0276  0.026368387  0.025620956            7 
 3547000   0.67611805    -6.348117     1122.609  0.026374612  0.025613691           10 
 3548000    0.6816562   -6.3782135    1123.1672  0.026380288  0.025606412           11 
 3549000   0.67746696   -6.3818168    1120.9464   0.02632071  0.025599103           25 
 3550000   0.68183869     -6.34933    1122.2487  0.026343867  0.025591824           18 
 3551000   0.67935242   -6.3436126    1124.1134  0.026380208  0.025584595           13 
 3552000   0.68599184   -6.3787693    1118.1392   0.02623262  0.025577275           31 
 3553000   0.68880283    -6.387445    1119.0784  0.026247266  0.025569936            8 
 3554000   0.68652972   -6.3964083     1120.466  0.026272416  0.025562594           21 
 3555000   0.69668942   -6.3617055    1122.6417  0.026316026  0.025555279           14 
 3556000   0.68121633   -6.3888477    1119.9223  0.026244899  0.025547987           26 
 3557000   0.68769687   -6.3518618    1121.5573  0.026275825  0.025540716           29 
 3558000   0.69670194   -6.3661831    1122.1057  0.026281285  0.025533486           11 
 3559000   0.67717394   -6.3827965    1121.5404  0.026260663  0.025526195           22 
 3560000   0.68646395   -6.3751915    1118.3446  0.026178479  0.025518907           16 
 3561000   0.68444859   -6.3810175    1120.6845  0.026225886  0.025511602            6 
 3562000   0.66908125    -6.350556    1122.6477   0.02626445  0.025504324            3 
 3563000   0.69749428   -6.3439476    1121.4307  0.026228617  0.025497046           26 
 3564000   0.66492019   -6.3831908    1119.2846  0.026171077  0.025489806           14 
 3565000   0.68352548   -6.3702687    1124.1106  0.026276546  0.025482538            8 
 3566000   0.67514715   -6.3807974    1121.6553  0.026211798  0.025475275            8 
 3567000   0.68368403   -6.3914387    1120.3779  0.026174607  0.025468018           11 
 3568000   0.67201844   -6.3595247      1122.21  0.026210062  0.025460759           18 
 3569000   0.69016487   -6.3696165    1121.4804  0.026185683  0.025453489           10 
 3570000   0.68470674   -6.3801529    1120.8991  0.026164778  0.025446205           19 
 3571000   0.66138626   -6.3792058    1119.1879  0.026117519  0.025438933           20 
 3572000   0.69213323    -6.383254     1119.222  0.026111003  0.025431648           20 
 3573000   0.69214449   -6.3846733    1122.4511  0.026179007  0.025424357           16 
 3574000   0.66844862   -6.3774227    1120.4115  0.026124125  0.025417083           12 
 3575000   0.67711836    -6.382293    1119.9964  0.026107142  0.025409777           22 
 3576000   0.68801024   -6.3901727     1120.895  0.026120782  0.025402491           23 
 3577000   0.67233948   -6.3901227    1120.8158  0.026111634  0.025395175           22 
 3578000   0.66149361   -6.3944034    1121.8927  0.026129418  0.025387842           20 
 3579000   0.68051103   -6.3777394    1120.3943  0.026087228  0.025380529            9 
 3580000   0.68518835   -6.3720965    1123.0231  0.026141134  0.025373207           39 
 3581000   0.69933215   -6.3924403    1120.3451  0.026071513  0.025365868           12 
 3582000    0.6887438   -6.3723928    1123.1967  0.026130577  0.025358587            7 
 3583000   0.67086108   -6.3665444    1123.2042  0.026123459  0.025351316            6 
 3584000   0.67555369   -6.3792705    1119.8365  0.026037865  0.025344036           27 
 3585000   0.67149619   -6.3747305    1121.1121  0.026060253  0.025336757            5 
 3586000   0.68953045   -6.3979291    1121.0242  0.026050945  0.025329473           23 
 3587000   0.67533586   -6.3939312     1119.914  0.026017888  0.025322176            9 
 3588000   0.66993775   -6.3661058    1122.0239  0.026059641  0.025314878           20 
 3589000   0.69171183   -6.3647036    1124.0204  0.026098738  0.025307593           10 
 3590000     0.669191   -6.3727874    1122.1061  0.026047031  0.025300326            9 
 3591000   0.67077793    -6.396853    1118.8481  0.025964172  0.025293025           10 
 3592000   0.67317448    -6.379822    1122.3232  0.026037566  0.025285722           20 
 3593000   0.68309731   -6.3668193    1120.8295  0.025995674  0.025278457            8 
 3594000   0.68331993   -6.3705049    1122.2795  0.026022062  0.025271182           10 
 3595000   0.67470378   -6.4070275    1122.2194  0.026013431  0.025263915           12 
 3596000   0.68064505   -6.3919281    1122.1735  0.026005132  0.025256639           13 
 3597000   0.68459251   -6.3739453    1120.3397   0.02595542  0.025249344           20 
 3598000   0.68528371   -6.3683718    1120.8739  0.025960577  0.025242093           23 
 3599000   0.66099428     -6.39325    1120.8345  0.025952453  0.025234829           47 
 3600000   0.68082599   -6.4025255    1120.8869  0.025946455  0.025227554           11 
 3601000   0.68187259    -6.375561    1122.7877  0.025983238  0.025220287           20 
 3602000   0.66832328    -6.388642    1122.2973   0.02596468  0.025213013           29 
 3603000   0.66444979   -6.4063239    1121.0019  0.025927513  0.025205717           11 
 3604000     0.667359   -6.3527872    1121.7878   0.02593849  0.025198416           16 
 3605000    0.6516146   -6.3758166    1120.9413  0.025911728  0.025191139           10 
 3606000    0.6742359    -6.383446    1122.5382  0.025941444  0.025183852           27 
 3607000   0.67721498   -6.4100572    1120.2001  0.025880236  0.025176532           17 
 3608000   0.67899338   -6.3953308    1120.6134  0.025882607  0.025169222           10 
 3609000   0.68060235   -6.3982949    1118.1647  0.025818896  0.025161921           14 
 3610000   0.67404311   -6.3882383    1121.0591  0.025878557  0.025154613           17 
 3611000   0.68114254   -6.4021892    1119.8238  0.025842884  0.025147341           20 
 3612000   0.68198005    -6.377831    1121.4908  0.025874187  0.025140056           14 
 3613000   0.67356748   -6.3800313    1117.6471  0.025778373  0.025132778            8 
 3614000   0.67002446   -6.3491571    1122.9501  0.025893519  0.025125524           10 
 3615000   0.68171786   -6.3851341    1121.1715  0.025845355  0.025118267            9 
 3616000    0.6597289   -6.3908402    1119.2926  0.025794906  0.025110985           13 
 3617000    0.6679034   -6.3799338    1120.7393  0.025821105  0.025103726            8 
 3618000    0.6758066   -6.3707643    1121.6749  0.025835519  0.025096443           18 
 3619000   0.66251782    -6.405361    1120.4942  0.025801194  0.025089169           13 
 3620000    0.6758627   -6.3865177    1122.8588    0.0258485  0.025081878           11 
 3621000    0.6521931   -6.4114977    1121.5393  0.025810993  0.025074616           11 
 3622000    0.6738141   -6.3836032    1123.6205  0.025851752  0.025067354           11 
 3623000   0.66317031   -6.3813859    1121.7019  0.025800486  0.025060098           12 
 3624000   0.67796715   -6.3863226     1120.227  0.025759451  0.025052827            8 
 3625000   0.66744274   -6.3978432    1122.6723  0.025808559   0.02504555           10 
 3626000    0.6744664   -6.4090574    1121.5338  0.025775275   0.02503832           28 
 3627000   0.64973303   -6.3661062    1123.7062  0.025818081  0.025031067           17 
 3628000   0.65636416   -6.3965247    1122.4575  0.025782285  0.025023839           14 
 3629000   0.67994735   -6.4075395    1123.0263  0.025788241  0.025016636           20 
 3630000   0.65062953    -6.379846    1123.7658  0.025798114  0.025009413            9 
 3631000   0.66941724   -6.3905484    1122.2456  0.025756118  0.025002187           18 
 3632000   0.67554382   -6.4144641    1120.4685  0.025708252  0.024994948           10 
 3633000   0.67822185    -6.402916    1120.7033  0.025706562  0.024987742           13 
 3634000   0.67752923   -6.3952627    1122.4844  0.025740331  0.024980521           11 
 3635000   0.66161878   -6.4208117    1123.2181   0.02575007  0.024973289           27 
 3636000   0.66468268   -6.3870494     1121.655  0.025707164  0.024966036           20 
 3637000   0.66601743   -6.4082372    1119.9419  0.025660845  0.024958809           18 
 3638000   0.66067441   -6.3974623    1123.0333  0.025724604  0.024951579           13 
 3639000    0.6672426   -6.4120607    1121.9563  0.025692871  0.024944368           13 
 3640000   0.67461077   -6.4316526    1121.7964  0.025682152  0.024937137           11 
 3641000   0.66585917   -6.4047943     1122.958  0.025701685  0.024929889           18 
 3642000   0.66082394   -6.4218538    1121.0853  0.025651778  0.024922613           24 
 3643000   0.66847196   -6.4333643     1119.969  0.025619202  0.024915347            5 
 3644000   0.68599708   -6.4229189    1122.0642  0.025660086  0.024908084            9 
 3645000   0.66446408   -6.4212671    1120.5561  0.025618567  0.024900822           20 
 3646000   0.65965891   -6.4063786    1122.6704  0.025659865  0.024893638           18 
 3647000   0.66892433   -6.4254665    1119.6849   0.02558461  0.024886411           20 
 3648000   0.64773151   -6.4064818     1122.426  0.025640214  0.024879218           14 
 3649000   0.66811156   -6.4241813    1122.5781   0.02563666  0.024872018           51 
 3650000   0.68289684   -6.4207334    1119.9346  0.025569283  0.024864807           19 
 3651000   0.67122079   -6.4476504    1120.6324  0.025578206  0.024857585           30 
 3652000   0.66989589   -6.4319067    1120.5226  0.025568697  0.024850327           26 
 3653000   0.68412262   -6.4209039     1121.697  0.025588489  0.024843095           27 
 3654000   0.67616071   -6.4236184    1121.3638  0.025573888   0.02483589           41 
 3655000   0.65958595   -6.3986162    1123.3466  0.025612098  0.024828718           47 
 3656000   0.65371879   -6.4253849    1124.3676  0.025628365  0.024821571           21 
 3657000   0.67537998    -6.400609    1126.4828  0.025669557  0.024814399           31 
 3658000   0.67231237   -6.4034657    1125.5714  0.025641775  0.024807239           18 
 3659000    0.6867256   -6.4018237    1121.3077  0.025537662  0.024800061           12 
 3660000   0.65365103   -6.4320785    1122.0982  0.025548684  0.024792858           26 
 3661000   0.65524584   -6.4358569    1119.7544  0.025488354  0.024785647           15 
 3662000   0.66411212   -6.4358715    1124.7992  0.025596195  0.024778444           12 
 3663000   0.64927733   -6.4206683    1121.6022  0.025516477  0.024771292           25 
 3664000   0.68885831   -6.3946634    1125.2288  0.025591994  0.024764141           10 
 3665000   0.66993646   -6.4090261    1124.1013  0.025559374  0.024757014           16 
 3666000   0.66076701   -6.4044961    1125.8749  0.025592719  0.024749871           28 
 3667000   0.66206752   -6.4093475    1123.0202  0.025520867  0.024742763           47 
 3668000   0.67113809   -6.4037016    1125.8011  0.025577089  0.024735633           24 
 3669000   0.66299077   -6.4023655    1124.5252  0.025541138  0.024728532           14 
 3670000   0.66857301   -6.4297444    1123.6981  0.025515398  0.024721379           26 
 3671000   0.67047558   -6.4147698    1123.0604  0.025493971  0.024714209           12 
 3672000   0.66469372   -6.4348692    1123.3346   0.02549325  0.024707046           24 
 3673000   0.66104734   -6.4002078    1122.3092  0.025463045  0.024699876           19 
 3674000   0.65409724   -6.4070753    1121.9795  0.025448638  0.024692736            7 
 3675000   0.65778217   -6.4137235    1123.3891  0.025473676  0.024685611           12 
 3676000   0.66647625   -6.4054137    1123.8013  0.025476089  0.024678489           38 
 3677000   0.66607927   -6.4141885    1123.9236  0.025471933  0.024671352            9 
 3678000   0.65817006   -6.4287285    1123.7923  0.025462033  0.024664214           16 
 3679000   0.66579211    -6.413947    1123.9479  0.025458637  0.024657051           13 
 3680000   0.66328096   -6.4387295    1123.0092  0.025430461  0.024649924           12 
 3681000   0.66732782   -6.4092458    1126.3714  0.025499669  0.024642801           11 
 3682000   0.66805331    -6.430691     1124.147  0.025442401  0.024635691           18 
 3683000   0.66457823   -6.4227842     1122.415  0.025396303  0.024628538            9 
 3684000   0.66737074   -6.4250871    1123.8989  0.025422975  0.024621404           27 
 3685000   0.65239267   -6.4299075    1123.5642  0.025408507  0.024614273           19 
 3686000   0.66816377   -6.4510989    1124.8334  0.025430308  0.024607132            9 
 3687000    0.6698854   -6.4200246    1123.6708  0.025397133  0.024600004           12 
 3688000   0.65833662   -6.4287278    1123.1558   0.02537861  0.024592893           22 
 3689000    0.6667476     -6.42296    1124.9741  0.025412807   0.02458577           29 
 3690000   0.65263015   -6.3954923    1124.9341  0.025405016  0.024578641           27 
 3691000   0.66807165   -6.4203109    1124.1993  0.025381543   0.02457153           10 
 3692000   0.67317913   -6.4225778    1122.8612  0.025344465  0.024564406           13 
 3693000   0.65036892   -6.4068506    1123.9516  0.025362208  0.024557306           24 
 3694000   0.65529811   -6.4247845    1125.3787  0.025387536  0.024550208           23 
 3695000   0.66337777   -6.4251729    1126.8296  0.025413387  0.024543131           17 
 3696000   0.67878445   -6.4295048    1122.7771   0.02531514  0.024536038           23 
 3697000   0.66885253   -6.4460688     1125.858  0.025377739  0.024528966           19 
 3698000    0.6599376   -6.4274189    1124.0805  0.025330821  0.024521862           24 
 3699000   0.67572546    -6.429754    1125.0357  0.025345491   0.02451475           15 
 3700000   0.64382415   -6.4074777    1125.0011  0.025337862  0.024507646           12 
 3701000   0.64787271    -6.453031    1123.6605  0.025300831  0.024500522           15 
 3702000   0.65907596   -6.4435961    1123.9111  0.025299637  0.024493397            9 
 3703000   0.67163634    -6.445259    1125.2458  0.025322841  0.024486284           17 
 3704000   0.66044114   -6.4317426    1123.1024  0.025267783  0.024479169           40 
 3705000   0.65469688   -6.4298451    1125.6108  0.025317381  0.024472082           38 
 3706000    0.6683096   -6.4281394    1124.3376  0.025281921  0.024464962           10 
 3707000   0.65235189   -6.4237709    1124.5854  0.025280672   0.02445789           25 
 3708000   0.64803878   -6.4355931    1123.3401  0.025245867  0.024450764           20 
 3709000   0.66179755    -6.452792    1121.0826  0.025188338  0.024443633           16 
 3710000   0.65437152   -6.4434386    1122.3547  0.025210124  0.024436512           19 
 3711000   0.66007692   -6.4297083    1123.3943  0.025226675  0.024429409           20 
 3712000   0.66377677   -6.4501234    1123.8074  0.025229154  0.024422319            9 
 3713000   0.65139631   -6.4287742    1123.2631  0.025210142  0.024415247           19 
 3714000   0.66421145   -6.4566496    1122.9815  0.025197035  0.024408163           19 
 3715000    0.6607004   -6.4189981    1125.7671  0.025252738  0.024401073           16 
 3716000   0.63686085   -6.4476355    1123.0688  0.025185432  0.024394008           16 
 3717000   0.66374328   -6.4311752    1126.4103  0.025253571  0.024386935           21 
 3718000   0.65654674   -6.4586281    1124.8455  0.025211707  0.024379847           18 
 3719000   0.66492211   -6.4378092    1122.7244    0.0251574   0.02437273           16 
 3720000    0.6526898   -6.4643157    1122.0348  0.025135188  0.024365636           45 
 3721000   0.65595086   -6.4425249    1122.1009  0.025129914  0.024358548           41 
 3722000   0.66410118   -6.4473355    1124.7227  0.025181861   0.02435147           37 
 3723000   0.65469449   -6.4495187    1122.3386  0.025121735  0.024344362           57 
 3724000   0.64430656    -6.422529     1125.711  0.025190453  0.024337264           58 
 3725000   0.64506488   -6.4364085    1124.1334  0.025148397  0.024330183           26 
 3726000    0.6516416   -6.4485473    1121.0389   0.02507244  0.024323096           29 
 3727000   0.67257216   -6.4361829    1123.9278  0.025130307  0.024315994           19 
 3728000   0.64930481   -6.4512972    1123.0914  0.025104868  0.024308897           27 
 3729000   0.65319405   -6.4467978    1123.1469  0.025099376  0.024301786           15 
 3730000   0.65144317   -6.4464665    1122.3285  0.025074364  0.024294684           13 
 3731000   0.66302268   -6.4641398    1124.0315  0.025105679  0.024287596           30 
 3732000   0.64347344   -6.4296491    1123.8005  0.025093795  0.024280526           25 
 3733000   0.63981106   -6.4308784    1125.2523  0.025119482  0.024273454           13 
 3734000   0.66154082   -6.4411176      1125.19  0.025111364  0.024266333           12 
 3735000   0.64662168   -6.4500867    1121.9456  0.025032253  0.024259243           28 
 3736000   0.66252106   -6.4619201    1124.8349      0.02509  0.024252148           20 
 3737000   0.65314748    -6.453329    1124.3784  0.025073107  0.024245062           15 
 3738000   0.64695317   -6.4231361    1121.1065  0.024993456  0.024237969           11 
 3739000   0.65088354   -6.4603806    1123.8541  0.025048011  0.024230852           16 
 3740000   0.65112437   -6.4468048    1123.2747  0.025028403  0.024223733           28 
 3741000    0.6479226   -6.4628775    1122.6757   0.02500837  0.024216625           28 
 3742000   0.66206692   -6.4347279    1123.8313  0.025027422  0.024209503           36 
 3743000   0.66133503   -6.4593442    1123.6053  0.025015702  0.024202381           44 
 3744000   0.65265187    -6.443093    1121.5622  0.024963547  0.024195243           17 
 3745000   0.67105463   -6.4347146    1123.2991  0.024995529  0.024188132           21 
 3746000    0.6497664    -6.459457    1121.1851  0.024941828  0.024181025           51 
 3747000   0.65317867   -6.4342914    1125.6733   0.02503499  0.024173909           65 
 3748000   0.65198359   -6.4509557     1123.068  0.024970384  0.024166825           15 
 3749000   0.65887596   -6.4554867    1123.3447  0.024969875  0.024159741           15 
 3750000   0.64475673   -6.4671025    1121.9163  0.024931474  0.024152665           21 
 3751000   0.65200985   -6.4853981    1122.7437  0.024943208  0.024145593            9 
 3752000   0.66823035   -6.4440777    1123.3659  0.024950379  0.024138497           15 
 3753000   0.65591973   -6.4573193     1124.012  0.024958078  0.024131408           17 
 3754000   0.64921133   -6.4616208    1123.1893  0.024933166  0.024124343           21 
 3755000   0.64746359   -6.4828235    1121.5052  0.024889152  0.024117274           16 
 3756000   0.65514931   -6.4672286    1123.4006  0.024924578  0.024110194           15 
 3757000   0.65477686   -6.4355345    1126.1727  0.024979431  0.024103145           14 
 3758000   0.65466865   -6.4732592    1123.5909  0.024915532  0.024096081            9 
 3759000   0.66653688   -6.4683447    1123.5647  0.024908325  0.024089003           15 
 3760000   0.64774619   -6.4490504    1126.0367  0.024956488  0.024081945           12 
 3761000   0.63206113   -6.4620817    1123.6562  0.024897106  0.024074904           11 
 3762000   0.65683914   -6.4651227    1127.6459  0.024978864  0.024067862           13 
 3763000   0.65360072   -6.4698888    1123.8946  0.024889153  0.024060816           24 
 3764000   0.65807241   -6.4790662    1123.4192  0.024872015  0.024053734           11 
 3765000   0.64203334   -6.4776392    1121.3489  0.024819587  0.024046625           20 
 3766000   0.64410434   -6.4680083    1122.7513  0.024844027  0.024039533           18 
 3767000   0.64543353   -6.4990649    1120.0745  0.024778216  0.024032414           51 
 3768000   0.64960102   -6.4625435    1123.2461  0.024841785   0.02402535           11 
 3769000   0.63514653   -6.4513547     1123.341  0.024837292  0.024018294           17 
 3770000   0.64709394   -6.4589412    1124.6222  0.024859023  0.024011219           16 
 3771000   0.66100991   -6.4498966    1120.2855  0.024756597  0.024004159           15 
 3772000   0.64156312   -6.4405129    1123.8929   0.02482973  0.023997117           25 
 3773000   0.64498836   -6.4478456    1124.3712  0.024833714  0.023990091           25 
 3774000   0.64013994   -6.4738887    1123.7991    0.0248145  0.023983031           29 
 3775000   0.64770397   -6.4774802    1121.5628  0.024758561  0.023975972           30 
 3776000   0.65640636   -6.4580174    1125.5049  0.024839004    0.0239689           23 
 3777000   0.65160559   -6.4648791       1122.3  0.024761715  0.023961839           19 
 3778000   0.65073704   -6.4866166    1123.5979  0.024783791  0.023954792           20 
 3779000   0.64115672   -6.4666062     1124.267  0.024791986  0.023947743           20 
 3780000   0.64464932   -6.4880436     1124.229   0.02478459  0.023940696           24 
 3781000   0.64736688   -6.4405308    1125.2359  0.024800226   0.02393365           23 
 3782000   0.64491247   -6.4778788    1123.8874  0.024763957  0.023926628           12 
 3783000   0.64280251   -6.4805654    1123.3676   0.02474596  0.023919588           15 
 3784000   0.64707197    -6.469934    1123.8487  0.024750015  0.023912565           11 
 3785000   0.63871678   -6.4626353    1123.5852  0.024737674  0.023905542           17 
 3786000    0.6445374   -6.4770335    1127.8769  0.024825605  0.023898556           22 
 3787000    0.6541693   -6.4522843    1126.7303  0.024793819  0.023891552           26 
 3788000   0.64922132   -6.4513366    1126.3151   0.02477814  0.023884556           14 
 3789000   0.64468209   -6.4542474    1125.3874  0.024751195   0.02387756           19 
 3790000   0.64644253   -6.4813328    1124.9163  0.024734307  0.023870586           15 
 3791000   0.65119631   -6.4635866    1124.7882  0.024724966  0.023863589           23 
 3792000   0.64159295   -6.4957256    1126.0195  0.024745505  0.023856586           21 
 3793000   0.63752552   -6.4703907    1125.2893   0.02472294  0.023849617           14 
 3794000   0.64718654   -6.4503886    1125.8912  0.024729643  0.023842633           26 
 3795000   0.63829173    -6.454163    1125.3256  0.024710708  0.023835675           26 
 3796000   0.63835483   -6.4700041     1123.982  0.024674701  0.023828749           27 
 3797000   0.64702813   -6.4578293    1124.8673  0.024687632  0.023821797           21 
 3798000    0.6445242   -6.4717021    1125.1401  0.024687118  0.023814826           15 
 3799000   0.63704488   -6.4663223    1126.1325   0.02470239   0.02380784           14 
 3800000   0.63988343   -6.4488686    1126.4728  0.024703351  0.023800885           19 
 3801000   0.63028205   -6.4903439    1125.1358  0.024667539  0.023793942           27 
 3802000   0.64939307   -6.4595387    1123.8454  0.024632769  0.023786989            9 
 3803000   0.64331177   -6.4741593    1125.3714  0.024659729  0.023780028           23 
 3804000   0.64026146   -6.4732316    1126.0975  0.024669153  0.023773072           18 
 3805000   0.63129069   -6.4416911     1127.374  0.024690626  0.023766125           15 
 3806000    0.6443301   -6.4637668    1125.7928  0.024649518  0.023759156           17 
 3807000   0.64704719   -6.4804308    1123.3372  0.024589292  0.023752193           33 
 3808000   0.64829584   -6.4756814    1123.4622  0.024585569  0.023745217           23 
 3809000   0.64723637   -6.4790192    1127.1858  0.024660581  0.023738245           42 
 3810000   0.64056971   -6.5027811    1122.2038  0.024545139  0.023731262           25 
 3811000   0.65476418   -6.4830327     1125.577  0.024612459  0.023724272           33 
 3812000   0.63518279   -6.4751682    1125.7268  0.024609278  0.023717303           17 
 3813000   0.63788595   -6.4570658     1125.109  0.024589321  0.023710344           24 
 3814000   0.63110842     -6.47916    1124.4613  0.024568723   0.02370334           51 
 3815000   0.63330605   -6.4866476    1125.4224  0.024583277  0.023696352           70 
 3816000   0.63789462   -6.4804813    1124.2267  0.024550722   0.02368936          100 
 3817000   0.62982613   -6.4990583    1123.0015  0.024517542  0.023682386           46 
 3818000   0.62817057    -6.473559    1121.2274  0.024472397  0.023675409           53 
 3819000   0.63717641   -6.5324581    1124.2949  0.024532924  0.023668429           43 
 3820000   0.64597508   -6.5168524    1124.3334  0.024527343  0.023661438           44 
 3821000   0.62579371   -6.5128059    1124.3218   0.02452067  0.023654438           16 
 3822000   0.64979243   -6.4642447    1124.0782  0.024508944  0.023647474           35 
 3823000   0.63767664   -6.4856682    1124.8721  0.024519839    0.0236405           10 
 3824000   0.62664196   -6.4829304    1124.8342    0.0245126  0.023633531           64 
 3825000   0.64109093   -6.4775846     1126.172  0.024535339  0.023626576           63 
 3826000   0.63598701   -6.5050593     1124.411  0.024490569  0.023619611           30 
 3827000   0.64710134   -6.4946548    1124.8989  0.024494793  0.023612659           16 
 3828000   0.63873856   -6.4695196    1128.7068  0.024571291  0.023605718           17 
 3829000   0.63372886   -6.4754882    1125.2328  0.024489267  0.023598816           25 
 3830000   0.64808785   -6.4630277    1126.2053  0.024504033  0.023591887           14 
 3831000   0.64832383   -6.4894005    1124.9048  0.024469346  0.023584979           14 
 3832000   0.63551385   -6.4671412    1124.4685  0.024453472  0.023578092           28 
 3833000   0.65257514   -6.4464123    1129.1362  0.024548574  0.023571237           22 
 3834000   0.64265165    -6.469681    1126.4538  0.024483868  0.023564375           46 
 3835000   0.63020975   -6.4934445    1124.9806  0.024445472   0.02355749           25 
 3836000   0.62498402   -6.4930003    1125.6398   0.02445342  0.023550601           26 
 3837000   0.63834706   -6.4910659    1126.2359  0.024459994  0.023543709           16 
 3838000   0.63435736   -6.4957226    1124.3684  0.024413071  0.023536824           11 
 3839000   0.63721608   -6.4586009    1127.3611  0.024471675  0.023529946           10 
 3840000   0.63446004   -6.4799152    1126.9408   0.02445618  0.023523093           22 
 3841000   0.64994052   -6.4789758    1125.7694  0.024424398  0.023516257           13 
 3842000   0.63797085   -6.4708674    1124.7071  0.024395001  0.023509408           15 
 3843000   0.64125773   -6.5098427    1124.9968  0.024394933  0.023502531           20 
 3844000   0.64617244   -6.4718212    1128.7336  0.024469598  0.023495682           10 
 3845000   0.63125763   -6.4709894    1126.8969  0.024423426  0.023488854           10 
 3846000   0.63792124   -6.4950369    1127.9224  0.024439295  0.023481991           23 
 3847000   0.63731838   -6.4862245    1125.8637  0.024388348  0.023475108           18 
 3848000   0.62914866   -6.5108007    1124.2463  0.024346984  0.023468211           11 
 3849000    0.6333545   -6.4886568    1124.8022  0.024352694  0.023461353           17 
 3850000   0.63736896   -6.4906879    1127.6351  0.024407687  0.023454486           37 
 3851000   0.62801158   -6.5013617    1123.6401  0.024314898  0.023447597           26 
 3852000   0.64185527   -6.5134465    1123.6938  0.024309748  0.023440696           23 
 3853000   0.64106343   -6.4966946    1124.2005  0.024314397  0.023433794           75 
 3854000   0.63797848    -6.499392    1125.6994  0.024340499  0.023426906           26 
 3855000   0.63065774    -6.492533    1126.0622  0.024342027  0.023420022           26 
 3856000   0.64033236   -6.5062112     1124.065  0.024292553  0.023413133           18 
 3857000   0.62518043   -6.5178307    1124.8185  0.024302535  0.023406243           19 
 3858000   0.63709856   -6.5079004    1127.1866  0.024347387  0.023399354           13 
 3859000   0.64070424   -6.5000261    1124.5621  0.024284402  0.023392465           18 
 3860000   0.62915113   -6.4950984    1129.0388  0.024374758  0.023385592           28 
 3861000   0.62513857   -6.5014671     1125.812    0.0242988  0.023378704           30 
 3862000   0.64615786   -6.5102351    1124.7693  0.024270009   0.02337182           41 
 3863000   0.63276391   -6.5304726    1121.9277  0.024202426  0.023364915           19 
 3864000   0.62375255   -6.4935603    1123.5204  0.024230513  0.023358013           11 
 3865000   0.63676073   -6.5308958    1123.7619   0.02422945  0.023351113           34 
 3866000   0.63293565   -6.5216344    1124.5488  0.024240145  0.023344204           56 
 3867000   0.62861692   -6.5001395    1124.3422  0.024229423  0.023337317           43 
 3868000   0.61750191   -6.5045777    1124.4589  0.024225674  0.023330396           29 
 3869000   0.61963416    -6.513126    1124.6606  0.024223758  0.023323505           28 
 3870000   0.63487624    -6.524606    1125.1545  0.024228133  0.023316606           24 
 3871000   0.62635587   -6.5062221    1124.3678  0.024204938   0.02330969           24 
 3872000   0.63717252   -6.5211608    1124.0513  0.024191875  0.023302791           49 
 3873000   0.64158991   -6.5158087    1124.7181  0.024199976  0.023295893           34 
 3874000   0.63265144   -6.5096958    1126.1375  0.024224263   0.02328898           28 
 3875000   0.62609926   -6.5030188    1125.9482   0.02421394  0.023282066           27 
 3876000   0.61561474   -6.4918138    1128.1738  0.024255542  0.023275169           22 
 3877000   0.61660951    -6.514976    1124.8497  0.024177836  0.023268287           37 
 3878000    0.6255358   -6.5025196    1124.5096  0.024164293  0.023261401           33 
 3879000   0.63637168   -6.5276083    1124.8314  0.024164977  0.023254497           23 
 3880000   0.64873116   -6.5273803    1122.7471  0.024113983  0.023247611           25 
 3881000   0.64354894   -6.5246843    1124.8325   0.02415255  0.023240713           18 
 3882000   0.61235122   -6.5146188    1125.4688  0.024159986  0.023233811           27 
 3883000   0.61755802   -6.5165435    1125.0972   0.02414579   0.02322693           24 
 3884000   0.63583639   -6.5077644    1125.4578  0.024147309  0.023220042           17 
 3885000   0.62026965   -6.5390814    1124.6506  0.024123778  0.023213138           49 
 3886000    0.6272729   -6.5172227    1123.9468   0.02410248  0.023206237           64 
 3887000   0.62166067   -6.5227809    1125.7185  0.024134262  0.023199335           53 
 3888000     0.629313   -6.5176027    1124.1113  0.024093607  0.023192463           27 
 3889000   0.63100643   -6.5242929    1124.9906  0.024106254  0.023185597           36 
 3890000   0.63725671   -6.5190141    1125.1944  0.024104421  0.023178719           31 
 3891000   0.62586823   -6.4988957    1125.4498  0.024103697  0.023171869           27 
 3892000   0.61779173   -6.5142542    1125.6698  0.024102213  0.023165017           20 
 3893000   0.62538804    -6.507585    1121.9581  0.024016571   0.02315815           26 
 3894000   0.62573831   -6.5336926    1121.2936  0.023996182  0.023151262           33 
 3895000   0.60620167   -6.5301293    1124.3827  0.024056113  0.023144359           39 
 3896000    0.6318813   -6.4967197    1122.9815  0.024019966  0.023137478           78 
 3897000   0.62387801   -6.5240277     1125.235  0.024061992  0.023130603           55 
 3898000   0.64306878   -6.4945998    1127.7992  0.024110639  0.023123753           62 
 3899000   0.64000138   -6.5191481    1124.6262  0.024036637  0.023116905           53 
 3900000   0.62863859   -6.4991469    1124.2414  0.024022251  0.023110051           75 
 3901000   0.62582338   -6.5177622    1125.9912  0.024053474  0.023103209           77 
 3902000   0.63023857   -6.5080858    1126.4403    0.0240569  0.023096364           54 
 3903000   0.60884531   -6.5162836    1124.0768  0.024000273  0.023089552           61 
 3904000   0.61976086   -6.5108062    1124.5382  0.024003975  0.023082708           42 
 3905000   0.62445794   -6.4997751    1126.5675  0.024041133  0.023075855           68 
 3906000   0.62551021   -6.5165729    1125.3751  0.024009539  0.023069021           80 
 3907000   0.63008586   -6.5021046    1126.0592  0.024017986   0.02306216           33 
 3908000   0.62835625   -6.5262743    1125.7275  0.024004765  0.023055292           18 
 3909000   0.62641226   -6.5097446    1124.7993  0.023978837  0.023048454           64 
 3910000   0.62563353   -6.4989849     1126.306  0.024004817  0.023041621           25 
 3911000   0.62668231   -6.4928422    1125.4021  0.023979419  0.023034802           19 
 3912000   0.63356296   -6.5064187    1124.8419  0.023961355  0.023027993           31 
 3913000   0.63238663   -6.5117151    1125.8681  0.023977088  0.023021151           39 
 3914000   0.63111581   -6.5064548    1124.2721  0.023936981  0.023014293           44 
 3915000   0.61324468   -6.4874897    1125.2221  0.023951088  0.023007469           47 
 3916000    0.6296734   -6.5112946    1125.9179  0.023959777  0.023000626           46 
 3917000   0.63418086   -6.5284749    1125.0601  0.023935412  0.022993767           19 
 3918000   0.62119619   -6.5295927    1119.5232  0.023811537  0.022986888           22 
 3919000   0.63530921   -6.5104305    1122.2419  0.023863271  0.022980003           21 
 3920000   0.61970414   -6.5376086    1121.8193    0.0238482  0.022973121           24 
 3921000   0.64447951    -6.527822    1123.9181  0.023886724  0.022966246           21 
 3922000   0.63078056   -6.5525333    1122.7539  0.023855895  0.022959348           25 
 3923000   0.61644452   -6.5475159    1123.4965   0.02386559  0.022952436           17 
 3924000   0.63424436   -6.5179823     1123.536  0.023860346  0.022945559           19 
 3925000    0.6346596    -6.531782    1121.6791  0.023814842  0.022938676            8 
 3926000   0.61989334   -6.5360203    1124.6351  0.023871521  0.022931803           13 
 3927000   0.62739822   -6.5168683    1124.6607  0.023865985  0.022924917           12 
 3928000   0.60742003   -6.5188758    1122.7614  0.023819616  0.022918045           24 
 3929000   0.63584771   -6.5339561    1124.8852  0.023858598  0.022911162           17 
 3930000   0.60947037   -6.5471047    1122.6394  0.023804907  0.022904306           16 
 3931000   0.60701102     -6.50763    1121.6672  0.023778241  0.022897455           23 
 3932000   0.62289128   -6.5338242     1122.716  0.023794421  0.022890591           27 
 3933000   0.62271633    -6.538694    1126.7408   0.02387365  0.022883701           18 
 3934000   0.62020203   -6.5289204    1122.8497  0.023785157  0.022876842           14 
 3935000   0.62835598   -6.5639829    1120.3406  0.023725976  0.022869983           17 
 3936000    0.6103446   -6.5492512    1121.8044  0.023750939  0.022863103           16 
 3937000   0.62409547   -6.5479996    1121.8952  0.023746829  0.022856209           19 
 3938000   0.61748809    -6.530106    1127.0613  0.023850121  0.022849338           17 
 3939000   0.60787443   -6.5230782    1123.5831  0.023770481  0.022842481           40 
 3940000   0.62026032   -6.5541277    1122.4946  0.023741425  0.022835609           44 
 3941000   0.61852782   -6.5573289     1125.952  0.023808509  0.022828743           35 
 3942000   0.62977928    -6.532124    1124.1398  0.023764158  0.022821883           17 
 3943000   0.62124464   -6.5334942    1121.9931  0.023712763  0.022815035           27 
 3944000   0.62182741   -6.5369118    1122.7665  0.023723092  0.022808173           15 
 3945000   0.61503837   -6.5383701    1124.9773  0.023763779  0.022801352           71 
 3946000   0.62777363   -6.5437087    1125.4722  0.023768208   0.02279453           39 
 3947000   0.61991147   -6.5494913    1124.1019  0.023733255  0.022787728           72 
 3948000   0.61422828   -6.5281271    1124.8988  0.023744065  0.022780924           23 
 3949000   0.61351146   -6.5379976    1125.1473  0.023743296  0.022774102           51 
 3950000   0.62243606   -6.5438578    1125.0688  0.023735629  0.022767273           55 
 3951000   0.63376068   -6.5572238    1121.9111  0.023663019  0.022760445          103 
 3952000   0.62021917   -6.5637342     1122.032  0.023659582  0.022753612           90 
 3953000   0.61893958   -6.5596865    1124.5924  0.023707573  0.022746759           60 
 3954000   0.61157116   -6.5427679    1123.9441  0.023687913  0.022739924           27 
 3955000   0.61967871   -6.5503495     1121.294  0.023626085  0.022733088           25 
 3956000   0.62985377   -6.5519266    1121.3667  0.023621645  0.022726256           43 
 3957000   0.61997485   -6.5556332    1123.9275  0.023669604  0.022719426           41 
 3958000   0.61464713   -6.5601178    1123.3849    0.0236522  0.022712588           60 
 3959000   0.60675424   -6.5414957    1123.1208  0.023640666  0.022705765           55 
 3960000    0.6130567   -6.5401695    1121.8169  0.023607259  0.022698921           54 
 3961000   0.60149313   -6.5425689    1123.2117  0.023630642  0.022692076           48 
 3962000   0.62133158   -6.5654281    1122.1417  0.023602172  0.022685237           80 
 3963000     0.629605   -6.5463208    1123.9685  0.023634631  0.022678395           88 
 3964000   0.62044744   -6.5483044    1122.4728  0.023597225  0.022671572           46 
 3965000   0.59844801   -6.5571553    1125.6679  0.023658426  0.022664751          104 
 3966000   0.61637733   -6.5459122    1122.5868   0.02358772  0.022657924           32 
 3967000   0.62339393   -6.5444104    1125.1179  0.023634944   0.02265112          116 
 3968000   0.62005406   -6.5679348    1122.0651  0.023564874  0.022644324           75 
 3969000   0.62246135   -6.5546968    1123.6273  0.023591738  0.022637547           52 
 3970000   0.62647048   -6.5499401    1123.4671  0.023582432  0.022630777           51 
 3971000   0.61476566    -6.533066    1123.2399  0.023571726  0.022623984           98 
 3972000   0.60953194   -6.5589305    1123.6061  0.023573474  0.022617197           57 
 3973000   0.62405085   -6.5430857    1122.8668  0.023552035  0.022610407           55 
 3974000   0.61784438   -6.5558308    1123.0808  0.023550596  0.022603607           70 
 3975000   0.61534292   -6.5701824    1123.4095  0.023551562  0.022596812          101 
 3976000   0.61416189   -6.5351268    1124.4741  0.023567951  0.022590016          128 
 3977000   0.61002739   -6.5388084    1123.1087  0.023533414   0.02258323           74 
 3978000   0.61987466   -6.5454998    1125.4959  0.023577507  0.022576451           61 
 3979000   0.61168947   -6.5289713    1127.7609   0.02361902  0.022569703           56 
 3980000   0.62530042   -6.5382977    1124.8871  0.023552912  0.022562962           91 
 3981000   0.59245628   -6.5541264    1125.0572  0.023550556  0.022556217          104 
 3982000   0.61648157   -6.5497327    1125.2007  0.023547647  0.022549478          125 
 3983000     0.619757   -6.5476622     1124.988  0.023537283  0.022542741           76 
 3984000   0.63070897   -6.5428237    1123.8745  0.023508085  0.022536023           68 
 3985000   0.62852167   -6.5720868    1123.7031    0.0234986  0.022529286           75 
 3986000   0.61825074    -6.550539    1124.0295  0.023499529  0.022522535           73 
 3987000   0.61931499   -6.5549501    1125.7153  0.023528871  0.022515771           95 
 3988000   0.62936205   -6.5721383    1124.4353  0.023496224  0.022509005          101 
 3989000   0.61089122   -6.5896605     1121.797  0.023435219  0.022502236           79 
 3990000    0.6259697   -6.5717442     1124.664  0.023489223  0.022495501           73 
 3991000   0.61836666   -6.5420515     1123.596  0.023461037  0.022488756          140 
 3992000   0.61180272   -6.5731243    1123.4729  0.023452591  0.022482007          163 
 3993000   0.60592007   -6.5932766    1121.0985  0.023397164  0.022475237          101 
 3994000   0.61347606   -6.5819424    1123.9776  0.023451377  0.022468462           29 
 3995000   0.62117937   -6.5625447    1124.3929   0.02345417  0.022461701           75 
 3996000   0.60663522   -6.5629077     1124.729  0.023455309  0.022454935           95 
 3997000   0.62217664   -6.5459053    1124.5046  0.023444762  0.022448167           57 
 3998000   0.63070842   -6.6001777    1124.2458  0.023433504   0.02244142          101 
 3999000   0.61204496   -6.5668366    1124.2673  0.023428092   0.02243467          104 
 4000000   0.60707997   -6.5774509    1122.1143   0.02337738  0.022427928           92 
 4001000   0.60668185   -6.5706475    1124.2054  0.023415093   0.02242118          148 
 4002000   0.61631366     -6.56846    1122.1483  0.023366406  0.022414436           78 
 4003000   0.63006578   -6.5587981    1123.5964  0.023390716  0.022407681           96 
 4004000   0.62644912   -6.5672009     1121.837  0.023348256  0.022400929          131 
 4005000   0.59642353   -6.5842105    1118.3773  0.023270439  0.022394171          104 
 4006000   0.61029874   -6.5610026    1123.4703  0.023370575  0.022387412          137 
 4007000   0.61573944   -6.5765754    1122.8754   0.02335237  0.022380666          102 
 4008000   0.60849671   -6.5674695    1122.7747   0.02334445  0.022373928           64 
 4009000   0.62636445   -6.5737153    1122.3838  0.023330502  0.022367191           62 
 4010000   0.59878964   -6.5650777    1122.4482  0.023326023  0.022360463           52 
 4011000    0.6019626   -6.5622906    1123.9907  0.023352254  0.022353742          146 
 4012000   0.60607127   -6.5724809    1125.9808  0.023387771  0.022347019           90 
 4013000    0.6226667    -6.573794    1125.2442  0.023366646  0.022340298           66 
 4014000   0.60295723   -6.5933871    1123.5459  0.023325567  0.022333564          162 
 4015000    0.6110727   -6.5620861    1123.7754   0.02332452  0.022326828          120 
 4016000   0.61493969   -6.5875844    1123.2017  0.023306807  0.022320089          198 
 4017000   0.60832193   -6.5901113    1123.4649  0.023306467   0.02231337          144 
 4018000   0.61306214   -6.5772962    1123.4577  0.023300516  0.022306633           89 
 4019000   0.61544952   -6.5765506    1122.5505  0.023275907  0.022299919           76 
 4020000   0.61222188   -6.5719696    1124.3126  0.023306646  0.022293172          199 
 4021000   0.59561488    -6.591857    1123.8766  0.023291813  0.022286432           95 
 4022000    0.6137867   -6.5748618    1123.1641  0.023271259  0.022279707           95 
 4023000   0.60780084   -6.5526284    1122.8084  0.023258107  0.022272981          121 
 4024000   0.61621866   -6.5753705    1122.8304  0.023252784  0.022266249          122 
 4025000    0.6084448   -6.5862637     1120.231  0.023193188  0.022259513           84 
 4026000   0.60302898   -6.5647261    1124.5378  0.023276574  0.022252772          186 
 4027000   0.60316903   -6.5950152    1121.9298  0.023216823  0.022246026          118 
 4028000   0.60562919   -6.5670371    1124.1313  0.023256606  0.022239298           68 
 4029000   0.60700339   -6.5869765    1124.0544  0.023249244  0.022232564           81 
 4030000   0.61167156   -6.5835672    1120.6595  0.023173273  0.022225821           56 
 4031000   0.61309003   -6.5992772    1121.4744  0.023184371  0.022219074           44 
 4032000   0.60319472   -6.5814634    1121.4684  0.023178496  0.022212334           17 
 4033000   0.61126756   -6.5788249    1120.8822  0.023160637  0.022205604           74 
 4034000   0.61533132   -6.5628639     1123.318  0.023205215  0.022198871           68 
 4035000   0.60387774   -6.5937935    1122.1354   0.02317504  0.022192146           95 
 4036000   0.59803708   -6.5719033    1121.6545  0.023159368  0.022185427           30 
 4037000   0.60631315   -6.5699014    1121.0502  0.023141157  0.022178714           93 
 4038000   0.59887676   -6.6073839     1121.296    0.0231405  0.022171985           57 
 4039000   0.59995036   -6.5907338    1120.3091  0.023114408  0.022165261          125 
 4040000   0.60439481   -6.5770165    1124.0179  0.023185187  0.022158525           78 
 4041000   0.60088099   -6.5830278    1123.4025   0.02316676  0.022151817           81 
 4042000   0.60836229   -6.5656115    1123.0902  0.023154589  0.022145093          106 
 4043000   0.61091608   -6.5933838    1122.7026  0.023140872  0.022138384          102 
 4044000   0.59671437   -6.5898495    1120.3383  0.023086431  0.022131664           75 
 4045000   0.59806103   -6.5938669    1123.2714  0.023141149  0.022124978          109 
 4046000   0.59603547   -6.5835635    1125.1713  0.023174561  0.022118296           97 
 4047000    0.5981389   -6.5618092    1123.5769  0.023136004  0.022111612           27 
 4048000   0.60061141    -6.584955    1124.0301  0.023139619  0.022104937           86 
 4049000   0.60052273   -6.5798821    1120.8149   0.02306773  0.022098247           42 
 4050000   0.61445703   -6.5778775    1120.5329  0.023056233  0.022091554           43 
 4051000   0.60996907   -6.5712716    1122.5144  0.023091303  0.022084865          148 
 4052000   0.59337479    -6.571472    1125.5558  0.023148153  0.022078172           52 
 4053000   0.59750688   -6.5806314    1122.8451  0.023086707  0.022071478           93 
 4054000   0.59981061   -6.5869269    1119.5207  0.023012677  0.022064743          150 
 4055000    0.6067345   -6.5953077    1121.3641  0.023044885  0.022058012          185 
 4056000   0.59815022   -6.5886978     1122.164  0.023055638    0.0220513           62 
 4057000   0.59546018   -6.5795434    1122.0778  0.023048184  0.022044594           41 
 4058000   0.59271236    -6.586691    1122.3409  0.023047908  0.022037901          106 
 4059000   0.60171205   -6.6054662    1122.1333  0.023037966  0.022031198          118 
 4060000   0.59101187   -6.5827245    1121.2092  0.023013325  0.022024499          131 
 4061000   0.61858869   -6.5948691     1121.221  0.023007901   0.02201781           55 
 4062000   0.60350329   -6.5837082    1121.0862   0.02299947  0.022011137           81 
 4063000   0.61102488   -6.5781843    1123.2586  0.023038367  0.022004461           57 
 4064000   0.59722838   -6.5746324    1124.2103  0.023052212  0.021997802           78 
 4065000   0.61210379   -6.5693323    1123.1206  0.023024202  0.021991157           89 
 4066000   0.59787592   -6.5804197    1123.4963   0.02302624  0.021984513           32 
 4067000   0.59511736   -6.6051886    1120.5486  0.022960179  0.021977879           41 
 4068000   0.60061247   -6.5810366    1121.8653  0.022981507  0.021971239           47 
 4069000    0.6059485   -6.5650435     1122.792  0.022994839  0.021964587           41 
 4070000   0.61541571   -6.5940179    1120.7012  0.022946379  0.021957926           83 
 4071000   0.60325267   -6.5991811    1118.6864    0.0228995  0.021951252           41 
 4072000   0.59398423   -6.5675837    1124.0836   0.02300433  0.021944586           96 
 4073000   0.59350696   -6.5948833    1123.4853   0.02298644  0.021937936           50 
 4074000   0.60607906   -6.5868117    1119.6968  0.022903306  0.021931275           97 
 4075000   0.59714008   -6.6002023    1120.8543  0.022921357  0.021924616           88 
 4076000   0.58254251   -6.6243688    1120.8665  0.022915982  0.021917939           68 
 4077000   0.59995958   -6.6081629    1121.3428  0.022920096  0.021911278          163 
 4078000   0.60806795   -6.6179993    1120.5101  0.022897459  0.021904608          186 
 4079000   0.61281542    -6.610574     1123.401  0.022950908  0.021897947          159 
 4080000   0.60583766   -6.5842759    1123.9222  0.022955926  0.021891291           64 
 4081000   0.60459791   -6.5897239    1122.7896  0.022927174  0.021884651           90 
 4082000   0.61038432   -6.5847024    1122.8196   0.02292217  0.021878009           83 
 4083000   0.59921427   -6.6136005    1122.0451  0.022900749  0.021871347           65 
 4084000    0.5994727   -6.5969263    1123.9512  0.022934034  0.021864685          108 
 4085000   0.59679824   -6.6396484    1119.2322  0.022832154  0.021858014          203 
 4086000   0.59886886   -6.6101216    1120.1277   0.02284483   0.02185131          140 
 4087000   0.59202791    -6.620437    1121.1789  0.022860675  0.021844624          312 
 4088000   0.60230247   -6.6212121    1122.9328  0.022890835  0.021837949           70 
 4089000   0.59994082   -6.6064369    1121.6528  0.022859151  0.021831262           79 
 4090000    0.5909297   -6.6175836    1121.0073   0.02284041  0.021824589           95 
 4091000   0.59400545     -6.62189    1120.8606  0.022831838  0.021817908          139 
 4092000   0.59693893   -6.5987796    1122.7122  0.022863966  0.021811241          112 
 4093000   0.59352163   -6.6199001    1120.0925  0.022805043  0.021804572          216 
 4094000   0.59635999   -6.6033703    1121.0853  0.022819681  0.021797927           73 
 4095000   0.60209508    -6.622465    1120.5855  0.022803938   0.02179127          133 
 4096000   0.61007222   -6.6232685    1119.3657  0.022773554  0.021784608          213 
 4097000   0.58573038    -6.610668    1121.1535  0.022804359  0.021777964          130 
 4098000   0.57879538   -6.5936718    1121.7654  0.022811237  0.021771331          184 
 4099000   0.58567597   -6.6334912    1120.9076  0.022788232  0.021764683          317 
 4100000   0.58635716   -6.6174458    1121.7307  0.022799404  0.021758042           57 
 4101000   0.59912496   -6.6026317    1122.4682  0.022808831  0.021751419          246 
 4102000   0.58742052   -6.6141671    1119.0334  0.022733492  0.021744789          104 
 4103000   0.60053044   -6.5964616    1118.4217  0.022715526  0.021738168           63 
 4104000   0.60391292   -6.6039445    1120.7701  0.022757678  0.021731555           84 
 4105000   0.60313349   -6.6181193    1119.9854  0.022736203  0.021724938          108 
 4106000   0.58199656    -6.612398    1122.3779  0.022779223  0.021718304           79 
 4107000   0.58819507   -6.6269882    1119.9297  0.022724003  0.021711672           84 
 4108000   0.59970728   -6.6182323    1120.8926  0.022738004  0.021705042          181 
 4109000   0.58401999   -6.6268597     1120.588  0.022726293  0.021698406          128 
 4110000   0.60097699   -6.6123002     1119.868  0.022706164  0.021691755           53 
 4111000   0.60455565   -6.6344714    1121.4837  0.022733393   0.02168511          192 
 4112000   0.60942306   -6.6412022    1118.8151  0.022673782  0.021678449          196 
 4113000   0.59220905   -6.6225507    1121.2773  0.022718156  0.021671802          195 
 4114000   0.58860884   -6.6264072    1119.3411  0.022673414  0.021665176           98 
 4115000   0.58206531   -6.6338918    1121.6044  0.022713738   0.02165855          156 
 4116000   0.60692222   -6.6190838    1122.8463  0.022733364   0.02165194          152 
 4117000   0.59702356   -6.6287311    1121.2972  0.022696485  0.021645315           78 
 4118000   0.58813893   -6.6253558    1119.7874  0.022660422  0.021638665          150 
 4119000   0.58797094   -6.6056123    1120.0502  0.022660237  0.021632046           92 
 4120000   0.59870045   -6.6398517    1121.1461  0.022676903  0.021625439          127 
 4121000   0.59551464   -6.6285523    1119.6445  0.022641036  0.021618839           81 
 4122000   0.59335338   -6.6382827    1116.5555  0.022573094  0.021612231           79 
 4123000   0.59079056   -6.6384553    1121.3491  0.022664507  0.021605611           60 
 4124000   0.59146584   -6.6175646    1121.5355  0.022662776     0.021599          175 
 4125000   0.59142756   -6.6166869    1122.1227  0.022669145  0.021592398           71 
 4126000   0.59061298    -6.613548    1122.1213  0.022663623  0.021585801           48 
 4127000   0.59956663   -6.6333924    1120.6646  0.022628717  0.021579184          135 
 4128000   0.59187977   -6.6204775    1119.4162  0.022598034  0.021572568          101 
 4129000   0.59274179   -6.6409224    1120.9705   0.02262393  0.021565958          203 
 4130000   0.59189004   -6.6481273    1122.2307  0.022643881  0.021559338          187 
 4131000   0.58327662   -6.6504956    1119.2624  0.022578521  0.021552707          132 
 4132000   0.59936455   -6.6418722    1119.2056  0.022571911  0.021546108           95 
 4133000   0.58201345   -6.6499587    1120.7818   0.02259823  0.021539501          231 
 4134000   0.59325145   -6.6563189    1119.6959  0.022570873  0.021532899          139 
 4135000   0.59783215   -6.6343333    1120.2614  0.022576813  0.021526288           91 
 4136000   0.57928739   -6.6511148    1117.1267  0.022508193   0.02151968           96 
 4137000   0.58684602   -6.6363168    1118.8761  0.022537992  0.021513071           88 
 4138000   0.59298274   -6.6429653     1118.664  0.022528274  0.021506473           84 
 4139000    0.5980251     -6.63206    1120.5857  0.022561523   0.02149986          111 
 4140000   0.58219491   -6.6525384    1118.1141  0.022506322  0.021493265          159 
 4141000    0.5900457   -6.6258941    1117.9674  0.022497936   0.02148666          148 
 4142000   0.58154003   -6.6169581    1120.3792  0.022541026  0.021480058           87 
 4143000   0.59295981   -6.6345373    1118.6116  0.022500033  0.021473458          177 
 4144000   0.59716634   -6.6204159    1122.2856  0.022568485  0.021466857          197 
 4145000   0.60759731   -6.6484611    1120.0003  0.022517095  0.021460263          211 
 4146000   0.58730217    -6.615113    1121.2067  0.022535912  0.021453677          229 
 4147000   0.58919621   -6.6294201    1119.8315  0.022502844  0.021447115          114 
 4148000   0.58690677   -6.6535463     1120.321  0.022507253  0.021440513          215 
 4149000   0.59572149   -6.6446548    1117.7405  0.022449999  0.021433924          221 
 4150000   0.59227387   -6.6525456    1118.7303  0.022464464  0.021427335          242 
 4151000   0.59522342   -6.6384954     1118.767  0.022459789  0.021420742          180 
 4152000   0.58368781   -6.6448917    1118.3681  0.022446374  0.021414158          147 
 4153000   0.58361477   -6.6378214    1120.2172  0.022478072   0.02140758          213 
 4154000   0.60203673   -6.6209127    1121.1541  0.022491455  0.021401003          158 
 4155000   0.59281778   -6.6257557     1121.743  0.022497853  0.021394458          201 
 4156000   0.58757279   -6.6420083    1119.8443  0.022454369  0.021387885          189 
 4157000    0.5877194   -6.6528841     1119.671  0.022445493  0.021381325          164 
 4158000   0.58554351   -6.6487281    1117.3235  0.022393047  0.021374745          230 
 4159000   0.58524387   -6.6498399     1121.435  0.022470044  0.021368179          163 
 4160000   0.60198962   -6.6496516    1118.8696  0.022413253   0.02136162          173 
 4161000   0.59757078   -6.6669668    1121.3761  0.022458064  0.021355057           88 
 4162000   0.59081891   -6.6443296    1121.5037  0.022455224   0.02134851          173 
 4163000   0.58436123   -6.6251818     1120.602  0.022431781  0.021341949          252 
 4164000   0.59154043   -6.6232927    1122.1024   0.02245642  0.021335398          113 
 4165000    0.5793367   -6.6342623    1120.4614  0.022418195  0.021328855          303 
 4166000   0.58729713   -6.6314274    1118.3587  0.022370752  0.021322304          160 
 4167000   0.57095267   -6.6387574    1121.6742  0.022431689  0.021315747          167 
 4168000   0.59347493   -6.6507953    1121.8659  0.022430141  0.021309193          106 
 4169000   0.59036023   -6.6292335    1118.4823  0.022357126  0.021302641          137 
 4170000   0.58508949   -6.6189519    1117.9638  0.022341403  0.021296091          221 
 4171000   0.57694824   -6.6361436    1121.4008  0.022404715  0.021289544           99 
 4172000   0.57983448   -6.6532566    1118.5157  0.022341717  0.021283006          136 
 4173000   0.58934091   -6.6524244    1117.7804  0.022321679  0.021276461          118 
 4174000   0.57957582   -6.6349493    1118.9363  0.022339408  0.021269919          165 
 4175000   0.57819617   -6.6461195    1119.6552  0.022348406  0.021263382          132 
 4176000   0.59265506   -6.6438315    1120.3748  0.022357416  0.021256859          249 
 4177000   0.58014995   -6.6348955    1118.8729  0.022322099  0.021250346          239 
 4178000   0.58731556   -6.6561461    1117.6393   0.02229215  0.021243829          171 
 4179000   0.58322056   -6.6685247    1117.6543  0.022287116  0.021237288          274 
 4180000   0.57908126   -6.6552163    1117.7512  0.022283716  0.021230732          325 
 4181000   0.58244045   -6.6437029    1118.6617  0.022296533   0.02122419          179 
 4182000   0.59387984   -6.6625107    1119.8814  0.022315507  0.021217639          286 
 4183000   0.57571058   -6.6733964    1115.8089   0.02222904  0.021211095          185 
 4184000   0.58528783   -6.6705862    1117.9728  0.022266826  0.021204543          156 
 4185000   0.57969163   -6.6700373    1117.1117  0.022244358  0.021198008          164 
 4186000   0.57792181   -6.6712983    1117.2816  0.022242428  0.021191463           98 
 4187000   0.58461954   -6.6616582    1120.4907  0.022300986  0.021184907          112 
 4188000   0.57491793   -6.6505002    1120.3798  0.022293453  0.021178358          114 
 4189000   0.58326905   -6.6601095    1120.0609  0.022281788  0.021171817           95 
 4190000   0.57139131   -6.6529851     1116.996  0.022215514  0.021165283          101 
 4191000   0.57902721   -6.6601902    1119.0605  0.022251262  0.021158774          139 
 4192000   0.58513588   -6.6621865    1120.1614  0.022267839  0.021152252          168 
 4193000   0.59069617   -6.6635082    1118.9766  0.022238982  0.021145725          127 
 4194000   0.57530974   -6.6639103     1117.841  0.022211115  0.021139208          110 
 4195000   0.57617922   -6.6721381    1118.0496  0.022209965  0.021132681          167 
 4196000   0.57304806   -6.6703468    1120.5637  0.022254601  0.021126172          213 
 4197000   0.56849531   -6.6569555     1118.049  0.022199368  0.021119672          229 
 4198000    0.5785232   -6.6550188    1118.1014  0.022195121  0.021113161          120 
 4199000   0.57911552   -6.6536913    1118.5134  0.022198012  0.021106668           81 
 4200000   0.58636908   -6.6860863    1116.8943  0.022160602  0.021100167          201 
 4201000   0.56903105   -6.6510827    1119.9911  0.022216757  0.021093676          109 
 4202000   0.57538019   -6.6680543    1121.6313  0.022243997  0.021087202          168 
 4203000    0.5793942   -6.6521392    1119.0263  0.022187054  0.021080717          238 
 4204000   0.58691107   -6.6489488     1118.595  0.022173227  0.021074228          132 
 4205000   0.58966992   -6.6543092    1119.2947  0.022181821  0.021067737          127 
 4206000      0.58836   -6.6621223    1120.0735  0.022191979  0.021061253          114 
 4207000    0.5794213     -6.64658    1119.5772  0.022176873  0.021054771           81 
 4208000   0.57419111   -6.6784893    1117.9883  0.022140137  0.021048307          120 
 4209000   0.57245134   -6.6606998     1119.794  0.022170626  0.021041842          150 
 4210000   0.56237184   -6.6564648    1118.5805  0.022141339  0.021035365          213 
 4211000   0.58196691   -6.6726293    1120.5536  0.022175129  0.021028896          150 
 4212000   0.57796457   -6.6675407    1119.3728  0.022146502  0.021022422          181 
 4213000   0.57317628   -6.6561798    1121.7111  0.022187497  0.021015967          105 
 4214000   0.57229018   -6.6539078    1120.0048  0.022148489   0.02100952          133 
 4215000   0.57658679    -6.668992    1116.8962  0.022081776  0.021003047          262 
 4216000   0.58696308   -6.6739127    1117.3928  0.022086353  0.020996565          272 
 4217000   0.57701908   -6.6902856      1116.72   0.02206782  0.020990086          230 
 4218000   0.57807281    -6.691859    1117.4504   0.02207702  0.020983611          187 
 4219000   0.56285703   -6.6625164    1117.6104  0.022074948  0.020977137          245 
 4220000    0.5838284    -6.686565    1116.4001  0.022045816  0.020970676          355 
 4221000   0.56473646   -6.6693689    1122.0113  0.022151372   0.02096421          397 
 4222000   0.58198401   -6.6810509    1117.6155  0.022059362  0.020957749          145 
 4223000   0.56975872   -6.6727644    1119.0123  0.022081701  0.020951311          159 
 4224000   0.57280416   -6.6686895    1119.6755  0.022089558  0.020944861          362 
 4225000   0.57423944   -6.6642562    1118.1439   0.02205412  0.020938404          191 
 4226000   0.57414951   -6.6701623    1119.8814  0.022083164  0.020931952          158 
 4227000   0.56859783   -6.6692054    1119.8004  0.022076343  0.020925498          164 
 4228000   0.56341981   -6.6809353     1117.674  0.022029209   0.02091906          282 
 4229000   0.57147571   -6.6727726    1118.2658  0.022035663  0.020912621          350 
 4230000   0.57241023   -6.6655191    1121.3733  0.022091672   0.02090617          327 
 4231000   0.56591989   -6.6866122    1118.6409  0.022032633  0.020899714          267 
 4232000   0.57878249   -6.6873842     1120.963  0.022073153  0.020893264          365 
 4233000   0.57957526   -6.6909216    1118.1882  0.022013311  0.020886805          133 
 4234000   0.56381804   -6.6989782    1117.2042  0.021988747   0.02088035          158 
 4235000   0.57550347   -6.6995042    1116.7508  0.021974632  0.020873902          199 
 4236000   0.57533983   -6.6870231    1117.4207  0.021982622  0.020867451          166 
 4237000   0.57542668   -6.6794691    1116.4036   0.02195743  0.020861004          169 
 4238000   0.58189609   -6.7029132    1116.0984  0.021946249  0.020854547          421 
 4239000   0.57084716   -6.6713383    1117.3024   0.02196474  0.020848103          303 
 4240000   0.57385439   -6.6789366    1116.9713  0.021953052   0.02084167          181 
 4241000   0.57774364    -6.676909    1116.7348  0.021943229  0.020835226          231 
 4242000   0.58230141   -6.7036561    1118.2698   0.02196821  0.020828786          281 
 4243000   0.57752147   -6.6870371    1115.2558  0.021903839   0.02082234          386 
 4244000    0.5647022   -6.7036164    1119.0631  0.021973435  0.020815906          387 
 4245000   0.57842281   -6.6792557    1118.7847  0.021962793  0.020809491          394 
 4246000   0.58252096   -6.6839388    1117.3913  0.021930273  0.020803059          403 
 4247000   0.57156378   -6.6799349    1118.9576  0.021955844  0.020796625          348 
 4248000   0.56729679   -6.7007223    1118.4232  0.021940191  0.020790188          289 
 4249000   0.56175049   -6.6827494    1117.4509  0.021915958  0.020783757          388 
 4250000   0.57404128   -6.6931274    1117.6442  0.021914592  0.020777323          361 
 4251000   0.57210677   -6.6805003    1119.0919  0.021937817  0.020770897          438 
 4252000   0.57155076   -6.6832314    1118.3357  0.021917837  0.020764491          408 
 4253000   0.56444238    -6.669165    1118.1541  0.021909125  0.020758067          425 
 4254000   0.57393228    -6.686592    1117.4593  0.021890364  0.020751637          563 
 4255000     0.568163   -6.6797451    1116.9946  0.021876119  0.020745212          464 
 4256000   0.57377268   -6.6798101    1118.3285  0.021897097  0.020738784          530 
 4257000   0.56684178   -6.7037457    1115.7312  0.021841109  0.020732341          543 
 4258000    0.5664934   -6.7059366    1116.8352  0.021857585  0.020725901          555 
 4259000   0.56827834    -6.696646    1116.0024  0.021836159  0.020719478          528 
 4260000   0.57169603   -6.7072474    1115.5049  0.021821302  0.020713039          507 
 4261000   0.57370894   -6.7280481    1117.5319  0.021855822  0.020706615          511 
 4262000   0.55816198   -6.7075467    1114.5546   0.02179248  0.020700178          559 
 4263000   0.56469785   -6.7163957    1118.3646  0.021861846   0.02069373          636 
 4264000   0.56865077   -6.7010942    1118.1943  0.021853391   0.02068729          526 
 4265000   0.56983866   -6.7136872     1116.746  0.021819969   0.02068086          509 
 4266000   0.56856568   -6.6831972    1117.4045  0.021827718  0.020674448          448 
 4267000   0.57582379   -6.7100433    1115.5036  0.021785478  0.020668032          438 
 4268000   0.56966786    -6.697655    1116.5357  0.021800526  0.020661614          480 
 4269000   0.56934337   -6.7042799     1118.611   0.02183593  0.020655209          286 
 4270000   0.57566388   -6.7300161    1117.5405  0.021809924  0.020648786          436 
 4271000   0.56133233   -6.6861501    1114.6894  0.021749188  0.020642382          396 
 4272000   0.57053062    -6.709487    1117.9321  0.021807353  0.020635968          594 
 4273000   0.56764564    -6.701658    1116.0474  0.021765492  0.020629565          475 
 4274000   0.55653281   -6.6993933    1117.2332  0.021783521  0.020623165          551 
 4275000   0.57626868   -6.6938301    1117.1575  0.021776949  0.020616767          575 
 4276000   0.57590809   -6.6939541    1114.6114  0.021722236  0.020610372          513 
 4277000   0.57570998   -6.7193934    1116.2956  0.021749973  0.020603965          618 
 4278000   0.56679613   -6.6983316    1118.7715  0.021793117  0.020597548          617 
 4279000   0.56998214   -6.6997686    1114.5308  0.021705438  0.020591152          607 
 4280000   0.56295728   -6.7077314    1114.9501  0.021708531  0.020584743          529 
 4281000   0.56664721   -6.7121592      1114.67  0.021698007  0.020578332          637 
 4282000   0.56828166   -6.7203217    1113.9298  0.021678534  0.020571937          577 
 4283000   0.56565148   -6.7175618    1114.1445   0.02167765  0.020565532          537 
 4284000   0.55417741   -6.6914452    1115.2424  0.021693947  0.020559148          491 
 4285000    0.5685563   -6.7079146     1115.303  0.021690062  0.020552752          509 
 4286000   0.57090134   -6.7051607    1115.7704  0.021694088  0.020546374          448 
 4287000    0.5603901   -6.7019051    1118.5821  0.021743685  0.020540008          501 
 4288000   0.56980148   -6.6934887    1118.1834  0.021730866  0.020533641          471 
 4289000   0.57379435   -6.7189229    1115.2907  0.021669594  0.020527273          540 
 4290000   0.55673098   -6.7131479    1116.0052  0.021678423  0.020520915          468 
 4291000   0.57127113   -6.7086144    1115.8326  0.021670019  0.020514563          479 
 4292000   0.56079525   -6.6858686    1117.4226  0.021695841  0.020508202          488 
 4293000   0.57037326   -6.7135915    1116.3604  0.021670168  0.020501838          516 
 4294000    0.5669628   -6.7100072    1114.5076  0.021629165  0.020495477          558 
 4295000   0.56525363   -6.7233893    1114.3487  0.021621046  0.020489104          520 
 4296000   0.57699818   -6.7183971    1116.0143  0.021648323  0.020482738          657 
 4297000    0.5646641   -6.7083805    1115.7167  0.021637512  0.020476381          588 
 4298000   0.56009521   -6.6949699    1116.7001  0.021651546  0.020470036          619 
 4299000   0.55942504    -6.695838    1116.7254  0.021646999  0.020463698          577 
 4300000   0.56168718   -6.7041665    1116.0605   0.02162908  0.020457356          680 
 4301000   0.56299133    -6.698505    1117.0664  0.021643541  0.020451012          623 
 4302000   0.56188401    -6.698801    1118.0326  0.021657225  0.020444673          659 
 4303000   0.57343336   -6.7287861     1117.242  0.021636881  0.020438319          639 
 4304000    0.5551696   -6.7273934    1115.7031  0.021602058   0.02043195          672 
 4305000   0.55781863   -6.7305257    1116.4305  0.021611121  0.020425586          695 
 4306000   0.57714726   -6.7067966    1116.5586  0.021608582  0.020419235          742 
 4307000   0.55305498   -6.7105944    1113.1374   0.02153737  0.020412888          771 
 4308000   0.55198301   -6.7029641    1117.0944  0.021608913  0.020406535          710 
 4309000   0.57107596   -6.7061362    1118.9219  0.021639242  0.020400196          707 
 4310000   0.56526694   -6.7092298    1117.9336  0.021615112  0.020393851          603 
 4311000   0.55277017   -6.7401182    1114.3642  0.021541101  0.020387496          663 
 4312000   0.56599818   -6.7221019    1114.1042   0.02153108  0.020381135          611 
 4313000   0.57028809   -6.7388951    1112.1546  0.021488418  0.020374783          700 
 4314000   0.55799204    -6.739322    1113.8862  0.021516886  0.020368427          711 
 4315000   0.55732852   -6.7303266    1114.9411  0.021532273   0.02036207          742 
 4316000    0.5715492   -6.7224308    1115.3695  0.021535556  0.020355703          656 
 4317000   0.57608949   -6.7115158    1117.6249  0.021574104  0.020349364          716 
 4318000   0.56080035   -6.7230597    1114.9164  0.021516836  0.020343019          731 
 4319000   0.56227811   -6.7460155    1116.2426  0.021537443  0.020336679          696 
 4320000   0.57292191   -6.7099751    1115.0215  0.021508903  0.020330342          668 
 4321000   0.56288222     -6.71318    1115.9467  0.021521768  0.020324016          618 
 4322000   0.56604756   -6.7264764    1113.4602  0.021468846  0.020317682          726 
 4323000   0.55493477   -6.7398401    1115.0535  0.021494594   0.02031135          623 
 4324000   0.56114391   -6.7170113    1115.1324  0.021491143   0.02030502          673 
 4325000   0.56905313   -6.7319054     1113.397  0.021452737  0.020298681          722 
 4326000   0.55540475   -6.7454413    1114.2955  0.021465085  0.020292342          696 
 4327000   0.56528669   -6.7139381    1116.8267  0.021508873  0.020286019          722 
 4328000   0.55078358   -6.7386829    1114.9293   0.02146737  0.020279688          572 
 4329000   0.56091869    -6.728766    1113.9216  0.021443012  0.020273377          712 
 4330000    0.5679728   -6.7309847    1114.6937  0.021452919  0.020267055          682 
 4331000   0.57080252   -6.7250783    1118.1735  0.021514921  0.020260752          681 
 4332000   0.55693472   -6.7227375    1116.1569  0.021471162  0.020254451          742 
 4333000   0.54263026   -6.7353049    1115.9895  0.021462987  0.020248148          690 
 4334000   0.56185348   -6.7444324    1114.7481  0.021434166  0.020241857          679 
 4335000   0.55665423   -6.7427884     1116.121  0.021455613  0.020235548          785 
 4336000   0.55169038   -6.7334503    1114.9713  0.021428569  0.020229246          759 
 4337000   0.55966609   -6.7384077    1116.6541  0.021455963  0.020222938          834 
 4338000   0.56243674   -6.7232689    1116.7011  0.021451919  0.020216627          745 
 4339000   0.56987563   -6.7346872    1112.6645  0.021369449  0.020210318          793 
 4340000    0.5546194   -6.7496739    1114.8088  0.021405699  0.020204014          897 
 4341000   0.55006809   -6.7218856    1115.9202  0.021422104  0.020197721          721 
 4342000    0.5563605    -6.728169    1115.0493  0.021400454  0.020191427          836 
 4343000   0.55107069   -6.7498367      1114.53  0.021385564  0.020185139          749 
 4344000     0.553168   -6.7338016    1115.8771  0.021406482  0.020178853          706 
 4345000   0.55546918    -6.742584    1117.4122  0.021430997  0.020172568          755 
 4346000   0.55375884   -6.7419876    1115.3698  0.021386904  0.020166291          713 
 4347000   0.56663648   -6.7117839    1118.6591  0.021445041   0.02016002          745 
 4348000   0.56383612   -6.7332322    1116.1649  0.021392306  0.020153743          724 
 4349000   0.56144473   -6.7340812    1115.2379  0.021369623  0.020147475          673 
 4350000   0.55207709   -6.7550455    1115.2988  0.021365877  0.020141189          586 
 4351000   0.55326398   -6.7193062    1118.6457  0.021425069  0.020134913          581 
 4352000   0.55709818   -6.7322022    1117.9927  0.021407642  0.020128641          731 
 4353000   0.55731804   -6.7391876    1116.7809  0.021379527  0.020122367          715 
 4354000   0.55615831   -6.7367596    1113.7153  0.021315941  0.020116098          745 
 4355000   0.56182406    -6.743954     1114.844  0.021332644  0.020109817          699 
 4356000   0.56398195   -6.7286921     1116.269  0.021355008  0.020103539          689 
 4357000   0.55849616   -6.7518241    1114.7487  0.021321029  0.020097259          734 
 4358000    0.5509307   -6.7538153    1113.4097  0.021290533  0.020090979          684 
 4359000   0.54511537   -6.7447244    1115.9808  0.021334802  0.020084708          712 
 4360000   0.55145652   -6.7702851    1113.0857  0.021274573   0.02007844          744 
 4361000   0.56208519   -6.7425533    1113.7668   0.02128271  0.020072171          626 
 4362000   0.54642811   -6.7496793    1116.4224  0.021328566  0.020065904          603 
 4363000   0.55591838    -6.743889    1114.3501  0.021284095  0.020059643          661 
 4364000   0.56050474   -6.7614322    1114.3537  0.021279288  0.020053389          686 
 4365000   0.55493135    -6.739745     1113.856  0.021264909  0.020047133          618 
 4366000   0.54848349    -6.757294    1113.4497  0.021252285  0.020040879          593 
 4367000   0.55820522   -6.7444199    1114.7604   0.02127243  0.020034627          640 
 4368000   0.56253207   -6.7457859    1115.3288  0.021278404  0.020028378          636 
 4369000   0.54794793   -6.7578908    1113.6344  0.021241214  0.020022138          675 
 4370000   0.54596005   -6.7497656    1116.1724  0.021284752  0.020015893          622 
 4371000   0.55478094   -6.7192847    1115.4143   0.02126543   0.02000966          630 
 4372000   0.54581538   -6.7411485     1114.766  0.021248209  0.020003431          643 
 4373000   0.54967237   -6.7567909    1114.3965  0.021236308  0.019997193          642 
 4374000    0.5430202    -6.750887    1115.6357  0.021255062  0.019990949          617 
 4375000   0.55326571   -6.7600223    1115.6687  0.021250832  0.019984711          533 
 4376000   0.54069742    -6.758188    1113.2679  0.021200257  0.019978475          693 
 4377000   0.54981377   -6.7303509     1114.942  0.021227286  0.019972246          537 
 4378000   0.55624796   -6.7453738    1116.4062  0.021250308  0.019966024          653 
 4379000   0.54594859   -6.7521229    1114.7437  0.021213817  0.019959802          766 
 4380000   0.55255042   -6.7440911    1115.7272  0.021227686  0.019953583          765 
 4381000   0.54856263   -6.7567728    1115.4149  0.021216901  0.019947364          762 
 4382000   0.55241215   -6.7561945    1112.8753  0.021163762  0.019941129          674 
 4383000   0.55037121   -6.7535295    1111.8908  0.021140216    0.0199349          762 
 4384000   0.55452765   -6.7465567    1115.3005  0.021200207   0.01992868          601 
 4385000   0.54903348   -6.7512763    1113.6789  0.021164555  0.019922445          804 
 4386000   0.55210948   -6.7586109    1112.5649  0.021138564  0.019916226          548 
 4387000   0.54804403   -6.7336911    1114.1686  0.021164208  0.019910016          705 
 4388000   0.54210134   -6.7832786    1116.4273   0.02120228  0.019903796          745 
 4389000    0.5458375   -6.7500115    1113.2191  0.021136536  0.019897575          712 
 4390000   0.54097545   -6.7439496    1115.2058  0.021169435  0.019891363          691 
 4391000   0.54553224   -6.7515056    1113.8819  0.021139487  0.019885156          686 
 4392000   0.53734964   -6.7549713    1115.0668  0.021157158  0.019878962          483 
 4393000   0.54428674   -6.7672526    1113.0366   0.02111383  0.019872761          630 
 4394000   0.55838786     -6.75623    1115.0867  0.021147905  0.019866566          681 
 4395000   0.54240428   -6.7525467    1116.1605  0.021163452  0.019860379          707 
 4396000   0.55313915   -6.7577283    1114.2094  0.021121653  0.019854172          708 
 4397000   0.55357751    -6.769918    1115.5336  0.021141945  0.019847984          728 
 4398000   0.55381601   -6.7652564    1114.0898  0.021109781  0.019841786          801 
 4399000   0.55648322   -6.7634025    1114.9394  0.021121077   0.01983559          802 
 4400000   0.53073576    -6.751621     1113.227  0.021083844  0.019829406          696 
 4401000   0.55416108   -6.7518543     1113.769  0.021089317  0.019823224          704 
 4402000    0.5478155   -6.7680943     1111.405  0.021039773  0.019817045          801 
 4403000   0.54610618   -6.7370314    1115.5327  0.021113118  0.019810871          871 
 4404000   0.55874638   -6.7570178    1115.1999  0.021102027  0.019804698          877 
 4405000   0.54234336   -6.7640097    1112.5107  0.021046361  0.019798523          933 
 4406000   0.55584702   -6.7591163    1115.4977  0.021098081  0.019792347          942 
 4407000    0.5543971    -6.753866     1114.477  0.021073993   0.01978617          863 
 4408000   0.53990227   -6.7857099    1113.5693  0.021052052  0.019779976          853 
 4409000   0.54175312   -6.7654341    1113.7241  0.021050203  0.019773788          905 
 4410000   0.54705813   -6.7651866    1113.1667  0.021034895  0.019767602          853 
 4411000    0.5431487   -6.7847904     1113.186  0.021030491  0.019761418          941 
 4412000   0.54907854   -6.7990603    1112.5695  0.021014081  0.019755218          820 
 4413000   0.53721826   -6.7679829      1113.39  0.021024812  0.019749035          808 
 4414000   0.55194046   -6.7769697    1114.5033  0.021041069  0.019742864          804 
 4415000   0.54896061    -6.760373    1112.3826  0.020996275  0.019736683          885 
 4416000   0.55276463    -6.778111    1112.0734  0.020985684  0.019730504          903 
 4417000   0.54128962   -6.7646965    1110.6039  0.020953209  0.019724323          929 
 4418000   0.54492946   -6.7735326    1113.8909  0.021010466  0.019718156          952 
 4419000   0.54463119   -6.7617142    1113.1784  0.020992275  0.019711987          804 
 4420000   0.53642097   -6.7639136    1114.3753  0.021010093  0.019705834          913 
 4421000    0.5454682   -6.7587053     1112.411  0.020968314  0.019699686          815 
 4422000   0.54962494   -6.7797764    1114.2522   0.02099827  0.019693533          933 
 4423000     0.550496   -6.7619637    1113.6053  0.020981334  0.019687387          854 
 4424000   0.54710755   -6.7744428    1114.0889  0.020985701  0.019681231          833 
 4425000   0.56136533   -6.7781077    1112.4952  0.020950945  0.019675088          859 
 4426000   0.55015068   -6.7693805    1112.8781  0.020953421  0.019668945         1116 
 4427000   0.54469661    -6.785681    1111.5367  0.020923438  0.019662794          927 
 4428000   0.55256009   -6.7833973    1113.7724  0.020960788  0.019656635          997 
 4429000   0.54397097   -6.7865234    1112.6182  0.020934338  0.019650485          974 
 4430000   0.54298573   -6.7874717     1112.454  0.020926524  0.019644346          854 
 4431000   0.54915529   -6.7627506    1113.2987  0.020937686   0.01963819          937 
 4432000   0.52803374   -6.7870142     1110.583    0.0208819  0.019632037          914 
 4433000   0.53901631    -6.766167    1112.1357  0.020906378  0.019625884          950 
 4434000   0.55244636   -6.7647998    1112.0031  0.020899171  0.019619749          860 
 4435000   0.53829856   -6.7785748    1113.2987  0.020918804  0.019613602          935 
 4436000   0.53937742    -6.774117    1113.5985  0.020919719  0.019607457         1004 
 4437000   0.55008458    -6.776566    1111.6607   0.02087861  0.019601313          925 
 4438000   0.53505735   -6.7621172    1115.3067  0.020942368  0.019595178          835 
 4439000   0.53471484   -6.7816842    1113.9463  0.020912111  0.019589036          863 
 4440000   0.53819928    -6.778209     1112.314  0.020876765  0.019582898          993 
 4441000   0.54372609   -6.7917875    1111.9922  0.020866025  0.019576751          964 
 4442000   0.53553504   -6.7936705    1111.7795  0.020857338  0.019570605          873 
 4443000   0.53349015   -6.7686329    1111.2201   0.02084215  0.019564474          895 
 4444000   0.53082884   -6.7885004    1113.0731  0.020872207  0.019558335          990 
 4445000   0.54119182   -6.7718653    1112.1364   0.02084995  0.019552213          952 
 4446000    0.5440746   -6.7755242    1114.3645  0.020887023  0.019546087         1050 
 4447000   0.54370598   -6.7710529    1113.6673  0.020869262  0.019539956         1011 
 4448000   0.53319292   -6.7850179    1110.5793  0.020806717  0.019533837         1090 
 4449000   0.53220924   -6.7767308    1113.3831  0.020854556  0.019527716         1046 
 4450000   0.54742449   -6.7872982    1110.7398  0.020800371  0.019521598         1081 
 4451000   0.53005303   -6.7879841    1110.9718  0.020800041   0.01951547         1135 
 4452000   0.54306242   -6.7891772    1111.3281  0.020802038  0.019509347         1088 
 4453000   0.55081196   -6.7922644    1109.6614  0.020766177  0.019503223         1112 
 4454000   0.54577058   -6.7807199    1112.5253  0.020815098  0.019497097         1006 
 4455000   0.55236329   -6.7889908    1112.2978  0.020806169  0.019490979         1125 
 4456000   0.53857664   -6.7958055    1112.6634  0.020808337  0.019484859         1057 
 4457000   0.54692546   -6.7955292     1111.962  0.020790555  0.019478744         1096 
 4458000   0.53403481   -6.7972042    1113.3459   0.02081176  0.019472625          947 
 4459000   0.54208079   -6.8046463    1111.9849  0.020781657  0.019466516         1035 
 4460000   0.53754079   -6.7906473    1113.3759  0.020802987  0.019460396         1101 
 4461000   0.53537391   -6.7888556    1112.1843  0.020776065  0.019454286         1092 
 4462000   0.54040644   -6.8018299     1111.853  0.020765222  0.019448172         1083 
 4463000   0.53872181   -6.8149443    1112.3277  0.020769433   0.01944206         1083 
 4464000   0.53063001   -6.7950038    1111.4554  0.020748496  0.019435949         1166 
 4465000   0.53937724   -6.8115189    1111.7071  0.020748547  0.019429829         1086 
 4466000   0.54009719    -6.814644    1110.3332  0.020718264  0.019423718         1130 
 4467000   0.53701079   -6.7863216    1112.6021  0.020755954  0.019417609         1258 
 4468000   0.53494698   -6.8122333    1109.6916  0.020697024  0.019411491         1141 
 4469000   0.54426328   -6.8184195    1110.3998  0.020705598  0.019405362         1257 
 4470000   0.53662704   -6.7942738    1111.0217   0.02071256  0.019399245         1220 
 4471000   0.53007246   -6.8201116    1109.1104  0.020672303  0.019393132         1255 
 4472000   0.54705884   -6.8086213    1111.2658  0.020707846  0.019387009         1285 
 4473000   0.54196192   -6.8029553    1110.2196  0.020683725  0.019380885         1371 
 4474000   0.55947836   -6.8105994     1109.756  0.020670467  0.019374771         1372 
 4475000   0.54444641   -6.8020034    1111.3308  0.020695172  0.019368658         1218 
 4476000   0.53769938   -6.8138281    1108.9242  0.020645745  0.019362548         1390 
 4477000   0.53138141   -6.8216319    1108.9148  0.020640957  0.019356432         1278 
 4478000   0.53905534   -6.8098292    1111.2405  0.020679629  0.019350326         1264 
 4479000   0.53881873   -6.8112483    1110.7078  0.020665099  0.019344225         1335 
 4480000   0.52901199   -6.8054106     1109.518  0.020638356  0.019338125         1280 
 4481000   0.53211464   -6.8191031     1111.596  0.020672394  0.019332032         1312 
 4482000   0.53917351   -6.8005932     1110.517  0.020647721  0.019325938         1319 
 4483000   0.53359227   -6.8215556    1108.4955  0.020605538  0.019319846         1283 
 4484000   0.54452519   -6.8273638     1110.358  0.020635556  0.019313762         1223 
 4485000   0.53132163   -6.7922728    1111.2616  0.020647744  0.019307688         1287 
 4486000   0.53903485   -6.8036437    1109.9557  0.020618883  0.019301597         1237 
 4487000   0.53544397   -6.8112818    1110.2302  0.020619385  0.019295517         1355 
 4488000   0.53133239   -6.8179454    1108.8533  0.020589225  0.019289448         1407 
 4489000   0.54213072   -6.8059866    1109.1125  0.020589451  0.019283373         1261 
 4490000   0.53718479   -6.8149969    1108.8226  0.020579485  0.019277291         1302 
 4491000   0.53586142   -6.8138608     1110.947  0.020614321  0.019271218         1252 
 4492000   0.53606468   -6.8236278    1111.1978  0.020614385  0.019265147         1246 
 4493000   0.52235029   -6.8075183    1110.3535  0.020594137  0.019259072         1227 
 4494000   0.53097126   -6.8245573    1109.7608  0.020578563  0.019253004         1269 
 4495000   0.53053223   -6.8173096    1109.6447  0.020571833  0.019246935         1214 
 4496000   0.53809655   -6.8157379     1114.304  0.020653619  0.019240878         1209 
 4497000   0.53171069   -6.8141453    1110.4612  0.020577815  0.019234821         1335 
 4498000   0.53379339   -6.7955116    1108.7047  0.020540698  0.019228766         1329 
 4499000   0.53002584   -6.8131693    1113.9177  0.020632692  0.019222712         1341 
 4500000   0.52867296    -6.822797    1109.7809  0.020551498  0.019216652         1320 
 4501000   0.52236871   -6.8206534    1112.0382  0.020588724  0.019210603         1328 
 4502000   0.53610212   -6.8261902     1108.702  0.020522397  0.019204552         1306 
 4503000   0.54055979   -6.8343952    1109.2615  0.020528194  0.019198497         1301 
 4504000   0.53042514   -6.8147379    1110.3877  0.020544473  0.019192445         1255 
 4505000   0.52332324   -6.8148329    1109.0535  0.020515234  0.019186402         1293 
 4506000   0.51878188   -6.8207116     1110.366  0.020534953  0.019180357         1285 
 4507000   0.53327303   -6.8157977    1110.5723  0.020534212   0.01917431         1225 
 4508000   0.52119798   -6.8280304    1108.8028  0.020496946  0.019168262         1222 
 4509000   0.53866387   -6.8125852    1110.0912  0.020516213  0.019162225         1260 
 4510000   0.53463435   -6.8156017    1111.0819  0.020529968  0.019156181         1305 
 4511000     0.516741   -6.8128101    1110.1816  0.020508785  0.019150148         1123 
 4512000   0.52326559   -6.8277201    1109.3748  0.020489339  0.019144125         1125 
 4513000   0.50863612   -6.8298751      1109.96  0.020495605  0.019138101         1156 
 4514000   0.52235247   -6.8225014    1109.5412  0.020483333  0.019132076         1252 
 4515000   0.53040898   -6.8125082    1108.6892  0.020463071   0.01912606         1256 
 4516000   0.52704035   -6.8185472    1110.9067   0.02049946  0.019120027         1205 
 4517000   0.53692117    -6.822784    1108.8667  0.020457285  0.019114008         1135 
 4518000   0.53135148   -6.8312479    1108.0804  0.020438254  0.019107999         1213 
 4519000   0.53350113   -6.8096758    1108.4347  0.020440264  0.019101981         1213 
 4520000   0.54360577   -6.8129095      1111.39  0.020490228  0.019095974         1201 
 4521000   0.52107034   -6.8081296    1110.1728  0.020463261   0.01908997         1193 
 4522000   0.53371414   -6.8247223    1112.2017  0.020496124  0.019083963         1245 
 4523000   0.52503996   -6.8103174    1110.3378  0.020457251  0.019077957         1279 
 4524000   0.51598927   -6.8020285    1110.7679  0.020460653  0.019071952         1169 
 4525000   0.54016937   -6.8335854    1109.0311  0.020424145  0.019065944         1202 
 4526000   0.52764439   -6.8282038    1111.4085  0.020463405  0.019059943         1321 
 4527000   0.52717069   -6.8180782    1110.8067  0.020447808  0.019053938         1371 
 4528000   0.52814447   -6.8203968    1110.1507  0.020431219  0.019047939         1325 
 4529000   0.52951018   -6.8247034    1109.5429  0.020415524  0.019041931         1267 
 4530000   0.51517922   -6.8159579    1109.0042  0.020401108  0.019035935         1248 
 4531000   0.52983657   -6.8314322    1107.1821  0.020363094  0.019029931         1269 
 4532000   0.52886374   -6.8044446    1110.5904  0.020421271  0.019023939         1221 
 4533000   0.52032496   -6.8173956    1110.5997  0.020416936  0.019017949         1231 
 4534000   0.52651788   -6.8110781    1110.0371  0.020402094  0.019011958         1149 
 4535000   0.52455071   -6.8354533    1109.4865  0.020387477  0.019005969         1128 
 4536000   0.53542617   -6.8105638    1109.5191  0.020383581  0.018999988         1232 
 4537000    0.5244186     -6.81504    1108.8748  0.020367254  0.018994012         1250 
 4538000   0.53179769   -6.8346674    1109.3161  0.020370869  0.018988042         1124 
 4539000   0.52536407   -6.8201856    1107.3458  0.020330209  0.018982068         1212 
 4540000   0.52840349   -6.8235415    1107.9628  0.020337056  0.018976081         1231 
 4541000    0.5268743   -6.8546054    1109.5372   0.02036147  0.018970098         1207 
 4542000   0.52309884   -6.8384167    1108.1634  0.020331781  0.018964118         1257 
 4543000   0.52778665   -6.8310608    1110.9881  0.020379119  0.018958146         1309 
 4544000   0.52235458   -6.8398437    1107.7441  0.020315142  0.018952166         1305 
 4545000   0.52471035   -6.8463419    1107.8131  0.020311937  0.018946196         1299 
 4546000   0.52378681   -6.8218131      1108.65  0.020322811  0.018940216         1318 
 4547000   0.51062903   -6.8365528    1109.4003  0.020332092  0.018934243         1323 
 4548000     0.536596   -6.8327739    1110.2669  0.020343501  0.018928271         1117 
 4549000   0.52261989   -6.8451657    1108.5907  0.020308323  0.018922299         1235 
 4550000   0.52293707   -6.8196985    1106.5813  0.020267057   0.01891633         1109 
 4551000   0.52244934   -6.8352901    1107.2868  0.020275521  0.018910365         1334 
 4552000   0.52631329   -6.8382385    1108.8498  0.020299682  0.018904386         1220 
 4553000   0.51345125   -6.8394985    1107.7895  0.020275817  0.018898424         1194 
 4554000   0.52459177   -6.8289799    1108.1596  0.020278137  0.018892462         1141 
 4555000   0.52692468   -6.8311873    1107.2625  0.020257272    0.0188865         1136 
 4556000   0.51981925   -6.8335675    1108.8256  0.020281416  0.018880538         1186 
 4557000   0.51206049   -6.8342927    1108.8202  0.020276868  0.018874582         1296 
 4558000   0.53280642   -6.8444857    1107.5598  0.020249375  0.018868629         1276 
 4559000   0.52765035   -6.8325896    1108.9096  0.020269607  0.018862677         1242 
 4560000   0.50781802   -6.8302895    1108.2074  0.020252328  0.018856723         1219 
 4561000   0.51660092   -6.8243662    1106.3994  0.020214854  0.018850773         1314 
 4562000   0.53112598   -6.8460739    1107.4927  0.020230394   0.01884482         1247 
 4563000   0.53005737   -6.8412153    1110.7299  0.020285081  0.018838873         1333 
 4564000   0.52793453   -6.8344909    1108.5314  0.020240494  0.018832917         1181 
 4565000   0.52277346   -6.8209049    1107.5306  0.020217791  0.018826978         1301 
 4566000   0.49839214   -6.8474196    1107.1074   0.02020564  0.018821027         1296 
 4567000   0.51638483   -6.8418295    1109.4036  0.020243113  0.018815079         1247 
 4568000   0.52352671   -6.8372879     1108.348  0.020219424  0.018809134         1231 
 4569000   0.51726632    -6.854848    1107.7405   0.02020392  0.018803192         1266 
 4570000   0.51828566   -6.8445638    1106.8285  0.020182867   0.01879725         1317 
 4571000   0.51893207   -6.8312222    1108.4638  0.020208266  0.018791313         1208 
 4572000   0.52262331    -6.837271    1107.6729   0.02018943  0.018785387         1240 
 4573000   0.52230956   -6.8342738    1107.7879   0.02018711  0.018779456         1268 
 4574000   0.52082209   -6.8562699    1108.8426  0.020201913  0.018773523         1288 
 4575000   0.52862484    -6.820257    1107.6443  0.020175671  0.018767598         1215 
 4576000   0.50668621   -6.8557732    1107.8342   0.02017472   0.01876167         1272 
 4577000   0.52395781   -6.8446177    1106.3582  0.020143438  0.018755743         1350 
 4578000    0.5134999   -6.8282719    1107.3222  0.020156586   0.01874982         1344 
 4579000   0.51529069   -6.8407112    1105.8472   0.02012534  0.018743897         1373 
 4580000   0.51843452   -6.8372771    1107.4953  0.020150933  0.018737968         1365 
 4581000   0.51635062    -6.847256    1108.1022  0.020157575  0.018732052         1206 
 4582000   0.52093831   -6.8460732    1107.9614  0.020150615  0.018726135         1319 
 4583000   0.51701533   -6.8459134    1108.2807  0.020152024  0.018720215         1246 
 4584000   0.52445013   -6.8383674     1107.441  0.020132363  0.018714302         1276 
 4585000   0.51640766   -6.8371331    1107.8786  0.020135924  0.018708391         1304 
 4586000   0.51016667   -6.8457917    1106.4386  0.020105369  0.018702485         1282 
 4587000   0.51760674   -6.8639738    1105.8589  0.020090453  0.018696579         1296 
 4588000    0.5183826    -6.867161     1106.538  0.020098409  0.018690672         1322 
 4589000   0.51659397   -6.8295139    1110.9951  0.020174967  0.018684777         1349 
 4590000   0.51916664   -6.8450913    1110.5942  0.020163293  0.018678879         1326 
 4591000   0.51590723    -6.826152     1108.591  0.020122541  0.018672979         1324 
 4592000   0.50890287   -6.8438676      1108.62  0.020118685  0.018667091         1416 
 4593000   0.52872519   -6.8578174    1108.5875  0.020113715  0.018661206         1342 
 4594000   0.51860248   -6.8369356    1109.0054  0.020116917   0.01865532         1399 
 4595000    0.5092581   -6.8585286    1108.4581  0.020102613  0.018649449         1350 
 4596000   0.51798123    -6.855381    1105.8819  0.020051528  0.018643569         1440 
 4597000   0.50638903   -6.8557192    1108.7056  0.020098354  0.018637684         1352 
 4598000   0.51601165   -6.8389572    1107.3631  0.020069651  0.018631798         1300 
 4599000    0.4963575   -6.8414005    1107.1246  0.020060965  0.018625918         1348 
 4600000   0.50542998   -6.8718201    1108.6937  0.020085031  0.018620041         1380 
 4601000   0.51180837   -6.8420169    1106.6734  0.020044073  0.018614168         1456 
 4602000   0.51004906   -6.8579974    1108.6045  0.020074687  0.018608296         1409 
 4603000   0.51845016   -6.8667361     1105.943  0.020022141  0.018602419         1378 
 4604000   0.51980216   -6.8586622    1107.4705   0.02004544  0.018596534         1440 
 4605000   0.51001965   -6.8520503    1104.8251  0.019993216  0.018590663         1391 
 4606000   0.51722502   -6.8582234     1105.455  0.020000272  0.018584795         1372 
 4607000   0.51968943   -6.8566542    1107.3465  0.020030144  0.018578927         1386 
 4608000   0.52062486   -6.8553461    1107.1147  0.020021605  0.018573058         1328 
 4609000   0.51092832    -6.845653    1106.8646   0.02001274  0.018567202         1411 
 4610000   0.51062248   -6.8533234    1108.6818  0.020041247  0.018561349         1397 
 4611000   0.51319404   -6.8488924    1108.4634  0.020032955  0.018555494         1387 
 4612000   0.51121821   -6.8552355    1106.5291  0.019993659  0.018549643         1383 
 4613000   0.50568087    -6.854157    1106.6604  0.019991697  0.018543786         1415 
 4614000   0.51760881   -6.8716391    1105.6085  0.019968367  0.018537936         1430 
 4615000   0.50286116   -6.8484464     1107.872  0.020004911  0.018532089         1262 
 4616000   0.52166629   -6.8566442    1108.5302   0.02001246  0.018526246         1299 
 4617000   0.52237012   -6.8541594    1108.0628  0.019999689  0.018520401         1321 
 4618000    0.5066807   -6.8680989    1105.2269  0.019944184  0.018514559         1384 
 4619000    0.5041988   -6.8500594    1108.9091  0.020006298   0.01850872         1375 
 4620000   0.52333785   -6.8774412     1105.979  0.019949116  0.018502876         1379 
 4621000   0.51690597   -6.8631109    1106.2032  0.019948842  0.018497033         1274 
 4622000   0.50367028   -6.8772747    1105.7645  0.019936617   0.01849119         1299 
 4623000   0.50959272   -6.8518582    1107.4448  0.019962593  0.018485352         1362 
 4624000   0.51962113   -6.8578506    1105.8326   0.01992922  0.018479515         1407 
 4625000   0.52129395   -6.8435195     1108.611  0.019974973   0.01847368         1329 
 4626000   0.51172017   -6.8702391    1106.5331  0.019933224  0.018467845         1367 
 4627000   0.50748433    -6.854553    1107.5501  0.019947232  0.018462016         1457 
 4628000   0.50818986    -6.879181    1103.6426  0.019872562  0.018456181         1296 
 4629000   0.50473147   -6.8837754    1106.2044  0.019914388  0.018450343         1371 
 4630000   0.51218443   -6.8677159    1107.5818  0.019934877  0.018444504         1361 
 4631000   0.51216083   -6.8695411    1105.8196  0.019898862  0.018438672         1404 
 4632000   0.50098175   -6.8420265     1108.426  0.019941458  0.018432846         1354 
 4633000   0.51967661   -6.8686625    1106.7127  0.019906336  0.018427018         1375 
 4634000   0.51345609   -6.8486826    1108.1028   0.01992704  0.018421188         1345 
 4635000    0.5106667   -6.8785493    1107.2538  0.019907476   0.01841537         1350 
 4636000   0.50398832   -6.8791356    1106.5667  0.019890831  0.018409548         1416 
 4637000   0.50353259   -6.8660236    1106.4505  0.019884452  0.018403727         1453 
 4638000   0.51988755   -6.8630219    1105.3036  0.019859559  0.018397908         1389 
 4639000   0.51975281   -6.8716681     1107.738  0.019899008  0.018392091         1439 
 4640000   0.51729389   -6.8696168      1107.35  0.019887752  0.018386279         1353 
 4641000   0.50295314   -6.8769813    1105.8842  0.019857146  0.018380469         1353 
 4642000    0.5117968   -6.8716228    1102.5954  0.019793829  0.018374658         1406 
 4643000   0.49617282   -6.8743122    1106.0757  0.019852029  0.018368849         1410 
 4644000   0.51463418    -6.866402    1107.7487  0.019877776  0.018363043         1418 
 4645000    0.5061363   -6.8672665    1107.1926  0.019863519  0.018357237         1339 
 4646000   0.49982988   -6.8803606    1107.9463  0.019872763  0.018351436         1331 
 4647000   0.51360152   -6.8527877    1107.1538  0.019854275  0.018345633         1433 
 4648000   0.50810917   -6.8768447    1104.2844  0.019798559  0.018339839         1446 
 4649000   0.52369708   -6.8951304    1104.3667  0.019795775  0.018334041         1434 
 4650000   0.51276344   -6.8882851    1106.8928  0.019836789  0.018328247         1367 
 4651000   0.51013007   -6.8854865    1105.8612  0.019814041  0.018322451         1407 
 4652000   0.50357778   -6.8735186    1105.5407  0.019804039  0.018316657         1383 
 4653000   0.50598161   -6.8836138    1106.0904  0.019809629  0.018310866         1433 
 4654000    0.5099615   -6.8850677    1107.1443  0.019824242  0.018305076         1393 
 4655000   0.50820302   -6.8793992    1106.7843  0.019813539  0.018299287         1385 
 4656000   0.50678821   -6.8632023    1106.0784  0.019796649  0.018293506         1383 
 4657000   0.52482555   -6.8970381    1103.2563    0.0197419  0.018287714         1407 
 4658000   0.51217319   -6.8911264    1105.8454  0.019783982  0.018281923         1489 
 4659000   0.50653587   -6.8711572     1106.344  0.019788653  0.018276136         1397 
 4660000   0.49951415   -6.8681154    1106.2966  0.019783559  0.018270356         1397 
 4661000   0.50428789    -6.881095    1106.9504  0.019791004  0.018264583         1435 
 4662000   0.50760875   -6.8626724     1106.275  0.019774685  0.018258807         1414 
 4663000   0.50489714   -6.8831475    1104.6246   0.01974095  0.018253032         1442 
 4664000   0.50127901   -6.8720082     1103.207  0.019711388  0.018247258         1438 
 4665000   0.49988945   -6.8608328    1106.9081  0.019773277  0.018241483         1387 
 4666000   0.51506483   -6.8567932    1106.7291  0.019765843  0.018235717         1374 
 4667000    0.5081094   -6.8636175    1106.6282  0.019759807  0.018229957         1373 
 4668000    0.5039232   -6.8755761    1105.8614  0.019741885  0.018224197         1393 
 4669000   0.49918333   -6.8529914    1104.3476  0.019710638  0.018218432         1380 
 4670000   0.50295685   -6.8859163    1104.8012  0.019714511  0.018212675         1366 
 4671000   0.50034677   -6.8822027    1106.6339  0.019742987  0.018206922         1431 
 4672000   0.49331868   -6.8954016    1104.4471  0.019699755  0.018201168         1449 
 4673000   0.50643288   -6.8822632    1104.6843  0.019699771  0.018195413         1465 
 4674000   0.50994848   -6.8844004    1105.4653  0.019709479  0.018189656         1373 
 4675000    0.5046393   -6.8765978    1105.0823  0.019698437  0.018183904         1378 
 4676000    0.5026109   -6.8842805     1107.095  0.019730093  0.018178154         1389 
 4677000   0.49979987   -6.8860834    1105.0013   0.01968857   0.01817241         1403 
 4678000   0.50241607   -6.8853513    1106.3697  0.019708738  0.018166662         1357 
 4679000   0.50235241   -6.8861143      1105.13  0.019682446  0.018160917         1417 
 4680000    0.5114764   -6.8733705    1104.9132   0.01967438  0.018155174         1345 
 4681000   0.50334472   -6.8829206    1104.3617   0.01966036  0.018149437         1394 
 4682000    0.5040248   -6.8719802    1106.4855  0.019693961  0.018143698         1394 
 4683000   0.50504636   -6.8934541     1102.898  0.019625916  0.018137965         1418 
 4684000   0.51706058   -6.8800487    1106.1169  0.019678994  0.018132232         1420 
 4685000   0.50335043   -6.8758132    1105.9945  0.019672616  0.018126503         1343 
 4686000    0.4990697   -6.8886898     1105.931   0.01966729  0.018120771         1448 
 4687000   0.51476574    -6.888038    1105.2588  0.019651141  0.018115037         1404 
 4688000   0.51292729   -6.8888859    1104.9771  0.019641942  0.018109316         1393 
 4689000   0.49606551   -6.8738105    1104.0146  0.019620648  0.018103585         1405 
 4690000   0.49476898   -6.8906387    1104.0288  0.019616716  0.018097873         1445 
 4691000   0.50696135   -6.8687521    1105.1301  0.019632098  0.018092157         1384 
 4692000   0.50470886   -6.8794076    1103.8388   0.01960498  0.018086442         1372 
 4693000   0.49492868   -6.8922639     1104.015  0.019603932  0.018080733         1447 
 4694000   0.50065514   -6.8805034    1104.7241  0.019612343  0.018075022         1436 
 4695000   0.50093628   -6.8894893    1103.3046  0.019582971  0.018069302         1377 
 4696000   0.49309827   -6.8908475     1103.915  0.019589633  0.018063593         1404 
 4697000   0.50165759   -6.8819103     1104.499  0.019595823  0.018057886         1422 
 4698000   0.48888621   -6.8926336    1104.4604  0.019590968  0.018052175         1403 
 4699000   0.49303976   -6.8831655    1106.4168  0.019621494  0.018046472         1370 
 4700000   0.50601778   -6.9131263    1104.1451  0.019577041  0.018040765         1453 
 4701000   0.49787474   -6.8899502    1104.6071  0.019581067  0.018035052         1389 
 4702000   0.50380465   -6.8980226    1105.2172  0.019587714  0.018029354         1443 
 4703000   0.50009615   -6.8787046    1104.8364  0.019576803  0.018023653         1359 
 4704000   0.51122249   -6.8942216    1105.7026  0.019587986  0.018017959         1472 
 4705000   0.50943423   -6.9096548    1102.5383  0.019527776  0.018012264         1481 
 4706000   0.49490875   -6.8927691    1104.6745  0.019561455  0.018006563         1380 
 4707000   0.50757574   -6.8946625    1104.0137    0.0195456  0.018000873         1379 
 4708000   0.50054996   -6.8948638    1104.2832  0.019546219  0.017995179         1318 
 4709000   0.48976187   -6.8935696    1107.5092  0.019599158  0.017989497         1390 
 4710000   0.49532981   -6.8985029    1105.9642  0.019567661  0.017983808         1423 
 4711000   0.49816704   -6.8983092    1104.3217  0.019534452  0.017978123         1430 
 4712000   0.48894333   -6.8910824     1104.922  0.019540924  0.017972439         1386 
 4713000   0.50158623   -6.8910342    1105.5014  0.019547022   0.01796675         1280 
 4714000   0.49603044   -6.9004136    1103.6458  0.019510072  0.017961079         1323 
 4715000   0.50218286   -6.9059693    1106.1464  0.019550131    0.0179554         1321 
 4716000   0.50006996    -6.883821    1105.4003  0.019532802  0.017949724         1338 
 4717000    0.4903807   -6.9069015    1103.1349  0.019488638  0.017944051         1364 
 4718000   0.49079251    -6.892875    1106.5641  0.019545077  0.017938377         1425 
 4719000   0.49754142   -6.8828572    1102.5476  0.019470008  0.017932709         1397 
 4720000   0.49844092   -6.8750738    1106.0775  0.019528205  0.017927042         1281 
 4721000   0.50135619   -6.8985702    1105.3485  0.019511199  0.017921373         1380 
 4722000   0.49795808    -6.896664    1102.8839  0.019463573  0.017915709         1395 
 4723000   0.49314818   -6.8893963    1105.1608  0.019499627  0.017910048         1470 
 4724000   0.50032907   -6.8919433    1104.4214  0.019482454  0.017904388         1403 
 4725000   0.49515516   -6.9021708    1105.5197  0.019497702  0.017898725         1417 
 4726000   0.49027696   -6.9057257    1103.1095  0.019451077  0.017893067         1378 
 4727000    0.5007936   -6.9029421    1103.3757  0.019451655  0.017887407         1382 
 4728000   0.48777831   -6.8879208    1104.6028   0.01946917  0.017881746         1426 
 4729000   0.50561536   -6.9113484    1102.1081  0.019421092   0.01787609         1359 
 4730000   0.49938295   -6.8893187    1103.5948  0.019443178  0.017870437         1346 
 4731000   0.49343379   -6.9018562     1103.493  0.019437276  0.017864785         1353 
 4732000   0.48940841   -6.9062237    1103.0841  0.019425967  0.017859136         1362 
 4733000   0.49765107   -6.9013613     1105.214  0.019459364  0.017853496         1335 
 4734000   0.50492696   -6.9003968    1103.2655  0.019420953  0.017847852         1439 
 4735000   0.51043352    -6.919631    1101.2255  0.019380948  0.017842204         1443 
 4736000     0.505392   -6.9079827    1104.4167  0.019433007   0.01783656         1441 
 4737000   0.48937161   -6.9049899    1104.0924  0.019423201  0.017830923         1450 
 4738000   0.48843598   -6.9084759    1104.4191  0.019424847  0.017825291         1379 
 4739000   0.47843776   -6.8925263    1103.4479   0.01940367  0.017819651         1399 
 4740000   0.49026462   -6.8887873     1103.344   0.01939775  0.017814016         1388 
 4741000   0.48709243   -6.8814072     1103.119  0.019389704  0.017808394         1360 
 4742000   0.49267085   -6.9037513    1104.2392    0.0194053  0.017802765         1493 
 4743000   0.49474156   -6.9014066    1103.6031  0.019390033  0.017797137         1311 
 4744000    0.4935381   -6.9170332    1104.8854  0.019408471  0.017791515         1400 
 4745000   0.48359915     -6.90609    1102.2213  0.019357592   0.01778589         1471 
 4746000   0.48681097   -6.9100256    1104.4103   0.01939195   0.01778026         1383 
 4747000   0.49091672   -6.9035231    1103.4923  0.019371749  0.017774645         1455 
 4748000   0.49376876   -6.9064673    1103.0254  0.019359473  0.017769028         1457 
 4749000   0.49612575   -6.9003973    1103.3924  0.019361837  0.017763408         1477 
 4750000   0.49312146   -6.9134614    1104.6583   0.01937997  0.017757796         1490 
 4751000   0.49936386   -6.9115383    1104.5412  0.019373838  0.017752189         1522 
 4752000   0.48295219   -6.8979744    1104.9213  0.019376426  0.017746582         1383 
 4753000   0.48802392   -6.9070772    1102.2134  0.019324873  0.017740977         1503 
 4754000   0.49595575   -6.9128492    1103.6513  0.019346012  0.017735373         1466 
 4755000   0.48630432   -6.9033167     1106.182  0.019386295  0.017729768         1512 
 4756000   0.49162958   -6.9185308    1103.3062   0.01933183  0.017724168         1443 
 4757000    0.4933482   -6.9176738    1102.6483  0.019316241  0.017718563         1474 
 4758000    0.4900472   -6.8858435    1104.0187  0.019336183  0.017712971         1379 
 4759000   0.48967681   -6.9118546    1102.2716  0.019301526  0.017707375         1448 
 4760000   0.49207714   -6.9124423    1104.6838  0.019339703  0.017701784         1474 
 4761000   0.49622424   -6.8898465    1103.3866  0.019312935  0.017696193         1431 
 4762000   0.48947312   -6.9010727    1104.6655   0.01933126  0.017690604         1437 
 4763000    0.4934612   -6.9155058    1104.5174  0.019324609  0.017685012         1498 
 4764000   0.48821255   -6.9174825    1102.7548  0.019289722  0.017679424         1441 
 4765000       0.4904   -6.9126273    1103.4037  0.019297021  0.017673841         1431 
 4766000   0.48273052   -6.8992577    1104.3425  0.019309387  0.017668263         1438 
 4767000    0.4903359   -6.8906987    1104.4775  0.019307697  0.017662687         1462 
 4768000   0.48864734   -6.9049828    1104.0582  0.019296319  0.017657109         1455 
 4769000   0.48979918   -6.8917834    1103.4316  0.019281324  0.017651531         1438 
 4770000   0.49193539   -6.9119618    1103.8289  0.019284222  0.017645963         1482 
 4771000   0.47405086   -6.9263317    1104.1519  0.019285823  0.017640395         1498 
 4772000    0.4882879   -6.8947585    1103.7456  0.019274686  0.017634834         1447 
 4773000   0.48685558   -6.9148086    1103.6875  0.019269633  0.017629268         1462 
 4774000   0.48696559   -6.9067188     1104.092  0.019272658  0.017623711         1478 
 4775000   0.49257436   -6.8988537    1103.9874  0.019266796  0.017618155         1531 
 4776000   0.49055772   -6.9044516    1105.4815  0.019288831  0.017612596         1485 
 4777000   0.49293033   -6.9164431    1103.5917  0.019251826   0.01760704         1506 
 4778000   0.48282197   -6.9151565    1103.8647  0.019252559  0.017601484         1500 
 4779000   0.48515983   -6.9139949    1103.8793  0.019248785  0.017595932         1534 
 4780000   0.48003937   -6.8974468    1102.8123  0.019226155  0.017590379         1499 
 4781000   0.48789578   -6.9292044    1100.7903   0.01918689  0.017584832         1586 
 4782000   0.48939532   -6.9100477     1105.393  0.019263088  0.017579285         1496 
 4783000   0.48522661   -6.8929454    1103.2113  0.019221048  0.017573741         1545 
 4784000   0.48727405   -6.9041663     1103.825  0.019227722    0.0175682         1502 
 4785000   0.49242973   -6.9173799    1102.6473  0.019203191  0.017562663         1478 
 4786000    0.4807417   -6.9192063    1103.3701  0.019211765  0.017557127         1525 
 4787000    0.4771903   -6.8993647    1104.3228  0.019224337  0.017551594         1460 
 4788000   0.48310563   -6.9020591    1105.4276  0.019239551  0.017546059         1542 
 4789000   0.49431298   -6.9015522    1101.9084  0.019174295  0.017540526         1450 
 4790000   0.47663877   -6.9125412      1104.98   0.01922373  0.017534998         1533 
 4791000   0.48068569   -6.9011085    1102.9737  0.019184821  0.017529463         1533 
 4792000   0.48951166   -6.9209704    1101.3002  0.019151715  0.017523938         1515 
 4793000   0.48183282    -6.897129    1102.2126  0.019163582  0.017518422         1574 
 4794000   0.48936069   -6.9068224    1101.4663  0.019146612  0.017512911         1520 
 4795000   0.48906025   -6.9218786    1102.1428  0.019154375  0.017507396         1513 
 4796000   0.47389754   -6.8994559    1104.1847  0.019185862  0.017501886         1519 
 4797000    0.4767881    -6.908166    1102.3056  0.019149218  0.017496378         1523 
 4798000    0.4764852   -6.9090802    1103.9324  0.019173481  0.017490865         1485 
 4799000   0.48141572   -6.9040368    1103.6107  0.019163901  0.017485364         1413 
 4800000   0.48313962   -6.9103785     1101.775  0.019128038   0.01747986         1450 
 4801000   0.48764817    -6.920686     1103.572  0.019155245  0.017474346         1487 
 4802000   0.47885441   -6.9145794    1104.0176   0.01915899  0.017468846         1446 
 4803000   0.48330073   -6.9096447    1103.0151  0.019137608  0.017463348         1533 
 4804000   0.49266861   -6.9092264    1102.6544  0.019127365   0.01745784         1512 
 4805000   0.47760737   -6.9072442    1104.6068  0.019157246  0.017452335         1545 
 4806000   0.49127888   -6.9111073    1103.9356  0.019141622  0.017446831         1552 
 4807000   0.47445205     -6.90217    1105.1827  0.019159258  0.017441335         1597 
 4808000   0.48787258   -6.9243477    1104.3927  0.019141581  0.017435843         1574 
 4809000    0.4798047   -6.9102329    1101.3925  0.019085613  0.017430343         1625 
 4810000   0.49462311   -6.9162947    1102.3715  0.019098605  0.017424853         1501 
 4811000   0.48866215   -6.9115821    1102.3553  0.019094355  0.017419363         1569 
 4812000   0.47382423   -6.9088731    1102.4597  0.019092195  0.017413875         1558 
 4813000   0.47411399   -6.9250809    1103.3886  0.019104311  0.017408392         1564 
 4814000   0.47682334    -6.917507    1102.8344  0.019090749   0.01740291         1538 
 4815000   0.48333094   -6.8959994    1103.2961  0.019094775  0.017397429         1518 
 4816000   0.49048078   -6.9183097    1103.1913  0.019088997  0.017391947         1550 
 4817000   0.48105873   -6.9147327    1103.5619  0.019091445  0.017386468         1527 
 4818000   0.47357457   -6.9305886    1102.1015  0.019062224  0.017380993         1477 
 4819000   0.47901349   -6.9037646    1103.1316   0.01907608  0.017375522         1525 
 4820000   0.47718153   -6.9070562    1103.9715  0.019086644  0.017370053         1519 
 4821000   0.47723903   -6.9123585    1103.5899  0.019076089  0.017364587         1558 
 4822000   0.47329431   -6.9229599    1102.6755   0.01905633  0.017359113         1519 
 4823000    0.4769016   -6.9278984    1101.6415  0.019034513  0.017353647         1553 
 4824000   0.48616163   -6.9344974    1103.1869  0.019057264  0.017348174         1527 
 4825000   0.46878141   -6.9243088      1101.39   0.01902228  0.017342711         1657 
 4826000    0.4802653   -6.9317239    1103.9097  0.019061848  0.017337244         1569 
 4827000   0.47021977   -6.9070199    1100.7321   0.01900304  0.017331785         1509 
 4828000   0.48492428   -6.9182381     1102.096  0.019022645  0.017326325         1520 
 4829000   0.48057195   -6.9346131     1101.926  0.019015773  0.017320871         1489 
 4830000   0.49014564   -6.9127745    1102.4745  0.019021299  0.017315412         1541 
 4831000   0.47817176   -6.9300133    1102.4758  0.019017385  0.017309961         1595 
 4832000   0.48219316   -6.9151107    1103.6359  0.019033456  0.017304509         1522 
 4833000   0.47649679   -6.9151985    1102.9974  0.019018508  0.017299057         1553 
 4834000   0.46564791   -6.9307573    1101.3959  0.018986966  0.017293611         1585 
 4835000   0.48370853   -6.9194729    1101.8853  0.018991473  0.017288166         1592 
 4836000   0.46548684   -6.9368715    1101.7168  0.018984643  0.017282722         1614 
 4837000   0.48049249   -6.9316693      1101.59  0.018978534  0.017277284         1568 
 4838000   0.47058459   -6.9124306    1104.9156  0.019031893  0.017271843         1513 
 4839000   0.48230232   -6.9303026    1102.2272  0.018981663  0.017266399         1640 
 4840000   0.47318698   -6.9324516    1100.7683  0.018952622  0.017260957         1671 
 4841000   0.47182589   -6.9407367    1103.4256   0.01899445  0.017255512         1672 
 4842000    0.4780118    -6.927136    1102.5151  0.018974858  0.017250073         1573 
 4843000   0.46764753   -6.9350264    1102.3596  0.018968263  0.017244635         1668 
 4844000    0.4861031   -6.9263305    1100.5787   0.01893371  0.017239201         1652 
 4845000   0.47330551   -6.9313991    1102.4915  0.018962702  0.017233769         1695 
 4846000   0.47190368   -6.9287406    1102.8052  0.018964184  0.017228338         1621 
 4847000   0.47741496   -6.9285076    1101.7494  0.018942119  0.017222916         1700 
 4848000   0.48313188   -6.9326179     1101.262  0.018929833  0.017217495         1607 
 4849000   0.46575788    -6.927165    1101.2062  0.018924971  0.017212075         1627 
 4850000   0.47885355   -6.9306895    1103.5923  0.018962068  0.017206659         1642 
 4851000   0.48454477   -6.9313197    1101.4395  0.018921177  0.017201242         1621 
 4852000   0.47942918   -6.9400517    1100.9051  0.018908099  0.017195827         1708 
 4853000   0.47704018   -6.9298581    1101.4822  0.018914112  0.017190408         1640 
 4854000   0.47599849   -6.9269212    1102.0725   0.01892035  0.017184997         1624 
 4855000   0.47331612    -6.926315    1101.9569  0.018914467  0.017179587         1606 
 4856000   0.46717786   -6.9216248    1101.9277  0.018910072  0.017174188         1592 
 4857000   0.46606158   -6.9034464    1102.3284  0.018913054  0.017168793         1538 
 4858000   0.48843136   -6.9366272    1101.5723   0.01889619  0.017163389         1670 
 4859000   0.47905183   -6.9366996    1101.6393   0.01889345  0.017157982         1652 
 4860000   0.48100204   -6.9399746    1102.6166   0.01890632  0.017152587         1572 
 4861000   0.46934802   -6.9163756    1103.1365  0.018911344  0.017147193         1550 
 4862000   0.46928461   -6.9446107    1101.7025  0.018882877  0.017141794         1624 
 4863000   0.46850062   -6.9436582    1101.0443  0.018867714  0.017136394         1676 
 4864000    0.4734311   -6.9261128    1098.9974  0.018828766  0.017131006         1576 
 4865000   0.46204071   -6.9145167    1101.9648  0.018875725  0.017125622         1604 
 4866000   0.47081111   -6.9261666    1100.9632  0.018854693  0.017120231         1623 
 4867000   0.47964479   -6.9206901    1101.0437  0.018852197  0.017114847         1622 
 4868000   0.47425339   -6.9218759    1102.9053  0.018880192  0.017109473         1602 
 4869000   0.47217833   -6.9290808    1102.0723  0.018862057  0.017104098         1550 
 4870000   0.46909506   -6.9308241    1102.5355   0.01886611  0.017098725         1577 
 4871000   0.46770738   -6.9456329    1101.1578  0.018838668  0.017093354         1617 
 4872000   0.47081041   -6.9318956    1101.4647  0.018840051   0.01708799         1550 
 4873000   0.47913538   -6.9375972    1100.4904  0.018819523  0.017082623         1628 
 4874000   0.46330876    -6.940901    1102.1091  0.018843338  0.017077257         1564 
 4875000   0.47168393   -6.9308215    1102.7801  0.018850942  0.017071889         1515 
 4876000   0.47536133   -6.9160074    1101.4409  0.018824187  0.017066527         1671 
 4877000   0.45972715   -6.9406706    1101.7234  0.018825155  0.017061168         1553 
 4878000   0.47573114   -6.9168357    1101.9493  0.018825155  0.017055807         1559 
 4879000   0.46548567   -6.9372826    1100.9977  0.018805045   0.01705045         1622 
 4880000    0.4598335   -6.9225135    1102.1459  0.018820797  0.017045095         1514 
 4881000   0.47765089   -6.9251209    1102.2715  0.018819086  0.017039746         1607 
 4882000    0.4721992   -6.9255732    1100.0205  0.018776807  0.017034397         1603 
 4883000   0.47260433   -6.9525285    1102.1256  0.018808888  0.017029045         1621 
 4884000   0.47224514     -6.93664    1101.1988  0.018789223  0.017023699         1570 
 4885000    0.4647485    -6.918894    1101.6718  0.018793446  0.017018354         1532 
 4886000    0.4665176   -6.9360913    1104.2521  0.018833609  0.017013004         1532 
 4887000    0.4806396   -6.9460658    1101.6779  0.018785858   0.01700766         1642 
 4888000   0.46833633   -6.9292042    1102.3538  0.018793538  0.017002317         1570 
 4889000    0.4623215    -6.928687      1100.37   0.01875588  0.016996981         1560 
 4890000   0.46150148   -6.9445021    1100.0472  0.018746544  0.016991644         1594 
 4891000   0.46565058   -6.9459743     1101.117  0.018760938  0.016986305         1528 
 4892000   0.47998318   -6.9253241    1101.4992  0.018763613  0.016980972         1597 
 4893000   0.46789601    -6.950822    1101.0458  0.018752058  0.016975646         1674 
 4894000   0.45642109   -6.9470181    1100.4975   0.01873889  0.016970322         1621 
 4895000   0.46974244   -6.9352599    1101.2796  0.018748376  0.016964999         1537 
 4896000   0.46276303   -6.9388751    1102.1294  0.018759011   0.01695968         1584 
 4897000   0.46760431   -6.9479891    1099.8089  0.018715692  0.016954357         1644 
 4898000   0.47370976   -6.9338402    1101.5018  0.018740673   0.01694903         1586 
 4899000   0.47342526   -6.9301383    1100.6827  0.018722914  0.016943708         1613 
 4900000   0.47214457   -6.9280367    1102.4891  0.018749815   0.01693839         1596 
 4901000   0.47916371   -6.9335939    1100.8724    0.0187185  0.016933076         1590 
 4902000   0.45316331   -6.9385878    1101.4547  0.018724581  0.016927762         1602 
 4903000   0.46694559   -6.9388838    1102.0159  0.018730299  0.016922443         1644 
 4904000   0.48078029   -6.9366871    1102.2581  0.018730596  0.016917131         1661 
 4905000   0.47241828   -6.9424054    1100.2461  0.018692594  0.016911823         1670 
 4906000   0.48030821   -6.9404336    1101.0762  0.018702884  0.016906514         1647 
 4907000   0.46826442   -6.9466955    1100.7278  0.018693157  0.016901202         1641 
 4908000   0.46569733     -6.91823    1103.5514  0.018737289  0.016895893         1620 
 4909000   0.46266339    -6.944007    1100.4822  0.018681371  0.016890591         1623 
 4910000   0.46337557   -6.9507195    1101.0078  0.018686486  0.016885293         1686 
 4911000   0.47011458   -6.9367297     1101.231  0.018686468  0.016879995         1562 
 4912000   0.47362864   -6.9388307    1102.7221  0.018707961  0.016874701         1611 
 4913000   0.46546873   -6.9382745    1102.0128  0.018692122  0.016869412         1674 
 4914000   0.46936325   -6.9502294    1101.0514  0.018672015  0.016864115         1667 
 4915000   0.47467034   -6.9361533    1101.4045  0.018674202  0.016858823         1774 
 4916000   0.47316618     -6.94458    1101.1923  0.018666807  0.016853537         1601 
 4917000   0.47011623   -6.9487092     1100.879    0.0186577  0.016848251         1677 
 4918000   0.46678304   -6.9427452    1099.7523  0.018634817  0.016842962         1721 
 4919000   0.46252674   -6.9345138    1099.9127  0.018633745  0.016837677         1602 
 4920000      0.46062   -6.9420271    1101.1431  0.018650797  0.016832399         1674 
 4921000   0.46528392   -6.9479419    1101.2464  0.018648757  0.016827115         1686 
 4922000   0.46701991   -6.9415805    1100.5609  0.018633362  0.016821839         1689 
 4923000   0.46827662   -6.9405786    1100.8181  0.018633931  0.016816563         1727 
 4924000   0.46282534   -6.9444069    1100.3422  0.018622093  0.016811287         1665 
 4925000   0.46598489   -6.9313192    1100.3008   0.01861761  0.016806016         1753 
 4926000   0.45406547   -6.9600559    1101.5113   0.01863431  0.016800739         1683 
 4927000   0.46925882   -6.9642149    1098.8914  0.018586215  0.016795467         1650 
 4928000   0.45146393   -6.9482941    1100.6522  0.018612219  0.016790195         1686 
 4929000   0.47112665     -6.95909    1100.1209  0.018599461  0.016784924         1697 
 4930000   0.45947265   -6.9543695    1100.0645  0.018594734  0.016779653         1528 
 4931000   0.46786354   -6.9737281     1098.828  0.018570068  0.016774383         1715 
 4932000    0.4613167   -6.9378967    1100.3958  0.018592792  0.016769116         1519 
 4933000   0.47443728   -6.9367395    1100.9281  0.018598015  0.016763851         1577 
 4934000   0.46213645   -6.9752358    1099.0768  0.018562978  0.016758588         1688 
 4935000   0.47488051   -6.9480444    1101.7886  0.018605009  0.016753324         1636 
 4936000   0.45509656   -6.9426716    1101.2014  0.018591326  0.016748066         1731 
 4937000   0.46697659   -6.9660861    1099.0468  0.018551192  0.016742807         1726 
 4938000   0.45965115   -6.9508613     1099.921  0.018562187  0.016737556         1760 
 4939000   0.45415454   -6.9491919    1100.3901  0.018566344  0.016732308         1758 
 4940000   0.46313207   -6.9493061     1099.984  0.018555735  0.016727052         1749 
 4941000   0.45750638   -6.9475908    1102.4897  0.018594241    0.0167218         1738 
 4942000   0.46845849   -6.9553877    1099.4102  0.018538551  0.016716552         1687 
 4943000   0.46067101   -6.9413099      1099.08  0.018529233  0.016711311         1714 
 4944000   0.46976373   -6.9614946    1100.2526   0.01854525  0.016706068         1776 
 4945000   0.45695531   -6.9570832     1099.903  0.018535608  0.016700828         1759 
 4946000   0.45728791   -6.9473252    1099.5513  0.018525935  0.016695588         1703 
 4947000   0.46152224     -6.94668    1101.5955  0.018556626  0.016690348         1705 
 4948000   0.46354284    -6.953583    1099.2176  0.018512827  0.016685108         1691 
 4949000    0.4650187   -6.9628421    1098.6879  0.018500166   0.01667987         1748 
 4950000   0.45340511   -6.9526925    1100.3963  0.018525191   0.01667463         1725 
 4951000   0.46011515   -6.9605535     1098.089  0.018482613  0.016669396         1741 
 4952000   0.46014834   -6.9484154    1101.7862  0.018541098  0.016664162         1679 
 4953000   0.45056548   -6.9530065    1098.9665  0.018489913  0.016658929         1645 
 4954000    0.4591692   -6.9396844     1099.404  0.018493541  0.016653694         1726 
 4955000   0.45790955   -6.9601295    1100.6989  0.018511585  0.016648463         1781 
 4956000   0.46322277   -6.9612217    1098.5899  0.018472389  0.016643234         1797 
 4957000   0.46435994   -6.9670287     1099.348  0.018481407  0.016638007         1843 
 4958000   0.46270968   -6.9469113     1097.501  0.018446636  0.016632788         1725 
 4959000   0.45370455   -6.9710412    1100.4804  0.018492982  0.016627568         1786 
 4960000   0.45343269   -6.9648747    1099.8215  0.018478183  0.016622347         1736 
 4961000   0.44964251    -6.962747    1098.7683  0.018456768  0.016617133         1698 
 4962000   0.46511068   -6.9737309    1100.1387  0.018476064  0.016611918         1748 
 4963000   0.46101681   -6.9540627    1099.0476   0.01845402  0.016606707         1765 
 4964000   0.46660391   -6.9517085    1097.0816  0.018417298  0.016601496         1746 
 4965000    0.4597635   -6.9671373    1099.9452  0.018461652  0.016596284         1758 
 4966000   0.45524039   -6.9541885    1100.1359  0.018461135  0.016591083         1697 
 4967000   0.45126816   -6.9358317    1100.0267  0.018455585  0.016585879         1660 
 4968000    0.4518036   -6.9743027     1100.198  0.018454744   0.01658068         1754 
 4969000   0.44795951   -6.9762492    1098.3534  0.018420095  0.016575474         1763 
 4970000   0.45344753   -6.9585037    1099.3453  0.018433021  0.016570271         1687 
 4971000   0.45423052   -6.9632001    1100.2028  0.018443687  0.016565074         1784 
 4972000   0.46336824   -6.9607153     1099.728  0.018432019  0.016559876         1800 
 4973000   0.45634061   -6.9587278    1098.1591  0.018402023  0.016554682         1764 
 4974000   0.45696084   -6.9471284    1100.1193  0.018431163  0.016549485         1655 
 4975000   0.46105052    -6.969245    1098.6534  0.018402905  0.016544294         1654 
 4976000   0.46661146   -6.9636553    1097.6972  0.018383193  0.016539104         1756 
 4977000   0.46007437    -6.973687    1099.3007  0.018406348  0.016533914         1769 
 4978000   0.45628924   -6.9735471    1100.9458  0.018430189  0.016528725         1740 
 4979000   0.44445004   -6.9480838    1098.6035  0.018387284  0.016523546         1734 
 4980000   0.46455264   -6.9771921    1097.8477  0.018370945  0.016518367         1711 
 4981000   0.46859463   -6.9642921    1099.8117  0.018400115  0.016513187         1672 
 4982000   0.45390319   -6.9790929    1097.2433  0.018353461  0.016508014         1696 
 4983000   0.44317229   -6.9534342    1097.8239  0.018359487  0.016502838         1760 
 4984000   0.44816924   -6.9667569    1098.8358  0.018372722  0.016497664         1685 
 4985000   0.44041788   -6.9674956    1098.5435   0.01836415  0.016492496         1760 
 4986000   0.45812993   -6.9636416    1098.7788    0.0183644  0.016487327         1691 
 4987000   0.46440122   -6.9578388    1098.8958  0.018362673  0.016482161         1723 
 4988000    0.4571251   -6.9748975    1098.6016  0.018354076  0.016476992         1772 
 4989000   0.45659687   -6.9618046    1098.4171  0.018347315  0.016471824         1793 
 4990000   0.45353281    -6.974968    1099.8589  0.018367717   0.01646666         1719 
 4991000   0.46102494   -6.9574369    1100.0934  0.018367952  0.016461497         1714 
 4992000   0.45512316   -6.9731772    1100.3708  0.018368904  0.016456341         1673 
 4993000   0.44908841   -6.9561574    1098.3279  0.018331128  0.016451182         1646 
 4994000   0.44835608   -6.9702447    1099.5896  0.018348512  0.016446031         1702 
 4995000   0.45560898   -6.9696996    1099.2323  0.018338878  0.016440873         1711 
 4996000   0.44066376    -6.971443    1098.1216   0.01831668  0.016435716         1781 
 4997000   0.45236161   -6.9820566    1098.6243  0.018321398  0.016430559         1684 
 4998000   0.45079748   -6.9808617    1096.6421  0.018284682   0.01642541         1735 
 4999000   0.45363947   -6.9555543    1097.9123  0.018302198   0.01642026         1666 
 5000000   0.44619609   -6.9637952    1098.4631  0.018307719  0.016415115         1675 
 5001000   0.45365332   -6.9681152    1099.5749  0.018322583  0.016409967         1672 
 5002000   0.45680734   -6.9810989    1098.8985  0.018307651  0.016404826         1698 
 5003000   0.45270234   -6.9720316    1098.5333   0.01829791  0.016399684         1705 
 5004000   0.44384081   -6.9649177    1097.9756  0.018284965  0.016394551         1703 
 5005000   0.44783497   -6.9692444    1098.3812  0.018288065  0.016389415         1737 
 5006000   0.44709769   -6.9724183    1097.7867  0.018274516  0.016384278         1714 
 5007000   0.45508258   -6.9696794    1097.6674   0.01826888  0.016379144         1727 
 5008000   0.44944084   -6.9740839    1099.3668   0.01829351  0.016374018         1814 
 5009000   0.44725711    -6.974757    1100.2238  0.018304116   0.01636889         1630 
 5010000   0.45059208   -6.9705347    1099.8777  0.018294706  0.016363767         1795 
 5011000   0.44549473   -6.9732637    1097.7401  0.018255506  0.016358637         1754 
 5012000   0.44559784   -6.9777346    1100.2658  0.018293857  0.016353515         1723 
Loop time of 13126.6 on 48 procs for 5000000 steps with 4000 atoms

Performance: 65820.383 tau/day, 380.905 timesteps/s
99.4% CPU use with 48 MPI tasks x no OpenMP threads

MPI task timing breakdown:
Section |  min time  |  avg time  |  max time  |%varavg| %total
---------------------------------------------------------------
Pair    | 907.97     | 1042.8     | 1127.3     | 133.4 |  7.94
Neigh   | 89.085     | 93         | 97.508     |  23.3 |  0.71
Comm    | 822.85     | 914.99     | 1045.8     | 142.1 |  6.97
Output  | 15.913     | 15.917     | 16.014     |   0.4 |  0.12
Modify  | 10906      | 10934      | 10984      |  18.6 | 83.30
Other   |            | 125.6      |            |       |  0.96

Nlocal:        83.3333 ave          89 max          79 min
Histogram: 4 5 2 13 2 2 8 6 3 3
Nghost:        2398.96 ave        2413 max        2384 min
Histogram: 2 1 5 4 11 9 7 3 4 2
Neighs:        16601.5 ave       19332 max       14669 min
Histogram: 9 3 6 6 7 4 3 5 2 3
FullNghs:      33201.7 ave       35532 max       31248 min
Histogram: 4 5 7 8 2 6 7 4 3 2

Total # of neighbors = 1593681
Ave neighs/atom = 398.42025
Neighbor list builds = 267926
Dangerous builds = 2

#clear
#
#next RN
#
#jump SELF
Total wall time: 3:38:50
