
units lj                  # Use reduced LJ style units
atom_style atomic         # Uncharged point particles
atom_modify map hash      # Needed for indexing of clusters etc
                          # Used to be able to find where atoms are in relation to each other.

lattice fcc 1.0 spacing 1 1 1
Lattice spacing in x,y,z = 1.5874011 1.5874011 1.5874011
region box block 0 10 0 10 0 10 units lattice
create_box 2 box
Created orthogonal box = (0.0000000 0.0000000 0.0000000) to (15.874011 15.874011 15.874011)
  3 by 4 by 4 MPI processor grid
create_atoms 1 box
Created 4000 atoms
  using lattice units in orthogonal box = (0.0000000 0.0000000 0.0000000) to (15.874011 15.874011 15.874011)
  create_atoms CPU = 0.002 seconds
set type 1 type/fraction 2 0.64 78393
Setting atom values ...
  2566 settings made for type/fraction
mass 1 1.0
mass 2 1.0
pair_style lj/cut  3.5
pair_modify tail  yes
pair_coeff 1  1  1.0  1.0   # Intearaction between 1 and 1 set with epsilon = 1 and sigma = 1
pair_coeff 1  2  1.5  0.8
pair_coeff 2  2  0.5  0.88

write_data data.0
System init for write_data ...
Neighbor list info ...
  update every 1 steps, delay 10 steps, check yes
  max neighbors/atom: 2000, page size: 100000
  master list distance cutoff = 3.8
  ghost atom cutoff = 3.8
  binsize = 1.9, bins = 9 9 9
  1 neighbor lists, perpetual/occasional/extra = 1 0 0
  (1) pair lj/cut, perpetual
      attributes: half, newton on
      pair build: half/bin/atomonly/newton
      stencil: half/bin/3d
      bin: standard
WARNING: Not all mixed pair coeffs generated from mixing. Use write_data with 'pair ij' option to store all pair coeffs. (../write_data.cpp:312)


#############################
#   M E L T   S Y S T E M   #
#############################

velocity all create 2.4 5833274 mom yes dist gaussian # Assign velocities
                                                    # Temperature 2.4, random number seed, zero linear momentum
                                                                                # Gaussian distribution

timestep 0.002   # simulation timestep
thermo 1000       # output thermodynamic data every 1000 steps bf 100

# Define a fix  in this case with index 1 applied to all
# particles in the simulation. This fix is for simulations
# in the anisotropic NPT ensemble. Note that we use the MTK
# correction.
fix 1 all npt temp 2.4 2.4 0.1 iso 5.68 5.68 0.5 mtk yes tchain 5 pchain 5 # Use NPT ensemble
                                                                         # Set temperature and pressure and damping
                                                                         # Numbers of thermostats in chain and in barostat
run 10000          # run for 10000 steps
Per MPI rank memory allocation (min/avg/max) = 3.642 | 3.644 | 3.648 Mbytes
Step Temp E_pair E_mol TotEng Press Volume 
       0          2.4   -4.5154638            0  -0.91636384   -3.9779215         4000 
    1000     2.365619   -4.2597803            0  -0.71223889    5.4862039    3621.4439 
    2000    2.4250569    -4.257551            0  -0.62087496    5.4645136    3627.4536 
    3000     2.431905   -4.2729978            0  -0.62605219    5.9212726    3584.1027 
    4000    2.3896452   -4.2391316            0  -0.65555986    5.6805095    3614.6592 
    5000    2.4275152   -4.2807921            0  -0.64042959    5.8909918    3581.3297 
    6000    2.3508425   -4.2265533            0  -0.70117117    5.5688778    3626.6971 
    7000    2.3952702   -4.2435713            0  -0.65156415    5.9473392     3595.791 
    8000    2.4085158   -4.1998048            0  -0.58793429    5.6706271    3641.7701 
    9000     2.360682   -4.2642801            0  -0.72414235    5.5783185    3612.6745 
   10000    2.4111143   -4.2414816            0  -0.62571431    5.5874216    3630.4145 
Loop time of 2.64673 on 48 procs for 10000 steps with 4000 atoms

Performance: 652881.444 tau/day, 3778.249 timesteps/s
99.7% CPU use with 48 MPI tasks x no OpenMP threads

MPI task timing breakdown:
Section |  min time  |  avg time  |  max time  |%varavg| %total
---------------------------------------------------------------
Pair    | 1.1989     | 1.2705     | 1.3824     |   2.8 | 48.00
Neigh   | 0.21954    | 0.22401    | 0.23492    |   0.7 |  8.46
Comm    | 0.80871    | 0.88987    | 0.96506    |   3.3 | 33.62
Output  | 0.00024108 | 0.00024473 | 0.00030245 |   0.0 |  0.01
Modify  | 0.19798    | 0.24674    | 0.28067    |   4.9 |  9.32
Other   |            | 0.01536    |            |       |  0.58

Nlocal:        83.3333 ave          92 max          75 min
Histogram: 3 5 4 6 8 8 1 6 4 3
Nghost:        1751.19 ave        1777 max        1724 min
Histogram: 4 5 2 5 5 8 7 5 4 3
Neighs:        10503.9 ave       11919 max        9057 min
Histogram: 2 2 3 11 9 7 4 4 3 3

Total # of neighbors = 504185
Ave neighs/atom = 126.04625
Neighbor list builds = 908
Dangerous builds = 215

# Equilibrate just above the melting temperature to avoid step fn in T

fix 1 all npt temp 1.25 1.25 0.1 iso 5.68 5.68 0.5 mtk yes tchain 5 pchain 5
run 2000
Per MPI rank memory allocation (min/avg/max) = 3.644 | 3.646 | 3.650 Mbytes
Step Temp E_pair E_mol TotEng Press Volume 
   10000    2.4111143   -4.2414816            0  -0.62571431    5.5874216    3630.4145 
   11000    1.2545402   -6.2018546            0   -4.3205147    5.6559544    2772.0487 
   12000    1.2533009   -6.2793969            0   -4.3999156    5.5341636    2753.2836 
Loop time of 0.79719 on 48 procs for 2000 steps with 4000 atoms

Performance: 433522.972 tau/day, 2508.813 timesteps/s
99.3% CPU use with 48 MPI tasks x no OpenMP threads

MPI task timing breakdown:
Section |  min time  |  avg time  |  max time  |%varavg| %total
---------------------------------------------------------------
Pair    | 0.30214    | 0.32481    | 0.39565    |   2.7 | 40.74
Neigh   | 0.040885   | 0.04359    | 0.048145   |   0.6 |  5.47
Comm    | 0.24102    | 0.33199    | 0.37804    |   4.1 | 41.64
Output  | 5.5253e-05 | 5.6571e-05 | 7.3118e-05 |   0.0 |  0.01
Modify  | 0.052176   | 0.091886   | 0.10808    |   6.3 | 11.53
Other   |            | 0.004858   |            |       |  0.61

Nlocal:        83.3333 ave          90 max          77 min
Histogram: 3 1 3 9 11 7 10 0 1 3
Nghost:        2117.77 ave        2141 max        2100 min
Histogram: 5 4 6 9 5 7 4 4 3 1
Neighs:        13888.3 ave       15481 max       12519 min
Histogram: 2 2 6 7 11 10 4 3 2 1

Total # of neighbors = 666638
Ave neighs/atom = 166.65950
Neighbor list builds = 143
Dangerous builds = 17

#############################
# L I N E A R  Q U E N C H  #
#############################

# Define solid atoms. This closely follows ten Wolde  Ruiz-Montero and Frenkel  Faraday Discuss  1996  104  93-110
# Compute components of the per-atom q6 vector
compute q6 all orientorder/atom degrees 1 6 components 6 nnn NULL cutoff 1.3 # compute the Q6 parameter.
                                                                             # Use all neighbours within 1.3 unit cell.

# get number of connections
compute coord_number all coord/atom orientorder q6 0.5

# An atom is solid if it has 8 or more connections (of a possible 14)
variable is_solid atom c_coord_number>=8
group solid dynamic all var is_solid    # Must be dynamic to update
dynamic group solid defined

# do clustering
compute cluster solid cluster/atom 1.3 # Create a cluster where all atoms within are solid and max 1.3 units from another member

# define chunks one chunk per cluster
compute clus_chunks solid chunk/atom c_cluster nchunk every compress yes  # Says which atoms are in which chunk

# count the size of each chunk
compute size_chunks solid property/chunk clus_chunks count


# Find the maximum entry in the vector of chunk sizes
variable max_n equal max(c_size_chunks)


# Thermo style which includes this variable
# thermo_style custom step temp pe vol v_max_n

thermo ${N}  # Print the thermo information every 100 steps
thermo 1000  

# Reset the npt fix at a lower temperature (below freezing)
fix 1  all npt temp  ${temp} ${temp}  0.1  iso  5.68  5.68  0.5  mtk yes tchain  5  pchain  5
fix 1  all npt temp  0.45 ${temp}  0.1  iso  5.68  5.68  0.5  mtk yes tchain  5  pchain  5
fix 1  all npt temp  0.45 0.45  0.1  iso  5.68  5.68  0.5  mtk yes tchain  5  pchain  5

dump dmp2 all dcd ${N} traj.dcd
dump dmp2 all dcd 1000 traj.dcd


compute msd all msd com yes
variable twopoint equal c_msd[4]/6/(step*dt+1.0e-6)
fix 9 all vector 10 c_msd[4]
variable fit equal slope(f_9)/6/(10*dt)
thermo_style custom step temp pe c_msd[4] v_twopoint v_fit v_max_n

fix 1 all npt temp 1.25 ${temp} 0.1 iso 5.68 5.68 0.5 mtk yes tchain 5 pchain 5
fix 1 all npt temp 1.25 0.45 0.1 iso 5.68 5.68 0.5 mtk yes tchain 5 pchain 5
run 2000000 # 5000000  # Run for this many steps
Neighbor list info ...
  update every 1 steps, delay 10 steps, check yes
  max neighbors/atom: 2000, page size: 100000
  master list distance cutoff = 3.8
  ghost atom cutoff = 3.8
  binsize = 1.9, bins = 8 8 8
  4 neighbor lists, perpetual/occasional/extra = 1 3 0
  (1) pair lj/cut, perpetual
      attributes: half, newton on
      pair build: half/bin/atomonly/newton
      stencil: half/bin/3d
      bin: standard
  (2) compute orientorder/atom, occasional
      attributes: full, newton on
      pair build: full/bin/atomonly
      stencil: full/bin/3d
      bin: standard
  (3) compute coord/atom, occasional
      attributes: full, newton on
      pair build: full/bin/atomonly
      stencil: full/bin/3d
      bin: standard
  (4) compute cluster/atom, occasional
      attributes: full, newton on
      pair build: full/bin/atomonly
      stencil: full/bin/3d
      bin: standard
Per MPI rank memory allocation (min/avg/max) = 9.845 | 9.852 | 9.856 Mbytes
Step Temp PotEng c_msd[4] v_twopoint v_fit v_max_n 
   12000    1.2533009   -6.2793969 8.444756e-31 5.8644136e-33 8.3333333e+20            1 
   13000    1.2582734   -6.2670364   0.53066813 0.0034017187  0.044264492            4 
   14000    1.2376258   -6.2931509    1.0289495  0.006124699  0.042257003            3 
   15000    1.2373015   -6.3173728    1.5781516 0.0087675087  0.042956192            2 
   16000    1.2425071   -6.3100141    2.0812088  0.010839629  0.043646245            1 
   17000    1.2562407   -6.3071288    2.5800525  0.012647316  0.043282241            2 
   18000    1.2361089   -6.3025865    3.0415624  0.014081307  0.042650319            3 
   19000    1.2438318   -6.3239876    3.5676587  0.015647626  0.042277203            3 
   20000    1.2494156   -6.3042037    4.0244572  0.016768571  0.042003583            2 
   21000    1.2258247     -6.30983    4.5105606  0.017899049  0.041809107            2 
   22000    1.2703445   -6.3118094    5.0291205  0.019049698  0.041709405            2 
   23000    1.2488078   -6.3219112    5.5769943  0.020206501  0.041656937            2 
   24000    1.2479062   -6.2546168    6.1079356  0.021208109  0.041721822            3 
   25000    1.2456623   -6.3128575    6.5611276  0.021870425  0.041837543            7 
   26000    1.2083976    -6.322563    7.0882215  0.022718658  0.041864939            2 
   27000    1.2570572   -6.3485774    7.5124813   0.02318667  0.041807892            2 
   28000    1.2277255   -6.3346488    8.0209239  0.023871797  0.041731644            3 
   29000     1.255897    -6.290936     8.558464  0.024593287  0.041683198            3 
   30000    1.2279251   -6.3228378    9.0580719   0.02516131  0.041684909            5 
   31000    1.2679616   -6.3460658    9.5580456   0.02569367  0.041689162            1 
   32000    1.2811743   -6.3408316    9.9152319  0.025820916  0.041575907            2 
   33000    1.2210458   -6.3402119    10.384442  0.026223337  0.041394288            3 
   34000    1.2464333   -6.3146057    10.900782  0.026717602  0.041276963            2 
   35000    1.2520738   -6.3375703    11.217242  0.026707719  0.041087751            2 
   36000    1.2306662   -6.3387769    11.634657  0.026932077  0.040855601            4 
   37000    1.2353502   -6.3239385    12.117225  0.027291048  0.040671887            1 
   38000    1.2314989   -6.3293466     12.55943   0.02754261  0.040474838            2 
   39000     1.260918   -6.3466435    12.955045   0.02768172   0.04030233            4 
   40000    1.2452184   -6.3289895    13.496403  0.028117505  0.040166378            3 
   41000    1.2275371   -6.3281058    13.964355  0.028382834   0.04002802            2 
   42000    1.2228406   -6.3607591    14.262831  0.028299268  0.039869102            2 
   43000    1.2228318   -6.2934684     14.79646   0.02867531  0.039716438            1 
   44000    1.2563046   -6.3133809    15.236878  0.028857724  0.039581871            1 
   45000    1.2407049    -6.342748    15.748246  0.029163418  0.039486034            1 
   46000    1.2603769   -6.3286479    16.163717  0.029282095  0.039417844            3 
   47000     1.235745   -6.3365504    16.645105  0.029512596  0.039352255            6 
   48000    1.2238346   -6.3490227    17.143826  0.029763587  0.039300908            3 
   49000    1.2766808   -6.3653926     17.55128  0.029849115  0.039252102            2 
   50000    1.2193446   -6.3703355    18.040002   0.03006667  0.039193216            2 
   51000    1.2376526   -6.3909125     18.43786  0.030127222  0.039133727            1 
   52000    1.2492749   -6.3913768    18.866452  0.030234699  0.039105431            4 
   53000    1.2254208   -6.3657555    19.410251  0.030519262  0.039060706            2 
   54000    1.2220541   -6.3809307    19.835172  0.030609834  0.039017028            5 
   55000    1.1878123   -6.3152042    20.390124  0.030894127  0.038980494            4 
   56000    1.2318334   -6.3302843    20.862532  0.031045435  0.038956558            1 
   57000    1.2195591   -6.3208118    21.416938  0.031311313  0.038950938            1 
   58000    1.2334699   -6.3158982    21.859876  0.031407867  0.038955004            1 
   59000    1.2267705   -6.3568256    22.321665  0.031527776    0.0389669            1 
   60000    1.2066791    -6.413548    22.785552    0.0316466  0.038970581            2 
   61000    1.2118151   -6.3623335    23.269898  0.031789478  0.038966364            2 
   62000    1.2176333   -6.3502394    23.681171  0.031829531  0.038961522            2 
   63000    1.2150381   -6.3620166    24.166117  0.031965763  0.038958293            8 
   64000    1.2242605   -6.3537574    24.754666  0.032232638   0.03896756            2 
   65000    1.2337636   -6.3593443     25.26766  0.032394436  0.038989544            4 
   66000    1.2324951   -6.3879591    25.761711  0.032527412  0.039015578            3 
   67000    1.2469012   -6.3655315    26.296847  0.032707521  0.039036128            4 
   68000    1.2172061   -6.3311455      26.8702  0.032929166  0.039076658            5 
   69000     1.215019   -6.3788344    27.287109  0.032955445  0.039121388            2 
   70000    1.2041931     -6.33931    27.819025  0.033117887  0.039158133            2 
   71000    1.2358549   -6.3553438    28.245289  0.033151748  0.039186201            3 
   72000    1.2137034   -6.3377326    28.697123  0.033214262  0.039211855            1 
   73000    1.2392359   -6.4061316    29.234853  0.033373119  0.039247686            5 
   74000     1.245313   -6.3554272    29.696978  0.033442543  0.039277646            1 
   75000     1.234256   -6.3903886    30.109314  0.033454793  0.039296411            2 
   76000    1.2407721   -6.3858481    30.726874  0.033691748   0.03932601            8 
   77000    1.2042012   -6.3813419      31.2782  0.033850865  0.039363574            2 
   78000    1.2488761   -6.3468117    32.034114  0.034224481  0.039415183            7 
   79000    1.2597396   -6.4039801    32.466774  0.034247652  0.039475344            2 
   80000    1.2506876   -6.3369726    33.382675   0.03477362  0.039550242            2 
   81000    1.1940797    -6.391721    33.593837   0.03456156  0.039616479            4 
   82000    1.2144296   -6.3652019    34.037402  0.034590855    0.0396771            1 
   83000    1.2111593     -6.40452    34.494489  0.034633021  0.039727871            3 
   84000    1.2037101    -6.411126    34.674703  0.034399507  0.039770506            2 
   85000     1.206845   -6.3942664    35.251688  0.034560478  0.039790156            5 
   86000    1.2098942   -6.3898141    35.806614  0.034696331  0.039813731            4 
   87000    1.2040725   -6.3374876    36.257778  0.034729672  0.039842369            2 
   88000    1.1989755   -6.3092275    36.627715  0.034685336  0.039855256            2 
   89000    1.2150211    -6.451027    36.991042  0.034635807  0.039864984            2 
   90000    1.2333681   -6.3742585    37.620346  0.034833653    0.0398745            6 
   91000    1.2032786     -6.35731    38.084537  0.034875949  0.039888706            3 
   92000    1.2261545   -6.3669065    38.567245  0.034934099  0.039898328            2 
   93000    1.2407641   -6.3590178    39.004691   0.03495044  0.039907378            4 
   94000     1.191646   -6.3536248    39.372773   0.03490494  0.039912678            2 
   95000     1.205524   -6.3949762    39.856372   0.03496173  0.039909616            1 
   96000    1.2324908   -6.3762329    40.435663  0.035100402  0.039908286            2 
   97000    1.2118491    -6.372498    40.845566  0.035090692  0.039906063            3 
   98000    1.2205883   -6.4208423    41.290921  0.035111327  0.039900189            4 
   99000     1.211752   -6.3907719    41.724357  0.035121513  0.039896719            1 
  100000     1.215452   -6.4100847    42.049715  0.035041429  0.039894536            2 
  101000    1.2245514   -6.4258076    42.467152  0.035038904  0.039884969            2 
  102000    1.2124973   -6.3985885    42.995856  0.035127333  0.039869797            2 
  103000     1.229213   -6.3913122    43.550173  0.035234767  0.039853514            2 
  104000    1.2202979   -6.3764043    43.986342  0.035245466  0.039838626            6 
  105000    1.2142726   -6.4186365    44.229271  0.035102596  0.039821538            2 
  106000     1.210747   -6.3505172    44.874293  0.035278532   0.03980208            2 
  107000    1.2110392   -6.4092689    45.183284  0.035189474  0.039784663            5 
  108000    1.2200571    -6.450662    45.549493  0.035146214  0.039768886            2 
  109000    1.2197854   -6.4451158    46.075659  0.035226039  0.039756309            3 
  110000    1.2290755    -6.397989    46.796339  0.035451772  0.039744338            3 
  111000    1.1962978    -6.421192    47.183636   0.03542315  0.039733673            4 
  112000    1.1932641   -6.3763387    47.606672  0.035421631  0.039719263            3 
  113000     1.220401   -6.3999813    47.854671  0.035291055  0.039704761            2 
  114000    1.2049866   -6.3982028    48.367439  0.035356315  0.039692761            2 
  115000    1.1879171   -6.4039734    48.899373  0.035434328  0.039675347            3 
  116000    1.2212585   -6.4240425    49.389595  0.035481031  0.039661004            4 
  117000    1.2178525   -6.3962284    49.804578  0.035473346   0.03964967            3 
  118000    1.2014588    -6.400857    50.198881  0.035451187  0.039631818            2 
  119000    1.2205105   -6.4064143    50.699354  0.035503749   0.03961261            4 
  120000    1.2171192   -6.3852836    50.980744  0.035403294  0.039591324            3 
  121000    1.2232384   -6.4509874    51.266243   0.03530733  0.039568097            2 
  122000    1.2101396   -6.4025838    52.189567  0.035648611  0.039549245            3 
  123000    1.2144316   -6.4370835    52.550615  0.035603398   0.03953266            3 
  124000     1.182264   -6.3982425    52.946016     0.035582   0.03951619            2 
  125000    1.2086482   -6.4109228    53.557591   0.03570506  0.039503898            2 
  126000    1.1852625   -6.4222703     53.92081  0.035661911  0.039492984            4 
  127000    1.2229686   -6.4771778    54.171088  0.035545333  0.039478142            3 
  128000    1.2093431   -6.4358938     54.82962  0.035696367  0.039465108            1 
  129000    1.1975164   -6.4135047    55.334368  0.035745716  0.039448514            2 
  130000    1.2218886   -6.4397238    55.926713  0.035850457  0.039436121            2 
  131000    1.1737952    -6.411655    56.317143  0.035825154  0.039427853            1 
  132000    1.2204798   -6.4811715    56.552017  0.035702031  0.039415326            2 
  133000    1.2220411   -6.4394637    56.766413  0.035567928  0.039396979            3 
  134000    1.1894538   -6.4220345    57.210415  0.035578616  0.039374328            3 
  135000    1.2111009   -6.3852025    57.751466  0.035649053  0.039349897            7 
  136000    1.1974165   -6.4552781    57.816176  0.035426578  0.039321322            2 
  137000    1.1978075   -6.4129756    58.294629   0.03545902  0.039291968            3 
  138000     1.183641   -6.4078884    58.792141  0.035502501  0.039263403            2 
  139000    1.2061012   -6.4045104    59.085763  0.035423119  0.039232075            1 
  140000    1.2057818   -6.4189832    59.582575  0.035465818  0.039199203            3 
  141000    1.1960063   -6.4107964    60.079107  0.035507746  0.039164978            3 
  142000    1.2046431    -6.448278    60.417546  0.035456306  0.039134208            1 
  143000    1.1973511   -6.4759977    61.052412  0.035578329  0.039103511            2 
  144000    1.1946711   -6.4393116    61.317205  0.035484494  0.039078484            4 
  145000    1.2253443   -6.4554917    61.282225  0.035219669  0.039046343            6 
  146000    1.1806583   -6.4021604    62.134813  0.035465076  0.039012907            2 
  147000    1.1787074   -6.4451369    62.227021  0.035276089  0.038977825            1 
  148000    1.1975573   -6.4753683    62.918409  0.035427032  0.038939071            2 
  149000    1.1954939   -6.5112454    62.724431  0.035080778    0.0388989            3 
  150000    1.1914294   -6.4551857     63.30074  0.035167078  0.038855265            4 
  151000    1.1764937   -6.4108422    63.889411  0.035259057  0.038814084            3 
  152000    1.2256269    -6.448939    64.151206  0.035170617  0.038773325            6 
  153000    1.2004179   -6.4627241    64.376649  0.035063534  0.038726418            2 
  154000    1.1831892   -6.4546463    64.879593  0.035108005  0.038683999            2 
  155000    1.1937533   -6.4554897    65.266695  0.035089621  0.038642869            2 
  156000    1.1988958   -6.4728728    65.588637  0.035036665  0.038598568            3 
  157000    1.1831003   -6.4413101    66.049413  0.035058075  0.038554132            2 
  158000    1.2131886   -6.4756261    66.341466  0.034990225  0.038510438            4 
  159000    1.1850283   -6.4639246    66.723616  0.034970449  0.038466477            2 
  160000    1.1883597   -6.4837758    67.129347  0.034963202  0.038425667            1 
  161000    1.1903018   -6.4049104    68.029563  0.035211989  0.038389893            1 
  162000    1.2091221   -6.4565237    67.940121  0.034948622  0.038352399            1 
  163000    1.1610501   -6.4445428    68.489946   0.03501531  0.038310905            2 
  164000    1.1908156   -6.5130376    69.035153  0.035078838  0.038269497            2 
  165000     1.206509   -6.4719737    69.252914  0.034976219  0.038228618            6 
  166000    1.1895273   -6.4408134    70.023407  0.035152312  0.038190544            3 
  167000    1.1557455   -6.4413755    70.319104  0.035089373  0.038151992            4 
  168000    1.1680342   -6.4553631    70.795691   0.03511691   0.03811659            5 
  169000    1.1790266    -6.464976    71.209897  0.035113361  0.038086085            1 
  170000    1.1932452   -6.4781467    71.530971  0.035064201  0.038054406            3 
  171000    1.1978476   -6.4298406     72.15814  0.035164785  0.038021925            5 
  172000    1.2081425   -6.4799356    72.323197  0.035040309  0.037989314            3 
  173000    1.1734755    -6.441622    73.192153  0.035256336  0.037959818            5 
  174000    1.1753354    -6.453081    73.385072  0.035146107  0.037928589            3 
  175000    1.1723166   -6.5277249    73.434532  0.034968825  0.037896254            3 
  176000    1.1669995   -6.4614179    74.236948   0.03515007  0.037864713            2 
  177000    1.2034902   -6.5001717    74.357221  0.035008108  0.037836214            1 
  178000     1.170749   -6.4766664     75.16933  0.035191634  0.037808247            2 
  179000    1.1979297   -6.4361939    75.201626  0.035010068  0.037778826            3 
  180000    1.1841661   -6.4760907    75.669281  0.035032074  0.037748454            5 
  181000    1.1832389   -6.4468774    76.012781  0.034996676   0.03771821            3 
  182000    1.1803029   -6.4121912    76.735825  0.035135451  0.037686939            2 
  183000    1.1876979   -6.4418605    76.705029   0.03492943  0.037652675            2 
  184000    1.1800766   -6.4705059    77.087133  0.034912651  0.037618475            3 
  185000    1.1985071   -6.4739251    77.312865  0.034825615  0.037586526            2 
  186000    1.1829232   -6.4911532    77.743667  0.034831392  0.037552841            2 
  187000    1.1760882   -6.4669242    78.217804  0.034856419  0.037518886            2 
  188000     1.179931   -6.4629607    78.234158  0.034678261  0.037479528            1 
  189000    1.1667584   -6.5378687    78.382585  0.034560223  0.037443281            2 
  190000    1.1549809   -6.5133125    79.107199   0.03469614  0.037406876            1 
  191000    1.2006305     -6.49048    79.655163  0.034753561   0.03737488            2 
  192000    1.1888522   -6.4979625    80.041063  0.034740044  0.037344068            4 
  193000    1.1941854   -6.4965991    80.718967  0.034852749  0.037315066            3 
  194000    1.1942785   -6.4645689    80.771275  0.034695565  0.037284045            3 
  195000    1.1886751   -6.5159811    81.371969  0.034774346  0.037253502            3 
  196000    1.1885384   -6.4945835    81.917053  0.034828679  0.037225292            3 
  197000    1.1737384   -6.4796795    82.504363  0.034900323   0.03719621            2 
  198000    1.1900059   -6.4546861     82.79683  0.034847151  0.037167936            2 
  199000     1.170735    -6.505465    83.016834  0.034764168  0.037138999            3 
  200000    1.1889079   -6.4286006     84.11516  0.035047983    0.0371116            2 
  201000    1.1668503   -6.5008183    84.022176  0.034835065  0.037083713            3 
  202000    1.1825596     -6.45708    84.078866  0.034686001  0.037054401            1 
  203000     1.171789   -6.5124731    84.460319  0.034671723  0.037022677            2 
  204000     1.154658   -6.5092069    84.821095   0.03464914  0.036989702            5 
  205000    1.1705508   -6.5141372    85.108872  0.034597102  0.036959904            3 
  206000    1.1542996   -6.5276869    85.566598  0.034614319  0.036929572            4 
  207000    1.1707207   -6.4742928    86.050567  0.034641935  0.036898414            3 
  208000     1.147283    -6.531459    86.169083   0.03452287  0.036869033            3 
  209000    1.1842353   -6.4582294    86.795993  0.034607653  0.036841869            5 
  210000    1.1628529   -6.4286723    87.460749  0.034706646  0.036815641            2 
  211000    1.1597479   -6.5061011    87.284216  0.034472439   0.03678775            3 
  212000    1.1645822   -6.4888413    88.019768  0.034598965   0.03675944            4 
  213000    1.1341381    -6.517713     88.10906  0.034471463  0.036730362            5 
  214000    1.1554545   -6.5165158    88.829718  0.034591011  0.036701419            4 
  215000     1.151132   -6.5180076    89.220997  0.034581782  0.036674966            7 
  216000     1.163877   -6.4975098    89.534154  0.034542498  0.036647675            3 
  217000    1.1701807   -6.5133414    89.776242  0.034476283  0.036622079            5 
  218000     1.187392   -6.5266259    90.355581  0.034539595  0.036597726            5 
  219000    1.1829917   -6.4993645    91.153645  0.034685557  0.036574302            3 
  220000    1.1696046   -6.5187762    91.870644  0.034799486  0.036552137            4 
  221000    1.1700906    -6.505383    92.120229  0.034736135  0.036530688            2 
  222000    1.1600487   -6.5042883    92.542195  0.034738061   0.03650839            5 
  223000    1.1442822    -6.502277    92.876648  0.034707268  0.036486491            1 
  224000    1.1635802   -6.4985578    93.209576  0.034676182  0.036465628            2 
  225000    1.1695753   -6.5550204    93.345031  0.034572234  0.036442067            3 
  226000    1.1656692   -6.5044815    93.738872  0.034564481   0.03641564            3 
  227000    1.1693711   -6.5172836     94.14674  0.034561946  0.036391508            3 
  228000      1.18718   -6.5344677    94.942093  0.034701057  0.036368779            3 
  229000    1.1746066   -6.5226397    94.810907  0.034501786  0.036347413            8 
  230000    1.1656616   -6.5085525    95.202078  0.034493506  0.036326514            3 
  231000    1.1890607   -6.5216019    95.788051  0.034555574  0.036305362            2 
  232000    1.1671393    -6.549531    96.544673  0.034678403  0.036286301            7 
  233000    1.1757154   -6.5637707    96.541957  0.034528597  0.036266849            2 
  234000    1.1916049   -6.5487234    96.638085  0.034415272  0.036246194            3 
  235000    1.1651409   -6.5054162    97.375393  0.034530281  0.036224595            3 
  236000    1.1355684   -6.5310192    97.414118   0.03439764  0.036201686            2 
  237000    1.1764118   -6.5538272    97.489355  0.034278957  0.036178518            3 
  238000    1.1319239   -6.5517395    98.278674    0.0344113  0.036156015            2 
  239000     1.187259   -6.4964835    98.832128  0.034460296    0.0361354            4 
  240000    1.1272425   -6.5364473    99.005437  0.034376888  0.036114878            3 
  241000    1.1571875   -6.5011976    99.943553  0.034558628  0.036093871            4 
  242000    1.1850847   -6.5565208    99.610708  0.034301208  0.036073097            2 
  243000    1.1580309   -6.5529888    100.01245  0.034297821  0.036051285            3 
  244000    1.1412636   -6.5524888    100.68791  0.034387948  0.036029927            5 
  245000    1.1652605   -6.5501685    101.13306  0.034398999  0.036009178            4 
  246000    1.1896602   -6.5489363    101.69637  0.034449989  0.035988078            3 
  247000    1.1535024   -6.5468192    101.79872  0.034345048  0.035968481            5 
  248000    1.1497202   -6.4900899    102.87307  0.034567563  0.035951359            1 
  249000    1.1451983   -6.5684692     102.8826  0.034431929  0.035936256            4 
  250000    1.1575007   -6.5275857     103.3674  0.034455801  0.035920414            2 
  251000    1.1731505   -6.4988161     103.5516  0.034379681  0.035901989            1 
  252000    1.1452475   -6.5362218    103.89398  0.034356473  0.035883402            2 
  253000    1.1523885   -6.5060295    104.35896  0.034373833  0.035864044            1 
  254000    1.1298126   -6.5350862    104.96735  0.034438107  0.035843713            2 
  255000     1.126917   -6.5579457    105.14891  0.034362388   0.03582451            3 
  256000    1.1386819   -6.5448011     105.2199  0.034251271  0.035804709            2 
  257000    1.1568921   -6.5315901    105.58614  0.034236751  0.035784409            2 
  258000     1.159754   -6.5625603    106.10057  0.034270209  0.035765702            5 
  259000    1.1522481   -6.5557569    106.65182  0.034315256  0.035747787            2 
  260000    1.1343492   -6.5504076    107.20899  0.034361854  0.035729158            4 
  261000    1.1400283    -6.576831     107.4179  0.034296903  0.035710048            3 
  262000    1.1364529   -6.5318164    107.88792  0.034315496  0.035690823            3 
  263000    1.1530829   -6.5169519    107.97001   0.03421103  0.035673305            4 
  264000    1.1412916   -6.5470591     108.7536  0.034328788  0.035654408            3 
  265000    1.1364997   -6.5855325    108.51803  0.034125167  0.035635164            3 
  266000    1.1584421   -6.5154688    109.36122  0.034261034  0.035616658            3 
  267000    1.1423071   -6.5604547    108.65089  0.033911014  0.035596255            2 
  268000    1.1729775   -6.5826549    109.25958  0.033973751  0.035573683            2 
  269000    1.1416476   -6.5944064    109.66702  0.033973675  0.035551076            2 
  270000    1.1722352   -6.5510794    110.51511  0.034109602  0.035529584            6 
  271000    1.1455672   -6.5614056    110.86057  0.034089967  0.035509486            4 
  272000    1.1411911   -6.5756282    111.00643  0.034009322  0.035488958            5 
  273000    1.1564483   -6.5657944    111.69548  0.034095078  0.035468915            5 
  274000    1.1330848   -6.5611514    111.84264  0.034015401  0.035450333            3 
  275000    1.1480749   -6.5281803    112.81953  0.034187738  0.035431953            1 
  276000    1.1452682   -6.5543928    112.93286  0.034098087  0.035413633            2 
  277000    1.1640452   -6.5849831    113.03835  0.034006725  0.035393529            2 
  278000    1.1621903   -6.5825008    113.10814  0.033905319  0.035373813            3 
  279000    1.1551158   -6.5950706    113.34759  0.033855313  0.035352646            1 
  280000    1.1235908    -6.586064    114.07926  0.033952161  0.035331273            3 
  281000    1.1664897   -6.5364292    114.58602  0.033981619  0.035311556            3 
  282000    1.1307936   -6.5778102    114.74529  0.033908184  0.035291099            2 
  283000    1.1367343   -6.6214394    114.96638  0.033853469  0.035270458            4 
  284000     1.154862   -6.5999291    115.74504  0.033962748  0.035250338            5 
  285000    1.1463236   -6.5561472    115.80906  0.033862299  0.035230233            3 
  286000    1.1430409   -6.5871262    115.95407  0.033786151  0.035210125            3 
  287000    1.1526466    -6.557685    116.27662  0.033762083  0.035188984            2 
  288000    1.1183181   -6.5806335    116.70145  0.033767781  0.035167853            7 
  289000    1.1362416   -6.5642544    117.34008  0.033835085  0.035147151            2 
  290000    1.1673936   -6.5445388    117.96917  0.033899188  0.035126068            5 
  291000    1.1205091   -6.6076433     118.0089  0.033794073  0.035106843            3 
  292000    1.1230743   -6.5962794    118.38361  0.033785277  0.035086241            3 
  293000    1.1516817   -6.5250235    119.35613  0.033946568  0.035067712            4 
  294000     1.158462   -6.6157063    119.00578  0.033731798  0.035048505            3 
  295000    1.1457244   -6.5614706    119.73431  0.033823251  0.035027764            3 
  296000    1.1598086   -6.6099766     119.3352  0.033596623  0.035005966            3 
  297000    1.1284579   -6.5793374     120.3339   0.03376372  0.034986972            3 
  298000    1.1723991   -6.5837406    120.62192  0.033730962  0.034967457            1 
  299000    1.1702417   -6.6404718    120.36285  0.033545945  0.034946911            2 
  300000    1.1203817    -6.586828    121.24032  0.033677867  0.034928007            2 
  301000    1.1601704   -6.6065005    121.83893  0.033731708  0.034909659            2 
  302000    1.1229576    -6.611022    122.34287   0.03375907  0.034891207            3 
  303000     1.136953   -6.6132992     122.3965  0.033662404  0.034873193            4 
  304000    1.1514705   -6.5940207    122.73364   0.03364409   0.03485408            2 
  305000    1.1266937   -6.5865905    123.04118  0.033617808  0.034834736            6 
  306000    1.1305075    -6.622149    123.22723  0.033558613  0.034815182            4 
  307000    1.1263154   -6.5976635    123.91167  0.033635091  0.034795159            3 
  308000    1.1199169   -6.6540869    123.89085  0.033520251  0.034775775            3 
  309000    1.1440834   -6.6213849    124.64928   0.03361631  0.034756184            1 
  310000    1.1194361   -6.5962609    124.93154  0.033583746  0.034737835            2 
  311000    1.1153154    -6.582042    125.41328  0.033604845  0.034719706            2 
  312000    1.1514376   -6.6332119      125.653  0.033561165   0.03470168            3 
  313000    1.1311182   -6.6011063     126.2631  0.033616373  0.034684136            1 
  314000    1.1536866   -6.5957575    126.10702  0.033467894   0.03466497            5 
  315000    1.1137156   -6.5823962    126.62885  0.033499695  0.034645448            4 
  316000    1.1230612    -6.612391     126.8234   0.03344499  0.034626784            3 
  317000    1.1228511   -6.6048839    128.12572  0.033681841  0.034608927            5 
  318000    1.1435813   -6.5799659    128.36793  0.033639395  0.034592145            3 
  319000    1.1356379   -6.6356373    127.78949  0.033382835  0.034574486            4 
  320000    1.1257964    -6.610738    128.36058  0.033427234  0.034556948            5 
  321000    1.1274253   -6.6457924    128.00998  0.033232083  0.034537606            2 
  322000    1.1358704   -6.6424401     128.7224  0.033313249  0.034517967            3 
  323000    1.1407154   -6.6400921    128.86882  0.033247889  0.034497868            4 
  324000    1.1102247   -6.6184861    129.44088  0.033292408  0.034476437            3 
  325000    1.1401382    -6.641336    129.65646  0.033245247  0.034455401            2 
  326000    1.1445445   -6.6112766    130.50687  0.033360651  0.034434901            4 
  327000    1.1347782   -6.6149977    130.73847  0.033317653  0.034414101            3 
  328000     1.118552   -6.5712498    131.20641  0.033334961  0.034394434            2 
  329000    1.0938767   -6.6052531    131.40155  0.033283067  0.034374938            4 
  330000    1.1249632   -6.5998742    132.07876  0.033353223  0.034356158            2 
  331000    1.1260256   -6.5819104    132.37495  0.033327027   0.03433781            7 
  332000    1.1392061   -6.6090556    132.77244  0.033326414  0.034319282            5 
  333000    1.1144228   -6.6148648    132.90191  0.033258737  0.034300682            3 
  334000    1.1239915   -6.6256169    133.57225   0.03332641  0.034282638            4 
  335000    1.1264031   -6.6481778    133.37495  0.033177848  0.034265073            3 
  336000    1.1181137    -6.605391    134.28002  0.033303577  0.034247819            4 
  337000     1.096413   -6.5903335    134.83415  0.033341779  0.034231286            5 
  338000    1.0968548   -6.5792566    135.26718  0.033349896  0.034215188            5 
  339000    1.1410144   -6.5981367     135.3619  0.033274804  0.034197705            2 
  340000    1.1007369     -6.61474    134.92891  0.033070812  0.034179682            2 
  341000    1.1065623   -6.6533527     135.1078  0.033017545  0.034160208            4 
  342000    1.0883326   -6.6234309    135.83157  0.033097362  0.034140365            4 
  343000     1.120678   -6.6223619    135.82376  0.032998969  0.034120626            2 
  344000    1.1197487   -6.6335155    136.14615  0.032981141  0.034100367            2 
  345000    1.1358682   -6.6218599    136.66825  0.033011655  0.034080106            2 
  346000    1.1303032   -6.6897638    136.20969  0.032805801    0.0340593            2 
  347000     1.114027   -6.6161157    136.96521  0.032892702  0.034038416            2 
  348000    1.1183797   -6.6223255    137.51107  0.032928897  0.034018569            4 
  349000    1.1131845   -6.6205246    137.36691  0.032800121  0.033997671            3 
  350000    1.1280703   -6.6400727     137.7713  0.032802691  0.033976167            4 
  351000    1.1113709   -6.6857271     137.6375  0.032677469  0.033954294            9 
  352000     1.117395   -6.6176318    138.82339  0.032865385  0.033932909            3 
  353000    1.0951132   -6.6383856    138.64358  0.032729834  0.033911035            5 
  354000    1.0981595   -6.6598492      138.529  0.032610404  0.033888462            4 
  355000    1.1076684   -6.6535972    139.36217  0.032714124   0.03386615            3 
  356000    1.1020134   -6.6658656     140.0137  0.032774743  0.033844992            3 
  357000    1.1171712   -6.6659402     139.8733  0.032650163   0.03382414            1 
  358000    1.1052751   -6.6612133    139.90756  0.032566936  0.033802985            3 
  359000    1.1189027   -6.6235658    141.13412  0.032760939  0.033782103            4 
  360000    1.1268553   -6.6016235    141.64488  0.032788167   0.03376161            3 
  361000    1.0893499   -6.6660524      141.311  0.032620268  0.033740933            2 
  362000     1.120888   -6.6506257    141.89887  0.032665486  0.033719253            5 
  363000     1.100235   -6.6467225    142.21513  0.032648102  0.033697767            5 
  364000    1.1031998   -6.6165982    142.76626  0.032684583  0.033677653            6 
  365000     1.104607   -6.6629483    143.06433  0.032663088  0.033657917            4 
  366000     1.088512   -6.6750368    143.11006  0.032584259  0.033638115            2 
  367000    1.1245154   -6.6968643    142.81451  0.032428364  0.033617637            2 
  368000    1.1052609   -6.6801208    143.37095  0.032466248  0.033595685            4 
  369000    1.0975535   -6.6434793    143.86898  0.032490737  0.033573439            5 
  370000     1.106514   -6.6466173    144.44168  0.032531909  0.033551943            5 
  371000    1.0749752   -6.6574086    144.12445  0.032372967  0.033530723            5 
  372000    1.0967955   -6.7072562    143.99438  0.032256806  0.033508285            4 
  373000    1.0933336    -6.647743    145.36309  0.032476115  0.033484958            5 
  374000     1.119667   -6.6956986    144.62323  0.032224428  0.033462288            8 
  375000    1.1137688   -6.6410485    145.89865  0.032421922  0.033439109            3 
  376000     1.099359   -6.6834788    145.74685  0.032302049  0.033415772            2 
  377000     1.078383   -6.6869076    145.59554  0.032182922  0.033390771            4 
  378000    1.0946064   -6.6869971     145.6704  0.032114285  0.033365798            4 
  379000    1.1052475   -6.6510471    146.10969   0.03212614  0.033340115            3 
  380000    1.0877516   -6.6550354    146.46585  0.032119703  0.033314855            3 
  381000    1.1106025   -6.6795548    146.46543  0.032035309   0.03329029            4 
  382000    1.0967101   -6.6807855    147.13468  0.032097444  0.033265732            5 
  383000    1.0930083   -6.7025991    146.57791  0.031892495  0.033240279            3 
  384000    1.1028768   -6.6509729     148.2349  0.032169033  0.033215734            4 
  385000    1.0963042   -6.6697499    147.53784  0.031934598   0.03319097            4 
  386000    1.1049528   -6.6841546     147.9817   0.03194769  0.033167059            5 
  387000    1.1249142   -6.6589669    148.04987  0.031879817  0.033141676            3 
  388000    1.1069007    -6.616848    149.10514    0.0320243  0.033117861            8 
  389000    1.0929358   -6.6991094     148.6405  0.031842439  0.033092681            5 
  390000    1.1079077   -6.6660588    148.96413  0.031829942  0.033067416            6 
  391000    1.0845546   -6.7079618    149.45347  0.031852829  0.033041931            4 
  392000    1.0871826   -6.6547565    150.11555  0.031912319  0.033017172            2 
  393000    1.0966921   -6.7011328    149.60098  0.031722005  0.032992194           12 
  394000    1.0951788   -6.7004645    150.44454   0.03181991  0.032967333            2 
  395000     1.087375   -6.6924482    150.20141   0.03168806  0.032942875            2 
  396000    1.1072869   -6.7218672    151.22425  0.031823285  0.032918568            4 
  397000    1.0925075    -6.716347    151.13396  0.031724173  0.032893245            3 
  398000    1.1038632   -6.6608047    151.43022  0.031706494  0.032869147            2 
  399000    1.1046112   -6.6728857    151.83973  0.031712558   0.03284447            6 
  400000    1.0738658    -6.721858    151.87447  0.031640515   0.03281999            5 
  401000    1.1104657   -6.6913912    152.66541  0.031725979  0.032795153            4 
  402000    1.1030215   -6.7269335    152.37287  0.031586415  0.032770768            4 
  403000    1.0866264   -6.7310454    152.52283  0.031539046   0.03274636            3 
  404000    1.0713871   -6.7533795    152.42371  0.031440534  0.032721932            4 
  405000    1.0987263   -6.6988004    153.51325  0.031587088  0.032697547            5 
  406000    1.0969324   -6.7103446    153.62419  0.031532059  0.032673596            4 
  407000    1.1026378   -6.7179512    153.99135   0.03152976    0.0326494            2 
  408000    1.0897882   -6.7044122    153.91856  0.031437615  0.032624835            4 
  409000    1.1071286   -6.7167719    154.86385  0.031553351  0.032600438            3 
  410000    1.0815373    -6.728378    155.37841  0.031580978  0.032576639            7 
  411000    1.0840656   -6.6736268    155.57463  0.031543923  0.032552733            4 
  412000    1.0924413   -6.7115275    154.83187  0.031317126  0.032528914            4 
  413000     1.084193   -6.7082893    156.20633  0.031518629  0.032505724            3 
  414000     1.099244   -6.7045602    156.19621  0.031440462  0.032482613            4 
  415000    1.0698732   -6.7047868    157.44204  0.031614867  0.032460592            4 
  416000     1.075931    -6.708874     157.3695  0.031524339  0.032438952            6 
  417000    1.0907922   -6.7279109    157.25129  0.031425118  0.032417522            2 
  418000    1.0744706   -6.7091754    157.85187  0.031469671  0.032396066            4 
  419000    1.0803484   -6.7063588    158.41423   0.03150641  0.032375683            2 
  420000    1.1033841   -6.7100409    159.29607  0.031606363  0.032354747            1 
  421000    1.0790835   -6.7042327    159.52477  0.031576558  0.032333758            7 
  422000    1.0874081    -6.707547     159.5347  0.031503693  0.032312533            2 
  423000    1.0832227   -6.7337855    159.07289  0.031338238  0.032291351            4 
  424000    1.0860374   -6.7076903    159.96256  0.031439182  0.032270272            5 
  425000    1.0672184   -6.7485432    159.89476  0.031351914  0.032248708            2 
  426000    1.0871427   -6.7130178    160.13069   0.03132447  0.032226925            3 
  427000    1.0754064    -6.659954    161.02146  0.031424953  0.032204648            3 
  428000    1.0815495   -6.7286477    160.67347  0.031283775   0.03218269            3 
  429000    1.0752096   -6.7362443    160.86594   0.03124824   0.03216074            2 
  430000    1.0772035   -6.7158728    161.09526  0.031220012  0.032138242            3 
  431000    1.0792696   -6.7023067    161.16092   0.03116027  0.032116075            1 
  432000     1.071275    -6.782938    160.64055  0.030987761  0.032092626            3 
  433000    1.0996553   -6.7235556    161.89787  0.031158173  0.032069505            4 
  434000    1.0708423   -6.7890308     161.8675  0.031080549  0.032046703            4 
  435000    1.0737456   -6.7131217    162.89091  0.031205156  0.032024497            4 
  436000    1.0732478   -6.7187518    162.96785   0.03114829  0.032003354            8 
  437000    1.0622056   -6.7618472    163.11073  0.031104258  0.031981155            2 
  438000    1.0726727   -6.7588749    163.15817   0.03104227  0.031958406            3 
  439000    1.0926936   -6.7147803    164.30575  0.031189398  0.031936793            2 
  440000    1.0580377   -6.6897408    163.64969   0.03099426  0.031914863            4 
  441000    1.0686588   -6.7350701    164.15668   0.03101978  0.031892374            7 
  442000     1.078674   -6.6991432    164.16484  0.030951139  0.031869538            5 
  443000    1.0643581   -6.7607133    164.26846  0.030900764  0.031846668            4 
  444000    1.0569782   -6.7399489    164.51954  0.030878292  0.031823125            5 
  445000    1.0791345   -6.7649768    164.35593  0.030778265  0.031799325            2 
  446000    1.0605248   -6.7506612    164.59519  0.030753959  0.031775748            3 
  447000    1.0651463   -6.7436622    165.22005  0.030801649  0.031751591            3 
  448000    1.0848118   -6.6867322    165.73032  0.030827813  0.031727287            3 
  449000    1.0613119   -6.7304105    165.27092  0.030673891  0.031703281            3 
  450000    1.0604784   -6.6954977    166.06586  0.030752938  0.031679719            6 
  451000    1.0600859   -6.7260519     166.0205  0.030676368  0.031656304            4 
  452000    1.0532786   -6.7408628    166.37721  0.030674264  0.031632617            2 
  453000    1.0700155    -6.759847    166.56395  0.030640903  0.031609254            2 
  454000    1.0782998   -6.7560499    167.24667  0.030698728  0.031585445            3 
  455000    1.0586172   -6.7579321    166.65704  0.030523268  0.031560628            2 
  456000    1.0833794   -6.8301898    166.25513  0.030382881  0.031535818            5 
  457000    1.0624489   -6.7713952    167.63908  0.030568759  0.031510778            6 
  458000     1.056077   -6.7287744    167.71989   0.03051672  0.031486661            3 
  459000    1.0674094   -6.7468939    167.79607  0.030464066  0.031462951            2 
  460000    1.0856448   -6.7956106    167.76056  0.030391406  0.031437874            3 
  461000    1.0741325    -6.741315    168.28927  0.030421054  0.031412941            3 
  462000    1.0889621   -6.8103083    168.00442  0.030303827  0.031387773            6 
  463000    1.0584515   -6.7834419    168.30062  0.030291688  0.031362344            6 
  464000    1.0701665   -6.7886236    169.11095  0.030371939  0.031337528            2 
  465000     1.081239    -6.795308    169.29405  0.030339436  0.031312064            5 
  466000     1.065304    -6.781322    169.48913  0.030309215  0.031287192            3 
  467000    1.0612281   -6.7300128    169.91033  0.030319473  0.031262676            3 
  468000    1.0823284   -6.7405424    170.26713   0.03031822  0.031238181            5 
  469000    1.0841922   -6.7565338      170.173  0.030236852  0.031213703            3 
  470000    1.0684348   -6.7580802    170.54151  0.030237857  0.031189261            2 
  471000    1.0940035   -6.7609164    171.08994   0.03027069  0.031165135            3 
  472000    1.0582247   -6.7670681    170.85429  0.030164952  0.031141549            4 
  473000      1.09199   -6.7336157    172.15876     0.030331  0.031117287            2 
  474000    1.0609464   -6.8205771      171.268  0.030110408  0.031093411            3 
  475000    1.0609229   -6.7956494    171.77135  0.030135325  0.031069244            4 
  476000    1.0693323   -6.7642106    172.34591  0.030172603  0.031045798            3 
  477000    1.0584783   -6.7933177    172.20264  0.030084318  0.031022391            3 
  478000    1.0568569   -6.7801581    173.16569  0.030189277  0.030998986            5 
  479000    1.0295841   -6.8171596    172.98793  0.030095325   0.03097573            4 
  480000    1.0618032   -6.7570464    174.06931  0.030220365  0.030952379            4 
  481000    1.0780246   -6.8017502     173.8932  0.030127027  0.030929532            2 
  482000     1.060132   -6.7970769    174.49244  0.030168127  0.030907155            3 
  483000    1.0570084   -6.7594545    174.47057  0.030101892  0.030885042            4 
  484000     1.047314   -6.7688928    175.34555  0.030190349  0.030862255            3 
  485000    1.0886137   -6.7626539    175.40876  0.030138962  0.030839954            5 
  486000     1.068186   -6.7423464    176.52035  0.030267549  0.030818202            4 
  487000    1.0914534   -6.7792734    176.29566  0.030166951  0.030796385            4 
  488000    1.0728415   -6.7945935    176.21031  0.030090558  0.030775058            4 
  489000    1.0714095   -6.7673382    176.85591  0.030139044  0.030754229            2 
  490000    1.0454845      -6.8062    176.98377  0.030099281  0.030732476            2 
  491000    1.0707239   -6.8150325    177.11965  0.030061041  0.030711055            7 
  492000    1.0551092   -6.7629503    176.93956  0.029969438   0.03069029            4 
  493000    1.0660692   -6.7925435    177.54196  0.030010472  0.030668382            2 
  494000    1.0525403    -6.727829    178.48728   0.03010919  0.030647122            4 
  495000    1.0685522   -6.7382148    178.37089  0.030028769  0.030625711            6 
  496000    1.0605591   -6.7809629    177.87578  0.029885044  0.030603744            3 
  497000     1.096988   -6.8174591    177.65636  0.029788123   0.03058125            2 
  498000    1.0674397   -6.7976769    177.97961  0.029782398  0.030558279            4 
  499000    1.0527062   -6.8211237    177.42894  0.029630751  0.030534865            7 
  500000    1.0571062   -6.8026941    178.49789  0.029749648  0.030511029            3 
  501000    1.0545638   -6.7953914    178.70859  0.029725315   0.03048804            3 
  502000    1.0480042   -6.8010775    178.72231  0.029668378  0.030465433            4 
  503000    1.0643206   -6.8153463    179.03961  0.029661963  0.030442109            8 
  504000    1.0578273   -6.8044624    179.19589  0.029628949   0.03041873            3 
  505000     1.059899   -6.8160946     178.9795  0.029534571  0.030394496            6 
  506000    1.0519325   -6.7430215    180.11973  0.029663986  0.030370858            2 
  507000    1.0686621   -6.8049438    179.59437  0.029519127  0.030347308            3 
  508000    1.0491364   -6.8156809    179.73101  0.029483433   0.03032303            4 
  509000    1.0386824   -6.7921673    179.76731  0.029431452  0.030298966            3 
  510000    1.0488715   -6.8532175     178.9331  0.029237435  0.030274266            3 
  511000    1.0464652   -6.8134304     180.3641  0.029413584  0.030249905            3 
  512000    1.0419002   -6.7939359    180.43892  0.029368313   0.03022605            7 
  513000    1.0446673   -6.7873448    180.70974  0.029355058  0.030201859            3 
  514000     1.044371   -6.8122806    180.96213  0.029338866  0.030177082            4 
  515000    1.0578604   -6.8184548    181.04887  0.029295933  0.030152105            3 
  516000    1.0299159   -6.8111158    180.41551  0.029136872  0.030126765            4 
  517000    1.0434209   -6.7979438    181.19887  0.029206781  0.030101266            4 
  518000     1.066627   -6.8070301    181.11304   0.02913659  0.030075823            3 
  519000    1.0572173   -6.8469734    180.97272  0.029057918  0.030050441            4 
  520000     1.036884   -6.8356524    180.79982  0.028974331  0.030024392            4 
  521000    1.0242835   -6.8721814    181.79924  0.029078573  0.029998948            2 
  522000    1.0404446    -6.816524    182.48369  0.029132135  0.029973708            6 
  523000      1.05037    -6.849759    182.18549  0.029028919  0.029948187            9 
  524000    1.0655425   -6.8729167    182.51108    0.0290253   0.02992292            2 
  525000    1.0480691   -6.8342523    183.04764  0.029055181  0.029898261            4 
  526000    1.0653859   -6.7939573    183.90518  0.029135802  0.029874083            4 
  527000    1.0777086   -6.8345509    184.18854  0.029125322  0.029850652            2 
  528000     1.055285   -6.8522678    183.94763  0.029032139  0.029827273            4 
  529000    1.0345461   -6.8663666    184.12992  0.029005973  0.029803598            6 
  530000     1.032849    -6.847846    184.54736  0.029016881  0.029780259            6 
  531000    1.0356183   -6.8322682    185.69211  0.029141889  0.029756681            7 
  532000    1.0266869   -6.8429472    185.48933  0.029055346   0.02973318            4 
  533000    1.0462216   -6.8302392    185.89595  0.029064407  0.029710035           12 
  534000    1.0338207   -6.8421333    185.46129  0.028942148  0.029686847            4 
  535000    1.0279217   -6.8567061    185.67275  0.028920989  0.029663099            1 
  536000    1.0550967   -6.8650736    186.00358  0.028918468  0.029639613            6 
  537000    1.0294897   -6.8509591    186.06426  0.028874032  0.029616108            3 
  538000    1.0306259   -6.8002207    186.72827  0.028923214  0.029592663            4 
  539000    1.0672496   -6.8519282    186.83334  0.028885797  0.029569766            2 
  540000    1.0340781   -6.8162719    187.35678  0.028913084  0.029546996            3 
  541000    1.0145149   -6.8275506    187.03705   0.02881039   0.02952429            2 
  542000    1.0318151   -6.8777969     186.7524  0.028713469  0.029501106            4 
  543000    1.0312571   -6.8609628    187.87345  0.028832636  0.029477985            3 
  544000     1.034869   -6.7916545    188.66426  0.028900775   0.02945518            2 
  545000    1.0403003   -6.7896209    189.04063  0.028905294  0.029432624            3 
  546000    1.0306121   -6.8733432    188.58455  0.028782746  0.029410078            7 
  547000    1.0419127    -6.858394     188.5225  0.028720674  0.029386628            6 
  548000    1.0309191   -6.8345534    188.86256  0.028719975  0.029363451            2 
  549000    1.0510947   -6.8754228    189.01706  0.028691114  0.029340493            4 
  550000    1.0571038   -6.8233547    189.11273  0.028653445  0.029317619            5 
  551000    1.0167649   -6.8872616     189.4082  0.028646128  0.029294465            4 
  552000    1.0390988   -6.8364412    189.23982  0.028568813  0.029270768            8 
  553000    1.0273959   -6.8970348    188.79563  0.028450215  0.029246593            2 
  554000    1.0446835   -6.8507265     189.1856  0.028457521  0.029222863            3 
  555000    1.0382645   -6.8905824    189.40997  0.028439935  0.029198567            5 
  556000    1.0436112   -6.8767386    189.67393  0.028428347    0.0291748            5 
  557000    1.0414237   -6.8899944    189.85696  0.028404692  0.029151252           13 
  558000    1.0420279   -6.8420016    190.66941  0.028475121  0.029128197            4 
  559000    1.0288852    -6.855961    190.69491  0.028427983  0.029105003            6 
  560000    1.0321998   -6.9095822    189.95109  0.028266531  0.029081327            9 
  561000   0.99994659   -6.8492297    191.00402  0.028372552  0.029057404            3 
  562000    1.0153647   -6.8537554    191.22538  0.028354891  0.029033495            2 
  563000    1.0106425   -6.8592055    191.38222  0.028327741  0.029009731            3 
  564000    1.0245069   -6.8621313    191.03424  0.028226099  0.028986099            2 
  565000    1.0313711   -6.8211427    191.71904  0.028277144  0.028962501            3 
  566000    1.0226655   -6.8302886    192.41601  0.028329801  0.028939037            4 
  567000   0.98719431   -6.8828967    191.79846  0.028189074  0.028914791            8 
  568000    1.0273184   -6.8568355    192.44997   0.02823503  0.028890732            3 
  569000    1.0029346   -6.8877588     191.8193  0.028093044  0.028866479            3 
  570000    1.0130127   -6.9030044    192.39682   0.02812819  0.028842917            3 
  571000    1.0173018   -6.8664448    193.91985  0.028301203  0.028819255            6 
  572000    1.0180122   -6.8249723    194.07776  0.028274732  0.028796021            2 
  573000    1.0207885   -6.8758673    193.98115  0.028211337  0.028772998            3 
  574000    1.0182164   -6.8701272    193.81861   0.02813859  0.028750552            3 
  575000    1.0229337   -6.8483605    194.83953  0.028237613  0.028728045            6 
  576000     1.036936   -6.8453029    195.31043  0.028256717  0.028706092            3 
  577000    1.0413388   -6.8721187    194.94225  0.028154571  0.028684427            3 
  578000    1.0299156    -6.881937    195.31413  0.028159477    0.0286626            2 
  579000    1.0112244   -6.8925215    195.17457  0.028090755  0.028640744           11 
  580000    1.0090672   -6.8674039    195.54881  0.028096093  0.028618913            3 
  581000    1.0114301   -6.8785911    195.12137  0.027986427  0.028597068            5 
  582000    1.0246595   -6.8814817    195.79767  0.028035177  0.028574774            5 
  583000    1.0105605   -6.9022693    196.65838  0.028110118  0.028552929            6 
  584000    1.0070366   -6.8946055    196.23282  0.028001259  0.028531047            3 
  585000    1.0226683    -6.894722    197.36501  0.028114674  0.028509599            4 
  586000    1.0318078   -6.8754004    196.57432  0.027954255  0.028488218            7 
  587000    1.0060277   -6.8723363    197.34021  0.028015363  0.028467372            2 
  588000    1.0038417   -6.8978466    197.64461  0.028010857  0.028446288            7 
  589000    1.0296944   -6.9134803     197.7195  0.027973896  0.028425121            4 
  590000    1.0223713     -6.90167    197.27829  0.027864165  0.028403154            3 
  591000    1.0216251   -6.9314075    197.33892  0.027825567  0.028381422            7 
  592000    1.0233918   -6.9264852      198.011   0.02787317  0.028359128            6 
  593000    1.0346789   -6.8854454    198.02836  0.027828606  0.028337028            4 
  594000    1.0120647   -6.8772044    198.41415   0.02783588  0.028314518            3 
  595000    1.0159104   -6.9114887     198.3334  0.027777787  0.028292256            4 
  596000    1.0334856   -6.8949298    198.83002  0.027800619  0.028269868            4 
  597000    1.0137587   -6.9157167    198.95105  0.027770944  0.028248039            5 
  598000    1.0175272   -6.9450467     198.3412  0.027639521  0.028226366            9 
  599000    1.0217275   -6.9314393    198.81092  0.027658726   0.02820498            6 
  600000    1.0327807   -6.9287627    199.14433  0.027658934  0.028183092            4 
  601000    1.0171607    -6.922149    199.46064  0.027656772  0.028161321            3 
  602000    1.0180378   -6.9191973    199.60635  0.027631001  0.028139106            5 
  603000    1.0170444   -6.8940378    200.64513  0.027728736  0.028117152            5 
  604000    1.0124747   -6.9215786    200.88926  0.027716509  0.028095502            3 
  605000    1.0131559   -6.9236392    200.27987  0.027586759  0.028073551            2 
  606000     1.029861   -6.8968583    200.68718  0.027597247  0.028051568            4 
  607000    1.0166781   -6.9199208    200.85213  0.027574427   0.02803017            6 
  608000   0.99946696   -6.9254657    200.42554  0.027470606  0.028008534            2 
  609000      1.00509   -6.9339152    201.38163  0.027556326  0.027987245            6 
  610000     1.005281   -6.9401633    202.01353  0.027597477  0.027966218            4 
  611000    0.9803397   -6.9372868    202.13205  0.027568473  0.027945249            5 
  612000   0.99376546    -6.922892    202.50083  0.027573642  0.027924168            4 
  613000    1.0361932   -6.9462538    202.15968  0.027482284  0.027903254            4 
  614000    1.0256569   -6.8862009    203.16107  0.027573435   0.02788253            4 
  615000    1.0022034   -6.9786797    202.31825  0.027414397  0.027861196            4 
  616000     1.010671   -6.9150818    202.96117  0.027456868  0.027839643            4 
  617000       1.0219    -6.938907    203.08817  0.027429521  0.027818338            3 
  618000    1.0288474   -6.9120361    202.90124  0.027359929  0.027796851            3 
  619000   0.99870592   -6.8961106    203.76551  0.027432083  0.027775705            4 
  620000   0.99611651   -6.8986552    203.62348  0.027368748  0.027754638            4 
  621000    1.0046283   -6.9412658    203.55963  0.027316107  0.027733098            2 
  622000   0.99328877   -6.9344601    203.59576  0.027277031  0.027711765            5 
  623000    1.0003466   -6.9494315    204.05391  0.027294531  0.027690602            1 
  624000    1.0164894   -6.9669527    203.84174  0.027222455  0.027669146            3 
  625000    1.0263954   -6.9725113    204.26888   0.02723585  0.027647926            3 
  626000     1.004264   -6.9402341    204.93007   0.02728036  0.027626515            3 
  627000   0.99341823   -6.9645943    204.72637  0.027209778   0.02760562            5 
  628000    1.0073779   -6.9481315    205.10022  0.027216058  0.027584401            8 
  629000   0.99883794   -6.9600339    204.62536  0.027109878  0.027562958            6 
  630000    1.0174565   -6.9474954    205.10851  0.027130755  0.027541738            3 
  631000    1.0085532   -6.9716313    204.63625   0.02702539  0.027519997            8 
  632000    1.0265649   -6.9398349     205.4891  0.027095081  0.027498696            5 
  633000    1.0088327   -6.9307146    205.91747  0.027108672  0.027477184            6 
  634000   0.99915314   -6.9498768     206.1903  0.027101774  0.027455982            5 
  635000    1.0104826    -6.961412    206.07697  0.027044221  0.027434244            3 
  636000    1.0307563    -6.927179    206.72017  0.027085977  0.027412822            6 
  637000   0.97643674   -6.9178912    206.81952  0.027056452  0.027391521            3 
  638000   0.98579175   -6.9251568    206.71375  0.027000229  0.027370138            6 
  639000    1.0014323   -6.9609196    206.50234  0.026930405  0.027348446            3 
  640000    1.0023533    -6.936701    206.67845  0.026911257  0.027326619            4 
  641000   0.99049796   -6.9926821    206.43606  0.026837762  0.027304865            3 
  642000   0.99880945   -6.9411476    207.03746  0.026874021   0.02728312            3 
  643000   0.98347861   -6.9524556    207.42796  0.026882835  0.027261664            6 
  644000    1.0072394   -6.9688126    207.08998  0.026797358  0.027240234            5 
  645000    1.0081486   -6.9636671    207.53805  0.026813701  0.027218594            4 
  646000     1.006782   -6.9835013    207.35484   0.02674856  0.027196727            5 
  647000   0.99088974   -6.9486045    208.15122  0.026809792  0.027175111            2 
  648000   0.97447862   -6.9480159    207.84298  0.026728778  0.027153809            5 
  649000   0.99836316   -6.9431807    208.19133  0.026732322  0.027132293            4 
  650000   0.99556344   -6.9383503    208.58396  0.026741534  0.027110959            4 
  651000   0.97735322   -6.9441339     208.2557  0.026658436   0.02708932            6 
  652000   0.98391069   -6.9493743     209.3111  0.026752441  0.027067652            2 
  653000    1.0108377    -7.003062    208.95593  0.026666147   0.02704626            3 
  654000   0.99553978   -6.9576538    209.44992  0.026688319  0.027025013            4 
  655000   0.99430362   -6.9830043    208.75545  0.026559218  0.027004006            7 
  656000   0.99164849   -6.9622771    209.55457  0.026620246  0.026982665            4 
  657000    0.9909447   -6.9715576    209.96058  0.026631225  0.026961455           11 
  658000   0.98445187   -6.9949647    209.30863  0.026508185  0.026939913            3 
  659000   0.99347077   -6.9703381    209.65208   0.02651139  0.026918163            6 
  660000   0.96328559   -6.9775392    209.82266   0.02649276  0.026896667            4 
  661000   0.98361234   -6.9538738    210.70453  0.026563859  0.026875441            4 
  662000    1.0018938   -6.9580501    211.25666  0.026593235  0.026854492            2 
  663000   0.99916977   -6.9759735    210.79588  0.026495209  0.026833625            4 
  664000   0.99131841   -7.0326693    210.51572  0.026420146  0.026812391            6 
  665000   0.96597405   -6.9681372    211.38412  0.026489238  0.026791673            5 
  666000   0.99309833   -6.9754059    211.28954   0.02643763  0.026770782            3 
  667000   0.96973975   -6.9678474    211.65961  0.026444229  0.026750028            5 
  668000   0.97106366   -7.0053904    212.12218  0.026462348  0.026729199            5 
  669000   0.98356527    -6.985808    211.46556  0.026341001   0.02670862            2 
  670000   0.96603721   -6.9167342    212.91498  0.026481963  0.026688194            5 
  671000    1.0081839   -6.9697581    212.37182   0.02637504  0.026667717            4 
  672000   0.98988779   -6.9539228     212.6355   0.02636849  0.026646823            3 
  673000   0.98676311    -6.980816    212.85353  0.026356306  0.026626408            5 
  674000   0.98328843   -6.9883332    213.32401  0.026375372  0.026605698            5 
  675000   0.98889103   -6.9928655    212.90654  0.026284759   0.02658482            7 
  676000     1.007593   -7.0066014    212.68044  0.026218003  0.026563696            5 
  677000   0.97351425   -6.9923323      212.597  0.026169005  0.026542294            3 
  678000   0.98159575   -6.9613495     213.0747  0.026189123  0.026521224            7 
  679000   0.96674738    -6.955111    213.72862  0.026230807  0.026500128            3 
  680000   0.96286266   -6.9731833    213.24167  0.026132558  0.026479233            3 
  681000   0.98851866   -6.9967911    213.59881  0.026137887   0.02645804            9 
  682000    0.9698106   -7.0211043    213.19687  0.026050448  0.026436404            6 
  683000   0.96865537   -6.9980784    213.48109  0.026046985  0.026414692            3 
  684000   0.99690628   -7.0400758     213.2375  0.025979227  0.026392985            9 
  685000   0.97755904   -6.9999643     213.6754  0.025994575  0.026371448            3 
  686000   0.96935833   -6.9918519     213.9328   0.02598795  0.026349705            4 
  687000   0.98322566   -7.0157473    213.69073  0.025920758  0.026328084            2 
  688000    1.0020018    -7.004851    214.55492  0.025987757  0.026306607            4 
  689000   0.96939392   -7.0128722    214.02951  0.025886492  0.026285095            4 
  690000   0.96938558   -7.0434823     214.4522  0.025900025  0.026263385            3 
  691000   0.96239036    -7.020403    214.01459  0.025809767  0.026241449            5 
  692000   0.97871954   -7.0767918    213.87145  0.025755233  0.026219182            4 
  693000   0.95308214   -7.0270757    214.88968   0.02584051  0.026197114            6 
  694000   0.98653657   -7.0456861    214.42504  0.025747483   0.02617497            3 
  695000   0.98946037   -7.0676601    214.01043  0.025660723  0.026152635            8 
  696000   0.97590637   -6.9833177    215.05705  0.025749168  0.026130654            6 
  697000   0.98614321   -7.0420726    214.78343  0.025679511  0.026108923            6 
  698000   0.97230655    -7.020635     215.3413  0.025709324  0.026087182            5 
  699000   0.98080236   -7.0300907    215.56941  0.025699739  0.026065326            8 
  700000   0.96479788   -7.0178994    216.08677  0.025724616  0.026043482            9 
  701000   0.97586247   -7.0170353    215.87449  0.025662683  0.026021633            3 
  702000   0.96218956    -7.063824    215.28341  0.025555961  0.025999439            6 
  703000    0.9882607   -7.0109068    216.51424  0.025665509  0.025977475            6 
  704000    1.0023162   -7.0454964    216.27203  0.025600382  0.025956001            6 
  705000   0.96179956   -7.0472508    216.63283  0.025606717  0.025934319            8 
  706000   0.97698128   -7.0443217    216.12202  0.025510153  0.025912612            3 
  707000    0.9576947   -7.0326739    216.64929  0.025536219  0.025890565            8 
  708000   0.97804076   -7.0246055    216.96894  0.025537775  0.025868789            6 
  709000   0.99539201   -7.0550304    217.27549  0.025537786  0.025846731            4 
  710000   0.95767595   -7.0376691    216.85544  0.025452516  0.025825011            5 
  711000   0.97807584   -7.0631781    217.07855  0.025442869  0.025803447            5 
  712000   0.97012859   -7.0298734    216.97231    0.0253947   0.02578161            5 
  713000   0.98633588   -7.0539671    217.63918  0.025437024  0.025759502            3 
  714000   0.96319224   -7.0736859    217.28601  0.025360178  0.025737223           10 
  715000   0.96819764   -7.1035623    216.56713  0.025240924  0.025715222           11 
  716000   0.99260801   -7.0945697     217.3637  0.025298382  0.025693336            4 
  717000   0.97529285   -7.0359081    218.45705  0.025390174  0.025672065            5 
  718000   0.96928106   -7.0117364    218.85194  0.025400643  0.025650872            4 
  719000   0.96621225   -6.9833051    218.97336  0.025379388  0.025629889           12 
  720000   0.95530071   -7.0390183    218.73532  0.025316588  0.025609106            4 
  721000   0.93958717   -7.0955272    218.56549  0.025261846  0.025588258           11 
  722000    0.9490674   -7.0634055    219.77821  0.025366829  0.025567768            7 
  723000   0.96650891   -7.0783576    220.15634  0.025375327  0.025547324            5 
  724000   0.94983853   -7.0502744     220.1222  0.025336348  0.025526996           10 
  725000   0.95601065   -7.0078332    220.95472  0.025397095  0.025506851            3 
  726000   0.95955132   -7.0619829    220.11421  0.025265635  0.025486569            6 
  727000   0.95919317   -7.0621017     220.5008  0.025275195  0.025465944            5 
  728000   0.98771267   -7.0474499    220.28632  0.025215925  0.025445002            3 
  729000    0.9603291   -7.0332006    220.34553  0.025188104  0.025424145            4 
  730000   0.95283805   -7.0841461    220.40095  0.025159926  0.025403408            5 
  731000   0.96231561   -7.0673131    220.51941  0.025139012  0.025382637            2 
  732000   0.95682438   -7.0293891    220.55304  0.025108497  0.025361738            4 
  733000   0.95445776    -7.062422    220.25172  0.025039986  0.025341038            2 
  734000   0.98260082    -7.068222     220.3142  0.025012965  0.025320233            6 
  735000   0.93307081   -7.0560904    221.36322   0.02509787  0.025298949            5 
  736000   0.94649377   -7.0916417    220.91971  0.025013555  0.025277746            3 
  737000   0.97691023   -7.0507379    221.05601  0.024995027  0.025256442            4 
  738000   0.95945351   -7.1182566    219.99403  0.024841241  0.025235078            3 
  739000   0.95859547   -7.0530731    221.40511  0.024966747  0.025214401            6 
  740000   0.96484935   -7.0592555    222.09496  0.025010693   0.02519335            5 
  741000   0.97901863   -7.0901719    221.72606  0.024935454  0.025172204            8 
  742000   0.94806724   -7.0944994    221.82603  0.024913077  0.025151078            6 
  743000   0.94780629   -7.0568613    222.31267  0.024934126  0.025130137            2 
  744000   0.96081689   -7.0366286    222.58039    0.0249306  0.025109473            5 
  745000   0.96214091   -7.0795948    222.45243  0.024882823  0.025088816            6 
  746000   0.94071605   -7.0776768    222.64766  0.024871275  0.025068346            6 
  747000   0.94617472   -7.0827251     222.8888  0.024864882  0.025047903            6 
  748000    0.9706869   -7.0840247    223.40505  0.024889154  0.025027506            4 
  749000   0.95193306   -7.0691543    222.89872  0.024799591  0.025007162            8 
  750000   0.95541999    -7.060011    223.28307   0.02480923  0.024987125            8 
  751000   0.95824021    -7.071889    224.15605  0.024873063  0.024967159            5 
  752000   0.94767565   -7.0584294    223.74534  0.024794475  0.024946795            5 
  753000      0.98939   -7.0537679    223.17169  0.024698062  0.024926154            8 
  754000   0.94215917   -7.1179002    222.45369  0.024585951  0.024905286            4 
  755000   0.95951214    -7.110875    223.11484  0.024626363  0.024884087            3 
  756000   0.95150938    -7.073898    223.32269  0.024616699  0.024862966            3 
  757000   0.95840568   -7.1067695    223.28789  0.024580349  0.024841967            8 
  758000   0.97215571   -7.1044479    223.49879  0.024571107  0.024821135            7 
  759000   0.94779418   -7.0937335     224.0153  0.024595443  0.024800408            5 
  760000   0.94040703   -7.0404555     224.3214  0.024596645  0.024779919            4 
  761000    0.9542569   -7.0828501    224.95892  0.024634135   0.02475935            3 
  762000   0.95707309   -7.0847565    224.31361  0.024531234  0.024738762           20 
  763000   0.95673222   -7.0912408    224.50736  0.024520245  0.024718283            5 
  764000   0.92555339   -7.0889278    225.17058  0.024560491  0.024697725            5 
  765000   0.94932525   -7.1220163    224.60721  0.024467017  0.024677091            8 
  766000   0.94615172   -7.1031475    225.12971  0.024491918  0.024656627            4 
  767000   0.96624983   -7.1195237    225.47864  0.024497897   0.02463636            8 
  768000   0.95523816   -7.0875722    226.22171  0.024546627   0.02461615            8 
  769000   0.93640773   -7.0906105    225.37542  0.024422997  0.024595995            5 
  770000   0.95017242   -7.1214229    225.25062  0.024377773    0.0245757            4 
  771000   0.93975585   -7.1157725    225.84481  0.024410378  0.024555497            2 
  772000   0.94632333   -7.0992966    226.04418  0.024400279   0.02453562            9 
  773000   0.95169792   -7.1088874    225.87408  0.024350376   0.02451547            5 
  774000   0.96308572   -7.1077655    225.69079  0.024299181  0.024495261            5 
  775000   0.93512829   -7.0748048    226.44953  0.024349411   0.02447503            3 
  776000   0.94692369   -7.1192227    225.96852  0.024266379  0.024454808            3 
  777000   0.93998403   -7.1078391    226.34666  0.024275704  0.024434643            6 
  778000   0.94697267   -7.1245892    226.57331  0.024268778  0.024414513            4 
  779000   0.96423703   -7.1166333    226.47301  0.024226894  0.024394356            4 
  780000   0.91286888   -7.0992434    227.08189  0.024260886  0.024374325            2 
  781000   0.92082116   -7.0739975    226.75867  0.024195334  0.024354015            5 
  782000   0.94941185   -7.1279777    226.56958  0.024144243  0.024333767            9 
  783000   0.91980475   -7.1270721    226.88303  0.024146768  0.024313571            7 
  784000   0.93917522   -7.1362457    227.42548  0.024173627  0.024293156            4 
  785000   0.94221122   -7.1281039    226.83769  0.024080435  0.024272628            5 
  786000   0.95381326   -7.1279747    226.98558  0.024065477  0.024252321           13 
  787000   0.95252506   -7.1182179    227.74643  0.024115462  0.024232205            6 
  788000    0.9583772   -7.1212089    228.37271  0.024151091  0.024212319            6 
  789000   0.93536028   -7.1101485    228.00279   0.02408141  0.024192452            4 
  790000   0.92380521   -7.1156362    227.99698  0.024050314   0.02417239            3 
  791000   0.94135797   -7.0993013    228.16566   0.02403768  0.024152478            7 
  792000   0.93260249    -7.138787     228.0563  0.023995823  0.024132522            8 
  793000   0.95139936    -7.141439    228.59616  0.024022295  0.024112473           14 
  794000   0.93032024    -7.137541    228.76385   0.02400964  0.024092392            4 
  795000   0.92816074   -7.1237889    228.99611  0.024003785   0.02407254            4 
  796000   0.91916686   -7.1249412    229.07295  0.023981674  0.024052746            7 
  797000   0.94036239   -7.1402182     229.3298   0.02397844  0.024032875            4 
  798000   0.94211922   -7.1118206    229.52318  0.023968586  0.024013017            8 
  799000    0.9464818   -7.1779516    228.00649  0.023780401   0.02399294            6 
  800000    0.9244636   -7.1764023    228.61803  0.023814378  0.023972943            8 
  801000   0.94328359   -7.1555456    228.79801  0.023803371  0.023952848            8 
  802000   0.93992809   -7.1491525    229.13092  0.023808283  0.023932659           10 
  803000   0.91112624   -7.1500067    229.18336  0.023784076  0.023912515            9 
  804000   0.89721338   -7.1490392    229.15905  0.023751975  0.023892337            6 
  805000   0.94024984   -7.0941947     229.6787  0.023776263   0.02387234            4 
  806000   0.91859565   -7.1742408    229.42692  0.023720732  0.023852564            9 
  807000   0.91165924   -7.1430758    229.72603  0.023722225   0.02383266            4 
  808000   0.94845047   -7.1538367    230.44338  0.023766851  0.023812835            5 
  809000   0.90809168   -7.1469039    230.59031  0.023752607  0.023792879            8 
  810000   0.95025535   -7.1513524    230.50494    0.0237145  0.023772929           11 
  811000   0.92900302   -7.1488537    230.62318  0.023697408   0.02375312            5 
  812000   0.92056669   -7.1694273    230.42543   0.02364793   0.02373317            3 
  813000    0.9237485   -7.1399317    230.92036  0.023669574  0.023713523            4 
  814000   0.92873525   -7.1319838    230.99695  0.023648337  0.023694025            7 
  815000   0.93969448   -7.1580504    230.79796  0.023598974  0.023674528            7 
  816000   0.93625443   -7.1797693    230.73545  0.023563669  0.023654889            5 
  817000   0.93222069   -7.1985101    230.71772  0.023533019  0.023635238            7 
  818000   0.91348844   -7.1595159    232.17005  0.023652205   0.02361563            7 
  819000   0.91982049    -7.181207    232.41348  0.023648095  0.023596405            5 
  820000   0.94976248    -7.181815    231.91641  0.023568741  0.023577174            6 
  821000    0.9142497    -7.172241    232.61184  0.023610621   0.02355785            6 
  822000   0.92148171   -7.1928963     232.1818  0.023538301  0.023538882            8 
  823000   0.92044679   -7.1674697    232.75099  0.023567334   0.02351975            5 
  824000   0.95335476   -7.1745348    232.04349  0.023467181  0.023500571            4 
  825000   0.92750981   -7.2141708    232.19896   0.02345444  0.023481235            5 
  826000   0.91889781   -7.1549113    233.48676  0.023555968  0.023461983           14 
  827000   0.92196552   -7.2012592    232.73307  0.023451539   0.02344269            9 
  828000   0.92537179   -7.1725794    232.73464  0.023423374  0.023423381            4 
  829000   0.92153575   -7.1699684    233.68855  0.023491009  0.023404328            3 
  830000   0.93421031   -7.2128413    233.50956  0.023444735  0.023385242            8 
  831000   0.90289006   -7.1784984    232.75236   0.02334059   0.02336624            9 
  832000   0.92201535   -7.1967074    233.06127  0.023343477  0.023347082            8 
  833000   0.91995159   -7.1963683    232.70516  0.023279828  0.023327937           14 
  834000   0.94493141    -7.217501    233.12176  0.023293541   0.02330859           12 
  835000   0.89216423   -7.1856633    234.11111  0.023364382   0.02328939            7 
  836000   0.90535488   -7.2012858    233.71603  0.023297052  0.023270316            6 
  837000   0.91844321   -7.1727751     234.1058  0.023308024  0.023250974            6 
  838000   0.89580161   -7.1833444    233.66448  0.023236325  0.023231744            7 
  839000   0.92062679   -7.2283436    233.03985  0.023146588  0.023212245            6 
  840000     0.909745    -7.218404    233.09593  0.023124596  0.023192759            8 
  841000   0.91024971   -7.2072143    234.03997  0.023190643   0.02317318            8 
  842000    0.9185512   -7.1946989    234.11096  0.023170127  0.023153493            8 
  843000   0.92514252   -7.2106681    233.68438  0.023100473  0.023133955            3 
  844000    0.9165566   -7.1954844     233.7286  0.023077468  0.023114354            7 
  845000   0.90484897   -7.1811283    234.13368  0.023090106  0.023094993            5 
  846000   0.91331171   -7.1744875    234.95055  0.023143277   0.02307579           12 
  847000   0.93729887   -7.1824991    234.73142  0.023094394  0.023056807            4 
  848000    0.9031222   -7.1813933    234.49591  0.023044017  0.023037706            4 
  849000   0.91463269    -7.186583    234.45998  0.023013347  0.023018647           10 
  850000   0.91618697   -7.1828579    234.64317  0.023004232  0.022999632           13 
  851000   0.90520166   -7.1908408    235.27108  0.023038688  0.022980506            3 
  852000   0.89988774   -7.1819826    235.01019  0.022986129   0.02296142            5 
  853000   0.90126597   -7.1924834    235.80345  0.023036679  0.022942292            4 
  854000   0.91227919    -7.210333    235.42821  0.022973088  0.022923206            8 
  855000   0.90030636   -7.2258063    235.33792  0.022937419  0.022904297            3 
  856000   0.92407814    -7.226248    235.59468  0.022935619  0.022885316            5 
  857000   0.91286866   -7.1964247    235.62788  0.022912085  0.022866373            5 
  858000   0.92906597   -7.1835557    235.99545  0.022921081  0.022847684            7 
  859000   0.92250264   -7.1735313    236.65719  0.022958594  0.022829065            4 
  860000    0.9038872   -7.1962768     236.7633   0.02294218  0.022810415            6 
  861000   0.90486487   -7.2385714    236.07981  0.022849382  0.022791771            5 
  862000   0.90135546   -7.2358143    236.09086  0.022823943  0.022773076           10 
  863000   0.90976619   -7.2244494    236.57981  0.022844709  0.022754298            6 
  864000   0.92866657   -7.2059017    237.07316  0.022865853   0.02273566            5 
  865000   0.92804094   -7.2172886    236.65826  0.022799447  0.022717013            4 
  866000   0.89900586   -7.2229377    236.97993  0.022804073  0.022698259            8 
  867000   0.91838579   -7.2240823    237.20466  0.022799371  0.022679516           25 
  868000   0.90618279   -7.2516011    236.07344  0.022664501  0.022660991           18 
  869000   0.91928144   -7.2423661    236.70327  0.022698818  0.022642117            9 
  870000   0.90926047   -7.2037048     236.8171  0.022683631  0.022623277            9 
  871000   0.89732513   -7.1940775    237.37136  0.022710616  0.022604643           11 
  872000    0.8868171   -7.2225706    236.90284  0.022639798  0.022585995            4 
  873000    0.9167797   -7.2383787    237.10077  0.022632758    0.0225672            3 
  874000   0.90564111   -7.2428925    236.34621  0.022534917  0.022548317            5 
  875000   0.90356233   -7.2139719     236.6009  0.022533419  0.022529367            3 
  876000   0.91247559    -7.224543    236.71214  0.022518278  0.022510272            5 
  877000   0.90237058   -7.2128579    237.68894  0.022585418  0.022491213            5 
  878000   0.89888191   -7.2703064    237.23941  0.022517029  0.022472188            6 
  879000   0.91173502   -7.2098037    237.52835  0.022518805  0.022453316            4 
  880000   0.88795889   -7.2088935    238.05735   0.02254331  0.022434411           19 
  881000   0.89216883   -7.2463902     237.7878  0.022492225  0.022415619            5 
  882000   0.89592841   -7.2406938    237.71212  0.022459572  0.022396818            6 
  883000   0.90755397   -7.2351327    237.41479  0.022406077  0.022378044            3 
  884000   0.88818183   -7.2664415    238.06117  0.022441664  0.022359189            7 
  885000   0.88152147   -7.2243975    238.17878   0.02242738   0.02234031            8 
  886000   0.92037181   -7.2210764    238.21712  0.022405674  0.022321605            7 
  887000   0.88701432   -7.2038136    238.41707  0.022399199  0.022302917           13 
  888000   0.88830463   -7.2016723     239.0075  0.022429382  0.022284234            6 
  889000   0.92750712   -7.2443051    238.00163  0.022309864  0.022265336           10 
  890000   0.89897943   -7.2622079    238.08678   0.02229277  0.022246415           24 
  891000   0.90416042   -7.2676726    238.92129    0.0223458  0.022227424           15 
  892000   0.90912833    -7.305594    237.66588  0.022203465  0.022208317           13 
  893000   0.89961241   -7.2381338    238.42953  0.022249863  0.022189274            6 
  894000   0.90297015   -7.2739784    238.32824  0.022215533  0.022170388           12 
  895000   0.90626998    -7.285336    239.22594  0.022274296  0.022151408            6 
  896000   0.90280479   -7.2475646    238.91733  0.022220734   0.02213255            4 
  897000   0.88928126   -7.2681726    239.28975   0.02223056  0.022113624            4 
  898000   0.88681067   -7.2733018     238.9541  0.022174657  0.022094686            5 
  899000   0.92404265   -7.2770805    238.09584  0.022070433  0.022075713            5 
  900000   0.88670272   -7.2694555    238.78014  0.022109272  0.022056791            5 
  901000   0.90491307   -7.2718845    239.03846  0.022108626   0.02203791            8 
  902000   0.88966234   -7.2507688    239.79341  0.022153862  0.022019251            4 
  903000   0.89762334   -7.2562839    239.47344  0.022099801  0.022000511            8 
  904000   0.88358618   -7.2174869    239.68674  0.022095017  0.021981708            8 
  905000   0.87357941   -7.2742775    238.85253  0.021993787  0.021962904            9 
  906000   0.90191183   -7.2366476    239.72231  0.022049514  0.021943828            6 
  907000   0.89941072   -7.2702113    239.65909  0.022019394  0.021924873            8 
  908000   0.87553799   -7.3047373    238.85389  0.021921245  0.021905951            2 
  909000   0.87671551   -7.2592209    240.31236  0.022030836  0.021887029            5 
  910000    0.8979812   -7.2682678    239.62397  0.021943587  0.021868062            5 
  911000   0.89383648   -7.2978396    239.51465    0.0219095  0.021849146            9 
  912000   0.88002023   -7.2287755    240.01808  0.021931477  0.021830238            4 
  913000   0.89145739   -7.2757375    239.76269  0.021884145  0.021811522            5 
  914000   0.86964662   -7.2643634     240.0142  0.021883133  0.021792955            5 
  915000   0.87924283   -7.2872846    240.03927    0.0218615  0.021774223           11 
  916000   0.88261768   -7.2986192    239.40274  0.021779725  0.021755462           12 
  917000   0.88679481   -7.2917043    240.15216  0.021824079  0.021736796           16 
  918000   0.90258578   -7.3010887    240.05703  0.021791669  0.021718106           11 
  919000   0.90047491   -7.2569219    241.21307  0.021872785  0.021699649            5 
  920000    0.9008189   -7.3376498    240.23946  0.021760821  0.021681221            9 
  921000   0.87699024    -7.264505    240.97301  0.021803566  0.021662684            4 
  922000   0.87725238   -7.2835708    241.45215  0.021823224  0.021644445            8 
  923000   0.89646631    -7.250564    240.89474  0.021749255   0.02162606            5 
  924000   0.89640239   -7.2621434    241.59052  0.021788467  0.021607677           10 
  925000   0.89651809   -7.2712712    241.36921  0.021744974  0.021589363            6 
  926000   0.86902108   -7.2947653     241.1411  0.021700962  0.021570959            5 
  927000   0.90057578   -7.3053753    241.73173  0.021730648  0.021552691            6 
  928000   0.88580487    -7.311024    241.01028  0.021642446  0.021534342           10 
  929000   0.88663715   -7.3118223    241.12933  0.021629828  0.021515993            8 
  930000   0.89424758   -7.2640676    242.02934  0.021687217   0.02149785            7 
  931000    0.8823385   -7.2773583    241.85302   0.02164814  0.021479711            6 
  932000   0.88528728   -7.3129694    241.72724  0.021613666   0.02146164            6 
  933000   0.87219911   -7.3020178    242.72729  0.021679822  0.021443538            5 
  934000   0.88467314   -7.2855503    242.41474  0.021628724  0.021425433            6 
  935000   0.87320761   -7.2986976    242.20029  0.021586479  0.021407261            9 
  936000   0.88599665   -7.2729527    243.21808  0.021654031  0.021389228            7 
  937000   0.87451705   -7.2956928    242.55255  0.021571731  0.021371197            7 
  938000   0.87751555   -7.2564989    243.15759  0.021602486  0.021353164           13 
  939000   0.88194439   -7.3241299     242.5889  0.021529011   0.02133525            7 
  940000   0.88664613   -7.2974249    242.62021  0.021508884  0.021317223            6 
  941000   0.88460756    -7.300883    242.54676  0.021479522  0.021299186            8 
  942000   0.88438735   -7.2477614    242.95232  0.021492598  0.021281189           10 
  943000   0.87698279   -7.3370243    241.78673  0.021366802  0.021262946            7 
  944000   0.87814985   -7.3048389    242.97291   0.02144888  0.021244673           13 
  945000   0.88506577   -7.2734474    243.31147  0.021456038  0.021226638            5 
  946000    0.8642188   -7.3136762    242.82948  0.021390898  0.021208632            4 
  947000   0.86805319   -7.3344973    243.10048  0.021392157  0.021190463            8 
  948000   0.87842889   -7.3027468    243.21668  0.021379807  0.021172321            6 
  949000   0.87091479   -7.3235043    243.89287  0.021416656    0.0211542            7 
  950000   0.87050175    -7.327942    243.30473   0.02134252  0.021136188            4 
  951000   0.88545901   -7.2858541    243.72221  0.021356661  0.021118177            8 
  952000   0.87731341   -7.2531441    243.28973   0.02129637  0.021100284            5 
  953000   0.87663203   -7.3476254      242.971  0.021246152   0.02108219            7 
  954000      0.87276   -7.3310408    243.44078  0.021264918  0.021064094            9 
  955000   0.86981057   -7.2885458    243.82368  0.021276063  0.021046064           18 
  956000   0.86561536   -7.2906882    243.76856  0.021249002  0.021028151            3 
  957000    0.8667066   -7.2907392    244.05091  0.021251386  0.021010341            9 
  958000   0.88982758    -7.338087    243.30097  0.021163967  0.020992393            7 
  959000   0.86217953   -7.3417759    243.93967  0.021197399  0.020974346            6 
  960000   0.87927123   -7.3473054      243.858  0.021168229  0.020956152           14 
  961000   0.85508512   -7.3487635    243.92678  0.021152166  0.020938259            9 
  962000   0.87657312   -7.3297827      244.484  0.021178448  0.020920423            4 
  963000   0.88782062   -7.3116352    244.34851  0.021144731  0.020902726            5 
  964000   0.85343377   -7.3768045    243.59021  0.021057245  0.020884745            8 
  965000   0.86168217   -7.3468707    244.08645  0.021078277   0.02086683           10 
  966000   0.89237074   -7.3447428    244.21751  0.021067763  0.020849008           10 
  967000   0.87150346   -7.3392892    244.46423  0.021067238  0.020831257           11 
  968000   0.86061869   -7.3431829    245.22834  0.021111255  0.020813518           10 
  969000   0.87223631   -7.3626935    244.19695   0.02100077  0.020795678           14 
  970000   0.87469459   -7.3776009    244.84176  0.021034516  0.020777724           16 
  971000   0.86527436   -7.3998664    244.45086  0.020979305  0.020759855            5 
  972000   0.87252006   -7.3903535    244.21371  0.020937389  0.020741952           12 
  973000   0.86488879   -7.3268204    245.62401  0.021036657   0.02072425           31 
  974000    0.8659502   -7.3615891    244.90782  0.020953783  0.020706608           10 
  975000   0.87175473   -7.3431974     245.4741  0.020980692  0.020688855           16 
  976000   0.88641696   -7.3711844     244.6173   0.02088604  0.020671116           13 
  977000   0.86527872   -7.3430553    244.72682  0.020874004  0.020653405           16 
  978000   0.85956141   -7.3637228    244.60503  0.020842282  0.020635683           19 
  979000   0.88600971   -7.3849385    244.52639  0.020814299  0.020617791           13 
  980000   0.85517528   -7.3794953    244.56318  0.020796189  0.020599897            9 
  981000   0.87271433   -7.3673374     245.2551  0.020833766  0.020582073            9 
  982000   0.87765756   -7.3387488    245.53066  0.020835935  0.020564384           23 
  983000   0.84910367   -7.3410007    245.25649  0.020791496  0.020546679            8 
  984000    0.8551177   -7.3627556    245.14329   0.02076078  0.020528932           14 
  985000    0.8734282   -7.3860959    244.84567  0.020714523  0.020511263            9 
  986000   0.86888522   -7.3900655    245.12442  0.020717074  0.020493519           16 
  987000   0.85197612   -7.3395857    245.73859  0.020747939  0.020475809           14 
  988000   0.85027347   -7.3460788    245.73195  0.020726379  0.020458169            9 
  989000   0.87528669   -7.3715828    246.05489  0.020732633  0.020440513            8 
  990000   0.86289362   -7.3650553    245.80879  0.020690976  0.020422837            5 
  991000   0.86741883   -7.3564089    246.19168  0.020702294  0.020405205            6 
  992000   0.85000613   -7.3802323     245.3313  0.020609148  0.020387523           11 
  993000   0.86526688   -7.3990412    245.95678  0.020640884  0.020370012           20 
  994000   0.87167154   -7.3916931     246.0081  0.020624421   0.02035243           10 
  995000   0.84559119   -7.3989937     245.8656  0.020591759  0.020334774           10 
  996000   0.86643474   -7.4085145    245.81323  0.020566703  0.020317255            9 
  997000   0.85310593   -7.3853055    246.04923    0.0205658   0.02029956           10 
  998000   0.84279542   -7.4139444     246.4442  0.020578173  0.020282059            9 
  999000    0.8599292   -7.3659909    246.32298  0.020547462  0.020264588           26 
 1000000   0.86364887   -7.4187764    246.44734  0.020537278    0.0202471            8 
 1001000   0.85180987   -7.4100038    246.52017  0.020522825   0.02022962           10 
 1002000   0.86474098   -7.4178281    246.14392  0.020471051  0.020212064            8 
 1003000   0.84365959    -7.423502    246.45314  0.020476333  0.020194497           11 
 1004000   0.83858921    -7.421792    245.56395  0.020382134  0.020176945            9 
 1005000   0.84173836   -7.3983882    246.28183  0.020421379  0.020159363            9 
 1006000   0.85024554   -7.4040567    246.14048   0.02038937  0.020141704            7 
 1007000   0.87307272   -7.4327597     246.8424  0.020427209  0.020124075           23 
 1008000   0.85843366   -7.3987043    246.58392  0.020385576  0.020106366           10 
 1009000   0.84575309    -7.409268    246.58637  0.020365574  0.020088895            6 
 1010000   0.83528469   -7.3784984    247.21397  0.020397192  0.020071522           10 
 1011000   0.85010847   -7.4054719    246.44173  0.020313364  0.020054139           12 
 1012000   0.85189875   -7.3884468    247.06125  0.020344306  0.020036767           20 
 1013000   0.84096379   -7.3932214    247.53876  0.020363504  0.020019539            6 
 1014000   0.84444024   -7.3762707     247.6464  0.020352268  0.020002418            8 
 1015000   0.83638057   -7.4034207    246.97621  0.020277193  0.019985181           18 
 1016000   0.84688001   -7.4020637    247.20704  0.020276168  0.019967864           13 
 1017000   0.84917697   -7.3827306    247.61357  0.020289542  0.019950634            7 
 1018000   0.82990025   -7.3669311    247.20909  0.020236501  0.019933454            4 
 1019000   0.84428493   -7.4319214    246.98255  0.020198115  0.019916262           11 
 1020000   0.83569772   -7.4041487    247.24479  0.020199738   0.01989884           17 
 1021000   0.86232748   -7.4301069    246.94497  0.020155482  0.019881306           10 
 1022000   0.83421035   -7.4167008    247.51444  0.020182195  0.019863848            6 
 1023000    0.8501985   -7.4270719    247.08194  0.020127235  0.019846524           13 
 1024000   0.85179674   -7.4032721    247.79675  0.020165751  0.019829068            5 
 1025000     0.842018   -7.4234792    247.51472  0.020123148  0.019811679           17 
 1026000   0.85290606   -7.4520609    247.01813  0.020063201  0.019794322            8 
 1027000   0.85514443   -7.4056329    247.55184  0.020086972  0.019776983           12 
 1028000   0.82994649   -7.4322913    247.44777  0.020058995  0.019759794            7 
 1029000   0.83822886   -7.4135359     248.0885  0.020091391   0.01974268            8 
 1030000   0.83777955   -7.4190073    247.54955  0.020028281  0.019725439            7 
 1031000   0.83749315   -7.4095101     248.0932  0.020052797  0.019708247           10 
 1032000   0.84355862   -7.4284629    247.49223  0.019984837  0.019691096           11 
 1033000   0.83477267   -7.4523104    247.20978  0.019942705  0.019673731            5 
 1034000   0.84049087    -7.438181    247.49548  0.019946444    0.0196563           14 
 1035000   0.84332601   -7.4309767    248.25785  0.019988555  0.019639024           13 
 1036000   0.83850188   -7.4390465    247.87699  0.019938625  0.019621792            8 
 1037000   0.83591791   -7.4444182    247.57203  0.019894891  0.019604484            8 
 1038000   0.84953465   -7.4081969     248.5867  0.019957185  0.019587208            6 
 1039000   0.84104593   -7.4454857    247.59077  0.019858099  0.019570011           10 
 1040000   0.83421642   -7.4337173    247.66168  0.019844686  0.019552871           10 
 1041000   0.82540478    -7.434159    248.11698   0.01986207  0.019535653           14 
 1042000   0.82832278    -7.421685    247.30385  0.019777979  0.019518283            7 
 1043000    0.8413796   -7.4630215    247.74137  0.019793973  0.019500836            9 
 1044000   0.82923237   -7.4462488    247.45231  0.019751941  0.019483389           10 
 1045000   0.84104844   -7.4516598    247.69776  0.019752612  0.019466005           13 
 1046000   0.83878332   -7.4457593    247.40338  0.019710275  0.019448658            9 
 1047000   0.84117318   -7.4425696     248.2558  0.019759296  0.019431318            7 
 1048000   0.84102985   -7.4388878    247.98128  0.019718613  0.019413851            8 
 1049000   0.82689581   -7.4681762    247.94679  0.019697076  0.019396396            8 
 1050000   0.84341916   -7.4427632    248.07587  0.019688561  0.019379091           12 
 1051000   0.83528891   -7.4705479    247.07148  0.019590191  0.019361723           16 
 1052000   0.83178296   -7.4482473    247.62489  0.019615406  0.019344374           20 
 1053000   0.83918664   -7.4455559    248.23809  0.019645307  0.019327005           16 
 1054000   0.84233719   -7.4801094    247.47863  0.019566621  0.019309572           12 
 1055000   0.83466355   -7.4622885    248.23758  0.019608023  0.019292042           13 
 1056000   0.83307124   -7.4365649    248.58275  0.019616694  0.019274714           14 
 1057000    0.8335497   -7.4703148    248.25352  0.019572179  0.019257466           11 
 1058000    0.8407856   -7.4070844    248.62361   0.01958283   0.01924021            7 
 1059000   0.81852283     -7.44158    248.45535  0.019551097  0.019223106           13 
 1060000    0.8379371   -7.4193718    248.77834  0.019558046  0.019206022            9 
 1061000   0.83736145   -7.4404889    248.77804  0.019539588  0.019188956            9 
 1062000   0.82075893   -7.4684764    248.44799  0.019495291  0.019171747           14 
 1063000   0.81862693   -7.5058026    248.63411  0.019491542  0.019154486            6 
 1064000   0.84052236    -7.479309     248.0806  0.019429872  0.019137242           12 
 1065000   0.82627829   -7.5005079    248.17672  0.019419149   0.01911996           21 
 1066000   0.82541887   -7.4518773    249.19512  0.019480544  0.019102843           10 
 1067000   0.84605268   -7.4802064    248.81455  0.019432564  0.019085678           12 
 1068000   0.82487464   -7.4304359     249.1071  0.019437195  0.019068565           16 
 1069000   0.83217012   -7.4688086    249.32883  0.019436298   0.01905148            8 
 1070000   0.82349535   -7.4574758       248.86   0.01938162  0.019034458           14 
 1071000   0.82475664   -7.4578928    249.38895   0.01940468  0.019017354            8 
 1072000   0.83438255   -7.4664976    249.18787  0.019370948  0.019000381            6 
 1073000   0.81955262   -7.4908577    248.72705  0.019317106  0.018983356           11 
 1074000   0.80554431   -7.4783302     249.3508  0.019347517  0.018966357            6 
 1075000   0.82787026   -7.4698808    249.61243    0.0193498  0.018949405            6 
 1076000    0.8372623   -7.4871984    249.93577   0.01935686  0.018932512            7 
 1077000   0.82592201   -7.4660052    249.61799  0.019314298  0.018915619            7 
 1078000   0.83196873   -7.4673505    249.15963  0.019260949  0.018898654            8 
 1079000   0.80410165   -7.4941967    249.05362   0.01923491  0.018881811            7 
 1080000      0.81236   -7.4704854    249.77102  0.019272455  0.018864943            7 
 1081000    0.8283364   -7.4984223    249.26758  0.019215817  0.018848155            8 
 1082000   0.81660079   -7.4965587    250.06575  0.019259531  0.018831328            5 
 1083000   0.81381403   -7.5047771    249.28858  0.019181946   0.01881452           11 
 1084000   0.83000286   -7.4831542      249.977  0.019217174  0.018797788            7 
 1085000   0.79901491   -7.5209399    248.94398  0.019120121  0.018781043           13 
 1086000   0.81670601   -7.4918595    249.51339  0.019146209  0.018764151           13 
 1087000   0.79686971   -7.5324411    249.03942  0.019092258  0.018747249            8 
 1088000   0.81761142   -7.5161717     249.7464   0.01912886  0.018730242           13 
 1089000   0.81122053   -7.5404147    249.15275  0.019065867   0.01871327            8 
 1090000    0.8081247   -7.5305398    249.03269  0.019039196  0.018696303           20 
 1091000   0.80212756   -7.5254783    249.63534  0.019067777   0.01867931            9 
 1092000    0.8126547   -7.5290175    249.37862  0.019030725  0.018662408           12 
 1093000   0.81246006   -7.5018435    249.62126  0.019031813   0.01864549           10 
 1094000    0.8164489   -7.5234439    249.06748  0.018972233    0.0186286            8 
 1095000   0.82604483   -7.4969858    248.91735  0.018943481  0.018611721           11 
 1096000   0.83304238   -7.5113913    249.48943  0.018969695  0.018594822           13 
 1097000   0.79930751   -7.4823075    249.57523   0.01895892   0.01857797           20 
 1098000   0.83770561   -7.5248643    249.50862  0.018936598  0.018561155           14 
 1099000    0.8221084    -7.500717     249.2665  0.018901008  0.018544212           23 
 1100000   0.83607468   -7.5380017    249.16483  0.018876123  0.018527264           33 
 1101000    0.8382623   -7.5111118     250.0603  0.018926756  0.018510346           44 
 1102000   0.80294647   -7.5058227    250.44083  0.018938357  0.018493467           13 
 1103000   0.80375105   -7.5315967    250.04428  0.018891227  0.018476651           19 
 1104000   0.81414302   -7.5069477    249.77125  0.018853506  0.018459939           21 
 1105000   0.82087747   -7.5241191    250.09733  0.018861036  0.018443307           22 
 1106000   0.81563796   -7.5318324    249.84215  0.018824755  0.018426591            6 
 1107000   0.82415643   -7.5150873     249.9325  0.018814552  0.018409984           18 
 1108000   0.80876984    -7.492499    249.93987  0.018798125  0.018393327           12 
 1109000   0.81040486    -7.512927    250.78474   0.01884466  0.018376647           21 
 1110000   0.82489693   -7.5039955    250.30435  0.018791618  0.018360027           14 
 1111000    0.8130157   -7.5217354    250.09586  0.018759065  0.018343388           12 
 1112000   0.83413061   -7.5285712    250.13513  0.018745139  0.018326633           13 
 1113000   0.79557575   -7.5299286    249.93418  0.018713251  0.018310019           11 
 1114000   0.80551466   -7.5208521    250.01947  0.018702833  0.018293401           16 
 1115000    0.8095487   -7.4912747    251.30917  0.018782449   0.01827688           10 
 1116000   0.81394481   -7.5228275    250.26069  0.018687327   0.01826034           11 
 1117000   0.83077708   -7.5508036    250.44449   0.01868431  0.018243823           14 
 1118000   0.80696869   -7.5292334    249.90081  0.018627073  0.018227297           11 
 1119000   0.82230438   -7.5409917    250.20202  0.018632858  0.018210757           11 
 1120000   0.81080471   -7.5296344    250.63113   0.01864815  0.018194267           14 
 1121000   0.78806505   -7.5375921    250.06558  0.018589472  0.018177825            6 
 1122000   0.81256966   -7.5211592    250.11801  0.018576798  0.018161393            6 
 1123000   0.80163803   -7.5387183    250.21631   0.01856755  0.018144926           18 
 1124000   0.80127395   -7.5372668    250.36611  0.018562137  0.018128485           12 
 1125000   0.78304974   -7.5319616    251.26905  0.018612522  0.018112055           22 
 1126000   0.82128616   -7.5464477    250.39101   0.01853101  0.018095664           11 
 1127000   0.79983085   -7.5697482    250.42245  0.018516892  0.018079212           17 
 1128000   0.83105256   -7.5495801    250.49868  0.018506108  0.018062815            7 
 1129000   0.80545758   -7.5808435    251.33056  0.018551119  0.018046536           17 
 1130000   0.80912126   -7.5312208    251.67203  0.018559884  0.018030318           16 
 1131000   0.81497445   -7.5309394    251.17551   0.01850689  0.018014127           24 
 1132000    0.7944592   -7.5138845    251.64557  0.018525145  0.017997954           20 
 1133000   0.80365924   -7.5493991    251.29985  0.018483366   0.01798183           35 
 1134000   0.81751708   -7.5647854     251.0729  0.018450389  0.017965556           35 
 1135000   0.79555255   -7.5383101    251.24688  0.018446907  0.017949224           15 
 1136000   0.78647019   -7.5394887    251.54908  0.018452837  0.017933022           30 
 1137000   0.78075784   -7.5829905    250.43275   0.01835479  0.017916727           22 
 1138000   0.81096042   -7.5655408    251.29094  0.018401504  0.017900456            9 
 1139000   0.80713543   -7.5580919    250.82963  0.018351597   0.01788418           16 
 1140000   0.80454188   -7.5824313    250.72447  0.018327812   0.01786787           15 
 1141000    0.8004995   -7.5873753    250.27093  0.018278625  0.017851544           21 
 1142000   0.79593981   -7.5630206    250.40097  0.018272108  0.017835181           12 
 1143000   0.79062735   -7.5981967    250.57835  0.018269055  0.017818887           13 
 1144000      0.79068    -7.612842    250.97426  0.018281924  0.017802553           10 
 1145000    0.7955603   -7.5770786    250.97263  0.018265839   0.01778612           11 
 1146000   0.79563404   -7.6009492    251.03942  0.018254757  0.017769774           12 
 1147000   0.79450732   -7.5914636    250.32431  0.018186886  0.017753358           10 
 1148000   0.79134215   -7.5730851    250.90998  0.018213558  0.017737032           18 
 1149000   0.80317017    -7.577758    251.20161  0.018218858  0.017720796           25 
 1150000   0.80460317   -7.5855987    250.93357  0.018183592  0.017704543            9 
 1151000   0.77746283    -7.572231    251.25524  0.018191083   0.01768827           11 
 1152000   0.78318552   -7.5854969    251.04088  0.018159786  0.017672054           16 
 1153000    0.7714474   -7.5749231    250.26364  0.018087861  0.017655868           10 
 1154000    0.7966143   -7.5660026    251.25905  0.018144067  0.017639716           19 
 1155000   0.77561632   -7.6067069    251.29545  0.018130985  0.017623536           39 
 1156000   0.78663312   -7.5700158    251.25752  0.018112566   0.01760737           14 
 1157000   0.77577171   -7.5940576    251.22449  0.018094532   0.01759125           12 
 1158000   0.79924732   -7.5737813    252.33618  0.018158908   0.01757515            8 
 1159000   0.79577026   -7.5547029     252.0878  0.018125381  0.017559245           11 
 1160000   0.79248069   -7.5729357    251.21034   0.01804672  0.017543231           14 
 1161000   0.79684876   -7.6163491    250.65595  0.017991383  0.017527136           20 
 1162000   0.78059187   -7.5919661    251.65879  0.018047819  0.017511037           16 
 1163000   0.79753401   -7.6038797    250.65433  0.017960327  0.017494911           28 
 1164000   0.79018585   -7.6106588    251.06563  0.017974343  0.017478799           14 
 1165000   0.78615913   -7.5828564    251.28303  0.017974466  0.017462837           17 
 1166000   0.79138528   -7.5974105    251.23462   0.01795559   0.01744685           30 
 1167000   0.76531765   -7.5942511    251.34101  0.017947802  0.017430869           42 
 1168000   0.79733251   -7.6052601    251.42078  0.017938126  0.017414858           27 
 1169000    0.7769503   -7.6123848    251.65694  0.017939616  0.017398947           29 
 1170000   0.78006037    -7.619707    252.00412  0.017949011  0.017383066            6 
 1171000   0.80604853   -7.6298187    251.54938  0.017901323  0.017367137           22 
 1172000   0.78490399   -7.5959438    251.64706  0.017892993  0.017351185            7 
 1173000   0.77923055   -7.6028314    251.78834  0.017887777  0.017335303           13 
 1174000     0.788191   -7.5824457    252.08553  0.017893635  0.017319412           22 
 1175000   0.79132351   -7.5712298    252.30011  0.017893625   0.01730355           21 
 1176000   0.79694497   -7.5997174    251.81081  0.017843736  0.017287661           18 
 1177000   0.79051337   -7.5969673    251.56566  0.017811219  0.017271796            6 
 1178000   0.76353535   -7.5677048    252.06137  0.017831166  0.017255952           10 
 1179000   0.78407172   -7.5999344    251.70374  0.017790765  0.017240104            8 
 1180000   0.80079055   -7.6164011    251.16857  0.017737893   0.01722426           11 
 1181000   0.78932754   -7.6340841    251.28026  0.017730755  0.017208344           12 
 1182000   0.77707902   -7.6117264     251.8088  0.017753018  0.017192425            8 
 1183000   0.78677138   -7.6307601    251.90479  0.017744773  0.017176526           10 
 1184000   0.79445647   -7.6196497    251.16128  0.017677455  0.017160605           12 
 1185000   0.79668829   -7.6317155    251.10093  0.017658293  0.017144695           28 
 1186000   0.79515916   -7.6183025    251.73897  0.017688236  0.017128917           18 
 1187000   0.78801912   -7.6186905    251.52112   0.01765804  0.017113097            5 
 1188000   0.76722532   -7.6116743    251.98288  0.017675567  0.017097305           13 
 1189000   0.78703205   -7.5977901    251.54356  0.017629911   0.01708148           19 
 1190000   0.78767977   -7.6151283    251.74565  0.017629247  0.017065652            8 
 1191000    0.7804602   -7.5726179    252.55875  0.017671337  0.017049898           28 
 1192000   0.78958382   -7.6047879    251.75673  0.017600442  0.017034178           35 
 1193000   0.76611534   -7.6098339    251.70038  0.017581753  0.017018393           21 
 1194000   0.79011737   -7.6169603    252.00148  0.017588043  0.017002606           22 
 1195000    0.7786995   -7.6298416    251.89583  0.017565958  0.016986801           29 
 1196000   0.76623697   -7.6167267    251.42639  0.017518561  0.016971029           23 
 1197000   0.78612885   -7.6306023     251.6996  0.017522946  0.016955283           20 
 1198000   0.76994966   -7.6154099    251.39251  0.017486958  0.016939528           16 
 1199000   0.76191573   -7.6321807    251.88334  0.017506487   0.01692383           52 
 1200000   0.78736687   -7.6117081     251.9598  0.017497208  0.016908142           40 
 1201000   0.77847566   -7.6335189    251.74601  0.017467805  0.016892506            8 
 1202000   0.78229617    -7.675933    251.44199  0.017432196  0.016876858           17 
 1203000   0.78722767   -7.6458156    251.52593   0.01742352  0.016861206           23 
 1204000   0.78138919   -7.6779567    251.86414  0.017432457   0.01684555           37 
 1205000    0.7460758   -7.6736615    251.77787  0.017412024  0.016829923           26 
 1206000    0.7601645   -7.6742025    251.86876  0.017403867  0.016814225           39 
 1207000   0.76537129   -7.6719065    251.16669  0.017340975  0.016798518           24 
 1208000   0.78179128   -7.6905543      251.468  0.017347406  0.016782803           28 
 1209000   0.77140353   -7.6680956    251.99136  0.017369132  0.016767064           36 
 1210000   0.75803419   -7.6932556    251.51412  0.017321909  0.016751302           40 
 1211000   0.77501306   -7.7230382    250.83041  0.017260557   0.01673551           34 
 1212000   0.78168178   -7.6669277    251.59166  0.017298657  0.016719778           58 
 1213000    0.7793602     -7.70099    250.51485  0.017210418  0.016704055           63 
 1214000    0.7720121   -7.6810554    251.98083  0.017296872  0.016688382           32 
 1215000     0.754985   -7.6845167    251.29394  0.017235524  0.016672749           57 
 1216000   0.78029983   -7.6550873    250.82273  0.017189057  0.016657093           18 
 1217000   0.76825554   -7.6833798    251.57904  0.017226721  0.016641457           31 
 1218000    0.7790063   -7.6645071    252.06615  0.017245905  0.016625925           38 
 1219000   0.74618015    -7.677708    251.70839  0.017207301  0.016610395           49 
 1220000    0.7694594   -7.6971862    250.90519  0.017138333  0.016594726           32 
 1221000   0.77082224    -7.674226    251.35312  0.017154867  0.016579193           32 
 1222000   0.76384767   -7.6677928    251.68291  0.017163319  0.016563709           19 
 1223000   0.77089591   -7.6915225    251.75207  0.017153998  0.016548226           17 
 1224000   0.76811888    -7.680293    251.72898  0.017138411  0.016532761           32 
 1225000   0.75667676   -7.7032663    251.32783  0.017097131  0.016517267           30 
 1226000   0.77458954   -7.6664227    251.35926  0.017085322  0.016501764           29 
 1227000   0.77687777   -7.6815982    251.50668   0.01708141  0.016486335           19 
 1228000   0.76764472   -7.6787555     251.9943   0.01710059  0.016470904           35 
 1229000   0.75473768   -7.7127085    251.57314  0.017058119  0.016455445           24 
 1230000   0.75777163   -7.7066963    252.06075  0.017077287  0.016439993           17 
 1231000   0.77904977   -7.7052544    251.60337  0.017032451  0.016424502           16 
 1232000   0.75774259   -7.6719174    252.17128   0.01705704  0.016409056           18 
 1233000   0.76769528   -7.6824854    251.42184  0.016992554  0.016393732           22 
 1234000   0.76630647   -7.6958607    251.88467   0.01701004  0.016378397           22 
 1235000   0.76582097   -7.7003835    251.86007  0.016994607  0.016363043           30 
 1236000   0.74601831   -7.7336968     251.3545   0.01694677  0.016347662           50 
 1237000   0.75760263   -7.6947969    252.14664  0.016986435  0.016332333           18 
 1238000   0.76747933   -7.7191622    251.40968  0.016923107  0.016316943           43 
 1239000   0.76505271    -7.726421    250.92458  0.016876821  0.016301587           18 
 1240000   0.78643137   -7.7378248    251.55207  0.016905381  0.016286161           50 
 1241000   0.75931961   -7.7079262    251.58823  0.016894187  0.016270758           57 
 1242000   0.75414041   -7.7298242    250.82572  0.016829423  0.016255384           46 
 1243000   0.75225517   -7.7310692     251.6595  0.016871782  0.016240003           40 
 1244000   0.75738198    -7.754709    250.90796  0.016807875  0.016224604           72 
 1245000   0.74115127   -7.7397163    251.52792  0.016835872  0.016209232           65 
 1246000   0.75974573   -7.7225293    251.90991  0.016847907  0.016193881           29 
 1247000   0.76217922   -7.7268122    251.18831  0.016786174  0.016178576           49 
 1248000   0.75282799   -7.7229222    251.83654  0.016816009   0.01616325           19 
 1249000   0.74923567   -7.7034227    251.96175  0.016810899  0.016148017           21 
 1250000   0.75085539   -7.7461609    251.50814  0.016767209  0.016132824           21 
 1251000   0.74749291   -7.7217992    251.32952  0.016741908  0.016117578           31 
 1252000   0.76744261   -7.7399585    252.26076  0.016790519  0.016102339           49 
 1253000   0.76228824   -7.7728004    251.49992  0.016726518   0.01608706           26 
 1254000   0.75012138    -7.741258    251.96226  0.016743904  0.016071835           57 
 1255000   0.75417668   -7.7230218     252.2652  0.016750678  0.016056659           28 
 1256000   0.75302652   -7.7380107    251.56029  0.016690571  0.016041451           38 
 1257000   0.74404664   -7.7608539    251.38526   0.01666569  0.016026237           54 
 1258000   0.74685781   -7.7147434    251.95374    0.0166901  0.016011058           55 
 1259000   0.75006029   -7.7727423      251.134  0.016622584  0.015995852           29 
 1260000   0.75316739   -7.7848016    251.69776  0.016646677  0.015980622           65 
 1261000   0.74649792   -7.7615586    251.50254  0.016620575  0.015965401           88 
 1262000   0.74622006   -7.7526702    251.59254  0.016613348  0.015950181           90 
 1263000   0.73200141   -7.7429237    252.06822   0.01663158   0.01593504           54 
 1264000   0.73580411   -7.7518795    251.11992  0.016555902  0.015919898           52 
 1265000   0.72489687   -7.7842093    250.87994  0.016527005  0.015904706           89 
 1266000   0.74239001   -7.7641166    250.97421  0.016520156  0.015889525           68 
 1267000   0.73762198   -7.7720505    251.55804  0.016545517  0.015874392           59 
 1268000   0.75279882   -7.7641811    252.19563  0.016574371  0.015859246           56 
 1269000   0.74943762   -7.7845968    251.06548  0.016487095  0.015844097           37 
 1270000   0.76528514   -7.7725194    251.25267  0.016486395  0.015828984           46 
 1271000   0.75574613   -7.7775502    251.19595  0.016469706  0.015813931           63 
 1272000   0.74666583   -7.7614653    251.81291  0.016497177  0.015798849          102 
 1273000   0.74699156   -7.7840855    251.48317  0.016462632   0.01578375           94 
 1274000   0.74806716   -7.7693334    250.78901  0.016404305  0.015768701           42 
 1275000   0.73341561   -7.7687701    251.68614  0.016450075  0.015753656           92 
 1276000   0.73797487   -7.7668096    251.10077  0.016398953  0.015738574           47 
 1277000   0.74206191   -7.7613748    251.84837  0.016434898  0.015723511           49 
 1278000   0.73154091   -7.7744231    251.08537  0.016372285  0.015708425           67 
 1279000   0.74200038   -7.7659455    251.32096  0.016374835  0.015693318           72 
 1280000   0.73669468   -7.7822729    250.86635  0.016332445  0.015678246           84 
 1281000   0.74161438    -7.788021    251.37082  0.016352512  0.015663234           92 
 1282000   0.73818525   -7.7815039    251.52496  0.016349777  0.015648263           71 
 1283000   0.73940289   -7.7952681    250.88971  0.016295772  0.015633244           49 
 1284000   0.73568132   -7.7744222    251.29326  0.016309272   0.01561823           69 
 1285000   0.73194728   -7.8083225    251.28411  0.016295986  0.015603238           74 
 1286000   0.74160272   -7.7775554    251.33642  0.016286705  0.015588272           75 
 1287000   0.73645133   -7.7944615    251.02899  0.016254143  0.015573328           85 
 1288000   0.74078615     -7.77604    251.10004   0.01624612  0.015558375           82 
 1289000    0.7251748   -7.8011633    251.31018  0.016247102  0.015543415          137 
 1290000   0.73016666   -7.7953624    251.30707  0.016234307  0.015528456          176 
 1291000   0.74633552   -7.8088682    250.79445  0.016188642  0.015513535          195 
 1292000   0.73937371   -7.8239739    250.70554  0.016170378  0.015498579          171 
 1293000   0.73551853   -7.7954371    251.24062  0.016192357  0.015483687           43 
 1294000   0.72131743    -7.830224    250.55026  0.016135385  0.015468807           73 
 1295000   0.72602341   -7.7953096    251.46227  0.016181613  0.015453927          133 
 1296000   0.74406724   -7.8119206    251.15562   0.01614941  0.015439058          117 
 1297000   0.73892494   -7.8020378    251.16358   0.01613747  0.015424232          106 
 1298000   0.72942524   -7.8068276    251.45467  0.016143726  0.015409423           88 
 1299000   0.73322011   -7.8013586    251.15856  0.016112302  0.015394615          116 
 1300000    0.7225197   -7.8108585    251.38207  0.016114235  0.015379821          182 
 1301000   0.73309165   -7.7878189    251.33576  0.016098883  0.015365036           60 
 1302000   0.72383417   -7.8244678    251.49089  0.016096447  0.015350274           74 
 1303000   0.71703686   -7.8320548    250.77758  0.016038474  0.015335487          109 
 1304000   0.73793318   -7.8161436    250.90969  0.016034617  0.015320689           89 
 1305000   0.74175369   -7.8185412    251.37382  0.016051968  0.015305926           89 
 1306000   0.72640152   -7.8353979    251.66047  0.016057968  0.015291215          116 
 1307000   0.73331025   -7.8110917    251.17143  0.016014501   0.01527654           48 
 1308000   0.74290007   -7.8551719    251.04556  0.015994238  0.015261874           72 
 1309000   0.75461644   -7.8017521    251.49881  0.016010874  0.015247185          113 
 1310000   0.73556199   -7.8264929    251.08102  0.015972075  0.015232563           52 
 1311000   0.72915235   -7.8150817    251.21505  0.015968411  0.015217919           59 
 1312000   0.73745151   -7.8209688    251.50525  0.015974673    0.0152033           71 
 1313000   0.72398892   -7.8032283    251.56532  0.015966319  0.015188709          118 
 1314000   0.72830044   -7.8452855    251.20727   0.01593146  0.015174154          125 
 1315000   0.73604878   -7.7821663    251.24902  0.015921991  0.015159609           65 
 1316000    0.7370487   -7.7953464    251.64479  0.015934954  0.015145114           93 
 1317000   0.72466135   -7.8006369    251.74603   0.01592926  0.015130589           47 
 1318000   0.74137514   -7.8076224    251.00072   0.01587005  0.015116085           56 
 1319000   0.72775655   -7.8203399    251.47706  0.015888113  0.015101581           39 
 1320000   0.72797895   -7.8354693    251.16094   0.01585612  0.015087131           47 
 1321000   0.72221465   -7.8015442     251.1412  0.015842872  0.015072593           29 
 1322000   0.74117958   -7.8080115    251.35686  0.015844482  0.015058117           56 
 1323000   0.72928936    -7.828028    251.41799  0.015836356  0.015043629           29 
 1324000    0.7363237   -7.8463045     250.9126  0.015792585  0.015029157           89 
 1325000   0.71961664    -7.814387     251.0574  0.015789774  0.015014665           61 
 1326000   0.73661162   -7.8268276    251.19701   0.01578664  0.015000236           79 
 1327000   0.71298384   -7.8185866    251.57273  0.015798338   0.01498578           41 
 1328000   0.71814954   -7.8431844    250.81122  0.015738656  0.014971329           46 
 1329000   0.71515991   -7.8352618    250.90044  0.015732408  0.014956877           86 
 1330000   0.71261539    -7.810602     251.3819  0.015750746  0.014942468           72 
 1331000   0.71884481   -7.8526359    251.35864  0.015737455  0.014928083           89 
 1332000   0.72279374   -7.8336603     251.3778  0.015726839  0.014913737           46 
 1333000   0.70896025   -7.8556595    251.27066  0.015708343  0.014899398          116 
 1334000   0.69861927   -7.8514245    251.02795  0.015681406  0.014885047           73 
 1335000   0.73730025   -7.8490268    251.39976  0.015692869  0.014870752           66 
 1336000   0.71700638   -7.8347783    251.23865  0.015671073  0.014856446           73 
 1337000   0.73016713     -7.85542    251.25796  0.015660556  0.014842164           72 
 1338000   0.70593663   -7.8501182    251.21366  0.015646092  0.014827871           57 
 1339000    0.7308505   -7.8333718    250.77034  0.015606817  0.014813596           96 
 1340000   0.71287825   -7.8385732    251.49183  0.015640039  0.014799366           36 
 1341000   0.71625239   -7.8625568    251.03468  0.015599968  0.014785146           48 
 1342000   0.71652035   -7.8560556    250.77201  0.015572032  0.014770912           35 
 1343000   0.70524897   -7.8618668    251.20515  0.015587314  0.014756719           65 
 1344000    0.7149717   -7.8779453    250.96401  0.015560764  0.014742503           82 
 1345000    0.7285207    -7.871541    251.19263   0.01556336  0.014728309           56 
 1346000   0.73418154   -7.8692902    250.72741  0.015522995  0.014714114           65 
 1347000   0.71098798   -7.8651347    251.00471  0.015528626  0.014699943           48 
 1348000   0.73255242   -7.9008815     250.8186  0.015505601  0.014685747          119 
 1349000     0.706828   -7.8593795    251.21916  0.015518851  0.014671575           84 
 1350000   0.71891312   -7.8427246    251.14333  0.015502675  0.014657398           58 
 1351000   0.72507232   -7.8718249    251.32915  0.015502661  0.014643223           80 
 1352000   0.70839354   -7.8951381    251.45289  0.015498822  0.014629062          108 
 1353000   0.70669084    -7.884935     250.9619  0.015457126  0.014614893           50 
 1354000   0.72144827   -7.8800474    251.08687  0.015453402    0.0146008           80 
 1355000   0.70946217   -7.8799944    250.93227  0.015432489  0.014586713           28 
 1356000   0.72211742   -7.8715237    250.77909  0.015411694  0.014572628           70 
 1357000   0.73195048   -7.8500764    251.07984  0.015418806  0.014558584          102 
 1358000   0.70968744   -7.8659196    251.00315  0.015402746  0.014544592           37 
 1359000   0.71017653   -7.8817431    250.74287  0.015375452  0.014530576           70 
 1360000   0.70777416    -7.869651    250.78349  0.015366635  0.014516589           63 
 1361000   0.70114828   -7.8508652    251.78537  0.015416689  0.014502596           48 
 1362000    0.6940483   -7.8618433    251.06371  0.015361216  0.014488639           57 
 1363000    0.7092653   -7.8774997    251.43001  0.015372341  0.014474688           52 
 1364000   0.69725321   -7.8575016    251.26527  0.015351006  0.014460775           54 
 1365000   0.71838786   -7.8858639    251.20123   0.01533585  0.014446898           61 
 1366000   0.70656642   -7.8677625     251.0747  0.015316904  0.014433009          122 
 1367000   0.70175714   -7.8669209    251.21898  0.015314495  0.014419111          145 
 1368000    0.6977301   -7.8804138    251.21239  0.015302899  0.014405196          103 
 1369000   0.70390407   -7.8783514    250.88651  0.015271884  0.014391263          128 
 1370000   0.69449865    -7.881639    250.84393  0.015258147  0.014377342          155 
 1371000   0.68807066   -7.8890633     250.3432  0.015216581    0.0143634          144 
 1372000   0.70103829   -7.8845911    250.85292   0.01523645  0.014349464          104 
 1373000   0.71788185    -7.916777    250.14688    0.0151825  0.014335617          104 
 1374000   0.71262306   -7.8862488    250.95992  0.015220762  0.014321738          102 
 1375000   0.70333735   -7.8814876    250.56544  0.015185784  0.014307916           78 
 1376000   0.68848616    -7.899522    250.64859  0.015179784  0.014294111           96 
 1377000   0.69939612   -7.8817293    250.46031  0.015157366  0.014280234          125 
 1378000    0.7064542   -7.9049403    250.78109  0.015165765  0.014266361          103 
 1379000   0.68439635   -7.8694804    251.02025   0.01516922  0.014252526          148 
 1380000   0.70122508   -7.9023543    250.52437  0.015128283  0.014238691          109 
 1381000   0.69063776   -7.9024814    251.35145  0.015167237  0.014224884           56 
 1382000   0.70827813   -7.8827988     251.1037  0.015141323  0.014211128           83 
 1383000   0.70706092    -7.921771    250.64543  0.015102761  0.014197403          156 
 1384000   0.69887497   -7.8983953    250.25393  0.015068276  0.014183626          110 
 1385000   0.69020081   -7.9142228    251.04459  0.015104969    0.0141699          126 
 1386000   0.69552717   -7.9076306    250.65918  0.015070898  0.014156164          168 
 1387000   0.72440617   -7.9155371    250.54484  0.015053163  0.014142428          126 
 1388000   0.69739184   -7.9378994    250.25607   0.01502498  0.014128685          153 
 1389000   0.69031861   -7.9184215    250.41403   0.01502364  0.014114982           99 
 1390000   0.71062142   -7.9058935    251.12858   0.01505567  0.014101364          106 
 1391000   0.69477912   -7.9298162    250.55919  0.015010735  0.014087755          129 
 1392000   0.69881703   -7.9146212    250.86502   0.01501826  0.014074139          177 
 1393000   0.70169838   -7.9171851     250.8819  0.015008489  0.014060565          250 
 1394000   0.69952659   -7.9357292    251.26528  0.015020641  0.014047006          105 
 1395000   0.67885027    -7.904311    250.69691  0.014975921  0.014033453          136 
 1396000   0.69998904   -7.8967303     250.5464  0.014956208  0.014019915          125 
 1397000   0.70527964   -7.9191866    250.52434  0.014944186  0.014006373          175 
 1398000   0.69104487   -7.8827893    250.64857  0.014940902   0.01399286          157 
 1399000   0.70071322   -7.9095944    250.57097    0.0149256  0.013979296          110 
 1400000   0.70464612   -7.9149701    250.93697  0.014936724  0.013965775          153 
 1401000   0.69688613    -7.941881    250.17385  0.014880672  0.013952284          126 
 1402000   0.69209535   -7.9333809    250.64038  0.014897788  0.013938787           90 
 1403000   0.70485539   -7.9372354    250.51468  0.014879703   0.01392529          108 
 1404000   0.70522642   -7.9465186     250.1989  0.014850362  0.013911815          159 
 1405000   0.67109166   -7.9306195    250.95911  0.014884882  0.013898342          129 
 1406000   0.70407966    -7.924751    250.39569  0.014840901   0.01388487          145 
 1407000   0.68976707   -7.9387226    250.58002  0.014841271  0.013871478          144 
 1408000   0.69893993   -7.9273199    250.10696  0.014802732  0.013858052          121 
 1409000   0.68971978   -7.9323882    250.96749  0.014843121  0.013844625          198 
 1410000   0.69220797   -7.9592421    250.10238  0.014781464  0.013831225          139 
 1411000   0.69805157   -7.9486552    250.44362  0.014791142  0.013817805          133 
 1412000   0.69334109   -7.9750964    250.21607  0.014767237  0.013804404          153 
 1413000   0.68767496   -7.9479694    250.22487  0.014757305  0.013791021          192 
 1414000   0.67044005   -7.9468731    250.32503  0.014752772  0.013777643           98 
 1415000   0.70323599   -7.9330191    249.92194  0.014718607  0.013764262          111 
 1416000   0.69131478   -7.9539596     250.6506  0.014751094  0.013750897          115 
 1417000   0.69113633   -7.9630463    249.89302  0.014696131  0.013737565          137 
 1418000   0.68475641   -7.9744291    250.13471  0.014699971  0.013724222          125 
 1419000   0.69034144   -7.9279951    250.09663  0.014687376  0.013710877           88 
 1420000   0.68335509   -7.9665218    250.35389  0.014692129  0.013697539           90 
 1421000   0.69474317    -7.952967    250.36354  0.014682356  0.013684221          217 
 1422000   0.68074811   -7.9832578    249.85339  0.014642135  0.013670915          156 
 1423000   0.67821751   -7.9442281    250.24707    0.0146549   0.01365761          184 
 1424000   0.68795467   -7.9526719    250.00851  0.014630648  0.013644316          279 
 1425000   0.68606525   -7.9702982    249.78292  0.014607189  0.013630988          187 
 1426000   0.66744317   -7.9719052    249.87827  0.014602517  0.013617693          238 
 1427000   0.66897373   -7.9486202    249.89946  0.014593521  0.013604403          246 
 1428000   0.67130736   -7.9715603    249.86533   0.01458131  0.013591111          134 
 1429000   0.68028831   -7.9835776    249.83681  0.014569443  0.013577816          207 
 1430000    0.6800238   -7.9948771     249.7345  0.014553293  0.013564526          152 
 1431000   0.67396781    -7.984272    249.11033  0.014506774  0.013551223          387 
 1432000   0.68261816   -7.9845986     249.6063  0.014525506  0.013537935          315 
 1433000   0.67936537   -7.9731753    250.17893   0.01454867  0.013524691          295 
 1434000   0.68548584   -7.9813824    249.25033  0.014484561   0.01351144          325 
 1435000   0.67717863   -7.9705533    249.69641  0.014500372  0.013498205          159 
 1436000     0.674772   -7.9692574    250.05621  0.014511154  0.013484999          189 
 1437000   0.67173782   -7.9446921    250.20532  0.014509703  0.013471814          128 
 1438000   0.67348264   -7.9438893    249.67787  0.014469046  0.013458662          291 
 1439000   0.67973623   -7.9824065    249.84577  0.014468715  0.013445506          217 
 1440000   0.68067393   -7.9646877    249.81504  0.014456889  0.013432368          255 
 1441000   0.69553582   -7.9809433    249.81819  0.014447038  0.013419238          156 
 1442000   0.69581098   -7.9943518    249.62251  0.014425712  0.013406123          254 
 1443000      0.67697   -7.9660207    249.96415  0.014435444  0.013393041          336 
 1444000   0.69454693   -7.9770458    249.55802   0.01440201  0.013379961          126 
 1445000   0.66413777   -8.0088138    249.92815  0.014413388  0.013366883          285 
 1446000   0.68597502   -7.9868689    249.39216  0.014372531  0.013353822          187 
 1447000   0.66674306   -7.9957021    249.02665  0.014341549  0.013340781          183 
 1448000   0.66827921   -7.9828858     249.9247  0.014383328  0.013327726          107 
 1449000   0.67868051   -8.0075047    249.60485  0.014355006  0.013314695          225 
 1450000   0.67862854   -8.0054974    249.42012  0.014334489  0.013301694          141 
 1451000   0.67829856    -7.992627    249.81428  0.014347248  0.013288691          203 
 1452000   0.68102126   -7.9915891    249.92404  0.014343666  0.013275709          101 
 1453000   0.66005473   -7.9789951    249.43211  0.014305581  0.013262737          223 
 1454000   0.68270555   -7.9787205    249.57021  0.014303657  0.013249793          253 
 1455000   0.68089055    -8.008908    248.61269  0.014238986  0.013236858          328 
 1456000   0.68279669   -7.9954954    249.61512  0.014286579  0.013223907          332 
 1457000    0.6778714   -8.0020688    249.68953   0.01428103  0.013210984          323 
 1458000   0.67799456   -7.9700515    249.43924   0.01425693  0.013198099          139 
 1459000    0.6713392    -8.007805    249.83375  0.014269691   0.01318523          302 
 1460000   0.66179684   -8.0036412    249.57566  0.014245186  0.013172374          365 
 1461000   0.67961049   -7.9819496    249.89419  0.014253604  0.013159515          278 
 1462000   0.67911413   -8.0102863    249.83438  0.014240446  0.013146677          267 
 1463000   0.67982535   -7.9814002    249.18608  0.014193785  0.013133837          411 
 1464000   0.66568439   -8.0130546    249.29211  0.014190125  0.013121022          231 
 1465000   0.66449352   -7.9824037    249.29086  0.014180367  0.013108185          277 
 1466000   0.66275194   -8.0211049    249.17487  0.014164101  0.013095374          274 
 1467000   0.67300489   -8.0356149    249.57782  0.014177336  0.013082557          274 
 1468000   0.65536673   -8.0086564    249.68954   0.01417402  0.013069739          429 
 1469000   0.67410591   -7.9940125    248.92254  0.014120861  0.013056995          485 
 1470000    0.6646421   -7.9944813    249.98113  0.014171266  0.013044248          237 
 1471000   0.67195672   -8.0268169      248.876  0.014099026  0.013031552          475 
 1472000   0.67464462    -7.991333    249.48808  0.014124099   0.01301883          359 
 1473000   0.66100185   -8.0080734    249.56676  0.014118961  0.013006112          366 
 1474000   0.66969905   -8.0125137    248.87203  0.014070106  0.012993424          355 
 1475000      0.67045   -8.0298332    249.04476  0.014070325  0.012980761          458 
 1476000   0.66034815   -8.0222412    249.19533  0.014069294  0.012968061          266 
 1477000   0.66717728   -8.0193663    249.09745  0.014054246  0.012955401          584 
 1478000   0.66380156   -8.0459593     249.1129  0.014045608  0.012942765          413 
 1479000   0.66637754   -8.0345775    249.13401  0.014037301  0.012930111          413 
 1480000   0.65521554    -8.035005    248.91353  0.014015402  0.012917508          392 
 1481000   0.65809328   -8.0118536    249.57108  0.014042937  0.012904927          363 
 1482000   0.66386867   -8.0184709    249.38525  0.014023012  0.012892354          499 
 1483000   0.66417374   -8.0167902    249.66215  0.014029116  0.012879822          344 
 1484000   0.66149127   -8.0224877    249.16614  0.013991809   0.01286725          237 
 1485000    0.6583283   -8.0242369    249.00544  0.013973369  0.012854741          368 
 1486000   0.65969314   -8.0123816    249.56954    0.0139956  0.012842239          365 
 1487000   0.66744631   -8.0434868    249.26964  0.013969381  0.012829747          357 
 1488000   0.65786406   -8.0359992    249.01784  0.013945892  0.012817244          312 
 1489000   0.65683941   -8.0107795    249.40061  0.013957948   0.01280476          269 
 1490000   0.66694745   -8.0391851    249.30364  0.013943156  0.012792282          538 
 1491000   0.65415386    -8.016569    249.45758  0.013942409  0.012779811          412 
 1492000   0.66117212   -8.0391153     249.3351  0.013926223  0.012767356          502 
 1493000   0.65150495   -8.0326583    249.09148  0.013903298  0.012754924          400 
 1494000   0.64355394     -8.01882    249.48165  0.013915755  0.012742503          351 
 1495000    0.6586121   -8.0338303    249.17183  0.013889177  0.012730097          438 
 1496000   0.66458892   -8.0401518    249.51305    0.0138989  0.012717709          396 
 1497000    0.6654723   -8.0211696    248.95213  0.013858391  0.012705338          456 
 1498000   0.67123913   -8.0460277    249.35021  0.013871284  0.012692956          497 
 1499000   0.65136753    -8.040975    249.25866  0.013856941  0.012680589          410 
 1500000   0.64179969   -8.0371584    249.40967  0.013856093  0.012668276          425 
 1501000     0.651369   -8.0495594    248.98531  0.013823302  0.012655987          386 
 1502000    0.6591812   -8.0551982    249.18799  0.013825344  0.012643697          394 
 1503000   0.64168389   -8.0544716    249.51328  0.013834181  0.012631429          390 
 1504000   0.65019349   -8.0413482     248.8526  0.013788375   0.01261914          456 
 1505000   0.65563413   -8.0487997    249.02461  0.013788738   0.01260688          375 
 1506000   0.66283774   -8.0438907    249.63143   0.01381316  0.012594638          402 
 1507000   0.64673766   -8.0432983    249.22906  0.013781744  0.012582385          370 
 1508000   0.64319341   -8.0420223    248.97706  0.013758679  0.012570134          450 
 1509000   0.65491177   -8.0221859    249.26266  0.013765334  0.012557922          519 
 1510000   0.64069991   -8.0558043     249.5307   0.01377101  0.012545725          503 
 1511000   0.66373802   -8.0777076    249.00227  0.013732752  0.012533559          537 
 1512000   0.64673777   -8.0519941    249.09677  0.013728879  0.012521399          535 
 1513000   0.65572033   -8.0674235    248.94461  0.013711424  0.012509249          387 
 1514000   0.63192834   -8.0573988    249.45631  0.013730532  0.012497116          474 
 1515000    0.6488969   -8.0609616    249.09374  0.013701526  0.012484999          477 
 1516000   0.64930138   -8.0815373    249.15707  0.013695969  0.012472892          209 
 1517000   0.65565103   -8.0633174    248.92236  0.013674047  0.012460793          416 
 1518000   0.64330568   -8.0578364    249.13948  0.013676959  0.012448724          432 
 1519000   0.64717131   -8.0718717    249.16948  0.013669601  0.012436666          420 
 1520000   0.63482286   -8.0550128    249.45409  0.013676211  0.012424612          364 
 1521000   0.64455127   -8.0429547    249.38295  0.013663322  0.012412577          456 
 1522000   0.64196791   -8.0733955    249.41173   0.01365592  0.012400572          489 
 1523000   0.65618446   -8.0762251    249.36702  0.013644507  0.012388577          493 
 1524000   0.64089074    -8.024933    249.25341  0.013629342  0.012376609          418 
 1525000   0.64242824   -8.0735702    248.98973  0.013605996  0.012364667          565 
 1526000   0.65449302   -8.0861303    249.28365  0.013613131  0.012352723          457 
 1527000   0.64757865   -8.0804696    248.29068  0.013550026   0.01234077          461 
 1528000   0.64379148   -8.0688815    249.09714  0.013585141  0.012328818          538 
 1529000   0.63987538    -8.067131    248.55265   0.01354658  0.012316892          617 
 1530000   0.64327194      -8.0668    248.82544  0.013552584  0.012304977          488 
 1531000   0.64169455   -8.0655904    248.70947  0.013537419  0.012293082          464 
 1532000   0.63872468   -8.0624131     248.7033  0.013528247  0.012281203          489 
 1533000   0.63046187   -8.0750012    249.31155  0.013552487  0.012269314          310 
 1534000   0.63546259   -8.0662943    248.81977  0.013516937   0.01225744          404 
 1535000   0.63846538   -8.0836916    249.25784  0.013531913  0.012245577          627 
 1536000   0.64357755   -8.0958675    248.41229  0.013477229  0.012233734          490 
 1537000   0.64819586   -8.1117254    249.22058  0.013512285   0.01222191          682 
 1538000   0.64428239   -8.0858757    248.87068   0.01348454  0.012210095          578 
 1539000   0.64111174   -8.0868653      248.743  0.013468865  0.012198315          356 
 1540000   0.64555288   -8.0706627    248.76012  0.013461045  0.012186546          535 
 1541000   0.61492937   -8.0858487    248.93391  0.013461708  0.012174784          561 
 1542000   0.63610476   -8.0759192    248.47902  0.013428395  0.012163004          439 
 1543000   0.63699157   -8.0880143     249.2451  0.013461066  0.012151275          586 
 1544000   0.63036669   -8.1000974    248.74148  0.013425166  0.012139545          537 
 1545000   0.63593809   -8.0683074    248.43326  0.013399852   0.01212782          562 
 1546000   0.63769022   -8.0560048    249.00842  0.013422188  0.012116119          558 
 1547000   0.62826879   -8.0691252    249.07667  0.013417188  0.012104418          532 
 1548000   0.64647029   -8.1031815    248.89672  0.013398833  0.012092742          231 
 1549000   0.63373414   -8.0924882    249.04073   0.01339793  0.012081098          619 
 1550000   0.65507409   -8.1014835    248.34649  0.013351962  0.012069453          490 
 1551000   0.62843082   -8.0813976    248.81888  0.013368734   0.01205782          653 
 1552000   0.63134292   -8.0640875     248.0618  0.013319469  0.012046184          388 
 1553000   0.62759626   -8.0839039    248.55378  0.013337293  0.012034564          399 
 1554000   0.64049782   -8.0848389    248.24109  0.013311942  0.012022954          497 
 1555000   0.64750177   -8.0643818    248.78806  0.013332694  0.012011339          374 
 1556000   0.61793218   -8.0864352    248.77414  0.013323379  0.011999752          585 
 1557000   0.60954244   -8.0915206    248.46466  0.013298258  0.011988145          588 
 1558000   0.61845838   -8.1147023    248.79323  0.013307297  0.011976583          299 
 1559000   0.63603959   -8.0799557    249.09961  0.013315138   0.01196506          469 
 1560000   0.62728514   -8.0691619    248.47356   0.01327316  0.011953535          646 
 1561000   0.62322595   -8.0678671     248.7196  0.013277792  0.011942033          342 
 1562000   0.64025624   -8.0816228    248.68422  0.013267404   0.01193053          446 
 1563000   0.63975517   -8.0947569    248.33109  0.013240088  0.011919013          436 
 1564000   0.62791896   -8.1029325    248.74781  0.013253826  0.011907511          591 
 1565000   0.63641325   -8.0904206    248.36318  0.013224877  0.011896024          311 
 1566000   0.63289084   -8.1045258     248.3535  0.013215916  0.011884523          698 
 1567000   0.62843008   -8.1153792    248.60665  0.013220945  0.011873064          613 
 1568000   0.63810012   -8.0917881    248.58346  0.013211281  0.011861625          622 
 1569000   0.62156885   -8.0964872    248.61433    0.0132045  0.011850194          605 
 1570000   0.62481288   -8.1093413    248.49453  0.013189731  0.011838768          658 
 1571000   0.64190772   -8.1313685      248.329  0.013172555  0.011827346          666 
 1572000     0.613132    -8.113532    248.51584  0.013174079  0.011815941          594 
 1573000   0.62379349   -8.1222402    248.52804  0.013166351  0.011804535          563 
 1574000   0.62271776   -8.1107106    248.54255  0.013158754  0.011793158          630 
 1575000   0.62024474   -8.1138701     248.1015  0.013127063  0.011781763          590 
 1576000   0.63354024   -8.1014317     248.6735   0.01314898  0.011770394          448 
 1577000   0.63291447    -8.118018    248.58758  0.013136101  0.011759056          673 
 1578000   0.62757778   -8.1260457    248.36966  0.013116268  0.011747711          594 
 1579000    0.6063071   -8.0988783    248.51604  0.013115687  0.011736372          533 
 1580000   0.63195425   -8.0910807    248.48345  0.013105667  0.011725066          652 
 1581000   0.62605357    -8.132701    248.69401  0.013108476  0.011713755          645 
 1582000   0.63911823    -8.151213    248.23843  0.013076192  0.011702471          657 
 1583000   0.62049331   -8.1411178    248.44667  0.013078894  0.011691213          525 
 1584000   0.60752691   -8.1197912    248.59881  0.013078641  0.011679954          594 
 1585000   0.61487829   -8.1296863    248.09373  0.013043835  0.011668721          670 
 1586000   0.61914189   -8.1348608    248.42413   0.01305297  0.011657466          656 
 1587000   0.61296294   -8.1195046    247.88017  0.013016182  0.011646239          634 
 1588000   0.62370993   -8.1359689     248.3383  0.013032027  0.011635034          544 
 1589000   0.62422177   -8.1315322    248.00568  0.013006381  0.011623844          643 
 1590000   0.63154498   -8.1361068    248.51808  0.013025057  0.011612642          627 
 1591000    0.6302468   -8.1247678    248.28305   0.01300456  0.011601461          584 
 1592000   0.60471309   -8.1166326    248.72951  0.013019761  0.011590319          556 
 1593000   0.61553208   -8.1389488    248.05799  0.012976459  0.011579189          662 
 1594000    0.6000948   -8.1307475    248.65224  0.012999385  0.011568055          635 
 1595000   0.61238802   -8.1232807    248.07572  0.012961114  0.011556923          564 
 1596000   0.61764514   -8.1239038    248.09621  0.012954063  0.011545804          632 
 1597000   0.61913364   -8.1222146    248.26914  0.012954975  0.011534715          638 
 1598000   0.61436824   -8.1325439    247.95458  0.012930464  0.011523625          701 
 1599000   0.62155304   -8.0976743    247.96968  0.012923165  0.011512551          638 
 1600000   0.61076064   -8.1327823    248.10482  0.012922126   0.01150149          604 
 1601000   0.62726026   -8.1363073    248.09576  0.012913583  0.011490425          678 
 1602000   0.60919847   -8.1163716    248.55989  0.012929666   0.01147938          622 
 1603000   0.60077225   -8.1314686    247.92303  0.012888492  0.011468319          624 
 1604000   0.61137482   -8.1359721    247.99526  0.012884209  0.011457297          642 
 1605000   0.60296764   -8.1392963    248.01123  0.012877011  0.011446281          702 
 1606000   0.60364277   -8.1244211    247.88364  0.012862373  0.011435285          446 
 1607000   0.61320395   -8.1314786    248.32029  0.012877012  0.011424304          666 
 1608000   0.60194025   -8.1367426    248.05241  0.012855121  0.011413331          712 
 1609000   0.60971835   -8.1259097    248.06532    0.0128478  0.011402359          631 
 1610000   0.61147004   -8.1530644    247.94893  0.012833795  0.011391414          472 
 1611000   0.60961843   -8.1410265    247.91326  0.012823984  0.011380479          547 
 1612000   0.60453811     -8.15704    247.83259  0.012811858  0.011369544          713 
 1613000   0.60260767   -8.1324771    248.60602  0.012843874  0.011358648          600 
 1614000   0.60807551   -8.1642206    247.58419  0.012783157  0.011347756          678 
 1615000    0.5960958   -8.1306842    248.06579  0.012800092  0.011336874          602 
 1616000   0.59387367   -8.1268266    247.99683  0.012788615  0.011326004          641 
 1617000   0.61306795   -8.1201697    247.97516   0.01277959  0.011315152          590 
 1618000   0.60957339    -8.156029    247.91373  0.012768528  0.011304331          628 
 1619000   0.60684118   -8.1335108    248.08158  0.012769281  0.011293527          623 
 1620000   0.60099204   -8.1303044    247.98734   0.01275655  0.011282713          578 
 1621000   0.60769572   -8.1357399    248.16637  0.012757885  0.011271905          625 
 1622000   0.58945061   -8.1426582    247.87041  0.012734813  0.011261116          552 
 1623000   0.60438467   -8.1505697    248.41172  0.012754761  0.011250337          582 
 1624000   0.61032702   -8.1513915    247.93052  0.012722214  0.011239561          640 
 1625000   0.59901861     -8.18118    247.38128   0.01268622  0.011228802          654 
 1626000   0.60105453   -8.1443562    247.46953   0.01268294  0.011218048          608 
 1627000   0.60928514   -8.1429602    247.81824  0.012693006  0.011207306          573 
 1628000    0.6005733   -8.1434475    247.89277  0.012689024  0.011196583          569 
 1629000   0.61503732   -8.1690601    247.52318  0.012662328   0.01118587          631 
 1630000   0.58726189    -8.169009    248.07353  0.012682696  0.011175165          633 
 1631000    0.6067932   -8.1525299    247.77783  0.012659811  0.011164478          617 
 1632000   0.61677707   -8.1578222    247.89771  0.012658176  0.011153791          704 
 1633000   0.61564996   -8.1527324    247.86992  0.012649006  0.011143129          505 
 1634000   0.60437453   -8.1436061    248.09134  0.012652557  0.011132476          566 
 1635000   0.60347145   -8.1669968    247.27922  0.012603426  0.011121841          439 
 1636000   0.59519674   -8.1440222    247.65333  0.012614779  0.011111216          566 
 1637000   0.61415811   -8.1387188    247.92078  0.012620687  0.011100617          660 
 1638000   0.59797477   -8.1406871    247.98566  0.012616283  0.011090033          581 
 1639000   0.60167046     -8.15479    247.60481  0.012589221  0.011079442          633 
 1640000    0.5874497   -8.1919386    247.65543  0.012584117  0.011068871          501 
 1641000    0.6113958    -8.167826    247.47261  0.012567165  0.011058308          638 
 1642000    0.5951461   -8.1747708    247.59251  0.012565597  0.011047756          601 
 1643000   0.60047867   -8.1584345    247.60763  0.012558715   0.01103721          566 
 1644000   0.59227688   -8.1799265    247.87832  0.012564797  0.011026677          530 
 1645000   0.60945259   -8.1612226    247.72611  0.012549448  0.011016163          541 
 1646000   0.59237324   -8.1683096    247.69002  0.012539997  0.011005662          603 
 1647000    0.6016139   -8.1755205     247.8423  0.012540088  0.010995164          701 
 1648000   0.58887699   -8.1756657     247.2751  0.012503797  0.010984683          682 
 1649000   0.59649666   -8.1743572    247.48797  0.012506972  0.010974217          615 
 1650000   0.59448928   -8.1573867    247.30907  0.012490357  0.010963765          555 
 1651000   0.59056786   -8.1611518    248.03261  0.012519312  0.010953322          610 
 1652000   0.59088898   -8.1679714     247.8316  0.012501594  0.010942893          646 
 1653000   0.58801973   -8.1658126    247.18685  0.012461527  0.010932472          651 
 1654000   0.59255273    -8.159701    247.45488  0.012467497  0.010922049          573 
 1655000   0.59188784   -8.1566672    247.47533  0.012460993  0.010911648          520 
 1656000   0.58921662   -8.1755747    247.26497  0.012442883  0.010901255          587 
 1657000   0.58151244   -8.1765696    247.35518  0.012439911  0.010890887          640 
 1658000   0.58431608      -8.1769    246.88531  0.012408791  0.010880519          667 
 1659000   0.59343328   -8.1736682    247.51572  0.012432978  0.010870166          627 
 1660000   0.59608248   -8.1797503    247.75243  0.012437371  0.010859819          591 
 1661000   0.58641836   -8.1780198    247.29266  0.012406816  0.010849483          677 
 1662000   0.58518075   -8.1661622    247.46676  0.012408081   0.01083917          601 
 1663000   0.58246734   -8.1879637    247.46027  0.012400294   0.01082887          618 
 1664000   0.59477773   -8.1919444     247.4858  0.012394121  0.010818578          643 
 1665000   0.58351784   -8.1847035     247.6019  0.012392488  0.010808309          628 
 1666000    0.5702285   -8.1755398    247.52401  0.012381153  0.010798033          586 
 1667000   0.58314411   -8.1725116    247.25009  0.012360033  0.010787763          634 
 1668000   0.58683471   -8.1785443    247.64819  0.012372511  0.010777517          569 
 1669000   0.58836794   -8.1760265    247.15018  0.012340233  0.010767263          608 
 1670000   0.59246488   -8.1888312    246.89951  0.012320335   0.01075701          554 
 1671000   0.58915675   -8.1821327    247.79702  0.012357721  0.010746781          522 
 1672000    0.5748122   -8.1932061    247.10695  0.012315937  0.010736564          526 
 1673000   0.57548646   -8.1830772    247.36273  0.012321316  0.010726381          533 
 1674000   0.58203596   -8.1739457    247.23344  0.012307519  0.010716196          616 
 1675000   0.57059215   -8.1982621    246.96279  0.012286706  0.010706005          563 
 1676000   0.57342943   -8.1807271    247.25814   0.01229406  0.010695839          729 
 1677000    0.5827997   -8.1999466    247.33628  0.012290612  0.010685679          581 
 1678000   0.59385583   -8.1965608    247.37972  0.012285445  0.010675535          682 
 1679000   0.59496949   -8.1863294    247.06793  0.012262653  0.010665411          649 
 1680000   0.58420525    -8.187039    247.06169  0.012255044  0.010655289          619 
 1681000    0.5888986   -8.2003094    247.25474  0.012257324  0.010645173          661 
 1682000   0.57889745   -8.2008834    246.96934  0.012235897   0.01063506          584 
 1683000   0.59086154    -8.208874    247.29549  0.012244776  0.010624976          649 
 1684000   0.58990795   -8.2007235    247.13498  0.012229561  0.010614898          624 
 1685000   0.57199585   -8.1886494    247.34954  0.012232915  0.010604834          671 
 1686000   0.59270795   -8.2071601     247.6675  0.012241375   0.01059479          608 
 1687000   0.57466614   -8.2026603     247.0986  0.012206017  0.010584756          722 
 1688000   0.57501051   -8.2077341    247.04104  0.012195944  0.010574726          595 
 1689000   0.59338054   -8.2209718    247.05458  0.012189391  0.010564734          580 
 1690000   0.58252681    -8.196383    247.15011  0.012186889  0.010554735          637 
 1691000   0.57438216   -8.2074157     247.4158  0.012192776  0.010544763          581 
 1692000   0.58509486   -8.2083203    246.82227  0.012156337  0.010534791          508 
 1693000   0.56759335    -8.194996     246.8062  0.012148366  0.010524819          675 
 1694000   0.57011213   -8.2122308      246.916  0.012146596  0.010514869          683 
 1695000   0.56138331   -8.2233978    247.12786  0.012149846  0.010504931          635 
 1696000   0.57706984   -8.2111164    246.79915  0.012126531     0.010495          599 
 1697000   0.56969562   -8.2147313    247.25558  0.012141798  0.010485082          691 
 1698000   0.57283153    -8.207842     247.0208  0.012123125  0.010475168          630 
 1699000    0.5807062   -8.2197372    247.32167  0.012130747  0.010465267          538 
 1700000   0.58718685   -8.2021056    247.02714  0.012109173  0.010455365          508 
 1701000   0.57889495   -8.2007188    247.22656  0.012111824  0.010445491          602 
 1702000   0.58115454   -8.1970632     247.0271  0.012094942  0.010435621          623 
 1703000   0.57935345   -8.2105887    247.56561  0.012114191  0.010425766          648 
 1704000   0.57407398   -8.2186529    246.94213  0.012076591  0.010415927          601 
 1705000   0.58490812   -8.2014036    246.96959   0.01207085  0.010406098          574 
 1706000    0.5826297    -8.203297    246.78359  0.012054689  0.010396271          615 
 1707000   0.56807471   -8.2254334    247.22465  0.012069159  0.010386471          650 
 1708000   0.57923126   -8.2310047    247.11145  0.012056569  0.010376669          713 
 1709000   0.56647503   -8.2236082    246.70176  0.012029538  0.010366877          529 
 1710000   0.57425155   -8.2212164    246.67623  0.012021259  0.010357109          719 
 1711000   0.57182565   -8.2098258    247.46029   0.01205242  0.010347354          685 
 1712000   0.56953432   -8.2158793    247.08783   0.01202725  0.010337617          685 
 1713000   0.57693752   -8.2351799    246.71653  0.012002166   0.01032788          716 
 1714000   0.58270107   -8.2204673     247.1094  0.012014265  0.010318152          600 
 1715000     0.564059     -8.22042    246.72508  0.011988585   0.01030845          610 
 1716000    0.5628292   -8.1914531    247.17187  0.012003296  0.010298749          656 
 1717000   0.57548874   -8.1947962    246.79443  0.011977986  0.010289068          649 
 1718000   0.57550713   -8.2139733    247.16337   0.01198891  0.010279388          670 
 1719000   0.57529633   -8.2435418    247.10335  0.011979026  0.010269726          440 
 1720000   0.55644587   -8.1975889    246.88222  0.011961348  0.010260076          470 
 1721000   0.55999109   -8.2203133    246.83149  0.011951941  0.010250419          568 
 1722000   0.54911972   -8.2209735    247.33705  0.011969466  0.010240794          619 
 1723000   0.57350239   -8.2415002    246.73589  0.011933444  0.010231189          675 
 1724000   0.56472378   -8.2171738     246.6984   0.01192471  0.010221584          529 
 1725000   0.55496489   -8.2096922    246.86711  0.011925947   0.01021199          602 
 1726000   0.55760335     -8.21193    246.75483  0.011913617  0.010202401          597 
 1727000     0.558695   -8.2216465    246.50767  0.011894792  0.010192822          602 
 1728000   0.55980413    -8.244138    246.69943  0.011897156  0.010183251          596 
 1729000   0.56292109   -8.2315636    246.75065  0.011892744  0.010173702          736 
 1730000   0.56101385   -8.2136932    246.94203  0.011895088  0.010164168          585 
 1731000   0.57206503   -8.2340141    246.76582  0.011879733  0.010154647          601 
 1732000   0.55286445   -8.2327607    246.91424  0.011880016  0.010145134          566 
 1733000   0.56170818   -8.2292056    246.67365  0.011861591  0.010135622          665 
 1734000   0.57211724   -8.2135123    246.59092  0.011850774  0.010126133          556 
 1735000   0.57652484   -8.2262081    246.63449  0.011846037  0.010116646          567 
 1736000   0.56867186   -8.2328291    246.32284  0.011824253  0.010107171          751 
 1737000   0.55330854   -8.2577722    246.50943  0.011826397  0.010097702          713 
 1738000   0.55113741   -8.2404363    246.59692  0.011823788  0.010088247          550 
 1739000   0.55589797   -8.2216455    246.67404  0.011820684  0.010078815          590 
 1740000   0.55557491   -8.2403995    246.83143  0.011821429  0.010069385          680 
 1741000    0.5561935   -8.2197966     246.7774  0.011812053  0.010059958          566 
 1742000   0.55754319   -8.2225799    246.85583  0.011809024  0.010050558          598 
 1743000   0.55455664   -8.2271879    246.78389  0.011798809  0.010041175          669 
 1744000   0.55412126   -8.2404309    246.62995  0.011784688   0.01003179          653 
 1745000   0.54434582   -8.2269369    246.69649  0.011781112  0.010022421          677 
 1746000   0.56068272   -8.2454933    246.38233  0.011759371  0.010013064          685 
 1747000   0.56068309   -8.2383312    246.68439  0.011767048   0.01000371          597 
 1748000    0.5602014   -8.2348202    246.57685  0.011755189   0.00999439          603 
 1749000   0.55586729   -8.2272795    246.68394  0.011753571 0.0099850681          617 
 1750000   0.56081225   -8.2264446    246.46348  0.011736356 0.0099757543          635 
 1751000   0.54859737   -8.2265192     246.7164  0.011741691 0.0099664535          574 
 1752000   0.54969861   -8.2264989    246.95793  0.011746477 0.0099571473          608 
 1753000   0.54270831   -8.2492374    246.92875  0.011738389 0.0099478588          593 
 1754000   0.53961446   -8.2616644    246.34169  0.011703805 0.0099385766          645 
 1755000   0.55580476   -8.2472017    246.83851  0.011720727 0.0099293109          700 
 1756000   0.55380268   -8.2577448    246.62889  0.011704105 0.0099200636          659 
 1757000   0.56056132   -8.2424905    246.58113  0.011695178 0.0099108309          597 
 1758000   0.54615973   -8.2448032    246.72311  0.011695255 0.0099016073          580 
 1759000   0.54607685   -8.2468652     246.7685  0.011690757 0.0098923753          642 
 1760000    0.5363094   -8.2576607    246.14897  0.011654781 0.0098831688          680 
 1761000   0.55261545   -8.2396813    245.97866  0.011640103 0.0098739534          654 
 1762000   0.55060436   -8.2509646    246.01276   0.01163511 0.0098647602          666 
 1763000   0.55999787   -8.2570357    246.45614  0.011649468 0.0098555728          661 
 1764000   0.54098555   -8.2818977    246.55867  0.011647707 0.0098463974          633 
 1765000   0.54655959   -8.2401172    246.62506  0.011644243 0.0098372339          621 
 1766000   0.53979547   -8.2564428    246.29111  0.011621891 0.0098280888          754 
 1767000   0.54976715   -8.2553585    247.16468  0.011656512 0.0098189468          638 
 1768000   0.55231051   -8.2638425    246.27868  0.011608158  0.009809825          729 
 1769000   0.55289297   -8.2522532    246.43854  0.011609126 0.0098007054          665 
 1770000   0.53707788   -8.2707432    246.41673  0.011601541 0.0097916085          765 
 1771000   0.55096319   -8.2590605     246.1809  0.011583893  0.009782509          652 
 1772000   0.53813711    -8.261659    246.53423  0.011593972 0.0097734198          665 
 1773000   0.54810825   -8.2462555    246.41802  0.011581971 0.0097643445          720 
 1774000   0.55265429   -8.2671902    246.16042  0.011563342 0.0097552883          678 
 1775000   0.53607524   -8.2575458     246.7953  0.011586634 0.0097462351          680 
 1776000   0.54863365   -8.2333528    246.74531  0.011577764 0.0097372049          556 
 1777000   0.54495112   -8.2635893    246.32205    0.0115514 0.0097281889          681 
 1778000    0.5411715   -8.2516177    246.64006  0.011559808 0.0097191755          736 
 1779000   0.55324502   -8.2372364    246.45411  0.011544599 0.0097101825          688 
 1780000   0.54111168   -8.2742485    246.33485  0.011532531 0.0097012033          692 
 1781000   0.54805275   -8.2590932    246.41557  0.011529832 0.0096922329          653 
 1782000   0.53411693   -8.2545293    246.74556  0.011538793 0.0096832632          629 
 1783000   0.53838236   -8.2572549    246.15404  0.011504675 0.0096743103          627 
 1784000   0.54896917   -8.2466955    246.34265  0.011507037 0.0096653697          713 
 1785000   0.53103817   -8.2526718    246.33795  0.011500371 0.0096564367          685 
 1786000   0.53063339    -8.266629    246.55685  0.011504146 0.0096475207          737 
 1787000   0.53430877   -8.2608865    246.42891  0.011491742 0.0096386114          431 
 1788000   0.53538315   -8.2568901    246.56605  0.011491706 0.0096297048          688 
 1789000   0.53985303   -8.2652506    246.54866  0.011484473  0.009620811          703 
 1790000   0.52756234    -8.258191    246.73912  0.011486924 0.0096119357          721 
 1791000   0.55124746   -8.2667213    246.51796   0.01147022 0.0096030755          726 
 1792000   0.54585862   -8.2620649    247.20137    0.0114956 0.0095942271          654 
 1793000     0.542428   -8.2705059    246.38015   0.01145102 0.0095853846          618 
 1794000   0.53697321   -8.2602225    246.34766  0.011443128 0.0095765545          755 
 1795000   0.53472294   -8.2532738    246.53449  0.011445427  0.009567729          712 
 1796000    0.5356045   -8.2724205    246.00987  0.011414712 0.0095589142          756 
 1797000   0.52738671   -8.2528074    246.32883  0.011423151 0.0095501014          693 
 1798000   0.54421018    -8.278119    245.93234  0.011398421 0.0095413004          690 
 1799000   0.55540229    -8.280086    246.15805  0.011402541 0.0095325094          708 
 1800000   0.53238855   -8.2662534    246.36533  0.011405802  0.009523736          696 
 1801000   0.51850179    -8.275234    246.33041  0.011397854 0.0095149719          612 
 1802000   0.53320398   -8.2820264    246.23027  0.011386897 0.0095062086          714 
 1803000   0.53146414   -8.2699927    246.42706  0.011389678 0.0094974519          710 
 1804000    0.5241516   -8.2779819     246.5182  0.011387574 0.0094887089          713 
 1805000   0.53165699   -8.2626095    246.09202  0.011361589 0.0094799963          640 
 1806000     0.527208   -8.2811954    246.44746  0.011371699 0.0094712844          691 
 1807000    0.5342719    -8.283104    246.26984  0.011357215 0.0094625817          679 
 1808000   0.53489816    -8.285063    246.23426  0.011349293 0.0094538928          722 
 1809000   0.53286542   -8.2656337    246.45731  0.011353294 0.0094452019          528 
 1810000   0.53472596   -8.2680131    246.46964  0.011347589 0.0094365242          630 
 1811000    0.5355369   -8.3009868    246.49347   0.01134242 0.0094278518          766 
 1812000   0.53181572   -8.2706855      246.269  0.011325837 0.0094191944          609 
 1813000   0.50759063   -8.2775116    246.27037  0.011319653 0.0094105437          669 
 1814000   0.53699283   -8.2873018    246.02914  0.011302331 0.0094019064          723 
 1815000    0.5282296     -8.30034    246.23434  0.011305525 0.0093932743          672 
 1816000   0.51616577   -8.2966743    246.18961  0.011297247 0.0093846538          693 
 1817000   0.52230699   -8.2944214    246.21415  0.011292155 0.0093760409          669 
 1818000   0.52634984   -8.2963122    246.08786  0.011280155 0.0093674446          758 
 1819000   0.51672724   -8.2710817    245.71081   0.01125668 0.0093588446          730 
 1820000   0.54321494   -8.2793495    246.45447  0.011284545 0.0093502618          755 
 1821000   0.52835666   -8.2874076    246.37209  0.011274578 0.0093416875          695 
 1822000   0.51366059   -8.2870935    245.90893  0.011247207 0.0093331208          571 
 1823000   0.52962433   -8.2870782    245.98037  0.011244303 0.0093245628          648 
 1824000   0.51848209    -8.289793    245.90458  0.011234676 0.0093160199          776 
 1825000   0.53138657   -8.3128581    246.52582  0.011256887  0.009307493          736 
 1826000    0.5294753   -8.2898899    246.15851  0.011233959  0.009298964          644 
 1827000   0.52228995   -8.3038463    246.14933  0.011227391 0.0092904453          698 
 1828000   0.52277245   -8.3097885    245.85748  0.011207945 0.0092819523          706 
 1829000   0.51694688   -8.2784688    246.07246  0.011211612 0.0092734642          707 
 1830000   0.51917283   -8.2932998    245.91427  0.011198282 0.0092649823          645 
 1831000   0.51294817   -8.2850067    246.03029  0.011197446 0.0092565175          594 
 1832000   0.51126052   -8.2871113    246.08756  0.011193939 0.0092480674          736 
 1833000   0.52922245   -8.2865727    245.90268  0.011179427 0.0092396135          733 
 1834000   0.51525797   -8.3060462    245.86073  0.011171425 0.0092311742          717 
 1835000   0.51825656   -8.2937324    245.91652  0.011167871 0.0092227434          662 
 1836000   0.52832335   -8.2843471    245.76917    0.0111551  0.009214316          683 
 1837000   0.51499129   -8.2967204    245.78011  0.011149524 0.0092059175          715 
 1838000   0.50986401   -8.2884775    245.85538   0.01114687 0.0091975218          710 
 1839000   0.51702447   -8.2908086    245.88524  0.011142162 0.0091891373          682 
 1840000   0.52022787   -8.3069796     245.8305  0.011133628 0.0091807579          719 
 1841000   0.50869728   -8.2851296    246.06025   0.01113798 0.0091723895          639 
 1842000   0.52135449   -8.2980773    246.39766  0.011147198 0.0091640344          775 
 1843000   0.51560726   -8.3024002    246.05665   0.01112573 0.0091556925          717 
 1844000   0.52107029   -8.3026957    246.17253  0.011124933 0.0091473577          677 
 1845000   0.51136785    -8.295206    246.01148   0.01111163 0.0091390351          657 
 1846000   0.52803408   -8.3009237    245.68375  0.011090816 0.0091307163          756 
 1847000   0.51907012   -8.3004287    246.05158  0.011101407 0.0091224013          590 
 1848000   0.52097262   -8.3125994     246.1766  0.011101037 0.0091141009          636 
 1849000   0.52465835   -8.3138777    245.60998  0.011069496 0.0091057964          651 
 1850000   0.51712344   -8.3086293    245.78125  0.011071228 0.0090974963          691 
 1851000   0.50669512   -8.3130124    246.45739  0.011095687 0.0090892089          687 
 1852000   0.50867986   -8.3112103    245.63996  0.011052914 0.0090809357          683 
 1853000   0.51455993   -8.3115356     245.7782  0.011053166 0.0090726722          744 
 1854000   0.51801532   -8.3080841    245.71158   0.01104421 0.0090644162          662 
 1855000   0.50204555   -8.3057198    246.32697  0.011065901 0.0090561725          701 
 1856000   0.51422098   -8.3172134     245.6874  0.011031223 0.0090479374          632 
 1857000   0.51162766    -8.296844    246.21444  0.011048934 0.0090397188          658 
 1858000   0.51212111   -8.3060277    245.83518  0.011025977 0.0090315138          645 
 1859000   0.50976973   -8.3127383    245.68297  0.011013223 0.0090233121          702 
 1860000   0.51442959   -8.3184794    245.82866  0.011013829 0.0090151318          652 
 1861000   0.50645566   -8.3107055    245.87507  0.011009989 0.0090069544          699 
 1862000   0.51584025   -8.3010485    245.67553  0.010995146 0.0089987938          671 
 1863000   0.50298598   -8.3038011    245.94538  0.011001314 0.0089906406          758 
 1864000   0.51050833   -8.3149822    245.66742  0.010982986 0.0089824897          716 
 1865000   0.51086934   -8.3138916    245.86627  0.010985981 0.0089743542          431 
 1866000   0.50590309    -8.317949    245.40291  0.010959401 0.0089662194          730 
 1867000   0.50249557   -8.3175214    245.59854  0.010962263 0.0089581058          751 
 1868000   0.50350805   -8.3071479    245.69112  0.010960525 0.0089500018          755 
 1869000    0.4920007   -8.2904847    246.17809  0.010976373 0.0089418964          679 
 1870000   0.50523813   -8.3207942    245.71887  0.010950039 0.0089338059          788 
 1871000   0.49940669   -8.3107128    246.01391  0.010957327 0.0089257228          755 
 1872000   0.49773425   -8.3198704    245.88669  0.010945811 0.0089176587          766 
 1873000   0.50441874    -8.312938    245.62285  0.010928228  0.008909603          665 
 1874000   0.49857877   -8.3285916    245.55049  0.010919178 0.0089015495          745 
 1875000   0.50874877   -8.3146284    245.78554  0.010923802 0.0088935037          726 
 1876000   0.50168634   -8.3123861    246.11133  0.010932451 0.0088854713          639 
 1877000   0.49700429   -8.3335217    245.59581  0.010903738 0.0088774467          741 
 1878000   0.50367617   -8.3157066    245.70103  0.010902601 0.0088694271          735 
 1879000   0.49318776   -8.3216634      245.622  0.010893294 0.0088614186          679 
 1880000   0.50057011   -8.3210768    245.82604  0.010896544 0.0088534211          607 
 1881000    0.4964174   -8.3206851    245.52328  0.010877338 0.0088454306          488 
 1882000   0.51393496   -8.3346871    245.66095  0.010877655 0.0088374457          711 
 1883000   0.51230768   -8.3300592    245.53096  0.010866125 0.0088294741          712 
 1884000   0.50493232   -8.3376222    245.57331  0.010862231 0.0088215133          774 
 1885000   0.49523928    -8.309476    245.74749  0.010864168 0.0088135709          575 
 1886000    0.5020632   -8.3134096    245.50089  0.010847512  0.008805631          694 
 1887000   0.49639654   -8.3007941    245.63038  0.010847482 0.0087977044          750 
 1888000   0.49697319   -8.3178772    245.38527  0.010830918 0.0087897894          659 
 1889000    0.4939513   -8.3405128     245.4745   0.01082912 0.0087818887          738 
 1890000   0.50177059   -8.3362177    245.54773  0.010826619 0.0087739755          686 
 1891000   0.50356206   -8.3294471    245.46296  0.010817158 0.0087660725          802 
 1892000   0.50096505   -8.3263117    245.34545  0.010806265 0.0087581794          715 
 1893000   0.49356493   -8.3114477    245.78098   0.01081973 0.0087502977          728 
 1894000   0.51558909   -8.3348867    245.15946  0.010786671 0.0087424233          768 
 1895000   0.51292857   -8.3322623    245.99111  0.010817551 0.0087345623          664 
 1896000   0.50034297   -8.3425355    245.40498  0.010786084 0.0087267085          657 
 1897000   0.50088794   -8.3350106    245.46672   0.01078311 0.0087188683          756 
 1898000   0.48863485   -8.3319812    245.51677  0.010779626 0.0087110303          657 
 1899000   0.49520404   -8.3426972    245.14812  0.010757772 0.0087031998          706 
 1900000   0.49387457    -8.328675    245.38706   0.01076259 0.0086953812          728 
 1901000   0.49600073   -8.3404971    245.90743   0.01077974 0.0086875736          689 
 1902000   0.49132688   -8.3327413    245.53285  0.010757661 0.0086797743          695 
 1903000   0.49688744   -8.3342974    245.51118  0.010751059 0.0086719791          656 
 1904000   0.49547845   -8.3268036    245.64432  0.010751239 0.0086641993          707 
 1905000   0.48514854   -8.3394511    245.69455  0.010747793 0.0086564268          628 
 1906000    0.4914333   -8.3319719    245.48378  0.010732939 0.0086486556          695 
 1907000   0.50452976   -8.3572558    245.16681   0.01071346 0.0086408946          727 
 1908000   0.50117271    -8.350076    245.22236  0.010710271 0.0086331436          592 
 1909000   0.49112599   -8.3397526    245.56885  0.010719786 0.0086254037          623 
 1910000   0.49611707   -8.3274128    245.40247  0.010706914 0.0086176663          655 
 1911000   0.48070668   -8.3434772    245.17103  0.010691219 0.0086099517          649 
 1912000   0.48591465   -8.3528497    245.12393  0.010683574 0.0086022465          744 
 1913000   0.49222924   -8.3412462    245.20095  0.010681345 0.0085945387          724 
 1914000   0.49931815   -8.3377404    245.18536  0.010675085 0.0085868424          663 
 1915000   0.49858335   -8.3408173     245.5377  0.010684843 0.0085791583          681 
 1916000   0.48463423   -8.3276838    245.45002  0.010675453 0.0085714793          586 
 1917000   0.47078182   -8.3558965    245.36329  0.010666114 0.0085638095          765 
 1918000   0.49269906   -8.3604806    245.09394  0.010648851 0.0085561497          750 
 1919000    0.4816323   -8.3376782    245.42098  0.010657503 0.0085484975          741 
 1920000   0.48379176   -8.3570068    245.01276  0.010634235 0.0085408571          741 
 1921000   0.48702167   -8.3468618    245.18926  0.010636355 0.0085332247          666 
 1922000   0.48323152   -8.3655007    245.54379  0.010646193 0.0085255992          754 
 1923000   0.47482297   -8.3464699    245.18028  0.010624904 0.0085179833          779 
 1924000   0.47953063   -8.3422647    245.55912   0.01063579 0.0085103722          761 
 1925000    0.4835691   -8.3529262    245.16664  0.010613274 0.0085027709          736 
 1926000   0.48410794   -8.3534065    245.12211  0.010605837 0.0084951746          756 
 1927000   0.47954225   -8.3418198    245.11721  0.010600122 0.0084875872          766 
 1928000   0.47959012    -8.352923    244.78826  0.010580406 0.0084800074          701 
 1929000    0.4848821   -8.3596437    245.07644   0.01058737 0.0084724363          738 
 1930000   0.47179826     -8.36468     245.0103  0.010579028 0.0084648699          695 
 1931000   0.47801586   -8.3561188    244.94146  0.010570579 0.0084573167          617 
 1932000   0.48375705   -8.3790876    245.12105  0.010572854 0.0084497751          787 
 1933000   0.48304583   -8.3571672    245.24785  0.010572851 0.0084422395          665 
 1934000   0.48196585   -8.3649022    245.19993  0.010565319 0.0084347132          714 
 1935000   0.48790793   -8.3510628    245.21814  0.010560643 0.0084271972          767 
 1936000   0.48574734   -8.3529393    245.19506  0.010554195 0.0084196969          757 
 1937000   0.48734152    -8.351197    245.13823  0.010546301 0.0084122014          754 
 1938000   0.47654105   -8.3685949    244.69148   0.01052165 0.0084047116          641 
 1939000   0.48651972   -8.3759117    244.97606  0.010528454 0.0083972256          746 
 1940000   0.48040979   -8.3711289    244.83981  0.010517174 0.0083897492          733 
 1941000   0.47900812   -8.3423594    245.17947  0.010526338 0.0083822882          693 
 1942000   0.47436318   -8.3523789    245.08173  0.010516724 0.0083748339          707 
 1943000   0.47290766   -8.3617631    245.04946  0.010509927  0.008367382          630 
 1944000   0.46171372   -8.3792379    244.86862  0.010496768  0.008359942          785 
 1945000   0.48243002   -8.3731288    244.80495  0.010488644 0.0083525158          716 
 1946000   0.48464978   -8.3643066    244.90548  0.010487559 0.0083451057          736 
 1947000   0.48278659   -8.3609191    245.08513  0.010489862 0.0083376907          667 
 1948000   0.48181148   -8.3681978    245.01885  0.010481641 0.0083302912          755 
 1949000   0.47205963   -8.3839508    244.49816  0.010454001 0.0083228969          778 
 1950000   0.47131336   -8.3592721    244.88113  0.010465006   0.00831551          761 
 1951000    0.4800191   -8.3612144    244.90271  0.010460564 0.0083081301          805 
 1952000   0.47813167   -8.3698747     244.9965  0.010459208 0.0083007604          790 
 1953000   0.47291722   -8.3696065    244.48261  0.010431926    0.0082934          827 
 1954000   0.47088454   -8.3727137    245.00219  0.010448746 0.0082860525          780 
 1955000   0.46190229   -8.3749668    244.95203  0.010441263 0.0082787054          696 
 1956000   0.47556515   -8.3769733     244.4478  0.010414443 0.0082713724          790 
 1957000   0.48280512   -8.3693466    244.96717  0.010431237 0.0082640488          769 
 1958000   0.46944456     -8.36765    245.03408  0.010428757 0.0082567287          745 
 1959000   0.46972782   -8.3736481    245.30821  0.010435095 0.0082494151          734 
 1960000    0.4655917   -8.3946414    244.92806  0.010413608 0.0082421022          775 
 1961000   0.46845122   -8.3723135    244.89669  0.010406965 0.0082348017          783 
 1962000   0.46419709   -8.3696413    244.88697  0.010401247 0.0082275119          814 
 1963000   0.47330058   -8.3913319    244.99431  0.010400506   0.00822023          769 
 1964000   0.46502647   -8.3795233    245.09764  0.010399594 0.0082129555          720 
 1965000   0.47764517   -8.3640955    244.77534  0.010380634 0.0082056916          730 
 1966000   0.47435546   -8.3725125    245.04464  0.010386768 0.0081984356          762 
 1967000   0.47674105   -8.3684354    244.59364  0.010362381 0.0081911865          681 
 1968000   0.47668747   -8.3788041    244.95809  0.010372548 0.0081839497          753 
 1969000   0.46851983   -8.3882326    244.56033  0.010350446 0.0081767142          692 
 1970000   0.46431687   -8.3853874    245.09309  0.010367728 0.0081694842          666 
 1971000   0.46838035   -8.3835579    245.03772  0.010360127 0.0081622719          785 
 1972000   0.47093725   -8.3814203    244.98465  0.010352631 0.0081550656          714 
 1973000   0.46923189   -8.4021545    244.66463  0.010333867  0.008147872          757 
 1974000   0.45458423   -8.3865603    244.88112  0.010337771 0.0081406855          750 
 1975000   0.46630354   -8.3863323    244.64131  0.010322418 0.0081335006          781 
 1976000   0.46817388   -8.3877666    244.58166  0.010314678 0.0081263276          750 
 1977000   0.47378818   -8.3706229    244.85452  0.010320963 0.0081191683          706 
 1978000   0.47385666   -8.3714938    244.75648  0.010311615 0.0081120149          739 
 1979000   0.45589673   -8.3883412    244.33747   0.01028876 0.0081048684          794 
 1980000   0.46934736   -8.3844515     244.7068  0.010299108 0.0080977243          835 
 1981000   0.46782328    -8.405551    244.67243  0.010292463 0.0080905884          807 
 1982000    0.4551903   -8.4021312    244.57991   0.01028338 0.0080834588          787 
 1983000    0.4626511    -8.384088    244.95228  0.010293843 0.0080763409          772 
 1984000   0.44696267   -8.3954773     244.8303  0.010283531 0.0080692328          773 
 1985000   0.45623244   -8.3994511    244.53877  0.010266111 0.0080621345          747 
 1986000   0.45433382   -8.3835105    244.56094  0.010261872 0.0080550422          738 
 1987000    0.4555209   -8.4059186    244.49507  0.010253945 0.0080479559          707 
 1988000    0.4566074   -8.3931678    244.87719  0.010264805 0.0080408829          729 
 1989000   0.44887905   -8.4006588    244.46588  0.010242412 0.0080338154          788 
 1990000   0.45847084   -8.4096178     244.7544  0.010249347 0.0080267593          809 
 1991000   0.47275379   -8.4007482    244.26671  0.010223787 0.0080197184          720 
 1992000   0.45594473   -8.3912727    244.26756   0.01021869 0.0080126679          709 
 1993000   0.44905185    -8.421436    244.46086  0.010221645 0.0080056293          791 
 1994000   0.45473009   -8.4104617    244.64192  0.010224085 0.0079985922          823 
 1995000   0.45458882   -8.4029903    244.16728  0.010199134 0.0079915703          798 
 1996000   0.45775477   -8.4073762    244.31613  0.010200239 0.0079845602          755 
 1997000   0.45756069   -8.3948855    244.91862  0.010220273 0.0079775547          791 
 1998000   0.44626572   -8.3957353    244.44599  0.010195445  0.007970558          851 
 1999000    0.4580931   -8.3939098     244.2262  0.010181182 0.0079635675          725 
 2000000   0.45751028   -8.3887318     244.4393  0.010184971 0.0079565901          774 
 2001000   0.45826526   -8.3937749    244.60852  0.010186928 0.0079496162          778 
 2002000   0.45304899   -8.4014869    244.82715   0.01019094 0.0079426571          727 
 2003000   0.45373443     -8.38149    244.68455   0.01017992 0.0079356988          729 
 2004000   0.44426577   -8.3978427    244.38419   0.01016235 0.0079287506          620 
 2005000   0.44831208   -8.4181715    244.46979  0.010160839 0.0079218068          780 
 2006000   0.44989204   -8.4150916    244.52805  0.010158194 0.0079148709          768 
 2007000   0.45074974   -8.3976772    244.58254  0.010155395 0.0079079449          738 
 2008000   0.45816154   -8.4138116    244.38519  0.010142147 0.0079010267          835 
 2009000   0.45736813   -8.4072756    244.10426  0.010125446 0.0078941083          470 
 2010000   0.44803861   -8.4158799    244.17864  0.010123493 0.0078872107          758 
 2011000   0.44718103   -8.3934428     244.8144  0.010144804 0.0078803175          766 
 2012000   0.45317255   -8.4073726    244.49958  0.010126722 0.0078734393          816 
Loop time of 5267.81 on 48 procs for 2000000 steps with 4000 atoms

Performance: 65605.999 tau/day, 379.664 timesteps/s
99.4% CPU use with 48 MPI tasks x no OpenMP threads

MPI task timing breakdown:
Section |  min time  |  avg time  |  max time  |%varavg| %total
---------------------------------------------------------------
Pair    | 387.2      | 421.24     | 462.65     | 100.1 |  8.00
Neigh   | 36.925     | 38.332     | 39.764     |  12.1 |  0.73
Comm    | 339.56     | 377.12     | 416.48     | 106.6 |  7.16
Output  | 5.0992     | 5.1008     | 5.129      |   0.2 |  0.10
Modify  | 4354.2     | 4376.3     | 4389.7     |  10.3 | 83.08
Other   |            | 49.69      |            |       |  0.94

Nlocal:        83.3333 ave          90 max          77 min
Histogram: 3 2 3 11 6 5 13 2 1 2
Nghost:        2427.60 ave        2442 max        2413 min
Histogram: 1 2 6 7 7 10 5 5 4 1
Neighs:        16826.8 ave       19596 max       14225 min
Histogram: 3 4 7 7 4 4 6 7 4 2
FullNghs:      33656.1 ave       36484 max       31080 min
Histogram: 3 3 5 7 8 6 7 6 1 2

Total # of neighbors = 1615494
Ave neighs/atom = 403.87350
Neighbor list builds = 106601
Dangerous builds = 0

#clear
#
#next RN
#
#jump SELF
Total wall time: 1:27:51
