
units lj                  # Use reduced LJ style units
atom_style atomic         # Uncharged point particles
atom_modify map hash      # Needed for indexing of clusters etc
                          # Used to be able to find where atoms are in relation to each other.

lattice fcc 1.0 spacing 1 1 1
Lattice spacing in x,y,z = 1.5874011 1.5874011 1.5874011
region box block 0 10 0 10 0 10 units lattice
create_box 2 box
Created orthogonal box = (0.0000000 0.0000000 0.0000000) to (15.874011 15.874011 15.874011)
  3 by 4 by 4 MPI processor grid
create_atoms 1 box
Created 4000 atoms
  using lattice units in orthogonal box = (0.0000000 0.0000000 0.0000000) to (15.874011 15.874011 15.874011)
  create_atoms CPU = 0.002 seconds
set type 1 type/fraction 2 0.86 78393
Setting atom values ...
  3427 settings made for type/fraction
mass 1 1.0
mass 2 1.0
pair_style lj/cut  3.5
pair_modify tail  yes
pair_coeff 1  1  1.0  1.0   # Intearaction between 1 and 1 set with epsilon = 1 and sigma = 1
pair_coeff 1  2  1.5  0.8
pair_coeff 2  2  0.5  0.88

write_data data.0
System init for write_data ...
Neighbor list info ...
  update every 1 steps, delay 10 steps, check yes
  max neighbors/atom: 2000, page size: 100000
  master list distance cutoff = 3.8
  ghost atom cutoff = 3.8
  binsize = 1.9, bins = 9 9 9
  1 neighbor lists, perpetual/occasional/extra = 1 0 0
  (1) pair lj/cut, perpetual
      attributes: half, newton on
      pair build: half/bin/atomonly/newton
      stencil: half/bin/3d
      bin: standard
WARNING: Not all mixed pair coeffs generated from mixing. Use write_data with 'pair ij' option to store all pair coeffs. (../write_data.cpp:312)


#############################
#   M E L T   S Y S T E M   #
#############################

velocity all create 2.4 6583654 mom yes dist gaussian # Assign velocities
                                                    # Temperature 2.4, random number seed, zero linear momentum
                                                                                # Gaussian distribution

timestep 0.002   # simulation timestep
thermo 1000       # output thermodynamic data every 1000 steps bf 100

# Define a fix  in this case with index 1 applied to all
# particles in the simulation. This fix is for simulations
# in the anisotropic NPT ensemble. Note that we use the MTK
# correction.
fix 1 all npt temp 2.4 2.4 0.1 iso 5.68 5.68 0.5 mtk yes tchain 5 pchain 5 # Use NPT ensemble
                                                                         # Set temperature and pressure and damping
                                                                         # Numbers of thermostats in chain and in barostat
run 10000          # run for 10000 steps
Per MPI rank memory allocation (min/avg/max) = 3.642 | 3.644 | 3.648 Mbytes
Step Temp E_pair E_mol TotEng Press Volume 
       0          2.4   -3.3969599            0   0.20214005   -2.8933285         4000 
    1000    2.3802539   -2.5281619            0    1.0413263    6.0126766    3899.9746 
    2000    2.3822849   -2.5800412            0   0.99249289    5.5454774    3926.4183 
    3000     2.408028   -2.5647458            0    1.0463932    5.7140957    3916.3668 
    4000    2.3927945   -2.5747402            0    1.0135543    5.5290078    3937.1313 
    5000    2.3978003   -2.5278357            0    1.0679655    6.0452183    3895.4066 
    6000    2.4148235   -2.5533475            0    1.0679823    5.9537991    3880.9718 
    7000    2.4092627   -2.5869352            0    1.0260554    5.3957624    3928.1737 
    8000    2.4486873   -2.5949619            0    1.0771507    5.6028491    3896.5828 
    9000    2.4035921   -2.5477845            0    1.0567023    5.7564736    3907.8199 
   10000     2.426827   -2.5517801            0    1.0875503    6.0138078    3884.5259 
Loop time of 2.48161 on 48 procs for 10000 steps with 4000 atoms

Performance: 696322.875 tau/day, 4029.646 timesteps/s
99.6% CPU use with 48 MPI tasks x no OpenMP threads

MPI task timing breakdown:
Section |  min time  |  avg time  |  max time  |%varavg| %total
---------------------------------------------------------------
Pair    | 1.0979     | 1.1695     | 1.2463     |   2.7 | 47.13
Neigh   | 0.2052     | 0.2165     | 0.22365    |   0.8 |  8.72
Comm    | 0.78127    | 0.84478    | 0.95206    |   3.5 | 34.04
Output  | 0.00024592 | 0.00025401 | 0.00045727 |   0.0 |  0.01
Modify  | 0.2097     | 0.23511    | 0.25983    |   3.0 |  9.47
Other   |            | 0.01544    |            |       |  0.62

Nlocal:        83.3333 ave          93 max          71 min
Histogram: 1 0 2 6 14 7 5 4 3 6
Nghost:        1681.58 ave        1717 max        1651 min
Histogram: 1 2 10 9 7 6 5 5 1 2
Neighs:        9830.52 ave       11446 max        7992 min
Histogram: 1 1 2 9 12 3 9 6 3 2

Total # of neighbors = 471865
Ave neighs/atom = 117.96625
Neighbor list builds = 907
Dangerous builds = 208

# Equilibrate just above the melting temperature to avoid step fn in T

fix 1 all npt temp 1.25 1.25 0.1 iso 5.68 5.68 0.5 mtk yes tchain 5 pchain 5
run 2000
Per MPI rank memory allocation (min/avg/max) = 3.643 | 3.645 | 3.649 Mbytes
Step Temp E_pair E_mol TotEng Press Volume 
   10000     2.426827   -2.5517801            0    1.0875503    6.0138078    3884.5259 
   11000     1.235908   -3.8212975            0   -1.9678989    5.8566477    3004.4254 
   12000    1.2689132   -3.7963785            0   -1.8934846    5.9161006    3014.5381 
Loop time of 0.60773 on 48 procs for 2000 steps with 4000 atoms

Performance: 568673.805 tau/day, 3290.936 timesteps/s
99.6% CPU use with 48 MPI tasks x no OpenMP threads

MPI task timing breakdown:
Section |  min time  |  avg time  |  max time  |%varavg| %total
---------------------------------------------------------------
Pair    | 0.27027    | 0.29748    | 0.31981    |   1.8 | 48.95
Neigh   | 0.038456   | 0.041451   | 0.043385   |   0.5 |  6.82
Comm    | 0.19938    | 0.21992    | 0.24627    |   2.2 | 36.19
Output  | 5.1174e-05 | 5.2491e-05 | 6.7861e-05 |   0.0 |  0.01
Modify  | 0.039001   | 0.044027   | 0.049228   |   1.5 |  7.24
Other   |            | 0.004797   |            |       |  0.79

Nlocal:        83.3333 ave          90 max          69 min
Histogram: 1 0 0 2 4 5 14 7 8 7
Nghost:        1991.15 ave        2013 max        1971 min
Histogram: 2 1 5 9 9 8 8 3 2 1
Neighs:        12663.2 ave       13914 max       10736 min
Histogram: 1 1 1 7 4 10 6 10 3 5

Total # of neighbors = 607835
Ave neighs/atom = 151.95875
Neighbor list builds = 142
Dangerous builds = 14

#############################
# L I N E A R  Q U E N C H  #
#############################

# Define solid atoms. This closely follows ten Wolde  Ruiz-Montero and Frenkel  Faraday Discuss  1996  104  93-110
# Compute components of the per-atom q6 vector
compute q6 all orientorder/atom degrees 1 6 components 6 nnn NULL cutoff 1.3 # compute the Q6 parameter.
                                                                             # Use all neighbours within 1.3 unit cell.

# get number of connections
compute coord_number all coord/atom orientorder q6 0.5

# An atom is solid if it has 8 or more connections (of a possible 14)
variable is_solid atom c_coord_number>=8
group solid dynamic all var is_solid    # Must be dynamic to update
dynamic group solid defined

# do clustering
compute cluster solid cluster/atom 1.3 # Create a cluster where all atoms within are solid and max 1.3 units from another member

# define chunks one chunk per cluster
compute clus_chunks solid chunk/atom c_cluster nchunk every compress yes  # Says which atoms are in which chunk

# count the size of each chunk
compute size_chunks solid property/chunk clus_chunks count


# Find the maximum entry in the vector of chunk sizes
variable max_n equal max(c_size_chunks)


# Thermo style which includes this variable
# thermo_style custom step temp pe vol v_max_n

thermo ${N}  # Print the thermo information every 100 steps
thermo 1000  

# Reset the npt fix at a lower temperature (below freezing)
fix 1  all npt temp  ${temp} ${temp}  0.1  iso  5.68  5.68  0.5  mtk yes tchain  5  pchain  5
fix 1  all npt temp  0.45 ${temp}  0.1  iso  5.68  5.68  0.5  mtk yes tchain  5  pchain  5
fix 1  all npt temp  0.45 0.45  0.1  iso  5.68  5.68  0.5  mtk yes tchain  5  pchain  5

dump dmp2 all dcd ${N} traj.dcd
dump dmp2 all dcd 1000 traj.dcd


compute msd all msd com yes
variable twopoint equal c_msd[4]/6/(step*dt+1.0e-6)
fix 9 all vector 10 c_msd[4]
variable fit equal slope(f_9)/6/(10*dt)
thermo_style custom step temp pe c_msd[4] v_twopoint v_fit v_max_n

fix 1 all npt temp 1.25 ${temp} 0.1 iso 5.68 5.68 0.5 mtk yes tchain 5 pchain 5
fix 1 all npt temp 1.25 0.45 0.1 iso 5.68 5.68 0.5 mtk yes tchain 5 pchain 5
run 500000 # 5000000  # Run for this many steps
Neighbor list info ...
  update every 1 steps, delay 10 steps, check yes
  max neighbors/atom: 2000, page size: 100000
  master list distance cutoff = 3.8
  ghost atom cutoff = 3.8
  binsize = 1.9, bins = 8 8 8
  4 neighbor lists, perpetual/occasional/extra = 1 3 0
  (1) pair lj/cut, perpetual
      attributes: half, newton on
      pair build: half/bin/atomonly/newton
      stencil: half/bin/3d
      bin: standard
  (2) compute orientorder/atom, occasional
      attributes: full, newton on
      pair build: full/bin/atomonly
      stencil: full/bin/3d
      bin: standard
  (3) compute coord/atom, occasional
      attributes: full, newton on
      pair build: full/bin/atomonly
      stencil: full/bin/3d
      bin: standard
  (4) compute cluster/atom, occasional
      attributes: full, newton on
      pair build: full/bin/atomonly
      stencil: full/bin/3d
      bin: standard
Per MPI rank memory allocation (min/avg/max) = 9.829 | 9.835 | 9.842 Mbytes
Step Temp PotEng c_msd[4] v_twopoint v_fit v_max_n 
   12000    1.2689132   -3.7963785 5.0504847e-30 3.5072809e-32 8.3333333e+20            4 
   13000     1.257014    -3.810819   0.86680933 0.0055564699  0.073811815            2 
   14000    1.2435424   -3.8253373    1.8803271  0.011192423  0.078953442            3 
   15000    1.2387571   -3.8038721     2.970365  0.016502027  0.082746743            2 
   16000    1.2477049   -3.8380191    3.9147366  0.020389252  0.084040933            2 
   17000     1.257427   -3.8238678     4.880403  0.023923544   0.08330521            1 
   18000    1.2617726   -3.8167498    5.7943473  0.026825681  0.082703853            2 
   19000    1.2255538   -3.8210494    6.7132619   0.02944413  0.081714954            2 
   20000    1.2494877   -3.8551439    7.6897617  0.032040673  0.080848847            1 
   21000    1.2299449   -3.8601803    8.7497511  0.034721234  0.080970563            2 
   22000    1.2488396   -3.8235636    9.6205282  0.036441394  0.080895811            2 
   23000    1.2358487   -3.8089377    10.509077  0.038076364  0.080410667            2 
   24000    1.2124947   -3.8104041    11.599711  0.040276772  0.080168396            1 
   25000     1.246546   -3.8321068    12.556068  0.041853559  0.080171677            2 
   26000    1.2247166   -3.8618797    13.554377  0.043443516  0.080394869            2 
   27000    1.2320007   -3.8628392    14.653039  0.045225429  0.080531616            2 
   28000     1.198217    -3.885644     15.49027  0.046101994   0.08069258            4 
   29000    1.2233442   -3.8589506    16.562755  0.047594122  0.080821144            4 
   30000    1.2252567   -3.8480606    17.191815  0.047755042  0.080626507            3 
   31000    1.2256495    -3.888393    18.023857  0.048451229  0.080312689            1 
   32000    1.2209824   -3.8541901    19.148112  0.049864875  0.080110043            2 
   33000    1.2456496   -3.8805193    19.946576  0.050370142  0.079944173            1 
   34000    1.2156867   -3.8420288    20.900829  0.051227521  0.079764621            4 
   35000    1.2281381   -3.8769338    21.866533  0.052063173  0.079552446            2 
   36000    1.1927784    -3.899125    22.751568  0.052665666  0.079354099            2 
   37000    1.1856015   -3.9027479    23.726446   0.05343794  0.079237094            1 
   38000    1.2090509   -3.8868386    24.629333  0.054011694  0.079178421            2 
   39000     1.176756   -3.8724451    25.537471  0.054567245  0.079077034            1 
   40000     1.208789   -3.9066241       26.413  0.055027083  0.078900984            1 
   41000    1.2154381   -3.8728638    27.383882  0.055658297  0.078729123            2 
   42000    1.2108264   -3.9023897    28.234129  0.056020097  0.078579117            2 
   43000    1.1863442   -3.9183153    29.086108  0.056368426  0.078493807            3 
   44000    1.1928115   -3.9145164    30.070455  0.056951618  0.078327672            3 
   45000    1.1953947   -3.8993663    30.895845  0.057214527  0.078215834            2 
   46000     1.191592   -3.8951402    31.492928  0.057052405   0.07804887            1 
   47000    1.1942541   -3.8838625    32.463095  0.057558679  0.077773304            2 
   48000    1.1995245     -3.91288    32.976855  0.057251484  0.077504563            1 
   49000    1.1776891   -3.8989979    34.000775  0.057824447  0.077242182            1 
   50000    1.2059715   -3.9344669    34.618839  0.057698064  0.076987952            2 
   51000    1.1611987   -3.9038763    35.674068  0.058290961  0.076746088            1 
   52000    1.1908502   -3.8819697    36.569588  0.058605108  0.076522519            1 
   53000    1.1466489   -3.8972981    37.374077  0.058764272  0.076302309            2 
   54000    1.1824269    -3.893685    38.185056  0.058927555  0.076094472            4 
   55000    1.1776771   -3.9304283    38.897914  0.058936233  0.075866339            2 
   56000    1.1417256    -3.923908    39.721523  0.059109409  0.075666812            1 
   57000    1.1821867   -3.9437131    40.785621    0.0596281  0.075482576            1 
   58000    1.1947834    -3.919987    41.845704  0.060123137  0.075361904            2 
   59000    1.1927494   -3.9105011    42.746688  0.060376678  0.075267665            5 
   60000    1.1552241   -3.9161822    43.540328  0.060472677  0.075163487            2 
   61000    1.1614057    -3.917266     44.28155  0.060493921    0.0750503            2 
   62000    1.1897874   -3.9444466    44.744609  0.060140603  0.074883751            2 
   63000     1.174406   -3.9637769    45.824565  0.060614503  0.074721862            2 
   64000    1.1513993   -3.9392776    46.752058  0.060875075  0.074581527            2 
   65000    1.1696127   -3.9354494     47.66793   0.06111273  0.074466511            2 
   66000    1.1881494   -3.9475213    48.788616  0.061601788  0.074416281            2 
   67000     1.190341   -3.9536466    49.863059  0.062018729   0.07437603            3 
   68000    1.1553093   -3.9324351    50.654926  0.062077114   0.07435864            1 
   69000     1.143728   -3.9345307    51.443056  0.062129294  0.074314857            3 
   70000    1.1873211   -3.9271841    52.166749  0.062103272  0.074255843            4 
   71000     1.170665   -3.9640258    52.876987  0.062062191  0.074178182            1 
   72000    1.1696704   -3.9423254    54.045623  0.062552804   0.07409872            1 
   73000     1.149623   -3.9401853    54.771467  0.062524505  0.074041265            1 
   74000     1.138731   -3.9808897     55.09499  0.062043907  0.073955004            1 
   75000     1.141273   -3.9575629    56.054476   0.06228275  0.073865804            2 
   76000     1.165405   -3.9478977    56.923857  0.062416509   0.07377741            3 
   77000    1.1466559   -3.9827889       58.069  0.062845238   0.07369501            3 
   78000    1.1325045    -3.971837    58.656235  0.062666918  0.073616537            5 
   79000     1.132384   -3.9713953    59.814571  0.063095539  0.073536811            4 
   80000    1.1380715   -3.9817981      59.9762  0.062475208  0.073440257            2 
   81000    1.1707673   -3.9562869    61.020378  0.062778166  0.073336141            3 
   82000    1.1406692    -3.972816    62.092721  0.063102358  0.073240945            1 
   83000    1.1245841   -3.9575528     62.86027   0.06311272  0.073156991            2 
   84000    1.1499861   -3.9858088    62.923058  0.062423668  0.073052519            3 
   85000    1.1108438   -3.9608208    63.585935  0.062339152  0.072915812            1 
   86000    1.1389955   -3.9985186    64.461205  0.062462407  0.072769899            2 
   87000    1.1560563   -3.9801268    65.391957  0.062635974  0.072624378            2 
   88000    1.1188555   -3.9865358    66.136875  0.062629617  0.072509581            2 
   89000     1.138795   -4.0016174    67.079393   0.06280842  0.072393887            3 
   90000    1.1219931   -3.9970926    67.822013   0.06279816  0.072297016            4 
   91000     1.116979   -4.0253942    68.478306  0.062709071  0.072186076            2 
   92000     1.127615   -4.0418694    69.395491  0.062858234  0.072082471            2 
   93000    1.1304049   -4.0075368    70.298473  0.062991463  0.071986529            2 
   94000    1.1195975   -4.0076384    71.002276   0.06294528  0.071887935            1 
   95000    1.1152493   -4.0547378    71.410918  0.062641156  0.071777735            3 
   96000    1.1257797      -3.9988    72.397031  0.062844644  0.071650474            4 
   97000    1.1154571   -4.0184686    72.707928  0.062463856  0.071524638            2 
   98000    1.1011579   -4.0129598    73.451281  0.062458572   0.07138647            3 
   99000    1.1172363   -4.0448345    73.654264  0.061998538  0.071241081            2 
  100000    1.1000698   -4.0287135    74.439637  0.062033031  0.071081246            4 
  101000    1.1097721   -4.0714343    74.796201  0.061713037  0.070930931            1 
  102000    1.1078143   -4.0358874    75.853787  0.061972048  0.070779354            2 
  103000    1.0907023   -4.0501932    76.094485  0.061565117   0.07061417            2 
  104000    1.1062826   -4.0381193     77.11943  0.061794415  0.070445975            4 
  105000    1.1024802   -4.0527987    77.614989  0.061599197  0.070283374            1 
  106000    1.1059641    -4.065765    78.350619  0.061596398   0.07012817            4 
  107000    1.0924796   -4.0527811    78.810494  0.061378889  0.069970534            2 
  108000    1.0947152   -4.0700843    79.998897  0.061727544  0.069811111            2 
  109000    1.1070755   -4.0743821    80.470321  0.061521652  0.069655983            6 
  110000    1.0747396   -4.0350957    81.464603  0.061715608  0.069507716            2 
  111000    1.0837131   -4.0564329    82.237131  0.061739587  0.069366392            3 
  112000     1.052299   -4.0632951    83.126962  0.061850418  0.069232266            2 
  113000    1.0906803   -4.0372479    83.920676  0.061888404  0.069100345            3 
  114000    1.0766021   -4.0562128    84.386446  0.061685998   0.06897524            5 
  115000    1.0881787   -4.0835373    85.226008  0.061757976   0.06885906            5 
  116000    1.1058267   -4.0580326    86.245338  0.061957858  0.068752215            2 
  117000    1.0896867   -4.0533175    86.624096  0.061698074  0.068637453            3 
  118000     1.093413   -4.0403643    87.657338  0.061904899  0.068535257            4 
  119000    1.0921463   -4.0740936    88.200498  0.061765055  0.068429877            2 
  120000    1.0819199    -4.064752    88.417163  0.061400808  0.068315297            4 
  121000    1.0924025    -4.082633    89.177219  0.061416817  0.068192393            2 
  122000     1.060291   -4.0703695    90.583085  0.061873692  0.068084521            5 
  123000    1.0769012   -4.1065552    90.707004  0.061454609  0.067976463            3 
  124000    1.0811079   -4.0585961    91.640285  0.061586213  0.067867932            5 
  125000    1.0566703   -4.0801624    92.090549  0.061393699  0.067757422            3 
  126000    1.0792065   -4.0885164    93.243285  0.061668839  0.067655542            3 
  127000    1.0557724   -4.0987431     94.47649  0.061992447  0.067571657            1 
  128000    1.0520872   -4.0923125    95.015064  0.061858765  0.067486379            1 
  129000    1.0730497   -4.0696606    95.861172  0.061925821  0.067396313            3 
  130000    1.0835776   -4.1101722    95.763114  0.061386612  0.067304865            2 
  131000    1.0657915   -4.1219181    96.234008  0.061217562  0.067205019            2 
  132000    1.0467135    -4.074096    97.470435  0.061534366  0.067102043            3 
  133000    1.0760102    -4.133862    97.891938    0.0613358  0.067007095            2 
  134000    1.0652251   -4.1424065    98.703532  0.061382793  0.066918487            2 
  135000    1.0484863   -4.1067512    99.343338  0.061323048  0.066828661            2 
  136000     1.046611   -4.1078986    100.14614  0.061364056   0.06673095            4 
  137000    1.0293363   -4.1106926    100.00277  0.060828934  0.066624311            2 
  138000    1.0544392   -4.1314762     101.0683  0.061031583  0.066511915            4 
  139000    1.0378033   -4.1194643     101.1007  0.060611929  0.066400724            3 
  140000    1.0544263   -4.1346903    101.88539  0.060646064  0.066286497            2 
  141000    1.0403921   -4.1471718    102.45555  0.060552922  0.066170451            4 
  142000    1.0566318   -4.1162317    102.88196  0.060376739  0.066052828            2 
  143000    1.0440914   -4.1035056    103.79249  0.060485134  0.065936555            2 
  144000    1.0542805    -4.142235    104.15367  0.060274116  0.065814825            4 
  145000    1.0415618   -4.1549087     104.7756   0.06021586  0.065704975            2 
  146000    1.0423486   -4.1379486    105.83687  0.060409173  0.065592828            4 
  147000     1.052162   -4.1348908    106.26546  0.060241188  0.065479206            2 
  148000    1.0099721   -4.1610145     107.0622  0.060282772  0.065366719            3 
  149000    1.0233399   -4.1375364    108.18467   0.06050597  0.065262697            2 
  150000    1.0047305    -4.158997    108.33675  0.060187084  0.065164574            2 
  151000    1.0481232   -4.1781099    109.09848  0.060208876  0.065064687            4 
  152000    1.0389503   -4.1463057    110.16278  0.060396262  0.064967911            4 
  153000    1.0311415   -4.1333484    111.02566   0.06047149  0.064870688            6 
  154000    1.0260336   -4.1447796    111.12889  0.060134681  0.064777361            3 
  155000   0.99228082   -4.1976609    111.26912  0.059822105  0.064680834            5 
  156000   0.99840568   -4.1782759    111.81135  0.059728286  0.064578132            1 
  157000    1.0219681   -4.1879793    112.43544  0.059679106  0.064471988            3 
  158000    1.0165825   -4.1718863    113.28079  0.059747251  0.064365592            2 
  159000     1.049882    -4.164025    113.74726  0.059615964  0.064263341            3 
  160000    1.0114994   -4.1924895     114.1302  0.059442815  0.064160068            5 
  161000    1.0077846    -4.180039    115.07787  0.059564113  0.064054874            3 
  162000   0.99859863   -4.1766121    115.76029  0.059547475  0.063953226            2 
  163000    1.0042186   -4.2009295    116.17963  0.059396537  0.063848365            2 
  164000     1.022221   -4.1758965    117.27285  0.059589862  0.063745308            2 
  165000    1.0138619   -4.2122253    117.19315  0.059188458   0.06364172            3 
  166000     1.005638   -4.1998345    117.67338  0.059072984   0.06353655            3 
  167000    1.0023763   -4.1855814     118.7826  0.059272753  0.063430085            2 
  168000   0.99170192   -4.2107975    118.91328  0.058984762  0.063329525            4 
  169000    1.0242014    -4.193852    119.53896  0.058944259  0.063228502            4 
  170000   0.98645725   -4.2173261       120.12  0.058882354  0.063122822            3 
  171000    0.9890568   -4.2218111    120.94698  0.058941022  0.063021481            4 
  172000    1.0072093   -4.2052065     121.7507  0.058987744  0.062921477            2 
  173000   0.99683695   -4.2404847    122.24618  0.058885442  0.062823616            4 
  174000   0.99525055    -4.204198    122.68414  0.058756771  0.062724356            3 
  175000   0.97759634   -4.2364757    123.62875  0.058870833  0.062626398            2 
  176000   0.98366207   -4.2123857    123.77221  0.058604264  0.062526002            1 
  177000   0.99352961   -4.2296713    124.03352  0.058396196  0.062424116            3 
  178000   0.97914619   -4.2300156    124.40855  0.058243703  0.062314132            3 
  179000   0.97472767   -4.2167239    124.95728  0.058173779  0.062205687            5 
  180000   0.97113153   -4.2345918    125.12463   0.05792807  0.062095044            4 
  181000     1.012761   -4.2431717    125.27213  0.057675933  0.061978088            4 
  182000   0.97003852   -4.2205137    125.75094   0.05757827  0.061864251            6 
  183000   0.98899783   -4.2440994    126.49939  0.057604456  0.061750426            2 
  184000   0.99026156   -4.2366903    127.41598  0.057706511  0.061636323            4 
  185000    0.9853771   -4.2531105    127.52067  0.057441744  0.061519691            4 
  186000   0.97471345   -4.2217072    128.55341  0.057595615   0.06140119            1 
  187000   0.96815734   -4.2789602    128.45431  0.057243455  0.061284288            2 
  188000   0.95982819   -4.2457977    129.39034  0.057353876  0.061164874            3 
  189000   0.96015002   -4.2475296    129.99316   0.05731621  0.061051143            5 
  190000   0.94228459    -4.271152     130.2938  0.057146405  0.060939028            4 
  191000   0.96091041   -4.2712015    130.37323  0.056881862  0.060829244            3 
  192000   0.96991505   -4.2659638    131.28238  0.056980198  0.060716203            2 
  193000   0.93610183   -4.2676624    132.05791  0.057019823  0.060609082            2 
  194000   0.94200494   -4.2341547     132.2849  0.056823408  0.060499919            3 
  195000   0.95356539   -4.3045287    132.90349  0.056796364   0.06039218            9 
  196000   0.92830073   -4.2686345    133.53104  0.056773401  0.060285331            2 
  197000   0.94996573   -4.2693494     134.4784  0.056885956  0.060178539            2 
  198000   0.93172808   -4.2972238    134.76231  0.056718144  0.060076159            3 
  199000   0.93923417   -4.2892786    135.27513  0.056647878  0.059973618            2 
  200000   0.95456924   -4.2874243    135.54277  0.056476155  0.059869505            3 
  201000    0.9514496   -4.2997944    136.15822  0.056450339  0.059766768            2 
  202000   0.95132619   -4.2966688    136.71959  0.056402473  0.059664084            2 
  203000   0.94758219   -4.2920742    137.46259  0.056429635    0.0595637            3 
  204000   0.93852835   -4.2963728    138.41497  0.056542062  0.059465604            4 
  205000   0.93393483   -4.3393709    138.18871  0.056174272  0.059366948            4 
  206000    0.9633288   -4.3316591    138.74675  0.056127326  0.059267596            3 
  207000    0.9667612   -4.3008506    139.72166  0.056248657  0.059167342            2 
  208000   0.92276874   -4.2838791    139.96319  0.056074994  0.059065695            3 
  209000   0.93554438   -4.3278293    140.20903  0.055904717  0.058964636            2 
  210000   0.94474685    -4.346832    140.56448  0.055779555  0.058861775            3 
  211000   0.91971159   -4.3381504    141.08316  0.055720047  0.058762481            2 
  212000   0.92689286   -4.3147091    141.74086  0.055715745  0.058661534            6 
  213000   0.92987235   -4.3081982    141.64695  0.055417428  0.058557982            2 
  214000   0.93160322   -4.3352533    142.30246  0.055413732   0.05845368            6 
  215000   0.89473988   -4.3257784    141.80324  0.054962497  0.058344382            2 
  216000   0.90746044   -4.3279286     142.4806  0.054969365  0.058235522            6 
  217000   0.92628367   -4.3439668     143.1047   0.05495572  0.058123947            3 
  218000   0.92753886   -4.3412935    143.82191  0.054977796  0.058013352            2 
  219000   0.92649443   -4.3381759    143.89604  0.054754962  0.057903869            3 
  220000   0.89857667   -4.3299643    143.43025  0.054329641  0.057787801            2 
  221000   0.90755401   -4.3784945    143.74024  0.054200694  0.057670021            2 
  222000   0.89800252   -4.3487393    144.64963  0.054297907  0.057551202            4 
  223000   0.90830392   -4.3565107    144.61584  0.054041794  0.057430241            7 
  224000   0.91135697   -4.3722281    144.97721  0.053934975  0.057310473            4 
  225000   0.91439746   -4.3707536    145.28458  0.053809103  0.057193224            4 
  226000   0.91385962   -4.3599442    145.63284  0.053699423  0.057075029            4 
  227000   0.91508506   -4.3782431    146.07265  0.053624322  0.056954582            6 
  228000   0.92268708   -4.3693572    146.78744  0.053650381  0.056837917            8 
  229000   0.89561584   -4.3815977    147.23522  0.053579047  0.056721283            5 
  230000   0.88783778   -4.3605244    147.59213  0.053475411  0.056603876            4 
  231000   0.89555614    -4.385527    148.15131   0.05344564  0.056486391            3 
  232000   0.90254464    -4.399102    147.66139  0.053039294  0.056366486            7 
  233000   0.88091479   -4.3946759    148.51329   0.05311634  0.056247096            4 
  234000   0.90293117   -4.3853096    148.79634  0.052990149  0.056128074            3 
  235000   0.89062988   -4.3963697    149.45987  0.052999954  0.056011952            4 
  236000   0.89151451   -4.3657213    150.01235  0.052970462  0.055897764            5 
  237000   0.88300388   -4.4032437    150.56742   0.05294213  0.055783441            4 
  238000   0.88475335    -4.404511    150.35548  0.052645475  0.055667116           10 
  239000    0.9008373   -4.4118196    150.86162  0.052601681  0.055553902            2 
  240000   0.88024321   -4.4096191    151.44161  0.052583892  0.055441477            4 
  241000   0.88117548   -4.3956417    152.79213  0.052832685  0.055332249            4 
  242000   0.88045278    -4.410243    153.20145   0.05275532  0.055223756            2 
  243000   0.85894236   -4.4081876    153.29211  0.052569309  0.055114935            5 
  244000   0.89414808   -4.4329819    152.97523  0.052245639  0.055003631            6 
  245000   0.86886627   -4.4452692    153.33784  0.052155727  0.054889565            3 
  246000   0.85840632   -4.3714691    153.41988  0.051971505  0.054774204            3 
  247000   0.88469243   -4.4348374    153.42635  0.051763277  0.054657386            7 
  248000   0.88168567   -4.4418492    154.49418  0.051913367  0.054540586            3 
  249000   0.86928473   -4.4614908    153.54865  0.051388438  0.054422534            2 
  250000   0.86572689   -4.4302762    154.01804  0.051339348  0.054302315            3 
  251000   0.86553272    -4.440124    154.94962  0.051444096  0.054185104            4 
  252000   0.87814703   -4.4497027    155.26573  0.051344487   0.05406857            2 
  253000   0.86096412   -4.4295352     155.5015  0.051219202  0.053950491            3 
  254000   0.83938051   -4.4706837    155.41761   0.05099003  0.053832496            5 
  255000   0.84632619   -4.4334221    155.47932  0.050810235  0.053713493            7 
  256000   0.84906212   -4.4438386    156.81396   0.05104621  0.053595486            5 
  257000   0.85705412    -4.462929    157.26972  0.050995371  0.053477746            6 
  258000   0.86985894   -4.4688486      156.731  0.050623708  0.053361109           10 
  259000   0.84808982   -4.4612054    157.25492   0.05059682  0.053244093            3 
  260000   0.83642878   -4.4910526    157.44225   0.05046226  0.053128376           10 
  261000   0.84179428   -4.4763536     157.9286  0.050424203  0.053012452            4 
  262000   0.83276501   -4.5012944     158.2947  0.050348186  0.052895889            3 
  263000   0.85383412   -4.4798065    159.40021  0.050507036  0.052780183            6 
  264000   0.84646177   -4.4497778    159.49282  0.050344955  0.052667041            4 
  265000   0.83903585   -4.4681565    159.52733  0.050165827  0.052552889            8 
  266000   0.82800438   -4.4968641    159.89478   0.05009235  0.052440597            6 
  267000   0.81933764   -4.4997481    160.40726  0.050064688  0.052330406            3 
  268000   0.85447524     -4.48317    160.63817   0.04994968  0.052218294            7 
  269000   0.85469165   -4.4803819    160.74976  0.049798563  0.052105554            4 
  270000   0.83454935   -4.5045385    160.91595  0.049665418  0.051991586            4 
  271000   0.84265974   -4.4771191       161.37  0.049621771  0.051877354            3 
  272000   0.84435965   -4.4735777    161.64126  0.049522443  0.051765533            2 
  273000   0.83696657   -4.4955733    162.01438  0.049454939  0.051653792            3 
  274000   0.83313618   -4.5075394     162.1662  0.049320619  0.051542109            5 
  275000   0.81943188   -4.4980009    162.88064   0.04935777  0.051432876            4 
  276000   0.81653919   -4.5295202    162.63498  0.049104766  0.051323148            6 
  277000   0.82601475   -4.5270726    163.34736  0.049141804  0.051213898            5 
  278000   0.82553417   -4.5303162    163.41338  0.048984827  0.051106007            6 
  279000   0.81511139   -4.5304112    163.33692  0.048786417  0.050995735            3 
  280000   0.81542132   -4.5579123    163.36073  0.048619265  0.050885201            4 
  281000   0.80272687   -4.4988655    164.38283  0.048749357  0.050773732            8 
  282000   0.83521124   -4.5287934    164.16856  0.048513167  0.050662397            4 
  283000    0.8045935   -4.5224592    164.68183  0.048492884   0.05055146            3 
  284000     0.811065   -4.5302108     164.9441   0.04839909  0.050440812            6 
  285000   0.81466276   -4.5216063    165.02401  0.048252634  0.050329786            3 
  286000   0.81357372   -4.5189093    165.64264  0.048264172  0.050220261            6 
  287000    0.8037315   -4.5525257    166.12234  0.048235291  0.050110231            3 
  288000   0.80390539   -4.5319691    166.51721  0.048182063  0.050000389            4 
  289000   0.81005055   -4.5213506    166.56067  0.048027874  0.049890188            7 
  290000   0.81598959   -4.5416957    166.34156  0.047799298  0.049782687            2 
  291000   0.80330777    -4.570599    166.34505  0.047636039  0.049673167            5 
  292000     0.783343   -4.5391155    167.32148  0.047751565  0.049562914            3 
  293000   0.77138216    -4.559763    167.24838    0.0475678   0.04945245            6 
  294000   0.78598264   -4.5659308    166.85077  0.047293302  0.049341313           11 
  295000   0.78571895   -4.5827268    167.59813  0.047344106  0.049229763            5 
  296000    0.7964831   -4.5566258    167.82744  0.047248717  0.049119814            4 
  297000   0.77244004    -4.565732    168.37293  0.047242684  0.049011861            3 
  298000   0.78574622   -4.5738257    168.66521  0.047165888   0.04890583            6 
  299000    0.8064141   -4.5867078     169.2028  0.047157971  0.048799287            4 
  300000   0.78703909    -4.587434    168.75847  0.046877352  0.048692364            6 
  301000   0.80172702   -4.5965391    169.55807  0.046942988  0.048585856            2 
  302000   0.79225055   -4.5741588    169.65761  0.046815013  0.048480711            7 
  303000    0.7901314    -4.613006    169.83851  0.046710262  0.048375582            6 
  304000   0.80247502   -4.6144205    169.42634  0.046443625  0.048268893            3 
  305000    0.7827838   -4.6218524    170.15903  0.046491539  0.048162433            4 
  306000   0.77572936   -4.6091291    169.86058  0.046258327   0.04805491            7 
  307000   0.76691042   -4.5930952    170.52298  0.046287455  0.047948655            9 
  308000   0.79257259   -4.6165568    171.02159  0.046272076  0.047842747            6 
  309000   0.77662823   -4.5948645    170.65315  0.046022964  0.047735185            6 
  310000   0.77942385   -4.6093631    171.70468  0.046157173   0.04762852            7 
  311000   0.78581656   -4.5899098    171.57029  0.045972745   0.04752342            8 
  312000   0.76881751    -4.626865    171.57538  0.045826759  0.047417718           10 
  313000   0.77540929   -4.6183793    172.14318  0.045831518   0.04731158            4 
  314000   0.74360058   -4.6161162    172.23953  0.045711128  0.047206256            5 
  315000   0.77342479    -4.619374    172.37975  0.045603108   0.04710172            8 
  316000   0.76156583    -4.633673    172.78851  0.045566589  0.046996807            8 
  317000   0.75846154   -4.6451885    173.30498  0.045558617  0.046891423            5 
  318000   0.76214144   -4.6437817    173.22844  0.045395292  0.046787364            5 
  319000   0.73410591    -4.650362    173.07956  0.045214096  0.046682067            6 
  320000   0.74835931   -4.6530968    173.79485  0.045259075  0.046578228            5 
  321000   0.74603376   -4.6277702    174.19781  0.045222691  0.046474034            9 
  322000   0.74525067   -4.6376965    174.47296  0.045153457  0.046369951            7 
  323000   0.74326203    -4.655031    174.10422   0.04491853  0.046266352            9 
  324000   0.75269665   -4.6639527    174.18676   0.04480112  0.046162674            4 
  325000   0.74554047   -4.6383884    174.98255  0.044867321  0.046060137            4 
  326000    0.7478276   -4.6529838    174.50197  0.044606843  0.045956047           10 
  327000   0.74580088   -4.6639888    174.77206  0.044539262  0.045852626            6 
  328000   0.74026012   -4.6716385    175.29707  0.044536858  0.045749675            5 
  329000    0.7282044   -4.6861968    174.81913  0.044280428  0.045646622            8 
  330000   0.73682875   -4.6640047    175.21247  0.044245574  0.045543088            2 
  331000   0.75925796   -4.6939965    175.43904  0.044168943  0.045440219           10 
  332000   0.74894444   -4.6898579    175.49797  0.044050694  0.045336669           11 
  333000   0.74394002   -4.6955557    175.46996  0.043911402  0.045232933            7 
  334000   0.73989262   -4.6744123    175.60355  0.043813262  0.045128468            7 
  335000   0.74249045   -4.6648681    176.12255   0.04381158  0.045024552            5 
  336000   0.75077976   -4.6941282    176.37431  0.043743628  0.044922062            7 
  337000   0.71519615   -4.6882068    176.39373  0.043618626  0.044819524            6 
  338000   0.73149614   -4.6977067    176.21242  0.043444876   0.04471626            4 
  339000   0.74432408   -4.6826281    176.76821  0.043453346  0.044613823            5 
  340000   0.71851317   -4.6901019    176.44721  0.043246864   0.04451055            5 
  341000   0.71891321   -4.7162255    176.97938  0.043250092  0.044406213            4 
  342000   0.72015352   -4.7210336    176.80156  0.043080302  0.044301999            7 
  343000   0.71705065   -4.7071537    177.13342  0.043035331  0.044198009            3 
  344000   0.71737595   -4.6987138    177.41621  0.042978733  0.044094983           16 
  345000   0.71890785   -4.7423582    177.35268  0.042838811  0.043993022           11 
  346000   0.72627828    -4.731088    177.87375  0.042840498  0.043891225            6 
  347000   0.69464237   -4.7169228    177.91786  0.042727633  0.043789011            9 
  348000   0.70621523   -4.7344389    178.11864  0.042652931  0.043686294            7 
  349000   0.71056593    -4.740969    178.30185  0.042574464  0.043585098            3 
  350000   0.69329544   -4.7444104    178.86046  0.042585823  0.043485427            8 
  351000   0.69969768   -4.7674284    178.40686  0.042356805   0.04338488            4 
  352000   0.72375324   -4.7650006     178.5537  0.042271236  0.043285281            7 
  353000   0.71437355   -4.7436322    178.88929  0.042230711  0.043184604            5 
  354000   0.67693171   -4.7665919    178.98294  0.042133461  0.043084062            5 
  355000   0.71348919    -4.745192    178.71922  0.041952869  0.042983644            7 
  356000   0.68370043   -4.7698948    179.11881  0.041928561  0.042883621            6 
  357000   0.69373083   -4.7903914    178.76205  0.041727835   0.04278332            4 
  358000   0.70481648   -4.7617381    179.32841  0.041743112  0.042682262           12 
  359000   0.69371511   -4.7726307    179.48155  0.041662384  0.042581583           10 
  360000   0.69149969   -4.7814157    179.64229  0.041583863  0.042480429           10 
  361000   0.69488683    -4.762597    179.80603   0.04150647  0.042379382            8 
  362000   0.67645607   -4.7667386     179.8371  0.041398964  0.042278599            4 
  363000   0.67548051   -4.7968119    179.86519  0.041291365  0.042178251            5 
  364000   0.67442999   -4.7792672    179.67204  0.041133708  0.042078134            4 
  365000   0.68448351   -4.7850044    179.83074  0.041057247  0.041978607            4 
  366000   0.68721848   -4.7994136    180.04837  0.040994619  0.041878598           10 
  367000   0.68388918   -4.8066798    180.35127  0.040951697  0.041779792            5 
  368000   0.70017078    -4.806959      180.895  0.040963541  0.041681272            4 
  369000   0.67821693   -4.7908075    180.75254  0.040820356   0.04158344            4 
  370000   0.67501746   -4.7960027    181.25073  0.040822237  0.041486098           10 
  371000    0.6752916   -4.7931255    181.40401  0.040746633   0.04138842            9 
  372000   0.66991708   -4.8209095     181.1034  0.040569759   0.04129096            6 
  373000   0.67180324   -4.8340103    180.96386  0.040429817  0.041192718            6 
  374000   0.67630199   -4.8002228    181.96502  0.040544791  0.041095451            8 
  375000   0.64896257   -4.8129292    181.78541  0.040396759  0.040998884            6 
  376000   0.66872994   -4.7997498     182.1228  0.040364097  0.040903306           11 
  377000   0.66891102   -4.8256925    181.88961  0.040205485  0.040807034           21 
  378000   0.66227679   -4.8420248    181.68145   0.04005323   0.04071121            9 
  379000   0.65950586   -4.8394902    181.39961  0.039885579  0.040615018            4 
  380000   0.66297713   -4.8383252    182.06788  0.039927167  0.040518442            9 
  381000   0.65588923    -4.859808    181.76885  0.039756967   0.04042136           14 
  382000   0.65296417   -4.8501651    182.05925  0.039716241  0.040323595           12 
  383000   0.64315447   -4.8474283    181.89325  0.039576426  0.040225859            8 
  384000   0.65469134   -4.8453126    182.22346  0.039545022  0.040128265            9 
  385000   0.67483697   -4.8625782    182.79871   0.03956682  0.040032354            6 
  386000   0.64668572   -4.8421109    182.26334  0.039348735  0.039936136           11 
  387000   0.66357941   -4.8298316    182.56211  0.039311394  0.039840145           19 
  388000    0.6419663   -4.8793151    182.26361  0.039145963  0.039744521            7 
  389000   0.65100349   -4.8533252    182.92937  0.039187953  0.039648652            8 
  390000   0.63168708   -4.8544224    183.39693  0.039187378   0.03955256            8 
  391000   0.65073895   -4.8785893    183.27701  0.039061595  0.039456678           12 
  392000   0.62613699   -4.8814944    183.02223  0.038907786  0.039361703           13 
  393000   0.64170624   -4.8743675    183.17359  0.038840879  0.039266013           13 
  394000   0.64057926   -4.8921244    182.83301  0.038670264   0.03917044           14 
  395000   0.64285112   -4.8821991    182.52849  0.038508121   0.03907426           29 
  396000   0.63300237   -4.8898784    182.63983  0.038434307  0.038977427           13 
  397000   0.63523368   -4.8920922    182.42974  0.038293397  0.038879852           26 
  398000    0.6263266   -4.8750489    182.74002  0.038262147  0.038782471           20 
  399000   0.62474898   -4.8953404    182.60838   0.03813876  0.038685601           21 
  400000   0.62683856   -4.8999894    182.81231  0.038085898  0.038588608           10 
  401000   0.63597953   -4.9264972    182.56185  0.037938872  0.038491871            7 
  402000   0.62312669   -4.9015339    183.51997  0.038043112  0.038395834            7 
  403000   0.63390948   -4.9209921    182.86053  0.037812351  0.038298896           14 
  404000   0.61990028    -4.887191      183.253   0.03779971  0.038203256           11 
  405000   0.60846452   -4.9138541    183.51354  0.037759987  0.038108215           29 
  406000   0.61871456    -4.922715    183.03962  0.037569708  0.038013018            6 
  407000   0.61549813   -4.9415324    182.82801  0.037434072   0.03791694           21 
  408000   0.61764983    -4.944002    183.16323   0.03741079   0.03782069           13 
  409000   0.61981882    -4.924628    182.53112   0.03719053  0.037725103           56 
  410000   0.62165152   -4.9508582     183.4251  0.037281523  0.037629784           11 
  411000   0.61221475   -4.9378074    184.05249  0.037318023  0.037534989           12 
  412000   0.60793951   -4.9420125    183.96794  0.037210344  0.037440413           14 
  413000   0.61736212   -4.9476845    182.86427  0.036897553  0.037345201           22 
  414000   0.61397963   -4.9469185    183.47713  0.036931789  0.037250194           17 
  415000   0.61612225   -4.9605707    183.61369  0.036870219  0.037155515           14 
  416000   0.59274926    -4.976444    183.39263  0.036737305  0.037060963           25 
  417000   0.58801639   -4.9697913    183.31699  0.036634091  0.036967027           11 
  418000   0.61341674   -4.9652762    183.58947  0.036600772  0.036873581           12 
  419000   0.61004723   -4.9717113    183.92752  0.036580652    0.0367803           14 
  420000   0.59440989    -4.968055    183.77438  0.036463171   0.03668759           14 
  421000   0.59800705   -4.9802472    183.83885  0.036389322  0.036595152            8 
  422000   0.59456111   -4.9804284    184.02569  0.036339986  0.036502643            5 
  423000   0.58814756   -4.9849986    184.31958  0.036311973  0.036411279           17 
  424000   0.58499147   -4.9913469    184.23727  0.036210156  0.036320498           22 
  425000   0.58353456   -4.9910684    184.82517   0.03624023    0.0362296           12 
  426000   0.59398279    -4.987977    184.74073   0.03613864  0.036139354            8 
  427000    0.5788556    -5.005719    184.73774  0.036053424  0.036049467           14 
  428000   0.57802394   -5.0041269    184.21451  0.035867311  0.035959545           11 
  429000   0.58454675   -5.0065619    184.60943  0.035860418  0.035869633            9 
  430000   0.56767073   -5.0183152    185.27971   0.03590692   0.03577992           14 
  431000   0.58428077   -5.0193988    184.89628  0.035749474  0.035690428            7 
  432000   0.57242294   -5.0138093    185.09046  0.035704178  0.035600623            7 
  433000   0.57940485   -5.0144939    184.62689  0.035532505  0.035511579            7 
  434000   0.57404135   -5.0330797    185.14079  0.035549308  0.035422118           13 
  435000   0.56355357   -5.0209338    184.48356  0.035341679  0.035332675           25 
  436000   0.57672059   -5.0335792    185.02614  0.035364324  0.035243611           39 
  437000   0.55997033   -5.0194575    184.57935  0.035198197  0.035154676           32 
  438000   0.56056751   -5.0511669    184.55916  0.035113996  0.035065881           14 
  439000   0.55577808   -5.0150444    185.07238  0.035131431  0.034977168            9 
  440000   0.56151108   -5.0338718    185.53376  0.035138969  0.034889506           12 
  441000   0.57118594   -5.0312955    185.48165  0.035049442  0.034801665           17 
  442000   0.57911561    -5.061037    185.04448  0.034887722  0.034713805           18 
  443000    0.5664789   -5.0602048    185.03295  0.034806801  0.034625925           14 
  444000   0.54776326   -5.0583308    185.09977  0.034740948  0.034537659           31 
  445000   0.55102593   -5.0573301    184.53168  0.034556495  0.034449489           31 
  446000   0.54831634   -5.0540332    185.45578  0.034651678  0.034362003           13 
  447000   0.55528656   -5.0608968    184.88134  0.034467066  0.034274481           28 
  448000   0.54714822   -5.0857773    184.46162  0.034312058  0.034186924           34 
  449000   0.55680598   -5.0698886     184.7227  0.034284095  0.034098897           15 
  450000   0.54718512    -5.080218    184.63098  0.034190923  0.034010963           28 
  451000   0.55615387   -5.0753474    184.67603  0.034123435  0.033922745           22 
  452000   0.55311034   -5.0788817    184.59643  0.034033265  0.033834785           20 
  453000   0.53949596   -5.1019021    184.83378  0.034001799  0.033747049           17 
  454000   0.54118056   -5.0881787     184.3783  0.033843301  0.033658808           31 
  455000    0.5391712   -5.0977621    184.53861   0.03379828  0.033570979           29 
  456000   0.53391317   -5.1106681      184.804  0.033772661  0.033483522           13 
  457000    0.5371714   -5.0836011    185.12342  0.033757005  0.033396454           27 
  458000   0.53272948   -5.1049171    184.97487  0.033656271  0.033309838           13 
  459000   0.53234085   -5.1002088    185.03894  0.033594579  0.033223475           14 
  460000   0.53924773   -5.1089665    184.82434   0.03348267  0.033137073           18 
  461000   0.52608509   -5.1090588    184.96639  0.033435718   0.03305112           11 
  462000    0.5297303   -5.1098849    185.25516  0.033415433  0.032965716           22 
  463000   0.51487183   -5.1146993    184.46569  0.033201167  0.032880151           29 
  464000   0.52472601   -5.1182008    185.28329  0.033276453  0.032794729           13 
  465000   0.52348691   -5.1281582    184.53497  0.033070783  0.032709651           23 
  466000   0.53873683   -5.1193808    184.95235  0.033074455  0.032624621           19 
  467000   0.51667389   -5.1255191    184.91159  0.032996358  0.032539819           17 
  468000   0.51825085   -5.1313812    185.65916  0.033058967  0.032455456           16 
  469000   0.51817316   -5.1512864    184.62125   0.03280406  0.032370883           16 
  470000   0.53239912   -5.1367199    185.47357  0.032885385  0.032286362           11 
  471000   0.52154375   -5.1491723    184.53543  0.032649581  0.032202047           39 
  472000   0.50971966   -5.1484302    184.68286  0.032606436  0.032117898           13 
  473000   0.51261752   -5.1309744    185.01801  0.032596548   0.03203377           17 
  474000    0.5192145   -5.1636702    184.68317  0.032468912  0.031949542           51 
  475000   0.50941287     -5.13859    184.34804  0.032341761  0.031865502           22 
  476000   0.51854363   -5.1683439    184.76447   0.03234672  0.031781463           35 
  477000   0.51317523   -5.1611914    184.38808  0.032213152  0.031697381           28 
  478000    0.5060599   -5.1586077    184.49593  0.032164562  0.031613526           62 
  479000   0.50730291     -5.16554    184.26515  0.032057263  0.031529732           57 
  480000   0.49562851   -5.1708764    184.56487  0.032042512  0.031446129           51 
  481000   0.49818352   -5.1675132    184.84418  0.032024285  0.031362805           28 
  482000    0.4995416   -5.1765911    184.31726  0.031866746   0.03127946           21 
  483000   0.49242733   -5.1944324    184.52474  0.031836567  0.031196439           27 
  484000   0.48941982   -5.1806068    184.21151  0.031716858  0.031113632           26 
  485000   0.50095345   -5.1859997    184.25164  0.031658357  0.031030927           19 
  486000   0.49099154   -5.1952005    184.31191   0.03160355  0.030948549           67 
  487000   0.49541364   -5.2070115    183.96808  0.031479821  0.030866122           54 
  488000   0.49948197   -5.2282828     183.9496  0.031412158  0.030783496           31 
  489000   0.49701706   -5.2033779     184.4205   0.03142817  0.030701267           53 
  490000   0.49180235   -5.2233759    184.14581  0.031317315  0.030619161           60 
  491000   0.48789565   -5.1944924    184.20068  0.031262845  0.030537083           63 
  492000   0.48759506   -5.2298569    184.20525  0.031200077  0.030455121           55 
  493000   0.49085594   -5.2163299    183.79709  0.031067797  0.030373512           42 
  494000   0.48368663   -5.2312429    183.93196  0.031027658  0.030291878           52 
  495000   0.48479817    -5.220734     183.8378  0.030949125  0.030210401           15 
  496000   0.47242985   -5.2301183    183.94831  0.030905293  0.030129223           45 
  497000   0.47825695   -5.2356338    183.86673  0.030829432  0.030048234           72 
  498000   0.47235866   -5.2265071    184.28549  0.030837599  0.029967336           26 
  499000   0.47004944   -5.2426644    184.11226  0.030746871  0.029886618           47 
  500000   0.46569629   -5.2632361    183.85558  0.030642596    0.0298061           25 
  501000   0.47329609   -5.2464555    184.10285  0.030622564  0.029725623           57 
  502000   0.46483661   -5.2620124    183.82174  0.030514897  0.029645418           29 
  503000   0.45935117    -5.264267    183.57299  0.030413021  0.029565309           37 
  504000   0.46954278   -5.2758719    183.66914  0.030368575  0.029485088           41 
  505000   0.45937547   -5.2618256    183.54503  0.030287958  0.029405132           21 
  506000   0.45792068    -5.263705    183.51854  0.030223738  0.029325608           39 
  507000   0.45785333    -5.278214    183.73739  0.030200096  0.029246197           56 
  508000   0.44871275     -5.28628    183.58509  0.030115664  0.029166835           41 
  509000   0.45809911   -5.2599254    183.27463  0.030005669   0.02908757           34 
  510000   0.44740033   -5.2848874    183.34733  0.029958715  0.029008577           51 
  511000   0.45253542    -5.281732    183.63007  0.029946196  0.028929797           25 
  512000   0.43977271   -5.2779991    183.36332   0.02984429  0.028851083           42 
Loop time of 1252.35 on 48 procs for 500000 steps with 4000 atoms

Performance: 68990.281 tau/day, 399.249 timesteps/s
99.4% CPU use with 48 MPI tasks x no OpenMP threads

MPI task timing breakdown:
Section |  min time  |  avg time  |  max time  |%varavg| %total
---------------------------------------------------------------
Pair    | 85.56      | 90.322     | 97.121     |  22.5 |  7.21
Neigh   | 8.4964     | 8.8278     | 9.1952     |   5.6 |  0.70
Comm    | 78.718     | 85.534     | 90.916     |  27.4 |  6.83
Output  | 0.90801    | 0.90842    | 0.91868    |   0.2 |  0.07
Modify  | 1050.7     | 1054.4     | 1058.3     |   5.3 | 84.19
Other   |            | 12.34      |            |       |  0.99

Nlocal:        83.3333 ave          89 max          77 min
Histogram: 4 0 5 2 7 13 4 8 1 4
Nghost:        2301.88 ave        2328 max        2280 min
Histogram: 3 3 6 10 4 8 6 5 2 1
Neighs:        15562.6 ave       17048 max       13747 min
Histogram: 1 1 3 7 8 9 5 8 3 3
FullNghs:      31180.6 ave       33822 max       28129 min
Histogram: 1 4 0 7 8 9 9 4 5 1

Total # of neighbors = 1496669
Ave neighs/atom = 374.16725
Neighbor list builds = 27005
Dangerous builds = 0

#clear
#
#next RN
#
#jump SELF
Total wall time: 0:20:55
