
units lj                  # Use reduced LJ style units
atom_style atomic         # Uncharged point particles
atom_modify map hash      # Needed for indexing of clusters etc
                          # Used to be able to find where atoms are in relation to each other.

lattice fcc 1.0 spacing 1 1 1
Lattice spacing in x,y,z = 1.5874011 1.5874011 1.5874011
region box block 0 10 0 10 0 10 units lattice
create_box 2 box
Created orthogonal box = (0.0000000 0.0000000 0.0000000) to (15.874011 15.874011 15.874011)
  3 by 4 by 4 MPI processor grid
create_atoms 1 box
Created 4000 atoms
  using lattice units in orthogonal box = (0.0000000 0.0000000 0.0000000) to (15.874011 15.874011 15.874011)
  create_atoms CPU = 0.027 seconds
set type 1 type/fraction 2 0.93 78393
Setting atom values ...
  3709 settings made for type/fraction
mass 1 1.0
mass 2 1.0
pair_style lj/cut  3.5
pair_modify tail  yes
pair_coeff 1  1  1.0  1.0   # Intearaction between 1 and 1 set with epsilon = 1 and sigma = 1
pair_coeff 1  2  1.5  0.8
pair_coeff 2  2  0.5  0.88

write_data data.0
System init for write_data ...
Neighbor list info ...
  update every 1 steps, delay 10 steps, check yes
  max neighbors/atom: 2000, page size: 100000
  master list distance cutoff = 3.8
  ghost atom cutoff = 3.8
  binsize = 1.9, bins = 9 9 9
  1 neighbor lists, perpetual/occasional/extra = 1 0 0
  (1) pair lj/cut, perpetual
      attributes: half, newton on
      pair build: half/bin/atomonly/newton
      stencil: half/bin/3d
      bin: standard
WARNING: Not all mixed pair coeffs generated from mixing. Use write_data with 'pair ij' option to store all pair coeffs. (../write_data.cpp:312)


#############################
#   M E L T   S Y S T E M   #
#############################

velocity all create 2.4 5300450 mom yes dist gaussian # Assign velocities
                                                    # Temperature 2.4, random number seed, zero linear momentum
                                                                                # Gaussian distribution

timestep 0.002   # simulation timestep
thermo 1000       # output thermodynamic data every 1000 steps bf 100

# Define a fix  in this case with index 1 applied to all
# particles in the simulation. This fix is for simulations
# in the anisotropic NPT ensemble. Note that we use the MTK
# correction.
fix 1 all npt temp 2.4 2.4 0.1 iso 5.68 5.68 0.5 mtk yes tchain 5 pchain 5 # Use NPT ensemble
                                                                         # Set temperature and pressure and damping
                                                                         # Numbers of thermostats in chain and in barostat
run 10000          # run for 10000 steps
Per MPI rank memory allocation (min/avg/max) = 3.642 | 3.644 | 3.648 Mbytes
Step Temp E_pair E_mol TotEng Press Volume 
       0          2.4   -3.0493222            0   0.54977785   -2.3496824         4000 
    1000    2.3654658    -1.985019            0    1.5622926    5.6511597    4090.8846 
    2000    2.3854459   -2.0185098            0    1.5587645    5.5818265    4083.0648 
    3000    2.3896538   -1.9936386            0    1.5899461    5.6637229    4093.3461 
    4000    2.3529067   -1.9761122            0    1.5523655    5.9630604    4037.4434 
    5000      2.42088   -1.9926925            0    1.6377197    5.6148364    4107.1828 
    6000    2.4226952   -2.0249936            0    1.6081407    5.6611864    4055.2589 
    7000    2.3615099   -1.9899487            0    1.5514306    5.5920095    4089.8078 
    8000    2.4001583   -1.9758606            0    1.6234768    5.7900401    4067.7679 
    9000    2.4152352   -2.0374142            0    1.5845329    5.3804514    4097.9451 
   10000    2.4150463   -2.0241122            0    1.5975517    5.5625621    4084.3827 
Loop time of 2.44856 on 48 procs for 10000 steps with 4000 atoms

Performance: 705721.171 tau/day, 4084.035 timesteps/s
99.6% CPU use with 48 MPI tasks x no OpenMP threads

MPI task timing breakdown:
Section |  min time  |  avg time  |  max time  |%varavg| %total
---------------------------------------------------------------
Pair    | 1.0481     | 1.1329     | 1.2319     |   3.4 | 46.27
Neigh   | 0.20633    | 0.21318    | 0.22711    |   0.9 |  8.71
Comm    | 0.74853    | 0.84383    | 0.93271    |   4.5 | 34.46
Output  | 0.00024167 | 0.00024648 | 0.00030413 |   0.0 |  0.01
Modify  | 0.20425    | 0.24342    | 0.27545    |   4.2 |  9.94
Other   |            | 0.01501    |            |       |  0.61

Nlocal:        83.3333 ave          92 max          73 min
Histogram: 1 1 5 6 7 4 13 7 2 2
Nghost:        1624.38 ave        1653 max        1589 min
Histogram: 1 0 5 5 10 10 3 9 1 4
Neighs:        9337.56 ave       10827 max        7753 min
Histogram: 2 0 5 7 6 7 13 7 0 1

Total # of neighbors = 448203
Ave neighs/atom = 112.05075
Neighbor list builds = 908
Dangerous builds = 191

# Equilibrate just above the melting temperature to avoid step fn in T

fix 1 all npt temp 1.25 1.25 0.1 iso 5.68 5.68 0.5 mtk yes tchain 5 pchain 5
run 2000
Per MPI rank memory allocation (min/avg/max) = 3.643 | 3.645 | 3.649 Mbytes
Step Temp E_pair E_mol TotEng Press Volume 
   10000    2.4150463   -2.0241122            0    1.5975517    5.5625621    4084.3827 
   11000    1.2428626   -3.0065093            0   -1.1426815    5.7657442    3167.1713 
   12000    1.2684705   -2.9991823            0   -1.0969522     5.685604    3166.2288 
Loop time of 0.606863 on 48 procs for 2000 steps with 4000 atoms

Performance: 569485.867 tau/day, 3295.636 timesteps/s
99.6% CPU use with 48 MPI tasks x no OpenMP threads

MPI task timing breakdown:
Section |  min time  |  avg time  |  max time  |%varavg| %total
---------------------------------------------------------------
Pair    | 0.25723    | 0.28629    | 0.32989    |   2.2 | 47.18
Neigh   | 0.037883   | 0.040636   | 0.046039   |   0.6 |  6.70
Comm    | 0.18632    | 0.22935    | 0.25779    |   2.6 | 37.79
Output  | 5.069e-05  | 5.2448e-05 | 6.5855e-05 |   0.0 |  0.01
Modify  | 0.038482   | 0.045676   | 0.051837   |   1.7 |  7.53
Other   |            | 0.004863   |            |       |  0.80

Nlocal:        83.3333 ave          89 max          79 min
Histogram: 3 7 2 4 12 3 6 6 3 2
Nghost:        1924.69 ave        1946 max        1906 min
Histogram: 3 5 6 5 7 8 4 3 4 3
Neighs:        12057.4 ave       13348 max       11141 min
Histogram: 6 5 5 7 8 4 7 3 2 1

Total # of neighbors = 578757
Ave neighs/atom = 144.68925
Neighbor list builds = 142
Dangerous builds = 15

#############################
# L I N E A R  Q U E N C H  #
#############################

# Define solid atoms. This closely follows ten Wolde  Ruiz-Montero and Frenkel  Faraday Discuss  1996  104  93-110
# Compute components of the per-atom q6 vector
compute q6 all orientorder/atom degrees 1 6 components 6 nnn NULL cutoff 1.3 # compute the Q6 parameter.
                                                                             # Use all neighbours within 1.3 unit cell.

# get number of connections
compute coord_number all coord/atom orientorder q6 0.5

# An atom is solid if it has 8 or more connections (of a possible 14)
variable is_solid atom c_coord_number>=8
group solid dynamic all var is_solid    # Must be dynamic to update
dynamic group solid defined

# do clustering
compute cluster solid cluster/atom 1.3 # Create a cluster where all atoms within are solid and max 1.3 units from another member

# define chunks one chunk per cluster
compute clus_chunks solid chunk/atom c_cluster nchunk every compress yes  # Says which atoms are in which chunk

# count the size of each chunk
compute size_chunks solid property/chunk clus_chunks count


# Find the maximum entry in the vector of chunk sizes
variable max_n equal max(c_size_chunks)


# Thermo style which includes this variable
# thermo_style custom step temp pe vol v_max_n

thermo ${N}  # Print the thermo information every 100 steps
thermo 1000  

# Reset the npt fix at a lower temperature (below freezing)
fix 1  all npt temp  ${temp} ${temp}  0.1  iso  5.68  5.68  0.5  mtk yes tchain  5  pchain  5
fix 1  all npt temp  0.45 ${temp}  0.1  iso  5.68  5.68  0.5  mtk yes tchain  5  pchain  5
fix 1  all npt temp  0.45 0.45  0.1  iso  5.68  5.68  0.5  mtk yes tchain  5  pchain  5

dump dmp2 all dcd ${N} traj.dcd
dump dmp2 all dcd 1000 traj.dcd


compute msd all msd com yes
variable twopoint equal c_msd[4]/6/(step*dt+1.0e-6)
fix 9 all vector 10 c_msd[4]
variable fit equal slope(f_9)/6/(10*dt)
thermo_style custom step temp pe c_msd[4] v_twopoint v_fit v_max_n

fix 1 all npt temp 1.25 ${temp} 0.1 iso 5.68 5.68 0.5 mtk yes tchain 5 pchain 5
fix 1 all npt temp 1.25 0.45 0.1 iso 5.68 5.68 0.5 mtk yes tchain 5 pchain 5
run 5000000 # 5000000  # Run for this many steps
Neighbor list info ...
  update every 1 steps, delay 10 steps, check yes
  max neighbors/atom: 2000, page size: 100000
  master list distance cutoff = 3.8
  ghost atom cutoff = 3.8
  binsize = 1.9, bins = 8 8 8
  4 neighbor lists, perpetual/occasional/extra = 1 3 0
  (1) pair lj/cut, perpetual
      attributes: half, newton on
      pair build: half/bin/atomonly/newton
      stencil: half/bin/3d
      bin: standard
  (2) compute orientorder/atom, occasional
      attributes: full, newton on
      pair build: full/bin/atomonly
      stencil: full/bin/3d
      bin: standard
  (3) compute coord/atom, occasional
      attributes: full, newton on
      pair build: full/bin/atomonly
      stencil: full/bin/3d
      bin: standard
  (4) compute cluster/atom, occasional
      attributes: full, newton on
      pair build: full/bin/atomonly
      stencil: full/bin/3d
      bin: standard
Per MPI rank memory allocation (min/avg/max) = 9.821 | 9.826 | 9.832 Mbytes
Step Temp PotEng c_msd[4] v_twopoint v_fit v_max_n 
   12000    1.2684705   -2.9991823 3.9443045e-34 2.7391003e-36 8.3333333e+20            2 
   13000    1.2388113   -3.0045793     1.042564 0.0066831024  0.089187204            3 
   14000    1.2629537   -3.0004433    2.1748751  0.012945685  0.091578664            3 
   15000    1.2128161   -2.9901476    3.3276098  0.018486721  0.093554306            2 
   16000    1.2806418    -3.029903    4.4667185  0.023264158  0.094211024            1 
   17000     1.247047   -3.0118772    5.7162427  0.028020797  0.095265979            2 
   18000    1.2418723   -3.0227512    6.8553816  0.031737877  0.096375909            2 
   19000    1.2230431   -2.9893738    7.9434904  0.034839869  0.096383956            2 
   20000    1.2302122   -3.0227632    9.0444635  0.037685264  0.095992552            1 
   21000     1.213824   -3.0134344      10.3242  0.040969048  0.096157009            2 
   22000    1.2252691   -2.9749126    11.594673  0.043919214  0.096654149            1 
   23000    1.2423864   -3.0280647    12.618459  0.045719053  0.096823585            1 
   24000    1.2395853   -3.0120399    13.697107  0.047559399  0.096543182            1 
   25000     1.255373   -3.0052366     14.80618  0.049353932  0.096276262            2 
   26000     1.235523    -3.036851    15.970897  0.051188773  0.096102231            2 
   27000    1.2425574   -3.0559678    17.200371  0.053087563    0.0959196            1 
   28000    1.2101446   -3.0362607    18.496765  0.055049894   0.09597945            1 
   29000    1.2323077   -3.0255289    19.729909  0.056695139   0.09621341            1 
   30000     1.231377   -3.0158051    20.742429  0.057617858  0.096410379            2 
   31000    1.2473797   -3.0167139    21.831168  0.058685935  0.096492705            1 
   32000    1.2505325    -2.990395    22.922979  0.059695256  0.096382514            2 
   33000    1.2390791   -3.0202843    23.917119  0.060396764  0.096194285            3 
   34000    1.2807897   -3.0267475    25.051907  0.061401731  0.095960996            3 
   35000     1.260633   -3.0332902    26.595271  0.063322073   0.09592489            3 
   36000    1.2408428   -3.0093141    27.677722    0.0640688  0.096080579            3 
   37000    1.2504328   -3.0052329    29.104828  0.065551413  0.096235438            1 
   38000    1.2850875   -3.0059657    30.494666  0.066874267  0.096541489            1 
   39000    1.2578826   -3.0281233    31.759181  0.067861496  0.096880515            1 
   40000    1.2348052   -2.9986038    32.933227  0.068610888  0.097149539            1 
   41000      1.23898    -2.985332    34.250197  0.069614221   0.09748118            1 
   42000    1.2153785   -3.0198812    35.716907  0.070866878   0.09786891            2 
   43000    1.2473299   -2.9912417    37.220831  0.072133393  0.098315788            1 
   44000    1.2431657   -2.9963506    38.356927  0.072645695  0.098725237            2 
   45000    1.2174915   -3.0340762    39.841816  0.073781139  0.099093344            1 
   46000     1.246179   -3.0555002    40.807982  0.073927503  0.099402998            1 
   47000    1.2476817   -2.9902434    42.086625  0.074621675  0.099693539            2 
   48000    1.2057358   -3.0346484    43.294498  0.075164059  0.099894422            2 
   49000    1.2604926    -3.028628    44.269294  0.075287914   0.10006709            2 
   50000    1.2439345   -3.0235151    45.550424  0.075917372   0.10018404            2 
   51000    1.2576516   -3.0136179    46.816137  0.076496955   0.10030322            1 
   52000    1.2612453   -3.0306566    47.739165  0.076505071   0.10037862            1 
   53000    1.2598566   -2.9987764    48.992938  0.077032921   0.10043818            1 
   54000     1.229061   -3.0006582    50.242083  0.077534078   0.10046626            2 
   55000    1.2320912   -3.0028888    51.374485  0.077840127   0.10047863            1 
   56000    1.2188274   -3.0225855     52.17516  0.077641606   0.10044814            1 
   57000    1.2362815   -3.0271964    53.211709  0.077794895     0.100352            1 
   58000    1.2582753   -2.9887133     54.25245  0.077948922   0.10024397            1 
   59000    1.2266306   -3.0234207     55.39484  0.078241298   0.10013216            2 
   60000    1.2263416   -3.0168819    56.476341  0.078439362   0.10002618            3 
   61000    1.2511456   -2.9855456    57.657978  0.078767729  0.099894605            2 
   62000    1.2769831   -3.0089009    58.766823  0.078987664  0.099762541            2 
   63000    1.2219738   -2.9947239    59.881912  0.079208877  0.099658953            1 
   64000    1.2295021   -3.0207796    60.871499  0.079259764  0.099577557            2 
   65000    1.2441772   -3.0407294    61.911815  0.079374122  0.099481074            2 
   66000    1.2450664   -3.0668845    62.920773  0.079445419  0.099353995            3 
   67000     1.257066   -3.0393052    64.148279  0.079786416  0.099200387            3 
   68000     1.238464   -3.0187893    65.288924  0.080010936  0.099048987            4 
   69000    1.2340044   -3.0304951     66.65404  0.080500047  0.098901532            3 
   70000     1.229406   -2.9934808    67.511707  0.080371079  0.098753842            3 
   71000    1.2404271   -3.0111541    68.365995  0.080241777  0.098611072            1 
   72000    1.2333585   -3.0475429    69.248919  0.080149211   0.09843382            1 
   73000    1.2437004   -3.0267443    70.341664  0.080298703  0.098255457            1 
   74000    1.2368242   -3.0206562    70.846323  0.079781895  0.098043003            1 
   75000    1.2503461   -3.0150426    72.018114  0.080020127  0.097838212            1 
   76000    1.2672861   -3.0221685    73.055259   0.08010445  0.097634679            2 
   77000    1.2440447   -3.0016614     74.47479  0.080600422  0.097438698            2 
   78000    1.2130324   -3.0458948    75.642589  0.080814731   0.09727424            1 
   79000    1.2270179   -3.0088439    76.596083  0.080797556  0.097104907            2 
   80000    1.2131164   -3.0313435    77.977813  0.081226889  0.096944378            2 
   81000    1.2371959   -3.0175931    79.065704  0.081343317  0.096817174            2 
   82000    1.2510795   -3.0266107    79.790308  0.081087711  0.096697382            1 
   83000    1.2377003   -3.0684701    81.046939  0.081372428  0.096561969            3 
   84000    1.2018152   -3.0184732    82.171787  0.081519629  0.096437456            1 
   85000    1.2330537   -3.0371629    83.302362  0.081668982  0.096315421            1 
   86000    1.2309696   -3.0192798    84.926029  0.082292663  0.096221391            3 
   87000    1.2426195   -3.0054111    86.014208  0.082389088  0.096149797            3 
   88000    1.2157206   -2.9873714    86.994324  0.082380988  0.096054411            2 
   89000     1.239601   -3.0336037    87.805072  0.082214487  0.095959482            2 
   90000    1.2279282   -2.9766905    89.383551  0.082762547  0.095875091            1 
   91000    1.2273492   -3.0060668    90.446572  0.082826531  0.095821002            1 
   92000    1.2252639   -2.9829858    91.972413  0.083308345  0.095748056            2 
   93000    1.2408429   -3.0420228    92.389149  0.082785976  0.095658635            1 
   94000    1.2281933    -3.040731    93.353104  0.082759843  0.095573157            3 
   95000    1.2135076   -3.0219496    94.640296  0.083017803  0.095479776            1 
   96000    1.2349919   -3.0000948     95.44681  0.082853133  0.095386629            1 
   97000    1.2615799   -3.0616632    97.184843  0.083492133  0.095314109            2 
   98000    1.2189772   -3.0063312    97.859672  0.083214006  0.095243475            2 
   99000    1.2661566   -3.0275366    99.271738  0.083562068  0.095180055            1 
  100000    1.2312554   -3.0281453    99.668885  0.083057404  0.095107411            3 
  101000    1.2359342   -3.0465914    101.18016  0.083481979  0.095031595            2 
  102000    1.2196301   -3.0280049    101.71842  0.083103288  0.094939604            4 
  103000    1.2496536   -3.0259027    102.65885  0.083057325  0.094849597            2 
  104000    1.2559339   -3.0390497    103.78311  0.083159543  0.094757545            1 
  105000     1.245066   -2.9839498    105.23502  0.083519859  0.094676349            3 
  106000    1.2147909   -3.0254692    106.31999  0.083584898  0.094577578            1 
  107000    1.2362245    -3.027285    107.58911  0.083792142  0.094483317            2 
  108000    1.2363736   -3.0239847     108.7278  0.083894909  0.094408616            1 
  109000    1.2550482   -3.0276428    109.05615  0.083376258  0.094320575            2 
  110000    1.2119129   -3.0096244    110.78243  0.083926086  0.094235258            1 
  111000    1.1899571   -3.0379862    111.24376  0.083516338  0.094150331            1 
  112000    1.2068769   -3.0312572    112.19445  0.083478015  0.094053928            1 
  113000    1.2050191   -3.0315952     113.7472  0.083884369  0.093966765            1 
  114000     1.251496   -3.0156052    114.58042  0.083757613  0.093884467            1 
  115000    1.2302168   -3.0259909    115.37556  0.083605479  0.093807242            2 
  116000    1.2351074   -3.0036579    116.46706  0.083668865  0.093746486            2 
  117000    1.2448351   -3.0062651    118.07922  0.084102011  0.093670398            1 
  118000    1.2330244   -3.0426061    118.61575  0.083768184  0.093603752            2 
  119000     1.249838   -3.0619502    119.59984   0.08375339  0.093541683            4 
  120000     1.236552   -3.0427104    120.76949    0.0838677  0.093471668            2 
  121000    1.2444731   -3.0384019    122.46872  0.084344851   0.09340069            2 
  122000     1.245195   -3.0087838    122.90064  0.083948526  0.093346161            2 
  123000    1.2371828   -3.0201185    124.01016  0.084017727  0.093274718            1 
  124000    1.2345184   -3.0263945    124.73997  0.083830622  0.093205415            1 
  125000    1.2085269   -3.0274248    126.52062  0.084347082  0.093135263            1 
  126000    1.2309551   -3.0190347     127.4541   0.08429504  0.093076706            1 
  127000    1.2643575   -3.0388371    128.53201   0.08433859  0.093023064            2 
  128000    1.2508682   -3.0415144    129.82504  0.084521508  0.092975186            3 
  129000    1.2382582   -3.0540461    130.27783  0.084158804  0.092933191            1 
  130000    1.2135926   -3.0329179     131.9573  0.084588013  0.092897805            1 
  131000    1.2105533    -3.022988    133.18587  0.084723837  0.092862731            1 
  132000    1.2384496   -3.0640385    134.64649  0.085004094  0.092838747            3 
  133000     1.229303   -3.0453729    135.06912  0.084629775  0.092805244            3 
  134000    1.2501128   -3.0160675    137.55509  0.085544208  0.092778594            1 
  135000    1.2351009   -3.0406779    138.45284  0.085464718  0.092769301            2 
  136000    1.2437162   -3.0126051    139.62596   0.08555512   0.09276762            3 
  137000    1.2278393   -3.0331759    140.66469  0.085562462  0.092770389            3 
  138000    1.2285198   -3.0399839    142.92215  0.086305645  0.092775659            1 
  139000    1.2312187   -3.0549426    143.14683  0.085819445  0.092796275            2 
  140000    1.2022802   -3.0184603    144.87498  0.086235105  0.092809836            1 
  141000    1.2212736   -2.9994772     145.6686  0.086092556   0.09281046            1 
  142000    1.2278031   -3.0375661    145.56587  0.085425983  0.092811235            2 
  143000    1.2418054   -3.0284422    147.45449   0.08592919  0.092794655            1 
  144000    1.2304053   -3.0314611    148.89585  0.086166577  0.092795065            1 
  145000    1.2269565   -3.0292329    150.11048   0.08627039  0.092792487            1 
  146000    1.2374999   -3.0437147    150.51758  0.085911858  0.092789047            2 
  147000    1.2411836   -3.0462548    151.67812  0.085985331  0.092787209            2 
  148000    1.2300743   -3.0562601    152.50712  0.085871125  0.092781222            2 
  149000    1.2245386   -3.0528172    153.50259  0.085851562  0.092769604            2 
  150000    1.2284429   -3.0148514    155.05152  0.086139735   0.09275539            1 
  151000    1.2286556   -3.0294208      155.449  0.085788634  0.092737724            1 
  152000    1.2473958   -3.0760563    156.69071  0.085904996  0.092714486            1 
  153000    1.2203045   -3.0397282    158.69401  0.086434643  0.092694978            3 
  154000    1.2505165   -3.0300518    158.73897  0.085897709  0.092679839            1 
  155000    1.2406737   -3.0280874    160.28377  0.086174067   0.09265933            1 
  156000      1.19759   -3.0652541    160.52544  0.085750767  0.092634393            1 
  157000    1.2533218   -3.0443727    161.42351  0.085681271  0.092607033            1 
  158000    1.2376708   -3.0245496    163.78181  0.086382812  0.092581782            2 
  159000    1.2294238   -3.0557976    164.88095  0.086415592  0.092567387            1 
  160000    1.2305409   -3.0263898    166.09186  0.086506178  0.092559335            1 
  161000    1.2231766   -3.0293585    167.77174  0.086838372   0.09255745            2 
  162000    1.2088569   -3.0409587    168.29609  0.086572062  0.092557366            1 
  163000    1.2250688   -3.0367754    170.48962  0.087162385  0.092558188            2 
  164000    1.2574647    -3.055299    170.93429  0.086856857  0.092568782            3 
  165000    1.2092564   -3.0337385    172.59299  0.087168179  0.092583639            2 
  166000    1.2115186   -3.0394869    173.70046  0.087199024  0.092599126            2 
  167000    1.2149605   -3.0359591    174.44477  0.087048289  0.092620941            1 
  168000    1.2025226   -3.0019564    176.23061  0.087415976   0.09263625            3 
  169000    1.2112664   -3.0430744    176.52334  0.087043065  0.092651138            1 
  170000    1.2309325   -3.0554924    178.75664  0.087625805  0.092674279            1 
  171000    1.2173255   -3.0164375    180.66543  0.088043581   0.09269475            2 
  172000    1.2504325    -3.043753    180.52187  0.087462148  0.092716626            1 
  173000     1.227637   -3.0193593    182.12817  0.087730331  0.092741006            2 
  174000    1.2214041   -2.9985454    184.21681   0.08822644  0.092768863            1 
  175000    1.2235075   -3.0473094    184.70567  0.087955083  0.092804172            2 
  176000    1.2244618   -3.0364738    186.14047  0.088134692  0.092839806            1 
  177000    1.2302896   -3.0709497     187.5221  0.088287241  0.092872511            2 
  178000    1.1993063   -3.0553865    189.80678  0.088860854  0.092908477            1 
  179000    1.2234405   -3.0236028    189.67625  0.088303654  0.092942688            1 
  180000    1.2136489   -3.0408156    189.93486  0.087932806   0.09297199            2 
  181000    1.2205913   -3.0317212    192.53156  0.088642523  0.093010794            1 
  182000    1.2281815    -3.035008    192.02964  0.087925661  0.093041231            2 
  183000    1.2365517   -3.0295355    193.96195  0.088325113  0.093069612            2 
  184000    1.2232303   -3.0590418    195.23124  0.088419943   0.09309793            2 
  185000    1.2563204   -3.0669543    196.17686  0.088367954  0.093127516            2 
  186000    1.2162227   -3.0711637    197.59782   0.08852949  0.093158553            2 
  187000    1.2175856   -3.0480265    197.94489  0.088210734  0.093185627            2 
  188000    1.1991623     -3.02542    200.19552   0.08873915   0.09321543            1 
  189000    1.2216468   -3.0307479      201.123  0.088678572  0.093243763            1 
  190000    1.2207135   -3.0472516    202.64222  0.088878166  0.093269939            2 
  191000    1.1982933   -3.0229357    201.88184  0.088081083   0.09329531            1 
  192000    1.2198738   -3.0672278    205.11833  0.089027054  0.093314448            1 
  193000    1.2068079   -3.0504414    205.51289  0.088736135  0.093333666            1 
  194000    1.2355824   -3.0516511    206.03713  0.088503921  0.093354108            3 
  195000    1.2079825   -3.0358142    208.02161  0.088898123  0.093371046            1 
  196000    1.2210452    -3.027526    209.63888  0.089132178  0.093397832            1 
  197000    1.2147556   -2.9953838    210.43031  0.089014513  0.093427994            2 
  198000    1.2499219   -3.0442085     211.9432  0.089201684  0.093459284            1 
  199000    1.2284187   -3.0505645    213.64956  0.089467989  0.093490131            1 
  200000    1.2081939   -3.0451023    214.24209  0.089267535  0.093520302            1 
  201000    1.2277006   -3.0354369     215.2615   0.08924606  0.093548354            1 
  202000    1.2194336   -3.0300904    216.39129  0.089270336  0.093577602            2 
  203000    1.2363513   -3.0113069    217.76432  0.089394219  0.093603795            4 
  204000    1.2243136   -3.0334812    217.84633  0.088989512  0.093628239            1 
  205000    1.2006791   -3.0678964    220.39899  0.089593086  0.093653416            2 
  206000    1.2181099   -3.0517782    221.51233  0.089608547  0.093680524            2 
  207000    1.2184869   -3.0378619    222.29274  0.089489829    0.0937142            1 
  208000    1.1821726   -3.0454092    223.61405  0.089588961  0.093745599            1 
  209000    1.2373117   -3.0541936    224.42512  0.089483698  0.093777027            2 
  210000    1.2188336   -3.0570785     226.0563  0.089704882  0.093808397            2 
  211000    1.2202095   -3.0786388    226.22406  0.089345993  0.093841016            2 
  212000    1.2225906   -3.0726642    227.59768  0.089464496   0.09386887            2 
  213000    1.2043887   -3.0484188    229.50394  0.089790274   0.09390121            3 
  214000     1.213477    -3.026141    232.12267  0.090390448  0.093928757            2 
  215000    1.2325225    -3.055012    233.53884   0.09051893   0.09396891            3 
  216000    1.2428291   -3.0665353    234.65799   0.09053163  0.094009969            1 
  217000    1.2288145   -3.0383513    237.79548   0.09131931  0.094057149            2 
  218000    1.2052858   -3.0636517    237.67456  0.090854188  0.094105428            1 
  219000     1.229168   -3.0450074    239.90245   0.09128708  0.094163579            1 
  220000    1.2290365   -3.0879698     239.6621  0.090781099  0.094215537            2 
  221000    1.2162359   -3.0582627    242.69147  0.091512619   0.09426785            2 
  222000    1.2011215   -3.0271499    244.61896  0.091823935   0.09432717            1 
  223000    1.2112139   -3.0390031    244.86484   0.09150405  0.094385159            2 
  224000    1.2245781   -3.0373203    245.00011  0.091145875   0.09443532            2 
  225000    1.2131771   -3.0460797     247.4923  0.091663814  0.094486776            1 
  226000     1.203652   -3.0581091    247.35337  0.091206993  0.094537349            1 
  227000    1.2066015   -3.0721963    248.88976  0.091369221  0.094594666            2 
  228000    1.2321086   -3.0515196    251.16472  0.091799972  0.094654973            2 
  229000    1.2439311   -3.0606666    250.94929  0.091320703  0.094708193            5 
  230000    1.2149606   -3.0616242    252.17914  0.091369253  0.094757662            1 
  231000    1.2044129   -3.0627597    252.92947  0.091244396    0.0948037            2 
  232000    1.2016003   -3.0749601    253.87063  0.091189164  0.094850409            1 
  233000    1.2132422   -3.0657964    256.10936  0.091598485  0.094894361            1 
  234000    1.2415405   -3.0015776    257.35512  0.091650682  0.094937733            3 
  235000    1.2238919    -3.057649     259.3029  0.091951384  0.094973627            2 
  236000    1.2109638   -3.0360296    258.63603  0.091326282  0.095008807            1 
  237000    1.1901149   -3.0719066    258.73617  0.090976148  0.095041278            3 
  238000    1.1741528   -3.0451128    260.24185  0.091121096  0.095069242            1 
  239000    1.1871496   -3.0551857    261.25663  0.091093664  0.095094443            3 
  240000    1.2126195   -3.0509588     262.7471  0.091231632  0.095117984            2 
  241000    1.1871695    -3.041053    264.64422  0.091509065   0.09513982            2 
  242000    1.1966174   -3.0460703    264.02174  0.090916576  0.095160799            2 
  243000    1.2135171   -3.0473482    264.85217  0.090827217  0.095174575            1 
  244000    1.2199443   -3.0494906    265.97436  0.090838237  0.095188508            1 
  245000    1.2103902   -3.0402755    268.14844  0.091206953  0.095203511            2 
  246000     1.195575   -3.0674517    269.07771  0.091150986   0.09522227            2 
  247000    1.1929972   -3.0503385    269.21443   0.09082808  0.095235134            1 
  248000    1.2111674   -3.0481973    271.60286  0.091264403  0.095247398            1 
  249000    1.2186631   -3.0427827    270.26633   0.09045058  0.095257498            2 
  250000    1.2395964   -3.0719631    273.41403   0.09113801  0.095261968            1 
  251000    1.2414471   -3.0675441    273.29844  0.090736532  0.095270657            1 
  252000    1.1927624   -3.0531629    274.74353  0.090854343  0.095276174            1 
  253000     1.220001   -3.0417501    275.31417  0.090683191  0.095281375            6 
  254000    1.1957081   -3.0420787    278.41852  0.091344659  0.095284758            2 
  255000    1.2042595   -3.0551642     278.4792  0.091006276  0.095290615            1 
  256000    1.1886808   -3.0776859    277.76987  0.090419881  0.095293535            2 
  257000    1.2254428   -3.0461702    278.92808  0.090443604   0.09529392            1 
  258000    1.2051518   -3.0830908    281.19114   0.09082401  0.095299926            3 
  259000    1.2266605   -3.0886142    282.32344  0.090837656  0.095304567            2 
  260000    1.2040563   -3.0466889    282.51265  0.090548926  0.095307165            4 
  261000    1.1997693   -3.0482758    285.35124  0.091108315  0.095306205            1 
  262000     1.229529   -3.0540193    286.26295  0.091050556  0.095307045            1 
  263000    1.2114475   -3.0655024    286.83639  0.090886054  0.095307919            2 
  264000    1.2072996   -3.0433958    288.01821   0.09091484  0.095310468            1 
  265000    1.2113058   -3.0328045     288.4975  0.090722484  0.095306003            2 
  266000    1.2181902   -3.0907459    289.87165  0.090811922  0.095311042            1 
  267000    1.2035995   -3.0666237    292.74628  0.091369001    0.0953138            2 
  268000    1.2196293   -3.0334818    294.44823  0.091557285  0.095320604            1 
  269000    1.1973222   -3.0471731    296.39488  0.091819975  0.095328363            1 
  270000    1.2264844   -3.0618347    294.39012  0.090861147  0.095336286            1 
  271000    1.2239596   -3.0667014    295.47175  0.090858471  0.095339484            3 
  272000    1.2059967   -3.0539619    297.92012  0.091274546  0.095344777            1 
  273000    1.1967988   -3.0352306    298.91679  0.091244443  0.095348778            1 
  274000    1.1857281   -3.0448291    301.13362  0.091585651  0.095351555            3 
  275000    1.2182066   -3.0324315    300.46819  0.091050965  0.095351861            2 
  276000    1.1849595   -3.0674396    301.87208   0.09114495  0.095351395            3 
  277000     1.192458   -3.0888019    301.37763  0.090667158  0.095348831            2 
  278000    1.2231545   -3.0726989    303.50596  0.090979003  0.095342047            2 
  279000    1.2321401   -3.0643081    303.81407  0.090744943  0.095333876            1 
  280000    1.1820647   -3.0768653    303.67901  0.090380658  0.095325719            1 
  281000    1.2119779   -3.0793513    305.41319  0.090573306   0.09531836            1 
  282000    1.1892212   -3.0501672    307.58388  0.090893582  0.095316492            1 
  283000    1.1952809   -3.0579354    307.73949  0.090618224  0.095307438            1 
  284000    1.2066633   -3.0960076    309.74208  0.090886762  0.095299559            2 
  285000    1.1772198   -3.0767078    310.94456  0.090919463  0.095292604            3 
  286000    1.2170409   -3.0698909    311.66074  0.090810239  0.095281584            1 
  287000    1.2235624   -3.0225059     313.9711  0.091164664  0.095271045            2 
  288000    1.1785978   -3.0459921     313.3169  0.090658824  0.095258554            1 
  289000    1.1942305   -3.0648882     314.9036  0.090802652  0.095248347            1 
  290000    1.2219169   -3.0731706    316.57757  0.090970565  0.095237581            4 
  291000    1.2235165   -3.0791011    315.57491  0.090370822  0.095226875            3 
  292000    1.1904094   -3.0838318    318.53259   0.09090542  0.095219656            2 
  293000    1.1878078   -3.0479915    319.87342  0.090976514  0.095214804            3 
  294000    1.2159342   -3.0554369    320.17306  0.090752002  0.095205285            2 
  295000    1.1888026   -3.0582631    322.49099  0.091099151  0.095200104            1 
  296000    1.1862735   -3.0555495    322.77042   0.09087005  0.095190877            2 
  297000    1.1927005   -3.0674271    322.92184  0.090606578  0.095178179            1 
  298000    1.2126497   -3.0727997    324.30793  0.090690137  0.095166555            1 
  299000     1.237194   -3.0773268    325.21623  0.090639975  0.095156648            1 
  300000    1.1732415   -3.0473124    326.48435  0.090690098  0.095144318            4 
  301000    1.2001773   -3.0685725    327.45945  0.090658763  0.095127675            4 
  302000    1.2079491    -3.071029    329.84397  0.091016547  0.095116257            1 
  303000    1.2011439   -3.0625689     330.4648  0.090886909  0.095105761            2 
  304000    1.1971619   -3.0660354    329.65085  0.090364817  0.095094203            1 
  305000    1.1979725   -3.0796723    330.62473  0.090334627  0.095079497            1 
  306000    1.2158062   -3.0492183    332.39071  0.090520344  0.095063577            1 
  307000    1.2255402   -3.0669516    334.33678  0.090753741  0.095050854            2 
  308000    1.2058979   -3.0694973    336.25558  0.090978241  0.095039654            1 
  309000    1.2190791   -3.0824402    337.52697   0.09102669  0.095028711            2 
  310000    1.2040871   -3.0444654    339.18334  0.091178317  0.095021262            3 
  311000     1.229145   -3.0612754    339.85075  0.091063974  0.095010601            1 
  312000    1.1752621   -3.0581381    339.40333  0.090652599   0.09499693            2 
  313000    1.1891993   -3.0354031    341.50764  0.090923226  0.094984473            1 
  314000     1.214501   -3.0707493    341.12421  0.090531902  0.094969752            2 
  315000    1.1870147   -3.0605274     343.7847  0.090948332  0.094955976            1 
  316000     1.205486   -3.0577109    344.74246  0.090913097  0.094939296            4 
  317000    1.2134498    -3.038514    344.41956  0.090541418  0.094923704            1 
  318000    1.2002837   -3.0578341    345.61424   0.09056977   0.09490975            2 
  319000     1.205369   -3.0833149    346.40361   0.09049206  0.094895814            1 
  320000    1.2206946   -3.0478241    349.10793  0.090913523  0.094881663            2 
  321000    1.1891687    -3.111645    348.20832  0.090396761   0.09487094            1 
  322000    1.1904054   -3.0747347    349.88941  0.090551089  0.094856199            3 
  323000    1.2156502   -3.0935912    350.20241  0.090351498  0.094839374            1 
  324000    1.1949684   -3.0854142    351.21304  0.090332571  0.094820403            2 
  325000    1.1801699   -3.0777563    351.25453  0.090065264  0.094797688            3 
  326000    1.1770043   -3.0751271    353.17202  0.090279146  0.094776832            1 
  327000    1.1916159   -3.1165254    354.12067  0.090244818  0.094754272            2 
  328000     1.221522   -3.0937477    355.91129  0.090424617  0.094733489            2 
  329000    1.1790873   -3.0728895    357.40876  0.090529068  0.094712312            1 
  330000    1.2046293   -3.0780928    356.17503  0.089943188  0.094694368            5 
  331000     1.208841    -3.099196    358.85683  0.090346634  0.094676747            3 
  332000      1.20661   -3.0457465     360.8508  0.090575001  0.094658764            1 
  333000    1.2075703   -3.0508436    361.99668  0.090589761  0.094643044            1 
  334000    1.1915789   -3.0551879    362.41669  0.090423325  0.094629316            2 
  335000    1.1745836   -3.0635579    363.76502   0.09048881  0.094613996            1 
  336000    1.2009772   -3.0747116    364.99344  0.090524168  0.094597351            2 
  337000    1.2017824   -3.0950042    366.14707  0.090540818  0.094579288            1 
  338000    1.1823694   -3.0710348    365.52843  0.090120421  0.094560855            7 
  339000    1.2003761   -3.0560756    368.07326  0.090480152   0.09454032            2 
  340000    1.1844308   -3.0692378     366.6882  0.089874558  0.094518151            1 
  341000    1.2043663   -3.0760072    369.48296  0.090293979  0.094498947            2 
  342000    1.1944672   -3.0808063    370.65829  0.090316348  0.094481447            1 
  343000    1.1917804   -3.1086569    370.75872  0.090077434  0.094461846            2 
  344000    1.2260737    -3.083351     373.1492   0.09039467   0.09444273            1 
  345000     1.204972   -3.0472925    374.52853  0.090465828  0.094424967            1 
  346000    1.2146026   -3.0686615     374.4007   0.09017358  0.094407222            1 
  347000    1.1987851   -3.0752444     377.8144  0.090733526  0.094389782            3 
  348000    1.1985911   -3.0837768    376.02175  0.090043521  0.094370945            2 
  349000     1.186935   -3.0622265     379.2289  0.090551313  0.094350063            3 
  350000    1.2032616   -3.0981508    377.04469  0.089772545   0.09432695            2 
  351000    1.1900114   -3.0854392    378.01311  0.089746703  0.094306692            2 
  352000    1.1648302   -3.0799508    380.76343  0.090142857  0.094288054            2 
  353000     1.231993    -3.098446    379.26121  0.089532864  0.094266934            2 
  354000    1.1907399    -3.031256    383.78353  0.090344523   0.09424218            2 
  355000    1.1816829   -3.0965722    383.81139  0.090096571   0.09422026            1 
  356000    1.1805451   -3.0797914    384.83657  0.090083467  0.094194968            1 
  357000    1.2002537   -3.0619692    385.30193   0.08993976   0.09416961            1 
  358000    1.1655637   -3.0395359    386.69662  0.090013181  0.094147413            2 
  359000    1.1978268   -3.0710487    388.17131  0.090104761    0.0941221            2 
  360000    1.2075642    -3.069028    389.46877  0.090154808  0.094096191            1 
  361000    1.2048434   -3.1160758    389.56022  0.089926181  0.094071533            4 
  362000    1.2331145   -3.0639777    390.07996  0.089797412  0.094048527            2 
  363000     1.207509   -3.0454625    392.02341  0.089996191  0.094023489            3 
  364000    1.1838823   -3.1251683    393.04279  0.089982323  0.093998967            2 
  365000    1.1953671   -3.0778083    393.53662  0.089848544  0.093977195            2 
  366000    1.1811119   -3.0669807     396.2283  0.090215916  0.093957039            2 
  367000    1.2040648   -3.0897649    397.60843  0.090283475  0.093938225            2 
  368000    1.1926296   -3.0517958    398.28112   0.09019047  0.093920021            3 
  369000    1.1850923   -3.1158073    397.20597  0.089703246  0.093900712            1 
  370000    1.1722042   -3.1006565    399.32816  0.089938774  0.093878649            1 
  371000    1.1863822   -3.0592692    399.67681  0.089774666  0.093858324            1 
  372000     1.210112   -3.0698614     400.5466  0.089728181  0.093836213            1 
  373000    1.1912609   -3.1060354    401.79101   0.08976564  0.093813302            2 
  374000    1.1922562   -3.1018916    402.48485  0.089680225  0.093791444            2 
  375000    1.1805942   -3.0910969     406.0163  0.090225845  0.093773853            3 
  376000    1.1733778   -3.0583321    405.56454  0.089885757  0.093752857            1 
  377000    1.1869338   -3.0904936    406.28861  0.089807386  0.093729049            2 
  378000    1.1733396   -3.0572374    407.97704  0.089942027  0.093707121            3 
  379000    1.1755143    -3.103602    408.76991  0.089879049  0.093687065            2 
  380000    1.1947668   -3.0804608    410.03689  0.089920371  0.093670594            2 
  381000    1.1933952   -3.0834882    412.84025  0.090297518  0.093651985            2 
  382000    1.1958169   -3.0613878    413.28476  0.090158106  0.093635917            1 
  383000    1.1985645    -3.089016    415.40358   0.09038372  0.093621706            1 
  384000    1.1935663   -3.0793428      415.815  0.090237629  0.093609019            1 
  385000     1.205324   -3.0560605    417.31404  0.090327715  0.093595284            3 
  386000    1.1840965   -3.1112384    418.02482  0.090247154  0.093580754            1 
  387000    1.1770782   -3.0950784     418.4607  0.090107816  0.093565746            4 
  388000    1.2053255   -3.0639722     420.5033  0.090314282  0.093550859            1 
  389000    1.1607874   -3.0632058    422.14069   0.09043288  0.093535549            3 
  390000    1.1722993   -3.0755217    421.15518  0.089990423  0.093520433            2 
  391000    1.1863931   -3.0737853     421.8993  0.089918863  0.093503217            1 
  392000    1.1647803   -3.0828782    424.75781  0.090297154  0.093487975            1 
  393000    1.1991233   -3.0674759    425.17386   0.09015561  0.093473134            3 
  394000    1.1720867   -3.0516751    426.86849  0.090285213  0.093460877            1 
  395000    1.1948585   -3.1067066    425.97646  0.089868452  0.093447203            2 
  396000    1.2004752   -3.0805749    427.64699  0.089993052  0.093429302            1 
  397000    1.1651039   -3.0668301    429.31943  0.090117428  0.093415212            3 
  398000    1.1841682   -3.0784032    430.79995  0.090200994  0.093398913            1 
  399000    1.1745945   -3.1060854    429.26268  0.089653859  0.093383745            1 
  400000    1.1877742   -3.0978072    431.60037  0.089916744  0.093370906            2 
  401000    1.1739519   -3.0713754    435.00436  0.090399909  0.093359175            2 
  402000    1.1722387   -3.0769322    434.65025  0.090101627  0.093348507            2 
  403000    1.1997361   -3.0839141    437.60671  0.090489393  0.093337255            2 
  404000    1.2148593   -3.1004959    438.21941  0.090391792  0.093327431            2 
  405000     1.210879   -3.0622612    439.79758  0.090493329  0.093316894            2 
  406000    1.1822293   -3.1008667     440.7112  0.090457965  0.093307463            3 
  407000    1.1810907    -3.071978    440.82152  0.090258296  0.093293872            1 
  408000    1.1827469   -3.0862769    443.85579  0.090656819  0.093283557            1 
  409000    1.1971535   -3.0810704    442.49652  0.090158215  0.093271705            1 
  410000    1.1935121   -3.0937758    443.97639  0.090239103   0.09325823            1 
  411000    1.1843457    -3.088735    446.13748  0.090457721  0.093244304            1 
  412000    1.1775667   -3.0723658    446.12406   0.09023545  0.093230819            4 
  413000     1.183505   -3.0762257    445.62938  0.089917147  0.093215726            2 
  414000    1.2000998   -3.1026676     446.1937  0.089813547  0.093200949            1 
  415000    1.1961643   -3.0896469    450.29203  0.090420085  0.093185767            1 
  416000    1.2186708   -3.0965352    449.27475  0.089998949  0.093173396            4 
  417000    1.1785742   -3.0645868    452.88986  0.090505568  0.093160037            1 
  418000     1.181119   -3.0407999     452.7597  0.090263097  0.093146042            2 
  419000    1.1703238   -3.0788287    451.94328  0.089885298  0.093129013            1 
  420000    1.1568071   -3.0944834    455.06101  0.090289883  0.093112091            1 
  421000    1.1949473     -3.10842    452.96366  0.089660266  0.093094809            1 
  422000    1.1871268   -3.0723743    457.60861  0.090365049  0.093078709            4 
  423000    1.2113705   -3.0861805     456.7181  0.089975985  0.093061984            1 
  424000    1.2042794   -3.0857508    455.84225  0.089591637  0.093043474            1 
  425000    1.1881197   -3.0658762    457.72211  0.089749433  0.093026114            1 
  426000    1.1818317   -3.0939881    458.69782  0.089729621  0.093009117            1 
  427000    1.1803521   -3.1006764    462.23401  0.090209603  0.092992215            3 
  428000    1.1785845   -3.0981934    460.47412  0.089656175   0.09297183            2 
  429000    1.1744012   -3.1260107    462.47224  0.089835322  0.092953901            2 
  430000    1.1786327   -3.0715753    461.38855  0.089416386  0.092934378            1 
  431000    1.2015939   -3.0744937    462.39664  0.089403836  0.092914125            2 
  432000     1.169219   -3.0784731    463.89135  0.089485214  0.092895085            2 
  433000    1.1855891     -3.11654    464.04401  0.089307932   0.09287525            1 
  434000     1.173626   -3.0753268    466.48026  0.089569941  0.092856882            4 
  435000    1.1776744   -3.1082024    468.87749  0.089823274  0.092839487            2 
  436000    1.1869512   -3.1194387    467.76387   0.08940441  0.092822178            2 
  437000    1.1647565   -3.0849885    472.33882  0.090072239  0.092806816            2 
  438000    1.1736971    -3.065536    470.37277  0.089492535      0.09279            1 
  439000    1.1870083   -3.0844682    472.11301  0.089619022   0.09277238            1 
  440000    1.1596357    -3.106068    475.61441  0.090078487  0.092754504            1 
  441000    1.1978804   -3.0978306    475.49587  0.089851827  0.092739104            1 
  442000     1.190473   -3.1001365    474.48153  0.089457303  0.092722583            1 
  443000    1.1996105   -3.1039849    474.63522  0.089284278   0.09270716            2 
  444000     1.168342    -3.108821    478.66023  0.089838632  0.092690039            2 
  445000    1.1495263   -3.1317137    477.97015  0.089507519   0.09267238            2 
  446000     1.185937   -3.0741473    480.76614  0.089829249  0.092654677            1 
  447000    1.1720136   -3.0785989    480.16636  0.089516473  0.092637545            1 
  448000    1.1647634   -3.0938817    481.04572  0.089480231  0.092620229            2 
  449000    1.1987509   -3.0986069    480.81969  0.089238992  0.092601149            1 
  450000    1.1685752   -3.0955076    483.85478  0.089602737  0.092581552            1 
  451000    1.1647431   -3.0959373    486.21592  0.089840339   0.09256597            3 
  452000    1.1802968   -3.0780549    487.35029  0.089850717  0.092548574            1 
  453000    1.1826841   -3.1107444    487.28987  0.089641256  0.092532438            1 
  454000    1.2025029   -3.0988096    486.86747  0.089366276  0.092515476            2 
  455000    1.1849412   -3.0855716    487.18399  0.089227837  0.092497006            2 
  456000    1.1732024   -3.1338869    490.02276  0.089550942  0.092476283            4 
  457000    1.1897138   -3.0908861    489.73382  0.089302302  0.092457829            1 
  458000    1.1767101   -3.0696224    492.09801  0.089537484  0.092437411            1 
  459000    1.1713708   -3.0925727    491.91713  0.089309573  0.092418457            2 
  460000    1.2155884   -3.0907004    490.00649  0.088769291   0.09239633            1 
  461000    1.1455965    -3.077565    491.54388  0.088854642  0.092373943            2 
  462000    1.1847209   -3.1023806    493.23715   0.08896774  0.092353598            3 
  463000    1.1857028   -3.0888692    495.11417  0.089113421  0.092332213            1 
  464000    1.1867462   -3.1060825    496.72265  0.089210245  0.092310466            2 
  465000    1.1878313   -3.0960352    495.92032  0.088874608  0.092291269            1 
  466000    1.2012706   -3.0833772    498.65566  0.089173044  0.092272335            1 
  467000    1.1798962   -3.0843691    498.20291  0.088901304  0.092252108            2 
  468000    1.1699751   -3.1001677    501.79406  0.089350795  0.092231178            4 
  469000    1.1865987   -3.0868957    502.12404  0.089218913  0.092209927            1 
  470000    1.1857744   -3.1298191    502.08404  0.089021993  0.092191034            3 
  471000    1.1548463   -3.1194879    504.60027  0.089278179  0.092175933            1 
  472000    1.2065849   -3.0962946    505.75191  0.089292357  0.092159056            1 
  473000    1.1919698   -3.0986885    507.05688  0.089333488  0.092142345            1 
  474000    1.1660083   -3.1141444    506.76731  0.089094112  0.092125782            1 
  475000     1.167393   -3.0962964    509.08215  0.089312658    0.0921097            2 
  476000    1.1733881    -3.106214    509.49524  0.089197346  0.092089957            2 
  477000    1.1939671   -3.1071466    509.77743   0.08905965  0.092072245            4 
  478000    1.1854229   -3.0891309    511.53329  0.089179443    0.0920528            3 
  479000    1.1899525   -3.0710286    514.01696  0.089425359  0.092036005            2 
  480000    1.1639583   -3.1058015    515.72728  0.089535986  0.092020307            1 
  481000    1.1690631   -3.1218457    514.03551   0.08905674  0.092004604            1 
  482000    1.1784802   -3.0922124     517.0751  0.089397492  0.091987821            2 
  483000    1.1719035   -3.0768221    518.24934     0.089415  0.091971838            1 
  484000    1.1921709   -3.1034007    517.56536  0.089112492  0.091956325            1 
  485000    1.1714953   -3.0717723    519.23638  0.089215872  0.091940598            1 
  486000    1.1569194   -3.1074064    518.12414  0.088841589   0.09192467            1 
  487000    1.1677608   -3.1102318     520.1786  0.089010711  0.091906224            7 
  488000    1.1834743   -3.0879965    521.79254  0.089103917  0.091887259            2 
  489000    1.1559353   -3.1076593    525.63225  0.089576048   0.09187113            2 
  490000    1.1693675   -3.1063275    525.36689   0.08934811  0.091855004            1 
  491000    1.1889409   -3.0907725    524.65882  0.089045964  0.091840735            2 
  492000    1.1507901   -3.1223068    526.88998  0.089242882  0.091826749            2 
  493000    1.1716496   -3.0805675    529.01499   0.08942106  0.091811495            2 
  494000    1.1759989    -3.069316    530.63631  0.089513548  0.091799813            1 
  495000    1.1540332    -3.109902    530.32775  0.089280766  0.091785357            2 
  496000    1.2089328   -3.1248015    530.07533  0.089058355  0.091770601            3 
  497000    1.1538455   -3.1092651    530.65519   0.08897639  0.091754401            3 
  498000    1.2080706   -3.0928393    535.04468  0.089532243  0.091741957            2 
  499000    1.1805301   -3.0987607    534.92399  0.089332663   0.09172995            2 
  500000     1.167508   -3.0909076    535.31138  0.089218563  0.091718387            2 
  501000    1.1639663   -3.1180076    539.78003  0.089783771  0.091706287            4 
  502000     1.169127   -3.1193773    540.02314  0.089645275  0.091692453            2 
  503000    1.1830872   -3.0619778    540.58383  0.089559945  0.091679334            1 
  504000    1.1582295   -3.0729701    542.33017  0.089670994   0.09166363            2 
  505000    1.1668899   -3.0800165     540.7867  0.089238729  0.091649049            1 
  506000    1.1852054   -3.1526814    540.85721  0.089073981  0.091636316            2 
  507000    1.1366563   -3.0976258    544.20851   0.08944913  0.091622356            2 
  508000    1.1715325   -3.0862134    543.06478   0.08908543  0.091608452            1 
  509000    1.1332241   -3.0966699    544.05454  0.089072453  0.091592261            1 
  510000    1.1513605   -3.1171409    545.32967  0.089106155  0.091577784            2 
  511000    1.1908618   -3.1323331    547.36436  0.089263595  0.091562357            1 
  512000    1.1863888   -3.1050772    548.28163  0.089238547  0.091546771            2 
  513000    1.1731785   -3.1085709    547.29747  0.088904723  0.091531903            2 
  514000    1.1725765   -3.0995597    550.25766  0.089211682  0.091517487            5 
  515000     1.187323   -3.1070978    551.92098  0.089307601  0.091502442            1 
  516000     1.188952   -3.1126035    552.13845  0.089169646  0.091487625            1 
  517000    1.1689497   -3.1512931     551.9504  0.088966859  0.091472984            1 
  518000    1.1682011   -3.0808801    555.58512  0.089379845  0.091458941            2 
  519000    1.1743035   -3.1232454    552.79169  0.088759103  0.091446369            4 
  520000    1.1551217   -3.0820411    555.33648  0.088996231  0.091431936            2 
  521000    1.1891728   -3.0972839    559.27356  0.089455144  0.091416239            2 
  522000    1.1670605   -3.1255061    556.97088  0.088916168  0.091402137            2 
  523000    1.1695207   -3.0908826    558.87711   0.08904989   0.09138914            2 
  524000      1.15982    -3.132114    559.29175  0.088945888  0.091374935            4 
  525000    1.1789985   -3.1340977    560.85678  0.089024885  0.091360722            2 
  526000     1.173977    -3.130741    560.05426  0.088728494  0.091345111            1 
  527000     1.155003   -3.0988123    566.74991  0.089618898  0.091330988            2 
  528000    1.1577177   -3.1170507    561.42456  0.088608674  0.091316125            1 
  529000    1.1566885   -3.0970692    562.29417  0.088578162  0.091300731            2 
  530000    1.1605155   -3.0893898    566.38955  0.089054961  0.091285091            1 
  531000    1.1480639   -3.1030134     567.3049  0.089030901  0.091270619            2 
  532000    1.1830192   -3.1218091    566.61079  0.088754822  0.091256677            2 
  533000    1.1525467   -3.1076184    568.05956  0.088814816  0.091242378            1 
  534000    1.1377826   -3.1078795    570.18649  0.088980413  0.091226466            3 
  535000    1.1354902    -3.132827    567.73195  0.088431768  0.091209025            1 
  536000    1.1653632   -3.1225945    570.38938  0.088679941  0.091191811            1 
  537000    1.1611165   -3.1195081    573.49458  0.088996676   0.09117503            3 
  538000    1.1616176   -3.1208354    575.50013  0.089141903  0.091160543            4 
  539000    1.1715115   -3.0835671    572.61444  0.088530371  0.091146926            2 
  540000    1.1848027   -3.0934487     575.4898  0.088810154  0.091132859            3 
  541000    1.1692147   -3.0996475    573.89732  0.088400696  0.091116905            3 
  542000    1.1471998    -3.130918    576.25994  0.088600852  0.091102297            2 
  543000     1.151377   -3.0977911    580.33419  0.089062951  0.091087494            1 
  544000    1.1517249   -3.0929004    582.84782  0.089284286  0.091072957            2 
  545000    1.1836321   -3.1212983    578.00576  0.088380085  0.091057856            1 
  546000    1.1627749   -3.1086027    579.89214  0.088506126  0.091043539            3 
  547000    1.1477284   -3.0896553    584.89391  0.089106324  0.091028683            1 
  548000    1.1728438   -3.0905574    583.16563  0.088680905   0.09101457            1 
  549000    1.1852573   -3.0885499    583.55125  0.088577907   0.09099797            3 
  550000    1.1819083   -3.1153763    588.14971  0.089113592  0.090982256       -1e+20 
  551000    1.1541809   -3.1118482    585.08206  0.088487909  0.090966756            2 
  552000    1.1357066   -3.0946422    585.46281  0.088385085  0.090950697            2 
  553000    1.1415129   -3.1148448    589.07999  0.088770342  0.090934347            3 
  554000    1.1515816   -3.1322202    589.19869  0.088627961  0.090917259            2 
  555000    1.1764115   -3.0971067    590.13407   0.08860872  0.090900941            4 
  556000    1.1564537   -3.1103575    587.68078  0.088081652   0.09088482            1 
  557000    1.1732161   -3.1220093    591.46539  0.088489735  0.090869949            2 
  558000    1.1682841   -3.1177963    591.76644   0.08837611  0.090855696            3 
  559000    1.1585011   -3.1162046    595.48716  0.088772683  0.090841233            1 
  560000     1.157689   -3.1110951    593.89429  0.088377127   0.09082743            3 
  561000    1.1493023   -3.1208918    595.23186   0.08841828  0.090812726            2 
  562000     1.179548   -3.0903433    598.47939  0.088742495  0.090797221            1 
  563000    1.1638367    -3.075571    599.02839  0.088666133  0.090782881            1 
  564000    1.1488808   -3.0871464    600.62767  0.088745223  0.090769272            3 
  565000     1.120005   -3.1305307    597.16241  0.088077051  0.090753893            2 
  566000    1.1628472   -3.0954981    604.00678  0.088929148  0.090738702            1 
  567000    1.1577161   -3.1279247    601.60343  0.088419082  0.090724743            3 
  568000    1.1657942   -3.1616986    601.08327  0.088187099  0.090711295            2 
  569000    1.1700904   -3.1303017    604.19363  0.088487644   0.09069822            1 
  570000    1.1456815   -3.1088188    606.39313  0.088653966  0.090683371            1 
  571000    1.1641291   -3.1251716    607.25017  0.088623784  0.090667749            1 
  572000     1.161312   -3.1200011    608.22534  0.088610917  0.090651844            1 
  573000    1.1297884   -3.1164534    607.84035  0.088400283  0.090636844            3 
  574000    1.1450361   -3.1272341    609.57041  0.088497446  0.090621692            2 
  575000    1.1699002   -3.1184622    611.15176  0.088572718  0.090607938            3 
  576000    1.1672229   -3.1303425    611.64629  0.088490493  0.090594729            2 
  577000     1.162317   -3.1072117    613.92244  0.088665864  0.090582978            2 
  578000     1.141047   -3.1167152    613.55994  0.088460199  0.090570543            2 
  579000    1.1583531    -3.116807    617.68438  0.088901033  0.090560416            2 
  580000    1.1324658   -3.1469819    617.84787  0.088771245  0.090550236            2 
  581000    1.1687336   -3.1273976    617.51419  0.088570596  0.090538897            3 
  582000    1.1604263    -3.145461    616.77591  0.088312702    0.0905281            1 
  583000    1.1543058   -3.1202799    622.88427  0.089034344  0.090516671            3 
  584000    1.1551364   -3.1713045     619.1042  0.088342494  0.090503169            3 
  585000    1.1365719   -3.1312684      622.015  0.088606125  0.090489365            3 
  586000    1.1489406   -3.1206498    620.91401  0.088298352  0.090476727            2 
  587000    1.1677914   -3.0790128     626.3752  0.088923225  0.090464405            1 
  588000    1.1690573   -3.1203511    627.32261  0.088906266  0.090453913            1 
  589000    1.1605579   -3.1111348    623.22126  0.088175051  0.090440791            1 
  590000    1.1421892    -3.138603    627.03057   0.08856364  0.090429693            2 
  591000    1.1684962   -3.1345438     632.6678  0.089208657  0.090418311            1 
  592000     1.154863   -3.0990488    630.39471  0.088737994  0.090407376            1 
  593000    1.1472514   -3.0903268    634.43086  0.089155546  0.090395172            3 
  594000     1.160614    -3.088821    632.32618  0.088710182  0.090382201            7 
  595000    1.1642469   -3.1275028    630.69278  0.088332321  0.090370049            2 
  596000    1.1636827   -3.1596144    632.57808  0.088447718  0.090358456            2 
  597000    1.1258078   -3.1249748     634.8861  0.088621734   0.09034592            3 
  598000    1.1607846   -3.1400909    633.86389  0.088331088   0.09033302            3 
  599000     1.161059   -3.1349077    634.14597  0.088222867   0.09032032            3 
  600000    1.1285971    -3.119241    637.11911  0.088488765   0.09030952            2 
  601000    1.1629874   -3.1346131    637.62846  0.088412155  0.090300286            1 
  602000     1.183866   -3.1146859    637.02436  0.088181666  0.090289936            1 
  603000    1.1570756   -3.0891126    642.60554  0.088806735  0.090280767            1 
  604000    1.1521897   -3.1466456    642.43451  0.088636108  0.090271205            5 
  605000    1.1711343   -3.1447045    644.93279  0.088833718  0.090259019            1 
  606000    1.1616289    -3.130698    641.38938   0.08819986  0.090248246            2 
  607000    1.1448533   -3.1585364    640.33649  0.087910007  0.090234943            3 
  608000    1.1530571   -3.0804749    644.86052  0.088385487   0.09022316            2 
  609000     1.135767   -3.1482228    645.45217  0.088321315   0.09021077            2 
  610000    1.1422338   -3.1399948    646.11301  0.088266804   0.09019922            1 
  611000    1.1454105   -3.1472967    647.58016  0.088322444  0.090185745            2 
  612000    1.1892463   -3.0939538    650.82915  0.088620527  0.090174489            3 
  613000    1.1485413   -3.0882709    651.96594  0.088630498  0.090163538            2 
  614000    1.1442119   -3.1353985    652.16115  0.088512643  0.090153746            1 
  615000    1.1419357   -3.1297601    651.35851   0.08825996  0.090141905            1 
  616000    1.1569751   -3.1096468    653.81631  0.088449175  0.090130845            3 
  617000    1.1686313   -3.1116289    653.84148  0.088309222  0.090118239            3 
  618000    1.1386514   -3.0915376    657.23575  0.088624022  0.090108323            1 
  619000    1.1303814   -3.1248186     657.5939  0.088529066  0.090096646            4 
  620000    1.1253887   -3.1546061     656.6669  0.088261679  0.090085425            1 
  621000     1.153726   -3.1474676    659.42091  0.088489119   0.09007444            2 
  622000    1.1531702   -3.1146512    659.81935  0.088400235  0.090064722            3 
  623000    1.1290149   -3.0862164    662.33913  0.088595389  0.090054737            2 
  624000    1.1594152   -3.1094223    664.90026  0.088795441   0.09004595            3 
  625000    1.1748889   -3.1486212    664.95466  0.088660622  0.090036101            2 
  626000    1.1534218   -3.1221585    662.97184  0.088255037  0.090025868            3 
  627000    1.1522187   -3.1531574    663.84625  0.088230496  0.090015168            2 
  628000    1.1778535   -3.1294159     666.3448   0.08842155  0.090005178            4 
  629000    1.1548016   -3.1412991    668.36009  0.088547971  0.089996809            3 
  630000    1.1795613   -3.1179008    671.06413  0.088765097  0.089987716            1 
  631000    1.1583025   -3.0520299    671.22145  0.088645199  0.089979877            2 
  632000    1.1617174    -3.112017    672.22059  0.088636681  0.089971777            1 
  633000    1.1546042   -3.1171191    672.11992  0.088483402  0.089962366            1 
  634000    1.1597556   -3.1347493    672.62147  0.088409762  0.089952297            2 
  635000    1.1534406   -3.1413347    670.05293  0.087933456  0.089942077            2 
  636000    1.1256941   -3.1356285    677.49456  0.088770252  0.089932144            1 
  637000    1.1254503   -3.1373274    671.77466  0.087882608  0.089921387            3 
  638000    1.1633815   -3.1414562    677.93596  0.088549629  0.089910873            1 
  639000    1.1366149    -3.115006    679.07461  0.088559548  0.089901445            1 
  640000    1.1695038   -3.1384885    676.31984   0.08806248  0.089892083            2 
  641000    1.1605414   -3.1484084    680.31033  0.088443881  0.089882605            1 
  642000    1.1713969   -3.1436398    679.97532  0.088262632  0.089872513            2 
  643000    1.1579406   -3.1347623    682.04708  0.088393867  0.089861776            1 
  644000     1.128513   -3.1341868    681.83664  0.088229379  0.089850942            4 
  645000    1.1203701   -3.1685612    681.28561  0.088021396  0.089840163            4 
  646000    1.1318579   -3.1119655    683.56776  0.088179536  0.089828584            3 
  647000    1.1404776   -3.1095865    682.69924   0.08793138  0.089817531            2 
  648000    1.1304119    -3.106724    688.27359   0.08851255  0.089805724            1 
  649000    1.1377441   -3.1553775    687.44427   0.08826968  0.089794649            3 
  650000    1.1343357   -3.1495448    687.28429   0.08811337  0.089783407            2 
  651000    1.1454021   -3.1277169    688.55035  0.088140086  0.089771165            3 
  652000    1.1616397   -3.1428037    684.93136  0.087542351  0.089757833            2 
  653000    1.1323451   -3.1330967    689.73057  0.088020746  0.089742578            2 
  654000    1.1514155   -3.1111742    692.02041  0.088177932  0.089730188            2 
  655000    1.1683912   -3.1579644    689.27972  0.087694621  0.089718528            2 
  656000    1.1343484   -3.1496039    691.31844  0.087819923  0.089706161            1 
  657000    1.1859129     -3.12624    696.88838  0.088392743  0.089695507            1 
  658000    1.1227478   -3.1427048    694.99151  0.088018175  0.089685188            1 
  659000    1.1531958   -3.1141427     698.7261  0.088356867  0.089674404            2 
  660000    1.1551053   -3.1119934    696.36512  0.087924888  0.089663064            1 
  661000    1.1295474   -3.1272915     698.9549  0.088118369   0.08965207            2 
  662000    1.1293715   -3.1421654    696.20411  0.087638987  0.089639798            4 
  663000     1.144788   -3.1375423    701.68996  0.088196324   0.08962779            3 
  664000    1.1422559   -3.1287094    700.39364  0.087900808  0.089615212            2 
  665000    1.1278416   -3.1208612    697.26902   0.08737707  0.089601083            1 
  666000    1.1502485   -3.1462815    699.69136  0.087548969  0.089587184            4 
  667000    1.1647236   -3.1293462    700.46754  0.087514685  0.089573069            2 
  668000    1.1211938   -3.1270229     704.3371  0.087866405  0.089559594            2 
  669000    1.1392588   -3.1449854    706.19615  0.087966635   0.08954669            3 
  670000    1.1673341   -3.1206362    708.17607  0.088081601  0.089535628            1 
  671000    1.1392243   -3.1548811    708.21677  0.087955386  0.089523644            3 
  672000    1.1576681   -3.1406609    710.78626  0.088143138  0.089511639            2 
  673000    1.1547141   -3.1502087    709.94938  0.087908542  0.089500209            3 
  674000    1.1476316   -3.1099572     709.7892  0.087758308  0.089487647            3 
  675000    1.1683901   -3.1214156    711.64764  0.087857733  0.089475523            5 
  676000    1.1296422   -3.1705511     713.8431   0.08799841  0.089464095            2 
  677000    1.1224967   -3.1356738    711.61041    0.0875936  0.089452152            5 
  678000    1.1683955   -3.1356213    713.61494  0.087710785  0.089441113            2 
  679000    1.1450757   -3.1091936    715.47066  0.087809359   0.08942967            2 
  680000    1.1549745   -3.1689734    715.33288  0.087663343  0.089418436            1 
  681000      1.15589   -3.1634783    717.06837  0.087746986  0.089406447            1 
  682000    1.1410758   -3.1637757    718.01368  0.087733831  0.089395776            3 
  683000    1.1365535   -3.1121795    720.77276  0.087942015  0.089383472            2 
  684000    1.1601601   -3.1228806    720.49314  0.087779379  0.089372246            2 
  685000    1.1293659   -3.1632849    719.94527  0.087584583  0.089359668            3 
  686000     1.153238   -3.1126967    724.40124  0.087998206   0.08934737            2 
  687000    1.1349255   -3.1407908    725.19047   0.08796585  0.089334238            1 
  688000    1.1422874   -3.1412302    721.02914  0.087333956  0.089323128            1 
  689000    1.1340018   -3.1207049    724.51384   0.08762867  0.089311317            3 
  690000     1.135109   -3.1425688    725.98581  0.087679445  0.089300606            1 
  691000    1.1573407   -3.1426003    728.18779  0.087818113  0.089287936            3 
  692000    1.1477021   -3.1296621     729.3826  0.087835092  0.089275766            3 
  693000    1.1130425   -3.1523205    732.23302  0.088051109  0.089264358            4 
  694000    1.1352485   -3.1408708    728.27613  0.087449103  0.089253633            3 
  695000    1.1012472   -3.1418043    731.77389  0.087742672  0.089243361            2 
  696000    1.1273971   -3.1180435    736.13261  0.088138483  0.089232651            1 
  697000    1.1346662   -3.1371857     732.8744  0.087622477  0.089222288            1 
  698000    1.1306133    -3.120027    737.39347   0.08803647  0.089212797            1 
  699000    1.1519974   -3.1320594    735.68901  0.087707321  0.089203128            1 
  700000    1.1525832   -3.1334121    736.25027  0.087648842  0.089193233            1 
  701000    1.1072267   -3.1612601    737.48608  0.087670718  0.089182227            2 
  702000    1.1516679    -3.123806    742.00498  0.088082262  0.089172284            1 
  703000    1.1494368   -3.1481289    741.61561  0.087910812  0.089161892            4 
  704000    1.1346168   -3.1215903     743.2576  0.087980303  0.089152128            3 
  705000    1.1570595   -3.1228753    743.67211  0.087904505  0.089143124            2 
  706000    1.1443736   -3.1401389    745.30638  0.087972897  0.089133924            2 
  707000    1.1449665    -3.143459     746.1596  0.087949033  0.089124436            1 
  708000    1.1580486   -3.1843522    745.92374   0.08779705  0.089114798            2 
  709000    1.1170761   -3.1249446    748.47054   0.08797256  0.089105702            1 
  710000    1.1237806   -3.1087475    748.21867  0.087819093  0.089096372            2 
  711000    1.1333314   -3.1593002     748.4999  0.087728539  0.089086908            1 
  712000    1.1340516   -3.1578417    749.17329   0.08768414  0.089076343            3 
  713000    1.1379329   -3.1428446    750.00438  0.087658296  0.089066879            1 
  714000    1.1425224   -3.1710775    751.55623  0.087716647  0.089056385            2 
  715000    1.1352643   -3.1465264      756.862  0.088212355  0.089047268            2 
  716000    1.1305425   -3.1353454    754.95222  0.087866878   0.08903798            1 
  717000    1.1202833   -3.1341112    758.15938  0.088117083  0.089029488            1 
  718000    1.1628249   -3.1419873    758.87023   0.08807686  0.089019845            8 
  719000    1.1507802   -3.1468344    757.31319  0.087773898    0.0890107            3 
  720000    1.1358913   -3.1680273    756.25657  0.087529696  0.089000935            1 
  721000    1.1322053   -3.1627602    756.15924  0.087397046  0.088991247            2 
  722000    1.1406472   -3.1672004    757.60256  0.087442585  0.088980345            4 
  723000    1.1384807   -3.1267642    763.75723  0.088031032   0.08897007            3 
  724000    1.1589645   -3.1062357    762.43389  0.087757124  0.088960016            2 
  725000    1.1325308   -3.1390075    762.74241  0.087671542  0.088950358            3 
  726000    1.1471545   -3.1553009    761.34819  0.087390748  0.088940616            2 
  727000    1.1329268   -3.1443846    761.84955  0.087328009  0.088931839            2 
  728000    1.1490127   -3.1324613    764.25342  0.087483221  0.088920758            3 
  729000    1.1385798    -3.152892    765.42196  0.087496795  0.088910716            2 
  730000    1.1521619   -3.1603885    764.13651  0.087230195  0.088899956            1 
  731000    1.1153195   -3.1202953     768.4448  0.087602006  0.088889108            3 
  732000      1.14227   -3.1568025    768.22975  0.087457849  0.088879119            2 
  733000    1.1358933   -3.1499611    767.69061  0.087277241  0.088870253            1 
  734000    1.1540001   -3.1738282    773.02722  0.087764216  0.088860912            2 
  735000    1.1540389   -3.1116799    776.24058  0.088009136  0.088851802            5 
  736000    1.1527634   -3.1232542    776.70388  0.087942016  0.088843294            1 
  737000    1.1783459   -3.1359751    773.76258  0.087490115  0.088833427            2 
  738000    1.1191415   -3.1684916    773.05702  0.087291895  0.088823157            1 
  739000    1.1584492   -3.1713211    778.41126  0.087777544  0.088813363            1 
  740000    1.1361578   -3.1486824    776.55345  0.087449712  0.088803871            1 
  741000    1.1230449   -3.1208026    780.09313  0.087729771   0.08879318            2 
  742000    1.1215554   -3.1381184    776.78945  0.087240504  0.088782317            4 
  743000    1.1423459   -3.1479847      776.515  0.087092305  0.088771592            2 
  744000     1.164057   -3.1585881    780.68782  0.087442632  0.088761233            2 
  745000    1.1567447    -3.147659    781.27118  0.087390512  0.088750536            2 
  746000    1.1102064   -3.1567016    784.47337  0.087631073  0.088739735            2 
  747000    1.1113879   -3.1761933    781.22392  0.087151263  0.088729461            3 
  748000    1.1432338   -3.1619116    785.50943  0.087512192  0.088719232            2 
  749000    1.1121868   -3.1545122    784.83695  0.087320533  0.088709543            1 
  750000    1.0998158   -3.1824485    781.96585  0.086885095  0.088698205            1 
  751000    1.1281622   -3.1717238    788.90524  0.087539418  0.088687781            2 
  752000    1.1222241   -3.1725216    788.05965  0.087329306  0.088678143            4 
  753000    1.1509991   -3.1619032     789.7654  0.087402103  0.088667906            3 
  754000    1.1405304   -3.1350573    794.04444  0.087759112   0.08865792            2 
  755000     1.112821   -3.1692206    790.91969  0.087297979  0.088647723            1 
  756000    1.1269063   -3.1363858    797.36936  0.087893448  0.088637023            1 
  757000    1.1499382   -3.1575137    789.88677   0.08695363  0.088626225            1 
  758000    1.1361885   -3.1766618    794.38597   0.08733355  0.088615808            1 
  759000    1.1490232   -3.1475993    795.87129  0.087381564  0.088605222            2 
  760000    1.1218296   -3.1403286    794.50276   0.08711653  0.088594473            1 
  761000    1.1077079   -3.1810534    797.99629  0.087384613  0.088583733            2 
  762000    1.1349716   -3.1440252    797.69866  0.087237386  0.088573047            3 
  763000    1.1134455   -3.1424832    799.01519   0.08726684  0.088562098            3 
  764000    1.1144164   -3.1525403    799.51943  0.087207616  0.088551691            2 
  765000      1.15366   -3.1667388    802.02701  0.087366777  0.088540497            2 
  766000    1.1371154   -3.1462454    802.68176  0.087323952  0.088528898            3 
  767000    1.1285487   -3.1425857    805.43691  0.087509443  0.088518529            2 
  768000    1.1295261   -3.1553389    804.22804  0.087264328  0.088507062            2 
  769000    1.1300289   -3.1639623    803.00955  0.087018807  0.088495465            2 
  770000     1.115348   -3.1537315    802.78777  0.086881793  0.088483136            2 
  771000    1.1427232   -3.1632114    804.65941  0.086971402  0.088472213            2 
  772000    1.1242381    -3.171979    806.07654  0.087011717  0.088461166            2 
  773000    1.1156687   -3.1769003     807.8124  0.087086287   0.08844858            3 
  774000     1.133061    -3.156359    810.87936  0.087303979  0.088438219            2 
  775000    1.1188072   -3.1246131    814.43012  0.087573131   0.08842817            2 
  776000     1.148794   -3.1475627    810.73202  0.087063146  0.088417358            2 
  777000    1.1189052   -3.1619692    807.98133  0.086656085  0.088405518            6 
  778000    1.1347878    -3.161106    812.45364  0.087023741  0.088393774            2 
  779000    1.1170854   -3.1667906    815.98621  0.087289924   0.08838303            1 
  780000    1.1061174   -3.1733309    811.98075   0.08675008  0.088372161            1 
  781000     1.137571   -3.1540514    816.40328  0.087110892  0.088361846            1 
  782000     1.133135   -3.1825477    816.79266  0.087040991  0.088351003            2 
  783000    1.1331242   -3.1747131     813.6543  0.086595817  0.088339829            1 
  784000    1.1368785   -3.1797755    820.12034  0.087172655  0.088328624            5 
  785000    1.1394464   -3.1610061    820.73025  0.087126353  0.088317745            1 
  786000    1.1246627   -3.1392683    822.28309  0.087180141  0.088308254            1 
  787000     1.092526   -3.1607317    820.96353  0.086929641  0.088298012            2 
  788000    1.1074482   -3.1434614    825.17632  0.087264839  0.088288116            2 
  789000    1.1299201   -3.1491165    822.17629  0.086837377   0.08827758            1 
  790000    1.1203587   -3.1753715    823.51691  0.086868872  0.088265665            1 
  791000    1.1338961    -3.165608    826.27045  0.087049142  0.088254364            2 
  792000    1.1268862   -3.1718029    826.46839  0.086960058  0.088242377            2 
  793000    1.1463993   -3.1375072    829.35628  0.087153876   0.08823099            1 
  794000    1.1305453   -3.1805697    830.01445  0.087113187  0.088219395            1 
  795000    1.1212886       -3.197    829.87698  0.086989202  0.088208787            2 
  796000    1.1259141   -3.1592557    830.83424  0.086980134  0.088198118            2 
  797000    1.1271576   -3.1708578    832.56964  0.087052451  0.088187673            3 
  798000    1.1464515   -3.1610676    835.93239  0.087294527  0.088176819            2 
  799000    1.0969903   -3.1450509    838.56743  0.087460099  0.088167013            3 
  800000    1.1097886   -3.1648173    835.73506  0.087055735  0.088156914            1 
  801000     1.139981   -3.1537903    832.98481  0.086660925  0.088146926            2 
  802000    1.1270392   -3.1323197    837.44013  0.087015807  0.088136578            4 
  803000    1.1450249   -3.1550094    837.94203   0.08695953  0.088126168            1 
  804000    1.1194884   -3.1592892    841.40894  0.087210711  0.088116142            2 
  805000    1.1166775   -3.1555679    846.00228  0.087577876  0.088106344            2 
  806000    1.1144052   -3.1784832     838.2574  0.086668466  0.088097291            2 
  807000    1.1057739   -3.1733826    838.73746  0.086610642  0.088087626            1 
  808000    1.1553224   -3.1684761    839.85678  0.086618892  0.088076465            4 
  809000    1.1325778   -3.1387827    845.33521  0.087076145  0.088066162            2 
  810000    1.0908906   -3.1550317    846.63753  0.087102627  0.088056237            1 
  811000    1.0872846   -3.1754355    846.14364  0.086944476  0.088046908            2 
  812000    1.1395926    -3.130467    848.37278  0.087066172  0.088036712            3 
  813000    1.1191836   -3.1643628    846.15162  0.086731408  0.088027574            4 
  814000     1.121684   -3.1788628    847.36726  0.086749309  0.088017528            3 
  815000    1.1265867   -3.1774796     848.6027  0.086769192  0.088007763            3 
  816000    1.1253635   -3.1875498     852.0254  0.087012398  0.087997715            1 
  817000      1.11714   -3.1620476    854.28221  0.087136088  0.087988148            1 
  818000    1.1188742   -3.1732963    852.14956  0.086812302  0.087978145            1 
  819000    1.1164424   -3.2037174     851.1455  0.086604141  0.087969041            3 
  820000     1.130696   -3.1467228    856.53988  0.087046735  0.087959133            2 
  821000    1.1011951    -3.165065    853.54606  0.086636831  0.087949127            2 
  822000    1.1092936   -3.1721175    856.66699  0.086847829  0.087939269            2 
  823000    1.1406917   -3.1671407     855.8304  0.086657594  0.087928818            2 
  824000    1.1218312   -3.1789996    858.01958  0.086773825  0.087919042            2 
  825000    1.1169252   -3.1843546    857.13089  0.086578878  0.087908315            2 
  826000    1.1289588   -3.1627656    863.03868  0.087070084  0.087898084            1 
  827000    1.1362864   -3.1744503    862.42033  0.086902491  0.087888107            2 
  828000    1.1135865   -3.1642901    859.39557  0.086493113  0.087877888            2 
  829000     1.126153   -3.1408811    861.68028  0.086618444  0.087867628            3 
  830000    1.1472242   -3.1854414    861.93604  0.086539763  0.087858373            3 
  831000    1.1153813   -3.1560606    868.00211  0.087043934  0.087848522            3 
  832000    1.1062908   -3.1591918    865.96781  0.086735558  0.087838691            1 
  833000    1.1258006   -3.1873922     863.5147  0.086386025  0.087828161            1 
  834000    1.1326315   -3.2059756    864.47927  0.086378824  0.087818404            4 
  835000    1.0932314   -3.1653982    868.29113  0.086655802  0.087807114            5 
  836000     1.120992   -3.1710639    873.41492  0.087062891  0.087797137            1 
  837000    1.1450997   -3.1648096    867.86863  0.086406674  0.087787138            4 
  838000    1.1249802   -3.1674777    874.14589  0.086927793  0.087776884            1 
  839000    1.1369948   -3.1709283    874.12085  0.086821698  0.087766862            3 
  840000    1.1066049   -3.1818128    868.50576  0.086161286  0.087755678            1 
  841000    1.1055943   -3.1592606     869.4458  0.086151982  0.087743398            3 
  842000    1.1036494   -3.1515535    875.93453  0.086691857  0.087731498            2 
  843000    1.0897718    -3.175574    868.95261  0.085898834  0.087719224            2 
  844000    1.1538144   -3.1331736    873.55453  0.086251435  0.087706135            1 
  845000    1.1010886   -3.1904824    873.13843  0.086108326  0.087693162            1 
  846000    1.1170799   -3.1634795    877.04647  0.086391496  0.087679373            1 
  847000    1.1351667   -3.2112928    875.01017  0.086089155  0.087666058            3 
  848000    1.1361108    -3.147254    879.39515  0.086418548  0.087652765            3 
  849000    1.0875088   -3.1940837    877.28717  0.086109852  0.087639519            2 
  850000    1.1270027   -3.1999435    875.07555   0.08579172  0.087626549            2 
  851000    1.1227629   -3.1439719    879.27108  0.086101751  0.087613454            1 
  852000    1.1056288   -3.1677416    878.59373  0.085934442  0.087600465            3 
  853000    1.1233176    -3.187703    880.21691  0.085992273  0.087586547            2 
  854000      1.08755   -3.1831673    878.86202  0.085759369  0.087572787            3 
  855000    1.1238824   -3.1854302    882.84056  0.086046838  0.087559916            5 
  856000    1.1149515   -3.1739653    888.05322  0.086453779  0.087545992            5 
  857000    1.1511429   -3.1984773    886.42066  0.086194152   0.08753351            4 
  858000    1.1093477   -3.1952621    885.37912  0.085992533  0.087520189            4 
  859000    1.1292917   -3.1874956    880.39098  0.085408515  0.087507025            1 
  860000     1.118707   -3.1674992    887.75653  0.086022919  0.087493855            3 
  861000    1.1123005   -3.1331212    891.13624  0.086250119   0.08748051            3 
  862000    1.0894659   -3.1831557    892.08612   0.08624189  0.087467684            1 
  863000    1.1189647   -3.1761634    890.96812  0.086034002  0.087454447            2 
  864000    1.0994064   -3.1795638    891.60428  0.085995783  0.087441626            3 
  865000    1.1343659   -3.1845088    892.57132   0.08598953  0.087428605            2 
  866000    1.1160877   -3.1926936    898.01278  0.086413855  0.087416115            2 
  867000    1.1392167   -3.1712479    896.95143  0.086212171  0.087404397            3 
  868000    1.1043095   -3.1748012    896.86698  0.086104741  0.087391815            1 
  869000    1.0981271   -3.1933654    894.83904  0.085811186  0.087379143            2 
  870000    1.1182503   -3.1680365    897.42413  0.085960166  0.087366061            1 
  871000    1.1165565   -3.1887761     897.0461  0.085825306  0.087353076            3 
  872000    1.0976952   -3.1317316    901.50079  0.086152598  0.087340345            2 
  873000    1.1225566   -3.1815075    898.17947  0.085736872  0.087327081            1 
  874000    1.1039872   -3.1963617    901.03554  0.085911093  0.087314672            1 
  875000    1.1157945   -3.1420204    902.58146  0.085960139  0.087302635            2 
  876000    1.1237241   -3.2020408    901.55764  0.085764616  0.087288741            3 
  877000    1.0895308   -3.1764189    902.20825  0.085728644  0.087274402            2 
  878000    1.1018132    -3.195049    900.56691   0.08547522  0.087259579            2 
  879000    1.0971295   -3.1677191    901.40337  0.085457278  0.087246223            1 
  880000     1.150699   -3.1798018    906.74135  0.085865658  0.087232606            1 
  881000    1.1354722   -3.1665634    910.91911  0.086163366  0.087219796            3 
  882000    1.1145465   -3.1598042    907.11077  0.085705855  0.087206324            2 
  883000    1.1004726   -3.1721544    908.12444  0.085704458  0.087192896            1 
  884000    1.1150175   -3.1783634    906.67118  0.085470511  0.087179687            2 
  885000    1.1108525   -3.1991056    907.96675  0.085495927  0.087166304            4 
  886000    1.0829862   -3.1603074    908.06859  0.085409009   0.08715219            2 
  887000    1.0967642     -3.20456    912.22201  0.085702932  0.087138474            3 
  888000    1.1232515   -3.1637169    915.47193  0.085911405  0.087124992            1 
  889000    1.1121539   -3.1689582    909.40998  0.085246529  0.087110954            2 
  890000    1.1381639   -3.2038612    914.08346  0.085588339  0.087097898            1 
  891000    1.1131952   -3.1787902    914.97216  0.085575399   0.08708305            2 
  892000    1.1146261   -3.2152264    915.16281  0.085497273  0.087068477            3 
  893000    1.1143043   -3.1979788    916.03411   0.08548284  0.087053971            1 
  894000    1.1143463   -3.2062065     917.7028  0.085542766  0.087039217            1 
  895000    1.1259409   -3.1865501     914.0913  0.085110922  0.087024667            3 
  896000    1.1237959   -3.1945646    921.79321  0.085732255  0.087011341            2 
  897000    1.1287803   -3.1754844    917.17196  0.085207354  0.086998387            2 
  898000    1.1189147   -3.1781182    918.81899  0.085265311  0.086984261            2 
  899000    1.0912763   -3.2196671    920.45691  0.085322295  0.086969736            1 
  900000    1.1120336   -3.1728112    922.45928  0.085412896  0.086955202            3 
  901000    1.0925191   -3.1638359     924.7503  0.085529994  0.086940669            3 
  902000    1.1113976   -3.1952575    925.38826  0.085494111  0.086927244            4 
  903000     1.100383   -3.2023953    923.64416  0.085238479  0.086913585            1 
  904000    1.1217834   -3.2123203    924.02491  0.085179288  0.086900697            4 
  905000    1.1208135    -3.186616    927.79259  0.085432099  0.086886996            2 
  906000    1.1086063   -3.2051238    931.01181  0.085633905  0.086872662            3 
  907000    1.1245249   -3.1956312    926.92211  0.085163737  0.086858342            4 
  908000    1.1057161    -3.154754    933.48427  0.085672198  0.086843959            1 
  909000    1.1285425   -3.1924772    928.13582  0.085087625  0.086829316            1 
  910000    1.1282528   -3.2088165    930.64803  0.085224178  0.086813705            1 
  911000    1.1191613   -3.1696876    932.04496  0.085258412  0.086798207            2 
  912000    1.0952232   -3.1825053    931.29117   0.08509605  0.086782815            3 
  913000    1.1026865   -3.1749322    932.48439  0.085111755  0.086767337            3 
  914000    1.0867524   -3.1933134    933.47753  0.085109184  0.086752436            1 
  915000    1.1036194   -3.1823025    932.68107  0.084943631  0.086737537            2 
  916000     1.107384   -3.2016032    934.46534  0.085013222  0.086722653            1 
  917000    1.1014339   -3.2041948    937.13474  0.085163099  0.086708399            1 
  918000    1.0868662   -3.1975723    934.99246  0.084875859  0.086693331            2 
  919000    1.1225846   -3.1759337    937.58202  0.085018319  0.086677671            2 
  920000    1.0969849   -3.1786151    941.98123  0.085324387  0.086662708            1 
  921000     1.114959   -3.1987547    938.42131  0.084909637  0.086647228            3 
  922000    1.0983804   -3.1886334    940.90157  0.085041719   0.08663198            3 
  923000    1.0892224   -3.1950342    940.55268  0.084918082  0.086617095            3 
  924000    1.1198135   -3.2013989    942.13181  0.084968598  0.086602781            3 
  925000    1.0968742   -3.1951977    941.53062  0.084822578  0.086588303            4 
  926000    1.1042493   -3.1858794     948.8998   0.08539415  0.086572949            2 
  927000     1.079118   -3.1842447    940.12105   0.08451286  0.086557738            1 
  928000     1.117953   -3.2120734    944.07162  0.084776546   0.08654255            2 
  929000    1.0869876   -3.1918411    946.88927   0.08493804  0.086527635            2 
  930000     1.109953   -3.1866054     949.3631  0.085068378  0.086512578            2 
  931000    1.1065175   -3.1694968    949.45296  0.084985048   0.08649702            2 
  932000    1.1094201   -3.2112758    948.61315  0.084818773  0.086481535            3 
  933000    1.0909051   -3.1996867    947.56599  0.084634332  0.086465415            2 
  934000     1.098334   -3.1917501     949.2702   0.08469577  0.086449779            3 
  935000    1.1006346   -3.1921405    953.64357   0.08499497  0.086434604            1 
  936000     1.127138   -3.2188468    950.92017  0.084661696  0.086419319            3 
  937000    1.1103161   -3.1837318    952.25564  0.084690114   0.08640395            2 
  938000    1.1063947   -3.2036762    956.07074  0.084938765  0.086388052            1 
  939000    1.1015536    -3.183751    954.63241  0.084720661  0.086372213            3 
  940000    1.1155776   -3.1929643    955.25155  0.084685421   0.08635767            2 
  941000    1.1085911   -3.1643422    961.91388   0.08518543   0.08634384            2 
  942000     1.082417   -3.2205138    959.26426  0.084860604  0.086330058            4 
  943000    1.0932057   -3.1863926    961.63313  0.084979951  0.086315815            3 
  944000    1.0935983   -3.2002176     960.9474  0.084829396  0.086302235            4 
  945000    1.0934921   -3.2177447    957.40474  0.084427225  0.086287357            6 
  946000    1.0937919   -3.1977412    963.43635  0.084869305  0.086273403            2 
  947000    1.1201315   -3.2005268    964.13701  0.084841342  0.086258898            2 
  948000    1.1092818   -3.1828676    966.33506  0.084945065  0.086244378            3 
  949000    1.1031677   -3.1982932     966.5601  0.084875316  0.086230758            1 
  950000    1.1136556    -3.197949    969.36267  0.085031813  0.086217407            1 
  951000    1.1115791   -3.2090825    966.83279  0.084720714  0.086203674            3 
  952000    1.0969433    -3.192161    966.86457  0.084634504  0.086190539            2 
  953000    1.0776968   -3.1836741    971.84411  0.084981122  0.086176258            1 
  954000    1.1012497   -3.2371484    972.55904  0.084954494  0.086162147            2 
  955000    1.0671872    -3.172286    975.12799  0.085089702  0.086148754            1 
  956000    1.0892551   -3.2161964    968.80583  0.084449601  0.086134971            1 
  957000    1.1128753   -3.2115939    975.49143  0.084943524  0.086121966            3 
  958000    1.1085372   -3.1555635    975.93766  0.084893673  0.086109267            2 
  959000    1.1071125    -3.160033    978.14044  0.084996562  0.086096393            1 
  960000    1.1060633   -3.2472951    975.15295  0.084648693  0.086082562            2 
  961000     1.137951   -3.2136782    976.18925  0.084650473   0.08606914            1 
  962000    1.0821052   -3.1940007    981.00985  0.084980063  0.086055219            2 
  963000    1.0896348   -3.2195348    979.33732  0.084747086  0.086042469            1 
  964000    1.0950508   -3.1882801    980.35617  0.084747248  0.086030036            2 
  965000    1.0931379   -3.2165372    980.75974  0.084694278  0.086017815            1 
  966000    1.1112454   -3.1894455     981.7331  0.084690571  0.086005137            2 
  967000    1.0846581   -3.1884973    985.40843   0.08491972  0.085993112            1 
  968000    1.1023168   -3.1948564    982.21321  0.084556923  0.085980087            3 
  969000    1.1004035   -3.2039426    985.65428   0.08476559   0.08596779            1 
  970000    1.0900806   -3.1815414    988.56945  0.084928646  0.085954993            1 
  971000    1.0957292   -3.1822645     988.5146  0.084836474   0.08594214            2 
  972000    1.1008258   -3.1907436    985.95058  0.084529371  0.085929535            2 
  973000    1.0943405   -3.1869876    990.94793  0.084870497  0.085917971            3 
  974000    1.1056244   -3.2160816    987.10199  0.084454312  0.085905856            1 
  975000    1.1195819   -3.2134189    994.71074  0.085018012  0.085894288            6 
  976000    1.1048423    -3.189795    996.52255    0.0850856  0.085882067            3 
  977000    1.0907415   -3.1914516    993.91649  0.084776227  0.085869967            2 
  978000    1.1008168    -3.206037    991.62447  0.084494245  0.085856758            2 
  979000    1.1026722    -3.207072    991.89465  0.084430937  0.085843439            2 
  980000    1.0779495   -3.1896678    996.75258  0.084757872  0.085829796            2 
  981000    1.1186606   -3.2005404    997.46037  0.084731598  0.085816724            2 
  982000    1.0850951   -3.1910196     994.2399  0.084372022  0.085804129            1 
  983000    1.1011266   -3.2202662    993.71272  0.084241499  0.085791132            2 
  984000    1.0897177   -3.2019803    1000.3712   0.08471978  0.085778395            1 
  985000    1.1055194   -3.1809689    1001.6064   0.08473827  0.085765119            1 
  986000    1.0762145    -3.200548    1001.9657  0.084682703  0.085752045            3 
  987000    1.0743413   -3.1922241    1005.9641   0.08493449  0.085739732            2 
  988000    1.0650192   -3.1840577    1003.8114  0.084666952  0.085728159            1 
  989000    1.1097255   -3.2297796     998.1503  0.084104339  0.085715591            4 
  990000    1.0932766   -3.2066018    1005.3983  0.084629482  0.085702572            3 
  991000    1.0870051   -3.2054365    1003.4757  0.084382417  0.085688746            2 
  992000    1.0832106   -3.2124825    1003.3677  0.084288285  0.085674779            2 
  993000    1.1071391   -3.2182508    1003.3693  0.084203532  0.085661249            2 
  994000    1.1402073   -3.2074647    1007.1599  0.084436608  0.085647891            3 
  995000    1.0926084   -3.2223857      1003.56  0.084050252  0.085635016            1 
  996000    1.0945867   -3.2166871    1001.9565  0.083831699  0.085621634            3 
  997000    1.1156681   -3.1962222    1014.6284  0.084806786  0.085608506            5 
  998000     1.096358   -3.2031714    1008.5392  0.084213357  0.085595672            6 
  999000    1.0765245   -3.1946819    1010.3023   0.08427613   0.08558316            2 
 1000000    1.0999913   -3.1816787      1009.76  0.084146665  0.085571255            2 
 1001000    1.1196461   -3.1994507    1012.3856  0.084281183   0.08555865            3 
 1002000    1.0980291   -3.2247814    1014.0405  0.084334702   0.08554569            3 
 1003000    1.0871965   -3.1721539    1017.7923  0.084562334  0.085533438            2 
 1004000    1.0827622   -3.2073833    1014.9628  0.084243258  0.085520695            5 
 1005000    1.0710111   -3.2276113    1017.8132  0.084395786  0.085507786            4 
 1006000    1.0935458   -3.1987294    1017.4843  0.084284647  0.085494897            2 
 1007000    1.1121701   -3.2020149    1016.7471  0.084139946  0.085482016            1 
 1008000    1.0831543   -3.1805946    1019.7304  0.084303112  0.085469556            2 
 1009000    1.0945117   -3.1505361    1020.5293   0.08428554  0.085456701            2 
 1010000     1.090693   -3.2097664    1018.2687  0.084015566  0.085444221            5 
 1011000    1.0950521   -3.2198535     1023.361   0.08435221  0.085431261            2 
 1012000    1.0804169   -3.1821613    1025.6695  0.084458948  0.085418297            3 
 1013000    1.0735375   -3.2188359      1022.49   0.08411402  0.085404984            2 
 1014000    1.0824307   -3.1811858    1027.2513  0.084422359  0.085392081            3 
 1015000    1.0621722   -3.2131321    1030.6262   0.08461627  0.085379429            1 
 1016000    1.0949511   -3.2262478    1026.0753  0.084159722  0.085365898            3 
 1017000    1.0957491   -3.2317457      1028.46  0.084272368  0.085352696            2 
 1018000    1.0963093   -3.2046045    1028.1251  0.084162172  0.085339467            1 
 1019000    1.0816536   -3.2100703    1024.9395  0.083819065  0.085325946            1 
 1020000    1.0786075   -3.1912324    1030.4702  0.084188739   0.08531249            3 
 1021000    1.1006665   -3.2097973    1027.8521  0.083892596  0.085297887            4 
 1022000    1.0776157   -3.2009521    1030.1783  0.084000188  0.085283379            3 
 1023000    1.0671083   -3.1920923    1033.3453  0.084176057  0.085269913            2 
 1024000    1.0580061   -3.1935275    1036.5254   0.08435265   0.08525651            1 
 1025000    1.1011334   -3.2097893    1034.1289  0.084075522  0.085242549            6 
 1026000    1.0797872   -3.1844981    1033.6517  0.083954813   0.08522905            1 
 1027000    1.1092258   -3.2262102    1033.5721  0.083866612  0.085215608            3 
 1028000    1.0994862   -3.2001244    1036.6664  0.084035858  0.085201852            2 
 1029000    1.0840594   -3.1926223    1040.5926  0.084272155   0.08518809            3 
 1030000    1.0837098   -3.1992215    1037.0613  0.083904636  0.085174481            4 
 1031000    1.1071673   -3.2144856    1032.7839  0.083477525  0.085160663            2 
 1032000    1.0715573   -3.2439686    1032.3425  0.083360992  0.085144897            2 
 1033000    1.0618653   -3.1890511    1038.1774  0.083750999   0.08513074            1 
 1034000    1.1069859   -3.2170152    1037.9495  0.083651633  0.085115945            4 
 1035000    1.0932595   -3.1940972    1041.2275  0.083834744  0.085100609            2 
 1036000    1.0930213   -3.1995776      1038.66  0.083547299  0.085086178            2 
 1037000    1.1077512   -3.1972437    1041.7148  0.083712218  0.085071618            2 
 1038000    1.0760785   -3.2228424    1039.4584  0.083450414  0.085057019            2 
 1039000    1.1047398   -3.1837828    1044.4208  0.083768107  0.085042717            1 
 1040000    1.0841745   -3.2253651     1046.867  0.083883571  0.085028567            2 
 1041000    1.1016036   -3.2052518     1044.552  0.083617677  0.085014177            2 
 1042000     1.073616   -3.2111244    1044.2123  0.083510259  0.085000421            3 
 1043000     1.084585   -3.2084623    1047.0946  0.083660485   0.08498593            1 
 1044000    1.1040805   -3.1916558    1048.8305  0.083718911  0.084971716            2 
 1045000    1.0681237   -3.1840005    1049.7112   0.08370903  0.084957658            1 
 1046000    1.0956388   -3.2057083    1049.0661  0.083577601  0.084942899            3 
 1047000    1.0820537    -3.228173    1045.3439  0.083201518  0.084927614            3 
 1048000    1.0693984   -3.1983282    1048.5862  0.083379947  0.084912693           10 
 1049000    1.0690307   -3.2333743    1050.8419  0.083479655  0.084896597            4 
 1050000    1.0868822   -3.2321799    1046.6005  0.083063534  0.084880805            2 
 1051000    1.0795933   -3.2173384    1051.8396  0.083399908   0.08486516            2 
 1052000    1.0879278   -3.1970251    1054.0822  0.083498271  0.084849265            2 
 1053000    1.0680833   -3.2123748    1052.4934   0.08329324  0.084833893            2 
 1054000    1.0823644   -3.1835902    1053.3764  0.083284031  0.084818527            1 
 1055000    1.0681954   -3.2246101     1052.399  0.083127883  0.084802955            4 
 1056000    1.0883789   -3.2336564    1055.1432   0.08326572  0.084787189            2 
 1057000     1.091624   -3.2234107    1049.9859  0.082780345  0.084771024            4 
 1058000    1.0844214   -3.2446228    1052.7865  0.082922694  0.084754222            1 
 1059000    1.0892598    -3.203096    1060.3304  0.083438025  0.084738146            2 
 1060000    1.0594724   -3.2174386    1056.7671  0.083079178  0.084722007            3 
 1061000    1.0689435    -3.206218    1054.6219   0.08283238  0.084704839            3 
 1062000    1.0855405   -3.2339217    1059.1933  0.083113094  0.084688364            2 
 1063000    1.0879731    -3.185913    1060.4549  0.083133808  0.084671353            2 
 1064000    1.0897683   -3.2125987    1058.2952  0.082886527  0.084654988            2 
 1065000    1.0640643   -3.2011393    1061.2626  0.083040891   0.08463933            2 
 1066000    1.1036303   -3.2350026    1060.1301  0.082874462  0.084623414            2 
 1067000    1.0892853   -3.2163451    1058.4155  0.082662875  0.084606894            6 
 1068000     1.083942   -3.2199033    1065.9191  0.083170968  0.084590479            2 
 1069000    1.0804302   -3.2144079    1063.0102  0.082866403  0.084575045            1 
 1070000    1.0923025   -3.2283795    1066.2292  0.083039656  0.084559712            2 
 1071000    1.0947116   -3.2200774    1071.8158  0.083396806  0.084544597            3 
 1072000     1.095485   -3.2354585    1065.6473  0.082839497  0.084528804            3 
 1073000    1.0518737    -3.220979     1067.076  0.082873251  0.084513076            2 
 1074000    1.0771235    -3.201467    1071.5145  0.083140483  0.084497659            2 
 1075000    1.0924497    -3.214203    1068.6261  0.082839232  0.084482442            3 
 1076000    1.0837189   -3.2403002    1074.1532  0.083190301  0.084467348            1 
 1077000       1.0577    -3.204282     1074.712  0.083156298  0.084451601            2 
 1078000    1.0965707   -3.2329328    1075.2436  0.083120255   0.08443645            2 
 1079000    1.0478639   -3.2146333     1073.933  0.082942001  0.084420651            2 
 1080000    1.0729907   -3.1896505    1077.9989  0.083178927   0.08440557            2 
 1081000    1.0929893   -3.2096826    1078.5601  0.083145244  0.084390306            1 
 1082000    1.0699328   -3.2176318    1078.2621  0.083045446  0.084375215            2 
 1083000    1.0737032   -3.2544112    1073.1922  0.082578657  0.084359646            3 
 1084000    1.1061441   -3.2388146    1077.0959  0.082802576  0.084344324            1 
 1085000    1.1008723    -3.228419    1079.7562  0.082930586  0.084328629            2 
 1086000     1.109127   -3.2032406    1085.9999  0.083333322  0.084313536            3 
 1087000    1.1051643   -3.2654974    1083.2411  0.083045162  0.084299129            2 
 1088000    1.0788917   -3.2451953    1083.0441  0.082953746  0.084284329            2 
 1089000    1.0576351   -3.2340593    1081.6162  0.082768301  0.084269422            6 
 1090000    1.0858688    -3.240693    1081.8244  0.082708291   0.08425441            2 
 1091000    1.0810488   -3.2197672    1085.3569  0.082902297  0.084240292            1 
 1092000    1.0784383   -3.2233622    1086.5595  0.082918155  0.084225288            2 
 1093000    1.0776491    -3.239765    1089.1143  0.083037074  0.084210398            8 
 1094000      1.05417   -3.2663899    1085.1536  0.082659473   0.08419625            1 
 1095000    1.1108953   -3.2540131    1089.3294   0.08290178   0.08418269            2 
 1096000    1.0746843   -3.2109457    1096.6576  0.083383331  0.084168404            5 
 1097000    1.0841241    -3.247831    1093.3088  0.083052934  0.084155035            3 
 1098000    1.0650318   -3.2098686     1096.121  0.083190729  0.084140908            1 
 1099000    1.0589765   -3.2060095    1092.8078  0.082863804  0.084126774            1 
 1100000    1.0487142   -3.2277648    1095.3814  0.082983437  0.084112566            1 
 1101000    1.0796042    -3.213389    1096.0553  0.082959075  0.084098189            2 
 1102000     1.076487   -3.2188857       1095.5  0.082841806  0.084083852            1 
 1103000    1.0894502   -3.2272399    1097.6112  0.082926202  0.084069755            1 
 1104000     1.087216   -3.2079621    1097.4779  0.082841021  0.084055867            1 
 1105000    1.0647706   -3.2261432    1096.9734  0.082728006  0.084041607            2 
 1106000     1.092018   -3.2492274    1097.8447  0.082718863  0.084026784            2 
 1107000     1.065651   -3.2125216    1097.5401  0.082621202  0.084012297            1 
 1108000    1.0739632   -3.1805293    1101.6497  0.082855721  0.083997391            5 
 1109000    1.0651943   -3.2593632     1097.965  0.082504133  0.083982281            3 
 1110000    1.0800321    -3.232647    1096.4555  0.082316476  0.083966991            2 
 1111000    1.0687161   -3.2124977    1103.7937   0.08279281  0.083952159            1 
 1112000    1.0761471   -3.2278336    1101.6147  0.082555057  0.083937141            2 
 1113000    1.0657862   -3.2546922    1104.3791  0.082687865  0.083922274            3 
 1114000     1.067914   -3.2454471    1104.2776  0.082606044  0.083907063            4 
 1115000    1.0826885    -3.217607    1102.6964   0.08241378  0.083891938            5 
 1116000    1.0712886    -3.232751     1106.328  0.082611108  0.083876793            2 
 1117000    1.0940711   -3.2717843    1097.1882  0.081855282  0.083861479            2 
 1118000    1.0754671   -3.2425907    1104.2652  0.082309573  0.083846017            1 
 1119000    1.0776301   -3.2104396    1106.8625  0.082429441  0.083831074            2 
 1120000    1.0725046   -3.2238341    1108.9306  0.082509715  0.083815886            1 
 1121000    1.0801443   -3.2406529    1110.4114  0.082546193  0.083801121            1 
 1122000    1.0471957   -3.2491228    1107.6887  0.082270399  0.083786107            3 
 1123000    1.0641171   -3.2136409     1109.438  0.082326952  0.083770764            3 
 1124000    1.0606501   -3.2467661    1111.0089  0.082370174  0.083755816            4 
 1125000    1.0579481   -3.2091098    1113.9081   0.08251171  0.083740561            2 
 1126000    1.0912708    -3.270815    1109.0872  0.082081645  0.083725102            1 
 1127000    1.0433838   -3.2340802    1115.7722   0.08250312  0.083710276            1 
 1128000     1.061825   -3.2441381    1113.8438  0.082287513   0.08369512            2 
 1129000    1.0830043   -3.2272764    1116.9873  0.082446655  0.083680632            3 
 1130000    1.0829765   -3.2252986    1119.1024  0.082529675  0.083665828            2 
 1131000    1.0805703   -3.2431132     1117.467  0.082336205  0.083650867            2 
 1132000    1.0803984   -3.2302186    1122.6917  0.082648093  0.083636412            3 
 1133000    1.0657167   -3.2143732     1119.643  0.082350913  0.083621992            3 
 1134000    1.0745603    -3.260754    1120.8796  0.082369164  0.083607199            1 
 1135000    1.0817494   -3.2485161    1121.3503  0.082331149  0.083592781            3 
 1136000    1.0723742   -3.2144541    1123.5413  0.082419404  0.083578298            2 
 1137000    1.0624662   -3.2395939    1122.3123  0.082256836  0.083564628            1 
 1138000    1.0618371   -3.2291885    1127.4584  0.082561394  0.083551324            4 
 1139000    1.0875778    -3.221165    1128.1821  0.082541853  0.083537581            3 
 1140000    1.0789669   -3.2310244    1126.0345   0.08231246  0.083523273            5 
 1141000    1.0568292   -3.2732196     1128.847  0.082445733   0.08350931            3 
 1142000    1.0594417   -3.2243949    1130.6389  0.082504299  0.083495502            1 
 1143000    1.0817659   -3.2139277    1131.1255  0.082467591   0.08348119            1 
 1144000    1.0736493   -3.2518729    1125.0716  0.081954513  0.083467076            3 
 1145000    1.0791488    -3.200618    1134.3588  0.082558863  0.083453839            2 
 1146000    1.0689183   -3.2144263     1134.206  0.082475713  0.083440219            1 
 1147000    1.0690857   -3.2284597     1131.979  0.082242007  0.083426437            2 
 1148000     1.045667   -3.2301207    1130.4254   0.08205759  0.083412566            2 
 1149000    1.0493078   -3.2810775    1131.9512  0.082096838  0.083398331            4 
 1150000    1.0822531   -3.2613499    1133.0456  0.082104755  0.083384217            2 
 1151000    1.0755918   -3.2656102    1134.7332    0.0821556  0.083370137            4 
 1152000    1.0762469    -3.254993    1138.3516  0.082346036  0.083355523            2 
 1153000    1.0673177   -3.2745685    1140.9797   0.08246456  0.083341458            2 
 1154000     1.064456   -3.2323195    1138.7923  0.082235143  0.083327219            3 
 1155000    1.0764478   -3.2393243    1139.3062  0.082201024  0.083312818            3 
 1156000    1.0552995    -3.254048    1137.4726  0.081997734  0.083298713            4 
 1157000    1.0902496   -3.2350697    1137.1217  0.081901593  0.083284213            1 
 1158000    1.0756188   -3.2584749     1139.764   0.08202101   0.08326964            2 
 1159000    1.0685643   -3.2670847    1138.3578  0.081849137  0.083254777            3 
 1160000    1.0833648    -3.209553    1141.7754  0.082024096  0.083239682            2 
 1161000    1.0622765   -3.2140992    1141.3281  0.081921342  0.083225276            2 
 1162000    1.0461118   -3.2535959    1140.8154  0.081814068  0.083210326            1 
 1163000     1.052508   -3.2121376    1143.2919  0.081921174  0.083195617            1 
 1164000    1.0313068   -3.2465554    1143.6587  0.081877057  0.083180404            1 
 1165000    1.0613231   -3.2436849     1148.549  0.082156583   0.08316522            2 
 1166000    1.0577267   -3.2298067    1145.5431   0.08187129  0.083149897            3 
 1167000    1.0833664    -3.236995    1145.3981  0.081790783   0.08313456            2 
 1168000    1.0576662   -3.2498323    1145.9263   0.08175844   0.08311986            3 
 1169000    1.0892865   -3.2383287    1146.8488  0.081754264  0.083104599            4 
 1170000    1.0783576   -3.2126544    1152.5399   0.08208974  0.083089638            2 
 1171000    1.0605633   -3.2416936    1142.8681  0.081331345  0.083074807            3 
 1172000    1.0697802   -3.2345853    1147.2299  0.081572093  0.083059932            3 
 1173000    1.0751186   -3.2565764    1151.5405  0.081808787  0.083045427            2 
 1174000    1.0647504   -3.2395065    1152.2835  0.081791842  0.083031003            4 
 1175000    1.0568533   -3.2570009    1155.2629   0.08193354   0.08301668            2 
 1176000     1.061583   -3.2315981     1148.629   0.08139378  0.083001866            3 
 1177000    1.0530971   -3.2479542    1154.4302  0.081735358  0.082987134            1 
 1178000    1.0590458   -3.2387312    1150.5883   0.08139419  0.082971969            4 
 1179000    1.0762082   -3.2334812    1158.5884  0.081890615  0.082957279            2 
 1180000    1.0461338   -3.2456462    1159.3899  0.081877821   0.08294241            1 
 1181000    1.0686654   -3.2308611    1154.5361  0.081465997  0.082927186            3 
 1182000    1.0871767   -3.2372553    1162.9271  0.081988654    0.0829123            2 
 1183000    1.0507904   -3.2504677    1159.4913  0.081677324  0.082897253            2 
 1184000    1.0632412   -3.2225594    1157.5359  0.081470714  0.082882823            2 
 1185000    1.0631012   -3.2557608    1158.1975  0.081448485  0.082868599            2 
 1186000    1.0720687   -3.2603017    1160.9203  0.081571131  0.082853973            2 
 1187000    1.0382985   -3.2133722    1162.8889  0.081640613  0.082840034            3 
 1188000    1.0709963   -3.2431176    1163.6636  0.081626233  0.082825709            4 
 1189000     1.062358   -3.2319463    1167.0469  0.081794709  0.082811374            1 
 1190000    1.1012399   -3.2497156    1168.2278   0.08180867  0.082797685            3 
 1191000    1.0723678   -3.2028824    1164.8158  0.081501244  0.082783433            2 
 1192000    1.0508002   -3.2623991    1168.6337  0.081699782  0.082769154            1 
 1193000    1.0651298   -3.2381016    1166.5713  0.081487236  0.082755121            2 
 1194000    1.0624396   -3.2469216    1170.7692  0.081711979  0.082741034            2 
 1195000    1.0684708   -3.2166572    1170.3531  0.081614581  0.082727172            8 
 1196000    1.0840016   -3.2510593    1171.3035  0.081612565  0.082713691            3 
 1197000    1.0554718   -3.2566324    1171.8495  0.081582395  0.082699861            2 
 1198000    1.0372781    -3.208327    1174.1889  0.081677026  0.082686172            3 
 1199000    1.0630304   -3.2256936    1183.0523  0.082224929  0.082672926            1 
 1200000    1.0572937   -3.2487284    1176.3971  0.081694243  0.082659696            3 
 1201000    1.0539487   -3.2660159     1172.276  0.081340273  0.082645932            3 
 1202000    1.0657294   -3.2530546    1173.9795  0.081390705  0.082632062            2 
 1203000    1.0653253   -3.2674467    1174.2237  0.081339961  0.082618665            2 
 1204000    1.0465083    -3.259903    1175.8717  0.081386472  0.082605247            3 
 1205000    1.0746011   -3.2426364     1180.541  0.081641841  0.082591839            4 
 1206000    1.0635285   -3.2358323    1181.4006  0.081633543  0.082577728            3 
 1207000    1.0481423   -3.2518589    1182.0725  0.081612294   0.08256395            2 
 1208000     1.071002   -3.2752493    1178.0081  0.081264352  0.082549789            2 
 1209000    1.0699982   -3.2402233    1182.9401  0.081537093  0.082535712            2 
 1210000    1.0488814   -3.2626749    1179.8605  0.081257608  0.082521545            3 
 1211000     1.068862   -3.2566225    1179.1296  0.081140213  0.082507348            2 
 1212000    1.0597625   -3.2468197    1187.2895  0.081634319  0.082492934            2 
 1213000    1.0714308   -3.2249665    1182.0825  0.081209296  0.082478555            4 
 1214000    1.0455323   -3.2622313    1183.7877  0.081259455  0.082462851            1 
 1215000      1.06538   -3.2417169    1182.9847  0.081137499  0.082448116            1 
 1216000    1.0851904   -3.2565646    1180.7997  0.080921033  0.082432532            1 
 1217000    1.0719207   -3.2475323    1184.1148  0.081081541   0.08241676            7 
 1218000    1.0440473   -3.2289226    1185.3617  0.081100279  0.082401306            2 
 1219000    1.0562964     -3.22945    1190.6599  0.081395947  0.082385869            3 
 1220000    1.0679095   -3.2760333    1184.7958  0.080928673  0.082370317            4 
 1221000    1.0521863   -3.2655591    1187.1069  0.081020125  0.082354397            2 
 1222000    1.0540025   -3.2617214    1185.5573  0.080848151  0.082338479            2 
 1223000    1.0560667   -3.2654533    1184.3943  0.080702803  0.082322636            5 
 1224000    1.0739661   -3.2620814     1189.505  0.080984815  0.082307452            2 
 1225000    1.0819407   -3.2563662    1187.4839  0.080781217  0.082291652            3 
 1226000    1.0338269   -3.2508156    1189.0953   0.08082486  0.082276106            4 
 1227000    1.0643179   -3.2378467    1191.3612  0.080912875  0.082260765            1 
 1228000     1.036487   -3.2541688     1191.029  0.080824441  0.082245857            5 
 1229000     1.056582   -3.2424961    1191.6553  0.080801146  0.082230435            2 
 1230000    1.0533985   -3.2429452     1198.196  0.081178591  0.082215448            2 
 1231000    1.0571178    -3.217781    1198.4078  0.081126987  0.082200793            2 
 1232000    1.0592907   -3.2512127    1200.8001  0.081222951  0.082186319            3 
 1233000    1.0689972   -3.2121341    1198.3552  0.080991834  0.082171821            3 
 1234000    1.0563469   -3.2669609    1198.1272  0.080910806  0.082157668            5 
 1235000    1.0395125   -3.2593734    1205.6585  0.081353476  0.082143339            2 
 1236000    1.0502955   -3.2518011     1198.083  0.080776901  0.082128969            2 
 1237000    1.0619001   -3.2808653    1203.1902  0.081055657  0.082114134            1 
 1238000    1.0512016    -3.286729    1200.2857  0.080794677  0.082099674            2 
 1239000    1.0649138   -3.2675832    1204.8059  0.081033489  0.082084683            2 
 1240000    1.0739857   -3.2205298    1208.1376  0.081192042  0.082070404            4 
 1241000    1.0462353   -3.2606156     1206.455  0.081013632  0.082056103            2 
 1242000    1.0597409   -3.2508296    1205.2469  0.080867341   0.08204148            2 
 1243000    1.0588956   -3.2724787    1206.6596  0.080896998  0.082026927            1 
 1244000    1.0478965   -3.2596755    1206.5843  0.080826922   0.08201253            1 
 1245000    1.0470357   -3.2564446    1210.2528  0.081007549  0.081997767            2 
 1246000    1.0625262   -3.2514516    1208.2801  0.080810601  0.081983088            2 
 1247000    1.0516916    -3.263629    1204.5974  0.080499689  0.081969069            1 
 1248000    1.0414095   -3.2693646    1210.2489  0.080812561   0.08195474            2 
 1249000    1.0372135   -3.2567535    1215.2269  0.081079991  0.081939959            3 
 1250000      1.07176   -3.2820123    1207.9779  0.080531859  0.081925281            3 
 1251000    1.0495784   -3.2785839    1210.8357  0.080657851  0.081910576            3 
 1252000    1.0509755   -3.2871475    1213.7084  0.080784639   0.08189621            2 
 1253000    1.0768538   -3.2719894    1210.6008  0.080513485  0.081881504            2 
 1254000    1.0502779   -3.2672482    1216.0253  0.080809761  0.081866744            2 
 1255000    1.0250563   -3.2481025      1216.11  0.080750996  0.081852048            3 
 1256000    1.0456414   -3.2595405    1221.3733  0.081035911  0.081837538            2 
 1257000    1.0622287   -3.2490075    1219.3309  0.080836044  0.081823072            2 
 1258000    1.0501113   -3.2592304    1220.3509  0.080839352  0.081808747            2 
 1259000    1.0610371   -3.2764511    1218.0417  0.080622302  0.081794049            3 
 1260000    1.0332899    -3.250946    1223.1578  0.080896681   0.08177953            3 
 1261000    1.0459918   -3.2505881    1218.9599  0.080555105  0.081765094            4 
 1262000    1.0554421   -3.2768193    1219.6723  0.080538317  0.081751046            3 
 1263000    1.0700315   -3.2565498    1226.3357  0.080914205  0.081736397            2 
 1264000    1.0420491   -3.2710082     1224.885  0.080754551  0.081721869            1 
 1265000    1.0488193   -3.2628741    1224.4916  0.080664795  0.081707546            2 
 1266000    1.0589633   -3.2183177    1227.3317  0.080788025  0.081692972            3 
 1267000    1.0469585   -3.2946721    1224.1582  0.080515535  0.081678396            1 
 1268000    1.0524919   -3.2602144    1226.3211  0.080594181  0.081663508            1 
 1269000    1.0610771   -3.2379242    1224.0136  0.080379147  0.081648897            3 
 1270000    1.0587937   -3.2790081    1229.8202  0.080696865  0.081635025            2 
 1271000     1.058534   -3.2613933    1232.2593  0.080793296  0.081620952            2 
 1272000    1.0288078   -3.2702542     1234.349  0.080866678  0.081607313            2 
 1273000    1.0500648   -3.2340445    1233.1401   0.08072402  0.081593968            2 
 1274000    1.0544063   -3.2586284    1238.5591  0.081015113  0.081580041            2 
 1275000    1.0499543   -3.2408707     1237.649   0.08089209   0.08156658            1 
 1276000    1.0482323   -3.2717723    1237.0929  0.080792375  0.081552691            6 
 1277000    1.0498838   -3.2692957     1232.113  0.080404135  0.081539216            4 
 1278000    1.0356694   -3.2558947    1236.6133  0.080634672  0.081525492            1 
 1279000      1.07494   -3.2570888    1238.1276  0.080670288  0.081511958            2 
 1280000    1.0458117   -3.2864427    1233.6225  0.080313966  0.081498177            2 
 1281000    1.0346636   -3.2630389    1236.4087  0.080432523  0.081484191            1 
 1282000    1.0561109   -3.2604925    1244.2022  0.080876381  0.081470278            2 
 1283000    1.0247666   -3.2683728    1244.5481  0.080835806  0.081456622            3 
 1284000    1.0314035   -3.2922486    1239.3575  0.080435974  0.081443115            6 
 1285000    1.0663949   -3.3126312    1240.4548  0.080444539   0.08142964            4 
 1286000    1.0443497   -3.2461167    1242.8351   0.08053623  0.081416309            3 
 1287000    1.0174215   -3.2658224    1250.4965   0.08096973    0.0814038            3 
 1288000    1.0513405   -3.2940559    1245.0863  0.080556823  0.081391433            2 
 1289000    1.0449978   -3.2674643    1250.4661  0.080842133  0.081379219            3 
 1290000    1.0621261   -3.2798993    1248.7416  0.080668063  0.081366492            3 
 1291000    1.0626957   -3.2588752    1245.3508    0.0803867  0.081354071            3 
 1292000     1.060325   -3.2627535    1253.6205  0.080857875   0.08134147            3 
 1293000     1.075343   -3.2943944    1249.3998  0.080523315  0.081328589            2 
 1294000    1.0387011   -3.2676169    1248.2227  0.080385282  0.081315538            4 
 1295000     1.022673   -3.2535249     1249.038  0.080375676  0.081303136            4 
 1296000    1.0378493   -3.2701888    1252.3259  0.080525068  0.081290159            1 
 1297000    1.0587939   -3.2729723     1253.257  0.080522808  0.081277534            1 
 1298000    1.0284754   -3.2687355    1258.3175  0.080785663  0.081264673            7 
 1299000    1.0050793    -3.284123    1255.9087  0.080568944  0.081251981            2 
 1300000    1.0351532   -3.2455759    1254.8244  0.080437463  0.081239244            4 
 1301000    1.0338996   -3.2810835    1259.9613   0.08070467  0.081226593            2 
 1302000    1.0405184   -3.2882022    1263.2989  0.080856304  0.081214373            3 
 1303000    1.0587828   -3.2591134    1261.2229  0.080661477  0.081201965           11 
 1304000    1.0635079   -3.2617843    1264.3111  0.080796977  0.081189987            4 
 1305000    1.0368093   -3.2721337    1262.6254   0.08062742   0.08117741            2 
 1306000    1.0538583   -3.2824158    1263.1241  0.080597506  0.081164764            2 
 1307000    1.0256663   -3.2756305     1264.518  0.080624711  0.081152164            3 
 1308000    1.0366962   -3.2577557    1265.6119  0.080632768  0.081139892            2 
 1309000    1.0448848   -3.3097325    1265.5102  0.080564696  0.081127367            1 
 1310000    1.0473749   -3.2581904    1270.0051  0.080789126  0.081115446            2 
 1311000    1.0449226   -3.2739949    1270.3019   0.08074637  0.081103203            2 
 1312000    1.0408595   -3.2540495    1271.2902  0.080747597  0.081091542            2 
 1313000    1.0479753   -3.2668853    1269.1099  0.080547719  0.081079618            2 
 1314000    1.0367074   -3.2722688    1268.7429   0.08046315  0.081068298            5 
 1315000    1.0662801   -3.2639271    1278.0598   0.08099238  0.081056213            1 
 1316000    1.0435484   -3.2613935    1261.7815  0.079900043  0.081044435            3 
 1317000    1.0427359   -3.2864174    1267.5121  0.080201982    0.0810318            2 
 1318000    1.0693467   -3.2892107    1266.1472  0.080054831  0.081019504            3 
 1319000    1.0271848   -3.2642777    1271.4639  0.080330043  0.081007543            2 
 1320000     1.031854   -3.2703736    1269.6709  0.080155991  0.080995289            2 
 1321000    1.0418281   -3.2529534    1278.1978  0.080633221  0.080982331            3 
 1322000    1.0325123   -3.2641942    1267.8318  0.079918794  0.080969524            3 
 1323000    1.0359745   -3.2700575    1279.8588  0.080615952  0.080956745            5 
 1324000    1.0542664   -3.2553392    1273.6347  0.080163314  0.080943636            1 
 1325000    1.0470244   -3.2437613    1277.0756  0.080319221   0.08093058            4 
 1326000    1.0351713   -3.2698527    1279.2002  0.080392168  0.080917187            2 
 1327000    1.0494119   -3.3044496    1275.1477  0.080077094  0.080904478            2 
 1328000    1.0496576    -3.263125    1278.1632  0.080206023  0.080891302            7 
 1329000    1.0315645   -3.2535256    1280.4052  0.080286256  0.080877907            3 
 1330000     1.042079   -3.2515398    1281.2798  0.080280692  0.080864773            3 
 1331000    1.0117312   -3.2622681    1276.2068  0.079902754  0.080851545            1 
 1332000    1.0152919   -3.2787854    1280.7754  0.080128593  0.080838468            2 
 1333000    1.0348553   -3.2743452    1281.6921   0.08012579  0.080825303            2 
 1334000    1.0466607   -3.2492868    1287.1552     0.080407  0.080812576            4 
 1335000    1.0555281   -3.2925075    1278.2076  0.079788238  0.080799937            2 
 1336000    1.0091272   -3.2472133    1282.3974  0.079989857  0.080787069            4 
 1337000    1.0256842   -3.2436234    1277.8011  0.079643548  0.080774022            2 
 1338000    1.0490431   -3.2683539    1285.4121  0.080058053  0.080761355            2 
 1339000    1.0396776   -3.3067772    1281.0284  0.079725441  0.080748387            3 
 1340000     1.043131   -3.2620175     1289.664  0.080202987  0.080735161            2 
 1341000    1.0280069   -3.2965264    1282.7442  0.079713164  0.080722282            2 
 1342000    1.0235141    -3.288723    1286.4547  0.079884173  0.080708966            3 
 1343000    1.0314833    -3.247391    1290.2996  0.080063264  0.080695673            3 
 1344000    1.0371822   -3.2735027    1285.8655  0.079728766  0.080682547            1 
 1345000    1.0417457   -3.2748934     1293.192  0.080123421  0.080669031            4 
 1346000    1.0207214   -3.2941024    1290.7349  0.079911772  0.080656117            3 
 1347000    1.0684144   -3.2501377    1294.7967  0.080103731   0.08064295            3 
 1348000    1.0368712    -3.260223    1291.3047  0.079828434  0.080629454            3 
 1349000     1.029241   -3.2727695    1288.8969  0.079620513  0.080615265            3 
 1350000    1.0200102   -3.2836551    1287.9519  0.079503207  0.080601312            3 
 1351000    1.0592418   -3.2748687    1288.9637  0.079506769  0.080587024            2 
 1352000     1.022439   -3.3007059    1293.3141  0.079716103  0.080573009            5 
 1353000    1.0427948   -3.2837163    1289.9669  0.079451028  0.080559022            3 
 1354000    1.0337822   -3.2642642    1293.9195   0.07963562  0.080545135            2 
 1355000    1.0189885   -3.3119462    1292.6092  0.079496262  0.080531217            3 
 1356000    1.0387749   -3.2783147    1295.0481  0.079587519  0.080517005            4 
 1357000    1.0551587   -3.2821621    1290.2264  0.079232767  0.080503306            5 
 1358000     1.044745   -3.2734107    1297.8099   0.07963978   0.08048954            3 
 1359000    1.0439717    -3.292412    1297.2298  0.079545609  0.080475752            2 
 1360000    1.0364653   -3.2451664    1302.4865  0.079809221  0.080462546            2 
 1361000    1.0205979   -3.2726943    1303.2777  0.079799023  0.080448872            4 
 1362000    1.0485415   -3.2892736     1299.913  0.079534571  0.080435332            6 
 1363000      1.03841   -3.2557408    1301.5061  0.079573619  0.080421805            3 
 1364000    1.0185972   -3.2708646    1298.3181  0.079320511   0.08040808            1 
 1365000    1.0326689   -3.2633034    1305.5433  0.079703496  0.080394829            1 
 1366000    1.0251536   -3.3008071    1305.0182  0.079613116  0.080380783            5 
 1367000    1.0347606   -3.3080713    1302.1834  0.079382065  0.080366991            3 
 1368000    1.0464324   -3.2811928    1308.7968  0.079726899  0.080353378            3 
 1369000    1.0156307   -3.2726934    1300.4913  0.079163091  0.080339484            8 
 1370000    1.0480553   -3.2873999    1308.0337  0.079564092   0.08032593            3 
 1371000    1.0419397   -3.2792344    1308.4204  0.079529563  0.080312476            2 
 1372000    1.0309671   -3.2741507    1315.0482  0.079874165   0.08029921            5 
 1373000    1.0380184   -3.2568336    1314.2972  0.079770407  0.080286103            3 
 1374000    1.0333777   -3.3125576    1315.5544  0.079788598  0.080273213            2 
 1375000     1.028867   -3.2542021    1308.7928  0.079320775  0.080259471            2 
 1376000    1.0250929   -3.2726599    1313.6066  0.079554665  0.080245898            2 
 1377000    1.0431687   -3.2930912    1305.2067  0.078988542  0.080232458            2 
 1378000    1.0425582   -3.2794885     1315.513  0.079554486  0.080218726            1 
 1379000    1.0265801   -3.2936324    1311.0652  0.079228013   0.08020555            2 
 1380000    1.0301381   -3.2702509    1315.1984  0.079420193  0.080192187            2 
 1381000    1.0250934   -3.2807951    1318.0121  0.079532472  0.080178652            3 
 1382000    1.0179122   -3.2777139    1313.2158  0.079185707  0.080164845            3 
 1383000    1.0476817    -3.288354    1315.8395  0.079286545  0.080151118            2 
 1384000    1.0124456   -3.2872337    1313.5499  0.079091396  0.080137764            2 
 1385000    1.0195504   -3.2965642     1314.962  0.079119253  0.080123655            4 
 1386000     1.038115   -3.3028371    1312.3386  0.078904438  0.080109935            4 
 1387000    1.0106171    -3.288993    1314.2422  0.078961922   0.08009591            3 
 1388000    1.0301948   -3.2922413    1319.4793  0.079219459  0.080082415            1 
 1389000    1.0155849   -3.2728737    1327.2656  0.079629565  0.080068393            2 
 1390000    1.0308785   -3.2895747    1316.3313  0.078916746  0.080054742            2 
 1391000    1.0168634   -3.2629708    1325.2268  0.079392929  0.080040381            2 
 1392000    1.0264066   -3.3025728    1319.6213  0.079000315  0.080026028            3 
 1393000    1.0443252   -3.2711596    1320.9677  0.079024151  0.080012162            2 
 1394000    1.0487011   -3.2920957    1317.9538  0.078787293  0.079997757            1 
 1395000    1.0435075   -3.2885101    1323.5741  0.079066553  0.079983351            3 
 1396000    1.0608754   -3.2984885    1319.0527   0.07874001  0.079969188            2 
 1397000      1.02409   -3.2776813    1321.3143  0.078818557  0.079954924            3 
 1398000    1.0102179   -3.2837346    1326.2733  0.079057778   0.07994099            4 
 1399000    1.0339691   -3.2878138    1327.6865   0.07908545  0.079926797            3 
 1400000    1.0256752    -3.268159    1328.1176  0.079054618  0.079912494            4 
 1401000    1.0331787   -3.3124924    1324.9552  0.078810088  0.079898314            1 
 1402000     1.009087   -3.2915832     1322.766  0.078623752  0.079883565            2 
 1403000    1.0271004   -3.2590405    1333.2654  0.079191337  0.079868887            7 
 1404000    1.0325592   -3.2952805    1324.0517  0.078588063  0.079853917            4 
 1405000    1.0051937   -3.3248128    1323.9416  0.078525598  0.079839035            5 
 1406000    1.0214864   -3.3101939    1331.5743  0.078922135  0.079823928            2 
 1407000    1.0274079   -3.2981121    1326.2417  0.078550209  0.079808861            1 
 1408000    1.0347156   -3.2832524    1336.1036  0.079078099  0.079793759            1 
 1409000    1.0438399   -3.2879132     1328.071    0.0785469  0.079778635            3 
 1410000    1.0187722    -3.263818    1331.8342  0.078713605  0.079763376            4 
 1411000    1.0180417   -3.2952719    1328.7973   0.07847846  0.079748156            4 
 1412000    1.0264598   -3.3144918    1326.8105  0.078305623  0.079733101            4 
 1413000    1.0401142   -3.2676401    1331.8035  0.078544676  0.079717641            2 
 1414000     1.027911   -3.2756965    1333.0196  0.078560797  0.079702012            1 
 1415000    1.0178485   -3.2926684    1332.4926   0.07847424   0.07968641            4 
 1416000    1.0282008   -3.2831088      1327.58  0.078129711  0.079670649            2 
 1417000    1.0208299   -3.2830786    1334.0012  0.078452201  0.079654495            2 
 1418000    1.0394005   -3.3150966    1332.3896  0.078302162  0.079638531            7 
 1419000    1.0241952   -3.3040301    1331.4105   0.07818948  0.079622424            2 
 1420000      1.02275   -3.2814454     1338.924   0.07857535  0.079605958            1 
 1421000    1.0095576   -3.3159687    1335.9074  0.078343151  0.079589737            3 
 1422000    1.0494256   -3.2933858    1336.2601  0.078308724  0.079573713            2 
 1423000    1.0112132   -3.3215803    1330.0668  0.077891005  0.079557444            3 
 1424000    1.0159023   -3.3166182    1331.7997  0.077937714  0.079541194            2 
 1425000    1.0306085   -3.3018014    1333.5417  0.077984895  0.079523916            2 
 1426000     1.020195   -3.3005327    1330.8322   0.07777187  0.079506921            2 
 1427000    1.0283516   -3.2917609    1329.6274  0.077647007  0.079489974            4 
 1428000    1.0124169   -3.2905335     1335.132  0.077913864  0.079473001            2 
 1429000    1.0314009   -3.3027983    1339.0418  0.078087348  0.079456054            2 
 1430000    1.0404523    -3.301067    1338.1481  0.077980658  0.079439175            2 
 1431000    1.0058788   -3.3026479       1339.8  0.078022364  0.079422584            3 
 1432000    1.0127774    -3.311591    1334.7515  0.077674086  0.079406043            2 
 1433000    1.0208833   -3.2969247    1338.1281  0.077816243  0.079389011            2 
 1434000    1.0325497   -3.3111564    1334.4207  0.077546532  0.079371947            2 
 1435000    1.0097182   -3.2803877    1342.8857  0.077984069  0.079355505            1 
 1436000    1.0269547   -3.3028106    1341.7001  0.077860964  0.079338862            2 
 1437000    1.0245059   -3.2985705    1339.0859   0.07765518   0.07932162            2 
 1438000    1.0334492   -3.2878078    1344.1325  0.077893628  0.079304482            3 
 1439000    1.0190076   -3.2931649    1340.9882  0.077657413  0.079287771            3 
 1440000    1.0382457   -3.3271412    1344.6002  0.077812513  0.079271052            2 
 1441000    1.0193585   -3.3066249    1336.5259  0.077291576  0.079254203            1 
 1442000    1.0230235   -3.2683751    1336.7564  0.077251297    0.0792376            2 
 1443000    1.0127326    -3.297393    1347.1136  0.077795886  0.079220769            4 
 1444000    1.0370406   -3.2876912    1343.1557  0.077513601  0.079203711            2 
 1445000    1.0342972   -3.3265463    1346.7391  0.077666616  0.079186461            1 
 1446000    1.0290291   -3.2504635    1351.3067  0.077876135  0.079169773            2 
 1447000    1.0015798    -3.289863    1347.2197  0.077586941   0.07915292            2 
 1448000    1.0150084   -3.3167282     1343.699  0.077330745  0.079135576            2 
 1449000    1.0154434   -3.2852474    1349.7419  0.077624906   0.07911839            3 
 1450000    1.0344171   -3.2833193    1347.0429  0.077416257  0.079101074            3 
 1451000    1.0247688   -3.2886154    1346.7931  0.077348558  0.079083768            3 
 1452000    1.0356024   -3.2802725    1350.9822  0.077535709  0.079066531            3 
 1453000    1.0132162   -3.2682274    1354.3267  0.077674161  0.079049426            3 
 1454000    1.0159609   -3.3199235    1345.2089  0.077098169  0.079031461            2 
 1455000     1.022426   -3.2940252     1351.276  0.077392672  0.079013683            2 
 1456000    1.0159299   -3.3012708    1349.2077  0.077221136   0.07899582            2 
 1457000   0.99502047   -3.3294941    1350.5397  0.077244322  0.078977588            1 
 1458000    1.0246547   -3.3006779    1349.2494  0.077117593  0.078959331            4 
 1459000    1.0230131   -3.3161567    1346.6735  0.076917609  0.078941323            2 
 1460000    1.0158941   -3.3169896    1347.7551  0.076926662  0.078923184            5 
 1461000    1.0184086   -3.2876385     1354.819  0.077276921  0.078905659            2 
 1462000    1.0190192    -3.318308    1351.9313  0.077059465  0.078887706            2 
 1463000    1.0094943   -3.3221829    1350.9206  0.076949225  0.078870004            2 
 1464000   0.99235235   -3.2964298    1359.5219  0.077386264  0.078852391            3 
 1465000    1.0218297   -3.3230663     1360.297   0.07737753  0.078835477            2 
 1466000     1.043704    -3.317273    1351.9176  0.076848429  0.078817828            2 
 1467000    1.0194005   -3.3281972    1354.4055  0.076937373  0.078800368            4 
 1468000    1.0190134    -3.317849    1360.9868  0.077258562  0.078782798            3 
 1469000    1.0241374   -3.3047985    1359.5759   0.07712593  0.078765715            1 
 1470000   0.99744082   -3.3020012    1359.2281  0.077053749  0.078748678            2 
 1471000    1.0147906   -3.3322081    1359.2113  0.077000415  0.078731202            2 
 1472000    1.0160229   -3.3204811    1359.5876  0.076969409  0.078714046            2 
 1473000    1.0108562   -3.3234184    1359.8053  0.076929471  0.078697126            2 
 1474000    1.0074525   -3.2991257    1371.6057  0.077544422  0.078680018            2 
 1475000    1.0083535   -3.3064656    1365.1549  0.077127393  0.078663107            4 
 1476000    1.0075758    -3.311294    1368.2424   0.07724946  0.078646489            3 
 1477000    1.0254925   -3.2993482    1374.3856  0.077543758  0.078629895            2 
 1478000    1.0190096   -3.2954159    1370.6812  0.077282429  0.078613076            1 
 1479000    1.0246753   -3.3148324    1374.4051  0.077440002  0.078596444            3 
 1480000   0.99016837   -3.2931673    1371.7497  0.077238161  0.078579662            3 
 1481000    1.0144438   -3.3387305    1363.7057  0.076733382  0.078562816            2 
 1482000    1.0039425   -3.3089748    1368.7864  0.076967295  0.078545521            2 
 1483000    1.0409808   -3.2940999    1367.6375  0.076850837  0.078528543            2 
 1484000      1.00425   -3.3160998    1371.5685  0.077019796  0.078511707            3 
 1485000   0.99335036   -3.3019924    1373.6408  0.077084218  0.078495296            1 
 1486000     1.012579   -3.2971185    1372.5784  0.076972766  0.078478706            2 
 1487000    1.0230693   -3.3324767    1375.5997  0.077090321  0.078462466            7 
 1488000   0.98115328   -3.3369044    1372.6808  0.076875044  0.078445681            2 
 1489000    1.0090236   -3.3197678    1379.4346  0.077201397  0.078429388            2 
 1490000    1.0154254   -3.3153152    1377.9333  0.077065622  0.078412833            2 
 1491000    1.0149666   -3.3070769    1377.0263  0.076963242  0.078396605            4 
 1492000   0.99473498   -3.3150999    1382.9277   0.07724127  0.078380376            2 
 1493000    1.0243424   -3.3301329    1380.7547  0.077068246  0.078364438            4 
 1494000    1.0286599   -3.2908963    1383.4797  0.077168659  0.078348387            3 
 1495000    1.0176854   -3.3397148    1375.7672  0.076687134  0.078332441            2 
 1496000    1.0126601    -3.327721    1383.6547  0.077075241  0.078316055            2 
 1497000    1.0109036   -3.2953545    1382.9516  0.076984612  0.078299806            2 
 1498000   0.99273485   -3.3093913    1385.2007  0.077058338  0.078284106            3 
 1499000     1.017337   -3.2960687    1384.3852  0.076961598  0.078268213            1 
 1500000    1.0115411   -3.3430545    1379.4538  0.076636324  0.078252227            2 
 1501000     1.013896    -3.292162    1390.0985  0.077176241  0.078235993            4 
 1502000   0.99666463   -3.2977079    1390.6654  0.077156311   0.07821986            2 
 1503000    1.0204484   -3.3305015    1382.7616  0.076666753  0.078203411            3 
 1504000    1.0121171    -3.306704    1388.8769  0.076954614   0.07818675            5 
 1505000    1.0039532   -3.3080761    1393.4997  0.077159453  0.078170397            3 
 1506000   0.99641942   -3.2990965    1391.6445  0.077005564  0.078153462            2 
 1507000   0.98717364   -3.3398076    1387.8597   0.07674517   0.07813707            1 
 1508000    1.0083089   -3.3398737     1385.523  0.076565154  0.078119989            4 
 1509000   0.99836635   -3.3058514    1388.3223  0.076669004  0.078103103            1 
 1510000    1.0236643   -3.3248126    1383.2148  0.076336356  0.078085876            2 
 1511000   0.98225814   -3.3059028    1395.7975  0.076979789  0.078069079            3 
 1512000    1.0001046   -3.3010484     1388.196  0.076509918  0.078052619            2 
 1513000    1.0127509   -3.3164186    1390.7933  0.076602408  0.078035707            1 
 1514000    1.0143857   -3.3291341    1390.9166  0.076558597  0.078019005            2 
 1515000    1.0117141   -3.2876759    1392.0208  0.076568799  0.078002152            3 
 1516000    1.0004697   -3.3134464    1395.1629  0.076691013  0.077985405            2 
 1517000    1.0227342   -3.3437647    1389.1793  0.076311763  0.077968566            3 
 1518000    1.0242414   -3.3065972    1393.6923  0.076509237  0.077951724            3 
 1519000    1.0018145   -3.3140614    1392.1815  0.076375987  0.077934998            3 
 1520000    1.0248396   -3.3179326    1394.1714  0.076434837  0.077917807            6 
 1521000    1.0290142   -3.3438401     1395.195  0.076440663  0.077900944            1 
 1522000    1.0249278   -3.3350657    1390.3961  0.076127691  0.077883847            3 
 1523000   0.99115931   -3.3075081    1396.9388  0.076435696  0.077866565            2 
 1524000    1.0129318   -3.3082998    1398.2676  0.076458204  0.077849596            6 
 1525000     1.021028   -3.3420633    1396.2459  0.076297589  0.077832639            1 
 1526000    1.0066917   -3.2916501    1395.5845  0.076211475   0.07781538            3 
 1527000   0.99602428   -3.3102033    1393.9082  0.076070082  0.077798078            2 
 1528000    1.0189857   -3.2844929    1402.3165  0.076478868  0.077781286            2 
 1529000    1.0070854   -3.3525636    1400.2731  0.076317479  0.077764351            1 
 1530000    0.9992282   -3.3391146    1397.3432  0.076108017  0.077747228            2 
 1531000   0.99985193   -3.3034361    1408.8413  0.076684156  0.077729805            1 
 1532000     1.008938   -3.3258091     1401.412  0.076229983  0.077712739            3 
 1533000    1.0079062   -3.3209092    1402.9998  0.076266569  0.077695757            2 
 1534000    1.0189671   -3.3090162    1397.9603  0.075943086  0.077678404            2 
 1535000    1.0126504   -3.3481118    1399.4617  0.075975121  0.077660875            3 
 1536000   0.99622179   -3.3309065    1402.7141  0.076102112  0.077643458            2 
 1537000   0.99969713   -3.3164091    1402.3603  0.076033416  0.077625855            2 
 1538000    1.0134031   -3.3279073    1402.7307  0.076004049  0.077608446            2 
 1539000     1.020422   -3.3216262    1402.3219  0.075932528  0.077591291            4 
 1540000    1.0295454   -3.3066969    1404.9338  0.076024555  0.077574215            2 
 1541000   0.97515893   -3.3102826    1403.6235  0.075904365  0.077556887            2 
 1542000    1.0033112   -3.3204622    1404.9939  0.075929202  0.077539545            2 
 1543000    1.0245007   -3.3348785     1403.056  0.075775327  0.077521886            3 
 1544000   0.98942458   -3.2813441    1414.5179  0.076344878  0.077504499            1 
 1545000    0.9980661   -3.3193091     1409.055  0.076000809  0.077487239            3 
 1546000    1.0125849   -3.3005017    1410.2282  0.076014886  0.077469577            1 
 1547000     1.004007    -3.309149    1407.5501   0.07582149  0.077452351            1 
 1548000    1.0171645   -3.3268297    1405.3007  0.075651417  0.077435015            4 
 1549000    1.0017379   -3.3353604    1414.5917  0.076102417  0.077417677            2 
 1550000    1.0017019   -3.3376051    1417.7424   0.07622271  0.077400723            5 
 1551000    1.0192796   -3.3288121    1416.4057  0.076101748  0.077384163            5 
 1552000     1.015628   -3.3103119    1415.1668  0.075986188  0.077367719            2 
 1553000    1.0016383   -3.3039175    1413.8223  0.075865117   0.07735112            2 
 1554000   0.99093187   -3.3211438    1413.3568  0.075791334  0.077334328            3 
 1555000    1.0075432    -3.348594    1415.5116  0.075858068  0.077317918            3 
 1556000   0.98966957   -3.3229447    1423.2627   0.07622444  0.077301492            1 
 1557000    1.0119637   -3.3120136    1421.3737   0.07607438  0.077284885            3 
 1558000    0.9785855    -3.313626    1421.4032  0.076027127  0.077268475            2 
 1559000   0.99363544   -3.3362012    1422.4235  0.076032898  0.077252059            3 
 1560000   0.99427304   -3.3184854    1419.0993  0.075806584  0.077235485            3 
 1561000   0.98923644   -3.3451987    1422.4874  0.075938894  0.077218689            2 
 1562000   0.99055614   -3.3347988    1424.2767  0.075985739  0.077202072            3 
 1563000    1.0058479   -3.3336175    1421.0525  0.075765224  0.077185526            5 
 1564000   0.99541692    -3.324681    1426.0218  0.075981554  0.077169122            3 
 1565000    1.0019188   -3.3086888     1426.994  0.075984773  0.077153163            4 
 1566000   0.97951248   -3.3226106    1427.3594  0.075955694  0.077136997            3 
 1567000    1.0040266   -3.3271811    1430.6284   0.07608107  0.077120681            2 
 1568000   0.97266147   -3.3318343    1428.7985  0.075935294  0.077104184            3 
 1569000   0.99965249   -3.3522912    1430.9921  0.076003404  0.077087885            2 
 1570000    1.0188409   -3.3185192    1426.3311  0.075707596  0.077071586            2 
 1571000   0.99980435   -3.3021864    1430.4294  0.075876796  0.077055173            2 
 1572000    1.0133561   -3.3512324     1426.275    0.0756083  0.077039085            2 
 1573000    1.0060125   -3.3025008    1430.6479  0.075791898  0.077022865            2 
 1574000   0.98674371   -3.3295786    1427.5773  0.075581176  0.077006773            2 
 1575000    1.0041911    -3.361845    1434.7604   0.07591325  0.076990507            3 
 1576000    1.0058312    -3.349973    1431.1511  0.075674236   0.07697415            2 
 1577000   0.99623543   -3.3330005    1429.8252  0.075556183  0.076957454            2 
 1578000    1.0166293   -3.3242325    1428.2137  0.075423201  0.076941094            3 
 1579000   0.98193197    -3.313392    1435.8468  0.075778279  0.076924715            2 
 1580000    1.0028611   -3.3495551    1431.6134  0.075507035  0.076908439            2 
 1581000   0.97231483   -3.3301126     1430.453  0.075398113  0.076892127            3 
 1582000    1.0127724   -3.3285272    1434.6378  0.075570893   0.07687539            3 
 1583000   0.99532083   -3.3082427    1436.7152  0.075632512  0.076859214            3 
 1584000   0.96948359   -3.3393694    1435.9405  0.075544005  0.076842764            2 
 1585000   0.99428977   -3.3426788    1439.4599  0.075681383  0.076826552            2 
 1586000   0.99775002   -3.3293164    1441.4414  0.075737778  0.076810369            1 
 1587000    1.0093091    -3.350066    1435.7227  0.075389768  0.076794208            7 
 1588000   0.97734189   -3.3553564    1433.1993  0.075209869  0.076777945            2 
 1589000   0.98823465   -3.3483104    1438.5857  0.075445025  0.076761942            3 
 1590000    0.9985209   -3.3243438    1438.7968  0.075408636  0.076745695            2 
 1591000    1.0072219   -3.3487912    1443.3212  0.075598221  0.076729457            4 
 1592000   0.98666821   -3.3355136    1444.8646  0.075631522  0.076713549            3 
 1593000    1.0003495    -3.359339     1444.821  0.075581766  0.076697452            2 
 1594000   0.97530622   -3.3438467    1440.8897  0.075328821  0.076680898            9 
 1595000   0.96686826   -3.3239077    1450.1111  0.075763381  0.076665006            2 
 1596000   0.99353169   -3.3396811    1445.7821  0.075489876  0.076649056            2 
 1597000    1.0060992   -3.3394041    1445.9029  0.075448909  0.076633368            4 
 1598000   0.98489742   -3.3262488     1450.627   0.07564805  0.076617542            2 
 1599000   0.98942281   -3.3477643    1452.1975  0.075682587  0.076601886            3 
 1600000   0.99107806   -3.3325348    1453.0002  0.075677096  0.076586376            3 
 1601000    1.0041672   -3.3467447    1452.3962  0.075598386    0.0765703            3 
 1602000   0.99348049   -3.3360082    1454.7106  0.075671588  0.076554677            1 
 1603000    1.0019837   -3.3523728    1448.5018  0.075301613  0.076538935            4 
 1604000   0.99411368   -3.3431615    1454.4704  0.075564756  0.076523331            5 
 1605000   0.98807649   -3.3391405    1449.5063  0.075259934   0.07650744            3 
 1606000    1.0002987   -3.3329895     1456.763  0.075589612  0.076491855            3 
 1607000   0.98897872   -3.3492396    1454.4563  0.075422958  0.076476036            2 
 1608000   0.99452657   -3.3223046    1457.9402  0.075556602  0.076460351            3 
 1609000   0.99550491   -3.3339458    1459.6336  0.075597347  0.076444609            2 
 1610000    0.9909283   -3.3506625    1452.3616  0.075173995  0.076428789            7 
 1611000    1.0035564   -3.3508585    1449.4494  0.074976693  0.076412725            2 
 1612000   0.98661621   -3.3582565    1455.5074   0.07524335  0.076396353            2 
 1613000   0.98681802   -3.3487059    1455.2883  0.075185384  0.076380129            1 
 1614000    1.0010306   -3.3126242    1453.0063   0.07502098  0.076363708            5 
 1615000   0.99317631   -3.3390926    1460.2417  0.075347871   0.07634769            4 
 1616000   0.98108155   -3.3294471    1454.7453  0.075017808  0.076332128            3 
 1617000    1.0104958   -3.3351479    1458.5635  0.075168186  0.076316083            1 
 1618000   0.99814472   -3.3339451    1461.4832  0.075272107  0.076300242            3 
 1619000   0.99586779   -3.3516687    1459.0313  0.075099408  0.076284601            4 
 1620000   0.99440652   -3.3330573    1459.1039  0.075056782  0.076268844            2 
 1621000   0.97767652    -3.319909    1467.4461  0.075439341  0.076253503            4 
 1622000   0.99111832   -3.3296652    1466.3744  0.075337772  0.076237562            2 
 1623000   0.98338528   -3.3600375    1459.6275  0.074944932  0.076221957            2 
 1624000   0.98521982   -3.3585731    1463.0675  0.075075304  0.076206092            5 
 1625000   0.98564619    -3.345318    1465.3819  0.075147791  0.076190081            4 
 1626000   0.99288221   -3.3466913     1462.802  0.074969351  0.076174156            3 
 1627000   0.98655452   -3.3469594    1469.3516  0.075258737  0.076157996            3 
 1628000   0.99992448   -3.3356052    1464.2319  0.074950447   0.07614196            4 
 1629000    1.0029408   -3.3162031    1474.8991  0.075450128  0.076125733            4 
 1630000   0.98832095   -3.3317335    1465.9193  0.074944751    0.0761098            2 
 1631000   0.99548944   -3.3387697    1465.6701  0.074886065  0.076093793            3 
 1632000   0.99758042   -3.3384184    1472.2495  0.075176137   0.07607797            3 
 1633000    1.0058193   -3.3474211    1470.0435   0.07501753  0.076062392            3 
 1634000   0.98495929   -3.3440299    1474.8268  0.075215565  0.076046316            5 
 1635000   0.98948414    -3.337485    1467.0865  0.074775049  0.076030278            2 
 1636000   0.99461846   -3.3391188    1473.3519  0.075048488  0.076014511            2 
 1637000    0.9785229   -3.3396652    1474.2913  0.075050461  0.075998437            1 
 1638000   0.98513626   -3.3423169    1476.9161   0.07513818  0.075982506            1 
 1639000   0.97364983   -3.3259475    1467.7549  0.074626547  0.075966693            3 
 1640000    0.9966726    -3.332377     1478.415  0.075122713  0.075951066            2 
 1641000   0.96300159   -3.2872854    1479.0558  0.075109474  0.075935903            1 
 1642000    1.0092977   -3.3804493     1474.732  0.074844297  0.075920089            1 
 1643000   0.96636251   -3.3553244    1473.6575  0.074744246  0.075904511            2 
 1644000    1.0074713   -3.3586655    1476.2334  0.074829347  0.075888685            2 
 1645000   0.97035587   -3.3795685    1473.1716  0.074628756  0.075872641            3 
 1646000   0.98206006    -3.355677    1477.5707  0.074806133  0.075856731            2 
 1647000   0.96279076   -3.3556776    1478.0484  0.074784882  0.075841195            2 
 1648000    1.0078675   -3.3364319    1475.8754  0.074629623    0.0758251            4 
 1649000    1.0078416    -3.345978    1480.5155  0.074818856  0.075809299            2 
 1650000   0.96099008   -3.3645864    1477.3094  0.074611587  0.075793078            3 
 1651000   0.99971082   -3.3596295    1479.1366  0.074658623  0.075777299            4 
 1652000   0.99407007   -3.3540847    1475.6212  0.074436097   0.07576133            3 
 1653000    0.9952695   -3.3888491    1474.8725  0.074353322  0.075745168            3 
 1654000      1.00035   -3.3562388      1483.63  0.074749595  0.075729096            3 
 1655000   0.97061615    -3.349067     1488.608  0.074955087  0.075713262            3 
 1656000    1.0086877   -3.3592668    1482.7915  0.074617124  0.075697199            3 
 1657000    0.9899433   -3.3248784    1489.9313  0.074931164  0.075681339            3 
 1658000   0.98225013   -3.3360695    1486.9121  0.074734222  0.075665815            2 
 1659000   0.98533036   -3.3723995    1482.9395  0.074489629  0.075649873            3 
 1660000   0.97595461   -3.3608605    1487.6155  0.074679495   0.07563416            3 
 1661000    0.9749758   -3.3379463     1490.654  0.074786975  0.075618416            4 
 1662000   0.99953657   -3.3556045    1486.2822  0.074522773  0.075602247            2 
 1663000   0.97240594   -3.3597337    1481.9343  0.074260089  0.075586121            3 
 1664000   0.99285523   -3.3669532    1489.0418  0.074571404   0.07556985            3 
 1665000   0.98258075   -3.3544158    1486.5116   0.07439998  0.075554052            2 
 1666000    1.0001255   -3.3687487    1482.8783  0.074173585  0.075538032            5 
 1667000   0.97131956    -3.359374    1481.6507  0.074067722  0.075522044            2 
 1668000   0.97714232    -3.361487    1486.1616  0.074248682  0.075505896            2 
 1669000   0.99267695   -3.3517116       1486.3  0.074211104  0.075489717            2 
 1670000   0.98868578   -3.3799512    1488.6073    0.0742818  0.075473624            4 
 1671000   0.99045417   -3.3825757     1484.312  0.074023139  0.075457012            4 
 1672000    0.9888547   -3.3508055    1494.6914  0.074496181  0.075440709            9 
 1673000    1.0155768   -3.3424699    1493.3671  0.074385689  0.075424693            4 
 1674000   0.97857836   -3.3567071    1492.9884  0.074322404  0.075408372            3 
 1675000    0.9684176    -3.341309    1490.7607  0.074167198  0.075392405            2 
 1676000   0.98502464   -3.3503494    1497.8868  0.074477266   0.07537621            2 
 1677000   0.98827191   -3.3318355    1495.3219    0.0743054  0.075360192            2 
 1678000   0.97264125   -3.3621858    1496.4289  0.074316094  0.075344108            5 
 1679000   0.98418217   -3.3315051    1497.4415  0.074322091  0.075328032            2 
 1680000    0.9736146   -3.3826185    1489.6704  0.073892381  0.075311793            3 
 1681000   0.99894333   -3.3715373     1499.533  0.074337349  0.075295599            3 
 1682000    1.0059198   -3.3531768    1495.1077  0.074073905  0.075279922            3 
 1683000    1.0045865   -3.3201336    1503.2943  0.074435251  0.075264416            1 
 1684000   0.96728748   -3.3335824    1502.7799  0.074365591  0.075248622            5 
 1685000   0.97651584    -3.353796    1495.6011  0.073966422  0.075232717            3 
 1686000    0.9757448   -3.3665835    1500.3911  0.074159309  0.075216716            3 
 1687000    0.9926272   -3.3451713    1495.9528  0.073896108  0.075201009            3 
 1688000    1.0006627   -3.3655352    1500.5244  0.074078023  0.075184824            2 
 1689000    0.9718393   -3.3514991    1505.5961  0.074284394  0.075169111            5 
 1690000   0.99408961   -3.3538692    1499.4102  0.073935416  0.075152774            4 
 1691000   0.99153897    -3.357221    1504.4017  0.074137674  0.075136808            3 
 1692000   0.99035679    -3.356104    1499.8307  0.073868732  0.075120609            3 
 1693000   0.98691899   -3.3788013     1502.964  0.073979328  0.075104367            2 
 1694000   0.97544522   -3.3973757    1499.5335  0.073766898  0.075088029            5 
 1695000   0.97792431   -3.3576251    1508.4137  0.074159965  0.075072013            2 
 1696000    0.9871725   -3.3166014    1504.5435  0.073926074   0.07505615            2 
 1697000    0.9680883   -3.3645239    1504.4747  0.073879137  0.075040375            2 
 1698000   0.99126202   -3.3618033    1504.1233  0.073818382  0.075024428            1 
 1699000   0.95889282   -3.3665717    1503.4781  0.073743286  0.075008111            2 
 1700000   0.98322032    -3.373612    1500.1112  0.073534861  0.074992165            4 
 1701000   0.97892871   -3.3579887    1505.6603  0.073763486  0.074976264            4 
 1702000   0.98676582    -3.367928    1509.5726  0.073911704  0.074960404            2 
 1703000   0.97877757   -3.3617725    1510.4477  0.073911122  0.074945006            1 
 1704000   0.99487188   -3.3521855    1510.0592  0.073848749  0.074929222            2 
 1705000   0.98530277   -3.3536107    1513.5787  0.073977454  0.074913227            2 
 1706000   0.98409442   -3.3531411    1512.9303  0.073902418  0.074897377            4 
 1707000    0.9743804   -3.3645627    1512.6858  0.073847186  0.074882028            7 
 1708000    1.0000526   -3.3710894    1514.2546  0.073880493  0.074866255            2 
 1709000   0.99198994   -3.3705226    1519.3374  0.074085109  0.074850717            3 
 1710000   0.95950943   -3.3472486    1521.9969  0.074171387   0.07483532            2 
 1711000   0.98866069   -3.3389704     1517.279  0.073898258  0.074819978            3 
 1712000   0.96945399   -3.3709805    1516.6523  0.073824587  0.074804697            4 
 1713000   0.98457226   -3.3557892    1515.5826  0.073729451  0.074789318            2 
 1714000   0.97577241   -3.3764826    1516.3917  0.073725772  0.074773751            1 
 1715000   0.99772066   -3.3435862    1525.0457  0.074103291  0.074758302            5 
 1716000   0.98672534   -3.3895099    1511.6843  0.073411241  0.074743095            4 
 1717000   0.98906363   -3.3630031    1518.6793  0.073707982  0.074727555            2 
 1718000   0.94766526   -3.3721548    1522.8424  0.073867015  0.074712147            3 
 1719000   0.97753838   -3.3381245    1523.7981  0.073870377  0.074696829            5 
 1720000   0.95575455   -3.3775515    1521.6782   0.07372472   0.07468114            2 
 1721000   0.97760717   -3.3536959     1523.112  0.073751305  0.074665481            3 
 1722000    0.9734326   -3.3529369    1528.8611  0.073986698  0.074650054            2 
 1723000   0.99123743   -3.3664243    1522.2398  0.073623515  0.074634247            2 
 1724000   0.97050775   -3.3508439     1518.466  0.073398395  0.074618206            1 
 1725000   0.96757685   -3.3684576    1521.1003  0.073483107  0.074602342            3 
 1726000   0.98591175   -3.3764363    1524.4708  0.073603263  0.074585679            2 
 1727000   0.96756818   -3.3711929    1521.5845  0.073421372  0.074569622            3 
 1728000   0.97067909   -3.3669934    1521.8002  0.073389286  0.074553364            3 
 1729000   0.97252508   -3.3479135    1527.1762  0.073605946  0.074537548            4 
 1730000   0.98288857   -3.3626455    1523.6536  0.073393717  0.074521548            3 
 1731000   0.99099353   -3.3577917    1525.0997  0.073420938  0.074505769            3 
 1732000    0.9840862   -3.3720322    1521.5107  0.073205864  0.074490306            2 
 1733000   0.97664393   -3.3504053    1532.7454  0.073703855  0.074474687            2 
 1734000   0.96655951   -3.3787458    1523.9406  0.073238205  0.074459099            2 
 1735000   0.97469638   -3.3547684    1532.8748   0.07362511  0.074443239            2 
 1736000   0.95617862   -3.3644196    1529.5946  0.073425242  0.074427499            2 
 1737000   0.99205803   -3.3938687      1528.89  0.073349164  0.074411856            2 
 1738000   0.97379446   -3.3709031    1529.4612  0.073334349   0.07439618            4 
 1739000   0.96906144   -3.3457659    1535.1763  0.073566048   0.07438071            3 
 1740000   0.98443044   -3.3677492    1537.1299   0.07361733  0.074365085            2 
 1741000   0.99475207   -3.3834457    1526.9819   0.07308931  0.074349301            4 
 1742000    0.9925835   -3.3656284    1537.1889  0.073535635  0.074333892            3 
 1743000   0.98199799   -3.3325625    1537.9707  0.073530825  0.074318588            3 
 1744000    0.9556739   -3.3495628    1536.4903  0.073417922  0.074303471            1 
 1745000   0.96559238   -3.3620365    1538.0216  0.073448978  0.074288501            2 
 1746000   0.98988666   -3.3562182    1535.4687  0.073285067  0.074273335            2 
 1747000   0.98108274    -3.338203    1545.4967  0.073721459  0.074258324            1 
 1748000   0.95951497    -3.401411    1538.9445  0.073366919  0.074243325            2 
 1749000   0.97458187   -3.3791836    1545.1042  0.073618459  0.074228593            2 
 1750000   0.96523831   -3.3644293    1542.0727  0.073432034  0.074213712            1 
 1751000   0.96671256   -3.3787139    1545.2291  0.073540316  0.074198854            7 
 1752000   0.95822837   -3.3438168    1546.0392  0.073536873  0.074183723            3 
 1753000   0.94690049   -3.3607723    1544.1171   0.07340355  0.074168965            4 
 1754000   0.97025524   -3.3756632    1545.4319  0.073424166  0.074154057            4 
 1755000   0.95411925   -3.3690068    1552.3919  0.073712816  0.074139161            2 
 1756000   0.98083163   -3.3623564    1546.6646  0.073399044  0.074124142            1 
 1757000   0.95807438   -3.3735423    1549.8858  0.073510045   0.07410955            3 
 1758000   0.97789633   -3.3873852    1542.6988  0.073127548  0.074094682            3 
 1759000   0.96996263   -3.3686232    1553.3731  0.073591675  0.074080047            4 
 1760000   0.97093648   -3.3609946    1554.5006  0.073603248  0.074065419            3 
 1761000   0.95646418   -3.3750305    1553.2578  0.073502639  0.074050905            2 
 1762000    0.9737519   -3.3756529     1554.979  0.073542329  0.074036242            3 
 1763000   0.93926768   -3.3972591    1549.5208  0.073242616  0.074021578            3 
 1764000   0.97572261    -3.396448    1546.1301  0.073040917  0.074006776            3 
 1765000   0.96513751   -3.3893229    1549.6561   0.07316601  0.073992071            4 
 1766000   0.97048201   -3.3930446    1553.4888  0.073305436  0.073977036            2 
 1767000    0.9619274    -3.390168    1549.5212  0.073076833  0.073961978            2 
 1768000   0.97360329    -3.379018    1553.3617   0.07321652   0.07394704            2 
 1769000     0.975842    -3.385404    1550.5829   0.07304423  0.073932375            3 
 1770000   0.96414571   -3.3697828    1551.2307  0.073033459  0.073917307            3 
 1771000   0.96713419   -3.3990949    1553.0352  0.073077133  0.073901952            3 
 1772000   0.96510724   -3.3745818    1553.7974  0.073071735  0.073886592            2 
 1773000   0.96357192    -3.374955    1554.1863    0.0730488   0.07387125            5 
 1774000   0.95582691   -3.3689551    1549.9656  0.072809357  0.073855759            2 
 1775000   0.96690727   -3.3970758    1554.3334    0.0729734  0.073840211            5 
 1776000   0.98030885    -3.383588    1550.7471  0.072764036  0.073824802            2 
 1777000   0.94489142   -3.3675102      1556.72  0.073003187  0.073809352            4 
 1778000   0.97365235   -3.3728961    1549.3658  0.072617447  0.073793925            3 
 1779000   0.97156725    -3.362545    1558.5245  0.073005645  0.073778326            5 
 1780000   0.96103415   -3.3835474    1551.4833  0.072634988  0.073762531            3 
 1781000   0.97313482   -3.3495871    1556.1919  0.072814519  0.073746744            3 
 1782000   0.94740882    -3.368994    1557.8696  0.072852112  0.073731068            3 
 1783000   0.95892225    -3.369036    1559.6255  0.072893322  0.073715424            4 
 1784000   0.98174963   -3.3675247    1562.8309  0.073002193  0.073699913            2 
 1785000   0.96673379   -3.3915051    1560.5435  0.072854504  0.073684483            5 
 1786000   0.97385782   -3.3559255    1561.5353   0.07285999  0.073669195            4 
 1787000    0.9795285    -3.363732    1562.1502  0.072847894  0.073654087            3 
 1788000   0.94344668   -3.3591912    1563.0477  0.072848979  0.073638906            2 
 1789000   0.96758997   -3.3915711    1566.0528  0.072948237  0.073623827            2 
 1790000   0.95556588   -3.3911043    1561.0455  0.072674371  0.073608047            3 
 1791000   0.94293004   -3.3969366    1559.6374  0.072568279  0.073592064            2 
 1792000   0.96534598   -3.3701719    1560.2133   0.07255456  0.073576233            4 
 1793000    0.9861018   -3.3782069    1565.1692  0.072744434  0.073560568            2 
 1794000   0.96324038   -3.4073713    1566.0936  0.072746823  0.073544939            2 
 1795000   0.96423695    -3.358808    1568.0894  0.072798949  0.073529524            1 
 1796000   0.94802641   -3.3624081    1562.7136  0.072508984  0.073513991            5 
 1797000   0.98229892    -3.378188    1567.4677  0.072689095   0.07349841            4 
 1798000   0.97232548   -3.3805194    1570.2849  0.072779239  0.073482537            2 
 1799000     0.944885   -3.3673685    1563.5939  0.072428844  0.073466699            1 
 1800000   0.94954832   -3.3857845    1568.7592  0.072627739  0.073451164            1 
 1801000   0.96070027   -3.3865448    1569.4149  0.072617754  0.073435626            2 
 1802000   0.94554029   -3.3695331    1568.2163  0.072522028  0.073419945            2 
 1803000   0.95734586      -3.3968    1566.7545   0.07241424  0.073403982            3 
 1804000   0.97417506   -3.3847872    1568.5059  0.072455002  0.073388255            2 
 1805000   0.96028687   -3.3753841    1568.6159  0.072419938   0.07337264            4 
 1806000   0.97857315   -3.3525179    1570.6104  0.072471871  0.073357179            2 
 1807000   0.94206727   -3.3839902    1568.2888    0.0723247  0.073341735            4 
 1808000    0.9556394    -3.355305    1575.9285  0.072636821  0.073326513            6 
 1809000   0.96047287   -3.3957907    1574.6507  0.072537806  0.073311148            2 
 1810000   0.95910389   -3.4072997    1564.1247  0.072013108  0.073295428            7 
 1811000   0.96618476   -3.3844668     1575.883  0.072514404  0.073280157            2 
 1812000   0.96750472   -3.3790217    1574.8371  0.072426285  0.073264722            5 
 1813000   0.94663414   -3.3729737    1581.6925   0.07270144   0.07324969            1 
 1814000   0.95988964   -3.3704509    1572.0887  0.072220173  0.073234746            3 
 1815000   0.96857664   -3.3632332    1583.1726  0.072689283  0.073219707            5 
 1816000   0.95958215   -3.3815036    1582.8884  0.072636214  0.073204441            4 
 1817000   0.95775312   -3.3858282    1579.5941  0.072445153   0.07318956            3 
 1818000   0.94922712   -3.3844913    1582.7088  0.072548074  0.073174746            1 
 1819000   0.96459917   -3.3772714    1580.2898  0.072397372  0.073159883            4 
 1820000   0.96183166   -3.3608276    1585.5658  0.072599169  0.073145258            3 
 1821000   0.93953105   -3.3902667     1583.021  0.072442841  0.073130191            3 
 1822000   0.96031054   -3.3708397    1589.0481  0.072678745  0.073115536            9 
 1823000   0.93613922   -3.3937702    1586.0991  0.072504075  0.073100569            3 
 1824000   0.94856353   -3.3664768    1594.5926  0.072852367   0.07308582            5 
 1825000     0.956186   -3.3909439    1587.0886  0.072469798  0.073071083            7 
 1826000   0.95089755   -3.4013754    1580.2453  0.072117804  0.073056382            4 
 1827000    0.9704187   -3.3851151    1583.2069  0.072213413  0.073041645            9 
 1828000   0.94933894   -3.3848586    1584.9594  0.072253803  0.073026915            3 
 1829000   0.93971158   -3.3847085    1591.5986  0.072516794  0.073012096            2 
 1830000    0.9525278   -3.3823051    1589.2408    0.0723698  0.072997526            2 
 1831000   0.95519294   -3.3703102    1592.3057  0.072469765  0.072982798            4 
 1832000   0.96178655   -3.3771812    1588.6463  0.072263751  0.072968344            3 
 1833000    0.9454273   -3.4043207    1585.6321  0.072087293  0.072953524            2 
 1834000    0.9838066   -3.3748316    1590.8202  0.072283726  0.072938967            6 
 1835000   0.96314688   -3.3943736    1588.5221  0.072139969  0.072924606            4 
 1836000    0.9674315   -3.3730057     1596.553  0.072465187  0.072909748            7 
 1837000   0.96058288    -3.415507    1592.3655  0.072235779  0.072895211            2 
 1838000   0.96194311    -3.421163    1595.0653  0.072318883  0.072880612            2 
 1839000   0.95829857   -3.4036063    1598.2976   0.07242603  0.072866283            5 
 1840000   0.96521611   -3.4059553    1596.7067  0.072314617  0.072852164            3 
 1841000   0.96394544   -3.3858849    1602.2447  0.072526013  0.072838028            5 
 1842000   0.95715371    -3.427619    1594.2361  0.072124327  0.072824048            1 
 1843000   0.96234786   -3.3841505    1603.0949  0.072485754  0.072809865            3 
 1844000   0.92955147    -3.361432    1608.2082  0.072677521  0.072795773            4 
 1845000   0.96321027   -3.3793007    1603.3948  0.072420722  0.072781908            4 
 1846000   0.96588831   -3.3764896    1598.2206  0.072147915  0.072767732            3 
 1847000   0.97363867   -3.3970658    1604.7123  0.072401745  0.072753652            1 
 1848000   0.96305275   -3.3861916    1607.2119  0.072475285  0.072739895            3 
 1849000   0.95421091   -3.3823518    1601.2771  0.072168609  0.072725742            3 
 1850000   0.95827203   -3.3893601    1606.1065  0.072347138  0.072711469            2 
 1851000   0.94437435    -3.402022    1604.1731  0.072221009  0.072697412            4 
 1852000   0.95348833   -3.3790061    1606.9023  0.072304818  0.072683511            2 
 1853000   0.93826688   -3.3938973    1609.0459    0.0723622   0.07266966            2 
 1854000   0.95799063   -3.4077359     1609.641  0.072349918  0.072655749            2 
 1855000   0.96600244   -3.4150852    1605.5407  0.072126717  0.072641585            2 
 1856000   0.93746159   -3.3880416    1608.7196  0.072230587  0.072627414            5 
 1857000   0.94916462   -3.3794179    1609.6509  0.072233484  0.072613188            4 
 1858000   0.96723113   -3.3994817    1608.5545  0.072145431  0.072599091            1 
 1859000   0.94130414    -3.375497    1610.1176  0.072176691   0.07258489            2 
 1860000   0.96001539   -3.3963948    1611.7706  0.072211946  0.072570756            6 
 1861000   0.96614748   -3.3875208     1609.935  0.072090947  0.072556593            2 
 1862000   0.95505591    -3.420192    1609.1133  0.072015455  0.072542197            3 
 1863000   0.94467345   -3.3885633    1610.2169  0.072026165  0.072527924            3 
 1864000   0.93852112   -3.3829386    1618.4213  0.072354312  0.072513723            3 
 1865000   0.94177837   -3.4119982    1613.8514  0.072111325  0.072499649            3 
 1866000   0.96636198   -3.4002346    1613.2278   0.07204483  0.072485624            3 
 1867000   0.96851513   -3.3915046    1616.9519  0.072172466  0.072471432            3 
 1868000   0.95930445   -3.4149326    1613.4882  0.071979308  0.072457131            3 
 1869000   0.96463717   -3.3709969     1617.941  0.072139333  0.072442909            4 
 1870000   0.96146418   -3.4103449    1607.7785  0.071647883  0.072428838            2 
 1871000   0.94361666   -3.3996189    1620.3075  0.072167624  0.072414421            2 
 1872000   0.94989365   -3.4065283    1611.1842  0.071722945   0.07240013            3 
 1873000   0.96504891   -3.3867545    1621.7222  0.072153505    0.0723858            2 
 1874000   0.95252204   -3.3886314    1622.0609  0.072130067  0.072371609            5 
 1875000   0.96748038   -3.3829544    1612.6041  0.071671294  0.072357742            3 
 1876000   0.96365523   -3.3670417    1622.8673  0.072088988  0.072344042            3 
 1877000    0.9288496   -3.3846524    1623.2672  0.072068336  0.072330498            2 
 1878000   0.95698285   -3.3999301    1626.3235  0.072165581  0.072317034            2 
 1879000   0.92947688   -3.4067803    1621.6461   0.07191973  0.072303399            2 
 1880000   0.93346079   -3.4088882     1625.981  0.072073626  0.072289617            1 
 1881000   0.96270767   -3.4175128     1621.018  0.071815435  0.072275726            2 
 1882000   0.97396624   -3.4172856    1625.6858  0.071983961  0.072261517            2 
 1883000   0.94025393   -3.3848292    1625.9491  0.071957384  0.072247617            5 
 1884000   0.95008879   -3.4353625    1623.8172  0.071824893  0.072233281            2 
 1885000   0.94932488   -3.3909485    1623.7541  0.071784003  0.072218919            1 
 1886000    0.9567185   -3.3784819    1628.1383  0.071939658  0.072204381            1 
 1887000   0.92505717   -3.3782402    1630.3948  0.072001184  0.072190151            3 
 1888000   0.95838581   -3.4007337    1626.3704  0.071785417  0.072175861            5 
 1889000   0.95343102   -3.4209931    1619.8139  0.071458174  0.072161543            1 
 1890000    0.9392767    -3.399797    1623.7309  0.071593072  0.072147197            2 
 1891000   0.95319246   -3.4099403     1621.084  0.071438569  0.072132599            2 
 1892000   0.96809223   -3.3918358    1624.5136  0.071551867  0.072117952            2 
 1893000   0.96083381   -3.3940609    1622.3986  0.071420962    0.0721034            2 
 1894000   0.94717149   -3.3916216    1628.6072  0.071656425  0.072089171            3 
 1895000   0.94804034   -3.4077057    1620.8609  0.071277963  0.072074853            3 
 1896000   0.93425471   -3.4071149    1629.3353  0.071612839  0.072060501            8 
 1897000   0.95405125   -3.3871719    1630.3406   0.07161925  0.072046254            2 
 1898000   0.92892114   -3.3743037     1631.162  0.071617578   0.07203161            4 
 1899000   0.94290567   -3.3781579    1628.8346  0.071477733  0.072017058            3 
 1900000   0.94894693   -3.4108387    1625.5461  0.071295881  0.072002046            1 
 1901000   0.95926952   -3.4029709    1622.9672  0.071145329  0.071986758            2 
 1902000   0.94886559    -3.399268    1628.1529  0.071335127  0.071971964            3 
 1903000   0.95946334    -3.399937    1623.1543  0.071078749  0.071957195            4 
 1904000    0.9459024   -3.4025729    1629.0209  0.071298183  0.071942448            2 
 1905000   0.93918219   -3.4042772    1625.9544  0.071126616  0.071927537            1 
 1906000   0.92980956   -3.3755817    1630.0648  0.071269009  0.071912482            3 
 1907000   0.95186673   -3.4020035    1629.0119   0.07118563  0.071897317            3 
 1908000   0.96261069   -3.3859082    1629.7231   0.07117938  0.071882209            1 
 1909000   0.95296514    -3.386613    1630.8348  0.071190622  0.071867261            6 
 1910000   0.94007421   -3.4018986    1632.9751  0.071246732   0.07185211            4 
 1911000   0.92520073   -3.4110956    1627.6102  0.070975502  0.071837406            3 
 1912000   0.95258344    -3.369395    1637.2693  0.071359367  0.071822496            3 
 1913000   0.95103872   -3.4121955    1638.1064  0.071358531  0.071807913            4 
 1914000   0.94176099   -3.4044671    1634.3164  0.071156236  0.071792773            3 
 1915000   0.94645995   -3.4034846    1635.7362  0.071180862  0.071777516            4 
 1916000   0.94692124   -3.3969253    1634.1565  0.071075005  0.071762693            5 
 1917000   0.94011211   -3.3869713    1638.7856  0.071239157  0.071747912            7 
 1918000   0.94776228   -3.3978777    1637.2522  0.071135391   0.07173327            3 
 1919000   0.95672242   -3.3789808    1637.9597  0.071129046   0.07171864            3 
 1920000   0.94504797   -3.4069432    1644.5846  0.071379541   0.07170398            2 
 1921000   0.94571085   -3.3924094    1644.3963  0.071334214  0.071689231            3 
 1922000   0.94033534   -3.4111315    1642.1267  0.071198696  0.071674618            4 
 1923000   0.93719245   -3.4098811    1643.5745  0.071224409  0.071659681            4 
 1924000   0.95871774   -3.4266821    1633.0192  0.070730217  0.071645013            5 
 1925000   0.95988747   -3.3887133    1647.9965  0.071341841  0.071630437            6 
 1926000   0.93233784   -3.4357009     1643.969  0.071130537  0.071616223            3 
 1927000   0.92809038   -3.3955676     1648.417   0.07128598  0.071601991            5 
 1928000    0.9292439   -3.4093354    1649.8017  0.071308856  0.071587773            8 
 1929000    0.9348663   -3.4059547       1645.9  0.071103335  0.071573742            2 
 1930000   0.95895208   -3.4272636    1645.1158  0.071032632  0.071559335            1 
 1931000   0.94658628   -3.4002763    1649.8014  0.071198057   0.07154535            5 
 1932000   0.94481196   -3.4059074    1648.7799  0.071117147  0.071531028            2 
 1933000    0.9411587   -3.3936503    1656.9634  0.071433152  0.071516988            4 
 1934000   0.93474377   -3.4079912    1655.6734  0.071340632  0.071503013            3 
 1935000   0.96761491   -3.4196685    1655.2271  0.071284543  0.071489175            2 
 1936000   0.94559752   -3.4099535    1650.0374  0.071024338  0.071475106            5 
 1937000   0.94387543   -3.4300183    1649.7059   0.07097341  0.071461247            4 
 1938000    0.9557224   -3.4247986    1649.9883  0.070948931  0.071447243            3 
 1939000   0.93773438    -3.408776    1657.4343   0.07123235  0.071432854            1 
 1940000   0.94456593   -3.4113042    1654.8602  0.071085062  0.071418599            1 
 1941000    0.9394716    -3.394092    1656.3944  0.071114305  0.071404387            2 
 1942000   0.93695848     -3.37716    1654.1666  0.070982088  0.071390082            2 
 1943000   0.93849792   -3.4171599    1655.5767  0.071006036  0.071375981            3 
 1944000   0.93987076   -3.4067073    1654.3945  0.070918834  0.071361596            2 
 1945000   0.94219725    -3.403994     1659.141  0.071085733  0.071347628            7 
 1946000   0.93364611   -3.4050954    1655.4128   0.07088955   0.07133344            2 
 1947000   0.94480771   -3.4263691    1657.8978  0.070959503  0.071319634            2 
 1948000    0.9390895   -3.4361265    1655.4689  0.070819169  0.071305256            2 
 1949000   0.95680818   -3.4273373     1657.276  0.070860099  0.071291108            5 
 1950000   0.92954982    -3.413948    1655.9658  0.070767769    0.0712771            7 
 1951000   0.92462035   -3.4081717    1662.2993  0.071002019  0.071262888            4 
 1952000   0.95857919   -3.4077554    1662.5287  0.070975439  0.071248864            3 
 1953000   0.94804565   -3.4252718    1658.2354  0.070755904  0.071234739            3 
 1954000   0.93695537   -3.3967839     1659.495  0.070773414  0.071220596            1 
 1955000   0.93710964   -3.4389396    1655.1695  0.070552834   0.07120626            4 
 1956000   0.91649308   -3.3985579    1663.6762  0.070879182   0.07119208            2 
 1957000   0.94433184   -3.4233439     1659.806  0.070678164  0.071178035            3 
 1958000   0.92033711     -3.44096    1661.8946  0.070730959  0.071163975            4 
 1959000    0.9176723   -3.4097535    1663.7249   0.07077271  0.071149776            2 
 1960000     0.952569   -3.4116796    1659.0207  0.070536594  0.071135583            5 
 1961000   0.93539459   -3.4258765    1662.0229  0.070628202    0.0711213            3 
 1962000    0.9386044   -3.3978443    1662.5338  0.070613905  0.071107158            1 
 1963000   0.95279605   -3.4038106    1664.4341  0.070658604  0.071092829            4 
 1964000   0.93378982   -3.4248474    1665.0867  0.070650318  0.071078578            2 
 1965000   0.94535193   -3.4300775    1670.2291  0.070832446  0.071064501            3 
 1966000   0.95409277   -3.3914032    1673.4912  0.070934692    0.0710506            3 
 1967000   0.95336945   -3.4009763    1667.1861  0.070631507  0.071036792            4 
 1968000   0.93464438   -3.4415074    1671.1867  0.070765021  0.071023161            2 
 1969000   0.93527095   -3.4138747    1670.3621  0.070694179  0.071009188            3 
 1970000   0.92183087   -3.4068988    1672.0931  0.070731519  0.070995391            3 
 1971000   0.95143587   -3.4360165    1667.7069  0.070510186  0.070981464            4 
 1972000   0.94103253   -3.4111423     1669.932  0.070568459  0.070967444            3 
 1973000   0.91945424   -3.4542078    1666.2749  0.070378226  0.070953753            3 
 1974000   0.94955432   -3.3979163    1675.7049  0.070740666  0.070940027            2 
 1975000   0.91909193   -3.3978828    1670.9941   0.07050608  0.070925986            4 
 1976000   0.94053383   -3.4201088    1676.9006   0.07071949  0.070912142            4 
 1977000   0.92569776   -3.4304244    1676.4389  0.070664258  0.070898299            1 
 1978000   0.93226158   -3.4187203    1669.3557  0.070330119  0.070884431            5 
 1979000   0.93039026    -3.399336    1677.8752  0.070653325  0.070870768            1 
 1980000   0.93143178   -3.4601284    1671.2487  0.070338748  0.070856804            2 
 1981000   0.93830061   -3.4441586    1681.5327  0.070735855  0.070842726            5 
 1982000   0.91779736   -3.4168563    1678.2222  0.070560973  0.070829007            3 
 1983000   0.93428745   -3.4365888    1680.4797  0.070620261  0.070815069            2 
 1984000   0.93756571   -3.4104295    1685.0146  0.070775144   0.07080116            1 
 1985000   0.92819956   -3.4437784    1671.6304  0.070177599  0.070787387            2 
 1986000   0.93913494   -3.4404663    1680.1702  0.070500598  0.070773615            6 
 1987000   0.92189907    -3.429173    1683.3146   0.07059699  0.070760159            3 
 1988000   0.92951573   -3.4367504    1682.4278  0.070524303  0.070746531            2 
 1989000   0.96148581   -3.3994638    1680.0704  0.070390078  0.070732981            2 
 1990000   0.93256268   -3.4380141    1682.2687  0.070446765   0.07071941            3 
 1991000   0.93044901   -3.4046474    1681.9775  0.070399191   0.07070585            3 
 1992000   0.93169288    -3.406946    1682.7757  0.070397241  0.070692373            3 
 1993000   0.95207537   -3.4352804     1684.976  0.070453921   0.07067895            3 
 1994000   0.92156811   -3.4000833    1680.5318  0.070232856  0.070665452            2 
 1995000   0.93734075   -3.4291263    1685.5815  0.070408586  0.070651692            2 
 1996000   0.92973119   -3.4300234    1686.8023  0.070424279  0.070638346            2 
 1997000   0.93613735   -3.4237579    1686.6536  0.070382809  0.070625014            2 
 1998000   0.93127168   -3.4475098    1684.9135  0.070275005  0.070611375            3 
 1999000   0.96707135   -3.4145288    1683.9491  0.070199645  0.070597711            5 
 2000000   0.92797203   -3.4277869     1689.132    0.0703805  0.070584075            3 
 2001000    0.9127682   -3.4357537    1691.4903  0.070443543  0.070570497            3 
 2002000   0.94144529   -3.4222998    1686.9932  0.070221163  0.070556888            3 
 2003000   0.93642924    -3.417691    1690.9653   0.07035136  0.070543542            2 
 2004000   0.92030074   -3.4305437     1690.289  0.070288131  0.070530021            5 
 2005000   0.95585067   -3.4376517    1695.6726  0.070476832  0.070516571            4 
 2006000   0.93670188   -3.4210682    1691.7213  0.070277553  0.070503166            2 
 2007000   0.93565171   -3.3912026    1694.4872  0.070357384  0.070489558            2 
 2008000   0.93172369   -3.4211278    1694.5725  0.070325885  0.070476089            3 
 2009000   0.92824943   -3.4206423    1694.2337  0.070276827  0.070462493            4 
 2010000   0.93435622   -3.4293764    1687.8059  0.069975369  0.070448922            3 
 2011000   0.91511907   -3.4172072    1691.1606  0.070079588  0.070435246            3 
 2012000   0.92404922   -3.4551804    1687.4399  0.069890652  0.070421599            2 
 2013000   0.92274869   -3.4265996      1696.18  0.070217749  0.070408032            4 
 2014000    0.9400068   -3.4245268    1697.8795  0.070253209  0.070394748            3 
 2015000   0.93153077   -3.4489049    1694.1946  0.070065945   0.07038103            3 
 2016000   0.91415601   -3.4214261    1702.1189  0.070358751   0.07036755            4 
 2017000   0.91020285   -3.4236634    1701.1064  0.070282035  0.070354088            2 
 2018000   0.94160459   -3.4487057     1705.122  0.070413032  0.070340573            2 
 2019000   0.92131142   -3.4255985    1704.8644  0.070367526  0.070327061            4 
 2020000   0.92918082   -3.4252514    1701.1506   0.07017948  0.070313748            2 
 2021000   0.92763043   -3.4306993    1704.5514  0.070284985  0.070300624            3 
 2022000   0.92755762   -3.4195301    1708.0901  0.070396066  0.070287202            1 
 2023000   0.90990117   -3.4283429    1701.2965  0.070081418  0.070273691            6 
 2024000   0.91873514   -3.4148492    1706.7551  0.070271539  0.070260435            2 
 2025000   0.91259219   -3.4176228     1704.477  0.070143087  0.070247134            2 
 2026000   0.93532555   -3.4184256     1705.292  0.070141987  0.070234009            2 
 2027000   0.92898849   -3.4342686    1707.3118   0.07019042  0.070221034            3 
 2028000   0.93667217   -3.3971538    1712.5212   0.07036987  0.070208046            3 
 2029000   0.91483044   -3.4423635    1704.5638  0.070008371     0.070195            3 
 2030000   0.93138252   -3.4601376    1708.7153  0.070144308  0.070181713            1 
 2031000   0.92116661   -3.4673467    1708.1875  0.070088113   0.07016848            1 
 2032000   0.92544613   -3.4258643    1708.5486  0.070068431  0.070155377            2 
 2033000   0.92775575   -3.4270187    1709.4989  0.070072917  0.070142322            1 
 2034000   0.93512698   -3.4321554    1711.3223  0.070113172  0.070129164            3 
 2035000   0.91688652   -3.4579267    1705.5699  0.069843156  0.070115943            3 
 2036000   0.90607468   -3.4389447    1703.3977  0.069719944   0.07010249            2 
 2037000    0.9285651   -3.4427187    1709.9274  0.069952848  0.070089244            3 
 2038000   0.91038744   -3.4540937    1704.5424  0.069698333  0.070075881            4 
 2039000   0.93021334   -3.4184033    1717.3312  0.070186822  0.070062642            3 
 2040000   0.93114072   -3.4383512    1712.7237  0.069964202  0.070049168            5 
 2041000    0.9155743   -3.4370478    1712.0173  0.069901082  0.070035573            3 
 2042000   0.92774172   -3.4555121     1713.009  0.069907321  0.070022308            4 
 2043000   0.92435991    -3.446102    1705.4523  0.069564867  0.070008509            2 
 2044000   0.91998871   -3.4468951    1703.0458   0.06943272  0.069994591            4 
 2045000   0.92348424   -3.4138605    1706.8405  0.069553402  0.069980582            4 
 2046000   0.93632415   -3.4511019    1712.1037  0.069733777  0.069966834            3 
 2047000   0.91663498   -3.4290823    1708.2738  0.069543796  0.069953168            4 
 2048000   0.90353718     -3.42546    1720.4578  0.070005607  0.069939667            1 
 2049000   0.91868752   -3.4244934    1712.3275  0.069640779  0.069926028            3 
 2050000   0.92476523   -3.4188435    1714.1323  0.069680176  0.069912468            4 
 2051000   0.90797907   -3.4256843    1718.7413  0.069833466   0.06989878            5 
 2052000   0.92499618   -3.4270591    1716.0202   0.06968893  0.069885008            2 
 2053000   0.92572979   -3.4427271    1705.4303  0.069225128  0.069871184            2 
 2054000    0.9217309   -3.4368402    1717.6265   0.06968624  0.069857193            3 
 2055000   0.89823101   -3.4385159    1716.4949  0.069606442  0.069843302            5 
 2056000   0.92615724     -3.45626     1712.906  0.069427123  0.069829439            2 
 2057000   0.91039651   -3.4223572    1716.7419  0.069548774   0.06981538            4 
 2058000   0.91138722   -3.4530932    1717.3339   0.06953895  0.069801433            2 
 2059000   0.94589668   -3.4451307    1721.7654  0.069684533  0.069787785            3 
 2060000   0.92594308   -3.4493159    1719.1141   0.06954345  0.069774235            4 
 2061000    0.9176877   -3.4642558    1719.7054  0.069533615  0.069760384            4 
 2062000   0.92406621   -3.4570303    1717.4121  0.069407213  0.069746535            2 
 2063000   0.92797539   -3.4426528    1718.9521  0.069435776  0.069732593            5 
 2064000   0.93095594   -3.4530642     1716.236  0.069292475  0.069718907            3 
 2065000   0.90110599   -3.4445809    1721.1414  0.069456875  0.069705143            3 
 2066000   0.90634799   -3.4530918    1716.0864  0.069219362  0.069691037            7 
 2067000   0.92006965   -3.4403235    1718.9754  0.069302346  0.069677112            2 
 2068000   0.91812126    -3.443854    1726.8729  0.069587077  0.069663394            2 
 2069000   0.91583818   -3.4570203    1723.4126  0.069414072  0.069649681            2 
 2070000   0.92586636   -3.4548399    1719.7943  0.069234873  0.069636147            5 
 2071000   0.91320878   -3.4237854    1727.5208  0.069512344  0.069622455            5 
 2072000   0.92287573   -3.4528121    1720.3644  0.069190974  0.069608781            4 
 2073000   0.92156354   -3.4628729    1727.0663  0.069427008  0.069595066            2 
 2074000   0.93252851   -3.4173463    1729.0546  0.069473424  0.069581169            6 
 2075000   0.92980832   -3.4322804    1726.2228  0.069326219  0.069567462            4 
 2076000   0.91584399   -3.4346654    1730.8423  0.069478254  0.069553634            3 
 2077000    0.9306334   -3.4511432    1727.1909  0.069298303  0.069539864            3 
 2078000   0.93340239   -3.4487728    1726.8866  0.069252751  0.069526011            4 
 2079000   0.92656081   -3.4684979    1727.0384  0.069225526   0.06951249            2 
 2080000   0.94233655   -3.4546521     1729.595  0.069294671  0.069498787            4 
 2081000   0.92825163   -3.4260728    1729.5075  0.069257867  0.069484858            6 
 2082000   0.92591421   -3.4562125    1723.7701   0.06899496  0.069470986            2 
 2083000   0.93076337    -3.448087    1722.9424  0.068928725  0.069457165            2 
 2084000   0.90918045   -3.4732424    1731.8627  0.069252347  0.069443275            2 
 2085000   0.91520489   -3.4758132    1719.7893  0.068736583  0.069429341            2 
 2086000   0.91951889   -3.4510762     1732.372  0.069206297  0.069415697            1 
 2087000   0.92303713   -3.4549791    1725.4577  0.068897048  0.069401797            5 
 2088000   0.91297351   -3.4490392     1728.515   0.06898607  0.069387868            2 
 2089000   0.93109366   -3.4517773    1728.7392  0.068961993  0.069374013            2 
 2090000   0.90084127   -3.4464622    1742.8221  0.069490513  0.069360007            3 
 2091000    0.9099072   -3.4394309    1731.3558   0.06900031  0.069346265            4 
 2092000   0.89851702   -3.4463065    1733.3271  0.069045855  0.069332474            3 
 2093000    0.9189774   -3.4299103    1736.3669  0.069133894  0.069318549            2 
 2094000    0.9159435   -3.4700634    1734.8826  0.069041809  0.069304538            3 
 2095000    0.9316879   -3.4472093    1735.0821   0.06901679  0.069290628            6 
 2096000   0.92458585   -3.4647303    1729.6081  0.068766224  0.069276999            2 
 2097000   0.88398435   -3.4128457    1745.3472  0.069358892  0.069263422            3 
 2098000    0.9251558   -3.4237846    1737.1811  0.069001475   0.06924985            3 
 2099000   0.92153641   -3.4465101    1740.8776  0.069115358  0.069236103            2 
 2100000   0.93616961   -3.4951624    1739.5323  0.069029061  0.069222332            6 
 2101000   0.92851064   -3.4159836    1745.2636  0.069223527  0.069208343            5 
 2102000   0.93291845   -3.4578382      1735.25  0.068793611  0.069194484            2 
 2103000   0.91593686     -3.43815    1738.6165  0.068894296  0.069180612            5 
 2104000   0.90681401   -3.4663018    1738.7959  0.068868659  0.069166756            5 
 2105000   0.91364495   -3.4273726    1741.2095  0.068931492  0.069152859            8 
 2106000   0.90788247   -3.4398649    1740.7369  0.068880061  0.069138863            3 
 2107000   0.91267117    -3.440421    1741.2557  0.068867889  0.069125057            2 
 2108000   0.94663309    -3.438959    1735.5879  0.068611158  0.069111079            5 
 2109000   0.93199724   -3.4354069    1744.8357  0.068944036  0.069097366            4 
 2110000   0.92091729   -3.4739861    1741.9952  0.068799178  0.069083543            3 
 2111000   0.93272161   -3.4789298    1738.4233  0.068625585  0.069070034            6 
 2112000   0.91335851   -3.4454096    1742.9435  0.068771444  0.069056137            3 
 2113000   0.91788745   -3.4429742    1744.6346  0.068805593  0.069042661            3 
 2114000   0.91848754   -3.4447532    1752.3653  0.069077787  0.069029059            4 
 2115000   0.90199569   -3.4556151    1736.1938  0.068407952  0.069015361            3 
 2116000   0.91708708   -3.4389492    1743.7515  0.068673265  0.069001644            2 
 2117000   0.90924898   -3.4592396    1753.3931  0.069020356    0.0689878            2 
 2118000   0.91525087   -3.4471491    1750.5661  0.068876537  0.068974012            3 
 2119000   0.90348751   -3.4335455    1748.2662  0.068753585  0.068960298            3 
 2120000    0.9218343   -3.4178383    1750.8451  0.068822529  0.068946522            3 
 2121000   0.90511105   -3.4616368    1744.1841  0.068528372  0.068932595            2 
 2122000   0.91141879    -3.449721    1752.3535    0.0688169   0.06891891            4 
 2123000   0.92555642   -3.4409636    1746.2443  0.068544681  0.068905076            6 
 2124000   0.93387741   -3.4515325    1749.6285  0.068645188  0.068891575            3 
 2125000   0.90465575   -3.4255561    1747.2436  0.068519355  0.068877897            6 
 2126000    0.9199196   -3.4652854    1748.7263  0.068545244  0.068864102            2 
 2127000    0.9051028   -3.4508953    1750.9027  0.068598289  0.068850249            4 
 2128000   0.92770143   -3.4424428    1754.8367  0.068720109    0.0688364            3 
 2129000   0.92480958   -3.4335295    1762.9872  0.069006858  0.068822844            2 
 2130000   0.89700473   -3.4529931    1755.8478  0.068695141  0.068809087            2 
 2131000   0.90338354   -3.4509882    1751.7791  0.068503796  0.068795165            4 
 2132000   0.93842166   -3.4616544    1754.7335  0.068587145  0.068781352            2 
 2133000   0.92212351   -3.4660737    1751.2453   0.06841871  0.068767626            3 
 2134000   0.92583615   -3.4785339    1746.4846   0.06820074  0.068753791            4 
 2135000   0.88508234   -3.4827635    1751.1409  0.068350542  0.068739892            3 
 2136000   0.90378606   -3.4667299    1750.8569  0.068307463  0.068725993            3 
 2137000   0.89162378   -3.4720931    1755.2293  0.068446001  0.068712155            4 
 2138000   0.91066541   -3.4385281    1750.8884  0.068244791  0.068698128            7 
 2139000   0.91628316   -3.4494316    1753.2406  0.068304527   0.06868423            3 
 2140000   0.90777471   -3.4854769    1759.2796  0.068507771  0.068670177            2 
 2141000   0.93978335   -3.4716934    1759.6285  0.068489354  0.068656035            2 
 2142000   0.90254117   -3.4547421    1755.5192  0.068297509  0.068642121            2 
 2143000    0.9291899   -3.4635854    1758.1741  0.068368879  0.068628263            3 
 2144000   0.91864396   -3.4728846    1756.8183  0.068284295  0.068614417            2 
 2145000   0.88889851   -3.4654673     1759.763  0.068366859  0.068600207            4 
 2146000   0.91090594   -3.4589231    1760.2787  0.068355028  0.068586457            3 
 2147000   0.91411488   -3.4400619    1767.9143  0.068619558  0.068572659            3 
 2148000   0.90064788   -3.4560187    1764.5528  0.068457201  0.068559109            3 
 2149000   0.90864132   -3.4561028    1762.7546  0.068355616  0.068545306            5 
 2150000   0.90944824   -3.4736718     1761.406  0.068271549   0.06853164            6 
 2151000   0.90084497   -3.4622462    1767.6183  0.068480487  0.068517875            2 
 2152000   0.91302945   -3.4736813    1767.5838  0.068447327  0.068504017            2 
 2153000   0.89404221    -3.458865    1760.3059  0.068133839   0.06849015            3 
 2154000   0.90287648   -3.4585284    1766.0477  0.068324344  0.068476239            2 
 2155000   0.90055243   -3.4847064     1758.241  0.067990758  0.068462142            5 
 2156000   0.89536579   -3.4711244    1772.9056  0.068526036  0.068448158            3 
 2157000   0.92899226   -3.4756649    1762.8386   0.06810534  0.068434263            2 
 2158000    0.8835165   -3.4489019    1762.5837  0.068063936  0.068420501            1 
 2159000   0.89522612   -3.4828749     1758.764  0.067884979  0.068406466            3 
 2160000   0.87987252   -3.4859015    1763.9024   0.06805179   0.06839233            2 
 2161000   0.91910472    -3.491771    1769.1087  0.068221067  0.068378075           10 
 2162000   0.89618075   -3.4554471    1767.4558  0.068125802  0.068363921            2 
 2163000   0.90336872   -3.4429371    1763.8786  0.067956489  0.068349901            1 
 2164000   0.92173428   -3.4758822    1766.0777   0.06800977   0.06833582            4 
 2165000   0.87669535   -3.4560231    1766.9083  0.068010328  0.068321427            2 
 2166000   0.89693427   -3.4423324    1766.9075  0.067978897  0.068307124            2 
 2167000   0.90703729   -3.4699096    1767.7645  0.067980482  0.068292959            4 
 2168000   0.89721484   -3.4939176    1759.3778  0.067626761  0.068278604            2 
 2169000   0.90856112   -3.4870252    1764.2854  0.067784131  0.068264087            2 
 2170000   0.90158778   -3.4639182    1764.8737  0.067775489  0.068249779            4 
 2171000   0.92005755   -3.4541592    1770.6627   0.06796648  0.068235683            7 
 2172000   0.89870038   -3.4501726    1766.5477  0.067777305  0.068221436            8 
 2173000   0.91543185   -3.4523286    1769.5403  0.067860881   0.06820707            4 
 2174000   0.91042891   -3.4648554    1777.5272  0.068135818  0.068192994            1 
 2175000   0.91040041   -3.4889334    1760.1675  0.067439369   0.06817874            4 
 2176000    0.8958579   -3.4710593    1768.5736    0.0677303  0.068164598            4 
 2177000   0.86793173   -3.4669796    1769.2375  0.067724601  0.068150157            3 
 2178000   0.91169305   -3.4509532    1769.8387   0.06771651   0.06813579            3 
 2179000   0.91718237   -3.4776286    1773.9857  0.067844031  0.068121452            3 
 2180000    0.8962567   -3.4552099     1773.811  0.067806232  0.068107314            3 
 2181000   0.89574744   -3.4437151    1775.7127  0.067847802  0.068093051            3 
 2182000   0.89954461   -3.4756542    1771.1528  0.067642561  0.068078918            4 
 2183000    0.9083075   -3.4856285    1768.4245  0.067507427  0.068064414            5 
 2184000   0.89546504   -3.4566236    1774.1917  0.067696569  0.068050132            5 
 2185000   0.90275377   -3.4598657    1776.4405  0.067751355  0.068035861            6 
 2186000   0.89251167   -3.4769159     1768.986  0.067436186  0.068021574           10 
 2187000   0.89446716   -3.5043986    1768.8146   0.06739882  0.068007106            3 
 2188000    0.9076571   -3.4686516    1775.3661   0.06761754  0.067992782            4 
 2189000   0.92884994    -3.455457     1779.124   0.06772971  0.067978388            4 
 2190000   0.89235882   -3.4689867    1771.2217  0.067398085  0.067964164            4 
 2191000   0.90616051   -3.4952678    1777.2869  0.067598012  0.067950006            4 
 2192000   0.91804356    -3.452796    1779.4525  0.067649503  0.067935732            5 
 2193000    0.9087368   -3.4824199    1782.4712  0.067733364  0.067921609            4 
 2194000   0.88714925   -3.4724082    1774.8327  0.067412361  0.067907349            4 
 2195000   0.89755006   -3.4706903    1777.8655  0.067496791  0.067893024            3 
 2196000   0.88978127   -3.4723832    1778.4559   0.06748846  0.067878525            2 
 2197000   0.91654187   -3.5018768     1779.226  0.067486951  0.067864066            1 
 2198000   0.90941901   -3.4509941     1783.604   0.06762223  0.067849664            2 
 2199000   0.90711885   -3.4743449    1774.2846  0.067238311   0.06783535            3 
 2200000   0.90679332    -3.476142    1780.1955  0.067431647  0.067821032            3 
 2201000   0.87968404   -3.4517939    1779.7651  0.067384714  0.067806753            4 
 2202000   0.90503192   -3.4905463    1781.6661  0.067426056  0.067792477            3 
 2203000   0.89099768   -3.4640109    1782.9953   0.06744573  0.067778237            3 
 2204000     0.882205   -3.4885386     1779.847  0.067296089  0.067763899            3 
 2205000   0.89361355   -3.4726152    1784.6066  0.067445449  0.067749566            9 
 2206000   0.90676923   -3.4767689     1782.163  0.067322568  0.067735428            3 
 2207000   0.89325757   -3.4896542    1780.8256  0.067241565  0.067720979            4 
 2208000   0.89997289   -3.4700576    1780.7868  0.067209649  0.067706694            4 
 2209000   0.91753236   -3.4588964    1783.8518  0.067294848  0.067692335            6 
 2210000   0.88977753   -3.4690246    1784.8887  0.067303496  0.067677881            2 
 2211000   0.90795294   -3.4563683    1783.0629  0.067204241  0.067663483            2 
 2212000   0.90957496   -3.4689423    1790.7986  0.067465289  0.067649007            4 
 2213000   0.90609238   -3.4861049    1781.8012  0.067095995  0.067634596            3 
 2214000   0.88152215   -3.4708388    1783.5457  0.067131351  0.067620172            2 
 2215000   0.90715898   -3.4784125    1787.7963  0.067260958  0.067605786            4 
 2216000   0.88416541   -3.4850004     1784.027   0.06708886  0.067591173            2 
 2217000    0.9027244    -3.491012    1788.7698  0.067236875  0.067576676            4 
 2218000   0.90007297   -3.4991257    1791.2186  0.067298563  0.067562059            4 
 2219000   0.89038062   -3.4580064    1785.0234  0.067035578  0.067547425            3 
 2220000   0.89401059   -3.4768102    1788.4807  0.067135162  0.067533326            3 
 2221000   0.90604941   -3.4802421    1788.8674  0.067119443  0.067518782            2 
 2222000    0.8911608   -3.4791748    1788.2295  0.067065312   0.06750446            2 
 2223000   0.88375047   -3.4735803    1789.9212  0.067098562  0.067490154            5 
 2224000   0.90144317   -3.4762329    1793.1432  0.067189117  0.067475678            2 
 2225000   0.89653017   -3.4827621    1786.5401  0.066911616  0.067461558            2 
 2226000   0.89797237   -3.4890439      1788.71  0.066962789  0.067447235            3 
 2227000   0.89760596    -3.450222    1796.7368  0.067233077  0.067433014            4 
 2228000   0.91675568   -3.4958204    1795.6524  0.067162343   0.06741877            2 
 2229000   0.88636003   -3.4593167    1796.2905  0.067156066  0.067404795            2 
 2230000   0.89577713   -3.4810217    1800.4548  0.067281571  0.067390581            2 
 2231000   0.90424479   -3.4782455       1794.6   0.06703272  0.067376418            6 
 2232000   0.88436583   -3.4833769    1793.8573  0.066974957  0.067362347            4 
 2233000   0.89835512   -3.4695214    1798.3703  0.067113386  0.067348349            3 
 2234000   0.90649016   -3.4951359    1802.6134  0.067241621  0.067334435            3 
 2235000   0.89567209   -3.5002995    1797.2696  0.067012291  0.067320368            9 
 2236000   0.88660062   -3.4912424    1794.9039  0.066894152   0.06730633            2 
 2237000   0.91654685   -3.5049543    1795.1824  0.066874626  0.067292245            4 
 2238000   0.90291461   -3.4885044    1796.2266  0.066883623  0.067278306            5 
 2239000   0.89995367   -3.4926294    1796.6925  0.066871094  0.067264301            3 
 2240000   0.88029439   -3.4828846    1802.1881  0.067045689  0.067250087            8 
 2241000   0.89494705   -3.4789281    1791.3638  0.066613261  0.067235913            3 
 2242000   0.88889381     -3.46808    1801.8606  0.066973708  0.067221863            5 
 2243000   0.89494784   -3.4857076    1803.3484  0.066999122  0.067207867            3 
 2244000   0.89715841   -3.4813285      1802.68  0.066944443   0.06719384            5 
 2245000   0.90340162   -3.4963883    1802.3862   0.06690372  0.067179865            4 
 2246000   0.88206883   -3.4696084    1807.0639  0.067047487  0.067165999            2 
 2247000   0.89185131   -3.4805554    1802.0182  0.066830521  0.067151979            3 
 2248000   0.87652342   -3.4761081    1797.0104  0.066615152  0.067137864            2 
 2249000   0.90127005   -3.5075281    1802.1344  0.066775396  0.067123656            3 
 2250000   0.88385054   -3.4991426    1803.0168    0.0667784  0.067109772            2 
 2251000   0.88466395    -3.476101     1802.586  0.066732787  0.067095687            2 
 2252000   0.87993325   -3.5015623    1799.0112  0.066570869  0.067081789            6 
 2253000   0.89084827   -3.4979643    1799.3578  0.066554143  0.067067698            3 
 2254000   0.89150412   -3.4787374      1802.37  0.066635981  0.067053619            5 
 2255000   0.87814459   -3.4616413    1805.8714  0.066735823  0.067039649            4 
 2256000   0.89144508   -3.4790386    1808.0524  0.066786806  0.067025621            3 
 2257000   0.89815924   -3.4762837    1809.6813  0.066817356  0.067011585           10 
 2258000   0.90152039   -3.4898606    1802.8491  0.066535618  0.066997362            2 
 2259000   0.88082948   -3.5201287    1800.7088   0.06642721  0.066983222            2 
 2260000   0.88472155   -3.4781749    1809.1011  0.066707267  0.066969133            4 
 2261000   0.90661445   -3.4658222    1807.8582  0.066631953  0.066955021            4 
 2262000   0.89662367   -3.4614611    1813.5374  0.066811721    0.0669412            6 
 2263000   0.89284983   -3.4776469    1811.9099  0.066722269  0.066927295            6 
 2264000   0.89354413   -3.4979529     1804.138  0.066406729  0.066913211            4 
 2265000   0.89429548   -3.4727421    1815.1184  0.066781399  0.066899203            1 
 2266000   0.86576059   -3.5015584    1814.4425  0.066727069  0.066885276            2 
 2267000   0.87169367   -3.4900686     1811.934  0.066605427  0.066871135            6 
 2268000   0.89370602   -3.4669265    1816.4928  0.066743563  0.066857142            8 
 2269000   0.88068134   -3.4787176    1808.4702  0.066419504  0.066843405            3 
 2270000   0.89252093    -3.496864    1815.7721  0.066658301  0.066829517            2 
 2271000   0.89401237   -3.5014105    1814.8158  0.066593859  0.066815647            2 
 2272000   0.89218913   -3.4831054     1814.914   0.06656815  0.066801814            3 
 2273000   0.88508601   -3.5148883    1813.3451  0.066481341   0.06678774            3 
 2274000   0.87768737   -3.4817599    1811.2587   0.06637565  0.066773507            4 
 2275000   0.88841446   -3.4959125    1815.9959  0.066519995  0.066759369            2 
 2276000   0.89794551   -3.5095765    1812.4107    0.0663595  0.066745158            8 
 2277000   0.87130913   -3.4800727    1813.5681  0.066372715  0.066731098            3 
 2278000   0.89786769   -3.4795691    1818.4387  0.066521755  0.066716997            2 
 2279000   0.87933599   -3.4790878     1814.527  0.066349533  0.066702913            2 
 2280000   0.88942332   -3.4897279    1813.5309  0.066284025  0.066688895            4 
 2281000   0.88243741   -3.4863443    1815.8242  0.066338747  0.066674798            3 
 2282000   0.89213204   -3.4791269    1811.4018  0.066148181  0.066660828            3 
 2283000   0.88320411   -3.4867246    1817.4936  0.066341568  0.066646902            2 
 2284000   0.89518645   -3.4970651    1811.9473  0.066110161  0.066632858            3 
 2285000    0.8819486   -3.5101831    1816.1206  0.066233428   0.06661858            5 
 2286000   0.88389564   -3.4616099    1818.7382  0.066299876  0.066604405            3 
 2287000   0.89216992   -3.4836529    1816.7729  0.066199274  0.066590428            4 
 2288000   0.88376729   -3.4866326    1820.5334  0.066307306  0.066576405            2 
 2289000   0.89334939   -3.4894988    1817.6187  0.066172225  0.066562446            5 
 2290000   0.88962973   -3.4763026     1819.441  0.066209644  0.066548167            3 
 2291000   0.88594636   -3.4815329    1820.2805  0.066211281  0.066534045            5 
 2292000   0.89844595   -3.4941206    1817.7616  0.066090808  0.066519881            3 
 2293000   0.88080603    -3.481237     1819.296  0.066117751  0.066505679            4 
 2294000   0.89452438   -3.4604733    1822.3963  0.066201552  0.066491787            7 
 2295000   0.89478912   -3.4916511    1825.8623   0.06629856  0.066477955            2 
 2296000   0.87747227   -3.5054916    1813.9815  0.065838469  0.066463742            4 
 2297000   0.86772622    -3.486628    1822.1374  0.066105695  0.066449527            2 
 2298000   0.88358972   -3.4976366    1824.1982  0.066151659   0.06643537            2 
 2299000   0.89427312   -3.5116227    1826.7084  0.066213877  0.066421413            2 
 2300000   0.89184367   -3.4918077      1825.87  0.066154711  0.066407376            2 
 2301000   0.88640671   -3.4963348    1820.9611  0.065948179  0.066393139            5 
 2302000   0.86774786   -3.4933435    1832.2627  0.066328653   0.06637936            4 
 2303000   0.87477826   -3.5007544    1834.9145  0.066395805  0.066365557            4 
 2304000    0.8951397   -3.5016521    1822.1123  0.065903947    0.0663517            2 
 2305000    0.8692182   -3.4847146    1830.2916  0.066171062   0.06633768            5 
 2306000   0.90330213   -3.5044747    1828.2595  0.066068934  0.066323953            8 
 2307000   0.87345743   -3.4979335    1820.7579  0.065769321   0.06630985            2 
 2308000   0.89513728   -3.4952995    1831.2502  0.066119664  0.066296018            6 
 2309000   0.86574733    -3.484005    1829.9802  0.066045191  0.066282226            2 
 2310000   0.88129344   -3.4569649    1835.5081  0.066216022  0.066268761            2 
 2311000   0.87416156   -3.4751248    1833.0626  0.066099185  0.066254984            4 
 2312000   0.90249804   -3.5221501    1833.9582  0.066102876   0.06624109            4 
 2313000   0.89039118   -3.5373037    1822.9449  0.065677506  0.066227059            1 
 2314000   0.87266483   -3.5216045    1829.5269  0.065886159     0.066213            3 
 2315000    0.8580885   -3.4939602    1831.5009  0.065928758  0.066198907            3 
 2316000   0.89578633   -3.5081048    1831.1961  0.065889322  0.066184871            6 
 2317000   0.89046077   -3.5079611    1832.2202   0.06589772  0.066170577            4 
 2318000   0.88454762   -3.5115395    1830.5003   0.06580746  0.066156487            6 
 2319000   0.89099492   -3.5025575    1838.5837  0.066069561  0.066142393            4 
 2320000   0.85129344   -3.4992482    1826.5311  0.065608158  0.066128147            6 
 2321000    0.8744956   -3.5302104    1829.8074  0.065697524  0.066114048            6 
 2322000   0.89795362     -3.54118    1832.1446  0.065753107  0.066099936            7 
 2323000   0.87192741   -3.4875375    1838.2955  0.065945455  0.066086007            3 
 2324000   0.87020146   -3.5103911    1831.0622  0.065657709  0.066072241            5 
 2325000   0.87681356   -3.5280589    1837.5128  0.065860675  0.066058325            7 
 2326000   0.87934204   -3.4923583    1836.5641   0.06579837  0.066044157            4 
 2327000   0.87177567   -3.5064978    1842.9021  0.065997068   0.06603044            3 
 2328000    0.8867202   -3.5049413    1831.3217  0.065554185  0.066016626            3 
 2329000   0.87532251   -3.5134947    1833.2495  0.065595017  0.066002879            3 
 2330000   0.90449285   -3.4773292    1842.4661  0.065896498  0.065989103            4 
 2331000   0.86484729   -3.5119709    1840.8127   0.06580912  0.065975216            5 
 2332000   0.87923917   -3.5033701    1835.6841  0.065597629  0.065961306            4 
 2333000   0.88254957   -3.5522162    1840.6826  0.065748058  0.065947632            3 
 2334000    0.8736754   -3.5041517    1846.6335   0.06593236  0.065933756            3 
 2335000   0.87264419   -3.4974672    1833.6993  0.065442516  0.065920019            4 
 2336000   0.88511282   -3.5002379    1837.6149  0.065554184  0.065906149            4 
 2337000   0.86853582   -3.5206932    1839.8463  0.065605702  0.065892378            3 
 2338000   0.87273632   -3.4806742    1840.3353  0.065595071  0.065878558            3 
 2339000   0.87270046   -3.5128822    1844.2209  0.065705463  0.065864725            2 
 2340000   0.87075985   -3.4886285    1846.3333  0.065752611  0.065850951            3 
 2341000   0.88070643   -3.5210318     1847.709  0.065773496  0.065837144            2 
 2342000   0.87688282   -3.4843809     1850.856  0.065857386  0.065823387            2 
 2343000   0.87437167   -3.5019471    1849.2896  0.065773566  0.065809693            4 
 2344000   0.85945214   -3.5284386    1852.7779  0.065869523  0.065796028            3 
 2345000   0.87650169   -3.5164967      1850.93  0.065775765  0.065782448            2 
 2346000   0.86895339   -3.5080035    1848.7284  0.065669521  0.065768946            2 
 2347000   0.88614221   -3.5107166    1848.7732  0.065643131    0.0657556            1 
 2348000   0.88540215    -3.526598    1849.7271   0.06564903  0.065742198            3 
 2349000   0.89823483   -3.4945042     1854.814  0.065801547  0.065728739            3 
 2350000   0.88304271   -3.4870669    1852.7373  0.065699905  0.065715369            6 
 2351000   0.87306873   -3.5265326    1850.2914  0.065585261  0.065702068            5 
 2352000   0.87535996   -3.5113475    1854.0393   0.06569017  0.065688801            2 
 2353000   0.84996118   -3.5005113    1860.0809  0.065876219  0.065675407            2 
 2354000   0.86624519   -3.4957614    1850.5792  0.065511865  0.065662215            2 
 2355000   0.87780686   -3.4876888    1855.4642  0.065656906  0.065648607            3 
 2356000   0.86307548   -3.4922557    1853.2115  0.065549358  0.065635254            5 
 2357000   0.87183103   -3.4996975    1852.5853   0.06549941  0.065622058            2 
 2358000   0.87950784   -3.5241879    1849.9076  0.065377001  0.065608822            3 
 2359000   0.88394836    -3.522829    1857.0454  0.065601433   0.06559551            6 
 2360000   0.88034467   -3.5379155    1852.5037  0.065413266  0.065582137            4 
 2361000   0.87563351   -3.5149138    1859.8381  0.065644435  0.065568917            2 
 2362000   0.88364558    -3.522871     1854.816  0.065439458  0.065555834            3 
 2363000    0.8761504   -3.4955528    1859.0631  0.065561544   0.06554247            4 
 2364000   0.88099578   -3.5324198    1851.2471  0.065258286  0.065529183            3 
 2365000    0.8864356   -3.5071751    1856.9584  0.065431939  0.065515797            2 
 2366000   0.87978648   -3.5430116    1860.4778  0.065528239   0.06550253            2 
 2367000   0.85424874    -3.513097    1860.5558  0.065503302  0.065489185            3 
 2368000   0.87990068   -3.4784904    1862.9095  0.065558472  0.065476006            2 
 2369000   0.87323074   -3.5151507     1861.837  0.065493069  0.065462699            6 
 2370000   0.87613783   -3.5307028    1862.3617  0.065483884  0.065449314            3 
 2371000   0.88793348   -3.4812339    1864.3472  0.065526051  0.065436126            4 
 2372000   0.85998835   -3.5116147    1863.4265  0.065466081  0.065422908            3 
 2373000   0.87475105   -3.5204305    1866.9293  0.065561501  0.065409828            4 
 2374000   0.86770384   -3.5211235    1862.4715  0.065377406   0.06539638            4 
 2375000   0.87830351    -3.521591    1864.7327  0.065429217  0.065383082            3 
 2376000   0.87159281   -3.5378748    1862.1516  0.065311154  0.065369739            3 
 2377000   0.87791674   -3.5153752    1857.6929  0.065127365   0.06535642            5 
 2378000   0.85038389   -3.5148334    1864.9913  0.065355737  0.065342917            3 
 2379000   0.86638437   -3.5131178    1867.8394  0.065428031  0.065329846            2 
 2380000   0.86480037   -3.5253773    1867.6394  0.065393538  0.065316724            4 
 2381000   0.87214581    -3.521482    1866.2705   0.06531816  0.065303569            4 
 2382000   0.88038155   -3.5535952    1863.6381  0.065198647  0.065290431            2 
 2383000   0.86991893   -3.5163977    1864.2052  0.065191117   0.06527703            4 
 2384000    0.8731457   -3.5496406    1863.0287  0.065122649   0.06526367            6 
 2385000   0.86219515   -3.5204462    1863.0626  0.065096528  0.065250167            4 
 2386000   0.84845119   -3.4968217    1862.9143  0.065064063  0.065236524            3 
 2387000   0.88080035   -3.5239513    1863.8505  0.065069491  0.065222955            2 
 2388000   0.86685028   -3.5337812    1857.9147  0.064835102  0.065209135            4 
 2389000      0.88459   -3.4945134    1863.9574  0.065018747  0.065195586            3 
 2390000    0.8689074   -3.5206675    1861.0546  0.064890329  0.065182006            4 
 2391000   0.86204248   -3.5272924    1865.1908  0.065007346  0.065168363            5 
 2392000    0.8563927   -3.5311276    1864.4116  0.064953025  0.065154541            4 
 2393000   0.87991627   -3.4871432    1869.8602  0.065115623  0.065140823            3 
 2394000   0.87674363   -3.5486918     1860.291  0.064755324  0.065126906            5 
 2395000   0.87546183   -3.4861918    1872.9721  0.065169523  0.065112958            3 
 2396000   0.85780944   -3.5149788    1863.6032  0.064816472  0.065099089            2 
 2397000   0.86939674   -3.5270497     1862.047   0.06473533  0.065085391            6 
 2398000   0.88053585   -3.5254103    1860.2676  0.064646496  0.065071813            4 
 2399000   0.87110758   -3.5381391    1866.5103    0.0648364  0.065058099            2 
 2400000   0.86920607   -3.5211589    1865.1382  0.064761742  0.065044535            2 
 2401000   0.87443561   -3.5367816    1862.8609  0.064655731  0.065030655            4 
 2402000   0.87101273   -3.5326562    1872.6371  0.064967982  0.065016872            4 
 2403000   0.87428733   -3.5434597    1871.4154  0.064898577  0.065003063            3 
 2404000   0.84914116   -3.5212351    1870.3445   0.06483446  0.064989058            4 
 2405000   0.86332518    -3.550552    1866.8951  0.064687981  0.064975253            7 
 2406000   0.85179144   -3.5317943    1870.7184  0.064793515   0.06496135            2 
 2407000   0.86498387   -3.5144133     1869.474  0.064723515  0.064947736            4 
 2408000   0.85786837   -3.5238672    1873.7625  0.064845046  0.064934136            4 
 2409000   0.84516966   -3.5291515    1873.1843  0.064798127  0.064920482            2 
 2410000   0.84647774    -3.524968    1863.1679  0.064424892  0.064906658            5 
 2411000   0.88031087   -3.5263341    1871.1581  0.064674343  0.064892884            5 
 2412000   0.86917719   -3.5231377    1871.4187  0.064656535  0.064879209            2 
 2413000   0.87483496   -3.5163995    1873.5533  0.064703458   0.06486557            5 
 2414000   0.84778461   -3.5000405    1874.2477  0.064700625   0.06485169            3 
 2415000   0.86541867    -3.489381    1872.7691  0.064622811  0.064837947            2 
 2416000   0.86233871   -3.5114997    1877.7344  0.064767327  0.064824516            3 
 2417000   0.88041471    -3.487914    1885.1104  0.064994842  0.064811138            2 
 2418000   0.86361387   -3.5181156    1885.6306   0.06498589  0.064797597            3 
 2419000   0.86616183   -3.5159838    1876.0307  0.064628315  0.064784092            4 
 2420000   0.85039117   -3.5105453    1877.7012  0.064659132  0.064770709            2 
 2421000   0.88562775   -3.5269615    1880.7977  0.064739008  0.064757228            5 
 2422000   0.86488561   -3.5391724    1887.2784   0.06493526  0.064743805            4 
 2423000   0.84665785   -3.5410789     1877.626  0.064576489  0.064730381            4 
 2424000   0.87136951   -3.5183041     1885.093  0.064806552   0.06471675            3 
 2425000   0.86082761   -3.5320934    1870.0789  0.064263879  0.064703209            3 
 2426000   0.85670376   -3.5394965    1885.4778  0.064766342  0.064689846            2 
 2427000   0.86769676   -3.4962165    1888.9926  0.064860343  0.064676551            3 
 2428000   0.85661682    -3.496709     1890.166  0.064873903  0.064663116            6 
 2429000   0.84760514   -3.5357893      1886.51  0.064721763  0.064649677            3 
 2430000   0.86804049   -3.5413306    1881.0061  0.064506383  0.064636138            7 
 2431000   0.85242162   -3.5284573    1885.0748   0.06461932  0.064622634            3 
 2432000   0.86763409   -3.5352511    1886.0639  0.064626642   0.06460925            4 
 2433000   0.87490213   -3.5618448    1882.4259  0.064475474  0.064595592            4 
 2434000   0.86535501   -3.5298031    1886.4415  0.064586467  0.064582013            4 
 2435000   0.87615488   -3.5282102     1884.713  0.064500787  0.064568473            3 
 2436000   0.84951282   -3.5174056    1881.4311  0.064362038   0.06455479            4 
 2437000   0.86692213   -3.5130434    1882.2903  0.064365007   0.06454119            3 
 2438000   0.88347751    -3.493607    1888.9069  0.064564769  0.064527877            4 
 2439000   0.87067469   -3.5465329    1885.7284  0.064429697  0.064514527            5 
 2440000    0.8659196   -3.5188889    1886.8839  0.064442756  0.064500997            3 
 2441000   0.86066013   -3.5318271    1882.0936   0.06425282  0.064487263            6 
 2442000   0.85847747   -3.5419031     1887.464  0.064409772  0.064473706            3 
 2443000   0.87706537   -3.5308953    1894.0752  0.064608924  0.064460187            2 
 2444000   0.86754394   -3.5376834    1886.2933  0.064317147  0.064446829            5 
 2445000   0.85491175   -3.5367893    1886.3714  0.064293504  0.064433142            3 
 2446000   0.87161995   -3.5511725     1885.892  0.064250887  0.064419527            6 
 2447000   0.86503785   -3.5252271     1883.953  0.064158597  0.064405951            2 
 2448000   0.83162834   -3.5198129     1890.238  0.064346336  0.064392305            7 
 2449000   0.84873114   -3.5489318    1895.2927   0.06449206  0.064378632            3 
 2450000   0.86938029   -3.5352019    1889.3312  0.064262965  0.064365093            3 
 2451000   0.83479135   -3.5305941    1890.4315  0.064274158  0.064351631            9 
 2452000   0.86756033   -3.5162327    1895.2074  0.064410255  0.064338095            5 
 2453000   0.84561568   -3.5412779    1891.7679  0.064267152  0.064324614            8 
 2454000   0.85129272    -3.560746    1889.9645  0.064179725  0.064311203            4 
 2455000   0.87207178   -3.5285642    1898.8056  0.064453686  0.064297758            5 
 2456000   0.85768146   -3.5471686    1894.5856  0.064284256  0.064284331            6 
 2457000   0.86260855   -3.5326159    1895.9873  0.064305635  0.064271061            4 
 2458000   0.85754391   -3.5228638    1892.5414  0.064162647  0.064257673            4 
 2459000   0.84714008     -3.51955     1894.148  0.064190998  0.064244232            4 
 2460000   0.85502159   -3.5557207    1891.0355  0.064059468   0.06423085            5 
 2461000   0.85973304   -3.5427672     1895.747  0.064192978  0.064217356            4 
 2462000   0.86374212   -3.5403086    1896.4533  0.064190811  0.064203906            2 
 2463000   0.86197661   -3.5266096    1896.1197  0.064153463  0.064190462            4 
 2464000   0.84909565   -3.5284679    1897.4844  0.064173578  0.064177199            5 
 2465000    0.8524563   -3.5343535    1894.0493  0.064031417  0.064163549            4 
 2466000   0.84138793   -3.5399201    1895.9552  0.064069855  0.064150165            5 
 2467000   0.84709655   -3.5288978    1897.8085  0.064106489  0.064136856            4 
 2468000    0.8519488    -3.524629    1899.8049  0.064147922  0.064123427            3 
 2469000   0.85086841   -3.5334981    1895.1494   0.06396481   0.06410983            3 
 2470000   0.83448707   -3.5336522    1899.5045  0.064085848  0.064096238           11 
 2471000   0.83278788   -3.5163228    1894.5924  0.063894252  0.064082653            6 
 2472000   0.84654221    -3.573693    1900.3896  0.064063834  0.064069242            7 
 2473000   0.84036099   -3.5166039    1898.4503   0.06397258  0.064055808            3 
 2474000   0.82624403   -3.5408389    1908.1418  0.064273168  0.064042319            3 
 2475000   0.87137376   -3.5447299    1896.1282  0.063842701  0.064028913            5 
 2476000   0.85393027   -3.5371216    1899.8471   0.06394208  0.064015393            2 
 2477000    0.8855341   -3.5397658    1899.6532  0.063909742  0.064001813            6 
 2478000   0.83330781   -3.5366083    1898.6443  0.063850022  0.063988382            3 
 2479000   0.83307589   -3.5130131    1901.5672  0.063922523  0.063974685            2 
 2480000   0.85068226   -3.5632059    1897.4984  0.063760026  0.063961107            2 
 2481000   0.85809149   -3.5607268    1902.4023  0.063899044  0.063947382            5 
 2482000   0.85331153   -3.5375154    1901.6753   0.06384889  0.063933852            1 
 2483000   0.84158676   -3.5301127    1909.7098  0.064092824  0.063920365            6 
 2484000   0.87369633   -3.5387342     1906.749  0.063967693  0.063907077            4 
 2485000   0.84529283   -3.5340767    1906.5295  0.063934592  0.063893797            4 
 2486000   0.85991624   -3.5716176    1900.7339    0.0637146  0.063880674            5 
 2487000   0.86261733   -3.5463157    1907.3406  0.063910354  0.063867477            4 
 2488000   0.82901625   -3.5296022    1911.3529  0.064019054  0.063854293            1 
 2489000    0.8593351   -3.5485134    1908.9248   0.06391204  0.063841147            4 
 2490000   0.85524297   -3.5281697    1914.0596  0.064058219  0.063827965            4 
 2491000   0.83273837   -3.5516969    1910.3086  0.063907017  0.063814743            7 
 2492000   0.85970415   -3.5554728     1903.702  0.063660447  0.063801574            2 
 2493000    0.8446618   -3.5520852    1917.8961  0.064109377  0.063788384            3 
 2494000   0.85083293   -3.5325162    1906.5554  0.063704739  0.063775401            2 
 2495000   0.85261762   -3.5369833    1912.1292   0.06386537  0.063762287            3 
 2496000   0.85389564   -3.5272074    1911.5219  0.063819509  0.063749278            7 
 2497000   0.86407433   -3.5221489    1909.1638  0.063715251  0.063736235            3 
 2498000   0.86007699   -3.5476905     1907.567  0.063636476  0.063723201            4 
 2499000   0.84588454   -3.5538994    1910.9856  0.063725012  0.063710042            3 
 2500000     0.841139   -3.5464663    1915.8458  0.063861525  0.063697003            2 
 2501000   0.85959149   -3.5302573    1917.1413  0.063879158  0.063683835            4 
 2502000   0.85922279   -3.5383347    1913.8119  0.063742736  0.063670585            3 
 2503000    0.8673785   -3.5816392    1910.6435  0.063611783  0.063657336            3 
 2504000   0.85191405   -3.5501614    1912.1822  0.063637586  0.063644055            3 
 2505000    0.8446077   -3.5526943    1909.9766   0.06353881  0.063631031            5 
 2506000   0.83447204   -3.5244417    1917.4481   0.06376191  0.063617933            6 
 2507000   0.85565581   -3.5361572    1920.9426  0.063852632  0.063605024            4 
 2508000   0.85454463   -3.5213951    1912.6722  0.063552371  0.063591958            3 
 2509000   0.85897859    -3.562717    1923.9301  0.063900959  0.063578921            4 
 2510000   0.85359801   -3.5665567     1916.477  0.063628056  0.063565993            4 
 2511000     0.847738   -3.5327479    1923.6119  0.063839502  0.063553026            3 
 2512000   0.84692093   -3.5353577    1919.5706  0.063680021  0.063539964            2 
 2513000   0.85205512   -3.5451823    1917.1569  0.063574642  0.063526852            7 
 2514000   0.85119236   -3.5563525    1920.5056  0.063660356   0.06351384            6 
 2515000   0.85621301   -3.5298591    1918.6266  0.063572785  0.063500982            3 
 2516000   0.85302638   -3.5216772    1917.1211  0.063497651  0.063488041            4 
 2517000   0.84695445   -3.5503306    1920.2912  0.063577382  0.063475073            3 
 2518000   0.87244427   -3.5525666    1920.7489  0.063567279  0.063462174            6 
 2519000   0.85062778   -3.5723087    1919.6356  0.063505213  0.063449143            3 
 2520000   0.85811869   -3.5598528    1919.4653   0.06347438  0.063436097            3 
 2521000     0.851681   -3.5602369    1919.1213  0.063437834  0.063422989            2 
 2522000   0.85712884   -3.5703235    1915.0573  0.063278394  0.063409934            2 
 2523000   0.83469834   -3.5157831    1922.0998  0.063485922  0.063396881            8 
 2524000   0.85770249   -3.5712634    1917.8378  0.063320055  0.063383919            7 
 2525000   0.86058446    -3.526018    1921.3413  0.063410605  0.063370927            3 
 2526000   0.84578933   -3.5332972    1928.6867  0.063627826  0.063357843            5 
 2527000   0.84125894   -3.5303395    1925.4892  0.063497203  0.063344698            2 
 2528000   0.84960773   -3.5346256    1925.6606  0.063477737  0.063331735            8 
 2529000    0.8375776   -3.5562758    1920.0117    0.0632665  0.063318663            3 
 2530000   0.83993544   -3.5445956    1923.9887  0.063372488  0.063305491            4 
 2531000   0.85022353   -3.5733793    1922.2267  0.063289435  0.063292238            4 
 2532000   0.84972161   -3.5609129    1925.7446  0.063380219  0.063278865            6 
 2533000   0.83556637   -3.5476275    1931.7022  0.063551198  0.063265924            4 
 2534000   0.83295408   -3.5740223    1927.7898  0.063397455  0.063252864            8 
 2535000    0.8596188   -3.5591709    1925.0791  0.063283338   0.06323976            3 
 2536000   0.85241077   -3.5535182    1926.9625   0.06332027  0.063226701            2 
 2537000   0.84807061   -3.5260184    1931.8609  0.063456212  0.063213667            7 
 2538000   0.85450701   -3.5396431    1924.7949  0.063199202  0.063200664            3 
 2539000   0.84087176   -3.5291803     1928.048  0.063281082  0.063187528            2 
 2540000   0.84910229   -3.5424467    1927.4051  0.063235075  0.063174519            6 
 2541000   0.82507501    -3.543456    1933.4596  0.063408749  0.063161548            4 
 2542000   0.84380944   -3.5602818     1932.535  0.063353496  0.063148608            3 
 2543000      0.85127   -3.5568909    1931.5893  0.063297591   0.06313561            5 
 2544000   0.84419914   -3.5649387    1939.2084  0.063522287  0.063122731            6 
 2545000   0.85493896   -3.5446486    1938.5933  0.063477187  0.063110027            6 
 2546000   0.82988822   -3.5564069    1938.6793   0.06345507   0.06309727            2 
 2547000   0.85706471   -3.5240421     1935.052  0.063311477  0.063084574            3 
 2548000    0.8451187     -3.56738    1935.2183  0.063292069  0.063071775            6 
 2549000   0.84326861   -3.5381522    1937.5807  0.063344472  0.063058938            5 
 2550000   0.85449966   -3.5744517    1933.2242  0.063177262  0.063046077            5 
 2551000   0.84712631   -3.5493901    1938.8373  0.063335857  0.063033374            3 
 2552000   0.82863286   -3.5517596    1932.7266    0.0631115  0.063020516            8 
 2553000   0.84703848    -3.539477    1932.6921  0.063085653  0.063007743            2 
 2554000   0.84436811   -3.5464151     1943.746  0.063421628  0.062994776            5 
 2555000   0.83501737   -3.5559941    1933.0474  0.063047861  0.062981802            3 
 2556000    0.8522512   -3.5325302    1937.5044  0.063168504  0.062968871            5 
 2557000   0.84304769   -3.5369436    1945.9334  0.063418506  0.062956024            4 
 2558000    0.8294795   -3.5442045    1942.2184  0.063272687  0.062943109            2 
 2559000   0.84119875   -3.5624705    1935.4271  0.063026805  0.062930038            6 
 2560000   0.83760912   -3.5803357    1945.2987  0.063323524  0.062916787            2 
 2561000   0.83472611   -3.5477162    1943.3908  0.063236717  0.062903784            3 
 2562000   0.84326675   -3.5249411    1936.7413  0.062995749  0.062890831            4 
 2563000   0.84674895   -3.5701479     1942.761  0.063166896   0.06287787            6 
 2564000   0.82994376   -3.5545401    1938.5817  0.063006425  0.062864993            6 
 2565000   0.85811142    -3.526963    1935.1625  0.062870776  0.062852041            4 
 2566000   0.83558697   -3.5797262    1934.5343  0.062825874  0.062839268            2 
 2567000   0.83810303   -3.5493746     1943.079  0.063078788  0.062826395            3 
 2568000   0.84322641   -3.5955184    1939.2542  0.062930108  0.062813586            6 
 2569000   0.84685247   -3.5912879    1943.6714  0.063048897  0.062800663            4 
 2570000   0.82661527   -3.5562438    1942.9805  0.063001962  0.062787846            6 
 2571000   0.85695815   -3.5652589    1940.0212  0.062881537  0.062775044            5 
 2572000   0.84725577   -3.5793384    1941.2055  0.062895461  0.062762167            2 
 2573000   0.82722171   -3.5718084    1948.2129  0.063097968  0.062749317            5 
 2574000   0.84537861   -3.5753961    1945.2144  0.062976379  0.062736659            2 
 2575000    0.8337511   -3.5438099     1949.351  0.063085792  0.062724012            7 
 2576000   0.84035524    -3.588069    1943.0086  0.062856128  0.062711425            2 
 2577000    0.8368113   -3.5430529    1952.2411  0.063130292  0.062698862            2 
 2578000   0.86517252   -3.5891774    1943.6576  0.062828344  0.062686347            3 
 2579000   0.83587769   -3.5646775    1945.8807  0.062875814  0.062673832            2 
 2580000   0.84158203   -3.5577197    1945.2543  0.062831211  0.062661175            4 
 2581000   0.85407721   -3.5575206     1948.979  0.062927128  0.062648604            6 
 2582000   0.82944511   -3.5419883    1949.4233  0.062917097   0.06263603            6 
 2583000   0.83085453   -3.5474883    1954.1495  0.063045215   0.06262359            2 
 2584000   0.83620558    -3.575399    1953.3162  0.062993943  0.062611127            2 
 2585000    0.8336626   -3.5630694     1946.699  0.062756253  0.062598475            4 
 2586000    0.8409284   -3.5603592    1958.2244   0.06310339  0.062585947            3 
 2587000   0.84485852   -3.5275367    1962.4174  0.063214062  0.062573466            9 
 2588000   0.84129326   -3.5718135    1957.0635  0.063017244  0.062560859            3 
 2589000   0.83306477   -3.5760099    1954.5826  0.062913047  0.062548208            8 
 2590000   0.84075312   -3.5771529    1952.4463  0.062820021  0.062535482            5 
 2591000   0.83027188   -3.5536186    1954.1184  0.062849555  0.062522805            4 
 2592000   0.84558673    -3.560577    1958.5701  0.062968431  0.062510221            3 
 2593000   0.82719561   -3.5580027    1951.1837  0.062706766  0.062497702            5 
 2594000   0.82841907   -3.5874929    1955.1189  0.062809012  0.062484819            3 
 2595000   0.84102812   -3.5573642    1966.8435  0.063161321  0.062472054            3 
 2596000   0.83018286   -3.5734968    1955.7264  0.062780125  0.062459352            6 
 2597000   0.84010257   -3.5676741    1952.0612  0.062638339  0.062446398            3 
 2598000   0.84791702   -3.5766099    1955.6105  0.062728075  0.062433621            3 
 2599000   0.82748608   -3.5716893    1951.1779  0.062561816  0.062420676           11 
 2600000   0.82596854   -3.5494963    1951.1658  0.062537364  0.062407934            4 
 2601000   0.82619533   -3.5673835    1954.6183  0.062623936  0.062395028            3 
 2602000   0.83475521   -3.5828676    1951.8715  0.062511897  0.062382257            7 
 2603000   0.84261926   -3.5823515     1952.522  0.062508709  0.062369499            3 
 2604000   0.86170106   -3.5969532    1953.5277  0.062516887  0.062356627            2 
 2605000   0.84123963   -3.5664989    1955.4802   0.06255535   0.06234377            4 
 2606000   0.83866213   -3.5765104    1953.3272  0.062462496  0.062330861            5 
 2607000   0.84909407   -3.5594637    1959.9821  0.062651263  0.062318003            5 
 2608000   0.83293275    -3.580066     1952.726  0.062395385  0.062305049            4 
 2609000   0.83482935   -3.5837801    1954.2786  0.062421061  0.062292127            4 
 2610000   0.82896262   -3.5757027    1960.4822  0.062595217  0.062279191            4 
 2611000    0.8216039   -3.5776608     1956.789  0.062453369  0.062266224            2 
 2612000   0.84053863   -3.5719846    1952.7641  0.062301049  0.062253069            3 
 2613000   0.82996863   -3.5833562    1957.4874  0.062427841  0.062239975            5 
 2614000   0.83876429   -3.5782885    1955.2159  0.062331545  0.062226959            3 
 2615000   0.83965951   -3.5677684    1957.7222  0.062387579  0.062214001            3 
 2616000   0.82163051   -3.5869628    1956.4782  0.062324102   0.06220119            3 
 2617000   0.84892142    -3.577032    1963.8889  0.062536266  0.062188377            2 
 2618000   0.81172123   -3.5681278    1957.6216  0.062312885  0.062175541            8 
 2619000   0.82878708   -3.5794529    1959.1389  0.062337372   0.06216259            4 
 2620000   0.83056825   -3.5810397    1959.9661  0.062339889   0.06214957            2 
 2621000   0.82539947   -3.5875326    1952.0877  0.062065613  0.062136581            2 
 2622000   0.84719097   -3.5340035    1958.8371  0.062256455  0.062123728            4 
 2623000   0.81906961   -3.5560364    1957.6324  0.062194447  0.062111023            2 
 2624000   0.82318448   -3.5700997    1958.4356  0.062196252  0.062098368            5 
 2625000   0.82466298   -3.5770463     1963.647  0.062338001  0.062085554            3 
 2626000    0.8366215   -3.5845873    1964.8293  0.062351781  0.062072632            4 
 2627000   0.83946368   -3.5813344    1963.1688  0.062275371  0.062059695            8 
 2628000   0.81199776   -3.5534653    1959.2153   0.06212631  0.062046932            4 
 2629000   0.84906768   -3.5888372    1961.1756  0.062164817  0.062034147            7 
 2630000   0.84301054   -3.5739569     1968.243  0.062365113  0.062021296            2 
 2631000   0.83078313   -3.5909286    1973.3914   0.06250448  0.062008557            4 
 2632000   0.82615505   -3.5883973    1969.4755  0.062356747  0.061995835            3 
 2633000   0.82233081   -3.5652462    1967.0232  0.062255449   0.06198319            5 
 2634000   0.83012565   -3.5741775     1967.829  0.062257308  0.061970372            8 
 2635000    0.8340042   -3.5724525    1969.2969  0.062280104  0.061957666           11 
 2636000   0.84958025   -3.5759359    1971.9054  0.062338941  0.061945105            5 
 2637000    0.8528803   -3.5592089      1974.73  0.062404565  0.061932478            4 
 2638000   0.82395516   -3.5554428    1971.4237  0.062276463  0.061919854            5 
 2639000   0.84516801   -3.5991628    1966.0377  0.062082787  0.061907059            1 
 2640000   0.82581129   -3.5955358    1966.4774  0.062073151  0.061894453            3 
 2641000    0.8214324   -3.5849824    1971.1491  0.062197055  0.061881835            3 
 2642000   0.82142723   -3.5709312    1970.6099  0.062156509  0.061869194            4 
 2643000   0.82766656   -3.5809191    1970.2319   0.06212107  0.061856661            3 
 2644000   0.83760955   -3.5827417     1966.777  0.061988686  0.061843894            4 
 2645000   0.82912918   -3.6031083    1969.8818   0.06206307   0.06183119            5 
 2646000   0.79871987   -3.5767949     1969.084  0.062014487  0.061818501            6 
 2647000   0.83056937   -3.5872583    1974.1215   0.06214965  0.061805776            3 
 2648000   0.81559103   -3.5855619    1968.8572  0.061960512  0.061793036            7 
 2649000   0.83071569   -3.5778475    1974.7803  0.062123451  0.061780382            2 
 2650000   0.83521453    -3.593735    1979.1017  0.062235903  0.061767672            5 
 2651000   0.83669645   -3.5651414    1978.8141  0.062203384     0.061755            6 
 2652000   0.81915627   -3.5604925    1979.6297  0.062205558   0.06174236            5 
 2653000   0.82691128     -3.59878    1975.4781  0.062051706  0.061729614            5 
 2654000   0.82999031   -3.6134223    1974.5936  0.062000552   0.06171671            4 
 2655000   0.81997114   -3.6186779    1962.1632  0.061587044  0.061703689            3 
 2656000    0.8209405   -3.5960116     1972.099  0.061875596  0.061690666            9 
 2657000   0.80436831   -3.5773582      1974.89  0.061939845  0.061677695            4 
 2658000   0.82349371   -3.5761344    1982.9294  0.062168592  0.061664977            2 
 2659000    0.8369016   -3.5591463    1978.2619  0.061998931   0.06165226            3 
 2660000   0.83114291   -3.5970977    1985.5395  0.062203617  0.061639697            3 
 2661000   0.83568976   -3.5827226    1976.2013  0.061887801  0.061626945            4 
 2662000   0.82581134   -3.5888342    1975.8302  0.061852936  0.061614265            6 
 2663000   0.82014634   -3.5845755    1976.3262  0.061845231  0.061601432            2 
 2664000   0.83183658   -3.5950462    1974.5719  0.061767138  0.061588691            6 
 2665000   0.80811406   -3.5694611     1979.798  0.061907379  0.061575961            7 
 2666000   0.80890213    -3.593768    1979.1774  0.061864759  0.061563294            3 
 2667000   0.83254159   -3.6021978    1978.0748  0.061807112  0.061550548            3 
 2668000   0.81901588   -3.5778713    1982.3469  0.061917382  0.061537719            2 
 2669000   0.81314751   -3.5686559    1973.7383  0.061625401  0.061524952           12 
 2670000    0.8289755   -3.5809092    1978.7048  0.061757329  0.061512108            5 
 2671000   0.82894023   -3.5849423    1973.3252  0.061566369   0.06149929            5 
 2672000   0.80964504   -3.5877707    1970.4751  0.061454439  0.061486369            8 
 2673000   0.82079763   -3.6027707    1972.3575  0.061490132  0.061473467            3 
 2674000   0.82629111   -3.5723237    1979.6726  0.061695108  0.061460488            4 
 2675000   0.82341884   -3.5801316    1974.4991  0.061510876  0.061447699            2 
 2676000   0.82457823   -3.5799268    1978.4976  0.061612408  0.061434736            3 
 2677000   0.80802296   -3.6001827      1979.14  0.061609388  0.061421885            3 
 2678000   0.81732415    -3.632304    1970.3606  0.061313189  0.061408906           14 
 2679000   0.80794371   -3.5837247     1980.664    0.0616108  0.061395889            9 
 2680000   0.82155401   -3.6115673    1964.3357  0.061080089   0.06138288            6 
 2681000   0.82406458   -3.5717418    1976.3085  0.061429457  0.061370042            5 
 2682000   0.82579719   -3.5919244    1972.2137  0.061279322   0.06135696            9 
 2683000   0.83027343   -3.6050867    1985.1269  0.061657563   0.06134408            4 
 2684000   0.81634973    -3.592445    1982.3232  0.061547542  0.061331182            4 
 2685000   0.81318015   -3.5920098    1977.3943  0.061371642  0.061318293            3 
 2686000   0.83735338   -3.5709129    1979.1145  0.061402164  0.061305414            7 
 2687000   0.81124958   -3.5822219    1979.6406  0.061395627  0.061292505            7 
 2688000   0.79382652   -3.5976783    1984.0961  0.061510915  0.061279783            3 
 2689000   0.82798046   -3.5684718    1982.1429  0.061427511  0.061266912            2 
 2690000   0.83241458   -3.6033677    1980.0068    0.0613385  0.061253928            5 
 2691000   0.83510109    -3.585426    1979.2062  0.061290914  0.061241055            4 
 2692000   0.82827687   -3.5997246     1979.897  0.061289531  0.061228003            5 
 2693000   0.81818025   -3.5912776    1984.0062  0.061393928   0.06121508            8 
 2694000   0.83025652   -3.5599645    1983.5856  0.061358128  0.061202143            6 
 2695000   0.80678385   -3.5990889    1982.9452   0.06131556  0.061189233            4 
 2696000   0.82535499   -3.6010241    1982.2819  0.061272313  0.061176112            5 
 2697000   0.81419849   -3.6023225    1986.6985  0.061386063  0.061163211            4 
 2698000   0.81542598    -3.612095    1983.7579  0.061272484  0.061150104            4 
 2699000   0.83640675   -3.5898845    1979.3697  0.061114294  0.061137137            2 
 2700000   0.81256169    -3.627794    1983.7749  0.061227621  0.061124105            3 
 2701000    0.8056328   -3.5944585    1986.8834  0.061300858  0.061110952            5 
 2702000   0.82907341   -3.5856384     1987.005  0.061281922  0.061097889            5 
 2703000   0.82960593   -3.5924133     1982.314  0.061114627  0.061084793            7 
 2704000   0.83018772   -3.6155274    1984.4725  0.061158545  0.061071528            3 
 2705000   0.83259209   -3.6197738    1984.0441   0.06112274  0.061058366            3 
 2706000   0.80558287   -3.6059554    1983.8976  0.061095639  0.061045297            3 
 2707000   0.82937364   -3.6096703    1986.5193  0.061153779   0.06103214            3 
 2708000   0.81950389   -3.6334546    1984.8003  0.061078297  0.061018996            5 
 2709000   0.83497125   -3.6117448    1986.4538  0.061106612  0.061005667            3 
 2710000   0.82048487   -3.5867315    1993.7668  0.061308941  0.060992608            4 
 2711000   0.80691598   -3.5941794    1988.7785  0.061132993  0.060979664            2 
 2712000   0.83284641   -3.5908631    1995.1572  0.061306453  0.060966689            6 
 2713000   0.81619227   -3.6023211    1995.2443   0.06128653  0.060953629            3 
 2714000   0.81837694   -3.5953505    1991.3327  0.061143844  0.060940639            5 
 2715000   0.82408624   -3.5986218    1986.1786  0.060963125  0.060927682            2 
 2716000   0.82783387   -3.5979043    1996.0285  0.061242896  0.060914715            5 
 2717000    0.8138704   -3.6079712    1983.3003  0.060829967  0.060901864            7 
 2718000   0.80286952   -3.5964556    1993.8642  0.061131477  0.060889079            5 
 2719000    0.8249239   -3.5912101    1998.1688  0.061240922  0.060876216            5 
 2720000   0.81765922   -3.5734896    1995.0955  0.061124248   0.06086338            5 
 2721000   0.82048602   -3.5842111    1991.3548  0.060987222  0.060850458            5 
 2722000   0.82122714   -3.5983481    1985.9942  0.060800704  0.060837584            4 
 2723000   0.80608383   -3.6031625    1990.3839  0.060912717  0.060824592            4 
 2724000   0.81086757   -3.6061399    1990.3369  0.060888916  0.060811771            6 
 2725000   0.82230887   -3.5841645    1996.4424  0.061053286  0.060798975            4 
 2726000   0.82027715   -3.5915987     1994.033  0.060957233  0.060786175            7 
 2727000   0.79536854   -3.6163887     1989.727  0.060803293   0.06077344            4 
 2728000   0.83158547    -3.635913    1995.0577  0.060943845  0.060760543            5 
 2729000   0.80410177   -3.6239521    1998.7546  0.061034403  0.060747904           10 
 2730000   0.81684063   -3.5909387    2002.4925  0.061126145  0.060735064            6 
 2731000   0.81281633   -3.6207948    2001.5722  0.061075681  0.060722348            5 
 2732000   0.83327771   -3.5953013    2005.0814  0.061160365  0.060709621            3 
 2733000   0.81077597   -3.5880201    2003.0293  0.061075414  0.060696899            3 
 2734000   0.80616017   -3.5815366    1996.2904  0.060847672  0.060684259            5 
 2735000   0.82078885    -3.609108    1997.4987   0.06086224  0.060671592            3 
 2736000   0.83784761   -3.5859703    2007.2035  0.061135585   0.06065887            5 
 2737000   0.80640624   -3.5930842    2007.4173  0.061119758  0.060646142            4 
 2738000   0.80135838    -3.598226    1994.1223  0.060692789  0.060633383            7 
 2739000   0.80790212   -3.6046304    2001.9289  0.060908146  0.060620634            2 
 2740000   0.81708521   -3.6041798    1998.9499  0.060795314  0.060607753           10 
 2741000    0.8263182   -3.6064244    2005.1787  0.060962505  0.060594826            5 
 2742000   0.79931241   -3.6202489    2001.9472  0.060842063  0.060582089            4 
 2743000   0.81165744   -3.6197402    2003.1248  0.060855656  0.060569409            4 
 2744000   0.81086494   -3.6106106    1998.5103  0.060693339  0.060556625            5 
 2745000   0.81313221   -3.6107362    2003.3516  0.060818202  0.060543963            3 
 2746000   0.83212962   -3.5864048     2004.443  0.060829177  0.060531283            7 
 2747000   0.79176239   -3.5954774    2000.8874  0.060699168  0.060518637            4 
 2748000   0.81004264   -3.5942388     2000.944  0.060678798  0.060505945            3 
 2749000   0.81168848   -3.6135213     2007.651  0.060860039  0.060493245           11 
 2750000   0.80507827   -3.6090243       2003.2  0.060703031  0.060480359            4 
 2751000   0.81249354    -3.598155    2005.1989  0.060741517  0.060467528            4 
 2752000   0.80095457   -3.6255812    2001.7388  0.060614667  0.060454748            3 
 2753000   0.81453009   -3.6089926    2006.2678  0.060729744   0.06044191            4 
 2754000   0.80255869   -3.6170787     2008.049  0.060761589    0.0604292            4 
 2755000   0.80053014   -3.6126833    2007.0432   0.06070911  0.060416388            7 
 2756000   0.81672571   -3.5911101    2006.7039  0.060676823  0.060403674            3 
 2757000   0.82889237   -3.5818706    2004.6945   0.06059408  0.060390852            7 
 2758000   0.81361045    -3.626779    2008.3003  0.060681058  0.060377947            4 
 2759000   0.82845116   -3.5900377    2002.4011  0.060480883  0.060365099            4 
 2760000   0.80288448   -3.6023572    2005.1382  0.060541613  0.060352278            5 
 2761000   0.81192237   -3.6005432     1999.632  0.060353496  0.060339497            5 
 2762000   0.80444271    -3.626113    2006.9695  0.060553027  0.060326668            4 
 2763000   0.81855973   -3.5840451    2007.8106   0.06055648  0.060313902            4 
 2764000   0.78889551   -3.6039641    2008.9843  0.060569955  0.060301322            3 
 2765000   0.80946165   -3.6031548    2013.0315  0.060670028  0.060288612            4 
 2766000   0.81302084   -3.6215465    2008.0344  0.060497542  0.060276016            4 
 2767000   0.81213936   -3.6138798    2011.5838  0.060582576  0.060263363            4 
 2768000   0.79905686   -3.6263039    2015.1274  0.060667371   0.06025078            5 
 2769000   0.81301817   -3.6245765    2004.9913  0.060340415  0.060238165            3 
 2770000   0.80107773    -3.611657    2014.3918  0.060601437  0.060225644            7 
 2771000   0.81931806   -3.6059425    2015.8184  0.060622472  0.060213088            4 
 2772000   0.81592067   -3.6096043     2006.571  0.060322601  0.060200494            3 
 2773000   0.80680516   -3.5910995    2013.1427  0.060498338  0.060187887            2 
 2774000   0.81071435   -3.6125919     2013.746  0.060494653  0.060175348            4 
 2775000   0.80652861   -3.6144597    2016.8933  0.060567366  0.060162744            3 
 2776000   0.80576565   -3.6273856    2012.9913  0.060428414  0.060150134            4 
 2777000   0.81591888   -3.6152435    2015.6538   0.06048655    0.0601375            3 
 2778000   0.80431186   -3.6185813    2011.2883  0.060333823  0.060124993            5 
 2779000   0.80756286   -3.6007294    2023.9189  0.060690864  0.060112447            6 
 2780000    0.8026642     -3.60945    2014.8632  0.060397578  0.060099861            7 
 2781000   0.81365313   -3.6298747    2023.0868  0.060622281  0.060087372            7 
 2782000   0.78855141   -3.6503076    2012.3387  0.060278536  0.060074739            5 
 2783000   0.79657998   -3.6035461    2025.7275   0.06065779  0.060062249            3 
 2784000   0.81614764   -3.6452112    2014.4796  0.060299318  0.060049747            6 
 2785000    0.8123508   -3.6284861    2014.6535  0.060282868  0.060037233            4 
 2786000   0.81281395   -3.6236666    2017.1351  0.060335459  0.060024864            3 
 2787000   0.81379449    -3.632642    2016.9214  0.060307422   0.06001241            7 
 2788000   0.78962329   -3.6295387    2019.2413  0.060355133  0.059999994            3 
 2789000   0.80472868   -3.5986547    2025.7335  0.060527474   0.05998766            2 
 2790000   0.82049529   -3.6304525    2015.7767  0.060208384  0.059975127            5 
 2791000   0.79904978   -3.6037869    2021.6975  0.060363595  0.059962645            4 
 2792000   0.81524714   -3.6288948     2021.945  0.060349362  0.059950252            4 
 2793000   0.82208981   -3.6422168    2017.8504  0.060205587   0.05993773            4 
 2794000   0.80470676   -3.6138415    2022.4969  0.060322623   0.05992515            8 
 2795000   0.81910835   -3.6210665    2028.1046  0.060468234  0.059912685            7 
 2796000   0.81584672   -3.6194357    2016.5003  0.060100747  0.059900127            3 
 2797000   0.81917279   -3.6334371    2025.4171  0.060344927  0.059887509            4 
 2798000   0.79522255   -3.5969736    2024.1138  0.060284543  0.059875015            5 
 2799000   0.81082618    -3.623214    2021.8177  0.060194643  0.059862394            5 
 2800000   0.80175852   -3.6203302    2021.5261  0.060164466  0.059849945            5 
 2801000   0.81992805   -3.5880013    2027.4338   0.06031875  0.059837489            8 
 2802000   0.79366115   -3.6283462    2024.9992  0.060224816  0.059825001            4 
 2803000   0.79565551   -3.6300842    2021.7216  0.060105885   0.05981231            3 
 2804000   0.79580003   -3.6458581    2026.8174  0.060235895   0.05979961            5 
 2805000   0.80401696   -3.6023017    2028.8013  0.060273359  0.059787076            2 
 2806000    0.7996697   -3.6370431    2023.9174  0.060106835  0.059774592            8 
 2807000   0.79583684   -3.5891623    2031.9769  0.060324692  0.059762134            3 
 2808000   0.81050734   -3.6120997    2034.9473  0.060391361  0.059749824            2 
 2809000   0.82143333   -3.6108196    2029.5738  0.060210448   0.05973742            3 
 2810000   0.78243452   -3.6538263    2030.3232  0.060211245  0.059724912            3 
 2811000   0.78664713   -3.6310158     2030.364  0.060191035  0.059712505            3 
 2812000   0.80795336   -3.6135315    2023.6269  0.059969977  0.059700128            3 
 2813000     0.810944   -3.6209119    2023.8476  0.059955196  0.059687704            3 
 2814000   0.80120977     -3.60601    2028.1143  0.060060245  0.059675406            5 
 2815000   0.79498825   -3.6261366    2031.4843  0.060138671  0.059663121            5 
 2816000   0.80393757   -3.6184738    2031.9432  0.060130896  0.059650654            3 
 2817000   0.81461756   -3.6277181    2027.4175  0.059975668  0.059638296            5 
 2818000   0.79406529   -3.6160997     2026.694  0.059932989    0.0596259            5 
 2819000   0.78882968   -3.6233411    2036.6186  0.060205113  0.059613501            4 
 2820000   0.79682536    -3.602883    2033.2728  0.060084894  0.059601105            5 
 2821000   0.79649342   -3.6204988    2043.4524  0.060364304   0.05958868            2 
 2822000   0.79290804    -3.624477    2031.0273     0.059976  0.059576351            6 
 2823000     0.812211   -3.5944221    2035.1154  0.060075433  0.059563984            4 
 2824000   0.80381938   -3.5995439    2027.5549  0.059831057  0.059551739            4 
 2825000    0.7935465   -3.6384514    2037.0789  0.060090824  0.059539305            6 
 2826000   0.79914174   -3.6194495      2036.43  0.060050424   0.05952684            2 
 2827000   0.79539855   -3.6293693    2037.2025  0.060051954  0.059514431            5 
 2828000   0.81751234   -3.6008645    2035.6316   0.05998443  0.059502114            3 
 2829000   0.78976548    -3.609501    2031.0691   0.05982883  0.059489693            5 
 2830000   0.79931391   -3.6273638    2033.4818  0.059878734   0.05947724            3 
 2831000   0.79984705   -3.6376523    2035.8653  0.059927742  0.059464806            7 
 2832000   0.80214785   -3.6284112    2027.2039  0.059651716  0.059452351            4 
 2833000   0.77308859   -3.6371269    2037.6151  0.059936907  0.059439859            4 
 2834000   0.80480001   -3.6266021    2036.7758  0.059891079  0.059427432            3 
 2835000   0.79342248   -3.6372034    2036.4774  0.059861181  0.059414825            7 
 2836000   0.79196423   -3.6364407    2036.1604   0.05983076  0.059402453            3 
 2837000   0.81030161   -3.6225659    2039.8728  0.059918716  0.059390004            3 
 2838000   0.80581505    -3.651157    2036.4208  0.059796241  0.059377551            8 
 2839000   0.78877128   -3.6305537     2032.097  0.059648261  0.059365076            4 
 2840000   0.78858674    -3.625475    2032.2502  0.059631754  0.059352597            4 
 2841000   0.80483851   -3.6245348    2035.1473  0.059695744   0.05934015            5 
 2842000   0.79139225   -3.6589653    2034.3195  0.059650465  0.059327862            3 
 2843000   0.80173765   -3.6439864    2029.6091  0.059491416  0.059315313            3 
 2844000   0.79185541   -3.6312903    2034.1865   0.05960462  0.059302677            4 
 2845000    0.7987025   -3.6384041    2034.3143  0.059587414  0.059290254            4 
 2846000   0.78191806     -3.61291    2035.9208  0.059613517  0.059277836            5 
 2847000   0.79836785    -3.629251    2036.4478  0.059608003  0.059265294            4 
 2848000   0.79652289   -3.6239784    2037.3682  0.059614004  0.059252977            5 
 2849000    0.7922806   -3.6391162    2041.3837  0.059710533  0.059240548            4 
 2850000   0.80680784   -3.6276921    2040.4941  0.059663569   0.05922808            8 
 2851000   0.78423835   -3.6538347    2033.9321  0.059450838  0.059215612            4 
 2852000   0.78048151    -3.617798    2034.8013  0.059455392  0.059203115            8 
 2853000   0.78522926   -3.6465751    2035.3684  0.059451116  0.059190675            3 
 2854000   0.80218192   -3.6343453     2046.522  0.059755956   0.05917822            3 
 2855000   0.79618914   -3.6445044    2031.1194  0.059285446  0.059165851            8 
 2856000   0.78506812   -3.6343284    2039.4127  0.059506674   0.05915341            3 
 2857000   0.79293223   -3.6374446    2042.4764  0.059575208  0.059140958            3 
 2858000   0.78608029   -3.6263289    2042.1827  0.059545798  0.059128581            3 
 2859000   0.79437799   -3.6340801    2040.6681  0.059480824  0.059116232            5 
 2860000   0.80581081   -3.6459477    2044.4634  0.059570611  0.059103705           10 
 2861000   0.80856026   -3.6214961     2048.219  0.059659182   0.05909127            4 
 2862000   0.79167703   -3.6434195    2044.3633  0.059526068  0.059078938            4 
 2863000   0.78536228   -3.6594204    2046.2524  0.059560262  0.059066603            6 
 2864000   0.79314896   -3.6303878    2039.2225  0.059334918  0.059054303            6 
 2865000   0.79821894   -3.6409056      2044.35  0.059463351  0.059042003            4 
 2866000   0.79597193   -3.6093907    2042.6628  0.059393544  0.059029661            3 
 2867000   0.78054997   -3.6551955    2042.1618  0.059358267  0.059017426            4 
 2868000   0.80565846   -3.6451783    2047.5445  0.059493969  0.059005192            4 
 2869000   0.78777786   -3.6283674    2042.9767  0.059340558  0.058992855            2 
 2870000   0.80191256   -3.6425495    2042.2586   0.05929903  0.058980437            1 
 2871000   0.78381751   -3.6383536    2043.9988  0.059328885  0.058968022            3 
 2872000   0.79078324   -3.6418686    2040.6036  0.059209715  0.058955676            4 
 2873000   0.77841264   -3.6489943    2039.6455  0.059161314  0.058943265            5 
 2874000   0.79612197   -3.6454263     2045.552  0.059311992  0.058931006            3 
 2875000   0.79420434   -3.6256036    2047.1075  0.059336451  0.058918659            8 
 2876000     0.785103   -3.6229647    2045.2416  0.059261752  0.058906351            8 
 2877000   0.81382877   -3.6642172    2047.2736  0.059300011  0.058893944            5 
 2878000   0.77593041   -3.6436464     2053.981  0.059473622   0.05888161            9 
 2879000   0.79451467   -3.6482473    2047.8113  0.059274381  0.058869098            6 
 2880000   0.80231509   -3.6355963    2051.1949  0.059351705   0.05885664            3 
 2881000   0.79804484   -3.6146232    2050.7429  0.059318029  0.058844237            4 
 2882000   0.78575415   -3.6389921    2048.3452  0.059228118  0.058831969            6 
 2883000   0.79268204   -3.6656361    2048.8198   0.05922129  0.058819496            4 
 2884000   0.79016254   -3.6401306     2051.246  0.059270862  0.058807141            3 
 2885000   0.78398853   -3.6289195    2051.2066  0.059249181  0.058794676            6 
 2886000   0.78009306   -3.6469395    2043.2306  0.058998342  0.058782118            2 
 2887000   0.78865318   -3.6445647    2047.9896  0.059115275  0.058769577            2 
 2888000   0.78058172   -3.6384772    2049.8079  0.059147274  0.058757083            5 
 2889000   0.78275632   -3.6426715    2049.9657  0.059131351  0.058744532            3 
 2890000   0.78299074   -3.6566834    2050.4393  0.059124548  0.058732174           11 
 2891000   0.79561897   -3.6571667    2054.4368  0.059219324  0.058719816            5 
 2892000   0.79778641   -3.6495238    2055.5676  0.059231432  0.058707431            3 
 2893000   0.80006796   -3.6495927     2052.798  0.059131179  0.058695203            3 
 2894000    0.7882803   -3.6555631    2051.2306  0.059065614  0.058682973            5 
 2895000   0.78049487   -3.6568355      2057.37  0.059221933  0.058670678            4 
 2896000   0.78518935    -3.647265     2053.149  0.059080023  0.058658288            5 
 2897000   0.80777076   -3.6528504    2050.5769  0.058985644  0.058646099            5 
 2898000   0.78609268   -3.6802444    2054.2082   0.05906971  0.058633742            7 
 2899000   0.79706632   -3.6350736    2059.9069  0.059213147  0.058621352            9 
 2900000   0.80950814   -3.6359324    2057.5502  0.059125005  0.058609108            3 
 2901000   0.79447636   -3.6316732    2054.0731  0.059004743  0.058596966            5 
 2902000   0.79614705    -3.653975    2050.5878  0.058884328  0.058584656            6 
 2903000   0.78428301    -3.661178    2056.3577  0.059029673  0.058572536            6 
 2904000   0.77999763   -3.6463197    2058.8471  0.059080782  0.058560405            4 
 2905000   0.77513687   -3.6708541    2057.8336  0.059031371  0.058548178            3 
 2906000   0.79106254   -3.6415774    2052.6686  0.058862946  0.058535885            3 
 2907000   0.78590525   -3.6494816    2054.7113  0.058901252  0.058523734            6 
 2908000   0.77703832   -3.6258047    2057.7107  0.058966952   0.05851144            4 
 2909000   0.80065967   -3.6343882    2057.4768   0.05893998   0.05849915            4 
 2910000   0.77835439   -3.6746403    2053.5346  0.058806832  0.058486984            5 
 2911000   0.79171059   -3.6439928    2058.7903  0.058937087  0.058474728            4 
 2912000   0.78647431   -3.6488937    2060.0362    0.0589525  0.058462376            4 
 2913000   0.77729243   -3.6390863    2055.8993  0.058813917  0.058450236            4 
 2914000   0.77756157   -3.6485089    2056.4201  0.058808628  0.058437962            2 
 2915000   0.78439895   -3.6442077    2058.6701  0.058852776  0.058425595            3 
 2916000   0.80158062   -3.6486534    2059.6928  0.058861819  0.058413287            2 
 2917000   0.77347082   -3.6515022    2061.7661  0.058900871  0.058401031            3 
 2918000   0.79085331   -3.6518862    2056.7594  0.058737703  0.058388731            4 
 2919000   0.78316466    -3.660401     2057.999  0.058752968  0.058376415            5 
 2920000   0.76952266   -3.6556814    2065.1367   0.05893655  0.058364099            3 
 2921000   0.76609746   -3.6216633    2061.1258  0.058801946  0.058351825            4 
 2922000   0.77802557   -3.6642699    2063.7004  0.058855249  0.058339551            7 
 2923000   0.78406074   -3.6269853    2064.4632   0.05885686  0.058327231            2 
 2924000    0.7863617   -3.6268764    2060.9815  0.058737502  0.058315007            2 
 2925000   0.78410959     -3.64235     2055.987  0.058575129  0.058302617            6 
 2926000   0.78351437   -3.6457706     2060.928  0.058695832   0.05829018            7 
 2927000   0.78822418   -3.6520775     2065.149  0.058795951  0.058277901            5 
 2928000   0.77237653   -3.6381821    2070.5284  0.058928973  0.058265729            6 
 2929000   0.75694128   -3.6526463    2062.1142  0.058669462  0.058253497            7 
 2930000   0.78055826   -3.6513112    2063.6361  0.058692722  0.058241167            6 
 2931000   0.77325411   -3.6657967    2061.0181  0.058598264  0.058229053            5 
 2932000   0.78460371   -3.6658044      2065.56  0.058707367  0.058216794            6 
 2933000   0.77184169    -3.647674    2064.2449  0.058649985   0.05820463            6 
 2934000   0.76877211   -3.6377711    2067.6573  0.058726918  0.058192408            5 
 2935000   0.78187234   -3.6449895    2067.2102  0.058694214  0.058180119            8 
 2936000   0.79493012   -3.6580199    2061.1565  0.058502398  0.058167807            2 
 2937000   0.78041952   -3.6579925    2066.3723  0.058630471  0.058155506            4 
 2938000    0.7915555   -3.6712615    2066.9745  0.058627596   0.05814324            9 
 2939000   0.78633655   -3.6447884    2063.4806   0.05850858  0.058131013            8 
 2940000   0.76019515   -3.6720854    2058.4127  0.058345031  0.058118645            5 
 2941000   0.79099102   -3.6425247     2071.089  0.058684375  0.058106311            4 
 2942000   0.77211225   -3.6627253    2066.9782  0.058547988  0.058094038            6 
 2943000   0.79298293   -3.6391018    2071.5124  0.058656484  0.058081836            4 
 2944000   0.78444079   -3.6577864    2071.5391  0.058637317  0.058069623            6 
 2945000    0.7662014   -3.6691642    2064.7794  0.058426129  0.058057232            5 
 2946000    0.7809477   -3.6715667    2065.5961  0.058429398  0.058044919            5 
 2947000   0.76235218   -3.6672435     2066.427  0.058433068  0.058032539            7 
 2948000   0.77118202   -3.6628026    2067.2896  0.058437631  0.058020142           13 
 2949000   0.78283633   -3.6621978    2068.9934  0.058465961  0.058007801            7 
 2950000   0.76046018   -3.6774419    2068.3392  0.058427661  0.057995488            4 
 2951000   0.78029047   -3.6862308    2067.1752   0.05837499  0.057983085            5 
 2952000   0.78983257    -3.666401    2065.4522  0.058306577  0.057970773            4 
 2953000    0.7804816   -3.6693539     2070.729  0.058435743  0.057958535            6 
 2954000   0.78050284   -3.6872318    2064.7273  0.058246653  0.057946041            4 
 2955000   0.78084525   -3.6583582     2066.085  0.058265228  0.057933551            4 
 2956000   0.77373624   -3.6506195    2070.6668  0.058374686  0.057921228            5 
 2957000   0.79091345   -3.6607317    2068.1804  0.058284873  0.057908811            6 
 2958000   0.76437044   -3.6615351     2070.887  0.058341419  0.057896368            5 
 2959000   0.79142204   -3.6371474    2068.8361  0.058263943  0.057883961           12 
 2960000   0.77862243   -3.6645616    2065.3806  0.058146978   0.05787142           11 
 2961000   0.80155223   -3.6668602    2065.7785  0.058138537  0.057858919            7 
 2962000   0.78138127   -3.6559288    2067.9498  0.058179998  0.057846553            3 
 2963000    0.7918565   -3.6631081    2068.1159  0.058165031  0.057834213            5 
 2964000   0.77585615   -3.6502318     2066.227  0.058092302  0.057821671            3 
 2965000   0.77227874   -3.6663286    2065.8559  0.058062279  0.057809072            4 
 2966000   0.76355962   -3.6636185    2066.9262  0.058072774  0.057796558            3 
 2967000   0.77804546   -3.6661346    2073.0534  0.058225295  0.057783918            3 
 2968000   0.77344312   -3.6828733    2076.8898  0.058313392  0.057771296            7 
 2969000   0.78321059   -3.6669076    2063.6762  0.057922874  0.057758796            5 
 2970000   0.76783127   -3.6743551    2064.2751  0.057920176  0.057746258            6 
 2971000   0.77176734   -3.6515603    2063.1989  0.057870496  0.057733766            6 
 2972000   0.77117899   -3.6756125    2072.5017  0.058111868  0.057721271            8 
 2973000   0.77730048   -3.6616685    2073.0027  0.058106364  0.057708792            3 
 2974000     0.788364   -3.6614856    2075.4691  0.058155937  0.057696312            9 
 2975000   0.79265575   -3.7010552    2068.8714  0.057951581   0.05768379            6 
 2976000   0.79844108   -3.6728745     2070.724  0.057983984  0.057671328            6 
 2977000    0.7749589    -3.670051    2064.9681  0.057803384  0.057658907            3 
 2978000   0.76004005   -3.6766258    2071.1533  0.057957055  0.057646344            4 
 2979000   0.78079591   -3.6666217    2071.3225  0.057942333  0.057633782            9 
 2980000   0.77670347    -3.676143     2072.128  0.057945413  0.057621312            3 
 2981000   0.76659938   -3.6596433    2067.9458  0.057809062  0.057608775            4 
 2982000   0.77123335    -3.676737     2074.322  0.057967864  0.057596268            5 
 2983000   0.78188494   -3.6717199    2077.6976   0.05804273  0.057583764            2 
 2984000   0.77892099   -3.6847213    2066.1161  0.057699848  0.057571293            6 
 2985000    0.7842706   -3.6665633    2079.0843  0.058042553  0.057558829            4 
 2986000   0.78778834   -3.6838049    2073.5543  0.057868785  0.057546324            8 
 2987000   0.78249001   -3.6584691    2074.6938  0.057881203  0.057533919            3 
 2988000   0.77340374   -3.6653681    2076.0528  0.057899733  0.057521494            4 
 2989000   0.76459802   -3.6800594    2077.4919  0.057920484  0.057509052            3 
 2990000   0.77031378   -3.6564562    2074.4635  0.057816708  0.057496541            4 
 2991000   0.78840339   -3.6976166    2073.0433  0.057757811  0.057483971            4 
 2992000   0.77738536   -3.6818064    2080.2808  0.057940086   0.05747136            2 
 2993000   0.76963243    -3.675409    2073.6293  0.057735531  0.057458843            4 
 2994000   0.77204771   -3.6626909     2074.095  0.057729209  0.057446275            4 
 2995000   0.77170255   -3.6572942    2079.8245  0.057869351  0.057433717            6 
 2996000   0.76351212   -3.6697525    2075.8901  0.057740602  0.057421163            7 
 2997000   0.75965577   -3.6743831    2078.2845  0.057787912  0.057408637           17 
 2998000   0.78284867   -3.6629295    2071.7177  0.057586106  0.057396079            3 
 2999000   0.76327784   -3.6808106    2080.7537  0.057817987  0.057383355            4 
 3000000   0.76590489   -3.6595507    2080.8586  0.057801629   0.05737067            5 
 3001000   0.77656213   -3.6609806    2070.4846  0.057494297  0.057358212            4 
 3002000   0.77946049    -3.676123     2074.882  0.057597214  0.057345574            4 
 3003000   0.77425279   -3.6391555    2081.6182  0.057764963  0.057333088            3 
 3004000   0.76120042   -3.6777972    2077.4319  0.057629602  0.057320541            2 
 3005000   0.78928278   -3.6744112    2076.6672  0.057589217  0.057308096            6 
 3006000   0.79300584   -3.6693951    2078.4961  0.057620761  0.057295598            4 
 3007000   0.77305324   -3.6728841    2078.6746  0.057606546  0.057283113            4 
 3008000   0.76815617   -3.6703159    2081.2054  0.057657509  0.057270615            7 
 3009000   0.76615277    -3.662502    2081.4632  0.057645486  0.057258033            4 
 3010000   0.78295375   -3.6597138    2081.9305  0.057639271  0.057245451            6 
 3011000   0.76736517   -3.6674867    2082.0788  0.057624233  0.057232986            2 
 3012000   0.77217049   -3.6872255    2077.9431   0.05749068  0.057220473            5 
 3013000   0.75643833   -3.6813807    2082.7067   0.05760335  0.057208017            8 
 3014000   0.75282605   -3.6737433    2078.1006  0.057456884  0.057195433            4 
 3015000   0.77629681   -3.6780132    2083.0434  0.057574444  0.057182876            6 
 3016000   0.77846398   -3.6812147    2079.2686  0.057451055  0.057170272            3 
 3017000   0.79102347    -3.713369    2074.5033   0.05730039  0.057157588            3 
 3018000   0.75607218   -3.6648549    2081.2634  0.057468064  0.057145172            5 
 3019000    0.7821858   -3.6560182    2078.8976  0.057383725  0.057132646            5 
 3020000   0.77168046   -3.6661321    2087.5562  0.057603647  0.057120041            9 
 3021000    0.7676674    -3.671319    2078.2995  0.057329237  0.057107462           11 
 3022000   0.77301417   -3.7109241     2081.426  0.057396481  0.057094916            4 
 3023000   0.77518372   -3.6971333    2076.9776  0.057254867  0.057082501            9 
 3024000   0.76843025   -3.6840142    2087.2341  0.057518577  0.057069903            4 
 3025000   0.77022875   -3.6866146    2083.7557  0.057403738  0.057057408            2 
 3026000   0.77246622   -3.6822089    2083.4202  0.057375528  0.057044863            3 
 3027000   0.77667317   -3.6495829     2087.933   0.05748081  0.057032392            4 
 3028000   0.77436308    -3.690071    2078.7263  0.057208452  0.057019901            3 
 3029000   0.76237145   -3.6723452    2080.1986   0.05723007  0.057007343            5 
 3030000   0.76537129   -3.6690415    2091.2921  0.057516284  0.056994898           10 
 3031000    0.7534319   -3.6859653    2086.7337  0.057371982  0.056982381            4 
 3032000   0.76215161   -3.6681073    2085.8846  0.057329723  0.056969792            5 
 3033000   0.76569694   -3.6900206    2084.5561  0.057274319   0.05695725           12 
 3034000   0.76100583   -3.6701668    2089.1848  0.057382576  0.056944809            4 
 3035000    0.7937995   -3.6923402    2093.5212  0.057482735   0.05693228            3 
 3036000   0.77666463     -3.67292    2080.2663  0.057099975  0.056919737            7 
 3037000   0.76424643   -3.6777243    2080.2401  0.057080454  0.056907337            2 
 3038000   0.77488738   -3.7072881    2091.5673  0.057372375   0.05689481            3 
 3039000   0.77155939   -3.6912686    2089.7324  0.057303182  0.056882261            9 
 3040000   0.77550326   -3.6769538    2089.9507  0.057290315  0.056869764            4 
 3041000   0.77249277    -3.672908    2090.3411  0.057282174  0.056857427            5 
 3042000   0.76756665   -3.6740555    2089.9532  0.057252717  0.056845019            3 
 3043000   0.77814922   -3.6974205    2092.8584  0.057313464   0.05683266            5 
 3044000   0.75762508   -3.6549461    2096.2111  0.057386419  0.056820308            6 
 3045000   0.76993759   -3.6828668    2086.2811  0.057095815  0.056807971            5 
 3046000   0.77705807   -3.6818085    2087.7197   0.05711643  0.056795577            3 
 3047000   0.75350345   -3.6668125    2091.8725  0.057211259  0.056783165            5 
 3048000   0.77180068   -3.6698742     2090.439  0.057153298  0.056770765            4 
 3049000   0.76365263   -3.6868966    2088.5683  0.057083425  0.056758365            4 
 3050000   0.78640173   -3.6798487    2094.5743  0.057228805  0.056745975            7 
 3051000   0.76935417   -3.6872072    2093.3592  0.057176861  0.056733573            7 
 3052000   0.76315792   -3.6967744    2090.0891  0.057068836  0.056721107            4 
 3053000   0.76819563   -3.6799969    2097.5345  0.057253371  0.056708784            4 
 3054000   0.77767783   -3.6732982    2092.2433  0.057090245   0.05669633            7 
 3055000   0.76321771   -3.6678325    2098.7712  0.057249625   0.05668403            8 
 3056000   0.76587446   -3.7111628    2094.4222  0.057112297  0.056671726            9 
 3057000    0.7486148    -3.686473    2092.6776  0.057046059  0.056659245            8 
 3058000   0.76742546   -3.6982909    2090.8626  0.056977944  0.056647084            3 
 3059000   0.75117271   -3.7036138    2089.9626  0.056934799  0.056634665            2 
 3060000    0.7508969   -3.6597515    2096.2992  0.057088759  0.056622382            5 
 3061000   0.76019136   -3.6831003    2092.6737  0.056971408  0.056610278            6 
 3062000   0.76655717   -3.6753344    2095.8231  0.057038511  0.056597997            2 
 3063000   0.74346636   -3.7112402    2098.1146  0.057082234  0.056585727            3 
 3064000   0.74850362   -3.6926998    2098.9804  0.057087152  0.056573423           11 
 3065000   0.75483217   -3.6737052    2104.2578  0.057212011  0.056561278            4 
 3066000   0.77464624   -3.7023687    2099.0551  0.057051942   0.05654906            3 
 3067000   0.75595164   -3.6917527    2095.3221  0.056931913  0.056536794            7 
 3068000   0.73218469    -3.688683    2103.4553   0.05713427  0.056524517            4 
 3069000   0.76232644   -3.7012669     2095.262   0.05689318  0.056512236           10 
 3070000   0.74642294   -3.6892628    2096.9487  0.056920431  0.056499972            7 
 3071000   0.75748307   -3.6794809    2100.5341  0.056999189  0.056487826            5 
 3072000   0.75194901   -3.6749367    2101.0116  0.056993587  0.056475601            4 
 3073000   0.78244587   -3.7112056    2094.6566  0.056802707  0.056463377            7 
 3074000   0.77411935   -3.7126297    2095.6051  0.056809942  0.056451144            2 
 3075000   0.74995796   -3.6677183    2110.2845  0.057189283  0.056438978            6 
 3076000   0.78513618   -3.6992107    2102.9882  0.056973023  0.056426878            5 
 3077000    0.7365679   -3.6859419    2102.6955   0.05694658  0.056414808            2 
 3078000   0.74063433   -3.7036968     2098.417  0.056812242  0.056402712            6 
 3079000   0.75170655   -3.6824497    2097.8195   0.05677762  0.056390635            4 
 3080000   0.76311108   -3.6942662    2097.8888  0.056761061  0.056378549            3 
 3081000   0.75000042    -3.703992     2096.709  0.056710728  0.056366355            5 
 3082000   0.75751303   -3.6860727    2105.3467  0.056925878  0.056354148            8 
 3083000   0.75763904   -3.6931028    2098.4972  0.056722274  0.056341926            7 
 3084000   0.76090789   -3.6946612    2099.0243  0.056718122  0.056329692            4 
 3085000   0.76171551   -3.7009741    2107.5076  0.056928894  0.056317519            7 
 3086000   0.76111089   -3.6850425    2101.8022  0.056756378  0.056305349            4 
 3087000    0.7446147   -3.6874133    2109.3232  0.056941021  0.056293198            9 
 3088000   0.76639665   -3.6694622    2109.3295  0.056922752  0.056281067            4 
 3089000   0.74594416   -3.6809235    2112.3353  0.056985414  0.056268959            3 
 3090000   0.76027865   -3.6942277    2105.9177  0.056793897  0.056256742            5 
 3091000   0.76991107   -3.6868361    2107.6915  0.056823345  0.056244632           11 
 3092000   0.76686348   -3.7151514     2102.684  0.056670007  0.056232359            4 
 3093000   0.74472582   -3.6861049    2098.6072  0.056541848  0.056220113            4 
 3094000   0.76681761   -3.6869614    2106.0556  0.056724187  0.056207944            7 
 3095000   0.73926633   -3.7133076    2102.4252  0.056608109  0.056195776            6 
 3096000   0.75625379   -3.6912869    2106.8022   0.05670764  0.056183464            2 
 3097000   0.76136496   -3.7098571    2102.9571  0.056585866  0.056171166            2 
 3098000    0.7516969   -3.6996553    2105.9612  0.056648407  0.056158938            6 
 3099000   0.75597952   -3.7019524    2110.0145  0.056739123  0.056146715            9 
 3100000   0.75136947    -3.705722    2100.5274   0.05646579  0.056134345            7 
 3101000   0.77037126   -3.6869296    2099.1272  0.056409953  0.056121968            7 
 3102000   0.75123624    -3.696276    2105.5057  0.056563125  0.056109696            4 
 3103000   0.76484866   -3.7053712    2104.8977  0.056528567  0.056097408            4 
 3104000   0.76260727   -3.6958362    2105.0641  0.056514823  0.056085054            6 
 3105000   0.75840199    -3.693973    2102.2153  0.056420165  0.056072766            3 
 3106000   0.75405189   -3.7117678    2101.3777  0.056379526  0.056060522            6 
 3107000   0.76853941    -3.705866    2110.0093  0.056592889  0.056048317            6 
 3108000   0.76827051   -3.6987242    2102.7309  0.056379529  0.056036148            3 
 3109000   0.76057852   -3.7016455    2107.5832  0.056491455  0.056023902            5 
 3110000   0.73860909   -3.6861958    2115.3805  0.056682222  0.056011712            8 
 3111000   0.75195284   -3.7045557    2111.2379  0.056553036  0.055999579            5 
 3112000   0.74981355   -3.7154287    2107.4891  0.056434478  0.055987466            4 
 3113000   0.74730538   -3.7088661    2109.1228  0.056460081  0.055975291            3 
 3114000   0.75715297   -3.6856456     2112.081  0.056521115   0.05596311            5 
 3115000   0.75354371   -3.6984861    2113.2651  0.056534646  0.055951088            3 
 3116000   0.74812792   -3.7081311     2107.446  0.056360878  0.055938952           10 
 3117000   0.74766634   -3.6894398    2107.9478  0.056356213  0.055926744            2 
 3118000   0.75644257   -3.7089807    2110.0567  0.056394503  0.055914454            6 
 3119000   0.75220506   -3.7063234    2109.4479  0.056360156  0.055902333            4 
 3120000   0.72960876   -3.6919241    2107.2605  0.056283666  0.055890052            8 
 3121000   0.75223447   -3.6883215     2107.007  0.056258865    0.0558778            9 
 3122000   0.75877123   -3.6741813    2114.5571  0.056442374  0.055865664            8 
 3123000   0.74639878   -3.6929971    2115.3806  0.056446276  0.055853553            4 
 3124000   0.74795057   -3.7096705     2113.083  0.056366917  0.055841404           10 
 3125000   0.75519468   -3.6898564    2113.6039  0.056362772   0.05582932            2 
 3126000   0.75212023   -3.7062368    2115.8137  0.056403648  0.055817307            4 
 3127000    0.7374052   -3.7153093    2105.8841  0.056120991   0.05580512            4 
 3128000   0.77164632   -3.7056019    2113.9477  0.056317874  0.055793021           12 
 3129000   0.73766795    -3.720356    2117.2321  0.056387346  0.055781019            7 
 3130000   0.75140516   -3.7099931    2115.1293  0.056313346  0.055768802            3 
 3131000    0.7586391   -3.7201264    2110.2391  0.056165206  0.055756558            4 
 3132000   0.76432419   -3.7106397    2114.5345  0.056261561  0.055744363            6 
 3133000   0.75349719   -3.7134929    2110.0486  0.056124283  0.055732022            9 
 3134000   0.75842698   -3.7187785     2107.611  0.056041561  0.055719641            8 
 3135000    0.7504482   -3.7139403     2114.657  0.056210978  0.055707414            6 
 3136000   0.76199705   -3.7142019    2112.2942  0.056130266  0.055695161            8 
 3137000   0.76495914   -3.6918968    2112.9857  0.056130744  0.055682934            3 
 3138000   0.74701128    -3.689106    2114.9907    0.0561661  0.055670803            2 
 3139000   0.75925455   -3.7186727    2111.7454  0.056062053  0.055658629            3 
 3140000   0.74425429   -3.7015242    2110.2053  0.056003325  0.055646403            5 
 3141000   0.76758402   -3.7256784     2112.852  0.056055716  0.055634255            5 
 3142000   0.74499953   -3.6941078    2121.1315  0.056257465  0.055622177            9 
 3143000   0.74548048   -3.7121374    2122.7777  0.056283213   0.05561005            5 
 3144000   0.75075395   -3.7241614     2116.849  0.056108168  0.055597923            9 
 3145000   0.74258103   -3.7251992    2111.4837  0.055948162  0.055585724            6 
 3146000   0.74606696   -3.7253902    2115.3364  0.056032432  0.055573562            5 
 3147000    0.7645974   -3.7142049    2119.1842  0.056116519  0.055561414            4 
 3148000   0.73247474   -3.7283282    2118.7716  0.056087771  0.055549175            5 
 3149000   0.73498145   -3.7282451    2115.3141  0.055978461  0.055536996            5 
 3150000   0.73739638   -3.6998724    2116.3106  0.055987052  0.055524865            6 
 3151000   0.74405407   -3.6941116    2120.2899  0.056074524   0.05551273            6 
 3152000   0.74021006   -3.7223006     2121.639  0.056092401  0.055500737            5 
 3153000   0.75258126   -3.7069422    2125.8952  0.056187103  0.055488628            2 
 3154000   0.77090417   -3.7288293    2120.1148  0.056016562  0.055476637            3 
 3155000   0.75559065   -3.7181251    2118.7834  0.055963641   0.05546453            7 
 3156000    0.7261705    -3.697728     2120.458  0.055990125  0.055452616            3 
 3157000   0.74848019   -3.7147737    2126.4302  0.056130033  0.055440666            3 
 3158000   0.74628437   -3.7339458    2124.5966  0.056063874   0.05542869            4 
 3159000    0.7674578   -3.7084899    2123.9637  0.056029432   0.05541666            3 
 3160000   0.74760965   -3.7107916    2126.8758  0.056088497   0.05540466            5 
 3161000   0.75666159   -3.7176934    2121.2176  0.055921585  0.055392663           10 
 3162000   0.74301478   -3.7182679    2119.3376  0.055854355  0.055380597           15 
 3163000   0.74976272   -3.7146293    2122.2789  0.055914187  0.055368662            6 
 3164000   0.75432624   -3.7052617    2129.7975  0.056094541  0.055356628            4 
 3165000   0.75407402   -3.7249645    2126.2765   0.05598411  0.055344816            4 
 3166000   0.75135013    -3.746767    2124.7319  0.055925771   0.05533293            6 
 3167000   0.74752754    -3.720607    2127.7648  0.055987916  0.055321006            8 
 3168000   0.74529722   -3.7322731    2132.1919  0.056086698  0.055309139            4 
 3169000   0.75707402   -3.7087249    2128.3731  0.055968579  0.055297316            5 
 3170000   0.74147459    -3.717387     2125.731  0.055881467  0.055285514            9 
 3171000   0.75918182   -3.7121708    2131.1727  0.056006852  0.055273722            4 
 3172000   0.76680685   -3.7262428    2126.6184  0.055869547  0.055261968            5 
 3173000   0.75315724   -3.7255311    2132.2882  0.056000847  0.055250147            8 
 3174000   0.73701639   -3.6993874    2133.6162  0.056018068  0.055238345            5 
 3175000    0.7487944   -3.7190246    2132.3685  0.055967677  0.055226516            3 
 3176000   0.74860312   -3.7288847    2130.7515  0.055907627  0.055214673            4 
 3177000   0.74199936   -3.7161238    2122.1933  0.055665548  0.055202838            4 
 3178000   0.75885538   -3.7374864    2120.3288   0.05559914   0.05519085            5 
 3179000   0.75011154   -3.7135312    2121.1736  0.055603796  0.055178987            4 
 3180000   0.74064093   -3.7066415    2132.9325  0.055894458  0.055167217            5 
 3181000   0.75022924   -3.7064708    2134.2268  0.055910793  0.055155397            8 
 3182000   0.73430982   -3.7310684    2130.8986  0.055806059  0.055143623            4 
 3183000   0.72429776   -3.7371018    2130.8062  0.055786109  0.055131825            8 
 3184000   0.73432636   -3.7255205    2139.0593  0.055984593  0.055120019            5 
 3185000   0.74333549   -3.7283684    2130.0896  0.055732327  0.055108291            4 
 3186000   0.74702379    -3.723139     2134.683  0.055834982  0.055096537            6 
 3187000   0.73462113   -3.7160317    2133.4387  0.055784925  0.055084826           12 
 3188000    0.7652967   -3.7121021    2131.7813  0.055724104  0.055073078            3 
 3189000   0.75041798   -3.7343263     2127.018  0.055582156  0.055061311            5 
 3190000   0.74196753   -3.7193385    2134.1938   0.05575219  0.055049487            7 
 3191000   0.75424967   -3.7050807    2131.0394  0.055652341  0.055037659            7 
 3192000   0.74243099   -3.7288017    2132.6765  0.055677645  0.055025828            3 
 3193000   0.75520276   -3.7253714    2135.5272  0.055734607  0.055013933           11 
 3194000   0.75007311   -3.7451567    2133.2486  0.055657708  0.055002089            4 
 3195000   0.75480677   -3.7245075    2132.4403  0.055619204  0.054990289            5 
 3196000   0.74559868   -3.7163623    2138.8387  0.055768635  0.054978505           11 
 3197000   0.73356142   -3.7480234    2133.2792  0.055606276  0.054966595           10 
 3198000   0.72768846   -3.7195355    2137.3109  0.055693946  0.054954824            5 
 3199000   0.72776919   -3.7407362     2142.713  0.055817261  0.054943099            5 
 3200000   0.74064654   -3.7240576    2143.0673  0.055809044   0.05493139            7 
 3201000   0.73183283   -3.7320108    2135.6276  0.055597927  0.054919602            5 
 3202000     0.742319    -3.727755    2132.0786  0.055488201  0.054907879            5 
 3203000   0.73605367   -3.7259363    2135.3338  0.055555567  0.054896144            4 
 3204000   0.73821316   -3.7300526    2133.3593  0.055486872  0.054884548           11 
 3205000   0.74476373   -3.7655864    2131.8352  0.055429933  0.054872835            8 
 3206000   0.74052556   -3.7135634    2149.2675   0.05586576  0.054861176            4 
 3207000   0.74784833   -3.7171408    2140.3753  0.055617277  0.054849634            5 
 3208000   0.74406986   -3.7321856    2137.8306  0.055533836  0.054837898            3 
 3209000   0.73918587   -3.7526612    2136.3125  0.055477107  0.054826206            5 
 3210000   0.72790792   -3.7328561    2142.1672  0.055611818  0.054814585            8 
 3211000   0.72851981    -3.718937    2140.1391  0.055541864  0.054802931            3 
 3212000   0.73391357   -3.7419446    2139.8113  0.055516067  0.054791383            4 
 3213000     0.744793   -3.7340339    2136.7605  0.055419661  0.054779712            3 
 3214000   0.73370987   -3.7536868    2141.4943  0.055525157  0.054768013            7 
 3215000   0.73834287   -3.7007947      2144.98  0.055598237  0.054756451            3 
 3216000   0.73598321   -3.7251735    2147.4567  0.055645125  0.054744877            3 
 3217000    0.7247449   -3.7273775    2146.4195   0.05560096  0.054733241            4 
 3218000   0.73982566   -3.7032469    2145.6525  0.055563821  0.054721789            4 
 3219000   0.75019438   -3.7109552    2140.6418  0.055416843  0.054710343            5 
 3220000   0.72407221    -3.725181    2150.6069  0.055657528  0.054698891            7 
 3221000   0.73670014   -3.7507452    2144.4654  0.055481357  0.054687365            4 
 3222000   0.73407081   -3.7123178    2147.4568  0.055541507  0.054675817            4 
 3223000   0.72955283   -3.7297263    2144.1744  0.055439404  0.054664306           13 
 3224000   0.72803341   -3.7461124    2148.1834  0.055525833  0.054652845            3 
 3225000   0.72125436    -3.739637     2149.152  0.055533643  0.054641319            5 
 3226000   0.74677549   -3.7472381    2152.9483  0.055614494  0.054629698            4 
 3227000   0.72382483   -3.7306093    2147.2597   0.05545036  0.054618271            3 
 3228000   0.72996632   -3.7372564    2146.3645  0.055410072  0.054606794            5 
 3229000   0.72982987   -3.7313847    2146.2086  0.055388888  0.054595189            3 
 3230000     0.727264   -3.7250899     2146.393  0.055376495  0.054583606           12 
 3231000   0.76098329   -3.7517477    2145.6775  0.055340902  0.054571979            3 
 3232000   0.73720054   -3.7323652    2142.2926  0.055236506  0.054560449            5 
 3233000   0.74789619    -3.723261    2149.4907  0.055404956  0.054548836            4 
 3234000    0.7285744   -3.7289275    2151.8426  0.055448427  0.054537322            4 
 3235000   0.72516124    -3.731763    2145.5574  0.055269383   0.05452594            7 
 3236000   0.72771227   -3.7204164    2146.5638  0.055278218  0.054514547            7 
 3237000   0.73056432   -3.7428096    2146.2087     0.055252  0.054502995            4 
 3238000   0.74489592   -3.7465912    2153.8582  0.055431805  0.054491496            4 
 3239000   0.72224244   -3.7417113    2152.3602  0.055376151  0.054480041            4 
 3240000   0.73973157   -3.7547017    2152.9883  0.055375214  0.054468614            4 
 3241000   0.74216095   -3.7484133    2154.0689  0.055385914  0.054457091            8 
 3242000   0.74398311   -3.7407487    2150.0291  0.055264988  0.054445598            4 
 3243000   0.71500986   -3.7144047    2150.5568  0.055261506   0.05443408            5 
 3244000     0.736382   -3.7124535    2154.8357   0.05535439  0.054422644            5 
 3245000   0.72700021   -3.7247239     2155.915  0.055365048   0.05441124            9 
 3246000   0.71856171   -3.7326448    2153.1748  0.055277645  0.054399859            7 
 3247000   0.73614329   -3.7124732    2158.2974   0.05539209  0.054388361           16 
 3248000   0.74275409   -3.7299871    2153.9203  0.055262732  0.054376857           10 
 3249000   0.73191853   -3.7412816     2156.396  0.055309223  0.054365367           12 
 3250000   0.74028913   -3.7197433    2162.1256  0.055439117  0.054353873           10 
 3251000   0.71879202   -3.7447807    2148.1431   0.05506365   0.05434243            4 
 3252000   0.73080025    -3.711306    2153.6046   0.05518667  0.054331048            9 
 3253000   0.73868869   -3.7524317    2154.5013  0.055192676   0.05431965            5 
 3254000   0.72455581   -3.7293302    2156.8612   0.05523615  0.054308183            6 
 3255000   0.73644727   -3.7533854    2150.4929  0.055056142  0.054296685            6 
 3256000   0.73264998   -3.7509783    2150.3432  0.055035402  0.054285157            6 
 3257000   0.75203236    -3.723062    2156.6083  0.055178803   0.05427367            7 
 3258000   0.73665045   -3.7255918    2151.2975  0.055026025  0.054262119            6 
 3259000     0.730348   -3.7463503    2147.7715   0.05491898  0.054250636            3 
 3260000   0.74335502   -3.7320636    2149.7444  0.054952566  0.054239145            4 
 3261000   0.72725776   -3.7398155    2151.1994  0.054972896  0.054227583           16 
 3262000   0.71193798   -3.7199046    2154.2189  0.055033184  0.054216056            4 
 3263000   0.73592637   -3.7554511     2164.387  0.055275998  0.054204551            3 
 3264000   0.72478201   -3.7573331    2153.3436  0.054977113  0.054193017            7 
 3265000   0.74624468   -3.7456966    2159.2836  0.055111884  0.054181516           11 
 3266000   0.71331208   -3.7156355    2153.9556  0.054959064   0.05417001            5 
 3267000   0.72786568   -3.7431373    2154.3607  0.054952574  0.054158552           13 
 3268000   0.73502827   -3.7437747    2152.4662  0.054887448  0.054147028            6 
 3269000   0.72662949   -3.7271331    2155.1651  0.054939459  0.054135497            2 
 3270000   0.73571123   -3.7509988    2164.3476  0.055156667  0.054124033            5 
 3271000   0.73454875   -3.7322311    2160.1989   0.05503411  0.054112627            5 
 3272000   0.74385227   -3.7537853    2158.5582  0.054975504  0.054101048            3 
 3273000     0.719498   -3.7355247    2158.7777  0.054964297  0.054089556            3 
 3274000   0.74665508   -3.7355906    2155.0307  0.054852135  0.054078028            3 
 3275000   0.71946657   -3.7370541    2159.1439  0.054940048  0.054066374           12 
 3276000   0.72919499   -3.7499285    2154.4403  0.054803629  0.054054786            3 
 3277000   0.74018831   -3.7385859     2159.311  0.054910766  0.054043236            3 
 3278000   0.74237384   -3.7613882    2151.5824  0.054697539  0.054031715            8 
 3279000    0.7247407   -3.7193195    2166.7066  0.055065228  0.054020273           11 
 3280000   0.72666103   -3.7210271    2157.3954  0.054811875  0.054008806            5 
 3281000   0.73593349   -3.7203406    2167.0637  0.055040731  0.053997462            6 
 3282000   0.73725459   -3.7229957    2158.6985  0.054811562  0.053985976            3 
 3283000   0.70776774    -3.757192    2154.4622  0.054687334  0.053974633            4 
 3284000   0.73243337   -3.7278017    2157.2802  0.054742189  0.053963158            4 
 3285000   0.71765272   -3.7577404    2155.3985   0.05467779  0.053951609            6 
 3286000   0.72229158   -3.7426027    2159.5605  0.054766699  0.053940199            3 
 3287000   0.73130704   -3.7713358     2163.444  0.054848495  0.053928731            5 
 3288000   0.73157106   -3.7463981     2157.145  0.054672167  0.053917327            9 
 3289000   0.71109992   -3.7479974    2153.6898     0.054568  0.053905844            6 
 3290000   0.74271648   -3.7261897    2162.5587  0.054776057  0.053894421            3 
 3291000   0.73273164   -3.7425378     2165.902   0.05484407  0.053883061            9 
 3292000   0.73831181   -3.7489223    2158.1824  0.054631998  0.053871623            9 
 3293000   0.73136229   -3.7520688    2161.1047  0.054689358  0.053860142            5 
 3294000   0.74668338   -3.7393317    2164.2831  0.054753165  0.053848691            7 
 3295000   0.72991755    -3.745191    2157.2211  0.054557945  0.053837264            7 
 3296000   0.74789215   -3.7521342    2165.1182  0.054741054  0.053825796            2 
 3297000   0.70736032   -3.7801887         2160  0.054595085  0.053814249            4 
 3298000   0.72528452   -3.7389263    2160.7949  0.054598617  0.053802743            8 
 3299000   0.70281866   -3.7545315    2164.0534  0.054664378  0.053791207            5 
 3300000   0.73079291   -3.7540148    2166.7669  0.054716337  0.053779582            9 
 3301000   0.72512381   -3.7548492    2161.2064  0.054559386   0.05376817            6 
 3302000   0.73722851   -3.7725107    2167.6445  0.054705343  0.053756736            3 
 3303000   0.72424628   -3.7397754    2164.5636  0.054611051  0.053745378           11 
 3304000   0.73413345   -3.7669987    2152.8592  0.054299313  0.053733929            6 
 3305000   0.72360504   -3.7369453    2163.5932  0.054553535  0.053722509            5 
 3306000   0.73849414   -3.7717034    2159.8427  0.054442495  0.053711066            6 
 3307000   0.71586599   -3.7464704    2160.2663  0.054436707  0.053699591            6 
 3308000   0.72215202   -3.7614908    2166.5194  0.054577777  0.053688105            9 
 3309000   0.73280146   -3.7490504    2163.8456  0.054493947  0.053676607            9 
 3310000   0.71800842   -3.7676408    2164.9009  0.054504052  0.053665109            7 
 3311000   0.72505407   -3.7642915    2167.6727  0.054557353  0.053653788            9 
 3312000   0.72005597   -3.7536362    2169.7159  0.054592288  0.053642343            4 
 3313000   0.71731785   -3.7739332    2165.7017  0.054474839  0.053630936            5 
 3314000   0.72553684   -3.7436337    2166.2682  0.054472645  0.053619458            7 
 3315000   0.70745094   -3.7544529    2167.9326  0.054498054   0.05360808            2 
 3316000    0.7138403   -3.7435419    2167.2459  0.054464361  0.053596706            6 
 3317000   0.72276056   -3.7523939    2166.6432    0.0544328  0.053585306            3 
 3318000   0.71165943   -3.7712294    2170.6264  0.054516435  0.053573923            5 
 3319000   0.71710221   -3.7613772    2164.7123  0.054351519  0.053562589            5 
 3320000   0.72300281   -3.7415223    2165.8788  0.054364427  0.053551256            2 
 3321000    0.7260169   -3.7480658    2166.2289  0.054356842  0.053539952            6 
 3322000   0.70553766   -3.7664037     2168.616  0.054400361  0.053528614            4 
 3323000    0.7060737   -3.7565756    2169.2022   0.05439869  0.053517271            5 
 3324000   0.72800606   -3.7527592    2170.6867  0.054419542  0.053505941            2 
 3325000   0.72745495   -3.7573413    2166.3839  0.054295336  0.053494679            2 
 3326000    0.6956569   -3.7506199    2168.9269  0.054342726  0.053483459            4 
 3327000   0.71939737   -3.7678245    2167.6764   0.05429507  0.053472219            8 
 3328000    0.7334066   -3.7318726    2170.0409  0.054337963  0.053461168            7 
 3329000   0.71512199   -3.7537543    2168.4018  0.054280609  0.053449934            4 
 3330000   0.72198321   -3.7494561    2170.7007  0.054321839  0.053438726            6 
 3331000   0.72351162   -3.7671294    2165.9785  0.054187394  0.053427509            7 
 3332000   0.71990221   -3.7674828    2178.3487  0.054480509  0.053416199            3 
 3333000   0.72198476   -3.7879452    2175.6819  0.054397488   0.05340497           13 
 3334000   0.72137565   -3.7595048    2173.6386  0.054330099  0.053393847            5 
 3335000   0.71383638   -3.7466436    2178.4158  0.054433178  0.053382586            4 
 3336000   0.73876354   -3.7561702    2176.7482  0.054375205  0.053371432            3 
 3337000   0.71447607   -3.7368919    2178.4603  0.054401665  0.053360303            2 
 3338000   0.71266172   -3.7632496    2182.2015  0.054478767  0.053349234            3 
 3339000   0.71999475    -3.765193    2179.2384    0.0543885  0.053338115            7 
 3340000   0.71087669   -3.7657189     2174.667  0.054258159  0.053327043            6 
 3341000   0.72243276   -3.7892797    2179.9902  0.054374693  0.053315878            3 
 3342000   0.71840018   -3.7507252    2183.4084  0.054443657  0.053304874            3 
 3343000   0.71215295   -3.7511722    2182.2316  0.054398035  0.053293863            6 
 3344000   0.72452445    -3.751547     2183.946  0.054424492  0.053282897           15 
 3345000   0.71027161   -3.7735179    2180.3786  0.054319348  0.053271801            7 
 3346000   0.71353891   -3.7651769    2173.0248  0.054119965  0.053260755            7 
 3347000   0.71075379   -3.7639186    2184.3673  0.054386199  0.053249653            5 
 3348000   0.72398749   -3.7571229    2179.4003  0.054246325  0.053238568            9 
 3349000    0.7095553    -3.749405    2176.6038  0.054160542  0.053227401            4 
 3350000   0.72135627   -3.7644377    2177.0786  0.054156183  0.053216261            6 
 3351000   0.72082016   -3.7704881    2183.9824  0.054311707  0.053205111            3 
 3352000   0.70653674   -3.7659176    2184.9256  0.054318953  0.053194007            6 
 3353000   0.73310514   -3.7784393    2180.9661  0.054204346  0.053182945            8 
 3354000   0.72158139   -3.7662514     2178.535  0.054127783  0.053171852            8 
 3355000   0.71232388   -3.7539396     2180.877  0.054169821   0.05316074            5 
 3356000   0.72289993   -3.7461991    2180.0208  0.054132419  0.053149666            3 
 3357000   0.70760104   -3.8076359    2175.3103  0.053999363  0.053138572            8 
 3358000   0.73852821   -3.7701487    2183.3317  0.054182344    0.0531274            4 
 3359000   0.71443225   -3.7728984    2175.1966   0.05396439  0.053116253            8 
 3360000   0.71619489   -3.7419685    2182.0409  0.054118077  0.053105204            8 
 3361000   0.71945852   -3.7747927    2190.6223  0.054314746   0.05309408            8 
 3362000   0.71070266   -3.7484876    2184.7704  0.054153539  0.053083036            6 
 3363000   0.71368329   -3.7762701    2181.8429  0.054064894  0.053071936            2 
 3364000   0.70113689    -3.760406     2181.594  0.054042657   0.05306089            8 
 3365000   0.71478686   -3.7800156    2185.7695  0.054130002  0.053049769            4 
 3366000   0.71742267   -3.7717628    2186.7913  0.054139217   0.05303866            5 
 3367000   0.71481376   -3.7563703     2186.502  0.054115979  0.053027648            5 
 3368000   0.70515377   -3.7601816    2186.4079  0.054097582  0.053016539           17 
 3369000   0.72478657   -3.7676469    2181.6647    0.0539642  0.053005487            9 
 3370000   0.71385644   -3.7600798    2182.5002  0.053968847   0.05299432            5 
 3371000   0.72505778   -3.7754339    2183.4004  0.053975093  0.052983214           11 
 3372000   0.71434348   -3.7416556    2190.2553  0.054128493  0.052972189            7 
 3373000   0.69252045   -3.7945325    2187.0875  0.054034181  0.052961109            5 
 3374000   0.71148157   -3.7732007    2182.7064  0.053909959  0.052949983            7 
 3375000   0.70023486   -3.7761197    2181.9096  0.053874312  0.052938841            6 
 3376000    0.7120984   -3.7583216     2180.639   0.05382699  0.052927785            6 
 3377000   0.68385613   -3.7932137    2188.6858   0.05400962  0.052916739            3 
 3378000   0.70605497   -3.7763836    2186.6987   0.05394461  0.052905595            5 
 3379000   0.71977953    -3.792072    2185.7752   0.05390587  0.052894529            8 
 3380000   0.70760241   -3.7835266    2182.0281  0.053797536  0.052883406            6 
 3381000   0.70975392   -3.7505357    2186.5486  0.053893045  0.052872298            5 
 3382000    0.7056557   -3.7860377    2182.0565  0.053766422  0.052861159            6 
 3383000   0.69913855   -3.7474815    2187.6118  0.053887374  0.052850045            8 
 3384000   0.69532304    -3.753088    2191.2504  0.053961053  0.052838961            4 
 3385000   0.71142884   -3.7686521    2193.3058   0.05399571  0.052827908            8 
 3386000   0.72320504   -3.7744971    2188.5149  0.053861856  0.052816819            4 
 3387000   0.70644596   -3.7850935    2185.3835  0.053768908  0.052805605            6 
 3388000   0.69846902   -3.7478351    2195.3648  0.053998543  0.052794505            3 
 3389000   0.71628581   -3.7733306    2191.2468  0.053881352  0.052783447            3 
 3390000   0.70663696   -3.7881342    2188.1473  0.053789265  0.052772303            9 
 3391000   0.70700947    -3.769933    2192.2641  0.053874573  0.052761171            6 
 3392000   0.71891199   -3.7880088    2184.3333   0.05366385  0.052750069            4 
 3393000   0.72354996   -3.7840917    2191.5409  0.053825055  0.052738991            5 
 3394000   0.72170435    -3.776885    2189.2505  0.053752958  0.052727851            4 
 3395000   0.72558309   -3.7684502    2196.3936  0.053912459  0.052716787            5 
 3396000   0.71452388   -3.7916584     2191.701  0.053781434   0.05270572            7 
 3397000   0.71278875   -3.7540669    2198.3436  0.053928554  0.052694631            3 
 3398000   0.71496767   -3.7837632    2190.1509  0.053711764  0.052683653            6 
 3399000   0.70165122   -3.7508005     2189.992  0.053692067   0.05267269            5 
 3400000   0.71713289   -3.8056531    2185.9637  0.053577541   0.05266157            4 
 3401000   0.70395607   -3.7909535    2189.1362  0.053639523  0.052650491            3 
 3402000   0.69237204   -3.7694578    2193.6314  0.053733868  0.052639445            9 
 3403000   0.71182296   -3.7830201    2188.6929  0.053597141  0.052628407            7 
 3404000   0.71318867   -3.7683334     2194.052  0.053712592  0.052617464            7 
 3405000   0.71018366   -3.7948123     2187.512  0.053536761  0.052606529            6 
 3406000   0.71232002   -3.7732059    2194.1381  0.053683161  0.052595529            4 
 3407000   0.68078592   -3.7792765    2194.8217  0.053684122  0.052584536            7 
 3408000   0.70837808   -3.7767718    2200.9137  0.053817335  0.052573631            3 
 3409000   0.69826461   -3.8022499    2197.4399  0.053716629  0.052562747            5 
 3410000   0.70061737   -3.7754094    2190.9771   0.05354294  0.052551796            5 
 3411000   0.70865932   -3.7813624    2198.3662  0.053707764  0.052540794            4 
 3412000   0.69505044   -3.8020129    2186.1078  0.053392628  0.052529858            4 
 3413000   0.71164804   -3.8090425    2193.2106  0.053550411  0.052518828           11 
 3414000   0.70737644   -3.7969686    2194.9265  0.053576608   0.05250788            4 
 3415000   0.68760685   -3.8102596    2197.4745  0.053623096  0.052496829           10 
 3416000   0.70344686   -3.7732932    2202.2195  0.053723153   0.05248594            5 
 3417000    0.7024797    -3.790531    2193.8877  0.053504237  0.052475096            5 
 3418000   0.71756605   -3.7734852    2197.4097   0.05357445  0.052464204           12 
 3419000   0.69166597   -3.8012861    2190.3786  0.053387409  0.052453352            4 
 3420000    0.7010358   -3.7879758    2198.9545  0.053580762  0.052442421           10 
 3421000   0.69864154   -3.7650834    2202.4824  0.053651038  0.052431581           15 
 3422000   0.72540849   -3.7881232    2196.0026  0.053477562  0.052420747           15 
 3423000   0.71241616   -3.7914794    2193.0632  0.053390378  0.052409805            5 
 3424000   0.70764573     -3.77118    2206.0637  0.053691192  0.052398949           10 
 3425000   0.71862825   -3.7721958     2199.661  0.053519731  0.052388101           12 
 3426000   0.70596023   -3.8054817    2198.5692  0.053477554  0.052377268            4 
 3427000   0.70702336   -3.7811527     2198.136  0.053451414  0.052366436            9 
 3428000   0.70524895   -3.8071264    2196.8656   0.05340494    0.0523556           11 
 3429000   0.69944398   -3.7984298    2202.1534  0.053517872  0.052344775            4 
 3430000   0.69709032   -3.7983578    2199.2289  0.053431217  0.052333925            5 
 3431000   0.71533681   -3.8085243    2198.5519    0.0533992  0.052322952            7 
 3432000   0.69261655   -3.8034009    2200.3113  0.053426362  0.052311943            3 
 3433000   0.69303318   -3.7944567     2200.985  0.053427154  0.052301116            9 
 3434000   0.70330474   -3.7886185     2206.121  0.053536231  0.052290265            4 
 3435000   0.72385679   -3.7981767    2203.1528  0.053448637  0.052279447            9 
 3436000   0.69715662     -3.80001    2198.4681  0.053319464  0.052268613            5 
 3437000   0.70399615   -3.7886572    2205.8059  0.053481862  0.052257819            5 
 3438000   0.68273376   -3.7877781    2201.5981  0.053364313  0.052247014           16 
 3439000   0.69512204   -3.7798111    2203.9763  0.053406425  0.052236198            3 
 3440000   0.70035025   -3.7843176    2201.1729  0.053322988  0.052225403            6 
 3441000   0.69954195   -3.7890205    2208.1991   0.05347765  0.052214479            5 
 3442000   0.70913925   -3.8195091    2200.6404  0.053279111  0.052203639           14 
 3443000   0.71220564   -3.7879861    2200.3996  0.053257808  0.052192806            6 
 3444000   0.68719426   -3.7845535    2203.0386  0.053306198  0.052182021            5 
 3445000   0.69572282   -3.7912175    2209.2166  0.053440168  0.052171262           11 
 3446000   0.70134678   -3.7910795    2207.4869  0.053382832  0.052160382            7 
 3447000    0.6937809    -3.787744     2202.821  0.053254544  0.052149541            4 
 3448000     0.707195   -3.8066059    2198.3894  0.053131995  0.052138836            6 
 3449000   0.68453178   -3.7946576    2209.2023  0.053377847  0.052128048            9 
 3450000   0.70230356   -3.8083358    2199.2174  0.053121192  0.052117168            5 
 3451000   0.70795488   -3.7953088    2206.4942  0.053281517  0.052106308            4 
 3452000   0.69222857   -3.7975129    2206.0974  0.053256502  0.052095582            5 
 3453000   0.70462573   -3.7647533    2206.8814  0.053260001  0.052084739            3 
 3454000   0.71128944   -3.7812571    2210.0815  0.053321788  0.052073937            4 
 3455000   0.68357234   -3.7924627    2209.4639  0.053291458  0.052063132            4 
 3456000   0.71054654   -3.7883502    2208.7376  0.053258527  0.052052213            5 
 3457000   0.70318446    -3.795015    2203.5467   0.05311799  0.052041292            8 
 3458000   0.69528538   -3.7953427    2200.1389  0.053020507  0.052030388           19 
 3459000   0.69302797   -3.8124742    2203.8388  0.053094313  0.052019596            6 
 3460000   0.68956682   -3.7860209    2205.8596   0.05312764   0.05200871            2 
 3461000   0.68611197   -3.8022002    2202.3828  0.053028576  0.051997842            7 
 3462000   0.71660245   -3.7828192    2207.1748  0.053128605  0.051986836            6 
 3463000   0.68365316   -3.8261887    2201.8109  0.052984188  0.051975949            7 
 3464000   0.70042576   -3.7941407    2214.1323  0.053265308  0.051965035            6 
 3465000   0.69717396   -3.8071707    2206.9351  0.053076843   0.05195412            6 
 3466000   0.71247198   -3.7993682    2213.6557  0.053223113  0.051943255            4 
 3467000   0.69544307    -3.802071    2208.7231    0.0530892  0.051932438            5 
 3468000   0.69453172   -3.8117763    2206.0463  0.053009571  0.051921535            5 
 3469000   0.69721001   -3.7922857    2207.4769  0.053028656  0.051910641            4 
 3470000   0.70650354    -3.788493    2211.1578  0.053101772  0.051899805            7 
 3471000   0.69306732   -3.8299505    2211.2336  0.053088295   0.05188903            8 
 3472000   0.70175342    -3.812145    2205.6431  0.052938823  0.051878102            7 
 3473000   0.70037548   -3.7987994    2210.3893  0.053037463  0.051867261            6 
 3474000   0.69410047   -3.8103021    2209.5222  0.053001397  0.051856448            8 
 3475000   0.68028283    -3.812834    2213.1621  0.053073432  0.051845683            5 
 3476000   0.69075725    -3.792806    2216.7253  0.053143587  0.051834866            6 
 3477000   0.69415546   -3.7932319    2210.8483  0.052987449  0.051824094            6 
 3478000   0.69539083   -3.8236894    2209.1516  0.052931561  0.051813234            8 
 3479000   0.69906009   -3.8219812    2209.3119  0.052920186  0.051802405            2 
 3480000   0.69009898   -3.8153029    2207.0023  0.052849672  0.051791472            4 
 3481000   0.69958613   -3.8198361    2207.8025  0.052853647  0.051780598            5 
 3482000   0.69273364   -3.7787042    2215.7201  0.053027957  0.051769778            5 
 3483000   0.70066902   -3.8237251     2203.368  0.052717197   0.05175895            7 
 3484000   0.68863875   -3.7891926    2206.9831  0.052788535  0.051748006            9 
 3485000   0.68087137    -3.805129    2211.9401   0.05289192  0.051737121            3 
 3486000    0.6873907   -3.8007353    2217.6985  0.053014404  0.051726305            6 
 3487000   0.69126759   -3.8061615    2210.6493  0.052830734  0.051715509            7 
 3488000   0.69679951   -3.8064269    2210.2044  0.052804959  0.051704761            5 
 3489000   0.68610491   -3.7855396     2213.782  0.052875276  0.051694068            3 
 3490000   0.68740441   -3.8127722    2207.7355  0.052715747  0.051683321            4 
 3491000   0.68703758   -3.7812545    2215.0258  0.052874673   0.05167261            5 
 3492000   0.70097266   -3.7843147     2210.988  0.052763172  0.051661878            9 
 3493000   0.70052853   -3.7826052    2219.8629  0.052959797  0.051651218            5 
 3494000   0.68741395    -3.798139    2212.8211  0.052776691  0.051640541            5 
 3495000   0.69341232   -3.8100386     2214.902  0.052811206   0.05162978            3 
 3496000   0.69243481   -3.8138176    2210.8249  0.052698915  0.051619134            3 
 3497000   0.70012913   -3.7999696    2218.2876  0.052861681  0.051608448            7 
 3498000    0.7008299   -3.8181846    2218.4183  0.052849683  0.051597817           13 
 3499000   0.68543344   -3.8254025    2218.9862  0.052848105  0.051587151           10 
 3500000   0.69490847   -3.8110534    2216.6719  0.052777902  0.051576385            3 
 3501000   0.69358289    -3.832983    2214.6023  0.052713565  0.051565673            5 
 3502000   0.69057989   -3.8108535    2214.3713  0.052693016  0.051554974            8 
 3503000   0.69335569   -3.8224142    2210.9399  0.052596343   0.05154418            6 
 3504000   0.69501001   -3.8122068    2220.4706  0.052807995  0.051533374            3 
 3505000   0.69370328   -3.8014273    2221.4151  0.052815384  0.051522705            5 
 3506000   0.69095478   -3.8163623    2218.6984  0.052735749  0.051511976            7 
 3507000   0.68218305   -3.8210879    2213.6895  0.052601689  0.051501266           12 
 3508000   0.70941263   -3.8138075    2214.9268  0.052616086  0.051490588            7 
 3509000   0.69107172   -3.8195002    2215.3689   0.05261159  0.051479897            4 
 3510000   0.69317322   -3.7919388    2224.8653  0.052822062  0.051469194            5 
 3511000   0.69338294   -3.7854032    2217.5538  0.052633481  0.051458594            5 
 3512000   0.68973211   -3.8267858    2216.3974  0.052591054  0.051447895            5 
 3513000   0.68812799   -3.8088057    2223.4439  0.052743236  0.051437158            4 
 3514000   0.68032263    -3.816366    2216.4091  0.052561399  0.051426426           13 
 3515000   0.70291722   -3.8071584    2219.5401  0.052620676  0.051415817            4 
 3516000     0.686803   -3.8011881    2226.8565  0.052779116  0.051405119           11 
 3517000   0.68636214   -3.8204304    2225.3906  0.052729377  0.051394419           14 
 3518000   0.67743787   -3.8173048    2219.9481  0.052585468  0.051383748            7 
 3519000   0.68316273   -3.7961897    2225.5133  0.052702315  0.051373154            8 
 3520000   0.69527451   -3.8085909    2219.5864  0.052547026   0.05136256           11 
 3521000   0.70262541   -3.7857351    2224.3475  0.052644786  0.051351981           12 
 3522000   0.69629634   -3.8251529    2217.7515  0.052473772  0.051341335            7 
 3523000   0.68549857    -3.820169    2214.6953  0.052386585  0.051330649            5 
 3524000   0.68491317   -3.8104833    2227.1008  0.052665078  0.051319866            5 
 3525000   0.68156429   -3.8248175    2223.5555  0.052566324  0.051309183            5 
 3526000   0.69610638   -3.8115907    2223.1039  0.052540742  0.051298503            5 
 3527000   0.69085579   -3.7824106    2225.5036  0.052582544  0.051287743           12 
 3528000   0.68534732   -3.8145788    2213.4139  0.052282074  0.051276958            7 
 3529000   0.69049412   -3.8212777    2215.9407  0.052326927  0.051266157            9 
 3530000   0.69790365    -3.818016    2219.9241  0.052406141  0.051255414            8 
 3531000   0.68122234   -3.8268284    2212.4893  0.052215835   0.05124465           10 
 3532000   0.68060426   -3.8026922    2220.0996  0.052380607   0.05123401            4 
 3533000   0.67539411   -3.7966926    2224.6946  0.052474162  0.051223364           16 
 3534000   0.69182878   -3.8004508    2219.8286  0.052344572  0.051212639            7 
 3535000   0.67214595   -3.8192299    2218.2595  0.052292774  0.051201876            4 
 3536000   0.68833604   -3.8074613    2227.5164  0.052496145  0.051191119            8 
 3537000   0.67962713   -3.8048051     2223.019  0.052375342  0.051180453            8 
 3538000   0.69040469   -3.8199832    2217.0323   0.05221953  0.051169756            3 
 3539000   0.67547888   -3.8076404    2216.7126  0.052197244  0.051159058            6 
 3540000   0.68097076   -3.8051407    2222.1042  0.052309421  0.051148421            6 
 3541000    0.6913334   -3.8323226    2224.7432  0.052356754  0.051137735            9 
 3542000   0.68103259     -3.80972    2232.0801  0.052514588  0.051127028            8 
 3543000   0.69197281   -3.8248074    2226.8203  0.052376053  0.051116359            8 
 3544000   0.66538631   -3.8182534    2229.4704  0.052423588  0.051105627           15 
 3545000   0.68087726    -3.816544     2225.063  0.052305196  0.051094972            5 
 3546000   0.67757332   -3.8308663    2219.6681  0.052163661   0.05108427            8 
 3547000   0.69995114   -3.8027463    2223.7057  0.052243813  0.051073446            6 
 3548000    0.7073633   -3.8292306    2227.1067   0.05230897  0.051062758            7 
 3549000   0.68421472   -3.8169306    2222.2621  0.052180475  0.051052065            4 
 3550000   0.68528241   -3.8127177    2225.6641  0.052245635  0.051041331            5 
 3551000   0.67744935   -3.8077178    2225.4088  0.052224933  0.051030624           10 
 3552000   0.66776536   -3.8300442    2228.4048  0.052280517  0.051019927            5 
 3553000   0.67800004   -3.8089598    2231.9835   0.05234974  0.051009266            8 
 3554000   0.66783163   -3.8285059    2221.9168  0.052098969  0.050998542            7 
 3555000   0.69858447    -3.811651    2225.1892  0.052161022  0.050987805            5 
 3556000   0.69073818   -3.8284969    2229.2074  0.052240519  0.050977218            9 
 3557000   0.68874019   -3.8287771    2224.2377  0.052109402  0.050966493           15 
 3558000   0.67771505   -3.8242813    2225.4129   0.05212228   0.05095569            6 
 3559000    0.6748576   -3.7996364    2228.9133  0.052189597  0.050944972            9 
 3560000    0.6798108   -3.8295401     2228.195  0.052158124   0.05093426           10 
 3561000   0.68735497   -3.8164955    2225.2566  0.052074713  0.050923451           12 
 3562000   0.68043498     -3.85288    2224.1857  0.052035039  0.050912668            7 
 3563000    0.6824828   -3.8187065    2228.4425  0.052119994  0.050901912            5 
 3564000    0.6853922   -3.8184869    2223.3543    0.0519864  0.050891066            5 
 3565000   0.68632295   -3.8163645    2226.2337  0.052039123   0.05088012           10 
 3566000   0.69007329   -3.8172065    2220.6796  0.051894738  0.050869247            7 
 3567000   0.68145643    -3.817151    2221.7962  0.051906274  0.050858341            4 
 3568000   0.67231252   -3.8258859    2225.9445  0.051988615  0.050847501           16 
 3569000   0.67303836   -3.8106277    2227.0836  0.052000644  0.050836621           17 
 3570000   0.68838786   -3.8312931      2225.45  0.051947945  0.050825736            6 
 3571000   0.66936811   -3.8342753    2224.1859    0.0519039  0.050814832            8 
 3572000   0.68958997   -3.8309302    2220.7508   0.05180923  0.050803933           10 
 3573000   0.68941411    -3.815892    2225.9331  0.051915596  0.050793068            8 
 3574000   0.67595491   -3.8214466    2220.3201  0.051770194  0.050782233            9 
 3575000   0.67145712   -3.8191404     2228.142  0.051938042  0.050771348            4 
 3576000   0.66929899   -3.8282668    2226.8573  0.051893579  0.050760447            4 
 3577000   0.69260143   -3.8294265    2222.0613   0.05176734  0.050749637            4 
 3578000   0.65894509   -3.8127793     2225.828  0.051840599  0.050738727           17 
 3579000   0.66816895   -3.8181159    2220.9738  0.051713091  0.050727834            5 
 3580000   0.68145927   -3.8297691    2223.5891  0.051759522  0.050716963            7 
 3581000   0.67939734   -3.8127851    2223.8941  0.051752167  0.050705938           13 
 3582000    0.6807786   -3.8305432    2222.9974  0.051716857  0.050695032           13 
 3583000   0.69877542    -3.829719    2216.0334  0.051540456  0.050684008           13 
 3584000   0.67594319   -3.8216623    2224.7634   0.05172906  0.050673054            7 
 3585000    0.6631812   -3.8370641    2223.2775  0.051680089  0.050662035            7 
 3586000   0.66841803   -3.8193274    2236.6209  0.051975761  0.050651125            6 
 3587000   0.67294839    -3.825974    2227.2218  0.051742909  0.050640181            5 
 3588000   0.67782294   -3.8366767    2217.4196  0.051500828  0.050629197           12 
 3589000   0.67062096   -3.8414953    2213.9603  0.051406157  0.050618119            5 
 3590000   0.67748465   -3.8307588    2224.9903  0.051647872  0.050607119           11 
 3591000   0.67020583   -3.8487522    2222.7051  0.051580458  0.050596027            9 
 3592000   0.67791342   -3.8232013    2222.9788  0.051572447  0.050585009            6 
 3593000   0.66032339   -3.8139587    2222.9159  0.051556636   0.05057406            8 
 3594000   0.68236971   -3.8138773    2226.7789  0.051631862  0.050563124            8 
 3595000   0.68571834   -3.8343823    2231.3697  0.051723916  0.050552178            6 
 3596000   0.66881515   -3.8537471    2221.9613  0.051491501  0.050541281           12 
 3597000   0.68067133   -3.8225107    2223.0483  0.051502369  0.050530313           13 
 3598000   0.67265638   -3.8314973     2225.995  0.051556305  0.050519413            5 
 3599000   0.67715588   -3.8326471    2221.6284  0.051440873  0.050508588            9 
 3600000   0.67128723   -3.8208368    2222.2544  0.051441074  0.050497705           13 
 3601000   0.66824029   -3.8336677    2231.6439  0.051644077  0.050486869            6 
 3602000   0.67235232   -3.8293415    2229.1532  0.051572117  0.050475993            5 
 3603000   0.68685871    -3.817997    2229.4407  0.051564452   0.05046515            4 
 3604000   0.67695804    -3.856461    2226.0675  0.051472148  0.050454212           12 
 3605000   0.67319217   -3.8342614    2228.9991  0.051525637  0.050443292            6 
 3606000   0.66969041   -3.8322509    2226.5908  0.051455695  0.050432312            6 
 3607000   0.68047975   -3.8645638    2230.1505   0.05152367  0.050421419            7 
 3608000   0.66801773   -3.8317191    2234.5541  0.051611098  0.050410531            4 
 3609000   0.66459724   -3.8103612    2227.1426  0.051425664  0.050399596            5 
 3610000   0.67680886   -3.8327601    2223.3208  0.051323196   0.05038864            7 
 3611000   0.66525895   -3.8499939    2227.4141  0.051403445  0.050377688            4 
 3612000   0.67713505   -3.8324892    2226.8169  0.051375437  0.050366757            5 
 3613000   0.67352552    -3.865133    2223.7717   0.05129098  0.050355726            9 
 3614000     0.662913   -3.8517643    2228.2221  0.051379408  0.050344782            7 
 3615000   0.67565731   -3.8536186    2228.4228   0.05136982  0.050333818            7 
 3616000    0.6682246   -3.8217077    2231.1197  0.051417766  0.050322867           11 
 3617000   0.67029931   -3.8363082    2229.4588  0.051365285  0.050311964            7 
 3618000   0.66634042   -3.8394994    2226.9241  0.051292705  0.050301069           12 
 3619000   0.66752609   -3.8401795    2231.3566  0.051380598  0.050290131           11 
 3620000   0.67276233   -3.8263597    2227.7581  0.051283567  0.050279292            7 
 3621000   0.67708239   -3.8319068    2230.4934  0.051332352  0.050268499            8 
 3622000   0.67717787   -3.8223221    2228.9442  0.051282538  0.050257606           12 
 3623000   0.67231974   -3.8473143    2226.2308   0.05120597  0.050246637            7 
 3624000   0.67237222   -3.8441557     2236.604  0.051430371  0.050235667            4 
 3625000   0.67221515   -3.8683652    2221.4625  0.051068104  0.050224643           10 
 3626000    0.6938345   -3.8326708    2227.6719  0.051196725  0.050213725            8 
 3627000   0.66247454   -3.8269894    2229.7033  0.051229283  0.050202874            6 
 3628000   0.66669198   -3.8409121    2228.4311   0.05118594  0.050192046            5 
 3629000     0.662449   -3.8341914    2235.5111  0.051334415  0.050181189            6 
 3630000    0.6704742   -3.8406667    2236.4609  0.051342077  0.050170364            9 
 3631000   0.67912651   -3.8326697    2237.5128  0.051352079   0.05015951            7 
 3632000   0.67035529   -3.8492642    2226.0351  0.051074595  0.050148666           12 
 3633000   0.68179916   -3.8460179    2232.1436   0.05120065  0.050137778            5 
 3634000   0.65680837   -3.8279544    2234.3951  0.051238192  0.050126889            8 
 3635000   0.66957618   -3.8420344    2233.0334  0.051192879  0.050116049            5 
 3636000   0.64910727   -3.8583708    2233.0584  0.051179372  0.050105222            5 
 3637000   0.67450965   -3.8536114    2230.2615  0.051101216  0.050094329            7 
 3638000   0.66596657   -3.8323074    2236.2903  0.051225267  0.050083488            3 
 3639000   0.65643986   -3.8313698    2234.3833  0.051167522  0.050072698           10 
 3640000   0.66220254   -3.8740154    2232.5728  0.051112015   0.05006186            9 
 3641000   0.66189837   -3.8482869    2240.2848  0.051274486  0.050050999            9 
 3642000   0.66528315   -3.8530911    2226.3259   0.05094101  0.050040158           10 
 3643000   0.66993256   -3.8370749     2233.304  0.051086651  0.050029293            3 
 3644000   0.66810512   -3.8554527    2239.2306  0.051208163  0.050018429            6 
 3645000   0.66050686   -3.8405069    2230.1584  0.050986703  0.050007625           12 
 3646000   0.65782833   -3.8563374    2234.0499  0.051061664  0.049996834            8 
 3647000   0.66960182   -3.8429824    2233.7222  0.051040174  0.049986096            7 
 3648000   0.66827404   -3.8218601    2240.2642  0.051175626   0.04997536           13 
 3649000   0.67872354   -3.8448891    2236.2646  0.051070262  0.049964592            6 
 3650000   0.67332236   -3.8646982    2237.8897  0.051093373  0.049953779            5 
 3651000   0.67826598   -3.8426051    2238.2941  0.051088609  0.049943014            5 
 3652000   0.65972827   -3.8759273    2233.8309  0.050972775  0.049932262            7 
 3653000   0.66534117   -3.8629481    2230.1774  0.050875477  0.049921441            4 
 3654000   0.65359008   -3.8415326    2238.7054  0.051056044  0.049910595            4 
 3655000   0.66509154   -3.8566556    2234.6442  0.050949479  0.049899774            5 
 3656000   0.66003258   -3.8555978    2241.1123  0.051082976  0.049889006            5 
 3657000   0.66850957   -3.8476476    2238.3653  0.051006409  0.049878244            6 
 3658000   0.67192177   -3.8628715    2240.3621  0.051037954  0.049867525            8 
 3659000   0.65778181    -3.878505    2233.1021  0.050858661  0.049856757            3 
 3660000   0.67331215   -3.8490798    2238.8648  0.050975975  0.049846063           14 
 3661000   0.66272323   -3.8526814    2238.4584  0.050952801  0.049835226            5 
 3662000   0.66867117   -3.8573327    2238.4529  0.050938761  0.049824523           10 
 3663000    0.6609791   -3.8470604     2248.758  0.051159296  0.049813758            8 
 3664000   0.67787988   -3.8670042    2240.3729  0.050954623   0.04980303            7 
 3665000   0.67181056    -3.864774    2243.9921  0.051023012  0.049792335           11 
 3666000   0.66242948   -3.8505645    2244.7599  0.051026548  0.049781636            4 
 3667000   0.65768163   -3.8684321    2248.5444  0.051098637  0.049770942            7 
 3668000   0.66217359   -3.8694189    2237.9857  0.050844822  0.049760185            4 
 3669000   0.67354107   -3.8594774    2238.3041  0.050838196  0.049749463            5 
 3670000   0.66938873   -3.8570746    2237.9537  0.050816387  0.049738786            7 
 3671000   0.65703265   -3.8614222    2243.9374  0.050938378  0.049728089            7 
 3672000   0.66130364   -3.8619229    2237.9465  0.050788546  0.049717452            9 
 3673000   0.66247246   -3.8577269    2243.0815  0.050891222  0.049706763           17 
 3674000   0.65202963   -3.8442771    2239.2944   0.05079147  0.049696032           11 
 3675000   0.66604054   -3.8542795    2240.9498  0.050815187  0.049685312            8 
 3676000   0.66804342    -3.866635      2240.46  0.050790261  0.049674639            6 
 3677000     0.659947    -3.859056    2241.2014   0.05079325   0.04966394            5 
 3678000   0.66827382   -3.8400667    2236.9406  0.050682902  0.049653148            9 
 3679000     0.664667   -3.8616663    2243.7785  0.050824013  0.049642525            5 
 3680000   0.65790024   -3.8419653    2246.9941  0.050883019  0.049631895            6 
 3681000   0.67058892    -3.859898    2238.9317  0.050686673  0.049621246            5 
 3682000   0.65553664   -3.8585313    2245.7657  0.050827578  0.049610489            4 
 3683000     0.660848   -3.8533469    2242.7724  0.050746048   0.04959987           11 
 3684000   0.66204741   -3.8547873    2241.4704  0.050702822   0.04958915            6 
 3685000   0.65243434    -3.868569    2241.6849  0.050693915  0.049578463           16 
 3686000   0.67477179   -3.8603017     2246.281  0.050784071  0.049567769            5 
 3687000   0.65360344    -3.865992    2245.7032  0.050757238  0.049557052            7 
 3688000     0.660539   -3.8496341    2244.1574  0.050708546  0.049546366            6 
 3689000   0.66086238    -3.849928    2237.9386  0.050554319    0.0495357            7 
 3690000   0.65934636   -3.8617047    2247.6053  0.050758926  0.049525067            5 
 3691000   0.65179862   -3.8615779    2252.4128  0.050853715   0.04951448            5 
 3692000   0.65850643   -3.8742025    2244.8527  0.050669301  0.049503731            5 
 3693000   0.65866567   -3.8608063    2243.8423  0.050632781    0.0494931            8 
 3694000   0.66174977   -3.8635406    2245.9561   0.05066676  0.049482437            7 
 3695000   0.65205901   -3.8689344    2242.0656  0.050565304  0.049471827            9 
 3696000   0.66753334   -3.8672972    2242.6715  0.050565284  0.049461152            7 
 3697000   0.65159247   -3.8529627    2250.9227  0.050737596  0.049450535            4 
 3698000   0.64043236    -3.874528    2244.0153   0.05056822   0.04943987            5 
 3699000    0.6649873   -3.8570218    2248.2226  0.050649332  0.049429182           12 
 3700000   0.65172011    -3.853644    2245.6873  0.050578542  0.049418539            8 
 3701000   0.65229768   -3.8452849    2245.4724  0.050560037  0.049407914            8 
 3702000   0.66934628    -3.868799    2243.3354  0.050498275  0.049397219            4 
 3703000   0.67642525   -3.8694753    2244.7675  0.050516867  0.049386515            5 
 3704000   0.65678204   -3.8740229    2240.6942  0.050411587  0.049375817           10 
 3705000    0.6769983   -3.8529104    2244.8705  0.050491913  0.049365119            5 
 3706000   0.64593702   -3.8668238    2249.7027  0.050586947  0.049354435           13 
 3707000    0.6693452   -3.8692862    2246.0371  0.050490897   0.04934385            2 
 3708000    0.6578259   -3.8432782    2251.6698   0.05060387  0.049333227            5 
 3709000   0.66560206   -3.8546749     2245.466  0.050450841  0.049322651           12 
 3710000   0.64923361   -3.8539643     2251.074  0.050563208    0.0493121            7 
 3711000   0.66530581   -3.8698875    2249.2926   0.05050958  0.049301503            6 
 3712000    0.6587837   -3.8690407    2243.7389  0.050371293  0.049290915           18 
 3713000    0.6621181   -3.8517993    2253.3963  0.050574474   0.04928036            5 
 3714000   0.67112189   -3.8715968    2246.6385  0.050409227  0.049269754            9 
 3715000   0.66775274   -3.8600173    2255.5821  0.050596279  0.049259236            6 
 3716000   0.65133333   -3.8424954    2255.5269  0.050581425  0.049248709            2 
 3717000   0.66935527   -3.8846059    2249.9914  0.050443714  0.049238156            5 
 3718000    0.6600737   -3.8687615    2248.6362   0.05039977  0.049227572            6 
 3719000   0.65357601   -3.8691707    2252.8224  0.050480021   0.04921707            5 
 3720000   0.64797485   -3.8748239    2249.2327  0.050386037  0.049206516           10 
 3721000   0.67036482   -3.8478268    2245.9036   0.05029794  0.049195941            3 
 3722000   0.65809309   -3.8767701    2251.3182  0.050405656  0.049185452            4 
 3723000   0.65819728   -3.8598483    2249.7429  0.050356855   0.04917486           16 
 3724000   0.66790968   -3.8752931    2248.8756  0.050323926  0.049164257            4 
 3725000   0.66147406   -3.8537069    2254.9621  0.050446579  0.049153671            9 
 3726000   0.66825032    -3.875433    2251.8352  0.050363105  0.049143167            8 
 3727000   0.64938648   -3.8701081    2259.2918  0.050516318  0.049132545            5 
 3728000   0.64203613   -3.8663546    2252.0285  0.050340408  0.049121986           11 
 3729000   0.66163363   -3.8610036    2252.2792  0.050332511  0.049111367           23 
 3730000   0.64442325    -3.862031    2264.6198  0.050594724   0.04910086            5 
 3731000   0.65666959     -3.87153    2259.8557  0.050474754  0.049090359           11 
 3732000   0.65911582   -3.8593178    2257.9798  0.050419342  0.049079871           11 
 3733000   0.63552861   -3.8735965    2254.8496  0.050335959  0.049069381            3 
 3734000   0.65567769   -3.8954747     2255.545  0.050337998  0.049058828            7 
 3735000   0.64903407   -3.8870856    2257.7474  0.050373659  0.049048266            7 
 3736000   0.65271894   -3.8627701    2259.2836  0.050394441   0.04903774           10 
 3737000   0.65402599   -3.8761234     2251.626  0.050210195  0.049027214           13 
 3738000   0.65827198   -3.8755226     2261.579   0.05041865  0.049016796            9 
 3739000   0.67290148    -3.871158     2254.425  0.050245722  0.049006334            3 
 3740000   0.65594863   -3.8736192    2255.0161  0.050245456  0.048995824            6 
 3741000   0.65303198   -3.8577745    2256.4225  0.050263355  0.048985307            9 
 3742000   0.65409143   -3.8615607    2253.7213  0.050189767  0.048974848            4 
 3743000   0.64155172   -3.8856559    2258.9128   0.05029194  0.048964373            7 
 3744000   0.65116644   -3.8685874    2258.2343  0.050263405  0.048953897           13 
 3745000   0.64215398   -3.8653437    2253.5494  0.050145737  0.048943461            7 
 3746000   0.67309719    -3.890968    2255.8736  0.050184053  0.048932975           11 
 3747000   0.65784557   -3.8582359    2255.3267  0.050158498  0.048922455            4 
 3748000   0.64732885   -3.8934134     2257.817  0.050200484  0.048911942            7 
 3749000   0.65040624   -3.9045168    2255.8498  0.050143367  0.048901413            8 
 3750000    0.6683678   -3.8709067    2256.4369  0.050143043  0.048890895           12 
 3751000   0.63746829   -3.8892183     2253.436  0.050063005  0.048880449            7 
 3752000    0.6636331   -3.8769818    2264.1865  0.050288434  0.048869991            8 
 3753000   0.64705112   -3.8675875    2261.2574  0.050209997  0.048859498            8 
 3754000   0.64244408   -3.8823933    2260.9433  0.050189649  0.048849012           14 
 3755000   0.63892155   -3.8556896    2263.0458  0.050222944  0.048838555            4 
 3756000   0.65245782   -3.8897184    2264.4551  0.050240838  0.048828092            7 
 3757000   0.64245566   -3.8765419    2262.7327  0.050189263  0.048817627            6 
 3758000    0.6513969   -3.8587739    2258.5042  0.050082141  0.048807125            6 
 3759000   0.66332366   -3.8797249    2255.2484   0.04999664  0.048796641            5 
 3760000   0.65672593   -3.8766903    2259.9584   0.05008773  0.048786183           13 
 3761000    0.6472278   -3.8878551     2257.467  0.050019211  0.048775686            5 
 3762000   0.65371498   -3.8847511    2257.9197  0.050015943  0.048765203            5 
 3763000   0.65179771   -3.8754406    2257.7982   0.04999996  0.048754689           10 
 3764000   0.64825696   -3.8981328     2252.648  0.049872653  0.048744195           10 
 3765000   0.64019658   -3.8819366      2255.61  0.049924968   0.04873367            6 
 3766000   0.65489419   -3.9079419      2264.34  0.050104887  0.048723145            6 
 3767000   0.65357178   -3.8848756    2256.9782  0.049928728  0.048712635            3 
 3768000   0.65289145   -3.9083853     2254.862  0.049868675  0.048702215            7 
 3769000   0.66204616    -3.879267    2259.0307  0.049947614   0.04869167            5 
 3770000   0.65375935   -3.8844238    2261.8673  0.049997067  0.048681187            3 
 3771000   0.66608957   -3.8775289    2260.3616  0.049950536  0.048670695            6 
 3772000   0.65602817   -3.8823319    2260.8286   0.04994761  0.048660359            6 
 3773000   0.65012799   -3.8966397    2260.9372   0.04993677  0.048649845           11 
 3774000   0.65045798   -3.8706114    2267.6642  0.050072076   0.04863942           18 
 3775000   0.64882464   -3.8715422    2266.7304  0.050038199  0.048629106            9 
 3776000   0.65868632   -3.8928325    2259.6292  0.049868229   0.04861875            9 
 3777000   0.64605021   -3.8838626    2260.4371  0.049872851   0.04860839           12 
 3778000   0.64827992   -3.8906218    2266.2971  0.049988907  0.048597936            8 
 3779000   0.64393288   -3.8787885    2262.8335  0.049899301  0.048587505           11 
 3780000   0.64325576   -3.8948437    2268.9689  0.050021359  0.048577066            7 
 3781000    0.6556626   -3.8860709     2264.757    0.0499153  0.048566707            5 
 3782000   0.64711673   -3.8879112    2261.9584  0.049840438  0.048556321            7 
 3783000   0.65073344   -3.8763946    2259.9954   0.04978402  0.048545995            7 
 3784000   0.64545816   -3.8958769    2262.9431   0.04983578  0.048535612            8 
 3785000   0.63862564   -3.9134473    2257.0787  0.049693499   0.04852522            5 
 3786000   0.64449672   -3.8875261    2262.6424  0.049802834  0.048514807            7 
 3787000   0.64254441   -3.8944954    2269.9467  0.049950417  0.048504435           15 
 3788000   0.64339706   -3.8853454    2267.2438  0.049877768  0.048494107            5 
 3789000   0.62958373   -3.8954734    2261.8853  0.049746751  0.048483738            7 
 3790000   0.63449215    -3.874323    2267.0003  0.049846092  0.048473358            8 
 3791000   0.63299543   -3.9037081    2266.4577  0.049821018  0.048462997            8 
 3792000   0.65028297   -3.8967799    2268.2258  0.049846735  0.048452636            5 
 3793000   0.64948093   -3.8968391    2260.0388  0.049653722   0.04844226            5 
 3794000    0.6467191   -3.9123724    2257.1734  0.049577698  0.048431911            5 
 3795000      0.64257   -3.8880566    2261.5547  0.049660842  0.048421523            6 
 3796000    0.6443929   -3.9161539    2259.3769   0.04959995  0.048411103            9 
 3797000   0.64534252   -3.8921931    2267.2264  0.049759161  0.048400694            4 
 3798000   0.65687636   -3.8994463    2263.1132  0.049655811   0.04839021           13 
 3799000    0.6389939   -3.8666238    2263.2929   0.04964668   0.04837984            6 
 3800000    0.6480822   -3.9070902     2265.991  0.049692786  0.048369492            9 
 3801000   0.64741863   -3.8991828    2268.6348  0.049737674  0.048359175            5 
 3802000   0.63270962   -3.8978267    2260.3759  0.049543572  0.048348826           12 
 3803000   0.65455599   -3.8843196    2269.8753  0.049738699  0.048338447            5 
 3804000   0.64477077   -3.9018152    2266.7554  0.049657278  0.048328127            5 
 3805000   0.64370331   -3.8881408    2267.5001  0.049660536  0.048317729           10 
 3806000   0.63982562   -3.9030622    2271.1019  0.049726351   0.04830739            6 
 3807000   0.64806353   -3.9126183    2266.6758  0.049616403  0.048296994           11 
 3808000   0.64034454   -3.8985581    2268.5582  0.049644568  0.048286668           12 
 3809000   0.64166863   -3.8792986      2270.42  0.049672268  0.048276397            7 
 3810000   0.63694636   -3.8892476    2267.8398  0.049602795  0.048266102           16 
 3811000   0.62837585   -3.8908338    2273.8058  0.049720236  0.048255842            4 
 3812000   0.66032916   -3.8985591    2270.6051  0.049637222  0.048245521            8 
 3813000   0.63964598   -3.8753617    2271.1552  0.049636228   0.04823518            7 
 3814000   0.63632641   -3.9255964    2267.0336  0.049533159  0.048224784           11 
 3815000   0.64242774   -3.9047939    2265.2176  0.049480507   0.04821437            5 
 3816000   0.63451897   -3.8966682    2268.0205  0.049528749  0.048203991            5 
 3817000   0.63004716   -3.8923913     2261.677  0.049377281  0.048193546            4 
 3818000   0.63475301   -3.8640843    2275.8006  0.049672616  0.048183139            7 
 3819000   0.63673041   -3.8963878    2271.3058  0.049561531  0.048172894            7 
 3820000    0.6505641   -3.8994811    2269.8517  0.049516835  0.048162492            5 
 3821000   0.64556264   -3.8934615    2268.4555  0.049473425  0.048152165           11 
 3822000   0.65698211   -3.9002866    2270.3303  0.049501359  0.048141718            9 
 3823000   0.64779073   -3.8996374    2263.9015  0.049348276  0.048131312            8 
 3824000   0.63950864   -3.8842586    2268.1301  0.049427522  0.048120924            5 
 3825000   0.63426328   -3.9072763    2266.8332  0.049386344  0.048110537           22 
 3826000   0.64421275   -3.8925996    2275.3988  0.049560001  0.048100145            8 
 3827000   0.65021204    -3.875009    2271.3259  0.049458363  0.048089834            7 
 3828000   0.62978696   -3.9164263    2271.2742  0.049444319  0.048079398            8 
 3829000    0.6452453    -3.886527    2271.0609  0.049426762  0.048069037           10 
 3830000   0.63121896   -3.8816168    2271.0631  0.049413905  0.048058708            4 
 3831000   0.62440759   -3.8964591    2266.2796  0.049296954  0.048048384           13 
 3832000   0.63832333   -3.8975919    2265.4442  0.049265923  0.048037963            6 
 3833000   0.66337907   -3.8999026    2266.2729  0.049271086  0.048027542            5 
 3834000   0.61525629   -3.9151015    2262.2238  0.049170227  0.048017101           11 
 3835000   0.65484378    -3.884726     2271.258  0.049353716  0.048006712            4 
 3836000   0.63859509    -3.920092    2271.5158   0.04934645  0.047996255            8 
 3837000   0.65336845   -3.9052712    2275.5312  0.049420798  0.047985837           10 
 3838000   0.63901933   -3.8930971    2272.8332   0.04934934  0.047975454           17 
 3839000   0.65097866   -3.9287381    2269.7467  0.049269486  0.047965041            8 
 3840000   0.63497957   -3.9025552    2269.7571  0.049256882  0.047954641            9 
 3841000   0.63015445   -3.9064414    2264.8922   0.04913851  0.047944144            8 
 3842000   0.62975392   -3.9110054    2267.5854  0.049184136  0.047933696           13 
 3843000   0.62439128   -3.9136984    2266.5699  0.049149316  0.047923264           12 
 3844000   0.63934329   -3.8994889    2267.4787  0.049156232  0.047912822            9 
 3845000   0.64653605   -3.9115189    2265.6096  0.049102939  0.047902326            4 
 3846000   0.62961142   -3.8953421    2273.7928   0.04926748  0.047891948           10 
 3847000    0.6435591   -3.8962696    2274.8553  0.049277691  0.047881521            5 
 3848000   0.63691277   -3.9268344    2269.1102  0.049140466  0.047871056            5 
 3849000   0.62443459   -3.9256902    2262.5525  0.048985721  0.047860519            7 
 3850000   0.63420092   -3.8971075    2267.0203  0.049069704  0.047850064            8 
 3851000    0.6329996    -3.891528    2264.6517  0.049005707  0.047839564            7 
 3852000   0.63419986   -3.9022966    2270.0443  0.049109646  0.047829044            5 
 3853000    0.6372651   -3.9224045    2274.2182  0.049187174  0.047818554           10 
 3854000   0.63675979   -3.9175074    2264.6494  0.048967511  0.047808048            8 
 3855000   0.63855138   -3.9050967    2268.1342  0.049030139  0.047797615            7 
 3856000   0.63124355   -3.8969635    2263.7715  0.048923139  0.047787083           13 
 3857000   0.64284042   -3.9085048    2263.0512  0.048894892  0.047776529            8 
 3858000   0.63243385   -3.9166061    2258.9474  0.048793575  0.047766005           12 
 3859000   0.63802836   -3.9157365    2264.9618  0.048910811  0.047755443            9 
 3860000   0.62295859   -3.8902528    2264.0996  0.048879525  0.047744966            7 
 3861000   0.64197448   -3.9144995    2264.3547  0.048872372  0.047734535            4 
 3862000   0.63637767   -3.9093318    2266.3025  0.048901747  0.047724032            7 
 3863000   0.62160105   -3.9298483    2263.8755  0.048836731  0.047713529            8 
 3864000   0.63110347   -3.9124394    2268.2666  0.048918793  0.047703054            5 
 3865000   0.63078432   -3.9251069    2269.3442  0.048929371  0.047692509            9 
 3866000   0.62717788   -3.9373588     2268.337  0.048895003  0.047682013            3 
 3867000   0.64742131    -3.933041    2269.4233  0.048905768   0.04767154            3 
 3868000   0.62422959   -3.9059356    2271.3277  0.048934155  0.047661038            9 
 3869000   0.63048028   -3.8890577    2270.9071  0.048912448  0.047650623            5 
 3870000   0.64440838   -3.8904982    2273.0535  0.048946026   0.04764019           14 
 3871000   0.64447947   -3.9200362    2269.9902  0.048867438  0.047629709            8 
 3872000   0.62368481   -3.9132088    2270.4146   0.04886395  0.047619194           10 
 3873000   0.63688766   -3.9119281     2275.564  0.048962132  0.047608768            6 
 3874000   0.63257347   -3.9071676    2273.8921  0.048913528  0.047598369            8 
 3875000   0.63870408   -3.9109386    2272.7106  0.048875498  0.047587919            7 
 3876000   0.62169879   -3.8965004    2272.0512  0.048848711  0.047577504            5 
 3877000    0.6381153   -3.9165538    2278.1308  0.048966786  0.047567091            9 
 3878000   0.63710125   -3.9117353    2277.7938  0.048946919  0.047556686            4 
 3879000   0.63439617   -3.9367917    2273.9889  0.048852559  0.047546244           17 
 3880000   0.61779526   -3.9192583    2272.4285  0.048806454  0.047535778            4 
 3881000   0.63571271   -3.9125651    2273.1739  0.048809884  0.047525319           16 
 3882000   0.63551489   -3.9082384    2270.7336  0.048744925  0.047514883            6 
 3883000   0.62767504   -3.8948843    2272.1929  0.048763689  0.047504506           14 
 3884000   0.62499573   -3.9087319    2274.9155  0.048809549  0.047494129           13 
 3885000   0.62749288   -3.9101851    2272.5841  0.048746977  0.047483637           12 
 3886000   0.63574562   -3.9178347     2264.705   0.04856547  0.047473197            8 
 3887000   0.62805406   -3.9192919    2271.5963  0.048700719  0.047462735           20 
 3888000   0.63062698   -3.9146002    2279.4501  0.048856526  0.047452312            7 
 3889000   0.63101012    -3.910964    2263.2949   0.04849779  0.047441906           10 
 3890000   0.63678175   -3.9121168    2272.9752  0.048692699  0.047431546            4 
 3891000   0.62514014   -3.9072434    2267.5136  0.048563215  0.047421142           10 
 3892000   0.62147675   -3.9150808    2270.0321  0.048604661  0.047410764            4 
 3893000   0.63895094   -3.9330081    2270.5332  0.048602904  0.047400322           16 
 3894000   0.63565977   -3.9259394    2269.7164  0.048572942  0.047389823            5 
 3895000   0.63845144   -3.9415946    2271.0166  0.048588288  0.047379349            4 
 3896000   0.62311075   -3.9111674    2268.5196  0.048522408  0.047368871           11 
 3897000   0.63445677   -3.9161256    2273.4837  0.048616108  0.047358436            7 
 3898000   0.62139589   -3.9195774       2273.1  0.048595433  0.047348029            9 
 3899000   0.63978429   -3.9191271    2277.0557  0.048667514  0.047337576            8 
 3900000    0.6163702   -3.9033588    2276.4749  0.048642626  0.047327165            5 
 3901000   0.63495445   -3.9156427    2270.7059  0.048506918  0.047316705           24 
 3902000   0.63588107    -3.925673    2278.2132  0.048654817  0.047306299            7 
 3903000   0.62627027   -3.9144655    2279.1644  0.048662662  0.047295894            8 
 3904000   0.62901074   -3.9486743     2273.993  0.048539809  0.047285546            5 
 3905000   0.63164162   -3.9181903     2274.185  0.048531476  0.047275133            8 
 3906000   0.62475661   -3.9484783    2276.7858  0.048574539  0.047264815            5 
 3907000   0.62405739   -3.9313881    2273.1483  0.048484521  0.047254446            4 
 3908000   0.63123319   -3.9376408    2271.9787  0.048447175  0.047244092           16 
 3909000   0.63379804   -3.9269975    2280.0974  0.048607858  0.047233754           11 
 3910000   0.63269303   -3.9275122     2275.962  0.048507289  0.047223377            6 
 3911000   0.62613165   -3.9137746    2277.1184  0.048519526  0.047213071            9 
 3912000   0.61292238    -3.934183    2281.3162  0.048596544  0.047202755            4 
 3913000   0.63540055   -3.9266624    2281.8274  0.048595012  0.047192435            3 
 3914000    0.6163839    -3.939695    2278.0061  0.048501237  0.047182111            5 
 3915000   0.62420379   -3.9332321    2284.1652  0.048619948  0.047171793            8 
 3916000   0.62544877   -3.9350182    2281.4811  0.048550415  0.047161431           12 
 3917000   0.62222558   -3.9298602    2280.9556   0.04852684  0.047151085            8 
 3918000   0.63336437   -3.9185784    2278.2942  0.048457848   0.04714076            4 
 3919000   0.61610518   -3.9272551    2276.1794  0.048400514   0.04713041            8 
 3920000   0.61325079   -3.9462686    2269.8829  0.048254313  0.047120054            9 
 3921000   0.62755627   -3.9399777    2277.6294  0.048406643  0.047109659           10 
 3922000   0.60998489   -3.9366028    2275.8063  0.048355565  0.047099334           11 
 3923000   0.62106068   -3.9311313    2275.3715  0.048334003  0.047089001           12 
 3924000   0.62632842   -3.9340814    2277.6074  0.048369168  0.047078649           14 
 3925000   0.62100312   -3.9296874    2279.6846  0.048400946   0.04706834            7 
 3926000   0.62302123   -3.9356658    2280.3034  0.048401754  0.047058005           11 
 3927000   0.62470416   -3.9432246     2286.656  0.048524233  0.047047729            9 
 3928000   0.62338733   -3.9530785    2274.9887  0.048264356  0.047037408            9 
 3929000   0.61148611    -3.938386    2282.8862  0.048419577  0.047027058            4 
 3930000   0.63127177   -3.9367834    2284.7173  0.048446084  0.047016767           19 
 3931000   0.62516478   -3.9216463     2281.687  0.048369519  0.047006503            9 
 3932000   0.64487705   -3.9204057    2274.1878  0.048198282  0.046996197           13 
 3933000    0.6315714   -3.9380681    2277.7687  0.048261902  0.046985911            8 
 3934000   0.60346975    -3.922751    2279.8024  0.048292712  0.046975626           14 
 3935000   0.62257032   -3.9458522    2282.5113  0.048337808   0.04696541            9 
 3936000   0.61159132   -3.9438087    2283.5557  0.048347638  0.046955178            5 
 3937000   0.60977219   -3.9395707    2284.0912  0.048346694   0.04694495            7 
 3938000    0.6173551    -3.940181    2277.9987  0.048205491  0.046934723            7 
 3939000   0.61793857   -3.9156379    2283.5486  0.048310667  0.046924587            8 
 3940000   0.62006893   -3.9589813    2288.1708  0.048396167  0.046914359           13 
 3941000   0.62791255   -3.9232876     2287.825  0.048376576  0.046904161           10 
 3942000   0.64051655   -3.9436696    2285.2446  0.048309754  0.046894017           12 
 3943000   0.62560762   -3.9290491    2287.2125  0.048339092  0.046883919            9 
 3944000    0.6154513    -3.941562    2289.4891  0.048374938  0.046873784            7 
 3945000    0.6333629   -3.9438052    2286.6612  0.048302941  0.046863578            4 
 3946000   0.61404355   -3.9119401    2286.9088  0.048295929  0.046853412            7 
 3947000   0.62288857   -3.9255298    2287.5894  0.048298061  0.046843242           15 
 3948000   0.62474766    -3.953722    2286.5371  0.048263616  0.046833086           17 
 3949000   0.62418629    -3.916877    2289.3657  0.048311086  0.046822919           11 
 3950000   0.62054762   -3.9411593    2283.2914  0.048170705  0.046812772            6 
 3951000   0.60905335   -3.9323922    2285.8816  0.048213145  0.046802655            7 
 3952000   0.62503805   -3.9334458    2290.2006  0.048292017  0.046792493           12 
 3953000   0.61973965   -3.9065425    2293.7624  0.048354886   0.04678237            6 
 3954000   0.61659516   -3.9177186     2288.261   0.04822671  0.046772216           10 
 3955000   0.62458817   -3.9211508    2293.0815  0.048316088  0.046762187            4 
 3956000   0.61950358   -3.9393063    2286.0863  0.048156519  0.046752033            8 
 3957000   0.62648812   -3.9352542    2279.4123  0.048003797  0.046741889           10 
 3958000   0.62202265     -3.92818     2291.784  0.048252149  0.046731742            4 
 3959000   0.61046583   -3.9290408    2293.7825  0.048282027  0.046721636            7 
 3960000   0.61590124   -3.9332389    2291.2265  0.048216046  0.046711566           11 
 3961000   0.62892808    -3.923271    2291.8792  0.048217605  0.046701459            6 
 3962000   0.62265515   -3.9515259    2279.8814  0.047953084  0.046691329            5 
 3963000   0.62803471   -3.9338481    2290.9934  0.048174645  0.046681171            8 
 3964000   0.61056332   -3.9221204    2288.7029  0.048114339  0.046671025           10 
 3965000   0.62460569   -3.9113513    2291.8977  0.048169351  0.046660912            7 
 3966000   0.62100503    -3.944163    2284.8267  0.048008629  0.046650772           17 
 3967000   0.61195399   -3.9212999    2293.3461  0.048175491  0.046640672            7 
 3968000     0.626273   -3.9400311    2288.8007   0.04806789  0.046630558           10 
 3969000   0.61920654   -3.9141508    2290.0065  0.048081097  0.046620484           14 
 3970000   0.61116528     -3.93156    2294.9133  0.048171985  0.046610463            5 
 3971000   0.63000799   -3.9171713    2291.1909  0.048081736  0.046600489            5 
 3972000   0.60460414   -3.9480681    2282.7958    0.0478935  0.046590434            5 
 3973000    0.6055224   -3.9422631    2293.4888  0.048105731  0.046580296            9 
 3974000   0.61756243   -3.9446068    2294.4414  0.048113601  0.046570224            9 
 3975000   0.61551541   -3.9509435    2287.9088  0.047964546  0.046560126           11 
 3976000   0.61674744   -3.9628046    2287.6098  0.047946214  0.046550067            9 
 3977000   0.61624961   -3.9583632    2289.3426  0.047970468   0.04653998            9 
 3978000   0.60576702   -3.9339995    2294.9777  0.048076456   0.04652982           10 
 3979000   0.61846466   -3.9322839    2288.1501   0.04792138  0.046519767            4 
 3980000   0.61362755   -3.9519725    2290.8986  0.047966889  0.046509691           12 
 3981000   0.61860272   -3.9414644     2289.524  0.047926065  0.046499632           10 
 3982000   0.60730078   -3.9584418    2291.9727  0.047965276  0.046489497            6 
 3983000   0.61421043   -3.9343084    2294.4663  0.048005403  0.046479388            6 
 3984000   0.61410391   -3.9509991    2291.0148   0.04792116  0.046469272           20 
 3985000   0.61774855   -3.9229778    2286.5576  0.047815926  0.046459191            3 
 3986000   0.60666743   -3.9353169    2292.2133  0.047922172  0.046449064            5 
 3987000   0.62513525   -3.9414259    2287.5286  0.047812235  0.046438894            6 
 3988000   0.61320492   -3.9602222    2285.1477  0.047750495  0.046428731           12 
 3989000   0.61330219   -3.9469743    2290.5625  0.047851644  0.046418587            5 
 3990000   0.62996281   -3.9356084    2288.1769  0.047789827  0.046408477           11 
 3991000   0.61637013   -3.9433382    2296.0114   0.04794144  0.046398366           13 
 3992000   0.60853116   -3.9481628    2288.5368  0.047773397  0.046388303            5 
 3993000   0.61501496   -3.9422127    2289.1516  0.047774263  0.046378193            7 
 3994000   0.61800702   -3.9423815    2292.2576  0.047827106  0.046368025            9 
 3995000   0.60578952   -3.9650285    2286.8613  0.047702573  0.046357873           11 
 3996000   0.60553304    -3.940977    2291.5552  0.047788521  0.046347797           11 
 3997000   0.61245016   -3.9458957    2293.6241    0.0478197  0.046337705           27 
 3998000   0.60833506   -3.9452319     2292.642  0.047787268  0.046327559            7 
 3999000   0.61171334   -3.9330513    2285.7782  0.047632287  0.046317423           14 
 4000000   0.62038915   -3.9301672    2294.9916  0.047812325  0.046307293           11 
 4001000   0.61451436   -3.9521983    2296.0099  0.047821584  0.046297189           13 
 4002000   0.60636378   -3.9407036    2291.0461  0.047706275  0.046287135            9 
 4003000   0.60685175   -3.9459773    2294.2047  0.047760112  0.046277054            8 
 4004000   0.61017663   -3.9413435     2292.825  0.047719468  0.046266944           10 
 4005000   0.59961596   -3.9585928    2290.7445  0.047664263  0.046256866            4 
 4006000   0.61528504   -3.9409882    2290.1703  0.047640422  0.046246728           14 
 4007000   0.61044208   -3.9573282    2292.2052   0.04767085  0.046236655            5 
 4008000   0.60638394   -3.9434905    2294.7537  0.047711945  0.046226522            8 
 4009000   0.61137299   -3.9697873    2295.3789  0.047713039  0.046216387            9 
 4010000   0.61350441   -3.9556335    2287.6874  0.047541301  0.046206347            8 
 4011000   0.61293944   -3.9326057      2294.15  0.047663717  0.046196225           11 
 4012000   0.60869156   -3.9386074    2294.1062  0.047650926  0.046186148            9 
 4013000   0.60967805   -3.9932195    2285.5912  0.047462231  0.046176048           10 
 4014000   0.60917293   -3.9801352    2289.6441  0.047534548  0.046165849           16 
 4015000   0.61598748   -3.9623639    2291.2576  0.047556198  0.046155765           13 
 4016000   0.59753389   -3.9481146    2301.1416  0.047749452  0.046145665           13 
 4017000   0.60353928   -3.9334477    2294.4281  0.047598293  0.046135546            4 
 4018000   0.60254684   -3.9432069    2294.2185  0.047582099  0.046125474            4 
 4019000   0.59788669   -3.9586479    2297.2213  0.047632522  0.046115408           11 
 4020000   0.60438041   -3.9677044    2295.9661  0.047594654  0.046105293            8 
 4021000   0.60606152   -3.9617405    2292.6184  0.047513438  0.046095134            6 
 4022000   0.61467648   -3.9525464    2289.0597  0.047427891  0.046084977           10 
 4023000   0.60988056   -3.9524437     2293.314  0.047504225  0.046074858           12 
 4024000   0.60718802   -3.9312298    2291.4203  0.047453203  0.046064776            6 
 4025000   0.60708019   -3.9584037    2295.0495  0.047516553  0.046054699            6 
 4026000   0.62184324   -3.9441138    2296.1426  0.047527377  0.046044683            8 
 4027000   0.59982405   -3.9337634    2301.2487  0.047621238  0.046034658            7 
 4028000   0.60457089   -3.9539775    2296.2725  0.047506465  0.046024628           14 
 4029000   0.61424078   -3.9675373    2291.7699  0.047401546  0.046014548            6 
 4030000   0.60282871   -3.9420319    2297.6311  0.047510982  0.046004434            8 
 4031000   0.60314124   -3.9612725    2296.9352   0.04748481  0.045994388           12 
 4032000   0.59536362   -3.9478082    2303.0438  0.047599285  0.045984344           17 
 4033000   0.60375536   -3.9675029    2294.3421  0.047407681  0.045974291            9 
 4034000   0.59771481   -3.9490533    2295.3525    0.0474168  0.045964211           11 
 4035000   0.61137907   -3.9519126    2301.3891  0.047529721  0.045954254           11 
 4036000   0.59617145   -3.9558814    2299.6294  0.047481611   0.04594421           10 
 4037000   0.59652151   -3.9705121    2301.2899  0.047504127  0.045934314           22 
 4038000   0.61422856   -3.9606981    2294.2783  0.047347662  0.045924332            5 
 4039000   0.60782217   -3.9677045    2294.2779   0.04733593  0.045914262            9 
 4040000   0.60544383    -3.960072    2293.0438  0.047298758  0.045904239           11 
 4041000   0.62097697   -3.9701804    2299.5925    0.0474221  0.045894135           12 
 4042000   0.59786879   -3.9604666    2297.7533   0.04737245  0.045884076            6 
 4043000   0.60533334   -3.9655159    2295.5171   0.04731464  0.045874029            9 
 4044000   0.60083231   -3.9554118    2293.8833  0.047269274  0.045864028            8 
 4045000   0.60659922    -3.952564    2299.8857  0.047381246  0.045854084            7 
 4046000   0.59390793   -3.9466145    2302.4677  0.047422715  0.045844104           13 
 4047000   0.61062092   -3.9538653    2304.0736  0.047444065  0.045834123           11 
 4048000    0.6024514   -3.9694555    2295.6397  0.047258723  0.045824081            9 
 4049000   0.60725167   -3.9707179    2298.8235  0.047312578  0.045814087            9 
 4050000   0.61582736   -3.9675971    2296.8681  0.047260661  0.045804059            6 
 4051000   0.60813823   -3.9469289    2303.5877  0.047387223  0.045794084            8 
 4052000   0.59950665   -3.9734156    2301.9727  0.047342314  0.045784093           12 
 4053000    0.6028772   -3.9617292     2299.537  0.047280553  0.045774115            4 
 4054000    0.5955197   -3.9610222    2304.3612  0.047368057  0.045764185           10 
 4055000    0.6024265    -3.939975    2300.7294  0.047281739  0.045754243            6 
 4056000   0.58576918   -3.9653748    2299.8126  0.047251245  0.045744282           11 
 4057000   0.59652165   -3.9512865    2305.4364  0.047355115  0.045734363           10 
 4058000   0.60869495    -3.975785    2293.1993  0.047092148  0.045724376            9 
 4059000   0.60324014   -3.9592841    2298.3484  0.047186261  0.045714398           10 
 4060000   0.59581694   -3.9481611    2295.1633  0.047109263  0.045704471           14 
 4061000   0.61305332   -3.9539964    2302.8942  0.047256304   0.04569458           18 
 4062000   0.60802053   -3.9692949    2294.1578  0.047065439  0.045684679            6 
 4063000   0.59960415   -3.9805111    2297.8875  0.047130354   0.04567466            3 
 4064000   0.60160149   -3.9597888    2298.3252  0.047127731   0.04566468           20 
 4065000   0.59417788   -3.9712457    2299.5218  0.047140668  0.045654652            9 
 4066000   0.59536685     -3.98008    2298.1402  0.047100759  0.045644674            8 
 4067000   0.61136105   -3.9517526    2300.7071  0.047141772  0.045634684            9 
 4068000   0.59973779   -3.9706383    2301.2179  0.047140648  0.045624769           10 
 4069000   0.59527907   -3.9858325    2296.6533  0.047035579  0.045614822            3 
 4070000   0.59976946   -3.9818131    2297.6947  0.047045346  0.045604825           11 
 4071000   0.59924036   -3.9733605    2299.8914  0.047078757  0.045594825           15 
 4072000     0.608391   -3.9777076    2300.0279  0.047069989  0.045584833            4 
 4073000   0.58583805   -3.9804755    2290.6087  0.046865715  0.045574848            5 
 4074000    0.6025753   -3.9641723    2302.6306  0.047100118  0.045564852           10 
 4075000   0.59089076   -3.9801634    2296.5718  0.046964658  0.045554814            8 
 4076000   0.60226548   -3.9612648    2299.4789  0.047012571  0.045544789           10 
 4077000    0.5902835   -3.9870678    2304.6158  0.047106038   0.04553481            7 
 4078000   0.60125716   -3.9803288    2299.5153  0.046990259  0.045524881           16 
 4079000   0.60719304   -3.9742278    2297.8449  0.046944613  0.045514969            6 
 4080000   0.59514019   -3.9638653    2303.7293  0.047053294  0.045505073            9 
 4081000   0.59791175   -3.9820068    2301.7639  0.047001632  0.045495139           14 
 4082000   0.59510236   -3.9595701    2302.2622  0.047000291  0.045485169            9 
 4083000   0.59224779   -3.9932579    2308.0319  0.047106538  0.045475293           12 
 4084000    0.5841849   -3.9602837     2304.025  0.047013242  0.045465362            8 
 4085000   0.60683023   -3.9623194    2304.2961  0.047007265  0.045455396           14 
 4086000    0.6062116   -3.9823146     2301.449  0.046937694  0.045445433           12 
 4087000   0.59701742    -3.977985    2301.4452  0.046926132  0.045435433            7 
 4088000   0.60092838   -3.9855731    2303.5755  0.046958078  0.045425406            7 
 4089000   0.60005278   -3.9962265    2299.6236  0.046866056  0.045415443            8 
 4090000   0.59043997   -3.9594994     2299.289   0.04684778  0.045405449           13 
 4091000   0.59118972   -3.9763635    2300.6649  0.046864355   0.04539549            6 
 4092000   0.60101489   -3.9706968    2303.0284  0.046901034  0.045385533           13 
 4093000   0.59366126   -3.9795825     2300.315  0.046834331  0.045375628            8 
 4094000   0.57878158   -3.9719186    2300.4892  0.046826438  0.045365691            6 
 4095000   0.58609539   -3.9784172    2308.7502  0.046983113  0.045355768            6 
 4096000   0.59349267   -3.9889784    2298.4791  0.046762678  0.045345826            6 
 4097000   0.59767109    -3.987492    2299.8477  0.046779101  0.045335842            4 
 4098000   0.59298976    -3.979932    2303.8631  0.046849338  0.045325912           12 
 4099000   0.60782006   -3.9649432    2310.8039  0.046979018  0.045315947            5 
 4100000    0.6080667   -3.9658757    2305.7459  0.046864753  0.045306057            7 
 4101000   0.59135483   -3.9891796    2297.8714  0.046693315  0.045296103            4 
 4102000   0.59450594   -3.9770784    2297.0902  0.046666061  0.045286125           12 
 4103000   0.57815775   -3.9900111    2302.3512   0.04676154   0.04527617           16 
 4104000   0.59788478   -3.9770397    2298.7583  0.046677192  0.045266204            7 
 4105000   0.59237255   -3.9466529    2304.9051  0.046790602  0.045256236            7 
 4106000   0.60087968   -3.9963216    2301.2919  0.046705875  0.045246291            5 
 4107000   0.59246719   -3.9660444    2299.0791  0.046649604  0.045236322           15 
 4108000   0.57487842   -3.9822429    2302.3965  0.046705544  0.045226319            9 
 4109000   0.57749927   -3.9961562    2301.6011  0.046678046  0.045216219           16 
 4110000   0.60493104   -3.9984883    2301.2105  0.046658769  0.045206219           10 
 4111000   0.60217641   -3.9612805    2307.5886  0.046776708  0.045196232           20 
 4112000   0.60444057    -3.985075    2300.0766  0.046613095  0.045186289            8 
 4113000    0.5955698   -3.9968439    2296.9728  0.046538876  0.045176248           13 
 4114000    0.5949551   -3.9787687    2303.1836  0.046653371  0.045166213            7 
 4115000   0.58777346   -3.9705715    2299.7833  0.046573173  0.045156233           15 
 4116000   0.58871174   -3.9741531     2305.794  0.046683553   0.04514632           12 
 4117000   0.59739096    -3.996128    2304.7001  0.046650072  0.045136349           10 
 4118000   0.58974766   -3.9884253    2299.7749  0.046539075  0.045126349            8 
 4119000   0.59617849   -3.9775121    2300.6734  0.046545953  0.045116355           22 
 4120000   0.59660331   -3.9686831    2301.4859   0.04655109  0.045106358           16 
 4121000   0.59696818   -4.0030213    2300.5492  0.046520853  0.045096367            8 
 4122000   0.59870546   -3.9880041    2299.5453   0.04648927  0.045086307           19 
 4123000   0.60435459   -3.9830521    2305.5064  0.046598481  0.045076299           10 
 4124000   0.59473417   -3.9886011    2303.2146   0.04654087  0.045066264           17 
 4125000   0.60715505    -3.957315    2305.0638  0.046566946  0.045056335           11 
 4126000   0.58945628   -3.9777328    2304.1167   0.04653653   0.04504644            8 
 4127000   0.58860898    -3.971224    2306.5711  0.046574814  0.045036473            6 
 4128000   0.58841296   -3.9697644    2299.4203  0.046419176  0.045026486            6 
 4129000   0.58595312   -3.9906441    2304.9884  0.046520311   0.04501647           10 
 4130000   0.59673961    -3.988768    2300.0227  0.046408851  0.045006458            5 
 4131000   0.59511027    -3.984994    2305.6801  0.046511742  0.044996424            8 
 4132000   0.60914956   -3.9891314    2303.6265  0.046459069  0.044986372            7 
 4133000    0.5893781     -3.99286    2302.4467  0.046424041  0.044976366            6 
 4134000   0.59171175   -4.0058504     2301.772  0.046399209  0.044966377            6 
 4135000     0.582969   -3.9957257    2302.2371  0.046397362  0.044956405           12 
 4136000   0.58681304   -3.9884883    2307.0322  0.046482757  0.044946452           11 
 4137000   0.58290158   -3.9812766    2300.2644  0.046335195  0.044936453           10 
 4138000   0.58816127   -3.9858104    2305.6037  0.046431523  0.044926518            7 
 4139000   0.59777815   -3.9765409    2302.4267   0.04635634  0.044916522           11 
 4140000   0.57850637   -3.9624482    2302.3397  0.046343392  0.044906545           12 
 4141000   0.58870635   -3.9857031    2303.4175   0.04635389  0.044896555           11 
 4142000   0.58266034   -3.9845963     2307.731  0.046429482  0.044886586           12 
 4143000   0.59181207   -3.9786351    2307.2642  0.046408887  0.044876612           15 
 4144000   0.60104507   -3.9898919    2302.2574  0.046297004  0.044866632           16 
 4145000   0.59253037   -3.9963218    2299.3884  0.046228155   0.04485664            6 
 4146000   0.59617111   -4.0018958    2300.9897   0.04624919  0.044846631           15 
 4147000   0.58521993    -4.010827    2302.9329  0.046277087  0.044836603           10 
 4148000   0.58308779   -3.9938814    2298.7195  0.046181283  0.044826576            4 
 4149000   0.59954824   -3.9984756    2302.3735  0.046243542  0.044816643           11 
 4150000   0.58851998   -3.9857239    2306.3357  0.046311962  0.044806666            9 
 4151000    0.5855826   -3.9819834    2304.2868  0.046259672  0.044796742            3 
 4152000   0.58363183   -3.9897777    2308.4604  0.046332297  0.044786769           10 
 4153000   0.59244622   -4.0155069     2305.565  0.046263043  0.044776798           10 
 4154000   0.58021285   -3.9907095    2306.5928  0.046272524  0.044766866            9 
 4155000   0.59588867   -4.0016825    2301.1781  0.046152791  0.044756923           18 
 4156000   0.57474872    -3.983837    2305.3886  0.046226111  0.044746994           15 
 4157000   0.58389327   -3.9792244    2302.3963  0.046155007  0.044737046           31 
 4158000   0.58849309   -4.0008301    2308.2377  0.046260977  0.044727069           12 
 4159000   0.59472241   -3.9916838    2308.4822  0.046254752   0.04471711            9 
 4160000   0.58140002   -3.9858397    2305.2205  0.046178296   0.04470715            8 
 4161000   0.58165803   -3.9997704    2305.6351  0.046175501  0.044697233            9 
 4162000   0.58270131   -3.9917379    2310.9887  0.046271599  0.044687265           10 
 4163000   0.59035862   -3.9911951    2310.1567  0.046243829  0.044677367           10 
 4164000   0.58442352   -3.9814224    2304.4946  0.046119409  0.044667397            5 
 4165000   0.59789513   -3.9907374    2300.6437  0.046031287   0.04465746           13 
 4166000   0.57987259   -3.9957776    2305.2174  0.046111725   0.04464745           20 
 4167000   0.57790399   -4.0125695     2303.465  0.046065615  0.044637408            6 
 4168000   0.59545584   -4.0173648    2303.7503  0.046060267    0.0446274           12 
 4169000   0.57637499   -3.9970862    2301.3579  0.046001398  0.044617416           13 
 4170000   0.57789945   -4.0139893    2304.9377  0.046061904  0.044607391           21 
 4171000   0.58530272    -3.997861    2307.4235  0.046100525  0.044597385           15 
 4172000   0.58056165   -4.0126009    2301.1485  0.045964136  0.044587409           13 
 4173000    0.5888482   -3.9904158    2310.3095  0.046136062  0.044577385           13 
 4174000   0.57323644   -4.0038751    2302.7313  0.045973711  0.044567423           16 
 4175000   0.58560556   -4.0001538    2307.2926  0.046053744  0.044557426           33 
 4176000   0.58346218   -4.0300998    2297.8278  0.045853844  0.044547458           23 
 4177000   0.58141401   -4.0113623    2297.2327  0.045830993  0.044537407            7 
 4178000   0.59003939   -4.0001241    2302.8048  0.045931164  0.044527366            9 
 4179000   0.58297931   -4.0106144    2306.8584  0.046001005   0.04451737            5 
 4180000   0.59050028   -4.0168037     2308.248  0.046017704  0.044507393           14 
 4181000   0.57730204   -3.9932673    2305.7625  0.045957158  0.044497398           10 
 4182000   0.58462394   -4.0004807    2306.0294  0.045951487  0.044487394            8 
 4183000   0.58081329    -4.003201    2301.9297  0.045858828  0.044477408            8 
 4184000   0.57799887   -3.9994568    2307.3724  0.045956269  0.044467382           47 
 4185000    0.5976313   -3.9934458    2306.8808    0.0459355  0.044457376           14 
 4186000   0.58745948   -3.9899483    2308.4948  0.045956656  0.044447407            5 
 4187000   0.59361414    -4.002305    2301.8714  0.045813857  0.044437439           16 
 4188000   0.58304709   -3.9915252    2304.7704  0.045860602  0.044427485            7 
 4189000   0.57154454   -4.0012592    2302.5475  0.045805433  0.044417508            7 
 4190000   0.57137012   -4.0122874    2311.3936  0.045970437  0.044407521           15 
 4191000   0.58235928   -4.0181634    2305.9788  0.045851801  0.044397553            9 
 4192000   0.56964609   -4.0087908     2312.962  0.045979684  0.044387523           15 
 4193000    0.5860154   -4.0183101    2304.4428  0.045799403  0.044377522           15 
 4194000   0.58571082   -4.0224275    2309.7965   0.04589486  0.044367528            8 
 4195000   0.56637046   -4.0094992    2308.5367  0.045858893  0.044357507           10 
 4196000   0.58214535   -4.0078972    2299.4827  0.045668149  0.044347486            8 
 4197000   0.57811609   -4.0013119    2302.9108  0.045725336   0.04433748           12 
 4198000   0.58915307   -3.9978545    2307.0437  0.045796485  0.044327512            9 
 4199000   0.57689901   -3.9897643    2307.0286  0.045785278   0.04431756           10 
 4200000   0.58023533   -3.9934062    2306.9496  0.045772809  0.044307597           10 
 4201000    0.5949669   -4.0126301    2308.1092  0.045784916  0.044297692            9 
 4202000   0.57566838   -4.0277402    2304.9163  0.045710698  0.044287739            9 
 4203000   0.59374818   -3.9968148    2302.6304    0.0456545   0.04427776            7 
 4204000   0.59059192   -4.0174057    2303.5827  0.045662518  0.044267745            8 
 4205000   0.58357496   -4.0286036    2307.7334  0.045733917   0.04425777           10 
 4206000   0.57662795   -4.0059705    2311.9413  0.045806414  0.044247822            8 
 4207000   0.58325989   -4.0114136    2306.7721  0.045693133  0.044237881            5 
 4208000   0.58224372   -4.0090639    2310.8776  0.045763577   0.04422792            6 
 4209000   0.59097679   -4.0298424    2308.8802  0.045713159  0.044217946            8 
 4210000   0.57659292   -4.0168908     2310.397  0.045732325  0.044208002           11 
 4211000   0.58421444   -4.0124505    2301.9057  0.045553426  0.044198039           11 
 4212000   0.57567925   -4.0344898    2310.0266  0.045703279  0.044188045            7 
 4213000   0.57706763   -4.0121014     2309.326  0.045678575  0.044178059            8 
 4214000   0.58953596   -4.0233455    2302.5833  0.045534394  0.044168119            7 
 4215000   0.58396693   -4.0238245    2306.7963  0.045606886  0.044158108            8 
 4216000   0.57210911    -4.013115    2309.8088  0.045655615  0.044148114           11 
 4217000   0.58038941   -4.0096686    2304.0823  0.045531624  0.044138142           15 
 4218000   0.56998322   -4.0029456    2312.4986  0.045687107  0.044128153           16 
 4219000   0.59240295   -4.0094571     2311.259  0.045651793  0.044118171           19 
 4220000    0.5649509   -4.0053627    2314.3316  0.045701651  0.044108259           18 
 4221000   0.57927204   -4.0162215    2312.7229  0.045659063  0.044098342            8 
 4222000   0.56448432   -3.9957348    2311.6042  0.045626169  0.044088464            6 
 4223000   0.58532348   -3.9993695    2304.2474  0.045470191  0.044078536           10 
 4224000   0.56866718   -4.0101968    2308.8162  0.045549562  0.044068577            9 
 4225000   0.58192673   -4.0126984    2306.0787  0.045484787  0.044058638           18 
 4226000   0.57728912   -4.0227901    2309.2759  0.045537071  0.044048673           11 
 4227000   0.57319321   -4.0294153     2311.356  0.045567305  0.044038692           27 
 4228000   0.57617821   -4.0082337    2305.1128  0.045433475  0.044028714           13 
 4229000   0.58398535   -4.0153102    2310.2789   0.04552453  0.044018741            6 
 4230000   0.56706702   -4.0008061    2310.7315  0.045522685  0.044008797           10 
 4231000   0.56620124   -4.0153794    2307.0508  0.045439431   0.04399887           13 
 4232000    0.5842019   -4.0022216    2304.9519  0.045387364   0.04398892            5 
 4233000   0.56897093   -4.0073163    2313.2703  0.045540404  0.043978959           12 
 4234000   0.56520499   -4.0141464    2306.5867  0.045398101  0.043968977            9 
 4235000   0.57474392   -4.0047803    2308.4452  0.045423952  0.043959014            7 
 4236000    0.5696881   -4.0159493    2306.4214  0.045373415   0.04394911           10 
 4237000   0.57635397   -4.0246083    2305.0063  0.045334874  0.043939169            6 
 4238000     0.561079   -4.0346696    2301.6528  0.045258235  0.043929151           12 
 4239000   0.57177585   -4.0282183    2307.6507  0.045365469  0.043919164           17 
 4240000   0.57497594   -4.0026381    2313.4602  0.045468951  0.043909204            5 
 4241000   0.57175235   -4.0151229    2306.2895  0.045317328  0.043899276            9 
 4242000   0.57316851   -4.0209891    2307.2505  0.045325524  0.043889317           18 
 4243000   0.55719323   -4.0098119    2304.4143  0.045259139  0.043879336           13 
 4244000   0.56824069   -4.0313529    2307.7326  0.045313631  0.043869282           25 
 4245000   0.58554244   -4.0361253    2300.2834  0.045156721  0.043859229           14 
 4246000   0.56899791   -4.0284267     2304.813  0.045234986  0.043849169            7 
 4247000   0.58057067   -4.0231063    2308.6572  0.045299764  0.043839131           20 
 4248000    0.5762831   -4.0340834    2305.9399  0.045235796  0.043829085           15 
 4249000   0.56173418   -4.0397146    2310.0164  0.045305099   0.04381903           11 
 4250000   0.56911521   -4.0256409    2310.4871  0.045303668  0.043808954            7 
 4251000   0.58324652   -4.0297932    2306.1833  0.045208642  0.043798906            9 
 4252000   0.57770459   -4.0266768    2310.9246  0.045290934  0.043788916            9 
 4253000   0.56175657   -4.0338601    2305.5409  0.045174796  0.043778891            8 
 4254000   0.55187404   -4.0362116    2298.6357  0.045028907   0.04376885           17 
 4255000   0.57682214   -4.0301388    2309.1078   0.04522342  0.043758832           17 
 4256000   0.57647192   -4.0363817    2307.0331   0.04517217  0.043748777           11 
 4257000   0.59348562   -4.0145777    2304.1385  0.045104896  0.043738696            6 
 4258000   0.57816508   -4.0510625    2305.5796  0.045122507  0.043728661            9 
 4259000   0.55862568   -4.0207813    2306.5363  0.045130631  0.043718615            7 
 4260000   0.57161339   -4.0206205    2310.7373  0.045202217  0.043708626           10 
 4261000    0.5714123   -4.0223304     2309.168  0.045160917  0.043698641           12 
 4262000   0.57710575   -4.0151549    2308.8931  0.045144946  0.043688598           17 
 4263000   0.57682243   -4.0359591    2298.1902  0.044925135  0.043678601            8 
 4264000   0.58203501   -4.0259494     2306.855  0.045083939  0.043668566           14 
 4265000    0.5760234   -4.0280276    2303.7144  0.045012005  0.043658548            6 
 4266000   0.58000588   -4.0294203    2306.2052   0.04505011  0.043648545            8 
 4267000   0.56718306   -4.0358612    2299.3569  0.044905807  0.043638491           13 
 4268000    0.5481492   -4.0249163    2307.7091  0.045058363  0.043628439            8 
 4269000   0.56478868   -4.0196769     2303.865  0.044972768  0.043618471            6 
 4270000   0.57621546   -4.0220579    2304.7478  0.044979466  0.043608486           10 
 4271000   0.56657996   -4.0297016    2302.1279  0.044917816  0.043598454           13 
 4272000    0.5517673   -4.0404239    2303.5227  0.044934509   0.04358836           23 
 4273000   0.57111178   -4.0461491    2305.4226  0.044961047  0.043578318           24 
 4274000   0.55738363   -4.0212254     2302.971  0.044902726  0.043568274            9 
 4275000    0.5689227   -4.0107755    2306.1783  0.044954742  0.043558261           15 
 4276000   0.56301252   -4.0165633    2307.9542  0.044978839  0.043548242           11 
 4277000   0.55109947   -4.0273995    2299.6822  0.044807151  0.043538218           16 
 4278000   0.56286185   -4.0449173    2306.6792  0.044932975  0.043528181           12 
 4279000   0.58051274   -4.0170781    2313.8868  0.045062842  0.043518141            7 
 4280000   0.56795153    -4.030386    2308.8012  0.044953295  0.043508117           20 
 4281000   0.57666617   -4.0336734    2313.8163  0.045040417  0.043498092            9 
 4282000    0.5619951   -4.0023083    2312.2342  0.044999109  0.043488095           11 
 4283000   0.55626221   -4.0329987    2303.8986  0.044826417  0.043478118           17 
 4284000   0.57021519   -4.0538283      2306.25  0.044861695  0.043467993           31 
 4285000   0.56938132    -4.043556    2306.7563  0.044861071  0.043457884           19 
 4286000   0.55968307   -4.0348213    2306.9108  0.044853608  0.043447819           12 
 4287000   0.57581369   -4.0290208    2312.0152  0.044942369  0.043437784           11 
 4288000   0.56729285   -4.0316596    2300.3876  0.044705915  0.043427777           11 
 4289000   0.57802294   -4.0458928    2308.1512  0.044846335  0.043417779           10 
 4290000    0.5594183   -4.0260266    2304.0298  0.044755824  0.043407811           12 
 4291000   0.55474751   -4.0168689    2305.6652  0.044777153  0.043397867           11 
 4292000   0.55386228   -4.0201442     2309.463   0.04484046  0.043387877           10 
 4293000   0.57514273    -4.038871    2306.0811  0.044764366  0.043377897           12 
 4294000   0.55307685   -4.0284646     2305.435  0.044741402  0.043367865           14 
 4295000   0.55789354   -4.0387663    2310.5579  0.044830383  0.043357876            7 
 4296000    0.5600145   -4.0330774    2308.8312  0.044786453  0.043347859            6 
 4297000   0.56598473    -4.051656    2305.7207  0.044715707  0.043337834            7 
 4298000   0.56187852   -4.0325006    2309.1479  0.044771752  0.043327847           21 
 4299000   0.56226853   -4.0424949    2311.5718  0.044808324   0.04331786            9 
 4300000   0.57230501   -4.0330671    2309.0171  0.044748394  0.043307856            9 
 4301000   0.55161889   -4.0348415    2313.4789  0.044824438  0.043297857           11 
 4302000   0.55560399   -4.0544976    2305.5831   0.04466107  0.043287896           19 
 4303000   0.55349791   -4.0241964    2307.8649  0.044694882  0.043277933           18 
 4304000   0.55044525   -4.0293349    2314.8648  0.044820028  0.043267975           10 
 4305000   0.56880716    -4.049407    2305.7266  0.044632725  0.043258003            7 
 4306000   0.55437442   -4.0364975    2307.3996  0.044654738  0.043247955           22 
 4307000   0.56524429   -4.0472702    2308.3144  0.044662069  0.043237983           18 
 4308000   0.55622681   -4.0431124    2314.2901  0.044767295   0.04322798            8 
 4309000   0.56146932   -4.0409424    2307.7934  0.044631264  0.043217958           11 
 4310000   0.56724323   -4.0261015    2312.7913  0.044717543  0.043207967           10 
 4311000   0.54797431   -4.0276807    2311.5363   0.04468291  0.043197999            4 
 4312000   0.56659832   -4.0718623    2306.8204  0.044581408  0.043187987            8 
 4313000   0.56643182   -4.0401952     2312.155  0.044674144  0.043177929           14 
 4314000   0.56571295   -4.0447837    2311.9854  0.044660512  0.043167895            8 
 4315000   0.55288862   -4.0503708    2302.7107  0.044471044  0.043157875           10 
 4316000   0.55317232   -4.0402537    2311.7294  0.044634875  0.043147891           17 
 4317000   0.55867465   -4.0509806    2307.7966  0.044548617  0.043137904           16 
 4318000   0.54779587   -4.0466312    2307.0867  0.044524601  0.043127954            6 
 4319000   0.56202217   -4.0350151    2312.7379   0.04462333  0.043118023            6 
 4320000   0.55469323   -4.0283812    2308.9467  0.044539866  0.043108073           10 
 4321000    0.5630006    -4.054078     2312.615  0.044600305   0.04309815           10 
 4322000   0.56295836   -4.0354986    2309.6927   0.04453364  0.043088215            6 
 4323000   0.56312908   -4.0331543    2304.0226  0.044414038  0.043078248           10 
 4324000   0.56788168   -4.0559349    2306.7816  0.044456937  0.043068258           22 
 4325000   0.55786064   -4.0430926    2309.9937  0.044508548  0.043058284           23 
 4326000    0.5648729   -4.0591108    2310.6208  0.044510341  0.043048325           25 
 4327000    0.5553111   -4.0553835    2311.8091   0.04452294  0.043038381           20 
 4328000   0.55166857   -4.0568836    2308.9126  0.044456882  0.043028373           13 
 4329000   0.56751246   -4.0563914    2312.1774  0.044509459  0.043018408            7 
 4330000   0.55022607   -4.0346293    2310.3428  0.044463872  0.043008441           12 
 4331000   0.56286997   -4.0560107    2309.8226  0.044443597  0.042998444           12 
 4332000   0.57043717   -4.0805143    2309.0764  0.044418983  0.042988433           21 
 4333000    0.5616643   -4.0644678    2310.3762  0.044433729  0.042978473           23 
 4334000   0.56223145   -4.0336252    2315.5142   0.04452227  0.042968545           12 
 4335000   0.55067466   -4.0197701    2305.1892  0.044313518  0.042958662            9 
 4336000   0.55719118   -4.0531798    2309.3843  0.044383923  0.042948731           20 
 4337000   0.55352859   -4.0607942    2307.0339  0.044328528   0.04293879            9 
 4338000   0.55054705   -4.0469121    2307.8923  0.044334799  0.042928842           17 
 4339000   0.55990366   -4.0475933    2307.1972  0.044311232  0.042918865           11 
 4340000   0.56796748   -4.0501676    2301.8795  0.044198915  0.042908887            6 
 4341000   0.55553723   -4.0516502    2309.3821  0.044332759  0.042898879            8 
 4342000   0.55167771   -4.0566034    2310.7474  0.044348752  0.042888954           22 
 4343000   0.54587746    -4.055504    2305.2444  0.044232949  0.042878998            5 
 4344000   0.55828718   -4.0381015    2313.2235  0.044375834   0.04286907           13 
 4345000   0.54681509   -4.0585536    2306.2238  0.044231372   0.04285912           11 
 4346000    0.5564721   -4.0349438    2311.3018  0.044318565  0.042849161            8 
 4347000    0.5546545    -4.054687    2307.5415  0.044236283  0.042839164           17 
 4348000   0.54958303   -4.0529825    2308.2128  0.044238976  0.042829166           18 
 4349000   0.55657433   -4.0626148    2310.3758   0.04427025  0.042819127            9 
 4350000    0.5654652   -4.0504804    2308.1935  0.044218266  0.042809122           11 
 4351000   0.55244348   -4.0324174    2309.4948  0.044233027  0.042799148           24 
 4352000   0.56057225   -4.0569948    2312.0781  0.044272328  0.042789128            6 
 4353000   0.56005661   -4.0603411    2302.6172  0.044081039  0.042779139           12 
 4354000   0.54884549   -4.0284704    2313.1951   0.04427337   0.04276917           14 
 4355000   0.55460991    -4.055591    2308.7187   0.04417755   0.04275917           15 
 4356000   0.57241901   -4.0586694    2307.2257  0.044138845   0.04274924           10 
 4357000   0.55453108   -4.0424868    2307.0793  0.044125914  0.042739277            8 
 4358000   0.54946236   -4.0353112    2307.3215  0.044120421  0.042729328           11 
 4359000   0.55402412    -4.035583    2305.8385  0.044081947  0.042719381           15 
 4360000   0.55159656    -4.042015    2309.8975  0.044149417   0.04270935           14 
 4361000   0.54982645   -4.0690872    2304.4048  0.044034335  0.042699293           13 
 4362000   0.54754936   -4.0502954    2301.3814   0.04396648  0.042689223            4 
 4363000   0.56001856   -4.0529771      2299.28  0.043916265  0.042679154            6 
 4364000   0.56684428   -4.0596273    2306.2219  0.044038763  0.042669123           15 
 4365000   0.55106272    -4.071718    2303.2017  0.043971014  0.042659083            8 
 4366000   0.56465707   -4.0562896    2311.6772  0.044122713   0.04264905            7 
 4367000   0.56631505   -4.0376575    2307.0407  0.044024135  0.042639046           13 
 4368000   0.54998106   -4.0514584    2302.3588  0.043924732  0.042629046           12 
 4369000   0.54796962   -4.0466769    2309.5551  0.044051941  0.042619055           14 
 4370000   0.55116627   -4.0480693    2310.8771   0.04406707  0.042609097           10 
 4371000    0.5500223   -4.0478318    2310.3226  0.044046415  0.042599102           17 
 4372000   0.55316752   -4.0727052    2307.0145  0.043973286   0.04258909            7 
 4373000   0.55338333   -4.0616504    2309.0642   0.04400229  0.042579084            8 
 4374000   0.54332022   -4.0536004    2306.8151  0.043949381  0.042569088            8 
 4375000   0.55859298   -4.0681052     2301.413  0.043836439  0.042559081           10 
 4376000   0.55150949   -4.0457074    2306.9548  0.043931955  0.042549079           12 
 4377000   0.56151633   -4.0550469    2305.4288  0.043892865  0.042539084           12 
 4378000   0.54505758   -4.0618943     2309.976  0.043969392   0.04252907           13 
 4379000   0.55213295   -4.0675161    2299.4154   0.04375838  0.042519011           11 
 4380000   0.55006148   -4.0666069    2299.6446   0.04375275  0.042508926           19 
 4381000   0.54896547   -4.0640082    2307.6338  0.043894731  0.042498906            7 
 4382000   0.55520385   -4.0527661    2311.4486   0.04395726   0.04248898            9 
 4383000   0.53793283   -4.0615476    2300.3486  0.043736188   0.04247896            7 
 4384000   0.54120128   -4.0689627    2298.8418  0.043697571   0.04246889           17 
 4385000   0.55732627   -4.0682017    2302.3986  0.043755199  0.042458828           14 
 4386000   0.54959292   -4.0865209    2306.9948  0.043832551  0.042448728           19 
 4387000   0.54731005   -4.0579194    2307.1154  0.043824851  0.042438699           22 
 4388000   0.54951582   -4.0696976    2307.4068  0.043820396  0.042428705           15 
 4389000   0.55143704   -4.0745905    2309.0631  0.043841861  0.042418651           18 
 4390000   0.55432303   -4.0720197    2303.7293  0.043730624  0.042408634           19 
 4391000   0.55452099   -4.0894442    2301.0597  0.043670002  0.042398588           20 
 4392000   0.55728828   -4.0830088    2307.8088  0.043788115  0.042388521            8 
 4393000   0.53985995   -4.0720589    2304.0403   0.04370666  0.042378485            8 
 4394000   0.55658657   -4.0780761    2297.2823  0.043568547  0.042368449            7 
 4395000    0.5537438   -4.0675561    2305.6639  0.043717556  0.042358408            4 
 4396000   0.55265609   -4.0682078    2305.8229  0.043710625  0.042348386           34 
 4397000   0.56089026   -4.0627804    2306.0136  0.043704299  0.042338363            8 
 4398000   0.55848441   -4.0773258    2305.9634   0.04369341  0.042328352           16 
 4399000   0.54669087   -4.0903002    2300.5335  0.043580614  0.042318276           39 
 4400000   0.54596805   -4.0896696    2301.8599  0.043595831  0.042308144           15 
 4401000   0.54833939   -4.0556737    2301.6834  0.043582584  0.042298066           26 
 4402000   0.55139032   -4.0901442    2304.0212  0.043616939  0.042287999           29 
 4403000   0.54813659   -4.0857675    2303.1387   0.04359033  0.042277883           11 
 4404000   0.55421914   -4.0827786    2304.9141  0.043614028  0.042267876           15 
 4405000   0.54383288   -4.0727585    2302.7658  0.043563485  0.042257862           19 
 4406000   0.54884704   -4.0773972    2309.2351  0.043675955  0.042247847            8 
 4407000   0.56022415   -4.0899075    2307.6073  0.043635264  0.042237798            9 
 4408000   0.55275052   -4.0836342    2306.2124  0.043598994  0.042227743           13 
 4409000   0.55792597   -4.0755848     2309.889  0.043658597  0.042217723           17 
 4410000   0.53837559   -4.0596703      2302.55  0.043510015  0.042207699           13 
 4411000   0.54009008   -4.0854749     2306.135   0.04356788  0.042197639           16 
 4412000   0.54380749   -4.0701884     2313.507  0.043697246  0.042187643           11 
 4413000   0.54332364   -4.0746486    2309.1296  0.043604682  0.042177613           14 
 4414000   0.55479483   -4.0609642    2308.3498  0.043580082  0.042167615           12 
 4415000   0.54943001   -4.0608542    2306.8675  0.043542233  0.042157662            8 
 4416000     0.542015   -4.0601986    2307.6449  0.043547043  0.042147726           10 
 4417000   0.54730034   -4.0713207    2305.4786  0.043496314  0.042137802           10 
 4418000   0.53681043    -4.073604    2305.0958  0.043479248  0.042127842            7 
 4419000   0.54081532    -4.070394    2312.9427  0.043617385  0.042117904            9 
 4420000   0.54468673   -4.0859124    2309.5808  0.043544134  0.042107999            7 
 4421000   0.53955714   -4.0750542    2300.1458  0.043356439  0.042098017           19 
 4422000   0.54989949   -4.0693527    2304.1998  0.043423033  0.042088044           11 
 4423000   0.55130731   -4.0764215    2302.8266  0.043387343  0.042078033           12 
 4424000   0.53917505   -4.0746543     2308.479  0.043484008  0.042068056            9 
 4425000   0.53353627   -4.0751738    2308.9543  0.043483132  0.042058142           21 
 4426000   0.54497841   -4.0785814    2300.2754  0.043309901  0.042048195            9 
 4427000   0.53824388   -4.0597574    2306.1695  0.043411067  0.042038231           10 
 4428000   0.53531564   -4.0959178    2303.5789  0.043352509  0.042028289            7 
 4429000   0.54363248   -4.0735271    2303.2528  0.043336584  0.042018316           12 
 4430000   0.54404956   -4.0833855    2305.4732  0.043368571  0.042008357           12 
 4431000   0.53257906   -4.0758817    2304.9033  0.043348064  0.041998441           11 
 4432000   0.52959831   -4.0610333     2306.282  0.043364208   0.04198849           14 
 4433000   0.54354799   -4.0859048    2302.0329  0.043274549  0.041978477           11 
 4434000   0.54801833    -4.087127    2305.3028  0.043326245  0.041968474           16 
 4435000   0.54157993   -4.1037229    2304.9979  0.043310746  0.041958486            9 
 4436000   0.54867612   -4.0790244    2308.0279  0.043357903  0.041948489           14 
 4437000    0.5412225   -4.0608619    2309.9814   0.04338482  0.041938562           11 
 4438000   0.53511783   -4.0892429    2303.7955   0.04325889  0.041928626            6 
 4439000   0.55047161   -4.0683603    2310.6808  0.043378404  0.041918677           20 
 4440000   0.54397954   -4.0823047    2305.2455  0.043266619  0.041908736           13 
 4441000   0.55140292   -4.0799935    2306.8814  0.043287574  0.041898752            6 
 4442000   0.53836866   -4.0875329    2304.2087  0.043227688  0.041888802            8 
 4443000   0.53396843   -4.0830352    2306.2792  0.043256793  0.041878838           17 
 4444000   0.54123718   -4.0941523    2309.5009  0.043307472  0.041868863            6 
 4445000   0.52749856   -4.0835723    2307.5498  0.043261151  0.041858891           11 
 4446000   0.53393855   -4.0916532    2304.0048  0.043184975   0.04184894           15 
 4447000    0.5410626   -4.0900531    2307.5705  0.043242082  0.041838999           10 
 4448000   0.54299926   -4.0962642    2306.6034  0.043214242  0.041829074            9 
 4449000   0.53619788   -4.0787246    2307.8467  0.043227818  0.041819152           24 
 4450000   0.54299523   -4.0863282    2307.3509  0.043208819  0.041809199           10 
 4451000   0.53778442    -4.080803    2303.7354  0.043131421  0.041799269           12 
 4452000   0.52966697   -4.0901178    2305.9745  0.043163644  0.041789324            7 
 4453000   0.54328272   -4.0956041    2314.2723  0.043309236   0.04177941            7 
 4454000   0.54379427   -4.1001946    2302.0028  0.043069951   0.04176945            8 
 4455000   0.54192245   -4.0885893    2306.0803  0.043136557  0.041759483            8 
 4456000     0.533935   -4.0893788    2304.1034  0.043089904   0.04174956           12 
 4457000    0.5429641   -4.0974558    2307.4781  0.043143335  0.041739613            6 
 4458000   0.54010293   -4.0950673    2302.4018  0.043038766  0.041729666           25 
 4459000   0.54428248   -4.0646182    2307.4398  0.043123267  0.041719779            9 
 4460000   0.53189862   -4.0845164     2308.524  0.043133857  0.041709865           14 
 4461000   0.52306213   -4.0977101    2305.8609  0.043074439  0.041699948            6 
 4462000    0.5420981   -4.0858092    2311.2604  0.043165628  0.041689989            6 
 4463000   0.53938597   -4.1047821    2309.2504  0.043118425  0.041680056            8 
 4464000   0.52927926   -4.0764513    2307.7004  0.043079831  0.041670143           10 
 4465000     0.542246   -4.1089554    2304.7422  0.043014973  0.041660195           10 
 4466000   0.54144484   -4.0982883    2305.4963  0.043019412  0.041650211           13 
 4467000    0.5462155   -4.0934496    2308.5441  0.043066639  0.041640262           19 
 4468000   0.54891866   -4.0759126    2306.9836  0.043027895  0.041630352            8 
 4469000   0.53235236   -4.0895952    2307.1895  0.043022106  0.041620442           12 
 4470000   0.52185616   -4.0864905    2302.1438  0.042918415  0.041610504           14 
 4471000   0.54298266   -4.0671607    2311.3155  0.043079764  0.041600608           11 
 4472000   0.53888637   -4.0975362    2305.2056  0.042956276  0.041590671           21 
 4473000   0.53868066   -4.0898768    2311.7922  0.043069382  0.041580738           17 
 4474000   0.52465831   -4.0956228     2306.017  0.042952187  0.041570776           34 
 4475000   0.52858497   -4.1060057    2305.0183   0.04292399  0.041560837           11 
 4476000   0.53011399   -4.0924833    2306.2947  0.042938165  0.041550891           21 
 4477000   0.53469582   -4.0900562    2304.9303  0.042903177   0.04154093           28 
 4478000   0.53342868   -4.0925955    2303.7242  0.042871151  0.041530956           11 
 4479000   0.53295058   -4.0867186    2310.0699  0.042979644  0.041521009           19 
 4480000   0.54381398   -4.0766303    2307.8191  0.042928182  0.041511082           25 
 4481000   0.53440695    -4.091725    2304.7154  0.042860884    0.0415012           13 
 4482000   0.54429066   -4.0921662    2308.2304  0.042916674  0.041491292           18 
 4483000   0.53270369   -4.0966546    2309.0625  0.042922569  0.041481384           29 
 4484000   0.53169869   -4.0879233    2307.0903  0.042876343  0.041471474           22 
 4485000   0.53316166   -4.0799388    2305.6602  0.042840212  0.041461564            7 
 4486000   0.53427593   -4.0936535    2308.0175  0.042874453  0.041451597           13 
 4487000   0.53708853    -4.090364    2302.6795  0.042765759  0.041441661            8 
 4488000   0.53273636   -4.1010007    2307.6311   0.04284817  0.041431774           12 
 4489000   0.53423069   -4.0960517    2305.0904  0.042791461  0.041421871           22 
 4490000   0.54290011   -4.0853921    2307.9476   0.04283496  0.041411936           13 
 4491000   0.53502969   -4.0886821    2311.5469  0.042892208  0.041402033            6 
 4492000   0.52888624   -4.1019968    2307.8073  0.042813285  0.041392132           21 
 4493000   0.53961487   -4.0974597     2303.446  0.042722865  0.041382229           15 
 4494000   0.52603954   -4.1092042    2306.5394  0.042770719  0.041372298           23 
 4495000    0.5184709   -4.1083676     2315.584  0.042928884  0.041362379           20 
 4496000   0.53037606   -4.1097585    2303.0969  0.042687887  0.041352455           47 
 4497000   0.53617816   -4.1017552    2303.0609  0.042677728  0.041342456           15 
 4498000   0.53503147   -4.1260456    2302.1221  0.042650847  0.041332491           21 
 4499000   0.54294498   -4.1024363    2303.2905  0.042663009  0.041322542            9 
 4500000   0.54091673   -4.0789463    2306.4209  0.042711499  0.041312624           21 
 4501000   0.54149618   -4.1019833    2312.0062  0.042805417  0.041302733            9 
 4502000   0.52458781   -4.1041243    2305.0841  0.042667779  0.041292811           11 
 4503000    0.5333309    -4.083711    2306.1496  0.042678022  0.041282896           10 
 4504000   0.52691228   -4.0962605    2305.3707  0.042654135  0.041272984            5 
 4505000   0.53508035   -4.0944327    2310.9099  0.042747131  0.041263084            8 
 4506000   0.53893001   -4.1082957    2311.5874  0.042750173  0.041253179           22 
 4507000     0.544729   -4.0705683    2308.2755  0.042679452   0.04124331           19 
 4508000   0.53518103   -4.0835929    2307.8451  0.042662029  0.041233385            6 
 4509000   0.53176824   -4.0839115     2304.382  0.042588563  0.041223439           11 
 4510000   0.54438589   -4.1007337    2308.9226   0.04266302  0.041213484            9 
 4511000   0.52416809   -4.1154075    2304.2132  0.042566563  0.041203575           12 
 4512000   0.52769323   -4.1030115    2303.6271  0.042546305  0.041193613           10 
 4513000   0.52872831   -4.1113623    2301.1585  0.042491294   0.04118367           13 
 4514000   0.52324554   -4.0920182    2310.3726  0.042651982  0.041173768           21 
 4515000   0.50949458   -4.1061014    2308.1921   0.04260229  0.041163851           10 
 4516000   0.53457764   -4.1006954    2310.4702  0.042634895  0.041153968           26 
 4517000   0.53563593   -4.1053429    2310.5333  0.042626621  0.041144071           15 
 4518000   0.53213734   -4.1073768    2307.4254  0.042559861  0.041134138            9 
 4519000    0.5349738   -4.1054415    2311.5986    0.0426274  0.041124239           19 
 4520000   0.53233046   -4.0862319    2307.6337   0.04254487  0.041114351           17 
 4521000   0.54390831   -4.1202318    2304.7675  0.042482628  0.041104436           12 
 4522000   0.52991904   -4.1221003    2301.1662  0.042406866  0.041094506           10 
 4523000   0.52840212   -4.0859872    2304.3764  0.042456637  0.041084585           13 
 4524000   0.51606473   -4.1101797    2304.8444  0.042455873   0.04107468            9 
 4525000   0.52358942   -4.1054804    2307.5542  0.042496394  0.041064749           16 
 4526000   0.52547478   -4.1152077    2304.4242  0.042429375    0.0410548           13 
 4527000   0.53248637   -4.1187693    2307.6002  0.042478466  0.041044847           14 
 4528000   0.53433841   -4.1067575    2305.7775  0.042435541  0.041034911           12 
 4529000    0.5158151   -4.0893156    2305.3184  0.042417723  0.041025012           13 
 4530000   0.53087852   -4.0968445    2308.6644  0.042469912  0.041015134            7 
 4531000   0.51874909    -4.104634    2307.5804  0.042440602  0.041005213           15 
 4532000   0.52423534   -4.1027388    2307.1447  0.042423226  0.040995318           19 
 4533000   0.51921256   -4.1070267    2307.9011  0.042427772  0.040985419            8 
 4534000   0.51398583   -4.0854583    2311.1047  0.042477295   0.04097554           27 
 4535000   0.52754823   -4.1066307    2303.8836  0.042335237  0.040965661           15 
 4536000   0.53135523   -4.1179474     2308.256  0.042406231  0.040955768            7 
 4537000   0.52886622   -4.1072797    2304.0713  0.042320022  0.040945816           20 
 4538000   0.52685091   -4.1155657    2307.6019  0.042375531  0.040935893            7 
 4539000   0.54179307   -4.1109535     2307.749  0.042368895  0.040925949            7 
 4540000   0.52521025   -4.1082643    2305.5577  0.042319341  0.040916042           10 
 4541000    0.5265154   -4.1083797    2304.7881  0.042295899  0.040906095           21 
 4542000   0.53870841   -4.1149253    2305.3699  0.042297261   0.04089623           23 
 4543000   0.52582215   -4.1218726    2303.5756  0.042255037  0.040886338           10 
 4544000   0.52498691   -4.1168757    2308.6505  0.042338808   0.04087641           17 
 4545000   0.52502822   -4.1305794    2307.7459  0.042312906  0.040866478           10 
 4546000   0.52527149   -4.1443689    2299.6504  0.042155198  0.040856523            8 
 4547000   0.52215292   -4.1342315    2301.1229  0.042172914  0.040846539           15 
 4548000   0.52324033   -4.1249837    2307.2144  0.042275257  0.040836591           21 
 4549000   0.52807873   -4.1151742    2303.3241  0.042194697  0.040826669           36 
 4550000   0.52765918   -4.1330614    2301.6182   0.04215418  0.040816764           24 
 4551000   0.52126352   -4.1078722    2305.2978  0.042212294  0.040806815            6 
 4552000   0.51498428   -4.1197987    2304.0106  0.042179455  0.040796868           22 
 4553000   0.52096557   -4.1173924    2306.5528  0.042216721  0.040786979            7 
 4554000   0.51582683   -4.1150138    2303.0913  0.042144109  0.040777099           13 
 4555000    0.5308346   -4.1427186    2302.7525  0.042128659  0.040767209           13 
 4556000   0.53095588   -4.1205741    2308.1843  0.042218765  0.040757296            7 
 4557000   0.51462335   -4.1245815    2307.9468  0.042205156  0.040747426           10 
 4558000   0.52098195   -4.1303557    2310.0943  0.042235159  0.040737563           17 
 4559000   0.52458207   -4.1149823    2305.0419  0.042133543  0.040727748            9 
 4560000    0.5152965   -4.1438333    2308.0685  0.042179615  0.040717886           14 
 4561000   0.52242894   -4.1324074    2306.7596  0.042146452   0.04070802           12 
 4562000   0.52420219    -4.124395    2307.5488  0.042151629  0.040698168           12 
 4563000   0.51711404   -4.1164679    2309.5483  0.042178909  0.040688354           13 
 4564000   0.52382364    -4.120391    2307.8146   0.04213801  0.040678547           11 
 4565000   0.52730689   -4.0932744    2310.3299  0.042174696  0.040668736           24 
 4566000   0.51567985    -4.130885    2305.5086  0.042077468  0.040658897           12 
 4567000   0.52166477   -4.1159076    2307.6534  0.042107389  0.040649025           11 
 4568000   0.51927878   -4.1232719     2306.488  0.042076912  0.040639199           39 
 4569000   0.51869934   -4.1153586     2311.037  0.042150672    0.0406293           25 
 4570000   0.51336905   -4.1171519    2305.5029  0.042040535  0.040619462            8 
 4571000   0.52174247   -4.1307778    2309.5435  0.042105001  0.040609586           11 
 4572000   0.50335585   -4.1207078    2309.0204  0.042086257  0.040599706           20 
 4573000    0.5262941    -4.130645    2307.6953  0.042052907  0.040589832           15 
 4574000   0.52197535   -4.1373983    2302.5831  0.041950574  0.040579942           12 
 4575000   0.51837062   -4.1350685    2301.5242  0.041922117  0.040570076           16 
 4576000   0.51063016   -4.1352125    2313.9891  0.042139954  0.040560186            8 
 4577000    0.5216448   -4.1314414    2306.5197   0.04199475  0.040550302            8 
 4578000    0.5073054   -4.1276465    2306.9157  0.041992785  0.040540463           17 
 4579000   0.51028171   -4.1162237    2308.8492  0.042018804  0.040530634           17 
 4580000   0.52456644   -4.1267506    2311.5517  0.042058801   0.04052081           13 
 4581000   0.51162664    -4.141614     2306.625  0.041959998   0.04051096           19 
 4582000   0.51639397   -4.1335255    2301.4448  0.041856627  0.040501123           26 
 4583000   0.51321865   -4.1290226    2300.7038   0.04183402  0.040491284           21 
 4584000   0.51375152   -4.1380031    2307.3465  0.041945654  0.040481429           14 
 4585000    0.5215422   -4.1251376    2304.5421  0.041885534  0.040471555           12 
 4586000   0.52284183   -4.1146304    2308.2991  0.041944671  0.040461757           27 
 4587000   0.52489682   -4.1295364    2307.9557  0.041929287  0.040451928           11 
 4588000   0.52164969   -4.1159392    2314.7873  0.042044233  0.040442113           29 
 4589000   0.51797442    -4.140482    2306.4856  0.041884318  0.040432299           26 
 4590000   0.50975137    -4.120077    2311.7627     0.041971  0.040422456            9 
 4591000   0.51381505    -4.120256    2303.2021  0.041806471  0.040412625           21 
 4592000   0.51804702   -4.1292528     2311.868   0.04195463  0.040402772           14 
 4593000   0.51608981   -4.1326773    2303.4841  0.041793384  0.040392921           16 
 4594000   0.50428107   -4.1314778    2307.1878  0.041851468  0.040383091           44 
 4595000   0.51284713   -4.1366806    2307.3328  0.041844991  0.040373292            9 
 4596000   0.51809527   -4.1121681    2310.5191  0.041893659  0.040363503            9 
 4597000   0.51628049    -4.128845    2304.6077  0.041777385  0.040353724           12 
 4598000   0.51420007   -4.1204646    2306.0529  0.041794493  0.040343925           14 
 4599000   0.52318086   -4.1338149    2306.5823  0.041794996  0.040334125           23 
 4600000   0.50756747   -4.1515211    2306.5982    0.0417862  0.040324307           17 
 4601000    0.5132308   -4.1298211    2307.9544   0.04180168  0.040314524           27 
 4602000   0.51120509   -4.1192769    2312.0169  0.041866162  0.040304761           14 
 4603000   0.51416459   -4.1525953    2303.1798  0.041697077  0.040294955           24 
 4604000   0.51585764   -4.1215019    2304.8829  0.041718848  0.040285108           11 
 4605000   0.52169687   -4.1406811    2302.9041  0.041673979  0.040275301           16 
 4606000   0.50891065   -4.1339201    2302.5229  0.041658034   0.04026547           24 
 4607000   0.51460643    -4.129209    2302.7164  0.041652493  0.040255622           22 
 4608000   0.52235299   -4.1477247    2304.8109  0.041681332  0.040245755           24 
 4609000   0.51824937   -4.1502155    2308.1048  0.041731844  0.040235874           47 
 4610000   0.52530779   -4.1411661    2304.9832  0.041666363  0.040226012           62 
 4611000   0.51619032   -4.1492462    2309.7272  0.041743064  0.040216161           64 
 4612000   0.51975832   -4.1415799    2304.1605   0.04163343  0.040206335           39 
 4613000    0.5064539   -4.1385125    2304.5711  0.041631821  0.040196553           26 
 4614000     0.511223    -4.132207    2310.1224  0.041723061  0.040186742           19 
 4615000    0.5128634   -4.1364637    2302.6694  0.041579441  0.040176915           16 
 4616000   0.51123675   -4.1376653    2299.6813  0.041516487  0.040167081           10 
 4617000   0.51207687   -4.1160405    2312.4597  0.041738135  0.040157292           11 
 4618000    0.5202892   -4.1334707    2305.2454  0.041598914  0.040147479           11 
 4619000   0.49896637   -4.1366727    2308.3107   0.04164521  0.040137666           13 
 4620000   0.51964458   -4.1335558    2309.3284  0.041654553  0.040127892           16 
 4621000   0.51066215   -4.1319147    2312.0292  0.041694244  0.040118113           18 
 4622000   0.51457516   -4.1280861    2307.3675  0.041601174  0.040108318           11 
 4623000   0.51049215   -4.1306964    2300.5642  0.041469541  0.040098488           14 
 4624000   0.51673807   -4.1188501      2310.29  0.041635849  0.040088689           24 
 4625000   0.51233708   -4.1260925    2310.7797  0.041635671  0.040078917           13 
 4626000    0.5150821   -4.1362071     2304.774  0.041518482  0.040069145            9 
 4627000   0.50927614   -4.1614004    2303.8493  0.041492856  0.040059346           26 
 4628000   0.50354716   -4.1528944    2304.3741   0.04149334  0.040049534           19 
 4629000   0.51008731   -4.1410973    2308.3233  0.041555472  0.040039782           18 
 4630000   0.50162592   -4.1527249    2308.4353  0.041548511  0.040029976           14 
 4631000   0.51918575    -4.137932    2305.4002  0.041484924  0.040020175           49 
 4632000   0.53117979   -4.1244425    2306.0488  0.041487636  0.040010421           28 
 4633000   0.50644342    -4.122476    2303.2855  0.041428979  0.040000664           22 
 4634000   0.51278251   -4.1279603    2303.3298  0.041420835  0.039990899           19 
 4635000   0.51658419   -4.1315654    2308.8451  0.041511058  0.039981161           14 
 4636000   0.50907425   -4.1352417    2307.2126  0.041472761   0.03997139            8 
 4637000   0.50678856    -4.144617    2305.4655  0.041432419  0.039961596           16 
 4638000   0.51556365   -4.1377346    2308.9424  0.041485956  0.039951808           10 
 4639000   0.51116453   -4.1480199    2300.7864  0.041330502  0.039942039           29 
 4640000   0.51981617   -4.1491068    2304.3008  0.041384712  0.039932248           13 
 4641000   0.50234299   -4.1618889     2302.455  0.041342652  0.039922447           26 
 4642000   0.51497713   -4.1542616    2309.9533  0.041468355  0.039912632           16 
 4643000   0.51165023   -4.1599406    2307.5208  0.041415766  0.039902838           27 
 4644000   0.51416506   -4.1504975    2304.3222  0.041349451   0.03989301           24 
 4645000   0.50478208   -4.1571214    2305.3845  0.041359606  0.039883201           15 
 4646000   0.50929866   -4.1473265    2307.4648  0.041388019  0.039873418           13 
 4647000   0.50661941   -4.1653468    2302.9165  0.041297549  0.039863599           13 
 4648000   0.50334404   -4.1529354    2301.4862  0.041263021  0.039853773           13 
 4649000   0.50995114   -4.1556584    2301.7449  0.041258782  0.039843959           19 
 4650000   0.50905739   -4.1356893    2303.4193  0.041279915   0.03983419           35 
 4651000   0.50447095   -4.1441148    2302.9261  0.041262203  0.039824386           25 
 4652000    0.5105087   -4.1560443     2303.423  0.041262236   0.03981452           16 
 4653000   0.50335574   -4.1570686    2301.1849  0.041213283  0.039804672           17 
 4654000   0.50230231   -4.1270089    2305.5227    0.0412821  0.039794879           10 
 4655000   0.52540842   -4.1631565    2308.0144  0.041317838  0.039785108           13 
 4656000   0.49991616   -4.1352992    2304.1168  0.041239203  0.039775346           10 
 4657000   0.50669354   -4.1416405    2302.7305  0.041205543  0.039765579           11 
 4658000   0.50597951   -4.1513001    2304.2637  0.041224125  0.039755775           18 
 4659000   0.50607734   -4.1525332    2306.3948  0.041253394   0.03974597           16 
 4660000    0.5016551   -4.1530641    2306.1074  0.041239402  0.039736187            8 
 4661000   0.49261885   -4.1382012    2302.7727  0.041170935  0.039726391            8 
 4662000   0.50304145   -4.1554658    2302.3362    0.0411543  0.039716631           13 
 4663000   0.50664602   -4.1564748    2303.9347  0.041174041  0.039706866           19 
 4664000   0.50447492   -4.1468289    2304.7102  0.041179071  0.039697099           30 
 4665000   0.51660721   -4.1542652    2305.8518  0.041190636  0.039687312           16 
 4666000   0.50466062   -4.1402064    2305.2756  0.041171518  0.039677568            9 
 4667000    0.5086444   -4.1687894    2301.2177  0.041090239  0.039667818           27 
 4668000   0.50904019   -4.1606118    2308.9871  0.041220134  0.039658033           23 
 4669000    0.5107856   -4.1495369    2303.3744   0.04111113  0.039648264           27 
 4670000   0.50747208   -4.1514772    2305.6684  0.041143262  0.039638471           64 
 4671000   0.50185505   -4.1487821    2303.7766  0.041100703  0.039628714           13 
 4672000   0.51260788   -4.1385388    2304.2177  0.041099774  0.039618938           15 
 4673000   0.50643653    -4.146592    2305.6134  0.041115868   0.03960917           19 
 4674000    0.4976143   -4.1665817    2307.0369   0.04113245  0.039599427           23 
 4675000   0.49911426   -4.1687671    2303.7079  0.041064312   0.03958969           38 
 4676000   0.51325388   -4.1462039    2299.8252  0.040986335  0.039579914           14 
 4677000   0.49994691   -4.1683024    2300.7686   0.04099438   0.03957016           15 
 4678000   0.51026012   -4.1638089    2305.8736  0.041076556  0.039560355           26 
 4679000   0.49604334   -4.1749023    2300.4913  0.040971919  0.039550574           18 
 4680000   0.51421249   -4.1579908    2299.9942  0.040954313  0.039540803           15 
 4681000   0.50479432   -4.1574505    2304.2452  0.041021243  0.039531032           39 
 4682000   0.50425477   -4.1640473    2309.7479  0.041110422  0.039521296           19 
 4683000   0.51146008   -4.1579105    2312.6626  0.041153509   0.03951157           20 
 4684000   0.49166048   -4.1349035    2308.2217  0.041065714  0.039501872           32 
 4685000   0.49557362   -4.1747101     2304.519  0.040991089  0.039492169           12 
 4686000   0.49726309   -4.1609838     2306.238  0.041012911  0.039482454           15 
 4687000   0.50021767   -4.1611556    2304.8254  0.040979046   0.03947277           27 
 4688000   0.50321449   -4.1492513    2309.3759  0.041051193  0.039463054           22 
 4689000   0.52028238   -4.1492308    2309.1758  0.041038882  0.039453359           20 
 4690000   0.49316736   -4.1676364    2307.2586  0.040996066  0.039443687            6 
 4691000   0.50300818   -4.1689725    2301.8589  0.040891405  0.039433966            8 
 4692000   0.50168294   -4.1749748    2306.0907  0.040957849   0.03942421            7 
 4693000   0.51632041   -4.1677122    2307.8056  0.040979572   0.03941452           14 
 4694000   0.49522977   -4.1693923    2303.8859  0.040901255  0.039404814           19 
 4695000   0.50680206   -4.1540304    2309.0654  0.040984477  0.039395095           27 
 4696000    0.5106764   -4.1513855    2305.0979  0.040905343  0.039385429           21 
 4697000   0.50400787   -4.1687203    2307.2522  0.040934855   0.03937576           16 
 4698000   0.51145238   -4.1556232    2305.9738  0.040903465  0.039366046           14 
 4699000   0.49166184   -4.1504286    2307.7466    0.0409262  0.039356361            7 
 4700000   0.49635795   -4.1703928    2308.1799  0.040925176  0.039346675            9 
 4701000   0.49758801   -4.1708351    2302.4966  0.040815723  0.039336977           10 
 4702000   0.50979089   -4.1711048    2302.7119  0.040810859   0.03932728           11 
 4703000   0.50393741   -4.1585141    2301.9476  0.040788638  0.039317575            9 
 4704000   0.49619596   -4.1617015    2305.9709  0.040851242  0.039307898           20 
 4705000    0.5044837   -4.1692916    2308.8249  0.040893108  0.039298226           13 
 4706000   0.49281777   -4.1684456     2305.763    0.0408302   0.03928854           12 
 4707000   0.50620223   -4.1674048    2304.2267  0.040794325  0.039278829           13 
 4708000   0.49687791    -4.173103    2302.8752  0.040761739  0.039269114            8 
 4709000   0.49621493   -4.1740794     2301.483  0.040728445  0.039259373           17 
 4710000   0.50462423   -4.1686632     2302.767  0.040742516  0.039249673           23 
 4711000   0.49398077   -4.1769954    2309.6234  0.040855152  0.039239993           20 
 4712000   0.49628909   -4.1799465    2307.5053  0.040809021  0.039230336           15 
 4713000   0.50645787   -4.1510894    2307.3716  0.040797999  0.039220738           31 
 4714000    0.4907022   -4.1759892    2306.3471  0.040771232  0.039211087            7 
 4715000   0.49027704   -4.1696948    2309.2283  0.040813509  0.039201407            9 
 4716000    0.4838433   -4.1750516    2306.2547   0.04075231  0.039191751            6 
 4717000   0.49070634   -4.1659105    2306.6443  0.040750553  0.039182097           11 
 4718000   0.49584983   -4.1727766    2309.1166  0.040785584  0.039172422            8 
 4719000   0.51006077   -4.1695873    2302.8315  0.040665952  0.039162766           11 
 4720000   0.50145984   -4.1631106    2299.2326  0.040593796   0.03915309           41 
 4721000   0.49009987   -4.1830858    2304.1354   0.04067174   0.03914341           10 
 4722000   0.49693658   -4.1755041    2301.7511  0.040621049  0.039133709           11 
 4723000   0.49284293   -4.1890001    2308.9893   0.04074016  0.039124062           17 
 4724000   0.49712572   -4.1839101    2301.6038  0.040601252  0.039114345           41 
 4725000   0.49847955    -4.177572    2303.9432  0.040633919  0.039104648           20 
 4726000   0.50106579   -4.1863469    2308.0631  0.040697967  0.039094927           21 
 4727000   0.48742958    -4.178316      2301.13  0.040567132  0.039085226           21 
 4728000   0.49777497   -4.1773297    2298.9971  0.040520959  0.039075493           52 
 4729000   0.49688805   -4.1613506    2302.2213  0.040569205  0.039065773           24 
 4730000    0.5022025   -4.1837285    2306.0834  0.040628671  0.039056078           30 
 4731000   0.49881117   -4.1667709    2304.8299  0.040598005  0.039046407           27 
 4732000    0.4855545   -4.1666356     2306.613  0.040620827  0.039036747           23 
 4733000   0.49842767   -4.1819069    2307.8479  0.040633986  0.039027102            9 
 4734000   0.49869687    -4.177876    2305.1777  0.040578399  0.039017424            7 
 4735000   0.49758942   -4.1629033    2305.3515  0.040572888  0.039007782           10 
 4736000   0.48324245   -4.1854452     2304.179   0.04054369  0.038998114           13 
 4737000    0.4992274   -4.1817972       2299.8  0.040458096  0.038988433           31 
 4738000   0.48843969   -4.1826408    2299.3945  0.040442424  0.038978713           43 
 4739000   0.49310344   -4.2016773    2301.0114  0.040462323  0.038968997           30 
 4740000   0.49614941   -4.1699085    2300.1559  0.040438746  0.038959301           29 
 4741000   0.50461104   -4.1917937    2297.7311  0.040387596   0.03894961           10 
 4742000   0.48150205   -4.1926365    2301.3963  0.040443489  0.038939914           61 
 4743000   0.48661232   -4.1838151    2302.0635  0.040446685  0.038930206           40 
 4744000   0.49312278   -4.1736635    2301.4204  0.040426862  0.038920501           29 
 4745000   0.48169821    -4.185031    2306.1092  0.040500688  0.038910827           26 
 4746000    0.4871137   -4.1870806    2306.5153  0.040499286   0.03890119           27 
 4747000   0.49801411   -4.2008455     2302.836  0.040426163  0.038891542           58 
 4748000   0.48929112   -4.1830545    2299.1627  0.040353179   0.03888189           39 
 4749000   0.49549945   -4.1980927    2297.3915  0.040313602  0.038872203           17 
 4750000   0.48443229   -4.1830225     2301.879  0.040383842  0.038862547           11 
 4751000   0.49432162   -4.1716211    2303.4987  0.040403753  0.038852962           12 
 4752000   0.48529368    -4.159833    2309.5482  0.040501336  0.038843379           17 
 4753000   0.49194088   -4.1639735    2306.9042  0.040446458  0.038833776            7 
 4754000   0.47856433    -4.183237    2299.6402   0.04031062  0.038824159            8 
 4755000   0.48982915   -4.1794717    2301.1924  0.040329345  0.038814486           16 
 4756000   0.48878108   -4.1853296    2307.1006  0.040424386  0.038804838           19 
 4757000   0.48996089   -4.1910752    2308.3143   0.04043715  0.038795225           28 
 4758000   0.48153157   -4.1798581    2301.4608  0.040308616  0.038785616           14 
 4759000   0.48477498   -4.1818742    2309.0587  0.040433192  0.038776034            6 
 4760000   0.47113579   -4.1691381    2303.9615   0.04033546  0.038766425           20 
 4761000   0.50824983   -4.1803885    2302.8929  0.040308283  0.038756842           10 
 4762000   0.48910339   -4.1775986    2305.2649  0.040341329  0.038747259           14 
 4763000   0.49986462   -4.1939252    2308.2699  0.040385435  0.038737689           17 
 4764000   0.48044491   -4.1637061    2300.2952  0.040237462   0.03872809           26 
 4765000   0.49319452   -4.1708043    2305.5004  0.040320049  0.038718486           26 
 4766000    0.4819249   -4.1845204    2304.3285  0.040291099  0.038708901           28 
 4767000   0.50157657   -4.1735029    2306.5161  0.040320888  0.038699321           11 
 4768000    0.4829638   -4.2013366    2302.1571  0.040236247  0.038689716           20 
 4769000   0.49977273   -4.1865407    2309.2001  0.040350879  0.038680141           21 
 4770000   0.48277714   -4.1845248    2304.6256  0.040262502  0.038670557           19 
 4771000     0.480146   -4.1854789    2304.7741  0.040256656   0.03866097           24 
 4772000   0.48501113   -4.1819505    2303.7652  0.040230602  0.038651408           12 
 4773000   0.49363688   -4.1780586    2305.1535  0.040246413  0.038641856           25 
 4774000   0.49300716   -4.1961945    2305.6666  0.040246938  0.038632295           30 
 4775000   0.49530329   -4.1845572    2303.7277  0.040204672  0.038622707           27 
 4776000    0.4811477   -4.1929397    2304.2502  0.040205371  0.038613127           47 
 4777000   0.48633129   -4.1809383    2309.2778  0.040284659  0.038603537           43 
 4778000   0.48853529   -4.1817618    2302.4754  0.040157587  0.038593951           74 
 4779000   0.48401092   -4.1898439    2309.3388  0.040268863  0.038584328           47 
 4780000   0.48989169   -4.1973905    2301.1256  0.040117253  0.038574744           74 
 4781000   0.48105029   -4.2028216    2302.9659  0.040140938  0.038565118           25 
 4782000   0.48849147    -4.194864     2302.692  0.040127771  0.038555516           49 
 4783000    0.4946908    -4.201749    2297.7141  0.040032652  0.038545902           78 
 4784000   0.46606814   -4.1710013    2307.3939  0.040192899  0.038536268           38 
 4785000   0.49571894   -4.1883849    2309.3702  0.040218916  0.038526678           42 
 4786000   0.48020553   -4.1862443    2303.1005  0.040101347  0.038517079           40 
 4787000   0.49473907   -4.1716544    2298.4814  0.040012557  0.038507464           31 
 4788000   0.49366561    -4.171575    2306.6651  0.040146637  0.038497905           25 
 4789000   0.49212676   -4.2079474    2301.2333  0.040043733  0.038488329           28 
 4790000   0.48633001     -4.19832    2307.9098  0.040151528  0.038478731           35 
 4791000   0.49128782    -4.201378    2298.3253  0.039976437  0.038469141           20 
 4792000   0.48493274   -4.1937961     2306.202  0.040105071  0.038459561           22 
 4793000   0.49340317    -4.202073    2302.2096  0.040027289   0.03844997           43 
 4794000   0.47471849   -4.2039186    2305.0839  0.040068903  0.038440401           17 
 4795000   0.48715254   -4.1929184    2309.0362  0.040129234  0.038430854           12 
 4796000   0.49492671   -4.2142112    2302.8274  0.040012987  0.038421272           55 
 4797000   0.48335581   -4.2205175    2302.0723  0.039991528  0.038411684           20 
 4798000    0.4870635   -4.1859614     2301.683  0.039976431  0.038402089           22 
 4799000    0.4909323   -4.2086176    2303.8412  0.040005577  0.038392526           20 
 4800000   0.49679009   -4.1994385    2296.9636   0.03987784   0.03838295           39 
 4801000   0.49201501   -4.1915437    2298.9204    0.0399035  0.038373376           27 
 4802000   0.48399398   -4.1959009    2303.6686   0.03997759  0.038363816           34 
 4803000   0.47562889   -4.1782357     2303.457  0.039965594  0.038354278           19 
 4804000   0.47964865   -4.1951864    2300.7743  0.039910739  0.038344731           22 
 4805000   0.49526026   -4.1842772    2303.5675  0.039950876  0.038335156           21 
 4806000   0.48690433   -4.1866206    2303.7849  0.039946332  0.038325588           16 
 4807000   0.47735334   -4.2047001    2300.9196   0.03988835   0.03831602           13 
 4808000   0.48449956   -4.2031908    2301.0652  0.039882577  0.038306426           32 
 4809000    0.4757551   -4.1951815    2301.4045  0.039880165  0.038296867           17 
 4810000    0.4729942   -4.1686694    2305.3931  0.039940975  0.038287305           20 
 4811000    0.4768466   -4.1954759    2299.0949   0.03982358  0.038277754           39 
 4812000   0.48577646   -4.1904576    2307.3123   0.03995761  0.038268209           10 
 4813000   0.48108258   -4.1943777     2306.738  0.039939365  0.038258677           18 
 4814000   0.48170179   -4.1877144    2304.1543  0.039886344  0.038249134           17 
 4815000   0.47800113   -4.2080775    2301.9832  0.039840485  0.038239597           15 
 4816000   0.48319735   -4.1954485    2303.7643  0.039863031  0.038230064           21 
 4817000   0.47496615   -4.2151697    2305.0351   0.03987674   0.03822053           15 
 4818000   0.48165044   -4.1964525    2297.1551   0.03973217  0.038210993           51 
 4819000   0.49066912   -4.2145165    2298.1654  0.039741395  0.038201396           22 
 4820000   0.48294423   -4.2042111    2300.7647  0.039778089  0.038191819           19 
 4821000   0.48091731   -4.1982802     2302.915  0.039807008  0.038182256            8 
 4822000   0.48419769   -4.2059275    2308.7996  0.039900449  0.038172748            8 
 4823000   0.47995691   -4.2087652    2303.0205  0.039792323  0.038163217           19 
 4824000   0.48547537    -4.208354     2301.354  0.039755286  0.038153707           18 
 4825000   0.48071071    -4.183038     2300.025  0.039724094  0.038144162           16 
 4826000   0.47025008    -4.207703    2298.1693  0.039683818  0.038134645            9 
 4827000   0.48099622   -4.2161442    2300.0078  0.039707336  0.038125128           14 
 4828000   0.46683927   -4.2115148    2304.3305  0.039773724  0.038115601           15 
 4829000   0.48027639   -4.2172356    2306.7014  0.039806403  0.038106088           20 
 4830000     0.477152   -4.1912153    2306.4243  0.039793379  0.038096592           26 
 4831000   0.47710494    -4.202256     2303.323  0.039731646  0.038087145           15 
 4832000    0.4786898   -4.2053049    2302.4064  0.039707616  0.038077693           27 
 4833000   0.47585284   -4.2022213    2304.2009  0.039730342  0.038068218           22 
 4834000   0.47790641   -4.2144465     2304.977  0.039735502  0.038058753           32 
 4835000   0.48146778   -4.2188889    2305.4769    0.0397359  0.038049255           25 
 4836000   0.47784322   -4.2038066    2305.5467  0.039728886  0.038039782           22 
 4837000   0.48623491   -4.2078799    2306.2119  0.039732133  0.038030287           22 
 4838000   0.46978042   -4.2221996    2305.2713  0.039707718  0.038020821           24 
 4839000   0.48330016    -4.191655    2301.3001  0.039631123  0.038011341           26 
 4840000   0.48884164   -4.2286832    2299.3906  0.039590058  0.038001841           16 
 4841000   0.48084666   -4.2048668    2302.6307  0.039637656  0.037992385           20 
 4842000   0.48098703   -4.2110865    2305.5295  0.039679359  0.037982923           29 
 4843000   0.47910268   -4.2064324    2305.1216  0.039664147  0.037973458           19 
 4844000   0.47236516    -4.219583    2298.8898  0.039548752  0.037963972           42 
 4845000   0.47568192    -4.208236    2305.1293  0.039647906  0.037954459           19 
 4846000   0.48362922    -4.199808    2308.7916  0.039702703  0.037945004           14 
 4847000   0.47915288   -4.2151645    2306.1706   0.03964945  0.037935545           23 
 4848000     0.480126   -4.2117052    2307.3767  0.039662003  0.037926077           19 
 4849000    0.4730282   -4.2146994    2302.4031  0.039568349   0.03791664           35 
 4850000   0.47615534    -4.233461    2306.9631  0.039638541  0.037907193           17 
 4851000   0.46708349   -4.2160514    2303.1087  0.039564157  0.037897737           20 
 4852000   0.47881385   -4.2268631    2298.5304   0.03947737  0.037888265           13 
 4853000   0.47052537   -4.2169659    2299.1344  0.039479606  0.037878806           29 
 4854000   0.48274294   -4.2115632    2306.0885  0.039590862  0.037869372           73 
 4855000   0.48084055   -4.2003189    2300.9575  0.039494636  0.037859957           40 
 4856000   0.46849321   -4.2000983     2307.444  0.039597817  0.037850574           23 
 4857000   0.46320867   -4.2025832    2304.7936   0.03954419  0.037841164           47 
 4858000    0.4812302   -4.2144969    2303.6886  0.039517095  0.037831769           18 
 4859000    0.4774247   -4.2162783    2307.9439  0.039581943  0.037822365           15 
 4860000   0.47945158   -4.2109101    2304.8315   0.03952043   0.03781295           27 
 4861000   0.47303181   -4.2226854    2307.5823  0.039559458  0.037803546           47 
 4862000    0.4752979   -4.2213435    2305.6699  0.039518544  0.037794152           26 
 4863000    0.4819446   -4.2071218    2309.3109   0.03957281  0.037784776           18 
 4864000   0.47912626   -4.2025923    2300.8826  0.039420275  0.037775383            8 
 4865000   0.47967595   -4.2062985    2309.3067   0.03955647  0.037765964           10 
 4866000   0.47389962    -4.221652    2304.2297  0.039461394  0.037756581           19 
 4867000   0.47158518   -4.1942862    2305.0215  0.039466842  0.037747209           31 
 4868000   0.47543939   -4.2097358    2304.8711  0.039456162   0.03773785           56 
 4869000   0.47285741   -4.2011812    2302.9503  0.039415183  0.037728453           31 
 4870000   0.46961345   -4.2221609    2303.7106  0.039420098   0.03771906           38 
 4871000   0.47365862   -4.2056914    2303.3903  0.039406526  0.037709642           19 
 4872000   0.46664061    -4.214075     2309.754  0.039507286  0.037700255           26 
 4873000   0.47490449   -4.2145981    2303.7802  0.039397021  0.037690845           12 
 4874000   0.47415968    -4.209841    2303.5724  0.039385386  0.037681453           10 
 4875000   0.47137948    -4.220243    2307.1964  0.039439255  0.037672074           13 
 4876000    0.4713547   -4.2184851    2308.3068  0.039450143  0.037662695           14 
 4877000   0.46784104   -4.2134571    2305.2681  0.039390132  0.037653316           26 
 4878000   0.46807728   -4.2264007    2299.5477  0.039284333  0.037643933           25 
 4879000   0.47205505   -4.2366997     2304.883  0.039367408  0.037634567           29 
 4880000   0.46340171   -4.2185106    2303.2617  0.039331654  0.037625186           33 
 4881000   0.47771131   -4.2251946    2309.3014  0.039426713  0.037615828           18 
 4882000   0.46774628   -4.2239838     2302.183   0.03929713  0.037606447           30 
 4883000    0.4796728   -4.2234166    2306.9716  0.039370803  0.037597065           33 
 4884000   0.46928742   -4.2243688    2301.6896  0.039272618   0.03758768           28 
 4885000    0.4786875   -4.2375457     2300.521  0.039244644   0.03757828           33 
 4886000   0.47402048    -4.238903    2302.0967  0.039263487  0.037568891           46 
 4887000   0.47603317   -4.2312307    2302.6676  0.039265186   0.03755948           36 
 4888000   0.46725811   -4.2153868    2307.9476  0.039347169  0.037550099           71 
 4889000   0.47748546   -4.2189341    2307.2209  0.039326735  0.037540731           40 
 4890000    0.4656942   -4.2199423    2303.6719  0.039258213  0.037531373           40 
 4891000   0.48377869   -4.2249528    2307.1746  0.039309865  0.037521982           47 
 4892000   0.46254108   -4.2366232    2297.5702  0.039138223  0.037512591           17 
 4893000   0.46812657   -4.2216964    2299.6297  0.039165298  0.037503173           41 
 4894000    0.4695263   -4.2125772     2302.637  0.039208504  0.037493798           16 
 4895000    0.4710282   -4.2209167    2294.5911  0.039063519  0.037484411           27 
 4896000   0.47005673   -4.2231635    2301.4367  0.039172057  0.037475012           50 
 4897000   0.47440826   -4.2294234    2299.1157   0.03912456  0.037465628           28 
 4898000   0.47116406   -4.2221373    2300.8024  0.039145271  0.037456209           37 
 4899000    0.4700063   -4.2331113    2305.6453  0.039219658  0.037446795          105 
 4900000   0.47399903   -4.2411618    2299.6145  0.039109091  0.037437412           17 
 4901000   0.46216317    -4.214834    2307.6415  0.039237595  0.037428024           53 
 4902000   0.47124321   -4.2224925     2304.796  0.039181219  0.037418646           53 
 4903000   0.47043951   -4.2438574    2302.4256   0.03913294  0.037409281           73 
 4904000   0.45608542   -4.2191551    2297.9503   0.03904891  0.037399883           78 
 4905000   0.46126748   -4.2336661    2298.8742  0.039056646  0.037390494           24 
 4906000    0.4762496   -4.2243976    2302.1783  0.039104809  0.037381102           40 
 4907000   0.46081556   -4.2259053    2304.3385  0.039133525  0.037371713           42 
 4908000   0.46923007   -4.2233783    2300.2921  0.039056847  0.037362322           20 
 4909000   0.46681437   -4.2269587    2302.7352  0.039090365  0.037352968           15 
 4910000   0.45891081   -4.2130977    2306.7205  0.039150042  0.037343627           13 
 4911000    0.4769482   -4.2386957    2296.2077  0.038963682  0.037334272           29 
 4912000   0.46426875   -4.2262257    2300.2611  0.039024517  0.037324858           17 
 4913000   0.46047563   -4.2325082    2296.5231   0.03895317  0.037315449           33 
 4914000   0.46799337   -4.2236259    2297.0281  0.038953807  0.037306032           21 
 4915000   0.46237044   -4.2125882    2306.7594  0.039110876  0.037296665            9 
 4916000   0.46425024   -4.2287705    2299.8441  0.038985694  0.037287283           50 
 4917000   0.47438418   -4.2263692    2302.4217  0.039021451  0.037277905           45 
 4918000   0.46436322    -4.228386    2298.8557  0.038953092  0.037268523           17 
 4919000   0.45746204   -4.2167555    2301.0024  0.038981541  0.037259142           39 
 4920000   0.45831171    -4.235943    2292.0091  0.038821292  0.037249729           82 
 4921000   0.47341925   -4.2280006    2295.8688  0.038878764  0.037240297           43 
 4922000   0.45550023   -4.2289594    2295.4805  0.038864291  0.037230891           30 
 4923000   0.45161502   -4.2201235    2300.2228  0.038936671  0.037221498           19 
 4924000   0.45939085   -4.2365761     2297.434  0.038881567  0.037212096           29 
 4925000   0.47071227   -4.2273864    2297.6972  0.038878125  0.037202687           39 
 4926000   0.46712118   -4.2351313    2295.0696  0.038825781  0.037193283           46 
 4927000   0.46993846   -4.2355031    2298.2985  0.038872513  0.037183852           40 
 4928000   0.45490018   -4.2320603    2291.9055  0.038756518  0.037174442           36 
 4929000   0.45954408   -4.2374423    2299.7981  0.038882094  0.037165019           48 
 4930000   0.46320493   -4.2209144    2302.4627  0.038919248  0.037155644           30 
 4931000   0.46499334   -4.2353444    2296.2995  0.038807197  0.037146246           44 
 4932000    0.4601155   -4.2442623    2294.8596  0.038775001  0.037136853           44 
 4933000    0.4613975   -4.2195217    2300.7601  0.038866817   0.03712747            9 
 4934000   0.46366044   -4.2351131    2294.1984  0.038748115  0.037118079           24 
 4935000   0.46292668   -4.2165041    2293.7351  0.038732441  0.037108666           39 
 4936000   0.46670289   -4.2475079    2297.2098  0.038783256  0.037099278           12 
 4937000   0.46600637   -4.2317712    2293.9751    0.0387208  0.037089902           40 
 4938000   0.46186814   -4.2189025    2299.3331   0.03880338  0.037080497           23 
 4939000   0.44991047   -4.2411128    2300.1518  0.038809337  0.037071101           21 
 4940000   0.46616861   -4.2378861    2294.5041  0.038706209  0.037061666           26 
 4941000   0.46561627   -4.2261059    2295.0121  0.038706943  0.037052232           26 
 4942000   0.46389563   -4.2355083    2294.8365   0.03869615  0.037042829           60 
 4943000   0.46223348   -4.2377732     2295.037  0.038691703  0.037033424           34 
 4944000   0.46893927   -4.2525988    2290.0621  0.038600021  0.037023973          106 
 4945000   0.44688154   -4.2379552    2296.3667  0.038698462  0.037014515           43 
 4946000   0.46897415    -4.240833    2296.4594  0.038692199  0.037005087           23 
 4947000   0.46690523   -4.2511762    2289.6699  0.038570007  0.036995669           23 
 4948000   0.46076216   -4.2380522    2295.1687  0.038654822  0.036986267           19 
 4949000   0.46149635   -4.2330042    2293.9873  0.038627118  0.036976855           19 
 4950000    0.4566712   -4.2370919    2298.0153  0.038687126  0.036967442           18 
 4951000   0.46482685   -4.2318466    2299.7624  0.038708718  0.036958055           15 
 4952000   0.45286395   -4.2346568     2299.364  0.038694197  0.036948681           13 
 4953000   0.45884107   -4.2353928    2296.9751  0.038646193  0.036939323           14 
 4954000   0.45053702   -4.2396344    2292.2311  0.038558591  0.036929949           18 
 4955000   0.46124009   -4.2529095    2296.9847  0.038630755  0.036920562           26 
 4956000    0.4447414   -4.2322491    2295.8998  0.038604718  0.036911187           20 
 4957000    0.4572876   -4.2339583    2293.6407  0.038558952   0.03690178           23 
 4958000   0.46256326   -4.2487575    2294.9253  0.038572766  0.036892411           11 
 4959000   0.46228539    -4.226473    2295.4157  0.038573229  0.036883027           33 
 4960000    0.4608938   -4.2542605    2296.0977  0.038576911   0.03687365           41 
 4961000   0.45773311     -4.25182    2298.9132  0.038616429  0.036864282           47 
 4962000   0.46765215   -4.2475491    2301.7198  0.038655781  0.036854919           55 
 4963000   0.47079984   -4.2264433    2294.6025  0.038528485  0.036845564          102 
 4964000   0.45676003   -4.2496006    2294.4392  0.038517982  0.036836228           27 
 4965000   0.46141114   -4.2402222    2293.8445  0.038500243  0.036826863           21 
 4966000   0.46136966   -4.2550066    2298.0766  0.038563509  0.036817507           19 
 4967000   0.45431043   -4.2448234    2296.7155  0.038532909   0.03680816           65 
 4968000   0.44968931   -4.2377991    2300.1273  0.038582382  0.036798852           65 
 4969000   0.46482524   -4.2463742    2295.6856  0.038500128  0.036789519           49 
 4970000   0.46355928   -4.2327526    2296.1236  0.038499725  0.036780197           35 
 4971000   0.45764221   -4.2577793    2295.7227  0.038485259  0.036770855           44 
 4972000   0.44939391   -4.2599381    2298.9792  0.038532099  0.036761525           39 
 4973000   0.46249645   -4.2417269    2296.2198  0.038478112  0.036752193           28 
 4974000   0.46117946   -4.2460211    2299.9506  0.038532881  0.036742869           24 
 4975000    0.4697663   -4.2597593    2296.9842  0.038475447  0.036733535           28 
 4976000     0.459794   -4.2462555    2299.2982  0.038506468  0.036724208           30 
 4977000   0.45214652   -4.2329869    2298.0367  0.038477609  0.036714902           16 
 4978000   0.45078638   -4.2460993      2301.46  0.038527186  0.036705599           30 
 4979000   0.46196195   -4.2439812    2299.5666  0.038487759  0.036696287           10 
 4980000    0.4587339   -4.2449022    2300.3998  0.038493972  0.036686977           26 
 4981000   0.44207085   -4.2576906    2298.0674  0.038447224  0.036677645           28 
 4982000   0.44708093    -4.260592    2298.1124  0.038440258  0.036668305           19 
 4983000   0.44849045   -4.2662426    2295.8269  0.038394323  0.036658986           38 
 4984000   0.45120166   -4.2717195    2297.3393  0.038411906  0.036649668           16 
 4985000   0.44799211   -4.2739235    2294.1194  0.038350374  0.036640345           28 
 4986000   0.45750707   -4.2593853    2297.9819  0.038407239  0.036631039           16 
 4987000   0.45932807   -4.2752481    2294.3305  0.038338521  0.036621721           89 
 4988000   0.45341089     -4.25622    2289.8137  0.038255375  0.036612406           67 
 4989000   0.45850905   -4.2621095    2303.4146  0.038474889  0.036603105           47 
 4990000   0.45301734   -4.2413258    2292.6374  0.038287197   0.03659381           49 
 4991000   0.45748454   -4.2531244    2291.1949  0.038255441   0.03658453           58 
 4992000   0.45545909   -4.2626666    2297.3876  0.038351155  0.036575217           39 
 4993000   0.44655119   -4.2594432    2291.7591  0.038249534  0.036565887           30 
 4994000   0.45850192   -4.2544363    2294.8571   0.03829357  0.036556557           58 
 4995000   0.45747703   -4.2685882    2296.0325  0.038305514  0.036547226           45 
 4996000   0.45883543   -4.2727057    2288.0648  0.038164945  0.036537902           47 
 4997000    0.4468663   -4.2574783    2297.8911  0.038321178  0.036528576           58 
 4998000   0.46665509   -4.2545263    2297.2859   0.03830342  0.036519278           61 
 4999000   0.45508662   -4.2811443    2289.4038  0.038164363  0.036509965           39 
 5000000   0.44865824   -4.2773832    2291.7274  0.038195457   0.03650065           97 
 5001000   0.45435537   -4.2766561    2292.9308  0.038207872  0.036491333           37 
 5002000   0.45778742   -4.2693145    2294.8273  0.038231829  0.036481999           44 
 5003000   0.45301837   -4.2838445     2294.254  0.038214638  0.036472686           57 
 5004000   0.45131907   -4.2647831    2294.4405  0.038210106  0.036463367           97 
 5005000   0.44206298   -4.2691095     2292.815  0.038175408  0.036454045          176 
 5006000   0.45234528    -4.261852    2290.2686  0.038125393  0.036444724           39 
 5007000   0.45449385   -4.2638264    2293.1461  0.038165669  0.036435398           66 
 5008000   0.45375218   -4.2753782    2291.3228   0.03812771  0.036426056           76 
 5009000   0.45622703   -4.2719196    2293.7602  0.038160648   0.03641674           37 
 5010000   0.45690309     -4.27078    2291.9914   0.03812361  0.036407383           61 
 5011000   0.46376436   -4.2725471    2295.2945  0.038170933  0.036398049          118 
 5012000   0.45217318   -4.2662923    2290.1519  0.038077811  0.036388732           57 
Loop time of 12293.1 on 48 procs for 5000000 steps with 4000 atoms

Performance: 70283.507 tau/day, 406.733 timesteps/s
99.4% CPU use with 48 MPI tasks x no OpenMP threads

MPI task timing breakdown:
Section |  min time  |  avg time  |  max time  |%varavg| %total
---------------------------------------------------------------
Pair    | 798.18     | 885.56     | 959.26     | 122.7 |  7.20
Neigh   | 82.276     | 85.733     | 90.154     |  21.8 |  0.70
Comm    | 782.03     | 852.4      | 926.05     | 120.4 |  6.93
Output  | 14.046     | 14.051     | 14.145     |   0.4 |  0.11
Modify  | 10314      | 10342      | 10375      |  15.9 | 84.13
Other   |            | 113.4      |            |       |  0.92

Nlocal:        83.3333 ave          90 max          75 min
Histogram: 1 0 1 6 12 7 11 2 5 3
Nghost:        2236.38 ave        2253 max        2217 min
Histogram: 2 2 1 8 8 11 4 3 6 3
Neighs:        14925.5 ave       16840 max       12783 min
Histogram: 1 1 3 3 15 9 10 2 1 3
FullNghs:      29853.3 ave       32876 max       26264 min
Histogram: 1 0 1 8 10 13 7 4 2 2

Total # of neighbors = 1432960
Ave neighs/atom = 358.24000
Neighbor list builds = 270653
Dangerous builds = 0

#clear
#
#next RN
#
#jump SELF
Total wall time: 3:24:56
