
units lj                  # Use reduced LJ style units
atom_style atomic         # Uncharged point particles
atom_modify map hash      # Needed for indexing of clusters etc
                          # Used to be able to find where atoms are in relation to each other.

lattice fcc 1.0 spacing 1 1 1
Lattice spacing in x,y,z = 1.5874011 1.5874011 1.5874011
region box block 0 10 0 10 0 10 units lattice
create_box 2 box
Created orthogonal box = (0.0000000 0.0000000 0.0000000) to (15.874011 15.874011 15.874011)
  3 by 4 by 4 MPI processor grid
create_atoms 1 box
Created 4000 atoms
  using lattice units in orthogonal box = (0.0000000 0.0000000 0.0000000) to (15.874011 15.874011 15.874011)
  create_atoms CPU = 0.002 seconds
set type 1 type/fraction 2 0.4 78393
Setting atom values ...
  1612 settings made for type/fraction
mass 1 1.0
mass 2 1.0
pair_style lj/cut  3.5
pair_modify tail  yes
pair_coeff 1  1  1.0  1.0   # Intearaction between 1 and 1 set with epsilon = 1 and sigma = 1
pair_coeff 1  2  1.5  0.8
pair_coeff 2  2  0.5  0.88

write_data data.0
System init for write_data ...
Neighbor list info ...
  update every 1 steps, delay 10 steps, check yes
  max neighbors/atom: 2000, page size: 100000
  master list distance cutoff = 3.8
  ghost atom cutoff = 3.8
  binsize = 1.9, bins = 9 9 9
  1 neighbor lists, perpetual/occasional/extra = 1 0 0
  (1) pair lj/cut, perpetual
      attributes: half, newton on
      pair build: half/bin/atomonly/newton
      stencil: half/bin/3d
      bin: standard
WARNING: Not all mixed pair coeffs generated from mixing. Use write_data with 'pair ij' option to store all pair coeffs. (../write_data.cpp:312)


#############################
#   M E L T   S Y S T E M   #
#############################

velocity all create 2.4 6583654 mom yes dist gaussian # Assign velocities
                                                    # Temperature 2.4, random number seed, zero linear momentum
                                                                                # Gaussian distribution

timestep 0.002   # simulation timestep
thermo 1000       # output thermodynamic data every 1000 steps bf 100

# Define a fix  in this case with index 1 applied to all
# particles in the simulation. This fix is for simulations
# in the anisotropic NPT ensemble. Note that we use the MTK
# correction.
fix 1 all npt temp 2.4 2.4 0.1 iso 5.68 5.68 0.5 mtk yes tchain 5 pchain 5 # Use NPT ensemble
                                                                         # Set temperature and pressure and damping
                                                                         # Numbers of thermostats in chain and in barostat
run 10000          # run for 10000 steps
Per MPI rank memory allocation (min/avg/max) = 3.642 | 3.644 | 3.648 Mbytes
Step Temp E_pair E_mol TotEng Press Volume 
       0          2.4    -5.861415            0    -2.262315   -4.1716513         4000 
    1000    2.3944996   -5.0185608            0   -1.4277093    5.7335255    3888.7035 
    2000    2.3779512   -4.9850007            0   -1.4189656    5.7980113    3903.4756 
    3000    2.3837216   -4.9811018            0   -1.4064132    5.3991723    3935.2676 
    4000    2.3903959   -5.0397605            0   -1.4550632    5.5136607    3895.7514 
    5000    2.3885671    -5.014294            0    -1.432339    5.9176693    3875.6952 
    6000    2.3665081   -4.9945111            0   -1.4456364    6.0989558    3868.7018 
    7000    2.4005648   -5.0955397            0   -1.4955928    5.3910865    3885.2771 
    8000     2.427646   -5.0346487            0   -1.3940901    5.8969741    3873.5371 
    9000    2.4055187   -5.0549204            0   -1.4475444    5.5625262    3887.7584 
   10000    2.3585023   -4.9891235            0   -1.4522544    5.6113309    3920.9393 
Loop time of 2.5268 on 48 procs for 10000 steps with 4000 atoms

Performance: 683869.518 tau/day, 3957.578 timesteps/s
99.7% CPU use with 48 MPI tasks x no OpenMP threads

MPI task timing breakdown:
Section |  min time  |  avg time  |  max time  |%varavg| %total
---------------------------------------------------------------
Pair    | 1.1231     | 1.1956     | 1.2994     |   3.6 | 47.32
Neigh   | 0.20479    | 0.21795    | 0.2354     |   1.2 |  8.63
Comm    | 0.73814    | 0.85566    | 0.95267    |   4.8 | 33.86
Output  | 0.00024384 | 0.00024978 | 0.00031895 |   0.0 |  0.01
Modify  | 0.21238    | 0.24163    | 0.28681    |   3.7 |  9.56
Other   |            | 0.01569    |            |       |  0.62

Nlocal:        83.3333 ave          93 max          74 min
Histogram: 1 4 3 10 4 14 5 2 3 2
Nghost:        1658.38 ave        1687 max        1620 min
Histogram: 2 0 2 6 7 7 11 5 4 4
Neighs:        9730.35 ave       11088 max        8455 min
Histogram: 2 3 6 5 9 13 1 3 5 1

Total # of neighbors = 467057
Ave neighs/atom = 116.76425
Neighbor list builds = 905
Dangerous builds = 204

# Equilibrate just above the melting temperature to avoid step fn in T

fix 1 all npt temp 1.25 1.25 0.1 iso 5.68 5.68 0.5 mtk yes tchain 5 pchain 5
run 2000
Per MPI rank memory allocation (min/avg/max) = 3.643 | 3.645 | 3.649 Mbytes
Step Temp E_pair E_mol TotEng Press Volume 
   10000    2.3585023   -4.9891235            0   -1.4522544    5.6113309    3920.9393 
   11000    1.2570835   -7.0408437            0   -5.1556899    5.4096095    3091.6299 
   12000    1.2356303   -7.0985442            0   -5.2455621     5.487137    3074.5354 
Loop time of 0.627801 on 48 procs for 2000 steps with 4000 atoms

Performance: 550493.315 tau/day, 3185.725 timesteps/s
99.6% CPU use with 48 MPI tasks x no OpenMP threads

MPI task timing breakdown:
Section |  min time  |  avg time  |  max time  |%varavg| %total
---------------------------------------------------------------
Pair    | 0.27566    | 0.2995     | 0.34877    |   2.6 | 47.71
Neigh   | 0.040433   | 0.042456   | 0.04996    |   0.8 |  6.76
Comm    | 0.1807     | 0.23587    | 0.26386    |   3.3 | 37.57
Output  | 5.4179e-05 | 5.5609e-05 | 7.1795e-05 |   0.0 |  0.01
Modify  | 0.042479   | 0.045075   | 0.049163   |   0.7 |  7.18
Other   |            | 0.00485    |            |       |  0.77

Nlocal:        83.3333 ave          91 max          77 min
Histogram: 3 4 8 4 7 8 5 8 0 1
Nghost:        1959.69 ave        1985 max        1935 min
Histogram: 3 1 6 3 12 7 5 6 2 3
Neighs:        12442.4 ave       13679 max       11035 min
Histogram: 3 2 4 6 6 8 5 4 7 3

Total # of neighbors = 597234
Ave neighs/atom = 149.30850
Neighbor list builds = 144
Dangerous builds = 13

#############################
# L I N E A R  Q U E N C H  #
#############################

# Define solid atoms. This closely follows ten Wolde  Ruiz-Montero and Frenkel  Faraday Discuss  1996  104  93-110
# Compute components of the per-atom q6 vector
compute q6 all orientorder/atom degrees 1 6 components 6 nnn NULL cutoff 1.3 # compute the Q6 parameter.
                                                                             # Use all neighbours within 1.3 unit cell.

# get number of connections
compute coord_number all coord/atom orientorder q6 0.5

# An atom is solid if it has 8 or more connections (of a possible 14)
variable is_solid atom c_coord_number>=8
group solid dynamic all var is_solid    # Must be dynamic to update
dynamic group solid defined

# do clustering
compute cluster solid cluster/atom 1.3 # Create a cluster where all atoms within are solid and max 1.3 units from another member

# define chunks one chunk per cluster
compute clus_chunks solid chunk/atom c_cluster nchunk every compress yes  # Says which atoms are in which chunk

# count the size of each chunk
compute size_chunks solid property/chunk clus_chunks count


# Find the maximum entry in the vector of chunk sizes
variable max_n equal max(c_size_chunks)


# Thermo style which includes this variable
# thermo_style custom step temp pe vol v_max_n

thermo ${N}  # Print the thermo information every 100 steps
thermo 1000  

# Reset the npt fix at a lower temperature (below freezing)
fix 1  all npt temp  ${temp} ${temp}  0.1  iso  5.68  5.68  0.5  mtk yes tchain  5  pchain  5
fix 1  all npt temp  0.45 ${temp}  0.1  iso  5.68  5.68  0.5  mtk yes tchain  5  pchain  5
fix 1  all npt temp  0.45 0.45  0.1  iso  5.68  5.68  0.5  mtk yes tchain  5  pchain  5

dump dmp2 all dcd ${N} traj.dcd
dump dmp2 all dcd 1000 traj.dcd


compute msd all msd com yes
variable twopoint equal c_msd[4]/6/(step*dt+1.0e-6)
fix 9 all vector 10 c_msd[4]
variable fit equal slope(f_9)/6/(10*dt)
thermo_style custom step temp pe c_msd[4] v_twopoint v_fit v_max_n

fix 1 all npt temp 1.25 ${temp} 0.1 iso 5.68 5.68 0.5 mtk yes tchain 5 pchain 5
fix 1 all npt temp 1.25 0.45 0.1 iso 5.68 5.68 0.5 mtk yes tchain 5 pchain 5
run 5000000 # 5000000  # Run for this many steps
Neighbor list info ...
  update every 1 steps, delay 10 steps, check yes
  max neighbors/atom: 2000, page size: 100000
  master list distance cutoff = 3.8
  ghost atom cutoff = 3.8
  binsize = 1.9, bins = 8 8 8
  4 neighbor lists, perpetual/occasional/extra = 1 3 0
  (1) pair lj/cut, perpetual
      attributes: half, newton on
      pair build: half/bin/atomonly/newton
      stencil: half/bin/3d
      bin: standard
  (2) compute orientorder/atom, occasional
      attributes: full, newton on
      pair build: full/bin/atomonly
      stencil: full/bin/3d
      bin: standard
  (3) compute coord/atom, occasional
      attributes: full, newton on
      pair build: full/bin/atomonly
      stencil: full/bin/3d
      bin: standard
  (4) compute cluster/atom, occasional
      attributes: full, newton on
      pair build: full/bin/atomonly
      stencil: full/bin/3d
      bin: standard
Per MPI rank memory allocation (min/avg/max) = 9.823 | 9.830 | 9.834 Mbytes
Step Temp PotEng c_msd[4] v_twopoint v_fit v_max_n 
   12000    1.2356303   -7.0985442 1.6962482e-30 1.1779501e-32 8.3333333e+20            2 
   13000     1.228478   -7.0955472   0.49259798 0.0031576793  0.039925824            2 
   14000    1.2378059   -7.0978087   0.93980863 0.0055940988  0.038427755            2 
   15000    1.2664823    -7.074424    1.3550792 0.0075282175  0.037125729            6 
   16000    1.2520521   -7.0871979    1.8146708 0.0094514101  0.036470791            2 
   17000    1.2465119   -7.0958055     2.226543  0.010914426  0.036405037            2 
   18000    1.2348295   -7.1115593    2.6790286   0.01240291  0.036569816            1 
   19000    1.2697433   -7.0879246    3.1670486  0.013890564  0.036909495            4 
   20000    1.2316399   -7.1455163    3.5216563  0.014673568  0.036785933            1 
   21000    1.2566732    -7.139763    3.9326226  0.015605645  0.036358313            4 
   22000    1.2504922   -7.1181363    4.3582377  0.016508476  0.036047739            1 
   23000    1.2588825   -7.0600029    4.7815135  0.017324324  0.035829866            1 
   24000     1.251886   -7.1380543    5.1917247  0.018026822  0.035752382            3 
   25000    1.2531289   -7.0779399    5.6519724  0.018839908  0.035680765            1 
   26000    1.2649087   -7.1057952    6.0157809  0.019281349  0.035541776            4 
   27000    1.2162326   -7.1181487    6.4494579  0.019905734  0.035497982            2 
   28000    1.2545159   -7.1145461    6.8087789  0.020264222  0.035374085            2 
   29000    1.2403772   -7.1353033    7.3263468   0.02105272  0.035358645            3 
   30000    1.2695017   -7.0816655    7.7116669  0.021421297  0.035358637            2 
   31000    1.2365431    -7.119374    8.1866531  0.022007132  0.035317946            1 
   32000    1.2538062   -7.1254152    8.6359453  0.022489441  0.035383324            1 
   33000    1.2211196   -7.1085686     9.165438  0.023145045  0.035534236            3 
   34000    1.2538809   -7.1364933    9.5784133  0.023476503  0.035649177            2 
   35000    1.2273247   -7.0932428    10.083789   0.02400902  0.035774455            1 
   36000    1.2409739   -7.1248906    10.418475   0.02411684  0.035868314            1 
   37000     1.253922   -7.0452872    10.871728  0.024485874  0.035914809            2 
   38000    1.2453184   -7.1266408    11.340299  0.024869077  0.035942203            2 
   39000    1.2644322   -7.0620772     11.86375  0.025349894   0.03600578            1 
   40000    1.2456034   -7.1263051    12.269516  0.025561491   0.03608771            1 
   41000    1.2557655   -7.1273558    12.666337  0.025744586  0.036152189            3 
   42000    1.2311397   -7.1145701    13.256566  0.026302709  0.036222755            3 
   43000    1.2669242   -7.1364221    13.728992  0.026606572  0.036333896            3 
   44000    1.2278481   -7.1373824    14.009751  0.026533619  0.036384011            1 
   45000    1.2636363   -7.1297565    14.501846   0.02685527   0.03641036            1 
   46000     1.246833   -7.0986517     14.95718   0.02709634  0.036456367            3 
   47000    1.2403466   -7.1181853    15.383266  0.027275294  0.036499016            2 
   48000    1.2222688      -7.1323    15.798382  0.027427747  0.036528766            1 
   49000    1.2836451   -7.1037945    16.338695  0.027786896  0.036581057            3 
   50000    1.2373743   -7.1677276    16.764199  0.027940331   0.03664184            1 
   51000    1.2347102   -7.1291373    17.204776  0.028112379  0.036672381            2 
   52000    1.2559104   -7.0852954    17.682789  0.028337803  0.036726521            3 
   53000      1.25961   -7.0852111    18.014664  0.028324943  0.036753533            2 
   54000    1.2509268    -7.094312    18.553987  0.028632696  0.036772037            1 
   55000    1.2402485   -7.1080282    19.008368  0.028800557  0.036801731            2 
   56000    1.2550649    -7.135719    19.468537  0.028971037  0.036839524            2 
   57000    1.2391447   -7.1310792    19.867954  0.029046716  0.036851492            3 
   58000     1.236367   -7.0897014    20.212709  0.029041248  0.036858112            1 
   59000    1.2560563   -7.1113562    20.671722  0.029197347  0.036847702            4 
   60000     1.221071   -7.1096884    21.020778  0.029195524  0.036850492            2 
   61000    1.2372405   -7.1544268    21.481841  0.029346778  0.036826538            2 
   62000    1.2752961   -7.1166588    22.053009  0.029641141  0.036830406            3 
   63000    1.2291397   -7.1520864    22.366003  0.029584659  0.036829219            1 
   64000    1.2387684   -7.1330323    22.829763  0.029726254  0.036815109            2 
   65000    1.2363641   -7.1086553    22.924409  0.029390268   0.03677769            1 
   66000    1.2516249   -7.1255562    23.312223  0.029434625  0.036706558            1 
   67000    1.2227918   -7.0802588    23.723275   0.02950656  0.036625668            1 
   68000    1.2149945   -7.1660424    23.946591  0.029346313  0.036532636            2 
   69000    1.2105716    -7.088799    24.423115  0.029496516  0.036443436            1 
   70000    1.2554336   -7.1408345    24.795034  0.029517898   0.03635996            2 
   71000    1.2740113   -7.1445657    25.003944  0.029347352  0.036275612            1 
   72000    1.2220771   -7.1326468    25.443522   0.02944852  0.036181611            2 
   73000    1.2501237   -7.0989119    25.797401  0.029449088  0.036085231            2 
   74000     1.250341   -7.0766604    26.341394  0.029663732  0.036002832            1 
   75000    1.2445458   -7.1083172    26.648303  0.029609226  0.035925768            1 
   76000    1.2207806   -7.1019669    27.117574  0.029734182  0.035847888            3 
   77000    1.2582612   -7.1159429    27.274518  0.029517877  0.035757223            1 
   78000    1.2609854   -7.1718165    27.463746  0.029341609  0.035659615            3 
   79000    1.2523319   -7.1827021     27.80724  0.029332532  0.035557735            1 
   80000    1.2207004   -7.1190669    28.296409  0.029475426  0.035462316            1 
   81000    1.2298739   -7.1297564    28.761921  0.029590453  0.035368305            1 
   82000    1.2301613   -7.1267915    29.182831  0.029657348  0.035287735            2 
   83000     1.249986   -7.1596401    29.542922  0.029661568  0.035213736            1 
   84000    1.2558486   -7.1489956    29.768266   0.02953201   0.03513047            2 
   85000    1.2217901   -7.1608664    30.434933  0.029838169  0.035054882            4 
   86000    1.2535921   -7.1241738    30.684356  0.029732903  0.034990311            1 
   87000     1.239177   -7.1238768    31.091552   0.02978118  0.034921522            1 
   88000    1.2180929   -7.1031112    31.365605  0.029702277  0.034848557            2 
   89000    1.2175841   -7.1167034    31.986648  0.029950045  0.034785121            1 
   90000    1.2588539   -7.1431034    32.316672  0.029922845  0.034731402            2 
   91000    1.2278481   -7.0990034    32.880485  0.030110334  0.034680821            1 
   92000    1.2364506   -7.1423211    33.273767  0.030139281  0.034637739            1 
   93000    1.2303301   -7.1487191    33.555823  0.030067941  0.034594517            2 
   94000    1.2476484   -7.1382275    33.861593  0.030019143  0.034548011            1 
   95000    1.2293791   -7.1009366    34.551504  0.030308337  0.034507835            2 
   96000    1.2402831   -7.1141189    34.803989  0.030211796  0.034469265            1 
   97000    1.2469669   -7.1396046    35.225926  0.030262823  0.034431478            2 
   98000    1.2439897   -7.1462639     35.53844  0.030219762   0.03440076            2 
   99000    1.2438394   -7.1172374    36.085433  0.030374944  0.034368582            3 
  100000    1.2480491   -7.2091567    36.347443  0.030289536  0.034337201            4 
  101000    1.2476113   -7.1603687    36.982974  0.030514005  0.034316862       -1e+20 
  102000    1.2309196    -7.165965    37.415151  0.030567934  0.034306035            1 
  103000    1.2573902   -7.1566862    37.847586  0.030621024  0.034294602            2 
  104000    1.2361176   -7.1286332    38.610922  0.030938239  0.034291911            1 
  105000    1.2195181   -7.1493843     38.89859  0.030871897  0.034294359            1 
  106000    1.2272446   -7.1314647    39.418917  0.030989714   0.03429819            2 
  107000    1.2263977   -7.1149444    39.789727  0.030988884  0.034303334            2 
  108000    1.2366219   -7.1448916    40.020473  0.030879995   0.03429817            1 
  109000    1.2270359   -7.0858293    40.344557  0.030844462   0.03429247            2 
  110000     1.226596   -7.1343865    40.651367   0.03079649  0.034284092            1 
  111000     1.213346   -7.1448307    40.961077  0.030751559  0.034273379       -1e+20 
  112000    1.2143254   -7.1384298    41.436221  0.030830521  0.034261685            2 
  113000    1.2422235   -7.1454955     42.10326  0.031049601  0.034251931            1 
  114000    1.2456708   -7.1351488    42.369921  0.030972164  0.034245478            2 
  115000     1.198192    -7.106423    42.766367  0.030990121  0.034238887            1 
  116000    1.2037541   -7.1706071    43.169877  0.031012842  0.034230801            2 
  117000    1.2361908   -7.1413754    43.519262  0.030996625  0.034216412            2 
  118000    1.2247656   -7.1267047    44.076341  0.031127359  0.034210615            3 
  119000    1.2365454   -7.1824258    44.325385  0.031040185  0.034202115            2 
  120000     1.236564   -7.1884602    44.643035  0.031002108  0.034190824            2 
  121000     1.219897   -7.1486964    45.092672  0.031055559  0.034178599            3 
  122000    1.2486965   -7.1733976     45.49734  0.031077418  0.034168876            1 
  123000    1.2447566   -7.1031243    46.013718  0.031174606  0.034158988            1 
  124000    1.2229503   -7.1328491    46.061018  0.030954985  0.034145598            1 
  125000    1.2413755   -7.1295775    46.676826  0.031117884  0.034124748            2 
  126000    1.1978866   -7.1368838    46.819899  0.030965541  0.034107199            1 
  127000    1.2353331   -7.1526618    47.503852  0.031170506  0.034091223            2 
  128000    1.2732877    -7.161353    47.450297  0.030892121  0.034072004            1 
  129000    1.2323453   -7.1573792    48.192772  0.031132282  0.034051457            1 
  130000    1.2356161   -7.1430153    48.661016  0.031192959  0.034037962            1 
  131000    1.2196071    -7.165473    48.949644   0.03113845  0.034025425            2 
  132000    1.2128883   -7.1273746    49.077941  0.030983549  0.034010288            2 
  133000    1.2289957   -7.1667494    49.550232  0.031046511  0.033995332            2 
  134000    1.2275612   -7.1606083    50.185074  0.031209623  0.033982142            1 
  135000    1.2270015   -7.1470467    50.285289  0.031040302  0.033968363            1 
  136000    1.2370456   -7.1325418    50.828586  0.031144967  0.033950059            1 
  137000    1.2368626   -7.1168064     51.23977  0.031167743  0.033933759            2 
  138000    1.2247625   -7.1050188    51.296678  0.030976255  0.033914653            2 
  139000     1.245022   -7.1238426    51.835908  0.031076683  0.033893685            1 
  140000    1.2434853   -7.1534875    52.191465  0.031066348  0.033875373            1 
  141000    1.2351931   -7.1342258    52.914482  0.031273335  0.033858127            2 
  142000    1.2056621   -7.1637364    52.998509  0.031102411  0.033844056            2 
  143000    1.2323663   -7.1739153    53.377524  0.031105783  0.033826681            1 
  144000    1.2265297   -7.1211448    53.847658  0.031161839  0.033804102            1 
  145000    1.2191079   -7.1470082    53.974829  0.031020017  0.033782793            2 
  146000    1.2084524   -7.1848723    54.362776  0.031028982  0.033762695            2 
  147000    1.2063251   -7.1932998    54.727682  0.031024763  0.033740911       -1e+20 
  148000    1.2258364    -7.172852    55.273387  0.031122403   0.03372139            1 
  149000    1.2346592   -7.1743616    55.622187  0.031108606  0.033702365            1 
  150000     1.247977   -7.1679256    55.730218  0.030961232  0.033679433            1 
  151000    1.2254393   -7.1775007    56.322788  0.031083216  0.033656879            2 
  152000     1.243331   -7.1441684    56.872964  0.031180353  0.033638105            1 
  153000    1.2331278   -7.1714445    57.139141  0.031121537  0.033620968            1 
  154000    1.2246576    -7.183514    57.640873  0.031190949  0.033605293            2 
  155000    1.2182217   -7.1811917    57.868578  0.031112139  0.033590243            2 
  156000    1.1963713    -7.170009    58.066456  0.031018406  0.033571663            1 
  157000    1.2385452    -7.168909    58.391901  0.030993578  0.033548941            1 
  158000    1.2236988   -7.1130422    58.931405  0.031081965  0.033526444            2 
  159000    1.2183231   -7.1693111    58.979485   0.03091168  0.033504059            3 
  160000    1.2036445   -7.1462793    59.418394   0.03094708  0.033481186            3 
  161000    1.2295579   -7.1337759    59.786599  0.030945444  0.033460733            1 
  162000    1.2060249   -7.1251856    60.347095  0.031042744  0.033436911            1 
  163000    1.2375518   -7.1381382    60.609922  0.030986668  0.033415075            2 
  164000    1.2270597   -7.1488492    60.811668  0.030900238  0.033393278            2 
  165000    1.2012326   -7.0678874     61.58112  0.031101576  0.033369971            2 
  166000    1.2366105   -7.1563339    61.635294  0.030941412   0.03334795            3 
  167000    1.2353553   -7.1421464    61.971801  0.030924052  0.033325907            3 
  168000     1.211633   -7.1777816    62.367085  0.030936054  0.033304637            3 
  169000    1.2064173   -7.1474486    62.983292   0.03105685  0.033284481            1 
  170000    1.2393832   -7.1730874    63.207128  0.030983886  0.033265908            4 
  171000    1.2277048   -7.1697422    63.535551  0.030962744  0.033245875            2 
  172000    1.2437778   -7.1395557    64.274482  0.031140737   0.03322621            1 
  173000    1.2203148   -7.1641414    64.302016  0.030973996  0.033206331            1 
  174000    1.2030766   -7.1745538    64.851361  0.031059081  0.033186316            1 
  175000    1.2193578   -7.1556119    65.172938  0.031034732  0.033167647            2 
  176000    1.2039246   -7.1508112    65.512485  0.031019169  0.033148907            2 
  177000    1.2300157    -7.163185    65.948204   0.03104906  0.033131445            3 
  178000     1.203249   -7.1354569    66.451902  0.031110441  0.033115013            1 
  179000    1.2406943   -7.1306464    66.759918  0.031080036  0.033098576            2 
  180000    1.2200807   -7.1634949    67.254617  0.031136397  0.033082316            1 
  181000    1.2351291   -7.1332047    67.464349  0.031060934  0.033068034            1 
  182000    1.2276252   -7.1321747    67.852243  0.031067877  0.033051243            1 
  183000    1.2373975   -7.2376427    67.615169   0.03079015  0.033030354            2 
  184000    1.2310763   -7.1945284    68.175586  0.030876624  0.033010049            2 
  185000    1.2229347   -7.1849111    68.645599  0.030921441  0.032989005            2 
  186000    1.2014345   -7.1582721    69.157473  0.030984531  0.032972056            1 
  187000    1.2510917   -7.1310804    69.772693     0.031093  0.032955768            1 
  188000    1.2189898   -7.2060309    69.906417  0.030986887  0.032941875            3 
  189000    1.2037717   -7.1760833    70.417817   0.03104842  0.032927593            3 
  190000    1.2178176   -7.1554928     70.81161  0.031057724   0.03291389            1 
  191000    1.2111881   -7.1333531     71.30693  0.031111226   0.03289985            1 
  192000    1.2251921   -7.1547008    71.579403  0.031067449  0.032886029            1 
  193000    1.2066015    -7.236629    71.810852  0.031006413  0.032872063            1 
  194000    1.2238214   -7.1054572    72.390616  0.031095625   0.03285739            1 
  195000    1.2424222   -7.1554141     72.52495  0.030993568  0.032842051            3 
  196000     1.225207   -7.1736263    72.919592  0.031003228  0.032827444            1 
  197000    1.2444615    -7.179911    73.013822  0.030885711  0.032811845            1 
  198000    1.1884503   -7.1747604    73.552007  0.030956232  0.032794492            3 
  199000    1.2324586   -7.1919531    74.035011  0.031002936  0.032780052            1 
  200000    1.2206017   -7.0930515        74.64       0.0311  0.032765836            1 
  201000    1.2209198   -7.1529128    74.724248  0.030980202  0.032751062            1 
  202000    1.2471553   -7.1695066    74.980437  0.030932523  0.032736861            2 
  203000    1.2256858   -7.1638528    75.532578  0.031006805  0.032721199            2 
  204000     1.221018   -7.1585984    76.124514  0.031096615  0.032706876            3 
  205000    1.2151147   -7.1986834    75.925477  0.030864015  0.032693007            1 
  206000    1.2197521   -7.1914912    76.851594  0.031088832  0.032681656            1 
  207000    1.2141085   -7.1176472    77.223962  0.031088552  0.032670147            1 
  208000    1.1947584   -7.1428279    77.588583  0.031085169    0.0326581            2 
  209000    1.1956902   -7.1026754    78.058215   0.03112369  0.032647987            1 
  210000    1.1926228   -7.1477733    78.201715  0.031032427  0.032636553            1 
  211000    1.2115621   -7.1201324     78.88722   0.03115609  0.032625414            2 
  212000    1.2177206   -7.1373592     78.94468  0.031031714  0.032613074            1 
  213000    1.2260206   -7.0982787    79.614924  0.031148249  0.032600416            1 
  214000    1.2173478   -7.2223433     79.52345  0.030967076  0.032587298            1 
  215000    1.2208539   -7.1908145    79.746776  0.030909603  0.032572891            2 
  216000    1.2063993   -7.1718559    80.291201  0.030976543  0.032560065            2 
  217000     1.227607   -7.2038141     80.93798  0.031082173  0.032549474            1 
  218000    1.1914822   -7.2089544    81.551044  0.031173946  0.032540031            1 
  219000     1.212918   -7.1281985    82.191167  0.031275178   0.03253477            1 
  220000    1.1984215   -7.2217114    82.401163  0.031212562   0.03252985            1 
  221000    1.1999539   -7.1759858    82.651481  0.031165717  0.032523325            1 
  222000    1.2479628   -7.1115617    83.708724  0.031422194  0.032519506            2 
  223000    1.2276092   -7.1418996    83.509285  0.031206758  0.032514893            1 
  224000    1.2286539   -7.1899122    83.685983  0.031133178  0.032508799            3 
  225000    1.2098988   -7.1636736    84.346529  0.031239455  0.032502453            2 
  226000    1.1972372   -7.1845514    84.356496  0.031104902  0.032495052            1 
  227000    1.2065455   -7.1483441    85.093723  0.031238518  0.032487863            2 
  228000     1.219868     -7.19111    85.058249  0.031088541  0.032478597            2 
  229000    1.2131799   -7.1829099    85.304342  0.031042337  0.032467937            1 
  230000    1.2293542   -7.2365047    85.744062  0.031066689  0.032457423            1 
  231000    1.2112063   -7.1815062    85.786629  0.030947557  0.032444734            1 
  232000    1.1919697    -7.227034    86.208017  0.030965523  0.032431996            1 
  233000    1.2102483   -7.2166462    86.715824  0.031014243  0.032422084            1 
  234000    1.2332172   -7.1624311    87.296528  0.031088507  0.032411763            2 
  235000    1.2114452    -7.218152    87.254423  0.030941285  0.032402695            1 
  236000    1.2284571   -7.2067575    88.150171  0.031126473  0.032394411            2 
  237000    1.2108835   -7.1899122    88.368422  0.031071878  0.032386044            2 
  238000    1.2057059   -7.1842406    88.467625  0.030976059  0.032377005            1 
  239000    1.1745093   -7.1946318    89.196971  0.031100757  0.032367006            2 
  240000    1.1958865   -7.1786382    89.377206  0.031033752  0.032357662            1 
  241000    1.2374902   -7.1802384    89.352866  0.030896565  0.032346691            1 
  242000    1.2130024   -7.1885882    89.768348  0.030911966  0.032334904            1 
  243000    1.2066801   -7.2019152    89.886479  0.030825267  0.032321607            1 
  244000    1.2124261   -7.2017748    90.349501   0.03085707  0.032306224            1 
  245000    1.2033181   -7.1483698    90.477103  0.030774525  0.032290753            2 
  246000    1.2292486   -7.1972072    91.174402  0.030885638  0.032277978            1 
  247000    1.2058861   -7.1733883    91.347341  0.030818941  0.032264122            4 
  248000     1.208429   -7.2158014    91.524352  0.030754151  0.032249862            2 
  249000    1.2049959   -7.1609215    92.493005  0.030954821  0.032235018            1 
  250000    1.1962118   -7.2073196    92.487609  0.030829203  0.032223128            2 
  251000    1.2098344   -7.1617632    93.282815   0.03097039   0.03221191            1 
  252000    1.2123594   -7.1860376    93.766185  0.031007336  0.032202493            3 
  253000    1.1955516   -7.1869702    94.153665  0.031012406  0.032194985            3 
  254000    1.2092761   -7.1912578    94.532906  0.031014733  0.032186905            1 
  255000    1.2319749   -7.1883747    94.972067  0.031036623   0.03217865            1 
  256000    1.1868595   -7.1809272    95.525437   0.03109552  0.032171803            3 
  257000    1.2161411   -7.2352097    95.886025  0.031091448   0.03216695            2 
  258000    1.2083356   -7.2354588    96.257883  0.031091047  0.032162564            1 
  259000    1.2177954   -7.1954147    96.700245  0.031113335  0.032157713            1 
  260000    1.2197695   -7.2015432    97.171446  0.031144694  0.032152101            1 
  261000    1.2321511   -7.2353254     97.49857  0.031129811  0.032148251            3 
  262000     1.218219   -7.2049719    98.340324  0.031278729  0.032145205            2 
  263000    1.2157025    -7.170831    98.786551  0.031301189  0.032143991            3 
  264000    1.2367059   -7.2007786    98.683527  0.031150103  0.032140801            4 
  265000    1.2017596    -7.234174    99.008426  0.031134725  0.032136149            2 
  266000    1.2037327    -7.245037    99.506376  0.031173677  0.032132513            1 
  267000    1.2113465   -7.1458989    100.27832  0.031297853  0.032129721            3 
  268000    1.2273849   -7.1799681    100.35877  0.031206085  0.032126013       -1e+20 
  269000    1.2115191   -7.2109297    100.36277  0.031091317  0.032121556            1 
  270000    1.2256538   -7.1746013    100.78486  0.031106438  0.032115561            2 
  271000    1.2131374   -7.1520004    101.42378  0.031188125  0.032110341            1 
  272000    1.2018569   -7.1858428    102.01065  0.031253263  0.032106735            1 
  273000    1.1888061   -7.1823342    101.86779  0.031095175  0.032102087            2 
  274000    1.1908381   -7.2020868    101.94151  0.031004109  0.032095261            2 
  275000    1.2364168   -7.1548724    102.43016  0.031039443  0.032090557            1 
  276000     1.198776   -7.1883048    103.35722   0.03120689  0.032086326            2 
  277000    1.1833207   -7.1885741     103.6503  0.031182402  0.032082582            2 
  278000    1.2178654   -7.2249221    103.91803  0.031150487  0.032078797            2 
  279000    1.2137344   -7.1862008    104.22714  0.031131164  0.032073452            2 
  280000    1.2069619   -7.1733478    104.81588  0.031195201  0.032069062            1 
  281000    1.2131474   -7.2218542     104.6515  0.031035438  0.032064199            2 
  282000    1.2004943    -7.216091    105.35384  0.031132931  0.032059891            2 
  283000    1.1804486   -7.2061605    105.88196  0.031178432  0.032056799            2 
  284000    1.1999037    -7.206414     105.8197  0.031050383  0.032050262            1 
  285000    1.2300161   -7.2184848    105.52587  0.030855516  0.032042873            1 
  286000     1.224793   -7.2375244    105.88336  0.030851795  0.032034285            2 
  287000    1.2318285   -7.2205998    106.77168   0.03100223  0.032026023            2 
  288000    1.1982084   -7.2309769    107.33126    0.0310565  0.032019693            2 
  289000    1.2195253   -7.2169852     107.3609  0.030957584  0.032014115            3 
  290000    1.1852148   -7.2213945    107.82709  0.030984796  0.032007703            2 
  291000    1.2093449   -7.1788431     108.3339  0.031023455  0.032001772            1 
  292000    1.2122588   -7.2441327    108.55888  0.030981415  0.031996339            2 
  293000    1.2072187   -7.2481238    109.13091  0.031038371  0.031991255            2 
  294000    1.2135396   -7.1331196    110.71066  0.031380571  0.031989088            2 
  295000    1.1801873   -7.1893025    110.36942  0.031177803  0.031986936            2 
  296000    1.1970529   -7.2064967    110.68201  0.031160474  0.031983916            2 
  297000    1.1983032   -7.2417026    110.63522   0.03104243  0.031980241            3 
  298000    1.2227066   -7.1601616    111.45824  0.031168412   0.03197584            2 
  299000      1.22877   -7.2163572    111.41954  0.031053385  0.031970658            1 
  300000    1.2230484   -7.1902237    112.21608  0.031171133  0.031966533            1 
  301000    1.1854673   -7.2634432    111.82893   0.03096039  0.031962332            1 
  302000    1.1910031   -7.2132821    112.84805  0.031139086  0.031957963            1 
  303000    1.2054947    -7.219612    113.27579  0.031153957  0.031954148            2 
  304000    1.2193057   -7.2068268    114.07264  0.031269911  0.031951083            5 
  305000    1.2092443   -7.2006468    114.05336   0.03116212  0.031948032            2 
  306000     1.203824   -7.1867165    114.14322  0.031084754  0.031944359            2 
  307000    1.2170998    -7.231269    114.14606  0.030984273   0.03193905            1 
  308000    1.2372508   -7.2103988    115.22633  0.031175955  0.031933881            3 
  309000      1.20498   -7.1879397    115.44258  0.031133381  0.031929983            2 
  310000    1.2106393   -7.1721884    115.81466  0.031132973  0.031925643            1 
  311000    1.2024153     -7.19586    115.86744  0.031047009  0.031919825            2 
  312000    1.1810122    -7.191767     116.1165  0.031014022  0.031913602            1 
  313000     1.188456   -7.1749412    116.66204   0.03106018  0.031907663            3 
  314000    1.2326465     -7.17799    117.01511  0.031054965  0.031902818            2 
  315000     1.200235   -7.1819768    118.26748  0.031287693  0.031898539            1 
  316000    1.2207992   -7.2331113    117.35256  0.030947404  0.031893486            1 
  317000    1.1821408   -7.2203066    118.41028  0.031127833  0.031889328            2 
  318000    1.2204179   -7.1961382    118.74271  0.031117062  0.031886015            2 
  319000    1.1772719   -7.2050234    118.96101  0.031076543  0.031881565            1 
  320000    1.2026026   -7.2263066    119.57808  0.031140124  0.031876646            4 
  321000    1.1926566   -7.2195302    119.88754  0.031123452  0.031873119            3 
  322000     1.163623   -7.2271117    120.05856  0.031071055  0.031869183            2 
  323000    1.1835195   -7.2526497    120.22601  0.031018062  0.031865264            1 
  324000    1.2100899   -7.2291451    120.78435  0.031065932  0.031860978            1 
  325000    1.1796827   -7.2235325    121.26357  0.031093223  0.031857079            1 
  326000    1.2084346   -7.2368533    121.38303  0.031028382    0.0318525            4 
  327000    1.1982095   -7.2094432    122.04571  0.031102371  0.031847938            2 
  328000    1.1806581   -7.2281106    122.09865  0.031020999  0.031844247            3 
  329000    1.1999039   -7.2191275    122.61525  0.031057561  0.031838763            1 
  330000    1.2050737   -7.2255359    121.87354  0.030776146  0.031833172            1 
  331000    1.1963819   -7.2054752    123.36081  0.031057606  0.031825834            1 
  332000    1.2025584   -7.2435793    123.17892  0.030918404  0.031818009            1 
  333000    1.1625037   -7.2295336    123.51547  0.030909776  0.031810149            1 
  334000    1.1957826   -7.1785327    123.87383  0.030906644  0.031803429            1 
  335000    1.1943813   -7.2091303    124.13413  0.030879136  0.031796924            2 
  336000    1.1923468    -7.193832    124.63105  0.030910479  0.031790599            3 
  337000    1.2134292    -7.147289    125.08276  0.030930456  0.031785013            2 
  338000     1.194914   -7.2481815    125.37039   0.03090986  0.031779547            2 
  339000    1.1658006   -7.2319582    126.14909    0.0310101  0.031774207            1 
  340000    1.2108471   -7.1965697    125.98729  0.030879239   0.03176809            1 
  341000    1.1874917   -7.2086968    126.98073  0.031031459  0.031763021            1 
  342000     1.203702   -7.1816211    127.11559  0.030973584  0.031758029            1 
  343000     1.214877   -7.2512505    127.48506  0.030973046   0.03175282            1 
  344000    1.1929061   -7.2456766     128.0569  0.031021537  0.031748142            2 
  345000    1.1928207   -7.2096656    128.39626   0.03101359   0.03174339            2 
  346000    1.1997958   -7.2000567    129.13788  0.031102572   0.03173875            1 
  347000    1.1920034   -7.2458842    129.34061  0.031061627  0.031735499            2 
  348000    1.2060316   -7.2141437    129.40051  0.030986713   0.03173022            1 
  349000    1.1760712   -7.2233829    129.53812  0.030930783  0.031725095            2 
  350000    1.2055875   -7.1995991     130.0129  0.030955453  0.031719565            3 
  351000    1.2106663   -7.1929923    130.16086  0.030902389  0.031713978            3 
  352000    1.1618196   -7.2416379    130.71411  0.030945575  0.031708296            2 
  353000    1.1905352   -7.1975811    131.25275  0.030985069  0.031702548            1 
  354000     1.245893   -7.1987177    131.37159  0.030925514  0.031696823            1 
  355000    1.1899127   -7.2136428    132.29818  0.031055911  0.031691279            1 
  356000    1.2193974   -7.2586504    132.03455  0.030906964  0.031685719            1 
  357000    1.1922012   -7.2548217    132.43172  0.030913099  0.031681023            3 
  358000    1.1713522   -7.2345246    133.27759  0.031023648  0.031677222            2 
  359000    1.1825996   -7.2072951    133.96643  0.031097128  0.031673262            2 
  360000    1.1954741   -7.2055793    134.10737  0.031043372  0.031670649            3 
  361000     1.220375   -7.2207377    134.31932  0.031006307  0.031666556            2 
  362000    1.1934781   -7.2438192    134.86592  0.031046482  0.031661626            1 
  363000    1.1793239   -7.2567837    134.86309  0.030960306  0.031657431       -1e+20 
  364000    1.1839445   -7.2319961    135.48428  0.031017462   0.03165271            2 
  365000    1.1919502   -7.2173485    136.33215  0.031126063  0.031649363            1 
  366000    1.2220001   -7.2268367    137.22754  0.031244885  0.031647792            1 
  367000    1.2136994   -7.1854808    137.55651  0.031234449  0.031646535            2 
  368000    1.1729635   -7.1866473    138.07977  0.031268064  0.031645952            2 
  369000    1.2092999   -7.2150824    137.60436  0.031075962  0.031644787            5 
  370000    1.2026149   -7.2508028    137.92261  0.031063651  0.031643114            1 
  371000    1.1953264   -7.2591047    138.20316  0.031042937  0.031641374            1 
  372000    1.1924222   -7.2388755    139.08067  0.031156065  0.031639622            2 
  373000    1.1988755   -7.2160692    139.55714  0.031178985  0.031638459            1 
  374000    1.1956149   -7.2489596    139.58332  0.031101453  0.031638086            4 
  375000     1.188897   -7.2838222    140.17348  0.031149662  0.031636815            2 
  376000    1.2095609   -7.2556611    140.49105    0.0311372  0.031635411            2 
  377000     1.162791   -7.2280176    141.23531  0.031219122  0.031635885            2 
  378000    1.1750586   -7.2339983     141.6672  0.031231746  0.031636503            2 
  379000    1.1994422   -7.2521874    142.17717  0.031261471  0.031637927            3 
  380000    1.2158829   -7.2549733    143.02347  0.031364796   0.03163956            3 
  381000      1.17239   -7.2471569    143.51779  0.031390592   0.03164142            2 
  382000    1.2025983    -7.231851    143.86671  0.031384536  0.031643042            3 
  383000    1.2220796   -7.2445982    143.82589  0.031293709  0.031645373            1 
  384000    1.1853313   -7.2156969    144.38647  0.031333868  0.031646763            6 
  385000    1.1930479   -7.2556924    144.80097  0.031342202  0.031648031            2 
  386000    1.1899444   -7.2050098    144.97798  0.031299219  0.031649651            1 
  387000    1.1895894   -7.2422086    145.72842  0.031379935  0.031650239            2 
  388000    1.1727114   -7.2225301     145.7874  0.031311727  0.031651891            2 
  389000    1.1919472   -7.2709343    145.84241  0.031243019  0.031652486            2 
  390000    1.1740669   -7.2162603    146.01103  0.031198939  0.031652507            2 
  391000    1.2324427   -7.2153056    146.72443  0.031271192  0.031652411            1 
  392000    1.1929927   -7.2852008    146.33091  0.031107762  0.031651552            1 
  393000    1.1903324   -7.2207747    147.22386  0.031217951  0.031650292            2 
  394000     1.181212   -7.2338231    147.69348  0.031238045   0.03165002            2 
  395000    1.2366095   -7.2283823    147.77059  0.031175231  0.031649155            1 
  396000    1.1931336   -7.2585797    148.06984  0.031159477  0.031648409            3 
  397000    1.2033567   -7.2265472    148.38877  0.031147936   0.03164724            1 
  398000    1.2065883   -7.2369725    148.78733  0.031153127  0.031646033            1 
  399000     1.197149   -7.2267601    149.50882  0.031225736  0.031644753            1 
  400000    1.1934184   -7.2324141    149.88144    0.0312253  0.031644523            2 
  401000    1.1772703   -7.2495137    149.64463  0.031098219  0.031643269            2 
  402000    1.1936594   -7.2325858    150.85591  0.031271955  0.031641414            2 
  403000    1.1880154   -7.2253775    150.72034  0.031166323  0.031639696            2 
  404000    1.1700583   -7.2637278    150.47434  0.031038436  0.031636819            1 
  405000    1.1812622   -7.2971127    150.22312  0.030910107  0.031633265            1 
  406000    1.2192636   -7.2659985    150.70605  0.030933097  0.031629803            3 
  407000    1.1834747   -7.2364475    151.39083  0.030997303  0.031626399            1 
  408000    1.2134817   -7.2495883    151.74724  0.030994125  0.031622696            2 
  409000     1.200957   -7.2727048    152.25247  0.031021285  0.031619738            2 
  410000    1.1829462   -7.2296026    151.63124  0.030819358  0.031615856            1 
  411000    1.1922151   -7.2178567    152.63518  0.030947928  0.031611582            1 
  412000    1.1832289   -7.2095362    153.08964  0.030964733   0.03160762            1 
  413000    1.1899936   -7.2440178    153.35456  0.030943212  0.031603932            2 
  414000    1.1859342   -7.2360059    154.14952  0.031028487  0.031599899            3 
  415000    1.1822612   -7.2327095    154.14251  0.030952311  0.031596064            1 
  416000    1.2005334   -7.2733234    154.65356  0.030980281  0.031592574            1 
  417000    1.1923344   -7.3026679    155.49544  0.031074228  0.031588832            2 
  418000    1.1994274    -7.242161    155.73975  0.031048595  0.031586029            1 
  419000    1.1752189   -7.2682196    155.52378  0.030931539  0.031583216            1 
  420000    1.2031939   -7.2469471    156.57309   0.03106609  0.031580089            1 
  421000    1.2062504   -7.1855868    156.80253  0.031037713  0.031576724            2 
  422000    1.1860001   -7.2929066    156.72315   0.03094849  0.031573628            2 
  423000    1.1774646   -7.2679159    157.44999  0.031018516  0.031570548            1 
  424000    1.1698685    -7.212727     158.1533  0.031083589  0.031567846            1 
  425000    1.1972869    -7.266249    158.00953   0.03098226  0.031564745            1 
  426000    1.1912492   -7.2449214    158.44203  0.030994137   0.03156195            1 
  427000     1.168293   -7.2610007    158.29361  0.030892586  0.031558989            1 
  428000    1.1907274   -7.2388013    159.11896  0.030981107  0.031555059            1 
  429000    1.2014066   -7.2446833    159.26977  0.030938185  0.031550912            2 
  430000    1.1810813    -7.206804    159.74849   0.03095901  0.031547164            5 
  431000    1.1946946   -7.2189382    160.00173  0.030936142  0.031543088            3 
  432000    1.1976624   -7.2295988    160.35507  0.030932691  0.031538552            2 
  433000    1.1734649   -7.2293447    160.75609  0.030938431  0.031533778            3 
  434000    1.1891009   -7.2640867    160.82025  0.030879464  0.031529111            1 
  435000    1.1596182    -7.235385    161.55696  0.030949609  0.031524832            2 
  436000    1.1857074   -7.2682307    161.61211  0.030889164  0.031520337            1 
  437000    1.1646556   -7.2360332     162.4954  0.030986918  0.031515473            1 
  438000    1.1886689    -7.299302    162.43845  0.030905337  0.031510793            2 
  439000    1.1915568   -7.2661374    162.29307   0.03080734  0.031505309            1 
  440000    1.1636715   -7.2239615    163.37632  0.030942484  0.031500164            2 
  441000    1.2037314   -7.2703893    162.53642  0.030713609  0.031495258            1 
  442000    1.1650166   -7.2661807    163.31399  0.030790723  0.031489837            2 
  443000    1.1979128   -7.2889299    163.06624  0.030674613  0.031484262            2 
  444000    1.1729446   -7.2277724    164.75686  0.030922834  0.031479189            2 
  445000    1.1843924   -7.2503176    164.70903  0.030844388  0.031474337            1 
  446000    1.1715003   -7.2482778    165.20582  0.030868054  0.031469633            1 
  447000    1.1809767   -7.2780971    165.16529  0.030791442  0.031465391            2 
  448000    1.1685877   -7.2622402    165.75594  0.030832579  0.031461212            1 
  449000    1.1642526   -7.2028459     166.3605  0.030876113  0.031456854            2 
  450000    1.1781012   -7.3145508    166.84053  0.030896395  0.031452888            3 
  451000    1.1544402   -7.2704102    167.40807  0.030932755  0.031448839            2 
  452000    1.1809321   -7.2584048    167.81467  0.030939282  0.031445525            2 
  453000    1.1793527   -7.2523988    168.18002  0.030938194  0.031441976            1 
  454000    1.2061872    -7.254369    168.53223  0.030934697  0.031438885            2 
  455000    1.1733506   -7.2510731    168.08647  0.030785068  0.031435336            2 
  456000    1.1953368   -7.2775414    168.70937   0.03083139  0.031430283            1 
  457000    1.1911328   -7.3013077    168.93491  0.030805053  0.031425236            2 
  458000    1.1887407   -7.2717789     169.5387  0.030847652  0.031420982            2 
  459000    1.1683785   -7.2631536    170.59371  0.030971988  0.031416939            2 
  460000    1.2310053   -7.2549775    170.43233  0.030875422  0.031412977            1 
  461000    1.1698624   -7.2907148    170.62379  0.030843057   0.03140871            2 
  462000    1.1803574   -7.2612343    171.18235  0.030877047   0.03140451            1 
  463000    1.1798462   -7.2975933    171.79184  0.030920057  0.031400472            4 
  464000    1.1771702   -7.2756953    171.36631  0.030776996  0.031396663            3 
  465000    1.1936456   -7.2836546    171.83414  0.030794648  0.031392824            2 
  466000    1.2231057   -7.2648597    172.42662  0.030834517  0.031389076            1 
  467000    1.1763459   -7.2661896    172.47945  0.030777917  0.031385594            1 
  468000    1.1682652   -7.2524204     172.8244  0.030773575  0.031380337            1 
  469000    1.2016882   -7.3487208    173.20427  0.030775457  0.031375776            1 
  470000    1.1585128   -7.2846879    173.26991  0.030721615  0.031370694            2 
  471000    1.2034294   -7.2177365    174.63805  0.030898451  0.031366352            2 
  472000       1.1761   -7.2785656    174.71331  0.030846276  0.031361911            1 
  473000    1.1696909   -7.2671836    174.90015  0.030813979  0.031358195            2 
  474000    1.1955508   -7.2335405    175.43169  0.030842422  0.031354019            3 
  475000    1.1646967   -7.2713412    175.52468  0.030793803  0.031350253            2 
  476000    1.1690309   -7.2322256     176.1079  0.030831214  0.031346788            1 
  477000    1.1602986   -7.3021496    176.17556  0.030778399  0.031342905            1 
  478000    1.1711297   -7.2720584    176.76866  0.030817409  0.031338344            2 
  479000    1.1549875   -7.2546755     176.9911  0.030791771  0.031333805            2 
  480000    1.1542938    -7.259217    177.87229  0.030880606  0.031329727            1 
  481000    1.1728857   -7.2483394    177.69179  0.030785133  0.031325414            2 
  482000     1.177808   -7.2888995    177.67107  0.030717682  0.031320857            2 
  483000    1.1586138   -7.2599581    178.29844  0.030762325  0.031316566            2 
  484000    1.1747465   -7.2203639    179.13952  0.030843582  0.031312276            3 
  485000    1.1708135   -7.3029487    178.43268  0.030658536   0.03130799            1 
  486000    1.1607668   -7.3031449    179.12377  0.030713953  0.031303788            3 
  487000    1.1711593   -7.2623114    179.38523  0.030695624  0.031299846            3 
  488000    1.1553793   -7.2773203    180.47234  0.030818364  0.031295518            3 
  489000    1.1764549   -7.2770087     180.3556  0.030735446  0.031290829            3 
  490000    1.1794638   -7.3177014    179.25145   0.03048494  0.031285513            5 
  491000    1.1673818   -7.2505877    180.29931  0.030600698  0.031279518            2 
  492000    1.1680671   -7.2552362    180.67199  0.030601625   0.03127314            2 
  493000    1.1554102   -7.2495091    181.10097  0.030612064  0.031267027            1 
  494000    1.1615335   -7.2568181    181.72424  0.030655236  0.031261166            1 
  495000    1.1780382   -7.3007955    181.41146   0.03054065  0.031255247            2 
  496000     1.167534   -7.3034514    181.93612  0.030567225  0.031248719            1 
  497000    1.1669689   -7.2957385     182.2402  0.030556707  0.031242301            2 
  498000    1.1949047   -7.2766167    182.26678  0.030499796  0.031235801            2 
  499000    1.1710261   -7.2424162    182.75012  0.030519393  0.031229344            2 
  500000    1.1402685   -7.2687437    183.14972  0.030524953  0.031223214            2 
  501000    1.1389442   -7.2710598    183.88392  0.030586148  0.031216935            2 
  502000    1.1860964   -7.2692427     184.5977  0.030643709   0.03121119            1 
  503000    1.1804406   -7.3110291    184.04946  0.030491959  0.031204934            1 
  504000    1.1637964   -7.3054213    184.45865  0.030499115   0.03119804            2 
  505000    1.1644426   -7.3123922     185.0675  0.030539192  0.031191372            2 
  506000    1.1687183    -7.281173    185.62612  0.030570836  0.031184911            1 
  507000    1.1608161   -7.3019534    184.94071  0.030397882  0.031178699            2 
  508000    1.1923812   -7.2863853    186.29148  0.030559627  0.031172483            1 
  509000    1.2111263   -7.2796133    186.40351  0.030517929  0.031166416            1 
  510000    1.1327925   -7.3046865    186.60704  0.030491347  0.031160637            1 
  511000    1.1769186   -7.2998013    186.67332  0.030442486  0.031154649            4 
  512000    1.1864021   -7.2777981    187.09124  0.030451049  0.031149092            1 
  513000    1.1886062    -7.285338    187.85556  0.030515847  0.031143612            5 
  514000     1.196229    -7.291003    188.65064  0.030585382  0.031138664            2 
  515000    1.1551212   -7.2974923    188.92664  0.030570654  0.031133109            2 
  516000    1.1592724   -7.3450255     187.8114  0.030331299  0.031126969            1 
  517000    1.1567019   -7.2767719    189.20616  0.030497446  0.031121086            1 
  518000    1.1835497   -7.3146825    189.51838    0.0304888  0.031115432            1 
  519000    1.1828166    -7.273728     190.0251  0.030511416  0.031109812            2 
  520000    1.1773659   -7.2903867     190.5265  0.030533093  0.031104257            5 
  521000    1.1694906   -7.2684608    190.59579  0.030485571  0.031098435            1 
  522000    1.1539308   -7.2624264    191.27789  0.030536062  0.031092908            2 
  523000    1.1543976   -7.2804673      191.653  0.030537445  0.031087864            1 
  524000    1.1670764   -7.3010358    191.69954  0.030486568  0.031081864            1 
  525000    1.1816065   -7.2695751    192.84676  0.030610597   0.03107681            1 
  526000     1.166412   -7.2749694    193.01757  0.030579462  0.031072044            1 
  527000    1.1536806   -7.3165158    192.83063  0.030491878  0.031066687            1 
  528000    1.1505307   -7.2863378    193.12471  0.030480542  0.031060555            2 
  529000    1.1546733   -7.3326518    192.60217  0.030340606  0.031054592            1 
  530000    1.1784547   -7.2780974    193.15193  0.030369801  0.031048315            2 
  531000    1.1698353    -7.270172    193.54821  0.030374797  0.031041752            3 
  532000    1.1618891   -7.3204982    193.82161  0.030360528  0.031035769            1 
  533000    1.1620079    -7.262182    194.89194   0.03047091  0.031029687       -1e+20 
  534000    1.1653593   -7.3283997    194.15038  0.030298125  0.031023374            1 
  535000    1.1793564   -7.2861996    195.20848  0.030406305  0.031016718            2 
  536000    1.1515446   -7.3107918    195.53806  0.030400817   0.03101073            2 
  537000    1.1869509    -7.284055    196.36355  0.030472308  0.031004918            1 
  538000    1.1718781   -7.3151839    195.95576  0.030352503   0.03099924            2 
  539000    1.1578263   -7.3070787    197.64307  0.030557061  0.030994486            1 
  540000    1.1684955   -7.2504899    198.09487  0.030570196  0.030989592            2 
  541000     1.158197   -7.3515847    197.16161  0.030369934  0.030984592            1 
  542000    1.1550949   -7.3118697    198.05221  0.030450832  0.030979585            1 
  543000     1.144183   -7.3171065     198.3658  0.030442879  0.030974852            1 
  544000    1.1601203   -7.2943996    198.61284  0.030424761  0.030969955            1 
  545000     1.183995   -7.3028107    199.18112  0.030455829  0.030965067            2 
  546000    1.1705902   -7.3218464    199.48078  0.030445784  0.030959426            3 
  547000    1.2062162   -7.3124667    199.71623  0.030425994  0.030953716            2 
  548000    1.1616603   -7.2999655    200.15565  0.030437294  0.030948651            1 
  549000    1.1639588   -7.3025369    200.15765  0.030382157  0.030943145            1 
  550000    1.1658041   -7.3052934    200.44668  0.030370709  0.030937437            2 
  551000    1.1801978   -7.3145458    200.29612  0.030292819  0.030932047            1 
  552000    1.1793865   -7.2777039    200.90961  0.030330556  0.030926615            1 
  553000    1.1511031   -7.3128729    201.80962  0.030411334  0.030921268            3 
  554000    1.1563308   -7.3216592    202.42779  0.030449427  0.030915862            4 
  555000    1.1535328   -7.3269441       202.35  0.030382882  0.030910537            1 
  556000     1.168839   -7.2905361    203.43667  0.030491108  0.030905768            2 
  557000    1.1761975   -7.3167317    203.82407  0.030494325   0.03090167            1 
  558000    1.1362059   -7.3206359    203.68757   0.03041929   0.03089732            2 
  559000    1.1494663   -7.3216701    203.91301  0.030398481   0.03089309            3 
  560000    1.1467844   -7.3207603    204.39367  0.030415725  0.030888424            2 
  561000    1.1980995   -7.3148052    205.01533  0.030453851   0.03088419            2 
  562000    1.1574857   -7.2960461    205.70833  0.030502421  0.030880082            2 
  563000    1.1797384   -7.3482059    205.82225  0.030465105   0.03087659            1 
  564000    1.1864915   -7.3242169    206.58953  0.030524457  0.030873379            6 
  565000    1.1600757   -7.3256755    206.70779  0.030487874  0.030869614            5 
  566000    1.1563484    -7.298078    207.07353  0.030487858  0.030865483            1 
  567000    1.1523304   -7.3257725     206.7329  0.030384023  0.030861302            1 
  568000    1.1693846   -7.2888499    207.67714  0.030469064  0.030857325            2 
  569000    1.1561239   -7.2761545    207.95071  0.030455581  0.030853928            2 
  570000    1.1518289   -7.3268822    208.25011  0.030445922  0.030850182            2 
  571000    1.1862827   -7.3097771    208.15454  0.030378654  0.030845771            1 
  572000    1.1506024   -7.3085545    208.60816  0.030391631   0.03084191            2 
  573000    1.1790944   -7.3235241    208.68769  0.030350158  0.030837159            1 
  574000    1.1363457   -7.3224982    209.30231  0.030386514  0.030831869            2 
  575000    1.1674773   -7.2754262    209.74187  0.030397373  0.030827058            2 
  576000    1.1678943   -7.3221034    209.36752   0.03029044  0.030822376            2 
  577000    1.1619513   -7.2724573    210.56505  0.030410897  0.030818009            1 
  578000    1.1393485   -7.3301985    210.36493   0.03032943  0.030813328            1 
  579000    1.1623492    -7.324168    210.86247  0.030348657  0.030808564            3 
  580000    1.1464582   -7.3219197    210.81511  0.030289527  0.030803472            1 
  581000    1.1709883   -7.3192877    211.47592  0.030332174  0.030798391            1 
  582000    1.1543374   -7.2725178    212.15253  0.030376937  0.030793456            4 
  583000    1.1546902   -7.3223339    211.79363  0.030273532  0.030788423            1 
  584000    1.1549561   -7.3231798    211.93611  0.030242024  0.030783085            3 
  585000    1.1408287   -7.3434775    211.84104  0.030176786  0.030777712            3 
  586000    1.1626487   -7.3231809      213.035  0.030295079   0.03077192            1 
  587000     1.159395    -7.288396    213.30406  0.030281667   0.03076672            1 
  588000    1.1655331   -7.2968636     214.0673  0.030338337  0.030761762            2 
  589000     1.158146   -7.3966366    213.92535  0.030266745  0.030756835            1 
  590000    1.1665708    -7.289924    214.62851  0.030314761  0.030752044            2 
  591000    1.1637638   -7.2897961    215.58939  0.030398954  0.030747538            4 
  592000    1.1447017   -7.2792472    215.81131  0.030378844  0.030743306       -1e+20 
  593000    1.1465054   -7.3043392    215.31972  0.030258534  0.030738695            1 
  594000     1.160083   -7.2790461    215.65722  0.030254941  0.030733612            2 
  595000    1.1548319   -7.3470165    215.79647  0.030223595  0.030728247            2 
  596000    1.1864716   -7.3144473     217.0947  0.030354404  0.030723599            1 
  597000    1.1623929   -7.3094923    217.19928  0.030318157  0.030719051            1 
  598000    1.1361717   -7.3233702    217.14819  0.030260338  0.030714614            4 
  599000    1.1574563   -7.3443438    216.57793  0.030130485  0.030709945            3 
  600000    1.1468204   -7.2829349    218.20547  0.030306316  0.030704646            1 
  601000     1.150235   -7.3335876    217.28171  0.030127803  0.030699299            1 
  602000    1.1712303   -7.3214005    217.84353  0.030155527  0.030693489            2 
  603000    1.1514883   -7.3232491    218.09006  0.030139588  0.030687824            1 
  604000    1.1579114   -7.2901232    218.08588  0.030089112  0.030681709            1 
  605000    1.1370205   -7.3744168    218.27687  0.030065685  0.030675767            2 
  606000    1.1820014   -7.3233707    217.49343  0.029908337  0.030669096            1 
  607000    1.1718353   -7.3237952    219.05959  0.030074079  0.030662271            1 
  608000    1.1607294   -7.3260926    219.47036  0.030080916  0.030656021            2 
  609000     1.146355   -7.3424044    218.93674  0.029958503  0.030649133            1 
  610000    1.1569482   -7.3186107    220.42185  0.030112275  0.030642414            2 
  611000    1.1704004    -7.309938    219.72727  0.029968258  0.030635242            1 
  612000    1.1700288   -7.3004446    220.41139  0.030012444  0.030628527            2 
  613000    1.1530518   -7.3066161    220.39275   0.02996095  0.030621804            2 
  614000    1.1482937   -7.3041251    220.36258  0.029908059  0.030615061            2 
  615000    1.1570076   -7.3458095    220.65288  0.029898765  0.030608093            2 
  616000    1.1658052   -7.3052411    222.23814  0.030064684  0.030601144            1 
  617000    1.1590234   -7.3292529    221.83833  0.029961958  0.030594242            1 
  618000    1.1600981   -7.3420082    222.10629  0.029949608  0.030587215            2 
  619000    1.1657645   -7.2804064    222.63755  0.029972744  0.030580327            1 
  620000    1.1414727   -7.2991832    223.22699  0.030003628  0.030573569            2 
  621000    1.1735429   -7.3330759    223.37329  0.029974945  0.030566363            1 
  622000    1.1506525   -7.3399899    223.48615  0.029941874  0.030559514            2 
  623000    1.1401662   -7.3257257    223.04148  0.029834334  0.030552153            1 
  624000     1.168391   -7.3436882    223.68068  0.029871885  0.030544625            1 
  625000    1.1530117   -7.3196096    223.33521  0.029778028   0.03053697            2 
  626000    1.1305435   -7.3570407    223.44478  0.029745045  0.030528892            2 
  627000    1.1429461   -7.3706137    223.90534  0.029758817  0.030520774            2 
  628000    1.1287724   -7.3565065    223.78207  0.029695074  0.030513163            2 
  629000    1.1488507   -7.3522452     224.6762  0.029766323  0.030505554            2 
  630000    1.1785894    -7.366447    225.11091  0.029776575  0.030497636            2 
  631000    1.1548093   -7.2905985    225.51341  0.029782542  0.030489818            1 
  632000    1.1452886   -7.3024868    225.48158  0.029731221  0.030481292            3 
  633000    1.1741446   -7.3311947    225.06975  0.029630036  0.030472635            2 
  634000    1.1447716   -7.3259993     225.3971  0.029626328  0.030463751            2 
  635000    1.1543012   -7.2950138    226.74315  0.029756319  0.030454703            1 
  636000    1.1394517   -7.3425732    225.69631  0.029572368  0.030445786            1 
  637000    1.1710871   -7.3213544    226.63926  0.029649301  0.030436478            2 
  638000    1.1569495   -7.3578614     226.3304  0.029562487  0.030427568            2 
  639000    1.1440973   -7.3284184    227.08171  0.029614203   0.03041839            2 
  640000     1.122038   -7.3394061    227.85038  0.029668018  0.030409611            2 
  641000    1.1283068   -7.3557787    227.69511  0.029601549  0.030400476            2 
  642000    1.1705688    -7.326071    228.05877  0.029602644  0.030391816            2 
  643000    1.1615364   -7.3789135    227.88233  0.029533739  0.030382767            1 
  644000    1.1404263    -7.303186    228.78286  0.029604408  0.030373762            3 
  645000    1.1258552    -7.308876    228.75297  0.029554647  0.030364538            1 
  646000    1.1699047   -7.3277602    228.88511  0.029525942  0.030354911            2 
  647000    1.1838255   -7.3380983    229.04034  0.029500301  0.030345598            3 
  648000    1.1590781   -7.3497514    228.76498  0.029419365  0.030335891            1 
  649000     1.135087   -7.3558359    229.68192  0.029491772  0.030326404            2 
  650000    1.1659129   -7.3576994    229.41132  0.029411708  0.030316983            1 
  651000    1.1652188   -7.3246017    230.04446  0.029447575  0.030307232            7 
  652000    1.1318091   -7.3354398    229.59741  0.029345272  0.030297441            2 
  653000    1.1503118    -7.334267    230.01739  0.029353929  0.030287572            1 
  654000    1.1329891   -7.3164692    231.36896  0.029481264    0.0302778            4 
  655000    1.1713453   -7.3553759    231.20047  0.029414818  0.030267965            4 
  656000    1.1584581   -7.3630136    232.00985  0.029472796  0.030258393            2 
  657000    1.1587833   -7.3234435    231.69105    0.0293875  0.030248863            3 
  658000     1.155417   -7.3019739    232.65801    0.0294653  0.030239834            3 
  659000    1.1813024   -7.2798487    233.49503  0.029526433  0.030230805            1 
  660000    1.1386909   -7.3763877     232.4858  0.029354267  0.030221791            2 
  661000    1.1298326   -7.3747046    233.27696  0.029409601  0.030212692            1 
  662000    1.1298561   -7.3479806    233.46854  0.029389292  0.030203696            3 
  663000    1.1135407   -7.3095909    234.46913  0.029470731  0.030194708            2 
  664000    1.1609362   -7.3116669    234.68701  0.029453691  0.030185927            2 
  665000    1.1409719   -7.2773782    235.46788  0.029507253  0.030177175            1 
  666000    1.1387853   -7.3444073    235.61006  0.029480739  0.030168587            2 
  667000     1.155207   -7.3490245    235.20385  0.029385788  0.030159757            1 
  668000    1.1451476   -7.3277928    235.72369  0.029406648  0.030151041            1 
  669000    1.1518335   -7.2713004    237.33195  0.029563023  0.030142968            2 
  670000    1.1452731   -7.3483775    236.08178  0.029363405  0.030134658            1 
  671000    1.1152669   -7.3345703    236.43928  0.029364044  0.030126038            2 
  672000    1.1352528   -7.3504567    236.74676  0.029358477  0.030117253            2 
  673000     1.139086   -7.3623646    236.58031  0.029294243   0.03010836            1 
  674000    1.1394049   -7.2958049    238.27868  0.029460766  0.030099447            2 
  675000    1.1598824   -7.3337897    237.34483  0.029301831  0.030090841            1 
  676000     1.157157   -7.3519849    238.87139  0.029446671  0.030082667            1 
  677000    1.1409087   -7.3626201    238.27499  0.029329762  0.030074563            2 
  678000    1.1576289   -7.2988949     239.3008  0.029412586  0.030066228            2 
  679000    1.1354119    -7.338423    239.02156  0.029334997  0.030057565            4 
  680000    1.1386701   -7.3632332    239.36249  0.029333638  0.030048842            1 
  681000    1.1639903   -7.3607218    239.39533  0.029294582  0.030039822            3 
  682000     1.145273   -7.3578807    239.37778  0.029249484  0.030031438            3 
  683000    1.1283049   -7.3524494    239.46351  0.029217119  0.030022653            1 
  684000    1.1366208   -7.4038831    240.40427  0.029289019  0.030013701            2 
  685000     1.130434   -7.3454249    241.49348  0.029378769  0.030005193            1 
  686000    1.1572669   -7.3446284     241.5862  0.029347207  0.029997166            1 
  687000    1.1281941    -7.385304     241.1921  0.029256684   0.02998914            1 
  688000    1.0996925   -7.3718313    241.33039  0.029230909  0.029980597            1 
  689000    1.1360329   -7.3073491    242.17563  0.029290714  0.029971842            2 
  690000    1.1501002   -7.3703885    241.72931  0.029194361  0.029963558            1 
  691000    1.1629836   -7.3501629    242.73341  0.029273204  0.029954864            5 
  692000    1.1444483   -7.3339106    242.86554  0.029246813  0.029946169            1 
  693000      1.14788   -7.3745762    242.57297  0.029169428  0.029937536            2 
  694000    1.1265529   -7.3709304    243.02536  0.029181719  0.029929148            1 
  695000    1.1762708   -7.3459059     243.8919  0.029243633  0.029920648            2 
  696000    1.1763207    -7.346077    243.78464  0.029188774  0.029911854            1 
  697000    1.1427229   -7.3910463    243.37175  0.029097532  0.029902658            2 
  698000    1.1460696   -7.3812161    243.99761  0.029130564  0.029893023            1 
  699000    1.1347837   -7.3744761    244.32667   0.02912812  0.029883581            2 
  700000    1.1567398   -7.3401639    245.21638  0.029192426  0.029874776            3 
  701000    1.1440599    -7.430439    244.60604  0.029078226  0.029865769            2 
  702000    1.1737396   -7.3725991    244.78916  0.029058542  0.029856771            2 
  703000    1.1536031   -7.3636454     247.2473  0.029308595  0.029848118            2 
  704000    1.1443897   -7.3508395    247.16101  0.029256748  0.029839656            1 
  705000    1.1285958   -7.3653276    247.12079  0.029210495  0.029831761            2 
  706000    1.1416725   -7.4105635    246.54907  0.029101637  0.029823266            2 
  707000    1.1536494   -7.3235359    246.82541  0.029093047  0.029815016            1 
  708000    1.1484565   -7.3877972    247.37816  0.029117015  0.029806306            4 
  709000    1.1252104    -7.326806    247.22711  0.029058193  0.029797315            2 
  710000    1.1515505   -7.3865662    247.05908  0.028997544  0.029788184            1 
  711000    1.1255212   -7.3640877    248.53536   0.02912979   0.02977871            1 
  712000    1.1517959    -7.361351     248.4948  0.029084129  0.029769551            1 
  713000    1.1477844   -7.3576289    248.12919  0.029000606  0.029760123            2 
  714000    1.1591199   -7.3575678    248.11161  0.028957937  0.029750691       -1e+20 
  715000    1.1647011   -7.3493627    249.22881  0.029047647  0.029741795            3 
  716000    1.1324063    -7.342209    249.93465  0.029089228  0.029732853            4 
  717000    1.1118575   -7.3996853    249.57692   0.02900708  0.029724143            1 
  718000    1.1515582   -7.3482566    250.18859  0.029037673  0.029715618            2 
  719000    1.1288903   -7.3185031    251.30872  0.029127112  0.029707474            1 
  720000    1.1330835   -7.3283276    251.46666  0.029104937  0.029699032            1 
  721000    1.1479485   -7.3572467    251.28847  0.029043975  0.029690596            3 
  722000    1.1406806   -7.3317384    251.41385  0.029018219  0.029681576            2 
  723000    1.1338074   -7.3635342    251.99993  0.029045635  0.029673083            2 
  724000    1.1604938   -7.3538252    252.29779  0.029039801   0.02966473            2 
  725000    1.1370401    -7.379221     251.9042  0.028954505  0.029656364            2 
  726000    1.1288491    -7.354498    252.86225  0.029024593  0.029647945            1 
  727000    1.1354349    -7.370139     252.7665  0.028973693  0.029639788            3 
  728000    1.1473344    -7.323981    252.96621  0.028956755  0.029631438            2 
  729000    1.1702658   -7.3713265    253.77132  0.029009068  0.029623081            2 
  730000     1.134725   -7.3784434    254.16329  0.029014074  0.029614952            2 
  731000    1.1094468   -7.3196205    254.61998  0.029026445  0.029606832            1 
  732000    1.1483933   -7.3474161    254.82224  0.029009817  0.029598762            1 
  733000    1.1318234   -7.3552188    255.09711   0.02900149  0.029590328            1 
  734000    1.1260595   -7.3392208    254.27734  0.028868908  0.029582049            3 
  735000    1.1296816   -7.3726331    255.04527  0.028916697  0.029573206            3 
  736000    1.1427801   -7.3894601    255.11071  0.028884817  0.029563834            1 
  737000    1.1136996   -7.3913543    254.49916  0.028776477   0.02955429            3 
  738000    1.1247828   -7.4225037     254.1927   0.02870288  0.029544935            3 
  739000    1.1283811   -7.3589354    255.62862   0.02882596  0.029535718            2 
  740000    1.1404221   -7.4173665    254.91911  0.028707107  0.029526548            2 
  741000    1.1274631   -7.3826171    255.39674   0.02872208  0.029517286            1 
  742000    1.1465082   -7.3557889    256.96211  0.028859177  0.029508157            4 
  743000    1.1287945   -7.3956317     256.3606  0.028752871  0.029499054            3 
  744000    1.1051383   -7.3673742    257.08987  0.028795909  0.029489885            2 
  745000    1.1233622    -7.372944    256.90762   0.02873687  0.029480636            2 
  746000    1.1217337   -7.3644874    257.91337  0.028810698   0.02947137            2 
  747000    1.1548626   -7.3828393    257.50173  0.028726208  0.029462215            2 
  748000    1.1545466   -7.4184397    257.02222  0.028634383  0.029452554            2 
  749000    1.1628001   -7.4236258    257.57169  0.028657286  0.029443221            3 
  750000    1.1460396   -7.3670049    258.65486  0.028739429  0.029433591            1 
  751000    1.1112582   -7.3953066    258.66105  0.028701848  0.029424267            1 
  752000    1.1599862   -7.4362622    258.42392  0.028637403  0.029414488            1 
  753000    1.1310173   -7.3970252    258.84042  0.028645465   0.02940476            1 
  754000    1.1576286   -7.3729406    259.54475  0.028685317   0.02939517            1 
  755000    1.1283695   -7.3730389    260.61223  0.028765147  0.029385627            3 
  756000    1.1466407   -7.3865814    260.67106  0.028733583  0.029376722            3 
  757000    1.1437545   -7.3790465    260.80107  0.028709937  0.029367704            2 
  758000    1.1116862   -7.3883768    260.77282  0.028668956  0.029358617            1 
  759000    1.1268564   -7.3788808    261.23896  0.028682363  0.029349533            1 
  760000    1.1395515   -7.3978117    261.66535  0.028691376  0.029340507            1 
  761000    1.1118997   -7.3365415    261.65555  0.028652601  0.029331696            2 
  762000    1.1501644   -7.3787803     262.5065   0.02870806  0.029322993            1 
  763000    1.1060803   -7.3780678    262.22501   0.02863969   0.02931435            2 
  764000    1.1188279   -7.3845541    263.32388  0.028722063  0.029305507            2 
  765000     1.165657   -7.3944116    263.44951  0.028698204  0.029296719            1 
  766000    1.1398386   -7.3827451    264.05376  0.028726475  0.029288312            3 
  767000    1.1215757   -7.3513363    264.06912  0.028690691  0.029280218            2 
  768000    1.1413123   -7.3936195    264.21916  0.028669613  0.029271997            2 
  769000    1.1228591   -7.3747032    264.44092  0.028656363  0.029263678            3 
  770000    1.1390959   -7.3940249    265.07789  0.028688084  0.029255577            1 
  771000    1.1468756   -7.3799156    265.40757  0.028686507  0.029247633            1 
  772000    1.1190023   -7.3824269    266.49249   0.02876646  0.029239425            3 
  773000    1.1360249   -7.4089932    266.34658  0.028713516  0.029231695            1 
  774000    1.1288128   -7.3844255    266.45131  0.028687695  0.029223979            1 
  775000     1.123575   -7.4098943     267.3218  0.028744279  0.029216368            1 
  776000    1.1145354    -7.387107    267.09429  0.028682806  0.029208509            4 
  777000    1.1492505   -7.3333206    268.31838  0.028777175  0.029200652            2 
  778000    1.1391455   -7.3837918    267.54378  0.028657217  0.029193401            1 
  779000    1.1433271   -7.3779108    268.26225  0.028697288  0.029185757            1 
  780000    1.1290256   -7.3673244    268.52258   0.02868831  0.029177881            2 
  781000    1.1140912   -7.4203036    267.91145  0.028586369  0.029169945            1 
  782000    1.1111249   -7.3972124    269.17374  0.028684328  0.029161975            1 
  783000    1.1485766   -7.4101616    268.85389  0.028613653  0.029154028            2 
  784000    1.1278879   -7.3726257    270.33237  0.028734308  0.029146628            2 
  785000    1.1488714   -7.3694477    269.94716  0.028656811   0.02913934            1 
  786000    1.1377997   -7.4122123    269.51041  0.028574046  0.029131847            1 
  787000    1.1194366   -7.3853502    270.33043  0.028624569  0.029123942            1 
  788000    1.1152138   -7.3732715    270.88734  0.028647139  0.029116266            2 
  789000    1.1325113    -7.351132    271.56902  0.028682828  0.029108484            2 
  790000    1.1436727   -7.3628809    270.76669  0.028561887  0.029100555            1 
  791000    1.1251991   -7.3849401    271.01948  0.028552411  0.029092673            2 
  792000    1.1052564   -7.3899333    270.71603  0.028484431  0.029084693            2 
  793000    1.1028715   -7.3801586    272.17786  0.028602129  0.029076713            2 
  794000    1.1075532   -7.3960047    272.63825  0.028614426  0.029068831            1 
  795000    1.1278438   -7.4125487    272.27589  0.028540449  0.029061208            2 
  796000    1.1297725   -7.4073005    273.22396  0.028603849  0.029053434            3 
  797000    1.1215599   -7.4124204    272.74215  0.028517581  0.029045184            1 
  798000     1.146073   -7.4376541    271.95695  0.028399848  0.029036842            2 
  799000    1.1059056   -7.3547233    274.39361   0.02861844  0.029028933            2 
  800000    1.1208484   -7.4031167    273.43649  0.028482968  0.029021262            2 
  801000    1.1304768   -7.3572352    274.30315  0.028537573  0.029013603            5 
  802000    1.1279743   -7.4243578    273.74912  0.028444422  0.029005788            2 
  803000    1.1124847   -7.3710236     274.6306  0.028500477  0.028997772            3 
  804000    1.1226374   -7.3867106    275.30073  0.028534487  0.028989923            1 
  805000    1.1134535   -7.3947655    274.08329  0.028373011  0.028981756            2 
  806000    1.1225456   -7.3900642    274.11852  0.028341452  0.028973513            1 
  807000    1.1423689   -7.4088128    274.88321  0.028385297  0.028965102            1 
  808000    1.1274228   -7.4277573     275.1533  0.028378021  0.028956861            3 
  809000    1.1206269   -7.4337434    274.90817  0.028317694  0.028948356            1 
  810000    1.1143464   -7.3976708    276.31822  0.028427801  0.028939892            2 
  811000    1.1281053   -7.4246393    275.89275  0.028349029  0.028931596            1 
  812000    1.1344363   -7.3755544    277.01202  0.028428984   0.02892313            1 
  813000    1.1121744    -7.398115     276.7167  0.028363746  0.028914816            1 
  814000    1.1158084   -7.4206346    276.93085  0.028350825  0.028906429            2 
  815000    1.1345321   -7.3304694    277.98559  0.028423885  0.028898316            2 
  816000    1.1232398   -7.3795217    278.58414  0.028450178  0.028890504            2 
  817000    1.1582629   -7.4058693    278.77679  0.028435005  0.028882506            1 
  818000    1.1144793   -7.4030616     278.2058  0.028342074  0.028874493            4 
  819000    1.1390674   -7.4297085    278.94227  0.028382404  0.028866577            2 
  820000    1.1205138   -7.4415277    279.32174  0.028386356  0.028858597            4 
  821000    1.1250115   -7.3522056    279.08533  0.028327784   0.02885082            3 
  822000    1.1305821    -7.416129    279.09253  0.028294052  0.028843022            3 
  823000    1.1199185   -7.4219439    279.89158  0.028340581  0.028835182            1 
  824000    1.1002702   -7.3812928    281.76658  0.028495811  0.028827748            2 
  825000    1.1154024   -7.4610544    280.35459  0.028318645  0.028820147            1 
  826000    1.1168747    -7.353479    282.04206  0.028454606  0.028812399            2 
  827000    1.1227577   -7.4008365    281.26299  0.028341696  0.028804669            2 
  828000     1.141273   -7.4277219    281.38311  0.028319556  0.028796774            2 
  829000    1.1094761   -7.4173396    281.34493  0.028281557  0.028788823            2 
  830000    1.1245378   -7.4245404    281.73804  0.028286952  0.028780932            2 
  831000    1.1299486   -7.4028339    281.36166  0.028215169  0.028772822            2 
  832000    1.1107889   -7.4493114    281.47208  0.028192315  0.028764691            2 
  833000    1.1519637    -7.407564    283.19647   0.02833098  0.028756744            1 
  834000    1.0942877   -7.3763021    282.54298  0.028231713  0.028749011            1 
  835000    1.0941835   -7.3779521    283.86686  0.028330026  0.028741492            2 
  836000     1.131695   -7.4182094    284.21124  0.028330467  0.028733514            2 
  837000    1.1200588   -7.4075032    283.59798  0.028235562  0.028725478            2 
  838000    1.1220576   -7.4569081    283.60092  0.028202159  0.028717281            2 
  839000     1.141666    -7.387993    284.10477   0.02821859  0.028709285            6 
  840000    1.1427031   -7.3610341    285.29978   0.02830355  0.028701241            3 
  841000    1.0923511   -7.4071106    284.79082  0.028219463  0.028693081            1 
  842000    1.1120714    -7.413048    285.20668  0.028227107  0.028684779            4 
  843000    1.1033782   -7.4157696    285.00019   0.02817321  0.028676507            2 
  844000    1.1138076   -7.4487817    284.97366  0.028137209  0.028668217            3 
  845000    1.1304997   -7.4130539    285.01789  0.028108273  0.028659736            1 
  846000    1.0718917   -7.4004916     284.4576  0.028019858  0.028651097            6 
  847000    1.1148544   -7.4249416    284.18183  0.027959645  0.028642335            2 
  848000    1.1197242   -7.4174627    286.01288  0.028106611   0.02863382            1 
  849000    1.1067451   -7.3707597    287.10931  0.028181126  0.028625439            2 
  850000    1.1292913   -7.3994739    286.13237  0.028052194  0.028617226            1 
  851000    1.1060194   -7.3980145    286.12935  0.028018933  0.028608902            4 
  852000    1.1292345    -7.436815    286.22333   0.02799524  0.028600529            1 
  853000    1.1096524    -7.381069     287.9343  0.028129572   0.02859222            1 
  854000    1.1215366    -7.403538    287.94822  0.028097992  0.028584017            3 
  855000    1.1167465   -7.3967981    288.84602  0.028152633  0.028575938            1 
  856000    1.1230424   -7.4218092    288.52738  0.028088725  0.028567843            2 
  857000     1.121382   -7.4292536    289.07784  0.028109475  0.028560056            1 
  858000    1.1156346   -7.4743597    288.74725  0.028044605  0.028552173            2 
  859000    1.1009747   -7.4113264    289.87724   0.02812158  0.028544179            1 
  860000    1.1259417   -7.4140905    289.67145  0.028068939  0.028536214            4 
  861000    1.1145292   -7.3559842    290.94896  0.028159985  0.028528235            4 
  862000    1.0959245   -7.4400994    289.00183  0.027939079  0.028520197            1 
  863000    1.1125927   -7.3961588    289.55708  0.027960321  0.028512233            3 
  864000    1.1138856   -7.3600415    290.76729  0.028044685  0.028504454            1 
  865000    1.1120107   -7.3773881    291.57055  0.028089648  0.028496522            2 
  866000     1.131801   -7.4395843    291.11832  0.028013695  0.028488647            1 
  867000    1.1300329   -7.4197286    292.08018  0.028073835  0.028480581            2 
  868000    1.1243979   -7.4288971    291.62418  0.027997713  0.028472679            2 
  869000    1.1284733   -7.4213681    291.77277  0.027979744  0.028464737            3 
  870000    1.1245037   -7.4926843    291.14309  0.027887269  0.028456687            1 
  871000    1.1186724   -7.4378747    292.03591  0.027940672  0.028448606            1 
  872000    1.1051702   -7.4372477    291.83532  0.027889461  0.028440568            1 
  873000    1.1039307   -7.4122525    293.63053  0.028028879  0.028432339            2 
  874000    1.1098952   -7.4016377    293.56074  0.027990155  0.028424139            1 
  875000    1.1263363   -7.4322901    292.62282   0.02786884  0.028415912            2 
  876000    1.1140591   -7.3903236    294.37632  0.028003836   0.02840788            1 
  877000    1.1098692   -7.4272949    293.65714  0.027903567  0.028399924            2 
  878000    1.1114212   -7.4112286    293.61823  0.027868093  0.028391823            2 
  879000    1.0897318   -7.4406594    293.08048  0.027785408  0.028383204            1 
  880000    1.0941133   -7.4419504    293.47366  0.027791067  0.028374653            3 
  881000    1.1452276   -7.4106288    293.90747  0.027800555  0.028366251            1 
  882000    1.1235238   -7.4118127    295.12358  0.027883936  0.028357954            2 
  883000     1.118049   -7.4236555    295.37822  0.027876389  0.028349888            2 
  884000    1.1074251   -7.4303848    295.35097  0.027842286  0.028341673            4 
  885000    1.0975357    -7.455816    294.58406  0.027738612  0.028333249            2 
  886000    1.1200784   -7.4611938    295.57346  0.027800363  0.028324782            3 
  887000     1.115394   -7.3970806    296.28809   0.02783616  0.028316405            2 
  888000     1.106013   -7.4267025    297.16488  0.027887095  0.028308294            1 
  889000    1.0875183   -7.4155537    297.62685   0.02789903   0.02830042            1 
  890000     1.111336   -7.4163826    298.90882  0.027987718  0.028292802            2 
  891000     1.112344    -7.367024    299.17027  0.027980758  0.028285539            1 
  892000    1.1119897   -7.4136352    299.11494  0.027944221  0.028277984            3 
  893000    1.1248486   -7.4490207    298.07701   0.02781607  0.028270418            1 
  894000    1.1368907   -7.4543594    299.30905  0.027899799  0.028262985            1 
  895000    1.1374426   -7.4673811    298.85493  0.027826344    0.0282553            1 
  896000    1.0972344   -7.4218873    300.19969  0.027920358  0.028247792            1 
  897000    1.1080622   -7.4100558    300.15216  0.027884816  0.028240183            1 
  898000     1.097984   -7.4112091     299.7695  0.027818254  0.028232689            2 
  899000    1.0886656   -7.4456153    299.95843  0.027804823  0.028225023            1 
  900000    1.1337946   -7.4473561    300.35294  0.027810457  0.028217236            1 
  901000     1.099382   -7.4338017    300.57962  0.027800556  0.028209316            3 
  902000    1.1193666   -7.4391166    299.96143  0.027712623   0.02820164            4 
  903000    1.1036931   -7.4440716    300.54198  0.027735509  0.028193893            1 
  904000    1.1168073    -7.449066    300.68609  0.027718113  0.028186062            1 
  905000    1.1105959   -7.4497661    301.64947  0.027776194  0.028177861            3 
  906000    1.1078575   -7.4735365    300.67765  0.027656149  0.028169496            2 
  907000    1.1027528   -7.4324201    300.96234  0.027651814  0.028161251            1 
  908000    1.1125618   -7.4482026    301.83752  0.027701681  0.028153067            1 
  909000    1.0931668   -7.4405798    301.16388   0.02760945  0.028144953            1 
  910000    1.1099872   -7.4132458    302.81177  0.027730016  0.028136936            1 
  911000    1.1411574   -7.4687425    302.49532  0.027670629  0.028128947            2 
  912000    1.1424397   -7.3925344    302.20376  0.027613647  0.028121131            2 
  913000    1.0735292   -7.4666646    303.11897  0.027666938  0.028113282            1 
  914000    1.0600727   -7.4763575    302.63096  0.027592174  0.028105029            3 
  915000    1.0949126   -7.4633941    303.60936  0.027651126  0.028096717            2 
  916000    1.1111445     -7.46692    302.20461  0.027493141  0.028088349            2 
  917000    1.1135844   -7.4552788    303.66778  0.027596127  0.028079868            1 
  918000    1.1007922   -7.4261304    304.08608  0.027604038  0.028071713            2 
  919000    1.0969709   -7.4016448    305.19827  0.027674852  0.028063941            4 
  920000    1.0962541   -7.4086173    305.01478   0.02762815  0.028056122            1 
  921000    1.1041011   -7.4315136    304.91039  0.027588707  0.028048133            4 
  922000    1.1179756   -7.4554317    305.17703  0.027582884   0.02803995            2 
  923000    1.0895426   -7.4185188    305.45969   0.02757852   0.02803203            2 
  924000    1.1128359   -7.4403347    306.85429  0.027674449  0.028024079            2 
  925000    1.0841197   -7.4550553    306.45409  0.027608477  0.028016353            2 
  926000    1.1004987    -7.440844    306.86265  0.027615429  0.028008599            2 
  927000    1.0954662   -7.4235645    308.09711  0.027696612  0.028000832            2 
  928000    1.1030328   -7.4447485    307.12217  0.027579218  0.027993004            2 
  929000    1.1068163   -7.4218723      307.913   0.02762047  0.027985192            1 
  930000    1.1004147   -7.4167565    308.52229  0.027645366  0.027977586            1 
  931000     1.081188   -7.4507605    307.88752  0.027558854  0.027969734            3 
  932000    1.0969611    -7.475207    308.26948  0.027563437   0.02796188            2 
  933000    1.1002135   -7.4499313    309.59894  0.027652639  0.027954342            6 
  934000    1.1016464    -7.451203    308.86452  0.027557505  0.027946602            2 
  935000    1.0975552   -7.4324931    310.01561  0.027630625  0.027938885            2 
  936000    1.1080412   -7.4423194    308.76596  0.027489847  0.027931217            1 
  937000    1.1274076   -7.4402555    310.30564  0.027597442  0.027923881            3 
  938000    1.0784455   -7.4471046    309.83431  0.027526147  0.027916322            2 
  939000      1.05846   -7.4106691    311.31739  0.027628452  0.027908782            3 
  940000    1.0924788   -7.4563796    310.53061  0.027529309  0.027901135            2 
  941000    1.1290352   -7.4300998    311.62393  0.027596876   0.02789355            2 
  942000    1.1057855   -7.4044034    310.92571  0.027505813    0.0278858            1 
  943000    1.0973269    -7.464861    311.13319   0.02749498  0.027878146            1 
  944000     1.096919    -7.434561    311.73972  0.027519396  0.027870609            1 
  945000    1.1251203   -7.4850218    312.13961  0.027525539  0.027862946            2 
  946000     1.124302   -7.4619765    311.75399  0.027462473  0.027855264            2 
  947000    1.0906627   -7.4392705    312.54126   0.02750275   0.02784756            1 
  948000    1.1132738   -7.4518369    312.34359  0.027456363  0.027839805            2 
  949000    1.1019556   -7.4546961    312.90365  0.027476611  0.027832014            1 
  950000      1.11251   -7.4309821    312.88305  0.027445882  0.027824399            3 
  951000    1.1057413   -7.4533229    313.54324  0.027474872  0.027816958            2 
  952000    1.0940085   -7.4453175     314.8137  0.027557222  0.027809496            2 
  953000     1.106328   -7.4889991    313.88293  0.027446915  0.027801986            1 
  954000    1.0880861   -7.4485011    314.16721  0.027442978  0.027794622            2 
  955000    1.1143317   -7.4410527    314.23336  0.027420014  0.027787147            2 
  956000    1.1113712   -7.4445302    315.02183  0.027460062   0.02777981            2 
  957000     1.088765   -7.4910929    314.99714  0.027429218  0.027772541            1 
  958000    1.0902938   -7.4245918    317.42695  0.027611947    0.0277653            2 
  959000    1.0946662   -7.4478678    316.58363  0.027509874  0.027758203            1 
  960000    1.1027097   -7.4686825    315.94832   0.02742607  0.027751033            1 
  961000    1.0857448   -7.4374572    316.23557  0.027422439  0.027743951            1 
  962000    1.1009547   -7.4596359    316.62708  0.027427849   0.02773712            2 
  963000     1.093643   -7.4236547    318.06124  0.027523472  0.027730225            2 
  964000    1.0960666   -7.4649931     317.9128  0.027482089  0.027723284            4 
  965000     1.098797   -7.4537611    317.64907  0.027430835  0.027716078            3 
  966000    1.0547563   -7.4818741    317.02702  0.027348776  0.027709077            3 
  967000    1.1002155   -7.4234872     318.4317  0.027441546  0.027701989            2 
  968000    1.0784112   -7.4672416    317.86677  0.027364564  0.027694967            1 
  969000    1.0934349   -7.4993412    317.29133  0.027286836  0.027687521            2 
  970000    1.0812705   -7.4830883    318.50089  0.027362619  0.027680256            1 
  971000    1.0907471   -7.4832638    318.89591  0.027368341  0.027672852            2 
  972000    1.1269777    -7.480319    320.31018  0.027461435  0.027665637            4 
  973000    1.0835061    -7.447067    319.55524  0.027368555   0.02765857            1 
  974000    1.0858871   -7.4647283    320.12508  0.027389209  0.027651484            1 
  975000    1.0882643   -7.4698023     320.4349  0.027387598  0.027644371            1 
  976000    1.0545083   -7.4956526    320.67449  0.027379994   0.02763725            2 
  977000    1.1141888   -7.4916348    320.25472  0.027316165  0.027630318            5 
  978000    1.1145703    -7.456053    322.19648  0.027453688  0.027623127            1 
  979000    1.1082224     -7.50359    319.90824  0.027230868  0.027616038            2 
  980000    1.0783981   -7.4999745    320.71829  0.027271963  0.027608577            1 
  981000    1.0946986   -7.4964261    320.53041  0.027228203   0.02760135            1 
  982000    1.0706275   -7.4784257    322.00771  0.027325841  0.027594037            2 
  983000    1.0995929   -7.4037641    323.18911  0.027398196  0.027587001            2 
  984000     1.076073   -7.4757674    322.72675  0.027331195  0.027580045            2 
  985000    1.0990192   -7.4377047        323.6  0.027377327  0.027573073            1 
  986000    1.1207864   -7.4613828    323.34824  0.027328282  0.027565994            1 
  987000    1.0887043   -7.4583186    323.96006  0.027352251  0.027558842            2 
  988000    1.0893825   -7.4550232    323.34527  0.027272712  0.027551575            3 
  989000     1.061192   -7.4374424    322.90715   0.02720822  0.027544558            2 
  990000     1.069726    -7.504797    323.47413  0.027228462  0.027537126            3 
  991000    1.0895989    -7.453286    324.27773  0.027268562  0.027529951            2 
  992000    1.0723811   -7.4853584    323.70052  0.027192584  0.027522823            2 
  993000    1.1026016   -7.4228804    325.23181  0.027293707  0.027515612            2 
  994000    1.0636344   -7.5041728    324.37285  0.027194236  0.027508534            2 
  995000    1.1166539   -7.4710586    325.59928  0.027269621  0.027501386            2 
  996000    1.0906221   -7.4643194    325.70957   0.02725147  0.027494267            2 
  997000    1.0817805   -7.4430926     325.7849  0.027230433  0.027487182            2 
  998000    1.0722458   -7.4334757    326.72055  0.027281275  0.027480344            3 
  999000    1.1023067   -7.4797137    325.89483  0.027185088  0.027473477            1 
 1000000    1.0920711   -7.4720571    326.73897  0.027228247  0.027466588            4 
 1001000    1.1007668   -7.4245017    326.05456  0.027144069   0.02745958            2 
 1002000    1.0972215   -7.4745749    326.18683  0.027127979  0.027452458            2 
 1003000    1.0837998    -7.542261     325.7874  0.027067747  0.027445022            1 
 1004000    1.0834163   -7.4759136    328.84389   0.02729448  0.027437804            2 
 1005000    1.1090119   -7.4868412    327.81399  0.027181923  0.027430717            2 
 1006000    1.0905671   -7.4967171    327.60756  0.027137803    0.0274237            2 
 1007000    1.0946094   -7.5047296    328.32606  0.027170313  0.027416674            2 
 1008000    1.0861675   -7.4356027    330.51656  0.027324451  0.027409941            2 
 1009000    1.0727199   -7.4517616    330.27585   0.02727749  0.027403349            2 
 1010000    1.0768932   -7.4748208     330.0572  0.027232442  0.027396696            3 
 1011000    1.0929929   -7.4751437    330.23248  0.027219954  0.027390155            2 
 1012000    1.0967284   -7.5151819    329.69858  0.027149093  0.027383553            1 
 1013000    1.1130759   -7.4743688    330.88814  0.027220149  0.027376985            2 
 1014000    1.0908843   -7.4543537    332.38566  0.027316376  0.027370619            3 
 1015000    1.0908273    -7.474021    330.80204  0.027159445  0.027364158            1 
 1016000     1.116927    -7.432651    331.55511  0.027194481  0.027357679            1 
 1017000    1.0777776   -7.4430461    333.42308  0.027320803  0.027351433            1 
 1018000     1.081979   -7.4617859    332.26779  0.027199393  0.027345222            4 
 1019000    1.0969862   -7.4576987    333.05834  0.027237352  0.027338911            1 
 1020000     1.110956   -7.4422876    333.08783  0.027213058  0.027332537            3 
 1021000    1.0785667   -7.4832244    332.19395  0.027113447  0.027325933            2 
 1022000    1.0643204   -7.4406701     333.7827  0.027216463  0.027319531            1 
 1023000    1.0801034   -7.4837091    333.37841  0.027156925  0.027313042            2 
 1024000    1.0952704   -7.5494685    332.48871  0.027058001  0.027306476            3 
 1025000    1.0900443   -7.4870919    333.68393  0.027128775  0.027299897            2 
 1026000    1.1071109   -7.5132197    333.72435  0.027105616  0.027293372            2 
 1027000    1.0746967   -7.5003964    334.58711   0.02714923  0.027286881            6 
 1028000    1.0707532    -7.515257     334.9061  0.027148679  0.027280107            1 
 1029000     1.110685   -7.4940749    333.14059  0.026979315  0.027273154            1 
 1030000     1.073917   -7.4579536    335.00944  0.027104324   0.02726642            1 
 1031000    1.0845143   -7.4308359    335.01574  0.027078543  0.027259902            3 
 1032000    1.0929371   -7.5130417    335.61987  0.027101088   0.02725348            2 
 1033000    1.0959936   -7.4400261    336.30724  0.027130303   0.02724702            1 
 1034000    1.1006961   -7.5007029    335.33878  0.027026014  0.027240457            2 
 1035000    1.0788678   -7.4751745    335.89279  0.027044508  0.027233935            1 
 1036000    1.0561693    -7.466295    335.90391  0.027019298  0.027227264            3 
 1037000    1.0968695   -7.4919738    335.92116  0.026994629  0.027220661            3 
 1038000    1.0571204   -7.5028341    336.94455  0.027050783  0.027214031            2 
 1039000    1.1001418   -7.4725239    336.18578   0.02696389  0.027207353            1 
 1040000    1.0730782   -7.4817874    337.16884  0.027016734  0.027200415            2 
 1041000    1.1106315   -7.5149756    336.59804  0.026945088  0.027193457            1 
 1042000    1.1135231   -7.5010633    336.94326  0.026946838  0.027186594            1 
 1043000    1.0801736    -7.514753    337.71725  0.026982842  0.027179871            1 
 1044000    1.0878141   -7.4846464    338.41036  0.027012321  0.027173441            1 
 1045000    1.0778938    -7.493141    339.04851  0.027037362  0.027167084            2 
 1046000    1.0613147   -7.4850271    338.76602  0.026989008  0.027160589            1 
 1047000    1.0776238   -7.4654061    340.12542  0.027071428  0.027154052            1 
 1048000    1.0739333   -7.5213451    338.77928  0.026938556  0.027147436            2 
 1049000     1.105435   -7.4850856    339.84076    0.0269972  0.027140825            2 
 1050000    1.0976601    -7.452786    339.92035  0.026977805   0.02713431            2 
 1051000    1.0831081   -7.4726875    340.40835   0.02699083  0.027127726            2 
 1052000    1.0770581    -7.524514    339.16526  0.026866703  0.027120786            2 
 1053000    1.0787347    -7.494504    339.64561  0.026879203  0.027113889            2 
 1054000     1.093167   -7.4878129    339.14063  0.026813775   0.02710702            1 
 1055000     1.066136   -7.5103382    340.22638  0.026874122  0.027099806            2 
 1056000    1.0644869   -7.4878338    340.64578  0.026881769  0.027092903            1 
 1057000    1.0908315   -7.5067383    341.26135  0.026904869  0.027086072            3 
 1058000    1.0900975   -7.5087643    340.59977  0.026827329  0.027079153            1 
 1059000    1.0710452   -7.5021098    340.51762  0.026795532  0.027072301            1 
 1060000    1.0783798   -7.4705844    341.65862  0.026859954  0.027065433            1 
 1061000     1.072457   -7.4975939    341.90412  0.026853921  0.027058785            3 
 1062000     1.095732   -7.4723987    343.59111   0.02696101  0.027052335            2 
 1063000    1.1084209   -7.5070874     343.4775   0.02692674  0.027045644            1 
 1064000    1.0451073   -7.4775917    343.77259  0.026924545  0.027039183            2 
 1065000    1.0725171   -7.5012398    343.37014  0.026867773  0.027032794            2 
 1066000    1.0838776   -7.4983383    343.01057   0.02681446  0.027026348            2 
 1067000    1.0677015   -7.4811323     344.4178  0.026899235   0.02701987            1 
 1068000    1.0993122   -7.5163527    343.80193  0.026825993  0.027013289            2 
 1069000    1.0861193   -7.4915058    344.75373  0.026875095  0.027006668            1 
 1070000    1.0868718   -7.5134432    345.51385  0.026909178  0.027000176            1 
 1071000    1.0846937   -7.5065738     344.9504  0.026840211  0.026993689            1 
 1072000    1.0932883   -7.4531196    346.67144  0.026948962  0.026987511            1 
 1073000    1.0583276   -7.5085397     346.1212  0.026881112  0.026981257            2 
 1074000    1.0704932   -7.5033054    346.06466  0.026851697  0.026974737            4 
 1075000    1.0830475   -7.4707215    346.89041   0.02689073  0.026968503            2 
 1076000    1.0960467   -7.5187652    347.47084  0.026910691  0.026962083            3 
 1077000    1.0826591   -7.4938221    347.28953  0.026871675   0.02695575            1 
 1078000    1.0781165   -7.4665046    347.55508  0.026867276  0.026949593            2 
 1079000    1.0805794   -7.5284063    347.47806  0.026836427  0.026943418            2 
 1080000    1.0475421   -7.5299803    347.63921  0.026824013  0.026937037            2 
 1081000     1.083471   -7.5304138    348.53804  0.026868489  0.026930826            3 
 1082000    1.0972683   -7.5127493    348.93694  0.026874379  0.026924643            1 
 1083000    1.0874295   -7.5301336    348.26031    0.0267975  0.026918642            3 
 1084000    1.0913512   -7.4735807    349.20432   0.02684535  0.026912566            1 
 1085000    1.0872438   -7.5299325    349.57178  0.026848831  0.026906326            2 
 1086000    1.0902402   -7.4769032    350.11808  0.026866028  0.026900308            3 
 1087000    1.0899507   -7.4937737    349.87539  0.026822707  0.026894261            2 
 1088000    1.0769628    -7.476723      351.372  0.026912684  0.026888313            1 
 1089000    1.0863376   -7.5130181    349.58515  0.026751236   0.02688218            2 
 1090000     1.066134   -7.4641487     351.2115  0.026851032  0.026875902            2 
 1091000    1.0880766   -7.5148111    350.79671  0.026794738  0.026869792            2 
 1092000    1.0607256   -7.4581693    351.82321  0.026848536  0.026863735            2 
 1093000    1.0637466   -7.5043101    351.46378  0.026796567   0.02685787            2 
 1094000    1.0675526   -7.4860318    351.76523  0.026795036  0.026851849            1 
 1095000    1.0821293   -7.5140577    352.91299  0.026857914  0.026845751            2 
 1096000    1.0815579   -7.5227223    351.50435  0.026726304  0.026839548            1 
 1097000     1.084894   -7.5143262    351.18761   0.02667788  0.026833497            4 
 1098000    1.0996314   -7.5144358    352.46168  0.026750279   0.02682744            2 
 1099000    1.0647578     -7.50547    352.62495  0.026738319  0.026821473            1 
 1100000    1.0731641    -7.546808    352.82364  0.026729063  0.026815349            3 
 1101000    1.0746559   -7.5605085     352.4158  0.026673917  0.026809169            3 
 1102000    1.0879153   -7.5200184    354.31493  0.026793325   0.02680319            3 
 1103000    1.1017744   -7.5345167    354.11508  0.026753935  0.026797297            1 
 1104000     1.054853   -7.5556053    353.92254  0.026715168    0.0267915            1 
 1105000    1.0784353   -7.5131031    355.05465  0.026776369  0.026785651            2 
 1106000    1.0675253   -7.5062675    354.60213  0.026718063   0.02677997            1 
 1107000    1.0815739   -7.5158752    355.60057  0.026769089  0.026773986            1 
 1108000    1.0930445   -7.5287122    356.22681  0.026792028  0.026768034            1 
 1109000    1.0671041   -7.4853491    355.75695  0.026732563  0.026762091            1 
 1110000    1.0713373    -7.493471    356.41327  0.026757753  0.026756095            4 
 1111000    1.0700625   -7.5197466    356.52697  0.026742197  0.026750457            2 
 1112000    1.0528974    -7.514657       356.34  0.026704137  0.026744721            2 
 1113000    1.0630476   -7.5195074     357.1519  0.026740933  0.026739009            1 
 1114000    1.0701333   -7.5198465    358.01582  0.026781555  0.026733269            1 
 1115000    1.1068398   -7.5370484    357.99302  0.026755831  0.026727475            2 
 1116000    1.0689775   -7.5047937    358.18067  0.026745869   0.02672178            2 
 1117000    1.0574888   -7.5049964    357.93819  0.026703834   0.02671616            2 
 1118000    1.0402381   -7.5008544    359.52265  0.026798051  0.026710553            1 
 1119000    1.0916196   -7.5298241    359.59098  0.026779191  0.026704964            2 
 1120000    1.1119877   -7.5492835    358.10906  0.026645019  0.026699478            3 
 1121000    1.0564722   -7.5443066    358.65942  0.026662163  0.026694027            1 
 1122000    1.0735866   -7.5133516    360.94435  0.026808107  0.026688542            2 
 1123000    1.0592155   -7.5195925    360.68079  0.026764677  0.026683153            3 
 1124000    1.0963372   -7.4830656    362.10623  0.026846547  0.026677872            2 
 1125000    1.0828809   -7.5406508      360.255  0.026685556  0.026672525            3 
 1126000     1.084834   -7.5467878    360.52704   0.02668199  0.026667024            3 
 1127000    1.0525917   -7.5011256    361.64856  0.026741243  0.026661545            2 
 1128000    1.0755695   -7.5571976    360.56957  0.026637823  0.026656131            1 
 1129000    1.0726269   -7.5629738    361.25677  0.026664952  0.026650487            2 
 1130000    1.0806328   -7.5202407    361.05087  0.026626171  0.026644873            3 
 1131000    1.0718412   -7.5253354    362.24279   0.02669045  0.026639466            1 
 1132000     1.084853   -7.5135094    362.52271  0.026687479   0.02663408            3 
 1133000     1.066279   -7.5697572     361.5082  0.026589305  0.026628583            2 
 1134000    1.0636076   -7.5408077    362.01769  0.026603299  0.026622801            5 
 1135000    1.0674681   -7.4971956     363.6419  0.026699112  0.026616946            1 
 1136000    1.0843207   -7.4826254    363.09836  0.026635737  0.026611323            2 
 1137000    1.0728945   -7.4939359    363.28779  0.026626194  0.026605537            3 
 1138000    1.0628386   -7.5021605    363.19825   0.02659624  0.026599742            2 
 1139000    1.0615531   -7.5141601    363.81336  0.026617893  0.026593952            3 
 1140000     1.075397   -7.5432538    363.08661  0.026541419  0.026588137            2 
 1141000    1.0897066    -7.523044    363.78014  0.026568809  0.026582221            2 
 1142000    1.0788722   -7.4867327    364.60766   0.02660593  0.026576552            2 
 1143000    1.0541999   -7.5008878    364.41949  0.026568934  0.026570871            2 
 1144000    1.0894957   -7.5176475    363.77483  0.026498749   0.02656524            3 
 1145000    1.0632378   -7.5506161    364.54934  0.026531975  0.026559337            2 
 1146000    1.0729662   -7.5486755     364.3328  0.026493078  0.026553083            2 
 1147000    1.0858832   -7.5131646    365.04153  0.026521471  0.026547039            2 
 1148000    1.0383685   -7.5372182    364.41572  0.026452941  0.026540927            5 
 1149000    1.0584033   -7.5136929    366.38554  0.026572783  0.026534977            1 
 1150000    1.0338763   -7.5318509    365.17837    0.0264622   0.02652895            2 
 1151000    1.0491689   -7.4946831    365.62485  0.026471536  0.026523021            1 
 1152000     1.043388    -7.550468    367.15799  0.026559461  0.026517334            2 
 1153000    1.0698294   -7.5778222    366.06702  0.026457576  0.026511545            3 
 1154000    1.0832128   -7.5600719    366.53508  0.026468449  0.026505537            4 
 1155000    1.0730657   -7.5520832    367.12531  0.026488118  0.026499695            1 
 1156000    1.0559914   -7.5358944    366.96054  0.026453326  0.026493976            1 
 1157000     1.073289    -7.522663    367.90536  0.026498513  0.026488348            2 
 1158000     1.056165   -7.5418632    367.85736  0.026472176  0.026482644            2 
 1159000    1.0675932   -7.5411264    368.44718  0.026491745  0.026476902            1 
 1160000    1.0809328    -7.518907     368.6128  0.026480804  0.026471058            2 
 1161000    1.0559649   -7.4909473    369.08996  0.026492245   0.02646531            3 
 1162000    1.0750056    -7.584643     367.5275  0.026357394  0.026459254            3 
 1163000    1.0794074   -7.4978115    368.45589  0.026401253  0.026453281            3 
 1164000    1.0577702   -7.5606265    369.16678  0.026429466  0.026447248            2 
 1165000    1.0785053   -7.5163674    368.78032  0.026379136  0.026441123            2 
 1166000    1.0798485   -7.5660673    367.23966  0.026246402  0.026434876            1 
 1167000    1.0497099   -7.5497692    368.74501  0.026331406  0.026428768            1 
 1168000     1.070945   -7.5255211    369.89145  0.026390657  0.026422787            3 
 1169000    1.0629604   -7.5217556    370.59995  0.026418588   0.02641685            3 
 1170000    1.0690323   -7.5650133    368.98684  0.026281114  0.026410918            4 
 1171000    1.0979681   -7.5431727    370.50646  0.026366813  0.026405004            1 
 1172000    1.0528863   -7.5514257     370.5691   0.02634877  0.026399051            2 
 1173000    1.0651448   -7.5256782    370.59874  0.026328413  0.026392961            2 
 1174000    1.0649487   -7.5448428    369.88128  0.026255059  0.026386817            3 
 1175000    1.0891398   -7.5500226    370.37881  0.026268001  0.026380439            2 
 1176000    1.0792582   -7.5338164    369.98016  0.026217415  0.026374105            1 
 1177000     1.064494   -7.5656842      370.443   0.02622791  0.026367642            5 
 1178000    1.0676197    -7.554211    370.90928   0.02623863  0.026360999            2 
 1179000    1.0582911   -7.5822239    371.05385  0.026226594  0.026354439            2 
 1180000    1.0637876    -7.574656    368.88127  0.026050937  0.026347721            4 
 1181000    1.0839122   -7.4940327    371.94061  0.026244751  0.026341046            3 
 1182000    1.0543181   -7.5211044    371.64442  0.026201665  0.026334517            2 
 1183000    1.0445425   -7.5497608    371.42386   0.02616398  0.026327907            3 
 1184000    1.0492989   -7.5458599    371.39014  0.026139509  0.026321107            1 
 1185000    1.0785032   -7.5914962    370.78566  0.026074941  0.026314386            2 
 1186000    1.0553738    -7.545678    371.64915  0.026113628  0.026307717            1 
 1187000    1.0793816   -7.5092548    372.68207  0.026164144  0.026301037            2 
 1188000    1.0438056   -7.5357202    372.90373  0.026157669  0.026294399            1 
 1189000    1.0464743   -7.5212086    373.25837  0.026160525  0.026287679            2 
 1190000    1.0642312   -7.5224061    373.31603  0.026142579   0.02628107            1 
 1191000    1.0525746   -7.4986609    372.37404  0.026054719  0.026274428            2 
 1192000    1.0516361   -7.5691393    372.82265  0.026064223  0.026267561            1 
 1193000     1.060228   -7.5360486    372.66815  0.026031583  0.026260661            1 
 1194000    1.0538223   -7.5142268    373.39683  0.026060638  0.026253823            1 
 1195000    1.0840842   -7.5420205    371.67948  0.025919071  0.026246835            2 
 1196000    1.0731069   -7.5581945     373.0421  0.025992342  0.026239807            3 
 1197000    1.0612054   -7.5168954    373.68236  0.026015202  0.026232712            2 
 1198000    1.0400302   -7.5338976    373.82262  0.026003243  0.026225481            1 
 1199000     1.065113   -7.5418714    373.60224  0.025966238  0.026218459            1 
 1200000     1.071594   -7.5666844    373.52975  0.025939566  0.026211377            1 
 1201000    1.0618906   -7.5625382    374.10973   0.02595821  0.026204405            1 
 1202000    1.0395056   -7.5553309    373.71971  0.025909575  0.026197317            2 
 1203000    1.0668779   -7.5511617    373.37157  0.025863921  0.026190234            1 
 1204000    1.0624121   -7.5355312    374.90754   0.02594875  0.026183198            3 
 1205000    1.0505888   -7.5620492    374.70759  0.025913388  0.026176037            1 
 1206000    1.0379152     -7.59301    375.72774  0.025962392  0.026169017            2 
 1207000     1.031806   -7.5290094    375.25298  0.025908104  0.026162056            3 
 1208000    1.0958476    -7.552049    377.16428  0.026018507  0.026155183            2 
 1209000    1.0557722   -7.5314665    376.13334  0.025925927  0.026148251            2 
 1210000    1.0633655   -7.5770315    376.00845  0.025895899  0.026141339            2 
 1211000    1.0453478    -7.589769    376.59686  0.025915006   0.02613431            2 
 1212000    1.0619209   -7.5601456    376.59866  0.025893747  0.026127337            2 
 1213000    1.0988424   -7.5861425    377.22384   0.02591535  0.026120362            3 
 1214000    1.0711682   -7.6027104    375.77322  0.025794427  0.026113257            4 
 1215000    1.0627953    -7.587685    377.27417  0.025876144  0.026106361            1 
 1216000    1.0728946   -7.5749849     378.2824  0.025923959  0.026099479            3 
 1217000    1.0674032   -7.5479018    379.21332  0.025966401   0.02609276            2 
 1218000    1.0637042   -7.5338697     378.8151  0.025917837  0.026086064            1 
 1219000    1.0846537   -7.5894486    378.08102  0.025846392  0.026079317            2 
 1220000    1.0589307   -7.5333098    379.27395   0.02590669  0.026072382            1 
 1221000    1.0559355   -7.5313071    378.38045  0.025824492  0.026065586            2 
 1222000    1.0299917   -7.5563919    380.26743   0.02593204  0.026058901            1 
 1223000    1.0834743    -7.551496    380.03685  0.025895125  0.026052295            4 
 1224000    1.0522294   -7.5679646    380.19157  0.025884502  0.026045664            2 
 1225000    1.0602156     -7.59792    380.52938  0.025886352  0.026038947            1 
 1226000    1.0699012   -7.5526809    379.93342   0.02582473  0.026032395            4 
 1227000    1.0664356   -7.5492459    380.74782  0.025858994  0.026025613            2 
 1228000    1.0731865   -7.5719454    379.09398  0.025725704  0.026018689            2 
 1229000    1.0539199   -7.5449241    379.97234   0.02576433  0.026011873            1 
 1230000    1.0357567   -7.5816036    380.57255  0.025784048  0.026004999            1 
 1231000    1.0498972   -7.5498886    380.82166  0.025779966  0.025998058            2 
 1232000    1.0436435   -7.5351885    381.86764  0.025829792  0.025991144            2 
 1233000    1.0644204    -7.611882    381.40357  0.025777478  0.025984196            2 
 1234000    1.0541331   -7.5333371    383.10515  0.025871498  0.025977369            2 
 1235000    1.0324915    -7.549994    382.45228  0.025806496  0.025970489            1 
 1236000    1.0560966   -7.5402976    382.71709  0.025803472  0.025963834            1 
 1237000    1.0478317   -7.5835976    381.25582   0.02568417  0.025957071            1 
 1238000    1.0590164   -7.5564197     383.0036  0.025781072  0.025950263            5 
 1239000    1.0565636   -7.5709141    383.12857  0.025768669  0.025943394            2 
 1240000     1.028024   -7.5408742    383.39252  0.025765626  0.025936527            1 
 1241000    1.0608012   -7.6034001    383.60927  0.025759419  0.025929609            3 
 1242000    1.0470928    -7.549831    384.20137  0.025778406  0.025922743            2 
 1243000    1.0491631   -7.5419708     384.3762  0.025769389  0.025915832            1 
 1244000    1.0463142   -7.5557276    383.28263  0.025675417   0.02590893            3 
 1245000     1.033493   -7.5719527    384.00958  0.025703452  0.025901811            2 
 1246000    1.0633202   -7.6172449     382.7328  0.025597432  0.025894585            2 
 1247000    1.0643368   -7.5718643    384.41676  0.025689439  0.025887542            2 
 1248000    1.0456137   -7.5681049    384.66742  0.025685592  0.025880465            4 
 1249000     1.061673   -7.5603185    384.54945  0.025657155  0.025873529            1 
 1250000    1.0499948   -7.6139394     383.4135    0.0255609  0.025866344            2 
 1251000    1.0309802   -7.5833442    384.29843  0.025599416  0.025859206            1 
 1252000    1.0527954   -7.5897701    385.07971  0.025630971  0.025852087            2 
 1253000    1.0889087   -7.5809838    383.72344  0.025520314   0.02584501            1 
 1254000    1.0231397   -7.5713863    384.14855  0.025528213   0.02583781            3 
 1255000    1.0598044   -7.5738372    385.19147  0.025577123  0.025830756            3 
 1256000    1.0516618   -7.5936153     385.6373  0.025586339  0.025823667            1 
 1257000    1.0548397   -7.5937575    385.56252  0.025561026  0.025816588            2 
 1258000    1.0568771   -7.5608318    385.60596  0.025543585  0.025809595            6 
 1259000    1.0505275   -7.5864797    385.62614  0.025524632  0.025802417            1 
 1260000    1.0650326   -7.5211369     386.1772   0.02554082  0.025795422            4 
 1261000    1.0673954   -7.6122069    385.38045  0.025467912   0.02578832            1 
 1262000    1.0576568   -7.5351688    387.21837  0.025569094   0.02578133            2 
 1263000    1.0303926   -7.5578295    387.27368    0.0255525  0.025774526            1 
 1264000    1.0155381    -7.558236    388.03662  0.025582583  0.025767508            1 
 1265000    1.0427091   -7.5660514     388.0687  0.025564473  0.025760532            1 
 1266000    1.0383932    -7.566683    388.30614  0.025559909  0.025753482            3 
 1267000    1.0245695   -7.5599372    388.67453  0.025563965   0.02574662            2 
 1268000    1.0599343   -7.5649627    388.28361  0.025518113  0.025739723            2 
 1269000    1.0703756   -7.5348211     388.1074  0.025486433  0.025732682            2 
 1270000    1.0552338   -7.5787472      388.608  0.025499213  0.025725537            5 
 1271000    1.0421082   -7.5639728    389.82849  0.025559172  0.025718461            4 
 1272000    1.0424852   -7.5895366    388.88758  0.025477436  0.025711468            3 
 1273000    1.0496211   -7.6030707    387.97309  0.025397558  0.025704323            4 
 1274000    1.0526402    -7.606302    389.17629  0.025456324  0.025697188            2 
 1275000    1.0385118   -7.5884815    389.74749  0.025473692  0.025690015            2 
 1276000    1.0281182   -7.5831301     389.0486  0.025408085  0.025682766            4 
 1277000    1.0390258   -7.5615498    389.88393    0.0254427  0.025675702            3 
 1278000      1.05409   -7.5685078    390.26528  0.025447658  0.025668597            2 
 1279000    1.0529814   -7.5501999    391.53599  0.025510555  0.025661615            2 
 1280000    1.0401904    -7.588508    389.98842  0.025389871  0.025654508            2 
 1281000    1.0464406   -7.5942453    389.43176  0.025333838  0.025647451            3 
 1282000    1.0384631   -7.5851522    390.14077  0.025360165  0.025640321            1 
 1283000    1.0466605   -7.5949859    390.79702  0.025383023  0.025633177            1 
 1284000    1.0351234   -7.6062409    390.57175  0.025348634  0.025625874            2 
 1285000    1.0292061   -7.6029003    391.70247  0.025402235  0.025618741            2 
 1286000    1.0557325   -7.5855871    390.81822  0.025325182   0.02561143            4 
 1287000    1.0451824   -7.5650611    392.31867  0.025402659   0.02560414            2 
 1288000    1.0493691   -7.6216858    390.89056  0.025290538  0.025596852            3 
 1289000      1.04392   -7.5585362    390.95603  0.025275151  0.025589664            1 
 1290000    1.0503802     -7.57085     392.1042  0.025329729  0.025582517            1 
 1291000    1.0277726   -7.6040128    392.27704  0.025321265  0.025575252            2 
 1292000    1.0601386   -7.6060012    392.35244   0.02530653  0.025568022            2 
 1293000    1.0536342   -7.5724079    392.15743  0.025274389  0.025560818            1 
 1294000    1.0367855   -7.5870414    393.15981   0.02531941  0.025553739            2 
 1295000     1.065861   -7.5922432    393.66063  0.025332087  0.025546716            2 
 1296000    1.0445546   -7.6044845    392.63554  0.025246627   0.02553964            1 
 1297000    1.0524445   -7.5275322    395.32367  0.025399876  0.025532683            2 
 1298000    1.0522173   -7.5488271    394.39711  0.025320821  0.025525856            1 
 1299000    1.0189184   -7.5654186    393.86697  0.025267319  0.025518987            1 
 1300000    1.0558659    -7.613888    394.31308  0.025276479  0.025512112            2 
 1301000    1.0258831   -7.5506584    395.50338  0.025333294  0.025505214            2 
 1302000    1.0595285   -7.6172363    393.82854   0.02520664   0.02549821            3 
 1303000    1.0446115   -7.5647145    395.45628  0.025291397  0.025491115            4 
 1304000    1.0616236   -7.5976501     394.8864  0.025235583  0.025484151            2 
 1305000    1.0620811   -7.5945354    395.55838  0.025259156   0.02547706            1 
 1306000    1.0275138   -7.6293737    395.27365  0.025221647  0.025470088            2 
 1307000    1.0457899   -7.6009987    396.08065  0.025253803  0.025463077            1 
 1308000    1.0264176   -7.5965976    395.58368  0.025202834  0.025456128            2 
 1309000    1.0121158    -7.583485    396.31379  0.025230061   0.02544891            2 
 1310000    1.0484262   -7.5662116     397.1905  0.025266571   0.02544186            1 
 1311000    1.0378791   -7.6076432    396.32344  0.025192184  0.025434797            1 
 1312000     1.024616   -7.5968408    395.51157  0.025121416  0.025427704            2 
 1313000    1.0314713   -7.5988895     397.3877  0.025221357  0.025420657            3 
 1314000    1.0446409   -7.6106529    397.00182   0.02517769  0.025413765            2 
 1315000    1.0429762    -7.602474     396.7388  0.025141876  0.025406726            2 
 1316000    1.0525814   -7.5687014    399.08026   0.02527104  0.025399685            1 
 1317000    1.0354385   -7.6007059     397.8812  0.025175981  0.025392507            2 
 1318000    1.0412275    -7.588356    397.75743  0.025149054  0.025385525            2 
 1319000    1.0221907   -7.5658495     397.8926  0.025138527  0.025378488            2 
 1320000     1.064889    -7.584934    396.97793  0.025061738  0.025371308            1 
 1321000    1.0302034   -7.5794611     398.3348  0.025128362  0.025363972            1 
 1322000    1.0061635   -7.5864049    398.28352  0.025106122  0.025356769            3 
 1323000    1.0365358    -7.599779    398.29633  0.025087952  0.025349477            2 
 1324000    1.0273605   -7.5977427    398.64511  0.025090956  0.025342278            2 
 1325000    1.0454881   -7.6407515    398.09085  0.025037161  0.025334912            1 
 1326000    1.0401201   -7.5718296    399.49468  0.025106503  0.025327548            1 
 1327000    1.0423464   -7.6083555     398.9349   0.02505243   0.02532024            3 
 1328000    1.0245204   -7.6425932    397.97963  0.024973621  0.025312886            3 
 1329000    1.0362708   -7.5894205    398.02345  0.024957578  0.025305509            2 
 1330000    1.0333297   -7.5965875    399.91371   0.02505725  0.025298123            2 
 1331000    1.0421975   -7.5964891    399.22945  0.024995583  0.025290867            2 
 1332000    1.0372373   -7.6155484    399.82248  0.025013919  0.025283473            4 
 1333000    1.0313639   -7.5996103    399.08234  0.024948883  0.025276101            2 
 1334000     1.032621   -7.6528725    399.51196  0.024957019   0.02526862            2 
 1335000    1.0400404   -7.6185217     399.8496  0.024959401  0.025261196            3 
 1336000    1.0613529   -7.6577202    399.17688  0.024898757  0.025253713            3 
 1337000    1.0454426   -7.6089532    400.58189  0.024967707  0.025246186            2 
 1338000    1.0361001     -7.63738    400.30076  0.024931537  0.025238799            1 
 1339000    1.0466275   -7.6407033    400.41929  0.024920295  0.025231425            1 
 1340000     1.016644   -7.6057555    401.79895  0.024987497  0.025224117            1 
 1341000    1.0285219    -7.555975    402.40704  0.025006652  0.025216956            1 
 1342000    1.0373928   -7.5939827    401.84433  0.024953076  0.025209771            2 
 1343000    1.0321771   -7.6110672    401.54707  0.024916051   0.02520253            5 
 1344000     1.017725   -7.6362074    400.92767  0.024859106  0.025195155            1 
 1345000    1.0528268   -7.5818719    403.17435  0.024979823  0.025187894            3 
 1346000    1.0243466   -7.5616716    404.37364  0.025035515  0.025180834            1 
 1347000    1.0389594    -7.554636    403.98708  0.024993014  0.025173739            1 
 1348000    1.0717357   -7.6043357    403.15581  0.024923084  0.025166699            2 
 1349000    1.0379188   -7.6492484    402.39021  0.024857314  0.025159523            3 
 1350000    1.0351485   -7.6055782    403.20324  0.024889089  0.025152281            1 
 1351000    1.0255684   -7.6184641      404.517  0.024951702  0.025145045            1 
 1352000    1.0676016   -7.6151616    404.34262  0.024922499  0.025137768            2 
 1353000     1.036292   -7.6265744    404.34953  0.024904504  0.025130577            2 
 1354000    1.0486143    -7.631178    402.97464  0.024801492  0.025123302            1 
 1355000    1.0333105   -7.6338556    405.44157  0.024934906  0.025116249            2 
 1356000    1.0298213   -7.6075695    406.06533   0.02495485  0.025109241            1 
 1357000    1.0524692    -7.590892    405.57479  0.024906337   0.02510224            2 
 1358000    1.0441314   -7.5977224    406.39813   0.02493852  0.025095346            2 
 1359000    1.0489665   -7.6109031    406.36531  0.024918158  0.025088376            4 
 1360000    1.0258535   -7.6281441    406.57578  0.024912731  0.025081399            3 
 1361000    1.0308563   -7.6489023    406.77248  0.024906471  0.025074568            2 
 1362000    1.0310838   -7.6294896     407.8257  0.024952625   0.02506763            2 
 1363000    1.0412811   -7.6193643    406.38604  0.024846298  0.025060751            2 
 1364000     1.039984    -7.643045    406.58708  0.024840364  0.025053779            1 
 1365000    1.0340986   -7.6462919    406.72385  0.024830516  0.025046726            4 
 1366000    1.0173566   -7.6214017    406.29123  0.024785946  0.025039749            2 
 1367000    1.0291716   -7.6078488    407.89633  0.024865662  0.025032797            1 
 1368000    1.0335998   -7.6155191    407.18337  0.024804055  0.025025797            2 
 1369000    1.0047255   -7.5976565    409.11491  0.024903513   0.02501886            4 
 1370000    1.0137807   -7.5952732    407.94486  0.024814164  0.025011786            2 
 1371000    1.0331268   -7.6298166    409.55017   0.02489364  0.025004766            1 
 1372000    1.0108398   -7.6510153    407.47308  0.024749337  0.024997655            2 
 1373000    1.0268535   -7.6176805     409.8893  0.024877962  0.024990685            2 
 1374000    1.0454478   -7.6700218    408.18707  0.024756615  0.024983667            3 
 1375000    1.0410847   -7.5754829    409.84437  0.024839053  0.024976635            3 
 1376000    1.0205022   -7.6026716    408.66338  0.024749478   0.02496975            2 
 1377000    1.0398551   -7.6005627     410.7959   0.02486056  0.024962854            5 
 1378000    1.0251195    -7.595159    409.88014   0.02478714  0.024956084            2 
 1379000    1.0420455   -7.6299673    409.64065  0.024754692  0.024949318            3 
 1380000    1.0437374   -7.6540964    410.20487  0.024770825  0.024942484            1 
 1381000    1.0502169   -7.6220726    410.63554  0.024778876  0.024935609            2 
 1382000    1.0451992   -7.5927418    411.45727  0.024810496  0.024928754            1 
 1383000    1.0213767   -7.5981368     411.3096  0.024783658  0.024922047            3 
 1384000    1.0352365   -7.6052632    412.10405  0.024813587  0.024915282            3 
 1385000     1.032151   -7.6024984     411.4269  0.024754928  0.024908594            3 
 1386000    1.0454462   -7.6165652    410.75294  0.024696545  0.024901862            1 
 1387000    1.0310442   -7.6284502    411.64585  0.024732387  0.024895065            1 
 1388000    1.0358875    -7.686564    411.19832  0.024687699  0.024888127            4 
 1389000    1.0319451   -7.6320948    412.55454  0.024751293  0.024881304            3 
 1390000     1.018361   -7.5830903    413.17935  0.024770944  0.024874462            1 
 1391000    1.0268546   -7.6296671    412.83678  0.024732613   0.02486768            1 
 1392000    1.0333102   -7.6516319    412.69469  0.024706339  0.024860821            2 
 1393000    1.0544426   -7.6053233    413.45774  0.024734251  0.024854034            5 
 1394000     1.044791   -7.6247476    412.22797  0.024642992  0.024847283            2 
 1395000     1.041465   -7.6158368    412.74874  0.024656436    0.0248405            2 
 1396000    1.0296809   -7.6499079    413.84334  0.024704116  0.024833604            2 
 1397000    1.0135785   -7.6553422    412.66809  0.024616326  0.024826835            3 
 1398000      1.02269   -7.6416879    413.75317  0.024663398  0.024820027            3 
 1399000    1.0417351   -7.6797613    415.11979  0.024727173  0.024813365            1 
 1400000    1.0134003   -7.6511507     413.9829  0.024641839  0.024806543            2 
 1401000    1.0338972   -7.6296206    415.22507  0.024698136  0.024799738            1 
 1402000    1.0491607   -7.6350809    414.38886  0.024630816  0.024793066            1 
 1403000    1.0348156   -7.6433888    415.92656  0.024704595  0.024786621            1 
 1404000    1.0388974    -7.629736     414.5177  0.024603377  0.024780005            1 
 1405000    1.0296848   -7.6383252     414.8192  0.024603748  0.024773307            3 
 1406000    1.0103991   -7.6247123    415.62012   0.02463372  0.024766642            1 
 1407000    1.0166466   -7.6669825    416.54881  0.024671216  0.024759909            4 
 1408000    1.0260661   -7.7140024    415.01212  0.024562744  0.024753077            2 
 1409000    1.0155223   -7.6528634    416.90876  0.024657485  0.024746212            2 
 1410000    1.0108203   -7.6609484    416.38467  0.024609023  0.024739466            2 
 1411000    1.0188961   -7.6053498    417.36364    0.0246494  0.024732681            1 
 1412000    1.0231253   -7.6267641    418.00375  0.024669721  0.024725886            3 
 1413000     1.036416   -7.6152109    416.36043  0.024555345  0.024719144            2 
 1414000    1.0215965   -7.6445553    416.66111    0.0245557   0.02471245            2 
 1415000    1.0277153    -7.630726     416.8053  0.024546837  0.024705593            5 
 1416000    1.0300617   -7.6492571    417.33194  0.024560495    0.0246988            3 
 1417000    1.0162276   -7.6640204    418.58209  0.024616683   0.02469199            2 
 1418000    1.0209972   -7.6281222    417.33128  0.024525816  0.024685323            1 
 1419000    1.0303048    -7.601966    417.24426  0.024503421  0.024678675            2 
 1420000    1.0424741   -7.6346476    418.37653  0.024552613  0.024671986            1 
 1421000    1.0214787   -7.6464736    418.30149  0.024530934  0.024665106            2 
 1422000      1.01515   -7.6718685     417.3315  0.024456839  0.024658315            2 
 1423000    1.0094374   -7.6427474    419.02811  0.024539009  0.024651561            2 
 1424000    1.0038546   -7.6226644    418.48933  0.024490247   0.02464488            2 
 1425000    1.0088628   -7.6526853    418.99883  0.024502856    0.0246381            1 
 1426000    1.0183957    -7.686233     418.8207  0.024475263  0.024631158            2 
 1427000    1.0301853   -7.6520374    418.51174  0.024440069  0.024624173            5 
 1428000    1.0205422    -7.631111    420.32931  0.024529022  0.024617292            2 
 1429000     1.024434   -7.6468721    419.71635  0.024476111  0.024610467            2 
 1430000    1.0064531   -7.6040305    421.30474  0.024551559  0.024603692            2 
 1431000     1.041217   -7.6658901    419.89474  0.024452291  0.024596905            5 
 1432000    1.0415296   -7.6192068     420.4541  0.024467767  0.024590101            3 
 1433000     1.004002   -7.6374371    420.10157  0.024430191  0.024583343            1 
 1434000    1.0198327   -7.6429099    419.34479  0.024369177  0.024576516            3 
 1435000    1.0307155   -7.6526302    420.72205  0.024432175  0.024569829            1 
 1436000    1.0291419   -7.6379143    420.76182  0.024417469  0.024562988            2 
 1437000    1.0512502   -7.6111267    421.54434  0.024445856  0.024556313            2 
 1438000    1.0252682   -7.6297809    421.25358  0.024412006  0.024549499            3 
 1439000    1.0041367   -7.6047673    423.01305  0.024496934  0.024542706            2 
 1440000    1.0069472   -7.6163396    423.28132  0.024495447  0.024536036            3 
 1441000    1.0157916    -7.651873    420.99406  0.024346175  0.024529267            1 
 1442000    1.0337957   -7.5924185    422.68015  0.024426731  0.024522598            2 
 1443000    1.0319405   -7.6347382    422.12715  0.024377867  0.024515791            2 
 1444000    1.0260856   -7.6423857    422.13961  0.024361704  0.024508943            2 
 1445000    1.0263619   -7.6270523    422.74501  0.024379759  0.024502189            1 
 1446000    1.0349199   -7.6515382    422.80899  0.024366585  0.024495352            2 
 1447000    1.0326625   -7.6665665    422.58302  0.024336732  0.024488458            3 
 1448000    1.0227233   -7.6405086    423.08061  0.024348562  0.024481758            3 
 1449000    1.0275438    -7.677143    423.81043  0.024373731  0.024474972            2 
 1450000    1.0207708    -7.639385    423.89081  0.024361541  0.024468219            3 
 1451000    1.0248479   -7.6349473    424.75874  0.024394598  0.024461448            3 
 1452000    1.0314773   -7.6443511    423.94752   0.02433124  0.024454605            2 
 1453000    1.0266488   -7.6112826    424.98331    0.0243739  0.024447759            2 
 1454000    1.0111535    -7.671512    423.24908  0.024257742  0.024440931            2 
 1455000    1.0150228   -7.6431363    423.44225  0.024252133  0.024434018            2 
 1456000    1.0101995    -7.691493    423.76939    0.0242542  0.024427196            1 
 1457000    1.0255225   -7.6732629    423.88221  0.024244006  0.024420351            2 
 1458000    1.0259427   -7.6310397    425.82632  0.024338496  0.024413539            3 
 1459000    1.0360548   -7.6667672    423.78087  0.024204985  0.024406646            1 
 1460000    1.0361791   -7.6396472    425.92474  0.024310773   0.02439986            5 
 1461000    1.0305899   -7.6122665    425.53652  0.024271989  0.024393124            3 
 1462000    1.0329312   -7.6716542    425.51244  0.024254015  0.024386359           10 
 1463000   0.99266534   -7.6364309    426.14093  0.024273236  0.024379582            1 
 1464000    1.0166718   -7.6675269    426.19446  0.024259703  0.024372775            1 
 1465000    1.0079108   -7.6428926    426.96903  0.024287203  0.024366112            2 
 1466000    1.0448855   -7.6568235    425.98079   0.02421446  0.024359328            2 
 1467000    1.0117203   -7.6750432    426.16712  0.024208539  0.024352647            2 
 1468000     1.037324   -7.6933517    426.11212  0.024188926  0.024345826            2 
 1469000     1.016875     -7.68599    426.40923  0.024189314  0.024338932            2 
 1470000    1.0369406   -7.6518846    426.62079  0.024184852  0.024332043            2 
 1471000    1.0187217   -7.6649558    427.76981  0.024233504  0.024325157            3 
 1472000    1.0139588   -7.6785218    426.11553  0.024123388  0.024318335            2 
 1473000    1.0285539   -7.6692553    426.17025  0.024110107  0.024311477            2 
 1474000    1.0283787   -7.6875876    427.25014  0.024154802  0.024304549            2 
 1475000    1.0028447   -7.6645582    427.79813  0.024169386  0.024297597            1 
 1476000     1.012981   -7.6809228    427.51723  0.024137152  0.024290797            3 
 1477000     1.031118   -7.6578766    428.18737  0.024158619   0.02428396            2 
 1478000    1.0278804   -7.6583234    427.49485  0.024103228  0.024277135            4 
 1479000    1.0071705   -7.6824704    427.79678  0.024103943  0.024270297            1 
 1480000    1.0292036   -7.6639638    427.52191   0.02407218  0.024263329            3 
 1481000    1.0186902    -7.615435     429.5343  0.024169159  0.024256494            1 
 1482000    1.0167613   -7.6931745    427.28401  0.024026317  0.024249505            1 
 1483000    1.0158005   -7.7014684    427.50575  0.024022575  0.024242409            3 
 1484000    1.0094534   -7.6734696    429.77535  0.024133836  0.024235371            6 
 1485000    1.0030495   -7.6382656    428.90896  0.024068965  0.024228462            3 
 1486000    1.0489628   -7.6808283    428.50765  0.024030263  0.024221475            2 
 1487000    1.0063576   -7.6961207    427.82986  0.023976119  0.024214445            2 
 1488000    1.0176257   -7.6353534    429.66487  0.024062773  0.024207502            1 
 1489000    1.0114549   -7.6461956     430.2352  0.024078532  0.024200724            2 
 1490000    1.0061903   -7.6723683    430.75425  0.024091401  0.024193748            1 
 1491000    1.0147723   -7.6856143    429.94109  0.024029795  0.024186947            4 
 1492000    1.0202101   -7.6167661    430.72072  0.024057234  0.024180189            2 
 1493000    1.0220381   -7.6349932    431.93766  0.024109045  0.024173465            3 
 1494000    1.0179839   -7.6828244    430.03801  0.023986949  0.024166701            1 
 1495000   0.99993219   -7.7043829    430.52941  0.023998295  0.024159765            3 
 1496000    1.0220981    -7.668944    431.14798   0.02401671  0.024152933            1 
 1497000    1.0127544   -7.6148325    432.54356  0.024078355  0.024146208            3 
 1498000    1.0090257   -7.7013943    431.32587  0.023994541   0.02413939            2 
 1499000    1.0003793   -7.6119925    434.21531  0.024139165  0.024132549            2 
 1500000    1.0114606   -7.6798167    432.05035  0.024002797  0.024125793            3 
 1501000    1.0366777   -7.6514779    432.35738  0.024003852  0.024118982            1 
 1502000    1.0162306   -7.6949807    430.56439  0.023888393  0.024112195            1 
 1503000   0.99618387   -7.6449253    432.12733  0.023959155  0.024105393            4 
 1504000    1.0087051   -7.7067394    431.76587  0.023923197  0.024098549            2 
 1505000   0.99691562   -7.6914688    431.17927  0.023874821  0.024091615            1 
 1506000    1.0112337   -7.6722276    432.84629  0.023951211  0.024084745            4 
 1507000    1.0208681   -7.6660281    434.00368  0.023999319  0.024077961            2 
 1508000    1.0155056   -7.6683611    433.92963  0.023979312  0.024071064            2 
 1509000    1.0070434   -7.6836128    433.17757  0.023921889  0.024064323            4 
 1510000    1.0191821   -7.6582538    434.64018  0.023986765  0.024057625            1 
 1511000    1.0101879   -7.6784906    434.40193  0.023957751  0.024050786            1 
 1512000    1.0077709   -7.6549205    434.89026  0.023968819  0.024044028            4 
 1513000    1.0147258   -7.7223874    432.96186  0.023846765  0.024037283            1 
 1514000    1.0219647   -7.6553543    433.79733  0.023876999  0.024030373            3 
 1515000    1.0104853   -7.6656896    433.86551   0.02386499  0.024023363            1 
 1516000    1.0296164   -7.6820828    433.67931  0.023839012   0.02401641            1 
 1517000   0.98189137   -7.6945978    433.62538  0.023820335  0.024009406            2 
 1518000   0.99696662   -7.7266815    432.66823  0.023752099  0.024002408            4 
 1519000    1.0084377   -7.6955851    434.18589  0.023819722  0.023995344            2 
 1520000    1.0143142   -7.6932004    434.79235    0.0238373  0.023988226            1 
 1521000    1.0012394   -7.6831099    434.21873    0.0237902  0.023981162            2 
 1522000    1.0033946   -7.6865538    434.33932  0.023781172  0.023974206            5 
 1523000    1.0227437   -7.6872027    434.44649  0.023771421  0.023967177            3 
 1524000    1.0157122   -7.7015853    434.58285  0.023763279  0.023960127            2 
 1525000    1.0054273   -7.6401437    435.68079  0.023807694  0.023953085            2 
 1526000   0.99716634   -7.7307358    434.58351  0.023732171  0.023946251            1 
 1527000    1.0168287   -7.6486832    436.14117  0.023801636  0.023939226            3 
 1528000   0.97878953   -7.6561437    434.54476  0.023698995  0.023932306            1 
 1529000     1.029904   -7.6835286    436.50667  0.023790422  0.023925282            2 
 1530000    1.0116298   -7.6880636    435.82523  0.023737758  0.023918274            1 
 1531000    1.0162231   -7.6697442    436.85905  0.023778524  0.023911357            1 
 1532000    1.0069033   -7.6693891    437.50662  0.023798228  0.023904583            1 
 1533000    1.0126393   -7.6782731    435.86928  0.023693699  0.023897726            2 
 1534000    1.0075581   -7.7074763    435.77572   0.02367317  0.023890746            2 
 1535000    1.0330681   -7.6932783    437.40441  0.023746168  0.023883877            1 
 1536000   0.97788931   -7.6788234    437.69694  0.023746579  0.023876959            1 
 1537000    1.0074246   -7.6880744    437.31818  0.023710593  0.023869947            1 
 1538000   0.98650262   -7.7031625    438.17558  0.023741633  0.023863016            6 
 1539000    1.0170712   -7.6867262    438.04002  0.023718866  0.023856163            2 
 1540000    1.0017127   -7.6772529     438.6445  0.023736174  0.023849389            2 
 1541000    1.0013978   -7.6886172    438.99984  0.023739987  0.023842584            2 
 1542000    1.0044347   -7.7104718    437.78695  0.023659044   0.02383575            2 
 1543000     1.001262   -7.7161297    438.09643  0.023660425  0.023828877            4 
 1544000    1.0126465   -7.6806386    438.83283  0.023684846     0.023822            1 
 1545000    1.0125998   -7.6869229    439.20978  0.023689848   0.02381522            3 
 1546000    1.0317195   -7.6694337    439.92028  0.023712822  0.023808291            3 
 1547000   0.98498839    -7.692714    439.42483  0.023670805  0.023801498            2 
 1548000    1.0007858   -7.6557172    439.65855  0.023668096  0.023794662            2 
 1549000    1.0177843   -7.6966083    439.68558  0.023654271  0.023787883            3 
 1550000   0.99479493   -7.6965841    439.92345  0.023651798  0.023781104            4 
 1551000    1.0306428   -7.6956924    440.11676  0.023646935  0.023774363            3 
 1552000   0.99328666    -7.698066    440.16469  0.023634273  0.023767673            3 
 1553000   0.99716048    -7.695274    440.64378  0.023644762  0.023760889            3 
 1554000   0.97804703   -7.6707052    441.15582  0.023657004  0.023754193            3 
 1555000     0.997828   -7.6683113    442.27711  0.023701881  0.023747488            1 
 1556000   0.98597755     -7.71393    440.36841  0.023584426  0.023740722            1 
 1557000    1.0110949   -7.6933322    440.66548  0.023585179  0.023733926            2 
 1558000    1.0055032   -7.6751659    441.34855  0.023606577  0.023727226            2 
 1559000    1.0131371   -7.7222178    441.07242  0.023576674  0.023720504            1 
 1560000    1.0292901   -7.7228902    441.60977  0.023590265  0.023713763            1 
 1561000    0.9837457   -7.6889789    441.78121  0.023584306  0.023707006            3 
 1562000    1.0083423   -7.6822756     442.1877  0.023590893  0.023700322            4 
 1563000   0.99643315   -7.6832905    443.30352  0.023635291  0.023693651            1 
 1564000     1.018116   -7.7004381    442.80801  0.023593777  0.023687025            2 
 1565000    1.0063212   -7.7067723    443.64522  0.023623281   0.02368046            2 
 1566000   0.98685133   -7.6712998    444.66488  0.023662456  0.023673915            3 
 1567000   0.97478369     -7.69081    446.31525  0.023735123   0.02366746            3 
 1568000   0.98711085   -7.6857986    444.81969  0.023640502  0.023661048            1 
 1569000    1.0007312   -7.7136769    444.29655   0.02359765   0.02365451            2 
 1570000    1.0007679   -7.6660763    446.02903  0.023674577  0.023648048            6 
 1571000   0.99245456   -7.6965819    446.02187  0.023659127  0.023641622            2 
 1572000    1.0024648   -7.7472012    443.06821    0.0234875  0.023635081            2 
 1573000   0.99588273   -7.7324745    445.57924  0.023605596  0.023628345            1 
 1574000    1.0013134   -7.7094663    444.56143  0.023536713  0.023621739            1 
 1575000    1.0202741   -7.6758243    445.34163  0.023563049  0.023615165            1 
 1576000    1.0028983   -7.6969005    445.32076  0.023546994   0.02360868            2 
 1577000   0.98894851   -7.6911424    444.64415  0.023496309   0.02360218            3 
 1578000    1.0105652   -7.6659329     447.1737  0.023615003  0.023595749            2 
 1579000   0.99898488   -7.6985996    447.20703  0.023601807  0.023589311            2 
 1580000    1.0223643   -7.6842076    445.98351  0.023522337  0.023582756            3 
 1581000    1.0055663   -7.6846742    445.41634  0.023477564  0.023576186            1 
 1582000   0.99832102    -7.693898    445.85929  0.023486056  0.023569661            5 
 1583000    0.9934409   -7.7106625    447.02189  0.023532422  0.023563172            8 
 1584000    1.0102344   -7.6855299    447.25268  0.023529707  0.023556747            2 
 1585000    1.0255175   -7.7004267    446.30523  0.023465049  0.023550163            4 
 1586000    1.0195164   -7.7192495    446.33363  0.023451746  0.023543493            1 
 1587000    1.0107967   -7.6885989    447.36854  0.023491312  0.023536964            2 
 1588000    1.0033203   -7.6898137    446.07455  0.023408614  0.023530364            3 
 1589000    1.0040287   -7.6977567    446.62204  0.023422595   0.02352361            2 
 1590000   0.98468705   -7.7361785    447.01083  0.023428241  0.023516948            3 
 1591000   0.98118577    -7.716289    447.62565  0.023445718  0.023510244            2 
 1592000   0.99594363   -7.7088591    447.50703  0.023424782  0.023503555            3 
 1593000    1.0140646   -7.6713093    448.70155  0.023472565  0.023496928            3 
 1594000   0.98861896   -7.7101419    449.45508  0.023497234  0.023490401            2 
 1595000    1.0104895   -7.7061879    448.96284  0.023456784   0.02348384            1 
 1596000    1.0046642   -7.7133122    448.38895  0.023412121  0.023477228            1 
 1597000    1.0184525   -7.7055852    449.16354  0.023437881  0.023470609            2 
 1598000   0.99401879   -7.7297937    448.80702  0.023404621  0.023463908            3 
 1599000    1.0071869   -7.6884791    449.69935  0.023436489  0.023457352            3 
 1600000   0.98864917   -7.6801173    449.64204  0.023418856    0.0234508            2 
 1601000    1.0119469   -7.6778042    449.55159  0.023399521  0.023444345            2 
 1602000    1.0003004   -7.6917447    448.96648  0.023354477  0.023437761            3 
 1603000   0.98989996   -7.7017364    449.52655  0.023369024  0.023431166            1 
 1604000    1.0090888   -7.6868382    449.14777  0.023334776  0.023424457            3 
 1605000   0.99061191   -7.7279393    448.43782  0.023283376  0.023417803            3 
 1606000   0.98848257   -7.7514738    448.58468  0.023276499  0.023410978            1 
 1607000   0.97935224   -7.7288714    448.32058  0.023248319  0.023404187            3 
 1608000   0.99944676   -7.7139519    449.03276  0.023270769  0.023397455            2 
 1609000   0.97697048   -7.7112973    448.08176  0.023207052  0.023390708            2 
 1610000   0.98066822   -7.7189251    449.94333  0.023288992  0.023383955            1 
 1611000    1.0221601   -7.6874868    450.85019  0.023321446  0.023377255            3 
 1612000   0.97985502   -7.6767496    452.62621  0.023398791  0.023370665            3 
 1613000   0.97731452   -7.7356539    450.62221  0.023280751  0.023363964            1 
 1614000   0.99666176    -7.741857    448.69291  0.023166713  0.023357183            2 
 1615000   0.99013072   -7.7236334    449.58186  0.023198239  0.023350376            2 
 1616000   0.98481734   -7.6735289    451.61234   0.02328859  0.023343536            3 
 1617000   0.98668627   -7.7457839    449.07021  0.023143177  0.023336701            2 
 1618000   0.98868781   -7.7350547    450.08691  0.023181238  0.023329794            2 
 1619000   0.98229334   -7.7249294    450.18743  0.023172093  0.023322874            5 
 1620000   0.98710637   -7.7232652     450.6496  0.023181564  0.023315943            4 
 1621000    1.0094454    -7.724479    450.33704  0.023151195  0.023308967            1 
 1622000    0.9964736   -7.7222158    450.30852  0.023135456  0.023302113            2 
 1623000   0.99341878   -7.7029656    451.36598  0.023175497  0.023295235            2 
 1624000   0.95910462   -7.7277414     450.8013  0.023132251  0.023288442            2 
 1625000   0.98812927   -7.7197244    452.02851  0.023180949  0.023281643            1 
 1626000   0.98944837   -7.7603948    450.99311  0.023113628  0.023274766            1 
 1627000   0.99286501   -7.7193767    451.62337  0.023131703  0.023267948            3 
 1628000   0.98704096   -7.7111938    452.12392  0.023143116  0.023261155            2 
 1629000    1.0070663   -7.7407317    452.11218  0.023128309  0.023254288            2 
 1630000    1.0046493    -7.691607    451.81925  0.023099144  0.023247413            1 
 1631000   0.97865012   -7.6998011    452.21357  0.023105128  0.023240621            2 
 1632000   0.97743992   -7.6916777    453.18444  0.023140545  0.023233825            2 
 1633000   0.96783492   -7.7182827    452.83863  0.023108728  0.023226853            1 
 1634000    0.9716011   -7.7192224    452.64129  0.023084521  0.023220018            4 
 1635000    1.0012277   -7.7728771    452.87576  0.023082353  0.023213184            2 
 1636000    1.0177576   -7.7054454     453.2405  0.023086823  0.023206344            1 
 1637000    1.0092049   -7.7583646    453.89853  0.023106217  0.023199482            1 
 1638000   0.99626428   -7.6861778    453.83953  0.023089109  0.023192726            2 
 1639000    1.0003954   -7.6966831     454.3222  0.023099563   0.02318596            2 
 1640000   0.99703508   -7.6860446     455.0892  0.023124451   0.02317916            2 
 1641000   0.98875464   -7.7059051    455.20069  0.023116021  0.023172395            3 
 1642000    1.0033983   -7.7176471    452.99482  0.022989993  0.023165619            2 
 1643000   0.99373493   -7.6932196    455.23484  0.023089614  0.023158811            3 
 1644000   0.98008228   -7.6946264     454.9546  0.023061364  0.023151956            2 
 1645000   0.98509432   -7.7120852    454.82993   0.02304103  0.023145128            2 
 1646000   0.97729849   -7.6956035    455.75532  0.023073882  0.023138371            2 
 1647000   0.98824695   -7.7429673    454.06541  0.022974368  0.023131595            1 
 1648000   0.98103402   -7.7278366    454.91092  0.023003182  0.023124778            2 
 1649000   0.99736084   -7.7109102    453.88913  0.022937595  0.023117827            4 
 1650000   0.97147311   -7.7177931    455.30715  0.022995311  0.023111042            1 
 1651000   0.96800962   -7.7250974    455.53868  0.022993069  0.023104165            2 
 1652000   0.96788172   -7.6934258    455.64188  0.022984356   0.02309724            3 
 1653000   0.98716651   -7.6939868    455.36591  0.022956539  0.023090372            2 
 1654000    1.0028275   -7.6977977    457.34778  0.023042512  0.023083553            2 
 1655000    0.9927971   -7.7278627    455.93417  0.022957411  0.023076769            2 
 1656000   0.99342662   -7.7218607    455.96726  0.022945212  0.023070007            4 
 1657000   0.99367217   -7.7592104    456.61858  0.022964121  0.023063153            2 
 1658000    1.0009078   -7.7495302    455.89042  0.022913672  0.023056288            3 
 1659000   0.98200671   -7.7327579    456.85755  0.022948441  0.023049455            2 
 1660000   0.98994386   -7.7698653    457.33686  0.022958678  0.023042597            2 
 1661000   0.96044868   -7.7663186    455.46416  0.022850901  0.023035745            2 
 1662000   0.99697665    -7.750859    457.47826   0.02293814  0.023028888            4 
 1663000   0.97780412   -7.7347097    456.41339  0.022870986  0.023022062            2 
 1664000   0.98305161    -7.755407    456.87302  0.022880259  0.023015196            6 
 1665000   0.97053094    -7.769551    457.69216  0.022907515  0.023008327            3 
 1666000   0.97711777   -7.7474526    456.33236  0.022825748  0.023001493            5 
 1667000    1.0176721   -7.7432088    459.04027  0.022947424  0.022994776            2 
 1668000   0.98900973   -7.7759375    456.61677  0.022812588  0.022987959            2 
 1669000   0.99299703   -7.7480034    457.81555  0.022858775  0.022981045            3 
 1670000   0.99233687   -7.7684358     457.7736  0.022842994  0.022974163            3 
 1671000   0.96169277   -7.7220543    457.94126  0.022837685  0.022967249            3 
 1672000   0.99235794   -7.7543924    457.00595   0.02277741  0.022960322            3 
 1673000   0.96924754   -7.7398532    459.35552  0.022880829  0.022953386            4 
 1674000   0.98195539   -7.7290358    458.80662  0.022839836  0.022946527            3 
 1675000   0.97062928   -7.7008589     458.5995  0.022815896  0.022939712            3 
 1676000   0.98460866   -7.7203979    459.45355  0.022844747  0.022932788            3 
 1677000   0.96559946   -7.7295744    458.59047  0.022788236  0.022925947            1 
 1678000   0.98464879   -7.7371797    460.09481  0.022849365  0.022919084            1 
 1679000   0.98744371   -7.7229994    458.92789  0.022777838   0.02291227            1 
 1680000   0.98143871   -7.7597086    458.18858  0.022727608  0.022905474            2 
 1681000   0.96343918   -7.7331629     458.2545  0.022717356  0.022898663            2 
 1682000   0.97002195   -7.7712249    459.71993  0.022776453  0.022891839            2 
 1683000   0.98899975   -7.7221098    460.48959  0.022801029  0.022885015            2 
 1684000   0.97668728   -7.7648829    460.05723  0.022766094  0.022878223            3 
 1685000   0.96898056   -7.7375486    461.03077   0.02280073   0.02287142            3 
 1686000   0.99397929   -7.7647427    459.34511  0.022703891  0.022864564            5 
 1687000   0.99235127   -7.7722254    460.33969  0.022739562  0.022857613            4 
 1688000   0.97942271   -7.7570053    462.01323   0.02280871  0.022850835            1 
 1689000   0.96757672   -7.7430729    461.53401  0.022771562  0.022844167            1 
 1690000   0.98111334   -7.7307957    461.19217  0.022741231  0.022837439            3 
 1691000   0.98698435   -7.7658986    460.51339  0.022694332  0.022830641            2 
 1692000   0.98161677    -7.738133    461.11614  0.022710606  0.022823891            3 
 1693000    0.9738906   -7.7763618    460.13072  0.022648687  0.022817163            3 
 1694000   0.97733019   -7.7803084    460.63765  0.022660254  0.022810348            2 
 1695000   0.97509107   -7.7573968     462.7221  0.022749366  0.022803497            3 
 1696000    1.0160121   -7.7980778    461.18381  0.022660368  0.022796616            2 
 1697000   0.98573106   -7.7630139    461.86565  0.022680497  0.022789794            2 
 1698000   0.98705467   -7.7644856    462.13285  0.022680254   0.02278307            2 
 1699000   0.98106745   -7.7470799    462.93474  0.022706236  0.022776424            1 
 1700000   0.99276038   -7.7376054    462.71999  0.022682353  0.022769657            3 
 1701000   0.97803497   -7.7482549    462.34259  0.022650528  0.022762904            4 
 1702000   0.97485272   -7.7703329    462.46481  0.022643205  0.022756176            4 
 1703000   0.96456194   -7.7736684    462.76283  0.022644492  0.022749417            1 
 1704000   0.99461704   -7.7514745    464.00896  0.022692144  0.022742698            4 
 1705000   0.96373486    -7.804592     462.7241  0.022616036  0.022735956            3 
 1706000   0.96943319   -7.7755764    462.96252  0.022614426  0.022729174            2 
 1707000   0.97208143   -7.7635745    464.38229  0.022670489  0.022722395            2 
 1708000   0.96950294   -7.7405682     464.8704  0.022681031  0.022715728            3 
 1709000   0.97352393   -7.7680994    463.40005  0.022596062  0.022709041            3 
 1710000   0.97982181   -7.7388499    463.82837  0.022603722  0.022702292            3 
 1711000   0.99499849    -7.767388    463.78423  0.022588361  0.022695557            1 
 1712000   0.95580621   -7.7500906    464.93284  0.022631077  0.022688856            1 
 1713000   0.96195482   -7.7539804    465.45252  0.022643147  0.022682104            2 
 1714000   0.97972236   -7.7519072     463.6334  0.022541492  0.022675341            1 
 1715000   0.97202075   -7.7969848    463.86192  0.022539452  0.022668488            3 
 1716000   0.98173094   -7.7644049    463.96402  0.022531275  0.022661557            6 
 1717000   0.96269737   -7.7606161    464.32797  0.022535817  0.022654724            1 
 1718000   0.99875285   -7.7703045    464.91933  0.022551384  0.022647964            2 
 1719000   0.96450496   -7.7545327    465.59631  0.022571084  0.022641246            3 
 1720000   0.95437789   -7.7296954    465.15102  0.022536386   0.02263451            2 
 1721000   0.97904105   -7.7136263    465.37411  0.022534094  0.022627722            3 
 1722000   0.99070123   -7.8042622    464.43034  0.022475336  0.022620933            3 
 1723000   0.96816786   -7.7990785    465.22197  0.022500579  0.022614084            2 
 1724000    1.0017393   -7.7900255     465.6625  0.022508822  0.022607314            2 
 1725000   0.99625102   -7.7431796    464.77564  0.022452929  0.022600512            4 
 1726000   0.99375222   -7.7405899    467.52955  0.022572883  0.022593766            1 
 1727000   0.98954506   -7.7573221    465.31647  0.022453024  0.022586948            1 
 1728000   0.97280143   -7.8190925    464.48101   0.02239974  0.022580027            2 
 1729000   0.95718371   -7.7592026    467.15866  0.022515841  0.022573159            2 
 1730000   0.97215012   -7.7772618    466.17693  0.022455536   0.02256632            3 
 1731000   0.95841355   -7.7797375    467.19725  0.022491684  0.022559541            4 
 1732000   0.98674801   -7.8090819    465.77403  0.022410221  0.022552739            3 
 1733000    0.9937945   -7.7929702    467.02605  0.022457494  0.022545926            2 
 1734000   0.98272642   -7.7381345    467.13567  0.022449811  0.022539114            3 
 1735000   0.96058906   -7.7631126    466.38557  0.022400844  0.022532273            2 
 1736000     1.011181   -7.7895382    466.96468  0.022415739  0.022525467            3 
 1737000   0.94908692   -7.7326152    469.16686  0.022508485  0.022518681            2 
 1738000   0.96808902    -7.758013    466.92471  0.022388028  0.022511838            2 
 1739000   0.96979951   -7.7772991     467.9532  0.022424439     0.022505            3 
 1740000   0.96601089   -7.8311189    467.06163  0.022368852  0.022498097            3 
 1741000   0.97284968   -7.7954493    467.77941  0.022390361  0.022491198            2 
 1742000   0.97578857   -7.7775384    467.35036  0.022356983  0.022484351            3 
 1743000   0.94662574   -7.7334361    469.30077  0.022437405  0.022477506            1 
 1744000   0.97824538   -7.7455849    469.35648  0.022427202   0.02247084            1 
 1745000   0.97366912   -7.7510708    469.15655  0.022404802  0.022464137            1 
 1746000    0.9620619   -7.7593567    469.46863  0.022406865  0.022457474            3 
 1747000   0.99308663    -7.765863    469.23873  0.022383072  0.022450787            3 
 1748000   0.99774248   -7.7513363    469.73949   0.02239414  0.022444097            3 
 1749000   0.95866586   -7.7876834    469.34996  0.022362777  0.022437437            4 
 1750000   0.95203156   -7.7745762    469.99259  0.022380599  0.022430779            5 
 1751000   0.96661059   -7.7963355    468.92465  0.022316993  0.022424081            2 
 1752000   0.97091903    -7.732175     471.8099  0.022441491  0.022417516            2 
 1753000   0.98252369   -7.7774898    469.74637  0.022330594  0.022410992            2 
 1754000   0.96058945   -7.7693259     472.0397   0.02242682   0.02240446            1 
 1755000   0.97107999   -7.7946447    471.57678   0.02239206  0.022397973            2 
 1756000   0.96328222   -7.7404261    471.75456  0.022387745  0.022391473            3 
 1757000   0.95299156   -7.7974231    471.29094  0.022353013  0.022384996            3 
 1758000   0.96476029   -7.7801463    472.27145  0.022386777  0.022378515            4 
 1759000    0.9763568   -7.8117312    471.23939  0.022325156  0.022371921            2 
 1760000   0.96488363   -7.7786466     471.4205  0.022321046  0.022365384            1 
 1761000   0.97829925   -7.7963138    472.53409  0.022361068   0.02235888            2 
 1762000   0.97996945   -7.7996536    472.25154  0.022335014  0.022352407            2 
 1763000   0.98793114   -7.8097656    472.55717  0.022336792  0.022345897            2 
 1764000   0.97749082   -7.7963659    472.68503   0.02233017  0.022339422            3 
 1765000   0.97632743   -7.7549484    471.74617   0.02227319  0.022332903            4 
 1766000   0.97118022   -7.7801113    472.51514  0.022296864  0.022326356            6 
 1767000   0.99842371   -7.8236789    471.63331  0.022242657  0.022319791            1 
 1768000   0.95457932    -7.826245    472.03158  0.022248849  0.022313253            3 
 1769000   0.97939074   -7.7719408    473.13656  0.022288325   0.02230672            2 
 1770000   0.96264047   -7.7808507    472.92742  0.022265886  0.022300179            3 
 1771000   0.96766292   -7.7904934    472.61757  0.022238734  0.022293638            2 
 1772000   0.96652982   -7.7968296    473.81218  0.022282364  0.022287051            2 
 1773000   0.96766028   -7.7991981    473.28482  0.022245009  0.022280529            1 
 1774000    0.9661473    -7.792614     471.6542  0.022155872  0.022273874            2 
 1775000   0.96274201    -7.768469    473.91168  0.022249375  0.022267301            3 
 1776000   0.94033256   -7.7818149    473.68858  0.022226379  0.022260718            1 
 1777000   0.96037835    -7.772445    473.65163  0.022212138  0.022254078            2 
 1778000   0.95589279   -7.7768936    473.21194  0.022179037   0.02224751            3 
 1779000   0.94114694    -7.780574    473.64467   0.02218684  0.022240876            2 
 1780000   0.96031044   -7.8093672    473.52174  0.022168621  0.022234215            2 
 1781000   0.98676069   -7.7642373    475.20028  0.022234713  0.022227651            4 
 1782000    0.9713712   -7.7467254     474.5223   0.02219053  0.022221167            2 
 1783000   0.94808532   -7.7812793    474.98539  0.022199729  0.022214743            4 
 1784000   0.97288513   -7.8034029    475.46322  0.022209605  0.022208239            2 
 1785000    0.9639139   -7.8244009    473.56556   0.02210857  0.022201681            2 
 1786000   0.97048556   -7.8001289    474.23799  0.022127566  0.022195063            1 
 1787000   0.96701699   -7.7702152    476.11337  0.022202638  0.022188544            3 
 1788000   0.94214398   -7.7689953     475.4526  0.022159424  0.022181965            6 
 1789000   0.97186127   -7.7920555    474.90373  0.022121471  0.022175426            4 
 1790000   0.96034181     -7.78747    474.85757  0.022106963  0.022168891            2 
 1791000    0.9826021   -7.7718762    476.50406  0.022171229  0.022162357            2 
 1792000   0.94861471   -7.7806454    476.16468  0.022143075  0.022155828            3 
 1793000   0.96882789   -7.7943717    475.64621  0.022106628   0.02214926            1 
 1794000   0.96977046   -7.8000576    475.75867  0.022099529  0.022142747            1 
 1795000   0.96401939   -7.7926063    476.19257  0.022107362  0.022136172            4 
 1796000   0.97335906   -7.7907191    475.70319  0.022072345  0.022129599            2 
 1797000   0.96738948   -7.7627739    476.59013  0.022101193  0.022123099            2 
 1798000   0.97332554   -7.8377028    476.32461  0.022076595  0.022116485            3 
 1799000   0.97299055   -7.7935304    476.62599  0.022078284  0.022109815            2 
 1800000    0.9433334    -7.801484    477.23536  0.022094229  0.022103255            2 
 1801000   0.96230511   -7.8175007    476.88944  0.022065956   0.02209671            1 
 1802000    0.9700857   -7.8191724    477.59844  0.022086498  0.022090201            2 
 1803000   0.97806403   -7.7889169     479.1084  0.022144038  0.022083628            3 
 1804000   0.93394647   -7.7838332    477.72402  0.022067813  0.022077214            4 
 1805000   0.97098141   -7.7420449    479.88358   0.02215529  0.022070754            2 
 1806000   0.95841383   -7.8145514    477.37524  0.022027281  0.022064234            2 
 1807000   0.96291038   -7.7733781    477.99639  0.022043737  0.022057674            3 
 1808000   0.94847456   -7.8034148    477.47069  0.022007314  0.022051149            5 
 1809000   0.96378412   -7.7871339    478.40677   0.02203827  0.022044648            1 
 1810000   0.96598283   -7.8252267    478.07719   0.02201092  0.022038112            2 
 1811000   0.96295064   -7.7951084    478.02906  0.021996552  0.022031576            3 
 1812000   0.95869089   -7.7848678    479.55879  0.022054764  0.022025118            1 
 1813000    0.9695291   -7.8274086    478.35197  0.021987129  0.022018572            2 
 1814000   0.95188921   -7.7971452    478.02565  0.021960017  0.022012062            2 
 1815000   0.97377937   -7.8113939    478.78743  0.021982894  0.022005628           11 
 1816000   0.95730328   -7.8045195    478.69957  0.021966757  0.021999233            2 
 1817000   0.95613413   -7.8066746    479.41885  0.021987656  0.021992819            3 
 1818000   0.96536459   -7.7612914    480.66727  0.022032786  0.021986413            1 
 1819000    0.9713947   -7.8096289    480.16781  0.021997792  0.021980057            1 
 1820000   0.97545972   -7.7932879    481.30018  0.022037554  0.021973723            3 
 1821000   0.97916846   -7.7679129    482.12531  0.022063212  0.021967402            1 
 1822000   0.97184475   -7.8022916    480.44477  0.021974239  0.021960973            2 
 1823000   0.96332954   -7.7866267    481.57635  0.022013912  0.021954629            2 
 1824000   0.97122711   -7.8011659    480.74832  0.021964013  0.021948256            4 
 1825000     0.968362   -7.7705059    482.02215  0.022010144   0.02194183            1 
 1826000   0.96382618    -7.787572    481.67164  0.021982094  0.021935445            1 
 1827000   0.96748373   -7.7846536    480.66789  0.021924279  0.021929149            1 
 1828000   0.96114638   -7.8013794    481.27332  0.021939885  0.021922704            2 
 1829000   0.96275783   -7.8119971    481.63192  0.021944228  0.021916281            3 
 1830000   0.96033394   -7.8103521    480.57998  0.021884334  0.021909832            5 
 1831000   0.94460102   -7.8318524    481.46838  0.021912815   0.02190341            2 
 1832000     0.961342   -7.7777543     483.1613  0.021977861  0.021897063            1 
 1833000    0.9437109   -7.8064733    481.45169  0.021888147  0.021890688            1 
 1834000   0.96062264    -7.808166     481.8941  0.021896315  0.021884336            2 
 1835000   0.96590976   -7.8015683    482.46427  0.021910276  0.021877888            3 
 1836000   0.96648833   -7.7998923    482.85674  0.021916155  0.021871432            3 
 1837000   0.95371439   -7.8111096    481.16477  0.021827471  0.021864884            1 
 1838000   0.96544709   -7.8533325    480.60918  0.021790405  0.021858393            4 
 1839000   0.94734432    -7.814507    481.93026   0.02183842   0.02185197            1 
 1840000   0.96287875   -7.8115194    482.15156  0.021836574  0.021845567            1 
 1841000   0.96417601   -7.7794109    482.86597  0.021857051  0.021839184            2 
 1842000   0.94739603   -7.7850487     482.5913  0.021832759  0.021832752            3 
 1843000    0.9601901   -7.8382617    482.17611  0.021802139  0.021826269            2 
 1844000   0.95397081   -7.8026555    483.10973  0.021832508  0.021819774            6 
 1845000     0.949924   -7.7945993    482.80776  0.021807035  0.021813313            3 
 1846000   0.96856816   -7.8489767    483.05344  0.021806313  0.021806859            3 
 1847000   0.96272378   -7.8493882    481.75158  0.021735769  0.021800291            2 
 1848000   0.95328032   -7.8579378    483.66653  0.021810359  0.021793835            3 
 1849000   0.96199924   -7.7949904    483.74771  0.021802222  0.021787404            1 
 1850000   0.95127794   -7.8282181     484.4415  0.021821689  0.021781008            1 
 1851000   0.93911676   -7.8274705    483.74992  0.021778765  0.021774576            2 
 1852000   0.95439461   -7.8237309       482.78  0.021723362  0.021768181            3 
 1853000    0.9589113   -7.8466904    483.64999  0.021750764  0.021761792            2 
 1854000   0.96648928   -7.7875836    485.21823  0.021809521  0.021755378            3 
 1855000   0.95623688   -7.8578957    484.31107  0.021757011  0.021748981            4 
 1856000   0.93367028   -7.8292141    484.82184  0.021768222  0.021742599            1 
 1857000     0.954209   -7.8077808    486.12911  0.021815164  0.021736258            2 
 1858000   0.97213984   -7.8565606    484.96095   0.02175103   0.02172989            3 
 1859000   0.96365667   -7.8181821    485.68727  0.021771888  0.021723562            1 
 1860000   0.94815711   -7.7927709    485.43525  0.021748891   0.02171722            3 
 1861000   0.94602927   -7.7961175    485.73535  0.021750643  0.021710905       -1e+20 
 1862000   0.94901491   -7.8331468    485.44238   0.02172585  0.021704574            2 
 1863000   0.94843046   -7.7747581    486.72439  0.021771533  0.021698201            2 
 1864000    0.9657921    -7.812625     486.7362  0.021760381  0.021691879            2 
 1865000   0.95631136   -7.8206396     486.5903  0.021742194  0.021685538            2 
 1866000   0.95849599   -7.8127352    485.86888  0.021698325  0.021679165            1 
 1867000   0.94909346    -7.847778    485.89475  0.021687857  0.021672759            4 
 1868000   0.94766813   -7.8204121    486.89828  0.021721016  0.021666382            2 
 1869000   0.96048499   -7.8198523    487.82574  0.021750746  0.021660091            2 
 1870000   0.93827241    -7.779931    488.56683   0.02177214  0.021653817            2 
 1871000   0.96113791    -7.768866    487.23097  0.021701005  0.021647623            2 
 1872000   0.96072805   -7.8483185    485.46307  0.021610714  0.021641378            3 
 1873000   0.94259315    -7.817034    488.73436  0.021744721  0.021635065            3 
 1874000    0.9674604   -7.8399399    488.18275  0.021708589  0.021628835            1 
 1875000   0.95448028   -7.8248672    486.25187  0.021611194  0.021622482            3 
 1876000   0.93677606   -7.8118839    487.38474  0.021649997  0.021616059            2 
 1877000   0.95359301   -7.8215555    488.83669  0.021702925  0.021609761            2 
 1878000   0.96445964    -7.828915    487.31691  0.021623931   0.02160343            2 
 1879000   0.97028447   -7.8466816    487.92034  0.021639185  0.021597077            1 
 1880000   0.94298032   -7.8241993    488.15827  0.021638221  0.021590743            2 
 1881000   0.95190642   -7.8138888    488.20096  0.021628609  0.021584431            3 
 1882000   0.96983773   -7.8008876    488.80304  0.021643776  0.021578165            2 
 1883000   0.95574672   -7.7976993    489.61039  0.021668012  0.021571916            2 
 1884000   0.96310173   -7.8366625    488.81617   0.02162138  0.021565583            2 
 1885000   0.94477058   -7.8672067    488.50276  0.021596055  0.021559203            2 
 1886000   0.94413315   -7.8267733    487.81822  0.021554358  0.021552822            2 
 1887000    0.9536027   -7.8324162    489.73492   0.02162758  0.021546475            3 
 1888000   0.93997616   -7.8316036      490.024  0.021628884  0.021540173            1 
 1889000   0.96259721   -7.8754024    487.59104  0.021510104  0.021533794            1 
 1890000   0.95470406     -7.81475    489.73826  0.021593398  0.021527444            2 
 1891000   0.93219619   -7.8135558    490.75418  0.021626749  0.021521127            2 
 1892000    0.9470959   -7.8425433    488.75865  0.021527425   0.02151486            2 
 1893000   0.94215034   -7.8063133    490.69737  0.021601399  0.021508541            3 
 1894000   0.94257065   -7.8457802    489.18869  0.021523614  0.021502182            4 
 1895000   0.95643002    -7.849711    489.76595  0.021537641  0.021495798            3 
 1896000   0.95142883   -7.8928455    488.28357  0.021461127  0.021489416            2 
 1897000   0.94376961    -7.830362    489.95083  0.021523055  0.021483085            7 
 1898000   0.95307333   -7.8166404    490.80676  0.021549296  0.021476696            2 
 1899000   0.92907979   -7.8511233    489.33275  0.021473264  0.021470306            6 
 1900000    0.9849266   -7.8296388    489.61774  0.021474462  0.021463879            2 
 1901000   0.95561578   -7.8319481    490.56011  0.021504476  0.021457387            2 
 1902000   0.93842403   -7.8721349    489.89816  0.021464167  0.021450893            2 
 1903000   0.98007636   -7.8758542    490.09292  0.021461417  0.021444392            5 
 1904000   0.96533616    -7.844776    489.52856  0.021425445  0.021437904            3 
 1905000   0.94924106   -7.8296181    490.27203   0.02144672  0.021431391            7 
 1906000   0.96143515   -7.8920634     490.1048  0.021428157   0.02142488            1 
 1907000   0.94339286   -7.8569118    489.05323  0.021370968  0.021418338            3 
 1908000   0.94849717   -7.8085732    492.00537  0.021488704  0.021411852            3 
 1909000   0.95073243   -7.8435378    490.16138  0.021396952  0.021405376            3 
 1910000   0.95812736   -7.8361094    490.31926  0.021392638  0.021398799            2 
 1911000   0.93541061   -7.8412704    491.49819  0.021432853  0.021392293            1 
 1912000   0.95312187    -7.853849    489.27661  0.021324817  0.021385724            2 
 1913000   0.92914994   -7.8444671    490.42439  0.021363669  0.021379186            2 
 1914000   0.93635309   -7.8298216    490.20914  0.021343136  0.021372671            2 
 1915000   0.95974135   -7.8582063    491.63888  0.021394207  0.021366163            2 
 1916000   0.93419504   -7.8356637    491.12898  0.021360864  0.021359639            4 
 1917000   0.93201897   -7.8589493    490.45839   0.02132057  0.021353117            5 
 1918000   0.96858681   -7.8546684    490.63254   0.02131702   0.02134656            5 
 1919000   0.93462484   -7.8844191    490.58732  0.021303948   0.02134005            2 
 1920000   0.92793909   -7.8711858    491.90536  0.021350059  0.021333492            2 
 1921000   0.94983569   -7.8466364    492.47947   0.02136385  0.021327026            1 
 1922000   0.95390957   -7.8415899    491.40406  0.021306107  0.021320516            2 
 1923000   0.92458387   -7.8598294    491.23417  0.021287665  0.021314037            2 
 1924000   0.93360331   -7.8580588    492.05401  0.021312111  0.021307577            3 
 1925000   0.94346999   -7.8339287    491.62085  0.021282288  0.021301101            3 
 1926000   0.92785292   -7.8374202    492.39667  0.021304806  0.021294632            2 
 1927000   0.93536943   -7.8313485    492.33225  0.021290964  0.021288184            3 
 1928000   0.95518166   -7.8262488     493.5364  0.021331968  0.021281797            1 
 1929000   0.94615239   -7.8477955    493.42487  0.021316091  0.021275437            1 
 1930000   0.94881954   -7.8682218    493.01422  0.021287315  0.021269034            2 
 1931000   0.94811984   -7.8093182    494.25547  0.021329858  0.021262621            4 
 1932000   0.94073969   -7.8569995    491.87023  0.021215935  0.021256181            1 
 1933000   0.94430727   -7.8491631    493.53013  0.021276519  0.021249734            2 
 1934000   0.95072152   -7.8238897    492.98548  0.021242049  0.021243368            3 
 1935000   0.91469158   -7.8436475    494.18919  0.021282911  0.021236992            1 
 1936000   0.93359193   -7.8382142    493.86511  0.021257968  0.021230589            2 
 1937000   0.95734708   -7.8283616    495.13028  0.021301423  0.021224192            1 
 1938000   0.95905715   -7.8293481    494.01349   0.02124241  0.021217775            3 
 1939000   0.95358794   -7.8495841    493.55811  0.021211884  0.021211414            1 
 1940000   0.94239426    -7.871237    493.25497  0.021187928  0.021204988            3 
 1941000    0.9479613   -7.8329653    494.84353  0.021245214  0.021198597            2 
 1942000   0.93905938   -7.8652461    494.74504  0.021230048  0.021192178            4 
 1943000   0.94233815   -7.8586365    492.67391  0.021130293  0.021185691            3 
 1944000   0.94152581   -7.8962482    492.85314  0.021127106  0.021179161            3 
 1945000   0.94601127   -7.8508799    494.24059   0.02117569  0.021172585            6 
 1946000   0.90977803   -7.8563268    492.53748  0.021091876  0.021166059            3 
 1947000   0.94037977   -7.8626319    494.74883   0.02117569  0.021159519            4 
 1948000   0.94735523   -7.8353605    494.68072  0.021161906  0.021153034            3 
 1949000   0.94929095   -7.8424477    494.31031  0.021135211  0.021146556            3 
 1950000   0.94679945   -7.8569676     494.2456  0.021121607  0.021140092            5 
 1951000   0.93758126   -7.8611282    493.39674  0.021074523  0.021133598            2 
 1952000   0.96938556   -7.8698485    493.88945  0.021084761  0.021127039            3 
 1953000   0.96154643   -7.8523191    494.56167  0.021102648  0.021120464            3 
 1954000   0.94172155   -7.8881708    493.53276  0.021047968  0.021113858            2 
 1955000   0.93786511    -7.876624    493.08634  0.021018173  0.021107255            1 
 1956000   0.92793869   -7.8561553    494.34114  0.021060887  0.021100724            3 
 1957000   0.94277587   -7.8860042      495.576  0.021102708  0.021094203            3 
 1958000   0.96008429   -7.9006816    494.33618  0.021039163  0.021087631            2 
 1959000   0.94137855   -7.8520534    495.96003    0.0210975  0.021081068            1 
 1960000   0.93411433   -7.8644215    494.72286  0.021034135  0.021074586            2 
 1961000    0.9179063   -7.8682958    496.20203  0.021086267   0.02106808            2 
 1962000   0.95343681    -7.892586    495.24954  0.021035064  0.021061615            5 
 1963000   0.95675508   -7.8232238    498.15547  0.021147711  0.021055167            2 
 1964000   0.93244208   -7.8528713    495.08322  0.021006586  0.021048674            3 
 1965000   0.94289614   -7.8723144    495.68212  0.021021294  0.021042189            2 
 1966000   0.94990829   -7.8248681    496.86458  0.021060723   0.02103575            2 
 1967000   0.92271974   -7.8617452    496.77752  0.021046328  0.021029295            2 
 1968000   0.93225254    -7.849445    496.98445  0.021044396  0.021022895            2 
 1969000   0.92827227   -7.8488759    496.92953  0.021031383  0.021016486            3 
 1970000    0.9222689   -7.8817672    495.93342  0.020978571  0.021010067            2 
 1971000   0.93980242   -7.8559966    496.78667  0.021004003  0.021003609            2 
 1972000   0.93121583   -7.8716088    497.58161  0.021026944  0.020997226            2 
 1973000   0.95566166   -7.8756965    497.96391  0.021032434  0.020990809            5 
 1974000   0.94243241   -7.8938267    497.96795   0.02102195  0.020984452            7 
 1975000   0.94408114   -7.8717627    497.50958  0.020991965  0.020978017            2 
 1976000   0.94708633   -7.8872751    497.02497  0.020960905  0.020971545            3 
 1977000   0.95160311   -7.8622115    496.83971  0.020942493  0.020965069            2 
 1978000   0.93513741   -7.8758405     498.7478  0.021012294   0.02095861            5 
 1979000   0.93595634   -7.8992273    496.79177   0.02091931  0.020952194            2 
 1980000   0.94118132   -7.8709842    499.12857  0.021007095  0.020945794            2 
 1981000   0.91139076   -7.9057323    498.08771  0.020952705  0.020939394            5 
 1982000   0.93132359   -7.9237137    497.16235  0.020903227  0.020932973            3 
 1983000   0.91764091   -7.8784635    499.03532  0.020971395  0.020926581            2 
 1984000   0.95739178   -7.8988589    498.65575  0.020944882  0.020920209            1 
 1985000   0.93653341   -7.8404441    499.85596  0.020984717  0.020913887            2 
 1986000   0.93291983   -7.8476295    499.25813  0.020949065  0.020907526            3 
 1987000   0.94353802   -7.8706433    499.35621  0.020942636  0.020901134            2 
 1988000   0.92481854   -7.9028481    499.45942  0.020936428  0.020894725            2 
 1989000   0.93046474   -7.8976531    498.44348  0.020883337  0.020888326            2 
 1990000   0.94770024    -7.913946     498.5771  0.020878438  0.020881923            2 
 1991000   0.92226696   -7.8888952    498.63095  0.020870206   0.02087554            1 
 1992000   0.94806419   -7.9007721    499.03629  0.020876686  0.020869149            2 
 1993000   0.93983734   -7.8896072    499.98899  0.020906046  0.020862702            2 
 1994000   0.93740915    -7.873645    498.72336  0.020842668  0.020856353            3 
 1995000    0.9272287   -7.8876705    498.75659  0.020833608  0.020849932            2 
 1996000   0.94291619   -7.8906781      499.119  0.020838301  0.020843524            2 
 1997000   0.92625895   -7.8737311    501.60013  0.020931402  0.020837092            3 
 1998000   0.93283082   -7.8822802    499.46872  0.020832029  0.020830695            3 
 1999000   0.93418469   -7.9233216    498.91576  0.020798556  0.020824308            2 
 2000000   0.92884098   -7.9017632    500.61464  0.020858943  0.020817922            2 
 2001000   0.92037485   -7.8509077    500.86548  0.020858965  0.020811553            3 
 2002000   0.92407777   -7.8826098    501.41151  0.020871275  0.020805232            4 
 2003000    0.9355305   -7.8605434    501.81123  0.020877485  0.020798928            2 
 2004000   0.90201523   -7.8848659    500.82541  0.020826073  0.020792703            1 
 2005000   0.92527472   -7.8963904     501.0331  0.020824319  0.020786363            2 
 2006000   0.92910963    -7.882759    501.39083  0.020828798  0.020780053            3 
 2007000   0.92235532   -7.8774656    501.45062  0.020820903  0.020773747            1 
 2008000   0.92467237   -7.8703326     501.6385  0.020818331  0.020767385            2 
 2009000   0.94197882   -7.8654444    501.77136  0.020813479  0.020761027            2 
 2010000   0.93541375   -7.8702115    500.48104  0.020749629  0.020754637            3 
 2011000   0.92847669   -7.8901911    501.81798  0.020794712  0.020748235            1 
 2012000   0.93848408    -7.864596    501.32098  0.020763791  0.020741886            3 
 2013000   0.90246135   -7.8976297    501.80721  0.020773605  0.020735558            5 
 2014000   0.91981324   -7.9127391    501.87562  0.020766121  0.020729232            4 
 2015000   0.93947638   -7.9204943    501.19602   0.02072771  0.020722812            3 
 2016000   0.92840185     -7.84564    501.56906  0.020732848   0.02071639            3 
 2017000   0.93081642   -7.8489987    502.30685  0.020753051  0.020710094            4 
 2018000   0.93287427   -7.8589559    503.46189  0.020790465  0.020703762            5 
 2019000   0.93940907   -7.8561358      503.306  0.020773733  0.020697471            1 
 2020000   0.93849186   -7.8831509    502.15011  0.020715764  0.020691113            1 
 2021000   0.93605104   -7.8777314    502.56666  0.020722689  0.020684713            5 
 2022000   0.91589851   -7.8607171    502.67953  0.020717092  0.020678337            2 
 2023000   0.91206494   -7.9065973    501.91081  0.020675186  0.020671877            6 
 2024000   0.92059179    -7.891596    502.69099  0.020697093  0.020665466            1 
 2025000   0.91927505   -7.9055058    502.84649  0.020693271  0.020659043            3 
 2026000   0.93216139    -7.881461    502.81897  0.020681925  0.020652667            2 
 2027000   0.93292212   -7.8920477    503.28908  0.020691049  0.020646248            1 
 2028000   0.92522576   -7.9256933    501.36821  0.020601915  0.020639814            4 
 2029000   0.93635017   -7.8757448    503.85394  0.020693853  0.020633365            4 
 2030000   0.90881632   -7.9052262     504.0652  0.020692332  0.020627003            1 
 2031000   0.94385539   -7.9081643    502.74937  0.020628154   0.02062062            5 
 2032000   0.91141301   -7.9064707    502.17926  0.020594622  0.020614227            1 
 2033000   0.92062159   -7.8903617    503.29127  0.020630074  0.020607831            2 
 2034000   0.92331681   -7.8958744    504.14334   0.02065484  0.020601396            2 
 2035000   0.91388806   -7.8939931    502.71228  0.020586088  0.020594955            4 
 2036000   0.91289435   -7.8930359    504.32939  0.020642165  0.020588527            2 
 2037000   0.92081058   -7.8988658    503.62105  0.020603054  0.020582111            3 
 2038000   0.93810368   -7.8960735    504.38448  0.020624161  0.020575749            2 
 2039000   0.93559168   -7.9007976    504.00855  0.020598682  0.020569365            1 
 2040000   0.93557751   -7.9179885    503.73086  0.020577241  0.020562976            3 
 2041000   0.92014169   -7.9070688    504.89783  0.020614806  0.020556668            5 
 2042000   0.93521521   -7.8525927     505.3588  0.020623523  0.020550378            1 
 2043000   0.92380586   -7.8914047    504.28168  0.020569492  0.020544024            2 
 2044000   0.92142411   -7.8897137    505.75429  0.020619467  0.020537623            1 
 2045000   0.91206745   -7.8884508    503.64149  0.020523288   0.02053124            1 
 2046000   0.94569872   -7.9184618    503.85541   0.02052197  0.020524895            2 
 2047000    0.9412985   -7.8945246     504.6669   0.02054498  0.020518543            2 
 2048000    0.9188781   -7.8958317     505.6789  0.020576127  0.020512135            2 
 2049000   0.91662963   -7.9299729    504.24504   0.02050777  0.020505719            2 
 2050000   0.89792845   -7.9012917    505.18083  0.020535806  0.020499324           11 
 2051000   0.91175684   -7.8967073    504.85452  0.020512535  0.020492943            3 
 2052000   0.92370419   -7.9358353    505.16121  0.020514994  0.020486491            1 
 2053000   0.93570008    -7.916355     505.7127  0.020527387  0.020480096            2 
 2054000   0.93572043   -7.8965417    504.78309  0.020479677  0.020473629            1 
 2055000    0.8994857   -7.9033427    505.59176  0.020502505  0.020467188            1 
 2056000   0.93571126    -7.924811    505.44083  0.020486415   0.02046077            4 
 2057000   0.91915765   -7.9077269    505.70416  0.020487124  0.020454379            3 
 2058000   0.91429572    -7.879223    505.81803   0.02048178  0.020447954            3 
 2059000    0.9261481   -7.9185761    504.89785   0.02043459  0.020441562            1 
 2060000   0.94555626   -7.8994028    506.95849   0.02050803  0.020435187            3 
 2061000   0.92799692   -7.9031929    506.43951  0.020477095   0.02042883            3 
 2062000   0.92530898   -7.9088361    506.15887  0.020455822  0.020422459            2 
 2063000   0.93374396   -7.8934646    507.23657   0.02048944  0.020416125            2 
 2064000   0.93698576   -7.8773965    507.44964  0.020488115  0.020409782            2 
 2065000   0.92065614   -7.9011999    505.78984  0.020411212  0.020403401            2 
 2066000   0.91525083   -7.8759427    506.67701  0.020437117   0.02039697            3 
 2067000    0.9319891   -7.9267166    505.34737  0.020373624  0.020390576            7 
 2068000   0.92804229   -7.9221224    506.10215  0.020394187  0.020384159            2 
 2069000   0.91450444   -7.9324375     505.4128  0.020356565  0.020377705            5 
 2070000    0.9150447    -7.895481     506.7811  0.020401816   0.02037124            2 
 2071000   0.90289906    -7.913381    504.02562  0.020281089  0.020364763            2 
 2072000   0.90205416   -7.9397587    504.20898  0.020278675  0.020358227            2 
 2073000   0.91841684   -7.9262237    506.38688  0.020356443  0.020351687            5 
 2074000   0.93463542   -7.9160431    507.02861  0.020372413  0.020345202            3 
 2075000   0.92894017   -7.9223789    506.85176  0.020355492  0.020338783            4 
 2076000   0.92603467   -7.9069943    505.62169   0.02029631  0.020332316            2 
 2077000    0.9068459   -7.9384435    506.79509  0.020333618  0.020325833            4 
 2078000   0.95826718   -7.9249563    506.22255  0.020300872  0.020319342            2 
 2079000   0.92577794   -7.8884123    507.94668  0.020360217  0.020312907            3 
 2080000   0.92022207   -7.9187032    508.27661  0.020363646  0.020306473            3 
 2081000   0.91012506   -7.8840651    507.38179  0.020318028  0.020300002            3 
 2082000   0.90763719   -7.9081203    506.54777  0.020274887  0.020293475            1 
 2083000   0.92740534   -7.9264017    507.15891  0.020289603   0.02028698            1 
 2084000   0.92512158   -7.9121806    507.44663  0.020291372  0.020280501            4 
 2085000   0.92877761   -7.9254425    506.43933   0.02024138  0.020273989            2 
 2086000   0.91855479    -7.895093    507.40291   0.02027017  0.020267477            1 
 2087000   0.92788544    -7.913282    508.25474  0.020294471  0.020261008            2 
 2088000   0.91844068   -7.9105731    506.71688  0.020223375  0.020254523            1 
 2089000   0.91240157   -7.9155299    507.64915  0.020250884  0.020247995            2 
 2090000   0.91916683   -7.9288301    507.51995  0.020236043  0.020241488            2 
 2091000   0.90459845   -7.9323602    507.05041  0.020207652   0.02023501            1 
 2092000   0.91154356   -7.9481712    506.49567  0.020175895  0.020228506            1 
 2093000   0.91455663   -7.9054378    508.22634  0.020235163  0.020221981            2 
 2094000    0.9086253   -7.9556107    506.24904   0.02014681  0.020215465            2 
 2095000   0.94501173   -7.9062735    507.33682  0.020180462  0.020208925            2 
 2096000     0.928392    -7.949955     508.3933  0.020212838  0.020202434            1 
 2097000   0.92654368   -7.9573574    506.79013   0.02013949   0.02019591            4 
 2098000   0.92771552   -7.9328545    507.29657  0.020150007   0.02018933            3 
 2099000   0.92697395   -7.9345313    507.29442  0.020140321  0.020182697            2 
 2100000   0.92325308   -7.9028714    507.36506  0.020133534   0.02017608            4 
 2101000   0.91646042   -7.8849087    508.59961  0.020172918  0.020169532            4 
 2102000   0.92093812   -7.9073545    509.29883  0.020191041  0.020163027            3 
 2103000   0.92041222   -7.9281025    506.36628  0.020065235  0.020156447            2 
 2104000   0.92010633   -7.9065974    508.82268   0.02015299  0.020149939            4 
 2105000   0.91452733   -7.9139495    509.21083  0.020158782  0.020143393            4 
 2106000   0.91945529   -7.8972583    509.01187  0.020141337  0.020136865            2 
 2107000   0.90709876   -7.9323144     508.4459  0.020109393  0.020130323            2 
 2108000   0.89459364   -7.9119035    508.31423  0.020094649  0.020123763            2 
 2109000   0.91978302   -7.9464231    507.96017  0.020071131  0.020117273            1 
 2110000   0.90962025   -7.9178307    509.35444  0.020116684  0.020110796            2 
 2111000   0.91670911   -7.9552027    507.73127  0.020043079  0.020104244            2 
 2112000   0.92894307   -7.9242049    508.46409  0.020062504  0.020097678            2 
 2113000   0.91371863   -7.9313453    507.79995  0.020026816   0.02009108            5 
 2114000   0.91292673   -7.9269001    508.21637  0.020033758  0.020084483            1 
 2115000   0.91282794   -7.9386774    508.60176   0.02003947  0.020077905            1 
 2116000   0.93346103   -7.9410477    508.97902  0.020044857  0.020071335            1 
 2117000   0.90030667   -7.9518685    508.95461  0.020034428  0.020064767            3 
 2118000   0.91013706   -7.9705574     508.4379  0.020004639  0.020058136            1 
 2119000   0.91107833   -7.9305497    508.14707  0.019983761   0.02005149            2 
 2120000   0.91355454   -7.9526276    509.24212  0.020017379  0.020044912            2 
 2121000   0.89560709    -7.945655    509.46615  0.020016743  0.020038379            2 
 2122000   0.89546807    -7.907454    508.80657  0.019981408  0.020031799            3 
 2123000   0.90283932   -7.9353575    509.97035  0.020017677  0.020025285            2 
 2124000   0.91507623   -7.8901978    510.39135  0.020024771  0.020018782            2 
 2125000   0.91081177   -7.9479261    510.68446  0.020026842    0.0200123            2 
 2126000   0.90396219   -7.9640759    509.32311   0.01996406  0.020005773            2 
 2127000   0.91090958    -7.946464    509.92425  0.019978226  0.019999209            2 
 2128000   0.93075126   -7.9127961     509.8393  0.019965512  0.019992663            4 
 2129000   0.90933798    -7.895241    511.00672  0.020001829  0.019986183            4 
 2130000   0.89579459   -7.9155409     511.3237  0.020004839  0.019979622            2 
 2131000   0.88477446   -7.9499929    509.95383  0.019941883   0.01997305            4 
 2132000   0.89977719    -7.948525    510.41239  0.019950453  0.019966447            2 
 2133000   0.94772354   -7.9240103    510.87004   0.01995898  0.019959853            5 
 2134000   0.92092733   -7.9375036    509.93704  0.019913193  0.019953298            3 
 2135000   0.92177733   -7.9159146    510.00852  0.019906656  0.019946756            3 
 2136000   0.88713271   -7.9201935    509.01718   0.01985866   0.01994018            3 
 2137000   0.90089469   -7.9250551    510.73179  0.019916229  0.019933682            3 
 2138000   0.89717534   -7.9342253    511.46157  0.019935359  0.019927179            1 
 2139000   0.90599905   -7.9317468    510.49005   0.01988819  0.019920645            3 
 2140000    0.9080818   -7.9398188    510.22387  0.019868531  0.019914137            3 
 2141000   0.90539021   -7.9475817    510.81011  0.019882069  0.019907578            4 
 2142000   0.93241355   -7.9235433     510.5953   0.01986443  0.019901002            2 
 2143000   0.91956089   -7.9245408    511.37368  0.019885429  0.019894476            1 
 2144000   0.90175751   -7.9406381    511.67381  0.019887819  0.019887894            2 
 2145000   0.91554204   -7.9320332    511.57912  0.019874869  0.019881315            2 
 2146000   0.89633667   -7.9409319    512.56189   0.01990377  0.019874866            2 
 2147000   0.91967896   -7.9280864    512.01911  0.019873432  0.019868411            4 
 2148000   0.91681091   -7.9001083    512.27828  0.019874235  0.019861973            3 
 2149000   0.90868892   -7.8889501    513.25095  0.019902705  0.019855548            4 
 2150000   0.90937056    -7.957648    513.10035   0.01988761  0.019849133            3 
 2151000   0.92685807   -7.9387562    511.65192   0.01982225  0.019842691            2 
 2152000   0.90167369   -7.9379287     513.8374  0.019897669  0.019836272            3 
 2153000   0.89867252   -7.9833081    512.01391  0.019817848  0.019829826            9 
 2154000   0.92373731    -7.961438    511.20967  0.019777533  0.019823387            3 
 2155000   0.91105341   -7.9356267    513.32194  0.019850036  0.019816977            3 
 2156000    0.9150087   -7.9392386    514.01916  0.019867778  0.019810598            3 
 2157000   0.89982814   -7.9421424    514.49385  0.019876906  0.019804221            5 
 2158000    0.9165395   -7.9638812    514.12791  0.019853565  0.019797836            2 
 2159000   0.90673161    -7.930046    514.08292  0.019842632  0.019791475            2 
 2160000   0.88079857   -7.9490759    514.43781  0.019847138   0.01978511            2 
 2161000   0.89435038   -7.9370908    514.23205  0.019830019  0.019778789            1 
 2162000    0.9038833   -7.9416716     513.4873  0.019792141  0.019772414            2 
 2163000   0.90979517   -7.9486475    513.23294  0.019773191  0.019766093            3 
 2164000   0.92837081   -7.9510862    515.02584  0.019833096   0.01975973            3 
 2165000   0.90552014   -7.9288411    514.58285  0.019806884  0.019753377            2 
 2166000   0.91769248   -7.9548156    515.75343  0.019842776  0.019747074            2 
 2167000   0.89417125   -7.9425918    516.20354  0.019850928  0.019740765            7 
 2168000   0.91793027   -7.9424627    515.81245  0.019826739  0.019734411           10 
 2169000   0.90793153   -7.9429924     515.4556  0.019803888   0.01972812            2 
 2170000   0.89895836   -7.9230118    517.33648  0.019866993  0.019721865            3 
 2171000   0.91482496   -7.9328056    515.25418  0.019777912  0.019715566            2 
 2172000   0.87692495   -7.9706006    514.67585  0.019746618  0.019709248            2 
 2173000   0.92394198   -7.9313825    515.31004  0.019761851  0.019702975            3 
 2174000   0.89007003   -7.9093488    516.44701  0.019796344  0.019696782            4 
 2175000   0.89992819   -7.9223822     516.6221   0.01979395  0.019690535            2 
 2176000   0.91606296   -7.9279668    514.16686  0.019690826  0.019684274            3 
 2177000   0.89005968   -7.9569252    516.75039  0.019780677  0.019678034            3 
 2178000   0.89629293    -7.952142    516.12995  0.019747855  0.019671787            2 
 2179000   0.87866035   -7.9456884    516.37046  0.019747991  0.019665506            1 
 2180000   0.90226786   -7.9479302    516.28312  0.019735593  0.019659182            3 
 2181000   0.91192644   -7.9309231    516.82315  0.019747178  0.019652837            3 
 2182000   0.90062488   -7.9779582    515.26437  0.019678596  0.019646482            3 
 2183000   0.90942309   -7.9340299    516.22849  0.019706386   0.01964017            1 
 2184000   0.94470654   -7.9545656    515.63375   0.01967467  0.019633871            3 
 2185000    0.9135987   -7.9831817    515.19637  0.019648984   0.01962755            4 
 2186000   0.88358417   -7.9673071     514.9457   0.01963044  0.019621218            1 
 2187000   0.90589243   -7.9469019    517.13786  0.019704994  0.019614858            1 
 2188000   0.89595344    -7.976996    515.99066  0.019652295  0.019608519            2 
 2189000   0.90329999   -7.9651877    517.28944  0.019692761  0.019602211            1 
 2190000   0.92132991   -7.9657322    516.99084  0.019672406  0.019595934            2 
 2191000   0.88842676   -7.9593668    516.85383  0.019658217  0.019589664            7 
 2192000   0.91769296   -7.9839177     516.5223  0.019636645  0.019583377            2 
 2193000   0.91023133    -7.986687    518.71498  0.019711012  0.019577111            2 
 2194000   0.88297483   -7.9409113    518.36024  0.019688553  0.019570848            4 
 2195000   0.90880989   -7.9608722    517.60142  0.019650775  0.019564593            2 
 2196000   0.90080517   -7.9641344    517.83576  0.019650719  0.019558305            2 
 2197000   0.90609434   -7.9587439    517.98116   0.01964729  0.019552007            3 
 2198000   0.92020552   -7.9574846    518.16284   0.01964524    0.0195457            2 
 2199000    0.9002001   -7.9938567    516.82754  0.019585703  0.019539366            3 
 2200000   0.90724056   -7.9635525    517.77302  0.019612614     0.019533            2 
 2201000   0.89864249   -8.0102944    516.36364  0.019550342  0.019526603            1 
 2202000   0.88745622   -7.9857324    517.13976  0.019570836    0.0195202            5 
 2203000   0.89726764    -7.955068    516.33026  0.019531331  0.019513836            2 
 2204000   0.89517825   -7.9674915    516.67589  0.019535537  0.019507446            3 
 2205000   0.89023332   -7.9842078    516.47362  0.019519033  0.019501063            3 
 2206000     0.900043    -7.990987    517.52386  0.019549859  0.019494733            2 
 2207000   0.89462588   -7.9905865    517.04279  0.019522836  0.019488394            1 
 2208000   0.90403389   -8.0064618     516.9049   0.01950879  0.019482039            1 
 2209000    0.9195449   -7.9702078    518.46348  0.019558755  0.019475707            2 
 2210000   0.90579912     -7.99639    517.89554  0.019528489  0.019469399            1 
 2211000   0.89832061   -8.0012643    517.86735  0.019518594  0.019463051            3 
 2212000   0.89647566   -7.9940862    517.62072  0.019500479  0.019456717            2 
 2213000    0.9009415   -7.9775241    518.26039  0.019515755  0.019450418            3 
 2214000    0.9043837    -7.984335    518.77836  0.019526436   0.01944409            2 
 2215000   0.87750832   -7.9345841    519.58757  0.019548065  0.019437859            2 
 2216000    0.9174114   -7.9400846    518.61857  0.019502804  0.019431681            1 
 2217000   0.90640886   -7.9599531    519.92905  0.019543266  0.019425494            1 
 2218000   0.89263074   -7.9718566    518.95503   0.01949786  0.019419293            4 
 2219000   0.88259743   -7.9106715    519.95193  0.019526511   0.01941312            5 
 2220000   0.90486238   -7.9669654    520.44296  0.019536147  0.019406919            2 
 2221000    0.8869987   -7.9900017    519.29445  0.019484258  0.019400751            4 
 2222000   0.89369971   -7.9694297    519.99376  0.019501716   0.01939456            3 
 2223000   0.90646418   -7.9338015     520.3391  0.019505889  0.019388412            3 
 2224000   0.90848126   -7.9663191    519.91111  0.019481082  0.019382219            1 
 2225000   0.91288832   -8.0095356    519.17078  0.019444598  0.019375977            2 
 2226000   0.90710257   -8.0118882    519.51477  0.019448741  0.019369744            1 
 2227000   0.89104493   -7.9983466    519.24463  0.019429899  0.019363506            2 
 2228000   0.90365051     -7.99992    520.83635  0.019480713  0.019357319            2 
 2229000   0.88997059   -7.9929521    521.32452  0.019490224  0.019351137            3 
 2230000   0.89626682   -7.9647616    521.30525  0.019480764  0.019344957            2 
 2231000   0.91361466   -7.9951917    520.59607  0.019445543  0.019338762            4 
 2232000   0.88055297    -7.977129     520.2968  0.019425657  0.019332599            2 
 2233000   0.90223848   -7.9672051    520.41748  0.019421461  0.019326472            2 
 2234000   0.90946796   -8.0016874    520.61107  0.019419989  0.019320261            3 
 2235000   0.88400057   -7.9921221    520.86902  0.019420918  0.019314044            3 
 2236000   0.90609499   -8.0055478    520.24807   0.01938909  0.019307805            2 
 2237000    0.9175279    -7.999962    521.63917  0.019432245  0.019301579            2 
 2238000   0.90979928   -7.9752594    520.40712  0.019377685  0.019295345            1 
 2239000   0.88979939   -7.9623644     521.4646  0.019408389  0.019289104            4 
 2240000   0.89330525   -8.0457477    519.94104  0.019343045  0.019282821            1 
 2241000   0.88573044   -8.0048166    519.93453  0.019334171   0.01927651            2 
 2242000   0.88582688   -7.9952773    520.43396  0.019344111  0.019270247            3 
 2243000   0.86783331   -8.0299975     520.8256  0.019350037  0.019263994            2 
 2244000    0.8918318   -8.0264107    520.59607   0.01933289  0.019257749            3 
 2245000    0.8957874   -7.9867579    521.43309  0.019355349  0.019251478            2 
 2246000   0.88765169   -7.9804422    523.03283  0.019406086  0.019245275            1 
 2247000   0.88876561   -7.9651838    521.89943  0.019355416  0.019239069            2 
 2248000    0.8775137   -8.0163495     521.2831  0.019323958  0.019232872            3 
 2249000   0.86479988   -7.9652385    522.98483  0.019378421  0.019226662            2 
 2250000   0.88908621    -7.979739    523.03453  0.019371649  0.019220522            2 
 2251000   0.87728897    -7.954686    523.57762  0.019383149  0.019214394            2 
 2252000   0.90068014   -7.9897249    522.44395  0.019332591  0.019208258            2 
 2253000   0.89350303   -8.0160135    522.44663   0.01932411  0.019202071            3 
 2254000   0.87749318   -7.9837781    521.59398  0.019284013  0.019195947            4 
 2255000   0.90297779   -8.0152165      521.164  0.019259571  0.019189818            2 
 2256000   0.89744825   -7.9849539    521.25739  0.019254484  0.019183704            1 
 2257000    0.8731433   -7.9809195    521.64864  0.019260399   0.01917759            3 
 2258000   0.88848062   -8.0219707    521.14536  0.019233295  0.019171405            1 
 2259000   0.87902384   -7.9860659    524.06097  0.019332336  0.019165242            2 
 2260000   0.88017939   -7.9941001    523.58628  0.019306279  0.019159084            3 
 2261000   0.88193361   -7.9974077     523.8663  0.019308061   0.01915295            2 
 2262000   0.88222264   -7.9870138    523.42564  0.019283291  0.019146869            2 
 2263000   0.88558644   -7.9807503    524.41055  0.019311038  0.019140766            3 
 2264000   0.89716007   -7.9905558    523.69256  0.019276081  0.019134687            1 
 2265000   0.88400432   -7.9825836    522.87313  0.019237422  0.019128563            6 
 2266000   0.88372127   -7.9472831    526.30731  0.019355226  0.019122426            4 
 2267000   0.88068993   -8.0012163    524.07224  0.019264529  0.019116265            3 
 2268000   0.88541893   -7.9945705    523.77816  0.019245229   0.01911011            2 
 2269000   0.89986572    -8.002871    523.38902  0.019222455  0.019103969            2 
 2270000   0.90870482   -7.9932442     523.2088  0.019207371  0.019097807            2 
 2271000   0.91594218   -7.9957133    523.63589  0.019214586  0.019091659            4 
 2272000   0.90237957   -8.0142713    523.40231  0.019197561  0.019085551            1 
 2273000   0.87575699   -8.0033697    524.92721  0.019245022  0.019079457            2 
 2274000   0.88866834   -8.0179469    522.32979  0.019141373  0.019073321            2 
 2275000   0.86729373   -8.0203676    523.51434   0.01917635  0.019067139            3 
 2276000   0.88263473   -7.9845996    524.99814  0.019222252  0.019060974            1 
 2277000   0.90538251   -8.0223656    524.36519  0.019190645  0.019054841            2 
 2278000   0.87402801     -8.01171    525.13252  0.019210291  0.019048718            1 
 2279000   0.88160857   -7.9969908    523.43386  0.019139749  0.019042584            2 
 2280000   0.89222241   -8.0568192    523.90967  0.019148745  0.019036433            2 
 2281000    0.8966055   -8.0094559    523.49539  0.019125215  0.019030265            2 
 2282000   0.86594124   -8.0070584    523.18501    0.0191055  0.019024148            3 
 2283000   0.89464867   -7.9920766     522.8662  0.019085494  0.019017922            1 
 2284000   0.90205627   -8.0277038     523.2783  0.019092174  0.019011672            3 
 2285000   0.88816998   -8.0258267    524.30481  0.019121255  0.019005416            2 
 2286000   0.87864279   -8.0254008    523.24116  0.019074116  0.018999151            3 
 2287000    0.8860375   -7.9965604     522.8366  0.019051035  0.018992898            2 
 2288000   0.88172385   -7.9762544    526.24591  0.019166882  0.018986683            1 
 2289000   0.89395432   -8.0073687    522.72373   0.01903028  0.018980469            2 
 2290000   0.88693978   -8.0386706    524.31138  0.019079745  0.018974284            2 
 2291000   0.87495013   -8.0245781    524.70226  0.019085634  0.018968062            2 
 2292000   0.86764535   -7.9950391    523.98064   0.01905107   0.01896184            7 
 2293000   0.88597578   -7.9944028    525.52044  0.019098722  0.018955631            2 
 2294000   0.89170876   -7.9958377     524.4134  0.019050182  0.018949461            2 
 2295000   0.88778491   -8.0066896    524.54262  0.019046573   0.01894332            3 
 2296000   0.88889766   -7.9987934    525.42514  0.019070309  0.018937178            2 
 2297000   0.87675415   -8.0313253    523.03874   0.01897543  0.018930989            4 
 2298000   0.88476017   -7.9926583    524.20214  0.019009361  0.018924805            2 
 2299000   0.88480719    -8.008007    525.04919  0.019031796  0.018918615            6 
 2300000   0.87577692   -8.0226577    523.80933  0.018978599  0.018912415            3 
 2301000   0.87787165   -7.9926617    525.20862  0.019021028  0.018906214            3 
 2302000   0.88686651   -8.0155015    525.42774  0.019020697  0.018900068            1 
 2303000   0.88741087    -8.009127    525.55707  0.019017118  0.018893954            2 
 2304000   0.88360179   -8.0236645    524.53822  0.018972013  0.018887784            3 
 2305000    0.8832171   -8.0594237     524.5158  0.018962972  0.018881622            2 
 2306000   0.87709663   -8.0192626    525.99003  0.019008024  0.018875419            2 
 2307000   0.88492182   -7.9830156    525.78674  0.018992441  0.018869277            2 
 2308000   0.89361846   -8.0111543     526.8237  0.019021653  0.018863204            1 
 2309000   0.90445552   -8.0061498    526.68702  0.019008482   0.01885709            3 
 2310000   0.88200209   -8.0513422    526.47215  0.018992502  0.018850918            8 
 2311000   0.88418877   -8.0309499    526.16006   0.01897303  0.018844739            3 
 2312000   0.88784827   -8.0126267    526.32442  0.018970747  0.018838594            4 
 2313000   0.88383151   -7.9947144     526.6168   0.01897308  0.018832432            1 
 2314000    0.8627991   -8.0281579    527.29431   0.01898928  0.018826269            3 
 2315000   0.86588158   -8.0348664    525.69257  0.018923419  0.018820083            2 
 2316000   0.87963698   -8.0635373    526.31142  0.018937515  0.018813916            2 
 2317000   0.86468487   -8.0205392    528.73475  0.019016499  0.018807777            2 
 2318000   0.87538286   -8.0272027    527.42528   0.01896122  0.018801665            4 
 2319000   0.86086805   -7.9986624    527.15896  0.018943473  0.018795554            2 
 2320000   0.88011101   -8.0192312    527.74646   0.01895641  0.018789474            4 
 2321000   0.87758257   -8.0330524    527.30828   0.01893251   0.01878337            3 
 2322000   0.91009064   -8.0284359    526.60625  0.018899162    0.0187773            2 
 2323000   0.88744711   -8.0206818    527.83929  0.018935259  0.018771195            1 
 2324000   0.86713295   -8.0403227    527.06357  0.018899296  0.018765084            2 
 2325000   0.88034185   -8.0080937    527.67179  0.018912968  0.018759027            3 
 2326000   0.89649808   -8.0296613    528.12462   0.01892106  0.018752918            5 
 2327000    0.8720802   -8.0490819    526.78406  0.018864921  0.018746775            2 
 2328000   0.88075391   -7.9901255    527.61366  0.018886514  0.018740663            4 
 2329000   0.87543075   -8.0150907    526.92265   0.01885368  0.018734585            2 
 2330000   0.87657916   -8.0186789    527.43632   0.01886396  0.018728501            3 
 2331000    0.8841098   -8.0638939    527.20235  0.018847503  0.018722417            2 
 2332000   0.86774111   -8.0214947    527.13637  0.018837063  0.018716327            3 
 2333000   0.87910466   -8.0180934    528.09016  0.018863058  0.018710301            1 
 2334000   0.88306996   -8.0396383    527.32773  0.018827754  0.018704259            4 
 2335000   0.88584456   -8.0123262    529.35742  0.018892128  0.018698201            3 
 2336000   0.86644164   -8.0017466    528.36518  0.018848644  0.018692205            4 
 2337000   0.88132049   -7.9981396    529.43842  0.018878848  0.018686219            2 
 2338000   0.87762204   -8.0438616    530.39617  0.018904911  0.018680236            1 
 2339000   0.88337807   -8.0328962    529.29027  0.018857427  0.018674207            5 
 2340000   0.88860466   -8.0364965    528.08861  0.018806574  0.018668175            3 
 2341000    0.8785438   -8.0305037    528.32946  0.018807114  0.018662133            1 
 2342000    0.8712958   -8.0188222    530.04804  0.018860235   0.01865614            1 
 2343000   0.87038304   -8.0293313    529.38204  0.018828498  0.018650157            2 
 2344000   0.87890216   -8.0309509    529.88473  0.018838337  0.018644177            1 
 2345000   0.85613452   -8.0162535    530.83656  0.018864128  0.018638197            3 
 2346000   0.89511248   -7.9907183    530.07121  0.018828901   0.01863224            1 
 2347000   0.87432379   -8.0429434    529.48561  0.018800086    0.0186263            3 
 2348000   0.89370436   -8.0172462    530.04321  0.018811869  0.018620297            2 
 2349000   0.86987006   -8.0488246     530.2776  0.018812175  0.018614309            4 
 2350000   0.85829733   -8.0363522    529.59328  0.018779904  0.018608299            2 
 2351000   0.84156759   -8.0245291    528.52431  0.018734025  0.018602309            2 
 2352000    0.8830076   -8.0541674    530.19065  0.018785099  0.018596312            6 
 2353000   0.85886119   -8.0358289    530.06818  0.018772779  0.018590296            2 
 2354000   0.87493361    -8.030054    530.85507   0.01879266  0.018584338            3 
 2355000   0.88187523   -8.0110283    531.01498  0.018790339  0.018578375            4 
 2356000   0.86034742   -8.0179104    530.40173  0.018760672  0.018572433            2 
 2357000    0.8689564   -8.0221026    530.56072  0.018758334  0.018566522            4 
 2358000   0.88317124   -8.0390827     531.4082  0.018780329  0.018560571            2 
 2359000   0.85462224   -8.0489732    529.49083  0.018704636  0.018554584            2 
 2360000   0.86727087   -8.0488249    531.21364  0.018757544  0.018548614            2 
 2361000   0.88178994   -8.0309289    531.14367  0.018747129  0.018542685            3 
 2362000   0.87055239   -8.0145647    531.13741  0.018738972  0.018536784            4 
 2363000   0.88764589   -8.0580471    531.74011  0.018752296  0.018530851            2 
 2364000   0.86437412   -8.0229832    532.35409  0.018766007  0.018524945            2 
 2365000   0.86437566   -8.0497354    530.64419  0.018697822  0.018518992            3 
 2366000   0.89259541   -8.0711345     530.0999  0.018670749   0.01851298            6 
 2367000   0.87939356   -8.0408447     529.9631  0.018658045  0.018507008            4 
 2368000   0.86969981   -8.0251267    530.71052  0.018676468  0.018501015            1 
 2369000   0.88292064   -8.0578794    530.50859  0.018661481  0.018495042            3 
 2370000   0.87944656   -8.0659951    530.74878  0.018662053  0.018489057            2 
 2371000   0.86068128   -8.0453799    531.30586  0.018673761  0.018483069            4 
 2372000   0.88092489   -8.0766923    530.73875  0.018645965  0.018477092            3 
 2373000   0.88146584   -8.0571553    532.34714   0.01869459  0.018471082            3 
 2374000   0.88388407   -8.0369299    531.39895  0.018653431  0.018465108            1 
 2375000   0.87320307   -7.9955587    532.18217  0.018673058  0.018459137            7 
 2376000     0.873432   -8.0449472    531.38381  0.018637199    0.0184532            4 
 2377000    0.8789304   -8.0424682    530.97625   0.01861507  0.018447193            3 
 2378000   0.89045302   -8.0534923    531.03673  0.018609361    0.0184412            3 
 2379000   0.86726461   -8.0608777     530.9229  0.018597552  0.018435225            2 
 2380000   0.88097901    -8.047866    531.52547  0.018610836  0.018429244            4 
 2381000   0.88909269   -8.0142816    531.40826  0.018598917   0.01842326            2 
 2382000   0.88302569   -8.0325951    532.29182   0.01862202  0.018417276            2 
 2383000   0.87834238   -8.0414507    530.74275  0.018560035  0.018411277            1 
 2384000   0.86738713   -8.0340147     530.6338  0.018548441  0.018405282            2 
 2385000    0.8636865   -8.0385325    531.83187  0.018582525  0.018399313            2 
 2386000   0.87354547   -8.0358541    533.25786  0.018624541   0.01839333            4 
 2387000   0.87370342   -8.0501766    531.54899   0.01855708  0.018387368            2 
 2388000   0.88186605   -8.0415138    532.76392  0.018591706  0.018381347            3 
 2389000   0.86460011   -8.0425818    532.43778  0.018572547  0.018375353            5 
 2390000   0.85151973   -8.0567433    532.14276  0.018554489   0.01836934            7 
 2391000   0.88612723   -8.0734992     531.7182  0.018531932  0.018363351            2 
 2392000   0.86433418    -8.073268    532.21222  0.018541395  0.018357376            3 
 2393000   0.85342204   -8.0325279    531.56369  0.018511063  0.018351426            3 
 2394000   0.86959073   -8.0618461    531.75305  0.018509922  0.018345507            2 
 2395000   0.84572161   -8.0327749     532.8085  0.018538918  0.018339559            2 
 2396000   0.86990059   -8.0619678    532.42686  0.018517907  0.018333596            4 
 2397000   0.86651465   -8.0407992    533.21212  0.018537482  0.018327631            2 
 2398000   0.84955071   -8.0796141    531.62266  0.018474516  0.018321698            6 
 2399000   0.86218546   -8.0700135    534.08732  0.018552429  0.018315745            4 
 2400000   0.89603275   -8.0685657    532.78022  0.018499313  0.018309816            1 
 2401000    0.8752719   -8.0462054    533.02745  0.018500189  0.018303885            2 
 2402000   0.86259169   -8.0675764    533.45937  0.018507472  0.018297913            1 
 2403000   0.84534687   -8.0834714     531.6928  0.018438507  0.018291911            2 
 2404000   0.85871619   -8.0573612    533.62676  0.018497877  0.018285982            6 
 2405000   0.86759943   -8.0588574     533.4107  0.018482699  0.018280092            2 
 2406000   0.88474871   -8.0301138    533.61397  0.018482058  0.018274177            2 
 2407000   0.87746795   -8.0443139    534.89743  0.018518814  0.018268293            3 
 2408000   0.86882316   -7.9807349    535.25595  0.018523531  0.018262437            2 
 2409000   0.87191675   -8.0491283     534.4601  0.018488311  0.018256603            8 
 2410000   0.88078748   -8.0708528    534.26205  0.018473792  0.018250716            2 
 2411000   0.85579574   -8.0567287    533.37895  0.018435606  0.018244829            2 
 2412000   0.86701374   -8.0389342    534.61975  0.018470831  0.018238995            3 
 2413000   0.86778671   -8.0530656    534.75484  0.018467842  0.018233157            4 
 2414000   0.85867284   -8.0716857    534.53505  0.018452605  0.018227233            2 
 2415000   0.86449297   -8.0585469    536.39916  0.018509288  0.018221361            4 
 2416000   0.87680728   -8.0455312    536.12349  0.018492118  0.018215543            4 
 2417000   0.86812575   -8.0793457    535.55225  0.018464772  0.018209708            3 
 2418000   0.86550316     -8.07221    535.94224  0.018470576  0.018203861            2 
 2419000    0.8679549   -8.0661607    534.50972  0.018413591  0.018198024            4 
 2420000   0.86668108   -8.0433414    534.98212  0.018422249  0.018192177            3 
 2421000   0.86966301   -8.0810553     534.1218  0.018385027  0.018186324            4 
 2422000    0.8505315   -8.0536118    535.57956  0.018427593  0.018180509            2 
 2423000   0.87970366   -8.0888638    535.57556   0.01841985  0.018174685            5 
 2424000   0.88051223   -8.0741789    534.65505  0.018380605  0.018168875            5 
 2425000   0.86273388   -8.0535007    534.39457  0.018364074  0.018163065            2 
 2426000   0.86288025   -8.0553587    536.67121  0.018434708  0.018157295            2 
 2427000   0.86621882   -8.0673858    536.05009  0.018405785  0.018151515            2 
 2428000   0.87969689   -8.0961614    535.93689   0.01839432  0.018145676            4 
 2429000   0.86180676   -8.0859127    535.67745  0.018377846   0.01813982            3 
 2430000    0.8572239   -8.0826231    534.84755  0.018341823  0.018133971            3 
 2431000   0.85256874   -8.0970097    535.83336  0.018368071  0.018128144            4 
 2432000   0.85955557   -8.0989546    535.34635   0.01834383  0.018122305            3 
 2433000   0.86034502   -8.0574565    536.16737  0.018364412  0.018116466            2 
 2434000   0.84969571   -8.0704449    537.10404  0.018388936  0.018110669            2 
 2435000   0.85981859   -8.0793042    536.58871  0.018363748  0.018104901            4 
 2436000   0.85694557   -8.1215708    535.26129  0.018310799  0.018099137            3 
 2437000   0.87007605   -8.0889398     536.5257  0.018346522  0.018093343            2 
 2438000   0.86552495   -8.1003252    536.65355  0.018343367  0.018087548            2 
 2439000    0.8621636   -8.1192258    537.14309  0.018352572   0.01808177            2 
 2440000   0.86498186   -8.1073349    537.37927  0.018353117  0.018075948            2 
 2441000   0.87385186   -8.1058681     536.3491   0.01831043  0.018070186            6 
 2442000   0.85943874    -8.110543    537.06238  0.018327272  0.018064384            4 
 2443000   0.84660329   -8.1059777     537.4714  0.018333722  0.018058606            2 
 2444000   0.86132812   -8.0667698    537.87705  0.018340052  0.018052831            4 
 2445000   0.86812879   -8.0759082    536.00963  0.018268904  0.018047012            1 
 2446000    0.8755602   -8.0872585    536.46184  0.018276841  0.018041184            2 
 2447000   0.85496516   -8.1007682    537.03647  0.018288941  0.018035361            1 
 2448000   0.85192194   -8.0749054    537.70376  0.018304186  0.018029597            1 
 2449000   0.85216459   -8.0782763    537.97074  0.018305796  0.018023824            2 
 2450000   0.86702921   -8.1076048    536.41912  0.018245548  0.018018044            2 
 2451000   0.84754928    -8.047322    538.17684  0.018297866  0.018012292            2 
 2452000   0.86046514   -8.0641669    537.78704  0.018277156  0.018006572            3 
 2453000    0.8765244   -8.0671268    537.53657  0.018261196   0.01800084            1 
 2454000   0.86102608   -8.0482967    539.38674  0.018316583   0.01799514            2 
 2455000   0.85456182   -8.0694548    538.87081  0.018291609  0.017989466            2 
 2456000   0.83201682   -8.0811082    539.39741  0.018302029  0.017983765            1 
 2457000   0.85869207   -8.1024364    537.51484   0.01823073  0.017978049            4 
 2458000   0.83194951   -8.0909141    539.19298  0.018280207  0.017972355            1 
 2459000   0.85340624   -8.0588522    539.02057   0.01826693  0.017966675            2 
 2460000   0.85408253    -8.073344     539.7886  0.018285522  0.017961026            2 
 2461000   0.84341639    -8.063163    539.42577  0.018265806  0.017955404            1 
 2462000    0.8390857   -8.0285169    540.04013  0.018279181  0.017949854           13 
 2463000   0.87827471   -8.0483551    540.70145  0.018294135  0.017944293            7 
 2464000   0.85902133   -8.0565569    540.87562  0.018292601   0.01793873            5 
 2465000   0.84979531   -8.0821365    541.74294  0.018314501  0.017933121            3 
 2466000   0.85593114   -8.0489871     539.9665  0.018247043  0.017927501            2 
 2467000   0.86762616   -8.0635394    539.99791  0.018240708   0.01792188            8 
 2468000   0.84262723   -8.0888548    540.02895  0.018234365  0.017916287            5 
 2469000   0.85720912   -8.0526484    542.10343  0.018296997  0.017910704            2 
 2470000     0.853225   -8.1243665    540.09098  0.018221693  0.017905117            2 
 2471000   0.87063664   -8.0597178    540.24532  0.018219524  0.017899489            3 
 2472000   0.85826693   -8.0865112    540.75031  0.018229177  0.017893887            2 
 2473000   0.86951206   -8.0792735    541.68889  0.018253433  0.017888283            3 
 2474000   0.83908827   -8.0668957    541.23146  0.018230648  0.017882642            3 
 2475000   0.84381495   -8.1292747    539.82101  0.018175792  0.017877033            2 
 2476000    0.8448288   -8.0995591    540.90466  0.018204923  0.017871433            3 
 2477000   0.86447423   -8.0823802     541.5214  0.018218322  0.017865838            1 
 2478000   0.86193696   -8.1130145    541.06003  0.018195454  0.017860242            4 
 2479000   0.84543533   -8.1044901    540.55211   0.01817104  0.017854662            5 
 2480000   0.85040057   -8.0618407    541.56032  0.018197591  0.017849072            3 
 2481000   0.84463917    -8.106217     540.8073  0.018164964  0.017843533            1 
 2482000   0.86157386   -8.1092916    540.47863   0.01814661  0.017837974            5 
 2483000   0.83836559   -8.0918363    540.55127  0.018141739  0.017832424            1 
 2484000   0.86117134   -8.0846822    541.71308  0.018173413  0.017826803            1 
 2485000   0.85008148   -8.1202756    540.74336   0.01813358  0.017821201            4 
 2486000   0.85460285   -8.1163075    541.16015  0.018140257  0.017815598            4 
 2487000   0.83545052   -8.0631437    542.41458  0.018174996  0.017810028            2 
 2488000   0.84884125   -8.0975718     542.1823  0.018159911  0.017804455            3 
 2489000    0.8501172     -8.06805    541.97161  0.018145561  0.017798889            1 
 2490000   0.83858127   -8.1067227    542.35658  0.018151157  0.017793328            1 
 2491000   0.83624309   -8.0954098    542.04996  0.018133613  0.017787754            2 
 2492000   0.85348576    -8.091766    541.58734  0.018110866  0.017782212            3 
 2493000   0.85827311    -8.094116    541.76281  0.018109467   0.01777663            4 
 2494000   0.86490021   -8.1038891    541.30409  0.018086878  0.017771053            1 
 2495000   0.85328089   -8.1166499    541.14566  0.018074337  0.017765472            3 
 2496000    0.8269789   -8.1194191    540.97737  0.018061478  0.017759903            5 
 2497000   0.85386163   -8.0859889     541.2717  0.018064067  0.017754343            2 
 2498000     0.859233    -8.086105    542.26607  0.018090008  0.017748783            2 
 2499000   0.86722942   -8.0730602    542.51633  0.018091114   0.01774322            8 
 2500000   0.86666636   -8.1020396    540.14177  0.018004726  0.017737647            2 
 2501000   0.86015435   -8.1089342    540.34414   0.01800427  0.017732019            3 
 2502000   0.85478987   -8.0838931    541.89409  0.018048697  0.017726405            2 
 2503000   0.86268778   -8.0943499    542.08021  0.018047683  0.017720789            1 
 2504000   0.86956358     -8.07807    542.31497  0.018048288  0.017715181            2 
 2505000   0.86056894   -8.1112697    541.59992  0.018017296  0.017709571            3 
 2506000   0.84190453   -8.0923847    542.82332  0.018050789  0.017703985            2 
 2507000    0.8463202   -8.1014196    542.80768  0.018043069  0.017698408            4 
 2508000   0.85159743    -8.135695    541.62366  0.017996533  0.017692814            2 
 2509000   0.87169221    -8.092044    542.87541  0.018030936  0.017687204            3 
 2510000   0.83891695   -8.1073123     541.9839  0.017994153    0.0176816            2 
 2511000   0.84517255   -8.1208491    542.09883  0.017990802   0.01767599            2 
 2512000   0.84800223   -8.1035856     542.2603  0.017988996  0.017670382            6 
 2513000   0.83477529   -8.1040604    543.33671  0.018017532  0.017664797            2 
 2514000   0.85475698   -8.0724833    544.80014  0.018058875  0.017659271            3 
 2515000    0.8427607   -8.0949778    544.04778  0.018026766  0.017653732            2 
 2516000   0.85541707   -8.1017915    542.30363  0.017961832  0.017648216            7 
 2517000   0.83059924    -8.086737    544.54345  0.018028852  0.017642693            5 
 2518000   0.85960204   -8.1123484    544.09493  0.018006848  0.017637179            3 
 2519000   0.84393254   -8.1081832    544.82669  0.018023908  0.017631659            3 
 2520000   0.84394335   -8.1293569    543.09533  0.017959502  0.017626103            1 
 2521000   0.85738524   -8.0926117    545.48611  0.018031406  0.017620568            1 
 2522000   0.84417478   -8.0979866    543.12118  0.017946113  0.017615087            2 
 2523000   0.85439015   -8.0953368    546.10595  0.018037586  0.017609622            3 
 2524000   0.84927461   -8.0870599    544.68031   0.01798337  0.017604165            4 
 2525000    0.8392879   -8.0946691    543.36512  0.017932842  0.017598699            4 
 2526000   0.83486305   -8.1266517    545.60314  0.017999576  0.017593219            2 
 2527000   0.84309986   -8.1309807    544.23183  0.017947231  0.017587706            2 
 2528000   0.84118111     -8.11904    545.55686   0.01798381  0.017582223            2 
 2529000   0.84191224   -8.1226264    545.21938  0.017965579   0.01757672            2 
 2530000   0.84560513   -8.1555311    545.36146  0.017963157  0.017571246            4 
 2531000   0.84358134   -8.1007755    546.48605  0.017993087  0.017565814            3 
 2532000   0.83860253   -8.1253822    545.95744  0.017968584  0.017560387            4 
 2533000    0.8420566   -8.1234057    544.60051  0.017916848  0.017554957            2 
 2534000   0.83504241   -8.1042435    546.82901  0.017983064  0.017549529            2 
 2535000   0.84446907   -8.0822268    546.32613  0.017959439  0.017544155            3 
 2536000   0.83634287   -8.0874208    546.28426  0.017950981  0.017538805            1 
 2537000    0.8453541   -8.0964953    546.21941  0.017941776  0.017533449            4 
 2538000   0.83176289   -8.0790068    545.78773  0.017920532  0.017528093            1 
 2539000   0.84211469   -8.1121954     544.9047  0.017884492  0.017522705            3 
 2540000   0.84638515   -8.1174743    545.93642    0.0179113  0.017517262            1 
 2541000   0.84551354   -8.1088952     546.6649  0.017928142  0.017511841            2 
 2542000   0.82266239   -8.1300637    545.80145  0.017892783  0.017506402            3 
 2543000     0.838007   -8.1353577     545.4211  0.017873283  0.017500962            2 
 2544000   0.84478744   -8.1426053    545.10716  0.017855974  0.017495514            2 
 2545000   0.83459453   -8.1232942    546.53437   0.01789569  0.017490078            4 
 2546000   0.84539603   -8.1481231    545.11729  0.017842278  0.017484618            5 
 2547000   0.85023308   -8.1237277    546.38903  0.017876882  0.017479154            2 
 2548000   0.85787916   -8.1276119    546.51701  0.017874052   0.01747368            4 
 2549000   0.83735083   -8.1237002    546.18147   0.01785607  0.017468198            2 
 2550000   0.83785769   -8.1319585    546.62292  0.017863494  0.017462757            1 
 2551000   0.84703711    -8.114159    547.28461  0.017878107  0.017457309            3 
 2552000   0.85379756   -8.1111055    545.45326    0.0178113  0.017451872            2 
 2553000   0.85119358   -8.0831864    547.29025  0.017864285   0.01744645            2 
 2554000   0.84349345   -8.1112059    547.68279  0.017870099  0.017441064            2 
 2555000    0.8415487   -8.1041947    546.90125  0.017837614  0.017435663            3 
 2556000   0.83821895   -8.1269451     547.4131  0.017847323  0.017430299            2 
 2557000   0.85726952   -8.1146272    546.83206  0.017821407  0.017424884            3 
 2558000   0.83812765   -8.1367393    546.81808  0.017813985  0.017419489            2 
 2559000   0.84090016   -8.1318655    547.60504  0.017832651  0.017414051            3 
 2560000   0.84813982    -8.125058    547.49924  0.017822241  0.017408623            2 
 2561000   0.83553897   -8.1116606    548.56553  0.017849978  0.017403206            4 
 2562000   0.83773362   -8.1270912    546.78582  0.017785123  0.017397802            2 
 2563000   0.84152075   -8.1243374    547.69195  0.017807646  0.017392403            2 
 2564000    0.8407752   -8.1036258    547.07747  0.017780729  0.017387028            1 
 2565000   0.83630457    -8.110453    547.55712   0.01778938  0.017381599            1 
 2566000   0.84067529   -8.1372931    547.53124  0.017781607  0.017376148            4 
 2567000    0.8531447   -8.1365249    546.14482  0.017729672  0.017370681            1 
 2568000   0.84211493   -8.1412151    546.41529  0.017731545  0.017365211            4 
 2569000   0.82878522   -8.1238025    547.65921  0.017764993  0.017359754            3 
 2570000   0.83253359   -8.1083595     546.6255  0.017724562  0.017354271            4 
 2571000   0.83365513   -8.1366217    546.79384  0.017723124  0.017348795            2 
 2572000   0.84259991   -8.1346084    546.50817  0.017706978  0.017343268            3 
 2573000   0.83449884   -8.1363208    546.16595  0.017689012  0.017337786            2 
 2574000   0.84063467   -8.1352504    546.44077  0.017691038  0.017332293            3 
 2575000   0.83326104   -8.1465704     546.9568  0.017700867  0.017326776            4 
 2576000   0.82419293   -8.1515023    546.63589  0.017683614  0.017321281            2 
 2577000   0.84628163   -8.1730964    546.07382  0.017658577  0.017315758            2 
 2578000   0.84835502   -8.1415444    545.54134  0.017634515  0.017310251            3 
 2579000   0.83282887     -8.14377    546.68327  0.017664575  0.017304772            3 
 2580000   0.85013179   -8.1655049     546.6698  0.017657293  0.017299281            4 
 2581000    0.8299036   -8.1597202    546.19288  0.017635054  0.017293786            1 
 2582000   0.83359756   -8.1455984    546.98075  0.017653652  0.017288275            1 
 2583000   0.83354797   -8.1538455    547.44756  0.017661878  0.017282794            2 
 2584000   0.83103982    -8.160274    547.12355  0.017644593  0.017277293            2 
 2585000   0.86381267   -8.1506094    546.76597   0.01762624  0.017271781            2 
 2586000      0.85692   -8.1344871    546.77484   0.01761971  0.017266291            8 
 2587000   0.85033158   -8.1527395    546.66836  0.017609469  0.017260823            2 
 2588000   0.83688649   -8.1588369    546.79451  0.017606727  0.017255349            3 
 2589000   0.84336408   -8.1449233    546.80761  0.017600348  0.017249829            1 
 2590000   0.83449599   -8.1109836    548.15392   0.01763687  0.017244341            1 
 2591000   0.83514525   -8.1598763    546.00453  0.017560933  0.017238833            2 
 2592000   0.84071193   -8.1126523    547.05666  0.017587984  0.017233301            2 
 2593000   0.83279794   -8.1700785    545.66646  0.017536523  0.017227747            1 
 2594000   0.83582752   -8.1704794    546.31487  0.017550593  0.017222158            1 
 2595000   0.83348546   -8.1416947     546.6226  0.017553712  0.017216601            4 
 2596000   0.86199593   -8.1509436    546.91041  0.017556189  0.017211052            2 
 2597000    0.8416158   -8.1427162    548.20821  0.017591073  0.017205513            4 
 2598000   0.82214314   -8.1312015    545.88633  0.017509826  0.017199959            3 
 2599000   0.83640554   -8.1219627    546.84851   0.01753394   0.01719444            1 
 2600000   0.83661194   -8.1287368    547.68009  0.017553849  0.017188905            3 
 2601000   0.83688315   -8.1608798    547.36701  0.017537069  0.017183358            4 
 2602000   0.83554638   -8.1471359    547.33533  0.017529315  0.017177816            2 
 2603000   0.81667502   -8.1306963    548.07702  0.017546325  0.017172297            3 
 2604000   0.81440557   -8.1473507    547.21732  0.017512075   0.01716677            2 
 2605000   0.84412849   -8.1498457    546.78188  0.017491423  0.017161243            3 
 2606000   0.84251159   -8.1423064    547.63232  0.017511906  0.017155722            1 
 2607000   0.82906082   -8.1273217    547.76754  0.017509511  0.017150202            3 
 2608000    0.8320814   -8.1371574    547.71991  0.017501275   0.01714469            2 
 2609000   0.84969208   -8.1626416    546.64407  0.017460204  0.017139156            4 
 2610000    0.8319309   -8.1719771    546.07973  0.017435496  0.017133586            5 
 2611000    0.8270505   -8.1497961    546.81128  0.017452167  0.017127998            5 
 2612000   0.84199112   -8.1429004    547.49294  0.017467233  0.017122408            8 
 2613000   0.80813767   -8.1376399     547.4139  0.017458027  0.017116819            6 
 2614000   0.81094713   -8.1616012    546.95514  0.017436723  0.017111235            5 
 2615000   0.81306441   -8.1808703    545.77904  0.017392576  0.017105623            3 
 2616000   0.83203641   -8.1186021    547.08071  0.017427393  0.017100004            1 
 2617000   0.82669911   -8.1428143    547.73995  0.017441726   0.01709444            3 
 2618000   0.83034222   -8.1551372     547.3062  0.017421257  0.017088875            3 
 2619000   0.83180287   -8.1675306    548.93325  0.017466376   0.01708332            2 
 2620000   0.82517874   -8.1663085    546.91461  0.017395503  0.017077783            3 
 2621000   0.82325067   -8.1776625      546.775  0.017384427  0.017072255            3 
 2622000   0.84813124   -8.1481298    547.19542  0.017391159  0.017066686            2 
 2623000   0.82578637   -8.1401224    548.36564  0.017421707  0.017061144            2 
 2624000   0.82811316   -8.1622937    548.45169    0.0174178  0.017055615            2 
 2625000   0.82601973   -8.1343439    547.70869  0.017387578  0.017050082            5 
 2626000    0.8404053   -8.1531467    547.51941   0.01737495  0.017044525            6 
 2627000   0.83423835   -8.1349723    547.00032  0.017351869  0.017039002            3 
 2628000   0.82868717   -8.1449717    547.48262   0.01736056  0.017033444            2 
 2629000   0.81339305   -8.1326067    548.74291  0.017393905  0.017027919            5 
 2630000   0.82482447   -8.1643618    548.26431  0.017372126  0.017022391            1 
 2631000   0.81157657   -8.1568696    546.12107  0.017297639  0.017016871            5 
 2632000   0.81876351    -8.157925     547.7885  0.017343861  0.017011349            4 
 2633000   0.82342655   -8.1559155    548.34734  0.017354961  0.017005829            2 
 2634000   0.83847683   -8.1912313    547.43442   0.01731949  0.017000285            2 
 2635000   0.82154231   -8.1582725    547.64005   0.01731942  0.016994739            2 
 2636000    0.8044532   -8.1673673    548.18477   0.01733007  0.016989201            3 
 2637000   0.83717957   -8.1714238    549.42739  0.017362767  0.016983697            2 
 2638000   0.82299621   -8.1534052    547.76259  0.017303594  0.016978166            3 
 2639000   0.81828831   -8.1836169    547.74386  0.017296446  0.016972619            2 
 2640000   0.81924302   -8.1659586    548.67203  0.017319193  0.016967077            3 
 2641000   0.82092463   -8.1629558    549.18042  0.017328677  0.016961557            3 
 2642000   0.82652057   -8.1883077    548.82464  0.017310896  0.016956036            2 
 2643000   0.83758679   -8.1256563    550.25097  0.017349318  0.016950555            1 
 2644000   0.84683055   -8.1504458      549.364  0.017314801    0.0169451            2 
 2645000   0.79521367   -8.1806125    549.45766  0.017311205  0.016939638            2 
 2646000   0.82133421   -8.1323238    550.12161  0.017325573  0.016934174            2 
 2647000   0.82768581   -8.1946931    547.51231  0.017236882  0.016928669            5 
 2648000   0.84204839   -8.1490191    548.77177  0.017270008  0.016923159            3 
 2649000   0.83293798   -8.1634721    549.21228  0.017277346  0.016917687            2 
 2650000   0.82291046   -8.1537819    549.69321   0.01728595   0.01691222            2 
 2651000   0.84162683   -8.1494124    549.41595  0.017270714   0.01690674            2 
 2652000    0.8292407   -8.1565499     551.4114  0.017326904   0.01690127            1 
 2653000   0.83675261   -8.1710193    548.65384  0.017233755  0.016895793            2 
 2654000   0.84808425   -8.1665808    549.39963  0.017250679  0.016890338            1 
 2655000   0.82497434   -8.1799178    548.51614  0.017216451  0.016884877            1 
 2656000   0.83143075   -8.1530711    549.93169  0.017254383  0.016879411            3 
 2657000   0.82795155   -8.1616081    549.35869  0.017229917  0.016873914            1 
 2658000   0.84230853   -8.1727303    550.22102  0.017250471  0.016868418            3 
 2659000   0.82586452   -8.1747265    549.25019  0.017213558  0.016862923            2 
 2660000   0.83437724    -8.180563    549.29681  0.017208547  0.016857422            4 
 2661000   0.83705772   -8.1814696    549.62707  0.017212422  0.016851913            4 
 2662000   0.81454935   -8.2007415    548.67746  0.017176229  0.016846384            2 
 2663000   0.81839557   -8.2003911    549.13391  0.017184063   0.01684085            2 
 2664000    0.8174153    -8.162611    549.06666  0.017175509  0.016835344            3 
 2665000   0.84071951   -8.1712112    550.06655   0.01720033  0.016829846            2 
 2666000   0.82152937   -8.1618472    550.80028  0.017216813  0.016824383            2 
 2667000   0.80982963   -8.1750819    549.06355  0.017156092  0.016818917            6 
 2668000   0.83143105    -8.198132      549.777  0.017171945  0.016813449            3 
 2669000   0.83458147   -8.1782926    549.12764  0.017145237  0.016807979            2 
 2670000    0.8265832   -8.1738952    549.57154   0.01715267  0.016802521            3 
 2671000   0.82490824   -8.1599901     550.6964  0.017181343  0.016797051            2 
 2672000   0.83226809   -8.1794043    550.18069  0.017158829  0.016791599            3 
 2673000   0.82947244   -8.1966731    549.67563  0.017136664  0.016786103            2 
 2674000   0.81389055   -8.1932748    551.19863  0.017177719  0.016780592            2 
 2675000    0.8130316   -8.1904193    550.42364  0.017147154  0.016775099            2 
 2676000   0.82563644   -8.1708169    551.08701  0.017161404   0.01676963            2 
 2677000    0.8051354   -8.2024133    549.68856  0.017111461  0.016764152            2 
 2678000   0.81922839    -8.199801    549.60892  0.017102593  0.016758671            1 
 2679000   0.81511444   -8.1602861    551.27726  0.017148104  0.016753195            2 
 2680000    0.8305655   -8.1959177    549.84172  0.017097068  0.016747742            3 
 2681000    0.8134678   -8.1750373    550.32194  0.017105618  0.016742276            2 
 2682000   0.82499734   -8.1828529    549.58442  0.017076324  0.016736828            1 
 2683000   0.83082975   -8.1710465    550.38251  0.017094748  0.016731404            2 
 2684000   0.82385416   -8.1560875    550.60947  0.017095426  0.016725935            5 
 2685000   0.81774344   -8.1395938    550.85865  0.017096792  0.016720504            4 
 2686000   0.80790446    -8.168336    550.65863  0.017084221  0.016715079            3 
 2687000   0.81068699   -8.1840937    551.51894  0.017104545  0.016709645            3 
 2688000   0.81361656   -8.1951118    550.62029  0.017070321  0.016704206            4 
 2689000   0.80713876   -8.1890341    551.10393  0.017078961  0.016698771            7 
 2690000   0.81108109   -8.1783188    550.91755  0.017066839  0.016693326            2 
 2691000   0.81980223   -8.1706136    550.99019  0.017062746    0.0166879            2 
 2692000   0.82546571    -8.219419    549.82346   0.01702029  0.016682452            3 
 2693000   0.82441605   -8.1700926    551.49565  0.017065715   0.01667701            3 
 2694000       0.8181   -8.1624894     551.2558  0.017051961  0.016671628            4 
 2695000   0.82109518   -8.1728749    552.58568  0.017086756  0.016666229            2 
 2696000   0.83329273   -8.1810018    551.75163  0.017054637  0.016660877            5 
 2697000   0.79672179   -8.1655597    551.84321  0.017051143  0.016655526            1 
 2698000   0.81718478   -8.1919043    551.69601  0.017040277  0.016650151            3 
 2699000    0.8151282    -8.182502    551.67875  0.017033431  0.016644761            4 
 2700000   0.81831216   -8.2205468    551.89463  0.017033785  0.016639364            5 
 2701000   0.82265413   -8.1861898    551.65175  0.017019985   0.01663398            5 
 2702000   0.83642892   -8.1812522    552.44001  0.017037997  0.016628584            6 
 2703000   0.81299262   -8.2030233    551.97236  0.017017276  0.016623199            1 
 2704000   0.80605452    -8.188157    552.31575  0.017021565  0.016617795            3 
 2705000   0.81072239   -8.2022865    551.86483  0.017001381    0.0166124            2 
 2706000   0.80983447   -8.1646244    553.89922  0.017057749  0.016606998            2 
 2707000   0.83522744   -8.1862588    551.96943   0.01699204  0.016601616            2 
 2708000    0.8250056   -8.1759702    554.10657  0.017051531  0.016596237            4 
 2709000   0.80880031   -8.2063188     551.3929   0.01696176  0.016590831            6 
 2710000   0.79500496   -8.1771124    551.98403  0.016973679  0.016585428            3 
 2711000   0.82752117     -8.18843     553.1882  0.017004432  0.016580027            2 
 2712000   0.81387165   -8.1728449    551.73956  0.016953649  0.016574657            4 
 2713000     0.797752   -8.1823034    551.69615  0.016946067  0.016569287            2 
 2714000   0.81351427    -8.206655    551.74161  0.016941219  0.016563925            5 
 2715000   0.82759276   -8.1826033    552.51668  0.016958769  0.016558567            3 
 2716000    0.8322516   -8.1923787    553.28823  0.016976197  0.016553225            1 
 2717000   0.82401035   -8.1909859    553.82873  0.016986527  0.016547898            3 
 2718000   0.80799731   -8.1837704    553.16701  0.016959989  0.016542556            1 
 2719000   0.81384401    -8.225973    552.75965  0.016941267   0.01653718            1 
 2720000   0.83320069   -8.2202388    552.25405  0.016919548  0.016531777            4 
 2721000   0.79911252   -8.2229258    552.20225  0.016911744  0.016526357            2 
 2722000    0.7909132   -8.2314071     552.4532  0.016913213  0.016520923            4 
 2723000   0.81878042   -8.2172486    553.97718  0.016953641  0.016515512            2 
 2724000   0.83372894   -8.2123103    552.17571  0.016892306  0.016510116            3 
 2725000   0.82765411   -8.2225038    552.89959  0.016908244  0.016504745            2 
 2726000   0.81122172   -8.2130599    552.56571  0.016891835  0.016499376            1 
 2727000   0.82256182   -8.2133463    552.58555  0.016886247  0.016494016            1 
 2728000   0.80561935   -8.2161114    551.05776  0.016833387  0.016488637            2 
 2729000   0.80908125   -8.2117641    553.89742  0.016913931  0.016483236            2 
 2730000   0.82854549   -8.1742815    552.98265  0.016879812  0.016477892            3 
 2731000   0.79798701   -8.1912811     553.9444  0.016902978  0.016472542            7 
 2732000   0.80330462   -8.1720913    553.41114  0.016880525  0.016467215            2 
 2733000   0.81690219   -8.2212177    553.50477  0.016877204  0.016461864            5 
 2734000   0.81480727   -8.1682889    555.15933  0.016921462  0.016456524            2 
 2735000   0.80876172    -8.219186    553.64576  0.016869158  0.016451186            3 
 2736000   0.82675913   -8.2285704    553.66454  0.016863564  0.016445814            2 
 2737000   0.81508734   -8.2092668    553.31071   0.01684663  0.016440467            3 
 2738000   0.81837233   -8.2170412    553.54414  0.016847582   0.01643514            3 
 2739000   0.81513669   -8.2187672    554.51008  0.016870819  0.016429775            1 
 2740000   0.80929259   -8.2092697    553.26058   0.01682666  0.016424437            2 
 2741000   0.81731413   -8.2050619    554.49773  0.016858134  0.016419099            3 
 2742000   0.81765775   -8.1577457    554.40424  0.016849144  0.016413769            4 
 2743000   0.80460027   -8.2086715    553.68776  0.016821235  0.016408429            4 
 2744000   0.80382133   -8.1837649    555.34509  0.016865436  0.016403109            3 
 2745000   0.82050548   -8.1760709      555.177  0.016854189  0.016397828            2 
 2746000   0.79521089   -8.1818897    553.92573  0.016810079  0.016392551            3 
 2747000   0.80346442   -8.1778782    554.58803  0.016824051  0.016387252            3 
 2748000   0.81418727   -8.1948842    554.73899  0.016822507  0.016381957            2 
 2749000   0.81646649   -8.1944081    553.41639  0.016776294  0.016376667            2 
 2750000   0.80211753   -8.2093663    553.96332  0.016786767  0.016371351            1 
 2751000   0.80743123   -8.2330066    554.06391  0.016783712  0.016366057            3 
 2752000   0.80797056   -8.2226507    553.79849  0.016769576  0.016360731            4 
 2753000   0.83161534   -8.2134409    554.71783  0.016791313  0.016355411            3 
 2754000   0.81383351   -8.2158816    553.71089  0.016754747   0.01635011            2 
 2755000   0.81519988   -8.1780317    554.64426  0.016776898  0.016344802            1 
 2756000   0.80020544   -8.1900846    554.46022  0.016765246  0.016339508            2 
 2757000   0.81107054   -8.1933748    554.22383   0.01675202  0.016334199            3 
 2758000   0.81691662   -8.2064192    554.74526  0.016761701  0.016328882            1 
 2759000   0.81721924    -8.170177    554.08327  0.016735631  0.016323596            2 
 2760000   0.83398737   -8.2014611     553.1445  0.016701223  0.016318258            4 
 2761000   0.80543264   -8.2313009    554.32933  0.016730935  0.016312919            3 
 2762000   0.81314918   -8.2400724    553.06117  0.016686615  0.016307573            4 
 2763000   0.79792982   -8.1769324    555.32045  0.016748717  0.016302258            3 
 2764000   0.82141658   -8.2197746    554.27031  0.016710996  0.016296995            4 
 2765000   0.80436876    -8.219498    555.34661   0.01673739  0.016291683            3 
 2766000   0.79216228    -8.214438     555.0884   0.01672356  0.016286385            2 
 2767000   0.80092699   -8.2120615    553.80611  0.016678897  0.016281061            3 
 2768000   0.80261483   -8.2431581    553.94174  0.016676955  0.016275731            3 
 2769000    0.8187303   -8.2276173    553.83275  0.016667652  0.016270379            3 
 2770000   0.82631103   -8.2527948    553.51013  0.016651929  0.016265033            4 
 2771000   0.80237656   -8.2139769    554.92861  0.016688578  0.016259693            2 
 2772000   0.81609881     -8.20152    553.55388   0.01664123  0.016254342            4 
 2773000   0.81017881   -8.2150942    555.42854  0.016691566  0.016249023            5 
 2774000   0.80012284   -8.2185644    553.45479  0.016626255  0.016243699            2 
 2775000   0.80979313   -8.2217034    554.88754   0.01666329  0.016238392            3 
 2776000   0.80276318   -8.2106072    554.76828  0.016653707    0.0162331            2 
 2777000   0.80262742   -8.2219818    554.07087  0.016626782  0.016227801            2 
 2778000   0.79588715   -8.2138319    555.05913  0.016650442  0.016222503            3 
 2779000   0.82270767   -8.2091752    555.73537  0.016664729  0.016217226            2 
 2780000   0.80687244   -8.2264427     554.8339  0.016631712  0.016211931            3 
 2781000    0.8011834    -8.240829     555.4603  0.016644501  0.016206641            5 
 2782000   0.81821156   -8.2024714    555.79553   0.01664856  0.016201346            4 
 2783000    0.8158472   -8.2421303    554.19142  0.016594545  0.016196048            2 
 2784000   0.80991018   -8.2247065    554.70864  0.016604066  0.016190757            2 
 2785000   0.81898111   -8.2167885    555.05669  0.016608519  0.016185466            4 
 2786000   0.79206035   -8.2186323    555.43362  0.016613832  0.016180164            2 
 2787000   0.79094554   -8.2432558    554.24318  0.016572275  0.016174865            2 
 2788000   0.80476288   -8.1993018     556.0104  0.016619154  0.016169561            2 
 2789000    0.7930579   -8.2178584    556.47053  0.016626943   0.01616428            3 
 2790000   0.79827162   -8.1952306    555.85263  0.016602528  0.016158988            2 
 2791000   0.79693322   -8.2005603    556.21645  0.016607442  0.016153679            2 
 2792000   0.81018203    -8.200779    554.27511   0.01654355  0.016148398            4 
 2793000   0.80441779   -8.2253264    555.49444  0.016574008    0.0161431            3 
 2794000   0.78435244   -8.2509789    555.78273  0.016576674  0.016137794            4 
 2795000   0.80744199   -8.2351276    555.61762  0.016565821  0.016132488            3 
 2796000    0.8204554   -8.2369622    555.41721  0.016553923  0.016127176            2 
 2797000   0.80041667   -8.2106379    554.69503  0.016526487  0.016121866            1 
 2798000   0.81338965    -8.225864    554.99487  0.016529511  0.016116531            3 
 2799000   0.81340096   -8.2485578    554.97308  0.016522957   0.01611118            4 
 2800000   0.81931598   -8.2283157    553.97281  0.016487286  0.016105824            1 
 2801000   0.80060897   -8.2404061    554.90177  0.016509038  0.016100478            3 
 2802000   0.82574066   -8.2238097    554.88909  0.016502768  0.016095156            1 
 2803000   0.78699233   -8.2404335    554.43213  0.016483296  0.016089798            4 
 2804000     0.810769   -8.2334736    554.50142  0.016479476  0.016084443            2 
 2805000   0.80194769   -8.2868247    553.69326  0.016449592  0.016079069            3 
 2806000   0.80488189   -8.2377901    553.63365  0.016441959  0.016073686            1 
 2807000   0.79539589   -8.2532327    554.63021  0.016465687  0.016068304            1 
 2808000    0.7978605   -8.2315329    555.06356  0.016472684  0.016062936            2 
 2809000   0.79424875   -8.2414744    554.03967  0.016436444  0.016057579            4 
 2810000   0.79540066   -8.2377582    555.77638  0.016482099   0.01605223            2 
 2811000   0.80971925   -8.2238309    555.36761  0.016464117  0.016046904            2 
 2812000   0.80098114   -8.2402482    554.20068  0.016423681  0.016041567            4 
 2813000   0.80754973   -8.2483318    555.56961  0.016458396  0.016036234            3 
 2814000   0.79223861   -8.2428865    556.43939  0.016478305  0.016030884            4 
 2815000   0.80409347   -8.2142095    555.50671  0.016444841  0.016025544            3 
 2816000   0.80075225   -8.2308693    555.74771  0.016446133  0.016020222            1 
 2817000   0.80929116   -8.2502111    553.85428  0.016384282  0.016014894            3 
 2818000   0.81309302   -8.2855772    554.75539  0.016405116  0.016009553            6 
 2819000   0.79209334   -8.2443354    556.02794  0.016436914  0.016004179            4 
 2820000   0.80026535   -8.2368926    554.79324  0.016394599  0.015998833            8 
 2821000   0.79207123   -8.2220669    555.64288  0.016413886   0.01599351            3 
 2822000    0.8048899    -8.218983    555.15049   0.01639353  0.015988189            1 
 2823000   0.80271806   -8.2427174     554.0457   0.01635511  0.015982843            2 
 2824000   0.79902275   -8.2496955    555.52879  0.016393083  0.015977527            4 
 2825000   0.78368445   -8.2559262    555.53869  0.016387572  0.015972185            2 
 2826000   0.79070061   -8.2361535    555.50012  0.016380636   0.01596684            2 
 2827000   0.80566057    -8.237444    555.19689  0.016365903  0.015961481            2 
 2828000   0.79842413   -8.2853156    553.53891   0.01631126  0.015956101            2 
 2829000     0.798683   -8.2653256    555.58461  0.016365754  0.015950723            1 
 2830000   0.80012608   -8.2688276    554.65283  0.016332533   0.01594536            2 
 2831000   0.79760071   -8.2481385     553.8731  0.016303812  0.015939998            3 
 2832000    0.7996163   -8.2674555    554.59181  0.016319204  0.015934647            2 
 2833000   0.79213763   -8.2703223    555.20234  0.016331402  0.015929295            1 
 2834000   0.79875676   -8.2505745    555.28278  0.016328005  0.015923941            2 
 2835000   0.78824633   -8.2706771    554.08677  0.016287089  0.015918584            3 
 2836000   0.80490413   -8.2592741    555.21719  0.016314562  0.015913243            3 
 2837000   0.79275401   -8.2326449    555.80867  0.016326186  0.015907906            1 
 2838000   0.80425964   -8.2301522    556.36769  0.016336848  0.015902602            3 
 2839000   0.81038724   -8.2588858    555.52084  0.016306236  0.015897268            1 
 2840000   0.78924312   -8.2712496    555.26912  0.016293108  0.015891935            5 
 2841000   0.79824018   -8.2289269    555.46657  0.016293165  0.015886596            4 
 2842000   0.79377171   -8.2497224    556.39227  0.016314575  0.015881282            4 
 2843000    0.7891698    -8.241038    555.45098  0.016281246  0.015875973            2 
 2844000    0.8035511   -8.2412238    555.89872   0.01628864  0.015870655            4 
 2845000   0.79383828   -8.2645165    555.61802  0.016274693  0.015865322            3 
 2846000   0.81499792   -8.2376886      556.203  0.016286103  0.015859987            4 
 2847000   0.80265177   -8.2470074    555.97623  0.016273745  0.015854676            3 
 2848000   0.82211799   -8.2359235    556.20155  0.016274624  0.015849397            2 
 2849000   0.79671074   -8.2378524    556.53232  0.016278587  0.015844086            2 
 2850000   0.80655089   -8.2329635    556.53606  0.016272984   0.01583877            5 
 2851000   0.81597906   -8.2514375    554.58853  0.016210351  0.015833429            2 
 2852000   0.78346855   -8.2669113    554.32505  0.016196968  0.015828083            1 
 2853000   0.79133859   -8.2949198    554.79611  0.016205051  0.015822736            3 
 2854000   0.79579962   -8.2335159    554.93442  0.016203411  0.015817404            2 
 2855000   0.80733299    -8.244036    555.36606  0.016210334  0.015812077            9 
 2856000   0.79059198   -8.2493327    555.77845  0.016216692  0.015806759            1 
 2857000    0.7939024    -8.278705    555.01928  0.016188872   0.01580142            1 
 2858000   0.81348082   -8.2591456    555.06766  0.016184618  0.015796089            2 
 2859000   0.79681998   -8.2808311    555.05663  0.016178636  0.015790731            2 
 2860000    0.7865713   -8.2504426    554.95221  0.016169936  0.015785388            2 
 2861000   0.79504844   -8.2489829    556.10039  0.016197728  0.015780076            3 
 2862000   0.78427428   -8.2628043    556.39515  0.016200651  0.015774767            7 
 2863000   0.79088197   -8.2462695    556.70034  0.016203875  0.015769434            3 
 2864000   0.81922354   -8.2458504    556.45727  0.016191145  0.015764155            1 
 2865000   0.78718671   -8.2446314    556.70881   0.01619281  0.015758885            2 
 2866000   0.78658789   -8.2384648    556.61691  0.016184488  0.015753619            2 
 2867000   0.78316166   -8.2762062    556.48302  0.016174951  0.015748352            2 
 2868000   0.78385271   -8.2886752    556.17156  0.016160261  0.015743051            4 
 2869000   0.79170029   -8.2705958    555.90973  0.016147024  0.015737741            2 
 2870000   0.80351625   -8.2780584    555.45249  0.016128121  0.015732426            1 
 2871000   0.79666611   -8.2542465    556.54072   0.01615409  0.015727128            1 
 2872000   0.78194215   -8.2526602    556.07379  0.016134917   0.01572185            4 
 2873000   0.79597523   -8.2442978    556.09841  0.016130015   0.01571657            2 
 2874000    0.7885883   -8.2569175    556.13422  0.016125441  0.015711297            2 
 2875000   0.78689222   -8.2658195    556.45783  0.016129212  0.015706017            3 
 2876000   0.79384882   -8.2799981    556.05909  0.016112051  0.015700744            1 
 2877000   0.80522369   -8.2653711    556.35551  0.016115036  0.015695476            3 
 2878000   0.81768866   -8.2827263    556.17672   0.01610426  0.015690206            2 
 2879000   0.79974722   -8.2617325    556.62774  0.016111721  0.015684921            2 
 2880000   0.80482909   -8.2547079    556.67248  0.016107421   0.01567966            3 
 2881000    0.7875479   -8.2263222    557.63218   0.01612959  0.015674409            1 
 2882000   0.80362294   -8.2321803    557.98375  0.016134159  0.015669152            5 
 2883000   0.79409029    -8.273523    555.59974  0.016059652  0.015663865            2 
 2884000   0.79004985   -8.2722633    555.62014  0.016054673   0.01565857            2 
 2885000   0.80163404   -8.2724886    557.15621  0.016093478  0.015653289            1 
 2886000   0.79709266   -8.2646166    557.66575  0.016102615  0.015648025            1 
 2887000   0.80177974   -8.2526642    556.50572  0.016063553  0.015642779            2 
 2888000    0.7930624     -8.25086    557.98389  0.016100643  0.015637539            2 
 2889000   0.81372831   -8.2749459    556.91366  0.016064199  0.015632299            2 
 2890000   0.79013055   -8.2571466    556.90602  0.016058421  0.015627056            2 
 2891000   0.77907953   -8.2772861    555.93148  0.016024775  0.015621799            1 
 2892000   0.79633312   -8.2748872    557.28793   0.01605832  0.015616521            2 
 2893000   0.78098202   -8.2597471    555.99843  0.016015625  0.015611243            2 
 2894000   0.79911774   -8.2378113    557.77894  0.016061361  0.015605979            6 
 2895000   0.78583888   -8.2654153    556.41328  0.016016502   0.01560073            2 
 2896000   0.77733538    -8.293082    555.44064  0.015982983  0.015595443            2 
 2897000     0.806855   -8.2747956     557.3873  0.016033463  0.015590164            2 
 2898000   0.80154953   -8.2500721    557.51178   0.01603151  0.015584912            3 
 2899000   0.80245786   -8.2513227    557.80701  0.016034466  0.015579652            4 
 2900000   0.79251834   -8.2900039    557.95581  0.016033213  0.015574394            1 
 2901000   0.79483783   -8.2573936     556.1566  0.015976003  0.015569103            1 
 2902000   0.79202156   -8.2676531    557.97091  0.016022597  0.015563831            2 
 2903000     0.789201   -8.3147971    555.98023  0.015959933  0.015558543            2 
 2904000   0.76475757   -8.2708103    557.12179  0.015987195  0.015553258            4 
 2905000   0.76556159   -8.2725099    556.97168  0.015977386  0.015547972            2 
 2906000   0.79321497   -8.2825897     555.5992   0.01593253  0.015542706            1 
 2907000   0.78912967   -8.3052193     556.5819   0.01595522  0.015537444            3 
 2908000   0.78035598   -8.2947119    556.77201  0.015955181   0.01553218            3 
 2909000   0.78490574   -8.2749697      557.019  0.015956772  0.015526925            1 
 2910000   0.79016825   -8.2774324    557.36948  0.015961325  0.015521664            5 
 2911000    0.7879961   -8.2944094    556.88011  0.015941833  0.015516381            3 
 2912000   0.79822709   -8.2613684    556.14488  0.015915318   0.01551109            4 
 2913000   0.79126007   -8.2914204    557.27925  0.015942306  0.015505818            3 
 2914000   0.77982908   -8.2476281    557.79371  0.015951547  0.015500549            2 
 2915000   0.77394514   -8.2672584    557.16191  0.015928014  0.015495277            2 
 2916000   0.78846832   -8.3032285    555.94523  0.015887781  0.015489997            2 
 2917000    0.7822937    -8.259778    557.16247  0.015917109  0.015484715            5 
 2918000   0.80480995    -8.283764    557.62825  0.015924956   0.01547945            3 
 2919000     0.782706   -8.2885138    556.38137  0.015883904  0.015474166            3 
 2920000   0.77184022   -8.3390667    555.94036  0.015865878  0.015468875            5 
 2921000   0.78429742   -8.2805944    557.21447  0.015896795  0.015463585            3 
 2922000   0.78581688   -8.2886915    556.94637  0.015883709  0.015458326            3 
 2923000   0.79965982   -8.2705785    557.90883  0.015905714   0.01545305            6 
 2924000   0.77746553   -8.2787952    556.66504  0.015864827  0.015447779            2 
 2925000   0.77549508    -8.308169    557.18148  0.015874116  0.015442515            4 
 2926000    0.7848663   -8.3001964    556.83214  0.015858742  0.015437251            3 
 2927000   0.80062595   -8.2937686    556.17975   0.01583475  0.015432008            2 
 2928000   0.77058903   -8.3128022    557.31238  0.015861577   0.01542674            2 
 2929000   0.79283513   -8.2962938    556.02845  0.015819633  0.015421473            2 
 2930000   0.79523844   -8.2939513    556.76289  0.015835122  0.015416196            2 
 2931000   0.77983676   -8.2753558    557.35221  0.015846475  0.015410933            2 
 2932000   0.79409642   -8.2755568    556.56307  0.015818641  0.015405676            2 
 2933000   0.77608839    -8.301342    556.85099  0.015821428  0.015400403            3 
 2934000   0.78128231   -8.2851175     557.6251  0.015838023   0.01539512            3 
 2935000   0.78302652   -8.3210605    555.16731  0.015762842  0.015389814            1 
 2936000   0.79513672   -8.2923474     557.0373   0.01581055  0.015384538            2 
 2937000   0.76116219   -8.2958139    556.70905  0.015795853  0.015379258            4 
 2938000   0.77518578   -8.2598774    557.22625  0.015805147  0.015374015            1 
 2939000   0.78104198   -8.2856509     556.8755  0.015789824  0.015368761            1 
 2940000   0.78860737   -8.2756283    557.06307  0.015789769  0.015363499            5 
 2941000   0.79847681   -8.2707291    557.70805  0.015802676  0.015358243            6 
 2942000   0.79235232   -8.2903508    557.66632  0.015796123  0.015352986            2 
 2943000    0.7807741   -8.2975652    556.52971  0.015758572  0.015347711            4 
 2944000   0.78258113   -8.2999797    557.02102  0.015767126  0.015342454            1 
 2945000   0.76576575   -8.2940602    557.42769  0.015773279  0.015337217            2 
 2946000   0.79525976   -8.2892459    557.80113  0.015778489  0.015331981            2 
 2947000   0.77808375   -8.2544984    558.64046  0.015796868  0.015326765            1 
 2948000    0.8030679   -8.2580955    557.34799  0.015754975  0.015321559            3 
 2949000   0.76720459   -8.2712839    557.67927  0.015758994  0.015316348            1 
 2950000   0.77257634   -8.2810792    557.91101  0.015760198  0.015311123            4 
 2951000   0.77637985   -8.2741069    556.82969  0.015724322  0.015305904            3 
 2952000   0.78407162     -8.27818    558.06581   0.01575389  0.015300686            1 
 2953000   0.78534646   -8.2860553    557.33945  0.015728058  0.015295474            1 
 2954000   0.77910313   -8.3092362    556.40482  0.015696367  0.015290257            1 
 2955000   0.76545129   -8.3011889    556.57201   0.01569577   0.01528499            1 
 2956000   0.78288328   -8.2649292    557.72697   0.01572302  0.015279732            1 
 2957000   0.77328993   -8.2938601    558.44718     0.015738  0.015274475            2 
 2958000   0.79367561   -8.2973336    557.21767  0.015698041  0.015269224            3 
 2959000   0.76623798    -8.297132    557.74696  0.015707642  0.015263965            4 
 2960000    0.7795973   -8.2959457    558.75853  0.015730815  0.015258717            4 
 2961000   0.78588603    -8.321601    557.96894   0.01570328  0.015253493            6 
 2962000   0.77096324   -8.2834885    558.11334  0.015702041  0.015248268            2 
 2963000   0.77926643   -8.3060698    557.50039  0.015679502  0.015243037            3 
 2964000   0.76326153   -8.3029076     556.8172  0.015655004  0.015237776            2 
 2965000   0.79315747    -8.313501    557.03621   0.01565588  0.015232539            3 
 2966000   0.76743076   -8.2872674    558.10583  0.015680654  0.015227312            2 
 2967000    0.7485849   -8.2926238    557.91976  0.015670143  0.015222091            3 
 2968000   0.79340512   -8.3047384    557.29756  0.015647393  0.015216865            2 
 2969000   0.78057734   -8.3056455      556.762  0.015627091  0.015211615            1 
 2970000     0.785474   -8.3258653    556.99837  0.015628462  0.015206379            2 
 2971000   0.76249357   -8.2958661    558.08842  0.015653776  0.015201144            1 
 2972000   0.77278274   -8.2954265    557.20511  0.015623741  0.015195933            2 
 2973000   0.76413159   -8.3198608    557.35112  0.015622579  0.015190706            4 
 2974000   0.78373681   -8.3044736    558.16505  0.015640132  0.015185489            4 
 2975000    0.7800627   -8.2853239    559.11617  0.015661517  0.015180291            1 
 2976000   0.79170139   -8.2961075    558.39028  0.015635929  0.015175102            2 
 2977000   0.77024645   -8.3108594    557.93323  0.015617882    0.0151699            2 
 2978000   0.75392478   -8.3091807    559.97885  0.015669881  0.015164698            2 
 2979000    0.7873293   -8.2844279    558.23619  0.015615872  0.015159507            8 
 2980000   0.79220627   -8.3038882    557.87416  0.015600508  0.015154288            3 
 2981000    0.7809209   -8.3253707    557.22912  0.015577242  0.015149078            2 
 2982000   0.76574137   -8.3264399     557.5221  0.015580206   0.01514385            1 
 2983000    0.7776168   -8.3358375    557.79933  0.015582728  0.015138654            1 
 2984000   0.76910755   -8.3146762    557.75286  0.015576208  0.015133443            2 
 2985000   0.78046242   -8.2993814    557.39743  0.015561067  0.015128222            1 
 2986000   0.77555503   -8.3372914    557.82135  0.015567687   0.01512301            4 
 2987000   0.76446703    -8.320222    556.96007  0.015538446  0.015117822            4 
 2988000   0.77389086   -8.3180152    558.52599  0.015576919  0.015112624            2 
 2989000   0.78011731   -8.3204131    557.39646  0.015540216  0.015107425            2 
 2990000   0.79697731   -8.3670761    557.06816  0.015525868  0.015102218            2 
 2991000   0.77846471   -8.3232766    557.38249  0.015529435  0.015097017            1 
 2992000   0.77522991   -8.3319257    557.93102  0.015539523  0.015091827            1 
 2993000   0.77545405   -8.3084108    557.74638   0.01552919  0.015086627            3 
 2994000    0.7643916   -8.3140594    556.89459  0.015500295   0.01508142            2 
 2995000   0.78088957   -8.3281419    557.49594  0.015511851  0.015076224            4 
 2996000    0.7810806   -8.3105701    558.62386  0.015538047  0.015071035           10 
 2997000   0.76838474   -8.3169658     556.5149  0.015474221  0.015065859            2 
 2998000    0.7851718   -8.3243078    558.99128  0.015537894  0.015060652            1 
 2999000   0.75878761   -8.3314647    557.68138  0.015496315   0.01505546            7 
 3000000    0.7670677   -8.3329022    558.27763  0.015507712   0.01505027            3 
 3001000   0.77744988   -8.3545244    558.01888  0.015495359  0.015045076            2 
 3002000    0.7764354    -8.325703    558.59919  0.015506307  0.015039878            3 
 3003000   0.78253193   -8.3204148     557.9424  0.015482917  0.015034672            3 
 3004000   0.75763394   -8.3286211    558.54299  0.015494424  0.015029482            2 
 3005000   0.77029342    -8.332535    558.25751  0.015481351  0.015024298            2 
 3006000   0.76675596   -8.3447148    558.46252  0.015481884   0.01501911            2 
 3007000   0.77307007   -8.3573901    557.12536  0.015439679  0.015013917            3 
 3008000   0.75840441   -8.3264602    559.34388  0.015496007  0.015008735            1 
 3009000   0.77422053   -8.3179229    558.42507  0.015465411  0.015003561            2 
 3010000   0.77001287   -8.3365183    558.73204  0.015468772  0.014998386            3 
 3011000   0.76478076   -8.3538197     558.2923  0.015451464  0.014993227            3 
 3012000   0.76641323   -8.2957574    559.88517  0.015490404  0.014988077           12 
 3013000   0.75554366   -8.2974672    558.71735  0.015452964  0.014982943            2 
 3014000    0.7838793   -8.3297583    557.93092  0.015426093  0.014977789            3 
 3015000   0.76596452   -8.3243011    558.83909  0.015446078  0.014972654            3 
 3016000   0.76932866   -8.3151481    559.11688  0.015448632  0.014967496            3 
 3017000   0.77929299   -8.3363694    558.70595  0.015432161  0.014962348            3 
 3018000   0.73911477   -8.3717819    557.22542  0.015386167  0.014957194            2 
 3019000   0.76862949   -8.3348975     559.6852  0.015448968  0.014952043            5 
 3020000   0.76340551   -8.3171651    559.25331  0.015431935  0.014946889            2 
 3021000   0.78082108   -8.3180389    559.07415  0.015421884  0.014941741            1 
 3022000   0.76272444   -8.3451193    558.18704  0.015392319  0.014936601            2 
 3023000    0.7639122   -8.3203397    558.49286  0.015395657  0.014931441            2 
 3024000   0.76744606   -8.3381428    558.69134  0.015396036  0.014926277            4 
 3025000   0.76380468   -8.3316422     559.0548  0.015400959   0.01492114            6 
 3026000   0.78212326   -8.3368274    558.41722  0.015378311  0.014916009            4 
 3027000   0.76787423   -8.2947708    560.24251  0.015423481  0.014910879            3 
 3028000   0.75848393   -8.3317418    558.97022  0.015383372  0.014905756            2 
 3029000   0.75475921   -8.3298098    559.02066  0.015379681  0.014900631            4 
 3030000   0.77038035   -8.3129785     559.5157   0.01538822  0.014895497            4 
 3031000   0.75988515   -8.3362804     558.4843  0.015354787  0.014890353            1 
 3032000   0.74804809   -8.3360697    559.13379  0.015367573  0.014885201            2 
 3033000   0.76213713   -8.3228763    559.41687  0.015370284   0.01488005            4 
 3034000   0.76342581   -8.3521732    557.90299  0.015323637  0.014874892            2 
 3035000    0.7507704   -8.3263164     559.0263  0.015349432  0.014869736            2 
 3036000   0.75624851   -8.3490795    558.64074  0.015333793  0.014864587            2 
 3037000   0.76280638   -8.3562513    558.58389  0.015327184  0.014859447            4 
 3038000   0.76743556   -8.2936481    559.55426  0.015348756  0.014854316            2 
 3039000   0.78668544   -8.3146275    557.45558  0.015286157  0.014849188            3 
 3040000   0.76127841   -8.3277421    560.17645  0.015355714  0.014844049            4 
 3041000   0.76340297   -8.3465895    558.72549  0.015310904  0.014838902            5 
 3042000   0.75737872   -8.3701425    558.79511  0.015307777  0.014833754            6 
 3043000   0.76015463    -8.338867     558.3577  0.015290769  0.014828602           11 
 3044000   0.76332716    -8.345394    557.75587  0.015269269  0.014823451            4 
 3045000    0.7758557   -8.3598993    558.82066  0.015293395   0.01481831            2 
 3046000   0.77666731   -8.3334447    559.69165  0.015312203  0.014813158            5 
 3047000   0.74807822   -8.3374883    558.87745   0.01528491  0.014808044            8 
 3048000   0.76381418   -8.3303968    558.06181  0.015257595  0.014802918            2 
 3049000   0.75038928   -8.3277114    558.84056  0.015273876  0.014797788            2 
 3050000   0.77445033   -8.3458787    559.64314  0.015290796  0.014792676            4 
 3051000    0.7698724   -8.3306159    559.88517  0.015292395  0.014787575            6 
 3052000   0.76179986   -8.3313923    560.12223  0.015293857  0.014782477            1 
 3053000   0.76183408   -8.3362245    560.32804  0.015294466  0.014777376            4 
 3054000   0.75043746   -8.3021294    560.38225  0.015290937  0.014772285            6 
 3055000   0.77937637   -8.3274411    559.44507  0.015260367  0.014767202            2 
 3056000   0.75722108   -8.3487853    559.15279  0.015247404  0.014762093            1 
 3057000   0.78554628   -8.3592056    559.84945  0.015261407  0.014757003            1 
 3058000   0.77112523   -8.3223499    560.20079  0.015265991  0.014751913            3 
 3059000   0.77558372   -8.3432871    559.64005  0.015245724  0.014746846            3 
 3060000   0.76507463   -8.3480626     559.7893  0.015244807  0.014741775            4 
 3061000   0.76111532   -8.3315903    557.99779  0.015191054  0.014736722            3 
 3062000   0.77293881   -8.3377973    559.97419  0.015239881  0.014731648            1 
 3063000   0.76217883   -8.3333308     558.7916  0.015202732  0.014726549            2 
 3064000   0.75674339   -8.3390675    558.60796  0.015192775  0.014721446            3 
 3065000   0.77606842    -8.327778    559.58413  0.015214359  0.014716352            4 
 3066000   0.76558565   -8.3481134    559.82717  0.015216003   0.01471126            3 
 3067000    0.7662219   -8.3325715    559.71251  0.015207926  0.014706167            3 
 3068000   0.76739945   -8.3367018    560.26067  0.015217858  0.014701051            2 
 3069000   0.75172546   -8.3896391    558.77819  0.015172645  0.014695929            2 
 3070000   0.75193981   -8.3461663    560.00491  0.015201002  0.014690826            1 
 3071000   0.77951539   -8.3638358    559.53825  0.015183389  0.014685739            2 
 3072000   0.76231605     -8.35533    559.39138  0.015174462  0.014680653            1 
 3073000   0.74510498   -8.3487837    559.81205  0.015180932   0.01467558            3 
 3074000    0.7597623   -8.3422525    558.61318  0.015143493  0.014670516            5 
 3075000   0.75202916   -8.3475123    559.94918  0.015174775  0.014665449            5 
 3076000    0.7665095    -8.343311    559.61472   0.01516078  0.014660381            2 
 3077000   0.76220362   -8.3158543    559.70658  0.015158341  0.014655306            3 
 3078000    0.7486051    -8.339723    559.81416  0.015156329  0.014650237            2 
 3079000   0.75913429   -8.3359851     559.9715  0.015155665  0.014645176            4 
 3080000   0.75730144   -8.3566528    559.37812  0.015134689  0.014640121            3 
 3081000   0.77413373   -8.3523304    560.13173   0.01515016  0.014635077            2 
 3082000   0.76369045   -8.3260872    560.17859  0.015146512  0.014630023            2 
 3083000   0.75460102   -8.3370716    560.22347  0.015142812  0.014624996            5 
 3084000   0.75438651   -8.3150851    561.21531  0.015164703  0.014619957            3 
 3085000   0.75251411   -8.3307071    558.68673  0.015091484  0.014614912            6 
 3086000   0.75406597   -8.3337816     558.9226  0.015092963  0.014609876            2 
 3087000   0.76250241   -8.3321298    559.88926  0.015114168  0.014604811            2 
 3088000   0.77217867   -8.3584294    560.02685  0.015112987  0.014599746            3 
 3089000   0.73429566   -8.3549784     559.1491  0.015084415  0.014594672            2 
 3090000   0.77482489   -8.3695626    559.04829  0.015076815  0.014589593            2 
 3091000   0.76257833   -8.3901917    559.40011  0.015081422  0.014584506            2 
 3092000   0.76328683      -8.3844     558.0648  0.015040556  0.014579433            4 
 3093000   0.76513091   -8.3694918    559.77948  0.015081891  0.014574367           10 
 3094000   0.76838463   -8.3637271    559.35685  0.015065634  0.014569302            2 
 3095000   0.77786755   -8.3502141    560.60721  0.015094432  0.014564233            1 
 3096000   0.75500872   -8.3774788    559.39355  0.015056889  0.014559175            3 
 3097000   0.75651039   -8.3503481    560.33875  0.015077461  0.014554109            2 
 3098000   0.77778354   -8.3616332    559.21405   0.01504234  0.014549062            3 
 3099000   0.74935493   -8.3717068     559.4456  0.015043713  0.014543995            2 
 3100000   0.77859855   -8.3746161    558.49966  0.015013432  0.014538922            2 
 3101000   0.77091341   -8.3763462    559.51964     0.015036  0.014533852            2 
 3102000   0.76511888   -8.3605554      559.617  0.015033768  0.014528779            9 
 3103000   0.76131376   -8.3737851    559.47878  0.015025212  0.014523721            4 
 3104000   0.73968581   -8.3913404    560.01008  0.015034635  0.014518649            2 
 3105000   0.78086351   -8.4329034    559.04726  0.015003952  0.014513555            7 
 3106000   0.75289693    -8.416508    557.62354  0.014960923  0.014508438            2 
 3107000   0.74183913   -8.3999536    559.81467  0.015014877  0.014503336            3 
 3108000   0.76651639   -8.3954443    559.28483  0.014995839   0.01449824            3 
 3109000   0.73523853   -8.3885097    558.55869  0.014971553  0.014493151            5 
 3110000   0.74876075   -8.3803168    560.30042  0.015013409  0.014488077            2 
 3111000   0.74914833    -8.374329    559.34824  0.014983077  0.014483005            3 
 3112000   0.75122524   -8.3763706     559.3394  0.014978026  0.014477956            1 
 3113000   0.74908177   -8.3779642    559.42862  0.014975603  0.014472882            4 
 3114000   0.74719355   -8.3552279    558.83035  0.014954783  0.014467845            3 
 3115000    0.7475953   -8.3657222    559.10833  0.014957419  0.014462794            4 
 3116000   0.74248832   -8.3834154    558.78039  0.014943849  0.014457748           11 
 3117000   0.76027307   -8.3824972    558.20298  0.014923617  0.014452692            4 
 3118000   0.74017673   -8.3426655    559.38376  0.014950389  0.014447635            2 
 3119000   0.75605589   -8.3977515    559.87612  0.014958751  0.014442585            3 
 3120000   0.74539898   -8.3656294    560.16088  0.014961562  0.014437554            2 
 3121000   0.76415385   -8.3327688    560.09325  0.014954962  0.014432538            4 
 3122000   0.74314612   -8.4008776    558.91382  0.014918691  0.014427501            3 
 3123000   0.74388436   -8.3853655    558.94121  0.014914644  0.014422455            3 
 3124000   0.75766293   -8.3643577    559.59105  0.014927205  0.014417397            5 
 3125000   0.74334314   -8.3606874    560.43596  0.014944959  0.014412337            7 
 3126000   0.74093294   -8.3482247    558.69347  0.014893727  0.014407303            4 
 3127000   0.76246155   -8.3701251    560.24096  0.014930203  0.014402276            4 
 3128000   0.74778454   -8.3742251    559.84308  0.014914831  0.014397242            4 
 3129000   0.73788721     -8.37371    560.54685  0.014928807  0.014392205            3 
 3130000   0.75748152   -8.3753722    558.80441  0.014877647   0.01438717            2 
 3131000   0.75551421   -8.3643134    558.48726  0.014864454  0.014382122           15 
 3132000   0.74963034   -8.3920087    559.95202  0.014898681    0.0143771            7 
 3133000   0.74750521   -8.3584963    560.58806  0.014910843  0.014372084            6 
 3134000   0.76199771     -8.35987    560.32176  0.014899005  0.014367062            2 
 3135000   0.74466389   -8.3957735    559.68045  0.014877205  0.014362029            3 
 3136000    0.7493492   -8.3868213    558.69068   0.01484616  0.014356989            4 
 3137000   0.73149859   -8.3754807    559.34951  0.014858929  0.014351944            7 
 3138000   0.74310454   -8.4266679    558.83328  0.014840484   0.01434687            5 
 3139000   0.74756898   -8.3752118    559.12311  0.014843451  0.014341805            4 
 3140000   0.75525735    -8.412782    559.78999  0.014856422  0.014336747            4 
 3141000    0.7533776   -8.3934494    559.04238  0.014831858  0.014331692            7 
 3142000   0.74812526   -8.3867588    559.00321  0.014826098  0.014326636            3 
 3143000   0.75806555    -8.399593    559.77975   0.01484197  0.014321593            4 
 3144000   0.75056118   -8.3887403    558.42988  0.014801471  0.014316558            2 
 3145000   0.75428716   -8.4094252    559.51246  0.014825449  0.014311515            2 
 3146000   0.72937172   -8.3847405    559.39622  0.014817658  0.014306474            6 
 3147000   0.73594628   -8.4163772    559.07913  0.014804553  0.014301426            7 
 3148000   0.74671071   -8.4081224    560.96518  0.014849777  0.014296376            5 
 3149000   0.76040893   -8.4076866    560.02489  0.014820178  0.014291334            6 
 3150000   0.74426087   -8.4180218    559.56848  0.014803399  0.014286316            3 
 3151000   0.75999112   -8.4022416    560.17086  0.014814632  0.014281281            1 
 3152000   0.75214138   -8.4111424    558.04485  0.014753724  0.014276248            3 
 3153000   0.74787559   -8.4042012    559.38181   0.01478438  0.014271206            3 
 3154000   0.76733933   -8.4204264    558.81446  0.014764703  0.014266163            4 
 3155000   0.75524205   -8.4360224    558.25619  0.014745277  0.014261108            4 
 3156000   0.74281061   -8.4379277    559.14651  0.014764114  0.014256043            2 
 3157000   0.75105182   -8.4119807    558.79015   0.01475003  0.014250998            3 
 3158000   0.74722731   -8.4146502    559.05434  0.014752331  0.014245973            3 
 3159000   0.73843696   -8.4332762    558.59825   0.01473563  0.014240933            2 
 3160000   0.74954976   -8.4138644    559.74829  0.014761295  0.014235918            2 
 3161000   0.75277109    -8.397534    558.60758  0.014726552  0.014230903            2 
 3162000   0.74212959   -8.4018133    559.46298  0.014744439  0.014225896            3 
 3163000   0.75047674   -8.4057754    559.44534  0.014739312  0.014220893            2 
 3164000    0.7504448   -8.4037044    559.01966  0.014723442  0.014215897            1 
 3165000   0.76194137   -8.4271856    559.97166  0.014743856  0.014210895            3 
 3166000   0.73922484   -8.3939553    559.10765  0.014716457  0.014205906            2 
 3167000   0.75099682   -8.4054245    560.16764  0.014739702  0.014200922            9 
 3168000   0.76232437    -8.402339    559.95696  0.014729508  0.014195925            3 
 3169000   0.74877508   -8.4147758    558.42298  0.014684521  0.014190935            4 
 3170000    0.7320528   -8.4178159    560.31609  0.014729655  0.014185941            5 
 3171000    0.7473977   -8.4107365    559.56076   0.01470516  0.014180951            9 
 3172000   0.74887425   -8.4099234    560.00088  0.014712087  0.014175962           16 
 3173000   0.75310379   -8.4271357    558.62355  0.014671277  0.014170978           19 
 3174000   0.75261191   -8.4173411    559.54426  0.014690828  0.014166007           10 
 3175000   0.73785528   -8.4238466    560.11814  0.014701264  0.014161031           13 
 3176000   0.74238219   -8.4215819    558.93056  0.014665474   0.01415605           15 
 3177000   0.74078329   -8.3990465    559.99513  0.014688782  0.014151067           21 
 3178000    0.7627933   -8.3991669    560.03199  0.014685127  0.014146095           21 
 3179000   0.75263424   -8.4206172    559.05044  0.014654777  0.014141135            4 
 3180000   0.75090879   -8.4024555    560.52417  0.014688789  0.014136173            5 
 3181000   0.73380207   -8.4147247    559.58996  0.014659697  0.014131211            8 
 3182000   0.74632513   -8.4132547    560.29704  0.014673608  0.014126237            4 
 3183000   0.74953576   -8.3876437    561.30403  0.014695362  0.014121285            4 
 3184000   0.74828174   -8.3904997    560.84264  0.014678671  0.014116324           14 
 3185000   0.75159028   -8.3972948    560.51793  0.014665566  0.014111382            2 
 3186000   0.73510249    -8.391384    559.59276  0.014636764  0.014106416            5 
 3187000   0.72097362   -8.4047491    561.01548  0.014669373  0.014101461            2 
 3188000   0.74085846   -8.3824175    560.32044  0.014646603  0.014096516            1 
 3189000   0.73637757   -8.4034122    559.82402  0.014629038  0.014091565            2 
 3190000   0.72809286   -8.4204679    560.39334  0.014639324  0.014086609            2 
 3191000   0.74388902   -8.4131858    559.94047   0.01462291  0.014081654            1 
 3192000   0.74336303   -8.4165232    560.68711  0.014637821  0.014076688            3 
 3193000   0.75388079   -8.4105666    560.19802  0.014620472  0.014071736            2 
 3194000   0.73723967   -8.3788506    561.18235  0.014641577  0.014066782            8 
 3195000   0.73456142   -8.4179108    559.94463  0.014604711  0.014061846            2 
 3196000   0.72989908    -8.388811    560.44315   0.01461314  0.014056906            4 
 3197000   0.74493147   -8.3993022    560.38539  0.014607064  0.014051951            3 
 3198000   0.73703056   -8.4304588    559.57135  0.014581284  0.014047005            3 
 3199000   0.73734694   -8.4185619     560.3009   0.01459573  0.014042069            2 
 3200000   0.74322827   -8.4213157    560.92813  0.014607503  0.014037132            2 
 3201000   0.74057937   -8.3943403    561.15494  0.014608845    0.0140322            1 
 3202000   0.73809045   -8.3972675    560.52183  0.014587805  0.014027275            3 
 3203000   0.73541614   -8.4086596    560.72544  0.014588548  0.014022363            5 
 3204000   0.73607442   -8.3776424    560.63036  0.014581522  0.014017452            3 
 3205000   0.72911649   -8.4113374    560.84619  0.014582584   0.01401252           16 
 3206000   0.73599327   -8.3844132    559.87978  0.014552916  0.014007583           10 
 3207000   0.73756037   -8.4311056    559.98939  0.014551226   0.01400264           22 
 3208000   0.73830393   -8.4028397    561.22358   0.01457875  0.013997692            2 
 3209000   0.75026497   -8.4456983    560.04131  0.014543505  0.013992757            4 
 3210000   0.73050888   -8.4225879    559.89236  0.014535108  0.013987812            2 
 3211000   0.74373362    -8.441587    559.37716  0.014517211  0.013982867            4 
 3212000   0.75155997   -8.4074604    559.37747  0.014512699  0.013977923            2 
 3213000   0.75219285     -8.39455    559.99551  0.014524212  0.013972984            2 
 3214000   0.74762558   -8.4247357    559.33663  0.014502609  0.013968044            2 
 3215000   0.72455855   -8.4106554    559.82919  0.014510865  0.013963108            6 
 3216000   0.73416834   -8.4307641    559.50702  0.014498005  0.013958184            2 
 3217000   0.71980611   -8.4222544    560.73984  0.014525434  0.013953268            1 
 3218000    0.7387713   -8.3969862    561.45479  0.014539434  0.013948352            2 
 3219000   0.75396131   -8.3936068    560.60163  0.014512831  0.013943448            2 
 3220000   0.72558832    -8.384032     560.0716  0.014494607   0.01393855            2 
 3221000   0.74323841   -8.3814051    561.07857  0.014516159   0.01393365            2 
 3222000   0.72830251    -8.381185    560.96918  0.014508824  0.013928762            4 
 3223000    0.7337063   -8.4046176    561.29785  0.014512821  0.013923887            4 
 3224000   0.74130851    -8.410456    559.95385   0.01447358   0.01391899            2 
 3225000   0.73866312   -8.4007558    561.03308  0.014496979  0.013914116            2 
 3226000   0.73391671   -8.3875927    561.88294  0.014514438  0.013909239            4 
 3227000   0.74112475   -8.4049818    561.30375  0.014494984  0.013904367            2 
 3228000   0.72842971   -8.3812998    560.86134  0.014479072  0.013899507            3 
 3229000   0.74655155   -8.4178054    561.01523   0.01447856  0.013894648            5 
 3230000    0.7537713   -8.4132623    560.26047  0.014454605   0.01388978            5 
 3231000   0.73231186   -8.4028415    561.70655  0.014487428  0.013884903            3 
 3232000   0.74243002   -8.4206392    560.26407  0.014445753  0.013880023            1 
 3233000   0.74052789   -8.4186476    560.36893  0.014443987  0.013875136            2 
 3234000   0.72382838   -8.4370049    561.66334  0.014472875  0.013870243            2 
 3235000   0.73149537   -8.4260758    561.64053  0.014467814  0.013865355            2 
 3236000   0.74185869   -8.3996314    560.80103  0.014441724  0.013860475           11 
 3237000   0.74434757    -8.433713    561.36517  0.014451786    0.0138556            3 
 3238000   0.72830359   -8.4309925     560.5034  0.014425144  0.013850721            3 
 3239000   0.74365682    -8.418621    560.03627  0.014408672  0.013845835            2 
 3240000   0.73954308   -8.4215225    560.31582  0.014411415  0.013840954            3 
 3241000   0.73774526   -8.4399885    561.01537  0.014424956  0.013836068            1 
 3242000   0.71838236   -8.4442256    559.53733  0.014382514  0.013831183            3 
 3243000   0.72606607   -8.4253976    561.04139  0.014416728  0.013826297            1 
 3244000    0.7452803   -8.4062248    560.78522  0.014405703  0.013821427            2 
 3245000   0.72860293   -8.4228654    561.48524  0.014419241  0.013816563            2 
 3246000   0.73942832   -8.4313897    560.90375   0.01439987  0.013811702            2 
 3247000   0.74854981   -8.3964677    561.87954  0.014420479  0.013806847            4 
 3248000   0.74074098   -8.4174689    560.62128  0.014383756  0.013802006            4 
 3249000   0.74530785   -8.4033868    561.04318   0.01439015  0.013797156            3 
 3250000   0.72408146   -8.4338299    560.22129  0.014364649  0.013792314            3 
 3251000   0.72489887   -8.4080651    561.03067  0.014380977  0.013787471            2 
 3252000   0.74314932   -8.4407917    560.73363  0.014368943  0.013782628            1 
 3253000   0.74418182   -8.4073655    561.26328  0.014378094  0.013777784            2 
 3254000   0.73004679    -8.420234    559.37114  0.014325219  0.013772959            3 
 3255000    0.7317437   -8.4151591    561.82601  0.014383666  0.013768129            2 
 3256000   0.74648209   -8.4301608    560.52338  0.014345909  0.013763293            2 
 3257000   0.73330211   -8.4413292    560.51118  0.014341193  0.013758456            5 
 3258000   0.73364656   -8.4074573    562.20862  0.014380208  0.013753616            2 
 3259000   0.72821496   -8.4052481    561.01977  0.014345396  0.013748778            2 
 3260000   0.72350044   -8.4231493    560.54284  0.014328805  0.013743935            3 
 3261000   0.70996678   -8.4344518    562.18587  0.014366398   0.01373909            2 
 3262000   0.73430792   -8.4180968    561.41129  0.014342205   0.01373427            1 
 3263000   0.72988022   -8.4185044    561.85136  0.014349049   0.01372945            3 
 3264000   0.74190719   -8.4295916    560.58159  0.014312234  0.013724625            1 
 3265000   0.72962821   -8.4073413    561.73123  0.014337193  0.013719809            2 
 3266000   0.73490907   -8.4307149    560.86803  0.014310779  0.013714991            2 
 3267000   0.72032253   -8.4233711    561.64456  0.014326205  0.013710173            2 
 3268000   0.72436649   -8.4122966     561.4974  0.014318069  0.013705358            3 
 3269000   0.73016161   -8.4523165    561.19538   0.01430599  0.013700529            9 
 3270000   0.71713512   -8.4559888    560.90916  0.014294321  0.013695696            4 
 3271000   0.72352453   -8.4441487    561.83918  0.014313645   0.01369086            4 
 3272000   0.73391626   -8.4341129    561.19778  0.014292935  0.013686035            2 
 3273000   0.72575105   -8.4604946    561.23362   0.01428948  0.013681207            3 
 3274000   0.73019737    -8.451136    560.77652  0.014273481  0.013676379            2 
 3275000   0.73324172   -8.4512314     561.0112  0.014275094  0.013671534            3 
 3276000   0.72194629    -8.465744    560.82891    0.0142661  0.013666703           10 
 3277000   0.72928508   -8.4292982    561.38164  0.014275802  0.013661884            5 
 3278000   0.72097321    -8.454896    560.36801  0.014245679  0.013657071            6 
 3279000     0.723631    -8.455896    559.57618   0.01422121  0.013652242            3 
 3280000   0.73740888   -8.4324589    561.09132  0.014255369   0.01364741            7 
 3281000   0.74938496   -8.4559953     560.2263  0.014229054   0.01364258            7 
 3282000   0.72413553   -8.4696992     560.4415  0.014230182  0.013637754            5 
 3283000   0.72640304   -8.4358982     560.8752  0.014236857  0.013632932            3 
 3284000   0.72968501   -8.4667234    560.63994  0.014226551  0.013628117            2 
 3285000   0.71678386    -8.465633    560.45493  0.014217527  0.013623302            4 
 3286000   0.72039141   -8.4683758    561.04753  0.014228229  0.013618488            4 
 3287000   0.71239629   -8.4508925    560.91093  0.014220437  0.013613675            3 
 3288000   0.72404054   -8.4551474    560.40885  0.014203387  0.013608856            1 
 3289000   0.72697928   -8.4672186     559.6651  0.014180224  0.013604038            3 
 3290000   0.70267693   -8.4825151    559.73227  0.014177616  0.013599222            2 
 3291000   0.71846931   -8.4513539    560.16866  0.014184358  0.013594404            5 
 3292000   0.70665914   -8.4745142    561.06274  0.014202682  0.013589585            2 
 3293000   0.73127438   -8.4416642    561.07347   0.01419864  0.013584767            2 
 3294000   0.72555651   -8.4565732    562.00617  0.014217926  0.013579955            4 
 3295000    0.7389723   -8.4763419    561.40641  0.014198442  0.013575147            3 
 3296000   0.71904281   -8.4770463    560.17481  0.014162996  0.013570332            2 
 3297000   0.72485349   -8.4588046    562.84358  0.014226155  0.013565533            3 
 3298000   0.72645657    -8.474228    559.47767  0.014136792  0.013560716            4 
 3299000   0.73709856   -8.4842091    560.05505  0.014147091   0.01355591            3 
 3300000    0.7089927   -8.4810045    560.13254  0.014144761  0.013551094            2 
 3301000   0.72648949   -8.4665948    561.50672  0.014175167  0.013546278            4 
 3302000   0.72712283   -8.4764829    560.21765  0.014138342  0.013541466            2 
 3303000   0.71745738   -8.4773771    560.59392  0.014143554   0.01353664            2 
 3304000   0.71818067   -8.4600153     559.8476   0.01412045  0.013531825            2 
 3305000   0.72205962   -8.4827354    559.60206  0.014109986   0.01352701            6 
 3306000   0.73058311    -8.462039    560.18311  0.014120365  0.013522196            3 
 3307000   0.72427201   -8.4682274    561.15395  0.014140559  0.013517373            2 
 3308000     0.720644   -8.4871405    559.40249  0.014092163  0.013512559            1 
 3309000   0.73253105   -8.4734522    561.14083  0.014131682  0.013507735            5 
 3310000   0.71484949   -8.4731402    559.78035  0.014093161  0.013502932            3 
 3311000   0.72167401   -8.4850967    559.65924  0.014085856  0.013498123            2 
 3312000     0.723805   -8.4638859    559.97834  0.014089632   0.01349332            5 
 3313000   0.71505521   -8.4692455    559.34054  0.014069337  0.013488526            3 
 3314000   0.71950542   -8.4840917    561.08749   0.01410902  0.013483723            5 
 3315000   0.72869888   -8.4796073    560.25757  0.014083901    0.0134789            2 
 3316000   0.73323336   -8.4711803    560.53045  0.014086511  0.013474077            2 
 3317000   0.71472079   -8.5026722    559.85201   0.01406522  0.013469269            2 
 3318000     0.720665   -8.4973739    559.73359  0.014058007  0.013464445            2 
 3319000   0.70535546    -8.486986    559.29822   0.01404284  0.013459626            3 
 3320000   0.71838992   -8.4924786    559.64325   0.01404727  0.013454801            3 
 3321000   0.71210288   -8.4951059    558.79876   0.01402185  0.013449983            3 
 3322000   0.72359953   -8.4947232    560.30356  0.014055377  0.013445175            2 
 3323000   0.71845419   -8.4784796    560.21774  0.014048995  0.013440375            1 
 3324000   0.72234916   -8.4941278    559.92275  0.014037373  0.013435572            3 
 3325000   0.71997767   -8.4766744    560.21477  0.014040471  0.013430771            2 
 3326000   0.71626487   -8.4956326    560.91732  0.014053851  0.013425972            3 
 3327000    0.7318571   -8.4734394    559.60545  0.014016768  0.013421183            2 
 3328000   0.71532192   -8.5011195    560.13693  0.014025865  0.013416392            3 
 3329000   0.71538582   -8.4868077    560.34728  0.014026917    0.0134116            2 
 3330000   0.74422902   -8.4951454    560.16464  0.014018134  0.013406803            3 
 3331000   0.71235842   -8.4707127    560.05647   0.01401122  0.013402013            2 
 3332000   0.71818187   -8.4939363    558.43643  0.013966497   0.01339723            2 
 3333000   0.71512161   -8.5062121    559.57195  0.013990698  0.013392451            2 
 3334000   0.72743516    -8.502575    560.77998  0.014016696  0.013387673            3 
 3335000   0.71857018    -8.506491    559.12032  0.013971023  0.013382891            3 
 3336000   0.72661931    -8.502295    559.81173  0.013984106  0.013378109           10 
 3337000   0.71749393   -8.4903648    560.62776  0.014000294   0.01337334            3 
 3338000   0.71607069    -8.457038    561.26674  0.014012052  0.013368579            2 
 3339000   0.71602552   -8.4846586    560.85986    0.0139977  0.013363806            2 
 3340000   0.70820594   -8.4952929    559.40806  0.013957287  0.013359036            2 
 3341000   0.72034103   -8.5036288    559.28915  0.013950143  0.013354262            3 
 3342000   0.70399595   -8.4651656    559.96466  0.013962813  0.013349493            1 
 3343000   0.71060584   -8.4869809    559.27975  0.013941563  0.013344733            4 
 3344000   0.71579568   -8.4885356    559.59732  0.013945308  0.013339961            1 
 3345000   0.70890524   -8.4661084    561.10589  0.013978722  0.013335191            1 
 3346000   0.70495388   -8.4984043     560.1582  0.013950941   0.01333041            2 
 3347000   0.71103336   -8.4959055    560.01719  0.013943262  0.013325642            3 
 3348000   0.72291161   -8.4831976    560.68659  0.013955759  0.013320869            2 
 3349000   0.71018141   -8.5002017    560.87363  0.013956246  0.013316095            2 
 3350000   0.71932018   -8.4999991    559.83689  0.013926291  0.013311329            2 
 3351000   0.71832858    -8.496792    559.35353  0.013910115  0.013306566            7 
 3352000   0.73033289   -8.4874647    561.16207  0.013950927  0.013301804            2 
 3353000   0.71551441   -8.4723459    559.73771  0.013911366  0.013297053            3 
 3354000   0.72632284   -8.4767338     560.7343  0.013931979  0.013292294            3 
 3355000   0.70198464   -8.5151753    559.70468  0.013902252  0.013287522            3 
 3356000   0.72405617   -8.5141743    560.25757  0.013911839  0.013282755            1 
 3357000   0.71388156   -8.4854268    559.69032  0.013893613  0.013277969            8 
 3358000   0.72281925   -8.5150307    559.47863  0.013884223  0.013273194            4 
 3359000   0.71812115   -8.4728898    559.39184  0.013877936  0.013268431            3 
 3360000    0.7165884   -8.4693159    559.93063  0.013887168  0.013263663            2 
 3361000   0.72024497   -8.4806452    559.81793  0.013880242  0.013258914            3 
 3362000   0.70902621   -8.5038323    560.14646  0.013884257   0.01325417            3 
 3363000   0.72397491   -8.4805614    559.58359  0.013866181  0.013249419            2 
 3364000   0.71431055   -8.4472775    560.40257  0.013882347  0.013244673            1 
 3365000   0.71596193   -8.4950675    560.46752   0.01387983  0.013239932            4 
 3366000   0.72296764    -8.498054    560.41018  0.013874287  0.013235204            2 
 3367000   0.71767647   -8.4852679    559.19453  0.013840078  0.013230454            2 
 3368000   0.70460363   -8.5014705    560.03262  0.013856706  0.013225707            2 
 3369000   0.71266419   -8.5146607    559.65261  0.013843193  0.013220964            1 
 3370000   0.70791686   -8.5138899    559.80908  0.013842955  0.013216214            2 
 3371000   0.71023885   -8.5136444    559.61861  0.013834139  0.013211473            2 
 3372000   0.70103768   -8.5009092    560.10786  0.013842128  0.013206728            2 
 3373000   0.70041612   -8.5121649    559.12252   0.01381368  0.013201973            1 
 3374000   0.72021936    -8.485162    559.56004  0.013820392  0.013197244            2 
 3375000    0.7050931   -8.4683461    559.90206  0.013824742  0.013192519            1 
 3376000    0.7031963   -8.5140369    559.91703  0.013821017  0.013187795            3 
 3377000   0.69897316    -8.516594    559.36192  0.013803226  0.013183067            4 
 3378000   0.69230325   -8.5286753    559.55207   0.01380383  0.013178332            4 
 3379000   0.71180551   -8.5153407    559.28644  0.013793194  0.013173594            2 
 3380000   0.72173091    -8.493349    559.82075  0.013802287  0.013168865            6 
 3381000   0.72341556   -8.4991398    559.71294  0.013795547  0.013164131            3 
 3382000   0.71197362   -8.5007292    559.13923  0.013777332  0.013159384            5 
 3383000   0.71955302   -8.5093302    559.87078  0.013791279  0.013154643            3 
 3384000   0.71280174   -8.4906078    559.73174   0.01378378  0.013149915            2 
 3385000   0.68966227   -8.4942796    558.99903   0.01376167  0.013145176            5 
 3386000   0.70662346    -8.507175    559.46528   0.01376908  0.013140446            2 
 3387000   0.72678181   -8.5185283     559.7402  0.013771779   0.01313571            2 
 3388000   0.69542301   -8.5092298    560.16298  0.013778114  0.013130972            1 
 3389000   0.71471233   -8.4957932    559.86971  0.013766837  0.013126248            3 
 3390000   0.70104734   -8.5410087    560.31787  0.013773792  0.013121518            2 
 3391000    0.7201612   -8.5199648    559.50987  0.013749874  0.013116785            2 
 3392000   0.72465217   -8.5229614    559.48149  0.013745123   0.01311205            4 
 3393000   0.70973424   -8.4919681    560.66299   0.01377009   0.01310732            2 
 3394000   0.70423984   -8.5290689    558.33132  0.013708783  0.013102591            2 
 3395000   0.70022001     -8.53302    558.65376   0.01371266  0.013097851            3 
 3396000   0.69447802   -8.5173569    559.16734  0.013721225  0.013093111            5 
 3397000   0.68900924   -8.5160913    559.37792  0.013722351   0.01308837            3 
 3398000   0.69913691   -8.5056266    558.70138  0.013701721   0.01308364            3 
 3399000   0.72849217   -8.5396981    559.14994  0.013708687  0.013078902            3 
 3400000   0.72219322    -8.539944    558.99165  0.013700776  0.013074175            1 
 3401000   0.71186114   -8.5205118    558.96519  0.013696099  0.013069436            2 
 3402000   0.71204634   -8.5444132      559.096  0.013695277  0.013064705            5 
 3403000   0.71510038   -8.5410697    559.14207  0.013692381   0.01305998            7 
 3404000   0.72060502   -8.5087471    558.59378  0.013674936  0.013055258            5 
 3405000   0.69444938   -8.5155095    559.07379  0.013682667  0.013050524            3 
 3406000   0.71334283   -8.5556631    558.98535  0.013676486  0.013045791            2 
 3407000   0.71484448   -8.5352252    557.99763  0.013648313  0.013041058            4 
 3408000   0.70140691   -8.5241936    558.99083  0.013668594  0.013036333            7 
 3409000   0.70799249   -8.5332751    560.11289  0.013692013  0.013031608            2 
 3410000   0.70929142   -8.5182018     560.1901  0.013689885  0.013026888            5 
 3411000   0.70506055   -8.5281312    558.82952  0.013652632  0.013022171            2 
 3412000   0.68929719   -8.5005893    559.57262   0.01366678  0.013017453            3 
 3413000   0.69958987   -8.5299322     560.1172  0.013676072  0.013012747            3 
 3414000   0.70923264   -8.5103795    560.13827   0.01367258  0.013008044            2 
 3415000   0.68535159   -8.5170783    558.72405  0.013634067  0.013003331            2 
 3416000   0.70713029   -8.5306269    559.79279  0.013656147  0.012998619            4 
 3417000    0.7021784   -8.5207596    559.44643  0.013643704  0.012993902            3 
 3418000   0.69848138   -8.5468219    559.51643  0.013641419  0.012989203            1 
 3419000   0.70351498   -8.5256656     559.3972  0.013634523  0.012984503            3 
 3420000   0.69999067   -8.5291139     558.9367  0.013619315  0.012979807            2 
 3421000   0.72409681   -8.5161522    559.30242  0.013624243  0.012975105            2 
 3422000   0.72113142   -8.5296308    559.56553  0.013626669  0.012970411            4 
 3423000   0.70974048    -8.518114     559.8158  0.013628781   0.01296572            5 
 3424000   0.69669108   -8.5319624    560.11364  0.013632049  0.012961024            3 
 3425000   0.70599481   -8.5213545    558.63158  0.013592009  0.012956342            3 
 3426000    0.6980436   -8.5208175    559.81178  0.013616749  0.012951655            6 
 3427000   0.69762126   -8.5187265    559.41416  0.013603107  0.012946985            1 
 3428000   0.70374263   -8.5200211    558.90981  0.013586878  0.012942309            2 
 3429000    0.7005268   -8.5294269     559.2572  0.013591358  0.012937644            2 
 3430000   0.70138873   -8.5230181    558.31761  0.013564568  0.012932968            4 
 3431000   0.68747668   -8.5236918    558.62676  0.013568123  0.012928298            2 
 3432000   0.69506526   -8.5263733    559.29745  0.013580455  0.012923618            3 
 3433000   0.71867115   -8.5144749    559.78799  0.013588406  0.012918957            3 
 3434000   0.70107572   -8.5045802    560.79415  0.013608866  0.012914295            3 
 3435000   0.69605953   -8.5042591    559.70476  0.013578476  0.012909641            4 
 3436000   0.70419843   -8.5223017    560.29412  0.013588817  0.012904988            8 
 3437000   0.71485034    -8.510964    559.74758  0.013571612  0.012900338            3 
 3438000   0.70688273   -8.5217168    559.13871  0.013552907  0.012895683           10 
 3439000    0.7169262   -8.5043034     560.2194  0.013575153  0.012891046            4 
 3440000   0.69443365   -8.5326684    559.40371  0.013551446  0.012886403            7 
 3441000   0.69730088   -8.5141492    559.57254  0.013551597  0.012881768            5 
 3442000   0.69823638   -8.5060114    560.45733  0.013569081  0.012877123            1 
 3443000   0.70426031   -8.5023511    559.92873  0.013552346  0.012872485            5 
 3444000   0.69834262   -8.4975108     560.5761  0.013564075  0.012867857            2 
 3445000   0.70470323   -8.5095548    561.08683  0.013572492  0.012863236            4 
 3446000   0.69558808   -8.4911777    561.80707  0.013585971  0.012858622            5 
 3447000    0.6962478   -8.4990427    560.32123  0.013546108  0.012854006            2 
 3448000   0.69272003   -8.5065678    559.49906  0.013522309  0.012849384            3 
 3449000   0.69804319   -8.5171535    560.27094  0.013537038  0.012844772            2 
 3450000    0.6858184   -8.4863348     560.3944  0.013536097  0.012840165            3 
 3451000   0.69026926   -8.4837099     560.9564  0.013545745  0.012835578            5 
 3452000    0.6855832   -8.4776996    560.91286   0.01354077  0.012830998            2 
 3453000   0.70832716   -8.5201736    559.64498   0.01350625  0.012826404            2 
 3454000   0.71496343   -8.5039051    561.35563  0.013543612  0.012821822            3 
 3455000    0.7118822   -8.5108486    561.44269  0.013541792   0.01281724            7 
 3456000   0.69974056   -8.5248772    561.48308  0.013538847   0.01281265            4 
 3457000    0.6948717   -8.5340529     559.4749  0.013486522   0.01280805            2 
 3458000   0.68193073   -8.5112042    560.01923   0.01349574  0.012803451            1 
 3459000   0.69085635   -8.4903042    560.48457  0.013503049  0.012798854            1 
 3460000   0.69475688   -8.4999988    561.15619  0.013515323  0.012794261            6 
 3461000   0.70199861    -8.494483    560.02956  0.013484291  0.012789673            4 
 3462000   0.69973647   -8.5184191    560.88805   0.01350106  0.012785086            3 
 3463000   0.70677555   -8.5209643    561.05328  0.013501138  0.012780496            3 
 3464000   0.70162044   -8.5325597    560.23968  0.013477667  0.012775903            2 
 3465000    0.6974621   -8.5084171    560.64094  0.013483428  0.012771312            5 
 3466000   0.72347437   -8.5052355    561.17268  0.013492323  0.012766722            2 
 3467000    0.7049329   -8.5325659    561.72573  0.013501724   0.01276214            2 
 3468000   0.70390399   -8.5127809    560.22578  0.013461788  0.012757553            2 
 3469000   0.71015418   -8.5107487    559.58911  0.013442613  0.012752972            1 
 3470000   0.71119967   -8.5220215    560.30373  0.013455901  0.012748404            4 
 3471000   0.70668314   -8.5166348    560.21096  0.013449797  0.012743839            2 
 3472000   0.69168436    -8.500122     561.4612  0.013475931  0.012739266            5 
 3473000   0.69350284   -8.4858563    561.17719  0.013465236  0.012734701            2 
 3474000   0.70235319   -8.5261916    560.28892  0.013440053   0.01273015            5 
 3475000   0.69034085   -8.5270727    560.06979   0.01343093  0.012725589            5 
 3476000   0.69311995   -8.5190411    560.91088  0.013447231  0.012721015            2 
 3477000   0.69078601   -8.4889338    560.94093  0.013444083  0.012716452            9 
 3478000    0.7002983    -8.564584    560.41288  0.013427566  0.012711879            3 
 3479000   0.69692831   -8.5288611    559.87589  0.013410843  0.012707311            4 
 3480000   0.68339726   -8.5157678    560.85454  0.013430425   0.01270275            3 
 3481000   0.69687111   -8.5269603    560.95702   0.01342902  0.012698184            3 
 3482000   0.68524029   -8.5390171    560.75007   0.01342021  0.012693625            4 
 3483000   0.69492679   -8.5281202    561.41219  0.013432199  0.012689056            1 
 3484000   0.69585742   -8.5248243    559.80145  0.013389817  0.012684491            4 
 3485000   0.69332839   -8.5472341     560.0337  0.013391528  0.012679915            4 
 3486000   0.69561945   -8.5242022     560.6738  0.013402988  0.012675353            3 
 3487000   0.70815409   -8.5370923    559.88603  0.013380318  0.012670784           11 
 3488000   0.68481858   -8.5601335    559.53828  0.013368174  0.012666209           10 
 3489000   0.67694467   -8.5282905    560.80069  0.013394494  0.012661633            4 
 3490000   0.68075926   -8.5547439    559.40937  0.013357435  0.012657063            4 
 3491000   0.68255061   -8.5346164    560.26755  0.013374094  0.012652495            5 
 3492000   0.69257899   -8.5518056    559.09915  0.013342381  0.012647931            4 
 3493000   0.69827365   -8.5599935    559.27651  0.013342793  0.012643353            2 
 3494000   0.69428771   -8.5461956     559.0434  0.013333414  0.012638774            9 
 3495000   0.67919819   -8.5648891    559.01846  0.013329005  0.012634194            5 
 3496000   0.69709511   -8.5634616    558.57944  0.013314727  0.012629624            6 
 3497000   0.69911842   -8.5546986    559.30753   0.01332827  0.012625045            6 
 3498000   0.69348023   -8.5588539    560.47145  0.013352188  0.012620467            4 
 3499000   0.69671071   -8.5694341     559.2971  0.013320403  0.012615893            3 
 3500000   0.70649756   -8.5562775    559.84766  0.013329706   0.01261132            2 
 3501000   0.69608433   -8.5465988    560.01313  0.013329837  0.012606757            9 
 3502000   0.70081993   -8.5772461    558.76848  0.013296413  0.012602198            5 
 3503000   0.70856547   -8.5476059    559.08602  0.013300172  0.012597632            1 
 3504000   0.68255451     -8.53295    558.84797  0.013290715  0.012593077            3 
 3505000   0.68923923   -8.5257091    559.70254  0.013307241  0.012588517            5 
 3506000   0.69802465   -8.5368732    560.23388  0.013316074  0.012583969            3 
 3507000   0.69688606   -8.5528489    558.87528  0.013279994  0.012579417            4 
 3508000   0.68717782   -8.5350313     558.5553  0.013268607  0.012574874            5 
 3509000   0.69245147   -8.5453279    559.50333   0.01328734  0.012570324            2 
 3510000   0.68681626   -8.5411694    559.25235  0.013277596  0.012565774            1 
 3511000   0.68889134   -8.5336561    558.71446  0.013261048  0.012561229            2 
 3512000   0.67534001   -8.5548236    557.05551  0.013217908  0.012556667            1 
 3513000   0.69140032   -8.5512687    560.09544  0.013286257  0.012552115            5 
 3514000   0.68734228   -8.5580783     560.2492  0.013286122  0.012547563            6 
 3515000   0.69058998   -8.5538065    559.69665  0.013269242  0.012543001            2 
 3516000   0.68017757   -8.5805943    558.97285  0.013248314  0.012538441            1 
 3517000   0.70345371    -8.570294    558.92998  0.013243531  0.012533889            3 
 3518000   0.69081039   -8.5730489    559.11698  0.013244196  0.012529331            2 
 3519000   0.69871471   -8.5646264    558.74265  0.013231568  0.012524773            1 
 3520000   0.69687608   -8.5609072    559.02069  0.013234391  0.012520207            2 
 3521000   0.69801638   -8.6081511    558.96464  0.013229306  0.012515649            4 
 3522000   0.68863629   -8.5584248    559.32187  0.013234002  0.012511085            2 
 3523000   0.70161563   -8.5570517    558.09402  0.013201202  0.012506538            2 
 3524000   0.69973921   -8.5715994    558.86472  0.013215681   0.01250198            3 
 3525000   0.69460044    -8.583492    559.67409  0.013231066  0.012497429            4 
 3526000   0.68081016   -8.5687785    558.57251  0.013201279   0.01249288            2 
 3527000   0.69067928   -8.5756929    558.72879  0.013201228  0.012488331            2 
 3528000   0.68877867   -8.6017493    559.07954  0.013205771  0.012483784            3 
 3529000   0.69638188   -8.5837859    557.72848  0.013170126  0.012479235            1 
 3530000   0.67578397   -8.5841668    557.69091  0.013165508  0.012474686            2 
 3531000   0.67878438   -8.5965785     558.0813  0.013170993  0.012470145            5 
 3532000    0.6918866   -8.5758198    558.47667  0.013176592  0.012465601            3 
 3533000   0.67528666   -8.5948215    558.40851  0.013171255  0.012461053            1 
 3534000   0.69174698   -8.5929127    558.26394  0.013164119  0.012456509            2 
 3535000   0.68841802   -8.5780534    558.99245  0.013177568  0.012451982            2 
 3536000   0.69732974   -8.5749184    558.64585  0.013165673  0.012447451            2 
 3537000   0.68318191   -8.6009575    557.90127  0.013144408  0.012442929            5 
 3538000   0.68378813   -8.5729375    559.30543  0.013173766  0.012438389            2 
 3539000   0.68589238   -8.5774535    559.21253  0.013167856  0.012433857            3 
 3540000    0.6900932   -8.6014779      557.249  0.013117914  0.012429325            3 
 3541000   0.67662901   -8.5854065    559.20701  0.013160289  0.012424803            4 
 3542000   0.68118015   -8.5713964    558.17589  0.013132314  0.012420274            3 
 3543000   0.68144808   -8.5791609     558.7208  0.013141424  0.012415755            3 
 3544000    0.6891355   -8.5791243    558.82698  0.013140213  0.012411231            2 
 3545000   0.69649125   -8.5812523    560.38304  0.013173085  0.012406722            5 
 3546000   0.69268237   -8.5504095    559.19678  0.013141492  0.012402234            5 
 3547000   0.68782984   -8.5625269    559.97846  0.013156152  0.012397755            9 
 3548000    0.6936619   -8.5422778     560.4335  0.013163132  0.012393277            3 
 3549000   0.69465379   -8.5529904    559.49225  0.013137322  0.012388788            4 
 3550000   0.68181394   -8.5817915    560.80052  0.013164331  0.012384317            2 
 3551000   0.68555184    -8.575465    559.00697  0.013118534  0.012379829            3 
 3552000   0.68107255    -8.558395    559.95045  0.013136976  0.012375355            3 
 3553000    0.6755663   -8.5818049    559.52978  0.013123412  0.012370865            4 
 3554000   0.67185782   -8.5981762    558.81317  0.013102916  0.012366383            4 
 3555000   0.68399087   -8.5758127    559.42893  0.013113664  0.012361898            6 
 3556000   0.68321739   -8.5886777    560.57268   0.01313678  0.012357421            8 
 3557000   0.69446053   -8.5877988    559.34295  0.013104277  0.012352946            4 
 3558000   0.68309364    -8.576245    559.79887  0.013111272  0.012348474            3 
 3559000   0.68483274    -8.563766     560.2881  0.013119043  0.012344003            2 
 3560000   0.66359166   -8.5899507    559.01596   0.01308558  0.012339534            3 
 3561000   0.67790502   -8.5820798    559.11725  0.013084275   0.01233507            6 
 3562000   0.67033112   -8.5811559    558.11569   0.01305717  0.012330599            2 
 3563000   0.68930931   -8.5629837    558.89177  0.013071657   0.01232614            2 
 3564000   0.66932741   -8.5794735    559.66238  0.013086008  0.012321682            3 
 3565000   0.69133573    -8.566329    560.12579  0.013093169  0.012317229            2 
 3566000   0.67811462   -8.5608334    560.80825  0.013105446  0.012312778            2 
 3567000   0.66727036   -8.5479286    560.40739  0.013092407  0.012308335            1 
 3568000   0.68443402    -8.581347    560.01908  0.013079668   0.01230388            1 
 3569000    0.6841071   -8.5708859    559.67791  0.013068037   0.01229943            6 
 3570000    0.6859634   -8.5856907    558.70779  0.013041732  0.012294976            5 
 3571000   0.68017249   -8.5917939    558.20654  0.013026382  0.012290506            2 
 3572000   0.66726309   -8.6144889    558.51621   0.01302996  0.012286043            2 
 3573000   0.68110835   -8.6080353    558.56386  0.013027425  0.012281577            3 
 3574000   0.68065612   -8.5730724    559.45437  0.013044543  0.012277113            2 
 3575000   0.66748043   -8.5873022    558.75137  0.013024507  0.012272661            3 
 3576000   0.66685765   -8.5915833    559.55722  0.013039644   0.01226821            2 
 3577000   0.69127124   -8.5642316     559.3925  0.013032162  0.012263743            3 
 3578000   0.67482079   -8.5794035    559.49562  0.013030921  0.012259283            4 
 3579000   0.67809764   -8.5756428    559.23102  0.013021119  0.012254832            1 
 3580000   0.68333932   -8.5580192    558.96013  0.013011176   0.01225039            1 
 3581000   0.67210336   -8.5868469    558.94126  0.013007104  0.012245948            4 
 3582000   0.67743507   -8.6115368    558.12695  0.012984528  0.012241494            2 
 3583000   0.68092327   -8.5952093    559.12602   0.01300414  0.012237046            2 
 3584000   0.68322771   -8.5977333     559.8871  0.013018208  0.012232605            2 
 3585000   0.67549174   -8.5980718    558.64205  0.012985636  0.012228168            2 
 3586000   0.67223452   -8.6026933    559.58029  0.013003818  0.012223728            1 
 3587000   0.68054747   -8.5820042    558.45002  0.012973934  0.012219286            1 
 3588000   0.66555728   -8.5802139    559.32299  0.012990593   0.01221485            2 
 3589000   0.67133341   -8.5930504    559.49188  0.012990895  0.012210422            2 
 3590000   0.69076382   -8.6026402    559.16062  0.012979587  0.012206009            1 
 3591000   0.67915253   -8.5923991    559.31783  0.012979621   0.01220159            3 
 3592000    0.6939989   -8.5940658    557.99362  0.012945286  0.012197165            3 
 3593000   0.65828558   -8.5918338    559.43379  0.012975085  0.012192736            4 
 3594000   0.67682454   -8.5738989    560.13892  0.012987825  0.012188309            7 
 3595000   0.67617714   -8.5944814    559.52553  0.012969994  0.012183887            2 
 3596000   0.68193446   -8.5599378    558.78346   0.01294919  0.012179479            3 
 3597000   0.67793347   -8.5678597    559.32623  0.012958165  0.012175069            2 
 3598000    0.6754878   -8.5819466    559.30355  0.012954038  0.012170661            2 
 3599000   0.67214601   -8.6161014    559.75767  0.012960954  0.012166255            5 
 3600000   0.67310489   -8.6039325    558.89474  0.012937378  0.012161845            4 
 3601000   0.67665471   -8.5599113    559.05908  0.012937589  0.012157442            3 
 3602000   0.67672349   -8.5914228    558.99014  0.012932402  0.012153036            3 
 3603000   0.67567212   -8.5724292    559.80012  0.012947546   0.01214863            5 
 3604000   0.68797219   -8.6171939    558.14568  0.012905699  0.012144229            4 
 3605000    0.6635832     -8.56388    560.11341  0.012947605  0.012139818            3 
 3606000   0.67128117   -8.6009572    560.08185  0.012943285  0.012135414            5 
 3607000    0.6684606    -8.603099    557.71961  0.012885122   0.01213102            4 
 3608000   0.67374629   -8.5912732    557.96521  0.012887223  0.012126618            2 
 3609000    0.6709318   -8.5829437    558.20063  0.012889088  0.012122222            4 
 3610000   0.68392359   -8.5830998    559.05674   0.01290528  0.012117817            5 
 3611000   0.65648928    -8.604116    558.89117  0.012897885  0.012113417            4 
 3612000   0.66146706   -8.5943733    558.71952  0.012890354  0.012109015           10 
 3613000   0.67090354   -8.6173521    558.74221   0.01288731  0.012104619            9 
 3614000   0.66682977   -8.6158748    558.80068  0.012885092  0.012100215            4 
 3615000    0.6610382   -8.5720742    558.38211  0.012871879  0.012095819            6 
 3616000   0.69368281   -8.6187155    558.30963  0.012866649  0.012091424            2 
 3617000   0.67166672   -8.5891819    558.96002  0.012878076  0.012087032            3 
 3618000   0.66066931   -8.6025699     559.1989  0.012880019  0.012082655            4 
 3619000   0.66635872   -8.6123385    558.88019  0.012869121  0.012078265            2 
 3620000   0.67392459   -8.5767334    558.47229  0.012856176  0.012073882            4 
 3621000   0.66928533   -8.6112046     559.4273  0.012874604  0.012069488            3 
 3622000   0.67025022   -8.6108938    559.10985  0.012863746  0.012065102            2 
 3623000   0.66186546   -8.5807062    557.49163  0.012822974  0.012060709            2 
 3624000   0.67779119   -8.6220196    558.19604  0.012835634  0.012056326            2 
 3625000   0.67084496   -8.5853687    558.94286  0.012849261  0.012051946            3 
 3626000   0.67081279   -8.5982686    559.20922  0.012851839  0.012047569            6 
 3627000   0.68978331   -8.5994364    558.16931  0.012824403  0.012043204            2 
 3628000   0.68211215   -8.5816728    558.87901  0.012837169  0.012038836            5 
 3629000   0.67720135    -8.629509    558.13526  0.012816553  0.012034466            3 
 3630000   0.65937202   -8.6009075    559.26079  0.012838861  0.012030104            2 
 3631000    0.6715762   -8.6194167    559.54409  0.012841827  0.012025737            4 
 3632000   0.66607835   -8.5916505    559.66535  0.012841074  0.012021363            2 
 3633000     0.657727   -8.5919788    559.01069  0.012822522  0.012016996            2 
 3634000   0.67887727   -8.5950365    558.15901  0.012799464  0.012012636            2 
 3635000   0.67097799   -8.6144493    558.68583   0.01280802  0.012008283            1 
 3636000   0.66723293   -8.6142288    559.09602  0.012813898  0.012003924            4 
 3637000   0.67055162   -8.6097681    558.73815  0.012802176  0.011999571            1 
 3638000   0.67856826   -8.5861443    558.88997  0.012802134  0.011995221            2 
 3639000    0.6598344   -8.6051775    558.98718  0.012800842  0.011990863            2 
 3640000   0.66708651   -8.6026891     558.8641  0.012794508  0.011986513            1 
 3641000   0.66292179   -8.6037526    558.10362  0.012773588  0.011982152            2 
 3642000   0.68063262   -8.5958182     557.9115  0.012765685  0.011977797            3 
 3643000   0.68388408   -8.5836605    558.02447  0.012764765  0.011973446            2 
 3644000   0.67822843   -8.6033901    558.54392  0.012773141  0.011969089            2 
 3645000   0.67074794   -8.5967033    558.42881  0.012767005  0.011964735            7 
 3646000   0.66729028    -8.602963    558.83528  0.012772794  0.011960386            3 
 3647000   0.66252096   -8.6165067    558.88885  0.012770516  0.011956043            2 
 3648000   0.66000025   -8.5879767    558.24174  0.012752233    0.0119517            2 
 3649000   0.67531417   -8.6049698    558.47728  0.012754117  0.011947342            1 
 3650000   0.67290455   -8.6349934    557.39824  0.012725987  0.011942984            3 
 3651000   0.66749356   -8.5908844    558.66086  0.012751321  0.011938641            2 
 3652000   0.66560449   -8.5967045    557.98001  0.012732293  0.011934297            2 
 3653000   0.68249618   -8.6111528    559.43311  0.012761956  0.011929954            2 
 3654000   0.67320487   -8.5935119    558.95735  0.012747613  0.011925619            3 
 3655000   0.66042452   -8.6161185    557.54127  0.012711839   0.01192128            4 
 3656000   0.67656237   -8.6119026    558.20867  0.012723575  0.011916937            3 
 3657000   0.66802223    -8.609754    558.88945  0.012735609  0.011912595            2 
 3658000    0.6567534   -8.6307623    558.43159  0.012721696  0.011908258            2 
 3659000    0.6630171   -8.6329707    557.78234  0.012703433  0.011903911            1 
 3660000   0.66626431   -8.6287091    558.09947  0.012707183  0.011899561            2 
 3661000    0.6540258    -8.619137    559.01643  0.012724584  0.011895211            1 
 3662000   0.66935899   -8.6175003    557.52115  0.012687082   0.01189087            1 
 3663000   0.67349288   -8.6261772       558.08  0.012696333  0.011886524            3 
 3664000   0.66059493   -8.6145418    557.44098  0.012678334  0.011882182            1 
 3665000   0.67563919   -8.6450801    557.90752  0.012685483  0.011877841            2 
 3666000   0.64867918   -8.6300051    557.55314  0.012673967  0.011873504            3 
 3667000    0.6619763   -8.6511967    558.18448  0.012684858  0.011869167            2 
 3668000   0.65552142   -8.6450997    558.51554  0.012688921  0.011864833            2 
 3669000   0.67248893   -8.6292818    558.68513  0.012689314   0.01186049            2 
 3670000    0.6642786   -8.6371461    557.97028  0.012669625  0.011856157            1 
 3671000   0.67327277   -8.6157326    557.97198  0.012666212   0.01185182            2 
 3672000   0.66881284   -8.6169877    559.42526  0.012695744    0.0118475            1 
 3673000    0.6654301   -8.6361342     557.1278  0.012640162  0.011843173            2 
 3674000   0.66542849   -8.6114849    559.07649  0.012680922  0.011838849            2 
 3675000   0.67640257   -8.6240461    557.96974  0.012652375  0.011834521            4 
 3676000   0.65436252   -8.6395176    557.44729  0.012637089  0.011830198            2 
 3677000   0.66027332   -8.6322318    558.11278  0.012648735  0.011825878            4 
 3678000   0.66424941   -8.6349276     558.6933  0.012658449  0.011821561            2 
 3679000   0.66093467   -8.6162458    557.59299  0.012630085  0.011817245            5 
 3680000   0.66456463   -8.6438813     557.5284   0.01262519  0.011812922            2 
 3681000   0.66500733   -8.6527415    558.50266  0.012643816  0.011808599            2 
 3682000   0.67125731   -8.6313264    558.85037  0.012648252  0.011804279            2 
 3683000   0.64782907   -8.6352828    557.39941  0.012611988  0.011799964            1 
 3684000   0.65334712   -8.6416716    557.70496  0.012615476   0.01179564            3 
 3685000   0.67076579   -8.6461989    557.43713  0.012605996  0.011791326            1 
 3686000   0.67402975   -8.6496554    556.75388  0.012587129  0.011787008            1 
 3687000   0.66669123   -8.6270731    558.10354   0.01261422  0.011782698            3 
 3688000   0.66231505   -8.6304106    557.01132   0.01258612  0.011778385            3 
 3689000   0.65816803   -8.6540735     557.5396  0.012594642  0.011774073            3 
 3690000   0.65449438   -8.6255708    557.29378  0.012585677  0.011769776            2 
 3691000   0.66006485   -8.6433661     556.5625  0.012565757  0.011765484            3 
 3692000   0.66623416   -8.6335201    557.82163  0.012590773  0.011761188            3 
 3693000   0.66876887    -8.608136    558.07188  0.012593011  0.011756895            3 
 3694000   0.66155714    -8.642796    557.65218  0.012580134  0.011752602            6 
 3695000   0.66226785   -8.6369337    557.45679  0.012572323  0.011748316            5 
 3696000   0.66501519   -8.6284259    557.68775  0.012574129  0.011744037            2 
 3697000   0.65288183   -8.6362549    558.01293  0.012578057  0.011739759            3 
 3698000   0.64217253    -8.637767    558.44653  0.012584427  0.011735481            3 
 3699000   0.65647419   -8.6285797    557.95127  0.012569867  0.011731207            4 
 3700000   0.66991213    -8.624084     558.2707  0.012573664   0.01172693            7 
 3701000   0.66379785   -8.6378013    558.13935  0.012567309  0.011722656            2 
 3702000    0.6590078   -8.6170405     557.7847  0.012555931  0.011718385            5 
 3703000   0.66414982   -8.6342652    558.34777  0.012565212  0.011714116            3 
 3704000   0.65004325   -8.6295827    557.06417  0.012532941  0.011709847            4 
 3705000   0.67759114   -8.6635398    558.29286  0.012557194  0.011705573            2 
 3706000    0.6629886   -8.6259792    558.54363  0.012559445  0.011701305            2 
 3707000   0.65119537   -8.6547307    558.30974  0.012550799  0.011697042            3 
 3708000   0.66567149   -8.6148441    558.06414  0.012541895   0.01169278            2 
 3709000   0.66131864   -8.6273626    557.75058  0.012531468   0.01168852            1 
 3710000   0.64858537   -8.6478276    557.33589  0.012518776  0.011684255            5 
 3711000   0.65686186    -8.637453     558.3803  0.012538855  0.011679994            2 
 3712000   0.65893727   -8.6300389    558.52563   0.01253874  0.011675741            5 
 3713000   0.65754251   -8.6384389    558.94696  0.012544819  0.011671479            1 
 3714000   0.66608915   -8.6622126    558.26878  0.012526225  0.011667218            2 
 3715000   0.65608427   -8.6429607    557.66467  0.012509302  0.011662963            3 
 3716000   0.65772606   -8.6219631    558.61225  0.012527185  0.011658698            2 
 3717000   0.65860535   -8.6490974    557.67008  0.012502692   0.01165443            1 
 3718000   0.66286869   -8.6423882    558.13465  0.012509742  0.011650171            3 
 3719000   0.64781408   -8.6471904    557.18884  0.012485185  0.011645911            2 
 3720000   0.66040847   -8.6413129    557.43069  0.012487247  0.011641663            3 
 3721000   0.64895016   -8.6477427    557.88458  0.012494056  0.011637418            2 
 3722000   0.67024249   -8.6601039    557.74661   0.01248761  0.011633177            4 
 3723000   0.65598504   -8.6468708    558.47613  0.012500585  0.011628937            1 
 3724000   0.66763699   -8.6443971     558.5113  0.012498015  0.011624699            2 
 3725000   0.65616668   -8.6267666    558.17102  0.012487047  0.011620465            3 
 3726000   0.65087937   -8.6573645    556.86505  0.012454488  0.011616233            4 
 3727000   0.68092721   -8.6539545    557.46976  0.012464667  0.011611999            2 
 3728000   0.64251178    -8.653351    557.21716  0.012455677  0.011607767            4 
 3729000   0.66009873   -8.6283059    557.95807  0.012468894   0.01160354            3 
 3730000   0.66641976   -8.6158101    558.90967  0.012486811  0.011599315            5 
 3731000   0.64084226   -8.6206394     559.1162  0.012488077  0.011595087            2 
 3732000   0.65952354   -8.6478252    558.13262  0.012462768  0.011590859            5 
 3733000   0.64419269   -8.6325542    558.05746  0.012457752  0.011586633            3 
 3734000   0.65137641   -8.6356518     556.7864  0.012426049  0.011582414           10 
 3735000   0.64411512   -8.6560252    557.92572  0.012448142  0.011578186            5 
 3736000   0.64980651    -8.657012    557.16282  0.012427793  0.011573962            3 
 3737000   0.64811065   -8.6388264    557.50652  0.012432132  0.011569743            4 
 3738000   0.66760373   -8.6505585    557.27325  0.012423606  0.011565526            2 
 3739000   0.65562984   -8.6470895    558.06289  0.012437882   0.01156131            2 
 3740000   0.64583426   -8.6605185    558.38511  0.012441736  0.011557093            3 
 3741000    0.6518439   -8.6399783    557.78599  0.012425064  0.011552887            4 
 3742000    0.6388295   -8.6361205    557.48093   0.01241495  0.011548676            2 
 3743000   0.66252195   -8.6239386    557.23108  0.012406071  0.011544474            2 
 3744000   0.65626101   -8.6209476    557.29221  0.012404118  0.011540272           10 
 3745000   0.66842015   -8.6271856    558.38739  0.012425176  0.011536078            3 
 3746000    0.6709107    -8.652331    556.46806  0.012379161  0.011531874            3 
 3747000   0.66434895   -8.6478174    557.72341  0.012403776  0.011527675            1 
 3748000   0.65962878   -8.6427407    557.50105  0.012395523  0.011523472            2 
 3749000   0.64534957   -8.6116864    557.96467  0.012402522   0.01151928            2 
 3750000   0.65061083   -8.6191929    557.77008  0.012394891  0.011515092            3 
 3751000   0.64225514   -8.6457331    557.88934  0.012394236  0.011510906            3 
 3752000   0.64706233   -8.6305047    557.53543  0.012383072  0.011506704            4 
 3753000   0.65746844   -8.6376114    557.45877   0.01237807  0.011502518            1 
 3754000   0.65358498   -8.6322122    559.15168  0.012412353   0.01149833            3 
 3755000   0.64559002   -8.6549382     557.6863  0.012376527  0.011494136            4 
 3756000   0.65870831   -8.6433956    557.80193  0.012375797  0.011489948            1 
 3757000   0.65938975   -8.6229368    557.37308  0.012362991  0.011485769            2 
 3758000   0.64620539   -8.6617877    557.69616  0.012366865  0.011481587            2 
 3759000   0.65681258   -8.6409254    558.60701  0.012383768  0.011477409            3 
 3760000   0.64512345   -8.6288969    558.49443  0.012377979  0.011473232            1 
 3761000   0.66480853   -8.6413388    556.48552  0.012330176  0.011469049            4 
 3762000   0.65050215   -8.6252897    558.30798  0.012367269  0.011464873            3 
 3763000   0.65305948   -8.6252165    558.11019  0.012359602  0.011460695            5 
 3764000     0.649775   -8.6221781    558.27631  0.012359996  0.011456527            2 
 3765000    0.6469773   -8.6415931    558.44621  0.012360474  0.011452362            3 
 3766000   0.64445148    -8.627661    558.36325  0.012355356  0.011448193            3 
 3767000   0.63990324   -8.6398973    557.83985  0.012340498  0.011444029            2 
 3768000   0.65470959   -8.6304783    558.40642  0.012349753   0.01143987            2 
 3769000   0.64393698    -8.633458    557.94568  0.012336289  0.011435713            2 
 3770000   0.65298782   -8.6390206    557.75397  0.012328779  0.011431548            4 
 3771000   0.65308269   -8.6585217    557.73135   0.01232501  0.011427391            4 
 3772000   0.64519677   -8.6309196    557.86053  0.012324596  0.011423228            2 
 3773000   0.64724603   -8.6329236    557.97488  0.012323856  0.011419069            3 
 3774000   0.65279458   -8.6487237    557.69153  0.012314333  0.011414918            2 
 3775000   0.64920022   -8.6559987    557.22004  0.012300663  0.011410769            5 
 3776000    0.6417883   -8.6435512    557.18366  0.012296603   0.01140662            3 
 3777000   0.64890806   -8.6646739    556.76877  0.012284193  0.011402468            3 
 3778000   0.64291667   -8.6349589    557.62055   0.01229973  0.011398309            3 
 3779000   0.65194679    -8.644114    557.18086  0.012286779  0.011394157            4 
 3780000   0.63856793   -8.6561481    558.26845  0.012307505      0.01139            3 
 3781000   0.64952687   -8.6401174     557.5815   0.01228911  0.011385848            6 
 3782000   0.65264323   -8.6638766    557.38498   0.01228153  0.011381696            2 
 3783000   0.65517125   -8.6348454    557.22871  0.012274842  0.011377546            3 
 3784000   0.64146484   -8.6615274    557.34371   0.01227413  0.011373399            5 
 3785000   0.64932959   -8.6733374    556.81902  0.012259336  0.011369256            3 
 3786000   0.63990197   -8.6643343    557.22151  0.012264957  0.011365115            4 
 3787000   0.64935063    -8.671297    557.46482  0.012267072  0.011360973            2 
 3788000    0.6513109   -8.6484073    557.06603   0.01225506  0.011356839            4 
 3789000   0.64172578   -8.6498034    557.26215  0.012256139  0.011352698            3 
 3790000   0.63762026   -8.6698743    556.76028  0.012241871  0.011348555            8 
 3791000   0.65146525    -8.666791    557.01641  0.012244272  0.011344415            3 
 3792000   0.65769149   -8.6561376    557.53739  0.012252492   0.01134028            4 
 3793000   0.63850489   -8.6938227    557.62042  0.012251086  0.011336147            2 
 3794000   0.63455516   -8.6777868    556.24818  0.012217716   0.01133201            3 
 3795000   0.64351882   -8.6440869    556.86288  0.012227995  0.011327877            3 
 3796000   0.65014781   -8.6566657    557.34253  0.012235303  0.011323742            3 
 3797000   0.62231691   -8.6762707    557.12091  0.012227217  0.011319611            6 
 3798000   0.66249667   -8.6750696    557.22559  0.012226294  0.011315485            2 
 3799000   0.64618228   -8.6338901    556.36344  0.012204164  0.011311364            2 
 3800000   0.64256845    -8.670655    557.64749  0.012229112  0.011307244            2 
 3801000   0.64974463   -8.6813221    556.60323     0.012203  0.011303128            2 
 3802000   0.64598322   -8.6601733    558.15513  0.012233805  0.011298999            1 
 3803000     0.644981    -8.648519    557.14292  0.012208408  0.011294883            1 
 3804000   0.64024708   -8.6636379    556.43589   0.01218971  0.011290763            2 
 3805000   0.65048311   -8.6554562    557.95148    0.0122197  0.011286645            2 
 3806000   0.64896694   -8.6870362    557.40622   0.01220455  0.011282527            1 
 3807000   0.62702309   -8.6729648    557.04513   0.01219344   0.01127841            1 
 3808000   0.63028107   -8.6708868    557.43216  0.012198708  0.011274294            2 
 3809000   0.63577191   -8.6642043    556.45451  0.012174116  0.011270188            1 
 3810000   0.64892323   -8.6552982    557.23363  0.012187962  0.011266082            1 
 3811000   0.62759452   -8.6517895    558.01471  0.012201844   0.01126198            2 
 3812000   0.64292774     -8.63727    558.01243  0.012198593  0.011257875            2 
 3813000   0.64803688    -8.691278    557.96624  0.012194384   0.01125377            2 
 3814000   0.63483663   -8.6621521     557.7107  0.012185604  0.011249667            2 
 3815000    0.6342278   -8.6836558    556.46645   0.01215523  0.011245563            1 
 3816000   0.64737008    -8.671389    556.57754  0.012154471  0.011241459            3 
 3817000   0.64451706    -8.695617    556.55109  0.012150709  0.011237362            1 
 3818000   0.63516348   -8.6861614    556.64855  0.012149654   0.01123326            2 
 3819000   0.64203986   -8.6747699      556.642   0.01214633  0.011229155            3 
 3820000   0.62574322   -8.6877399    555.64122  0.012121318  0.011225051            2 
 3821000   0.63856116    -8.658133     557.4734  0.012158104  0.011220946            2 
 3822000   0.63283961   -8.6723817    557.37699  0.012152821  0.011216845            2 
 3823000   0.63759824   -8.6887352    556.35905  0.012127453  0.011212756            2 
 3824000   0.64487197    -8.667461    556.45666  0.012126409  0.011208655            2 
 3825000    0.6492445   -8.6777403    556.29105  0.012119631  0.011204551            3 
 3826000   0.65346886   -8.6931556    557.10435  0.012134177  0.011200454            5 
 3827000   0.63173963   -8.6902404    555.61929  0.012098669  0.011196364           13 
 3828000   0.63831192   -8.6757404    556.48814  0.012114423  0.011192279            4 
 3829000    0.6515042   -8.6903086    556.78304  0.012117677  0.011188192            2 
 3830000   0.63851381   -8.6823496     557.2159  0.012123932  0.011184112            2 
 3831000   0.63950052   -8.6827688    555.91256  0.012092416  0.011180034            2 
 3832000   0.63772007   -8.6721323    556.91139  0.012110982  0.011175955            2 
 3833000   0.63497812   -8.6896297    555.57204  0.012078703   0.01117187            1 
 3834000   0.64715797   -8.6776658    557.26958   0.01211245  0.011167789            4 
 3835000   0.64880909   -8.6914857    557.08977  0.012105384  0.011163715            3 
 3836000   0.63875059   -8.6868805    557.21452  0.012104938  0.011159634            2 
 3837000   0.64099149   -8.6606492    556.96268  0.012096314  0.011155565            2 
 3838000   0.65805797   -8.6779668    556.71187  0.012087716  0.011151495            3 
 3839000   0.65769087   -8.6822712    556.07778  0.012070804  0.011147424            2 
 3840000   0.64242651   -8.6695022    556.57739  0.012078502  0.011143357            1 
 3841000   0.64222597   -8.6672403    557.44538  0.012094189   0.01113929            5 
 3842000   0.64749211   -8.6894243    556.42216  0.012068848  0.011135229            3 
 3843000    0.6398426   -8.6761636    556.73784  0.012072553  0.011131167            2 
 3844000   0.63395746   -8.6688052    556.10334  0.012055657  0.011127106            1 
 3845000   0.64350588   -8.6790531    556.58531  0.012062967  0.011123048            2 
 3846000    0.6273649   -8.6703445    556.52465  0.012058516   0.01111899            2 
 3847000   0.64028164   -8.6824954    556.89202   0.01206334  0.011114943            3 
 3848000   0.63856387   -8.6702745    557.17934  0.012066427  0.011110884            3 
 3849000   0.63443479    -8.697079    557.00709  0.012059563  0.011106831            1 
 3850000    0.6379022   -8.6869312    557.33373  0.012063501  0.011102775            2 
 3851000   0.63808309   -8.6810437    557.40609  0.012061934  0.011098718            2 
 3852000    0.6395218    -8.700876    557.56175   0.01206217  0.011094661            2 
 3853000   0.62777306   -8.6983751    556.16997  0.012028938  0.011090601            3 
 3854000   0.63558778   -8.6998001    555.63235  0.012014192  0.011086548            3 
 3855000   0.65430596   -8.7063834    557.39659  0.012049213  0.011082504            3 
 3856000   0.61990776   -8.6637863    556.99099  0.012037322  0.011078456            6 
 3857000   0.64835458   -8.6857677    556.89058  0.012032032  0.011074409            4 
 3858000   0.62908386   -8.6742852    555.03963  0.011988933  0.011070359            4 
 3859000   0.63917236   -8.6805373    556.01285  0.012006842  0.011066316            5 
 3860000   0.64342156   -8.6928775    556.21792  0.012008159  0.011062273            2 
 3861000   0.62224616   -8.6890177    556.15998  0.012003798  0.011058236            2 
 3862000   0.63590255   -8.7079509    556.61383  0.012010483  0.011054201            3 
 3863000   0.62329742   -8.7050859    557.14482  0.012018829  0.011050167            2 
 3864000   0.63376918   -8.6902537    556.95636  0.012011654  0.011046137            2 
 3865000   0.65138364   -8.6875045    555.68927  0.011981226  0.011042104            2 
 3866000    0.6427704   -8.7157053    555.73938  0.011979207  0.011038069            4 
 3867000   0.61888676   -8.6795511    555.87203  0.011978968  0.011034032            5 
 3868000   0.63571744   -8.7003287    556.05992  0.011979919  0.011030005            3 
 3869000     0.635938   -8.6919072     555.5415  0.011965657  0.011025973            3 
 3870000   0.61935768   -8.6903155     557.0404  0.011994841  0.011021943            3 
 3871000   0.64562534   -8.6803446    556.58619  0.011981964  0.011017915            3 
 3872000   0.62320789   -8.6930489    556.39051  0.011974658  0.011013896            3 
 3873000   0.62974348   -8.7079721     556.8356  0.011981143  0.011009877            3 
 3874000   0.63970173   -8.6695735    556.25963  0.011965661  0.011005856            2 
 3875000   0.62736918   -8.7061492    555.13466   0.01193838  0.011001843            3 
 3876000   0.62899573   -8.7150949    555.97153  0.011953292  0.010997825            4 
 3877000   0.63445811    -8.703712    556.24808  0.011956153  0.010993812            7 
 3878000   0.64957521    -8.714091    555.25787  0.011931792  0.010989801            5 
 3879000   0.62889022   -8.6801934    557.81489  0.011983649   0.01098579            4 
 3880000   0.62509623   -8.6974571    556.25388  0.011947034  0.010981785            6 
 3881000   0.62749756   -8.7079108    555.72277  0.011932551  0.010977773            5 
 3882000   0.62916676   -8.6949009    556.44355   0.01194495  0.010973768            5 
 3883000   0.62674415   -8.7027401    557.27419    0.0119597   0.01096976            4 
 3884000   0.64581423   -8.7038305     556.3937   0.01193773  0.010965761            5 
 3885000   0.62090066   -8.7007621    556.55851  0.011938192  0.010961761            7 
 3886000   0.62686871   -8.6774132    556.30611  0.011929707  0.010957775            7 
 3887000   0.62317585   -8.6995552    557.20561  0.011945922  0.010953782            6 
 3888000   0.62388145   -8.7094644    556.31916   0.01192385  0.010949789            3 
 3889000   0.63221267   -8.7159273    555.72384  0.011908028  0.010945796            2 
 3890000   0.62895079    -8.708074    555.84944  0.011907657  0.010941814            8 
 3891000    0.6270781    -8.700508    556.17512  0.011911572  0.010937821            8 
 3892000   0.62991533   -8.6876739    557.32782  0.011933192  0.010933837            4 
 3893000   0.61324611   -8.7062476    556.01491  0.011902023  0.010929855            4 
 3894000   0.62099052   -8.7071938    555.47259  0.011887361  0.010925866            5 
 3895000   0.62630653   -8.7264068    556.45364  0.011905298   0.01092188            7 
 3896000   0.63955265   -8.7063148    557.19648  0.011918131  0.010917898            3 
 3897000   0.62147187   -8.6952861    556.14693   0.01189263  0.010913921            7 
 3898000   0.63599626   -8.7007256    556.63835  0.011900084  0.010909943            6 
 3899000     0.642887   -8.6996742    556.47755  0.011893596  0.010905962            3 
 3900000   0.62792032   -8.7046187    556.91991  0.011899998  0.010901983            5 
 3901000   0.61560961   -8.7361529    556.40968  0.011886048  0.010898007            7 
 3902000   0.62291181   -8.7067994    555.94006  0.011872972   0.01089403            3 
 3903000   0.63291884   -8.7205046    556.16262  0.011874682  0.010890053            5 
 3904000   0.62431001    -8.701239     555.2736  0.011852664  0.010886084            3 
 3905000   0.64138729   -8.7049563    555.74247  0.011859634  0.010882117            8 
 3906000   0.63449164   -8.6960558    557.52824  0.011894697  0.010878149            9 
 3907000    0.6468302   -8.7103727    555.72142  0.011853115  0.010874182            7 
 3908000   0.63100724   -8.7080057    556.59657  0.011868743  0.010870215            6 
 3909000   0.62701714   -8.6950437    556.26874  0.011858718  0.010866249            9 
 3910000   0.62733546    -8.695124    556.19798  0.011854177   0.01086229            3 
 3911000   0.63580541   -8.7055923     556.6317  0.011860387  0.010858329            4 
 3912000   0.61850746    -8.712901    555.72759  0.011838096  0.010854369            5 
 3913000   0.61655598   -8.6907151    557.23742  0.011867225  0.010850409            4 
 3914000   0.61113956   -8.7328332    556.12629  0.011840536  0.010846457            7 
 3915000   0.63143275   -8.7070468    557.15175  0.011859339  0.010842499            6 
 3916000   0.63104995   -8.7087994    556.24263  0.011836964  0.010838548            5 
 3917000   0.62208675   -8.6924532    556.69568  0.011843581  0.010834598            5 
 3918000   0.63951379   -8.7061499    555.90962  0.011823839  0.010830645            5 
 3919000    0.6140803    -8.726874    555.97122  0.011822132  0.010826694            3 
 3920000   0.62127667   -8.7150368    555.64904  0.011812267  0.010822749            3 
 3921000   0.61899732   -8.6934989    556.41781  0.011825593  0.010818805            5 
 3922000   0.62810703   -8.7099425    556.25729  0.011819167  0.010814863            4 
 3923000   0.63193374   -8.7306473    556.89087  0.011829613  0.010810923            6 
 3924000   0.61452163   -8.7245104    555.18768  0.011790428   0.01080699            9 
 3925000    0.6175901   -8.7217102    556.30825  0.011811215   0.01080305            3 
 3926000   0.63244912    -8.716069    555.88786  0.011799284  0.010799118            8 
 3927000   0.62563832   -8.7145547    557.03804  0.011820687  0.010795188            4 
 3928000   0.62755119   -8.7210579    556.16686  0.011799195   0.01079126            8 
 3929000   0.61365827   -8.7087606    556.63038  0.011806023  0.010787334            3 
 3930000   0.62156755   -8.7027303     556.5814   0.01180198  0.010783412            4 
 3931000   0.62548584   -8.7409173    556.75557   0.01180267  0.010779494            1 
 3932000   0.61879442   -8.6890162     557.1508  0.011808045   0.01077557            2 
 3933000   0.63049903   -8.7128273    556.42928  0.011789755  0.010771652            2 
 3934000   0.63675594   -8.7282328    556.76039  0.011793772  0.010767739            1 
 3935000   0.61503579    -8.706647    556.73923  0.011790327  0.010763825            3 
 3936000   0.61958762   -8.7369237    556.08419  0.011773463  0.010759908            4 
 3937000   0.62873375   -8.7051141    556.50902  0.011779464  0.010755999            3 
 3938000   0.61024037   -8.7207717    555.22389  0.011749278  0.010752083            2 
 3939000   0.61686253   -8.7007699    556.54975  0.011774345  0.010748172            8 
 3940000    0.6183546   -8.7127723    556.46844  0.011769637  0.010744265            2 
 3941000   0.64285738   -8.7064161    556.30585  0.011763213   0.01074036            3 
 3942000   0.61701167   -8.7118288     555.9097  0.011751854  0.010736455            2 
 3943000    0.6275023   -8.7408696     555.6009  0.011742347  0.010732555            2 
 3944000   0.61473056   -8.7120026    556.23289  0.011752723  0.010728651            2 
 3945000   0.61112085   -8.7251651    556.53306  0.011756085  0.010724749            3 
 3946000   0.61109687   -8.7359858     556.5093  0.011752604  0.010720849            3 
 3947000   0.63074797   -8.7298388    556.10083  0.011741002  0.010716953            6 
 3948000   0.63136332   -8.7254538    556.08866  0.011737772  0.010713059            4 
 3949000   0.62112203   -8.7092212    556.88112  0.011751522  0.010709169            6 
 3950000   0.62136809   -8.7025375    556.53603  0.011741266  0.010705283            7 
 3951000   0.60994029   -8.7221959    555.38752  0.011714071    0.0107014            6 
 3952000   0.61747371   -8.7186011    555.89732  0.011721856  0.010697508            5 
 3953000    0.6276848   -8.7279919    556.95192  0.011741123  0.010693622            5 
 3954000   0.61405665     -8.70625    555.89303  0.011715837  0.010689734            5 
 3955000   0.62167065   -8.7216444    556.11457  0.011717542  0.010685849            5 
 3956000   0.60779452   -8.7386474    556.56012  0.011723966   0.01068196            3 
 3957000   0.61783484   -8.7101332    557.05767  0.011731482  0.010678077            6 
 3958000   0.60489408   -8.7316802    555.57395  0.011697279  0.010674195           13 
 3959000   0.61936029    -8.727438    555.45811  0.011691886  0.010670316            4 
 3960000   0.61868664   -8.7134711    556.13206  0.011703116  0.010666439            2 
 3961000   0.62930701   -8.7306222    556.21557  0.011701918  0.010662564            3 
 3962000   0.61587204   -8.7572403    554.30759  0.011658834  0.010658687            2 
 3963000   0.59798322   -8.7084417    555.91475  0.011689687   0.01065482            4 
 3964000   0.61236682   -8.7400501    555.04457  0.011668444  0.010650957            3 
 3965000   0.62574392   -8.7330693    556.22983  0.011690413  0.010647091            3 
 3966000   0.61837771    -8.731117    554.92825  0.011660116   0.01064322            4 
 3967000    0.6178214   -8.7279113    556.55399  0.011691328  0.010639355            4 
 3968000   0.62738421   -8.7395426    555.17422  0.011659405  0.010635486            9 
 3969000   0.62006167   -8.7246191    555.87394  0.011671159  0.010631618            5 
 3970000   0.61474361   -8.7021338    555.88822  0.011668519  0.010627758            4 
 3971000   0.61494426   -8.7153703    556.27977  0.011673797  0.010623895            7 
 3972000   0.62051332   -8.6998077    556.52401  0.011675982   0.01062004            8 
 3973000   0.61211551   -8.7594204    555.53025  0.011652199  0.010616177            5 
 3974000   0.61523464    -8.756111     555.8161  0.011655261  0.010612317            6 
 3975000   0.61292343   -8.7291935    557.26494  0.011682703  0.010608459            2 
 3976000   0.61111491   -8.7329061    556.19425  0.011657324  0.010604608            3 
 3977000   0.62483727   -8.7331665    556.16853  0.011653854  0.010600755            7 
 3978000   0.61680268   -8.7015005    557.11907  0.011670837  0.010596908            6 
 3979000   0.60788262   -8.7404235     556.2665  0.011650048  0.010593058            6 
 3980000   0.61073958   -8.7238289    555.89039  0.011639246  0.010589207           10 
 3981000   0.61468292   -8.7420617    556.66047  0.011652442  0.010585356           14 
 3982000   0.62136738   -8.7433525    554.29225  0.011599955  0.010581504           13 
 3983000   0.61186248   -8.7687504    555.54046  0.011623158  0.010577653           13 
 3984000   0.61349773   -8.7460959    555.18423  0.011612789  0.010573805            8 
 3985000   0.61413416   -8.7404697     555.3442   0.01161322  0.010569963            7 
 3986000   0.60972322   -8.7406443     556.1392  0.011626928  0.010566118            3 
 3987000   0.61836637   -8.7465158    555.36701  0.011607872  0.010562275            8 
 3988000   0.62577161   -8.7603076    555.80262  0.011614064  0.010558442            2 
 3989000   0.61880129   -8.7618454    556.20499  0.011619558    0.0105546            9 
 3990000   0.61733809   -8.7390233      555.519  0.011602318  0.010550757            9 
 3991000   0.61170458    -8.747735    555.95536  0.011608522  0.010546925           11 
 3992000   0.61794639   -8.7317982    556.73088  0.011621804  0.010543095            2 
 3993000   0.61070827   -8.7366028    556.14823  0.011606733  0.010539269            3 
 3994000   0.61301366   -8.7428321     556.0141  0.011601029  0.010535442            8 
 3995000   0.61115413   -8.7485519    555.21608  0.011581479  0.010531611            8 
 3996000   0.62655311   -8.7476005    554.72224  0.011568282  0.010527785           16 
 3997000   0.61053508   -8.7473666    555.18686  0.011575074  0.010523964            8 
 3998000   0.60110081   -8.7370237    555.57097  0.011580185   0.01052014            9 
 3999000   0.61459979   -8.7455847    555.55897   0.01157704  0.010516319            6 
 4000000   0.61399316   -8.7284169    556.52981  0.011594371  0.010512495            7 
 4001000   0.61245091   -8.7539386    555.53096  0.011570669  0.010508679            2 
 4002000   0.60910373   -8.7306563    555.38314    0.0115647  0.010504862            8 
 4003000   0.61189809   -8.7338848    555.08425  0.011555588   0.01050105            9 
 4004000   0.60799107   -8.7575083    554.83969  0.011547613  0.010497233            9 
 4005000   0.61469568   -8.7528394    555.80995  0.011564918  0.010493424            2 
 4006000   0.60767691   -8.7468459    556.15615  0.011569233   0.01048961            4 
 4007000   0.61113761   -8.7413038    556.08439  0.011564853  0.010485805            3 
 4008000    0.5963328   -8.7426125    555.23209  0.011544247     0.010482            5 
 4009000   0.61078122   -8.7464961    555.13798  0.011539411  0.010478197            8 
 4010000   0.62106982   -8.7383939     555.3456  0.011540848  0.010474389            8 
 4011000   0.59825856   -8.7416877    555.59425  0.011543137  0.010470589            7 
 4012000   0.61310492   -8.7440465    554.82923  0.011524369  0.010466794            7 
 4013000   0.60447077   -8.7262854    556.93278  0.011565179  0.010462999            5 
 4014000   0.60137621   -8.7356592    554.99691  0.011522108  0.010459204           10 
 4015000   0.59873409   -8.7511001    556.11953  0.011542539  0.010455413            8 
 4016000   0.60361334   -8.7389081    555.27397  0.011522119  0.010451623            4 
 4017000   0.61605438   -8.7379992    556.46432  0.011543945  0.010447833           11 
 4018000   0.59962176   -8.7475436    555.61855  0.011523531  0.010444043            6 
 4019000   0.61571174   -8.7303841    555.82618  0.011524969  0.010440257            2 
 4020000   0.61113528   -8.7455113    555.54588  0.011516291  0.010436479           15 
 4021000     0.617401   -8.7392062    556.05044  0.011523884  0.010432702            9 
 4022000   0.61630455    -8.732417    556.38101  0.011527868  0.010428923            5 
 4023000   0.61544622   -8.7499474     555.8061  0.011513094  0.010425148            4 
 4024000   0.60598971   -8.7405581    555.11588  0.011495939  0.010421381            6 
 4025000   0.62650205   -8.7303325    555.33261   0.01149757  0.010417612           12 
 4026000   0.60386973   -8.7491647    556.42922  0.011517412  0.010413843           12 
 4027000   0.60987466    -8.742073    556.60141  0.011518115  0.010410073           11 
 4028000   0.60245327   -8.7413574    554.76419  0.011477247  0.010406307            7 
 4029000   0.59745068   -8.7468859    556.21991  0.011504507  0.010402542            2 
 4030000   0.60275351   -8.7336402    555.68502  0.011490592  0.010398779           17 
 4031000   0.61157658   -8.7419917    555.41449  0.011482149  0.010395012            4 
 4032000   0.59542371   -8.7670282    556.08598  0.011493179  0.010391242            5 
 4033000   0.61280828   -8.7516113    556.06827  0.011489963  0.010387472            5 
 4034000   0.59966073   -8.7566475    555.71783  0.011479876  0.010383706            7 
 4035000   0.61334356   -8.7471191    555.47554  0.011472027  0.010379942           13 
 4036000   0.61122462   -8.7560109    554.52235  0.011449503  0.010376184            6 
 4037000   0.60784059   -8.7436167    555.04522  0.011457461  0.010372419           15 
 4038000   0.61566975   -8.7545383    555.16306  0.011457055   0.01036866           11 
 4039000   0.60803939   -8.7517714    555.76449  0.011466627  0.010364895           13 
 4040000   0.60712488   -8.7622006    555.31929  0.011454606  0.010361131            8 
 4041000   0.61239513   -8.7497754    555.79269  0.011461534  0.010357375            9 
 4042000   0.60149252   -8.7626322    555.65347  0.011455828  0.010353613            4 
 4043000   0.62212751   -8.7486107    555.44178  0.011448631  0.010349856            8 
 4044000   0.62127543   -8.7708085    554.29346  0.011422137  0.010346094           12 
 4045000   0.59949183   -8.7627057    555.71309   0.01144856  0.010342335            7 
 4046000   0.61237103   -8.7733205    554.95617   0.01143014   0.01033858           13 
 4047000    0.5982292   -8.7620653    555.61807  0.011440945  0.010334821            5 
 4048000   0.59585807   -8.7373616    554.99434  0.011425279  0.010331066            7 
 4049000   0.61538069   -8.7753416    555.44748  0.011431783  0.010327319            8 
 4050000   0.60985062   -8.7738748    555.57633  0.011431612   0.01032357            7 
 4051000   0.59391162   -8.7735209    554.77101  0.011412223  0.010319825            9 
 4052000     0.591206   -8.7554355    554.97074  0.011413515  0.010316081            8 
 4053000   0.60175187   -8.7406879    554.77957  0.011406768  0.010312338            9 
 4054000   0.59514147   -8.7447771    554.95371  0.011407534  0.010308601            7 
 4055000   0.61043881   -8.7680948    555.93077    0.0114248  0.010304861           11 
 4056000   0.59402374   -8.7633326      555.087  0.011404647  0.010301121            4 
 4057000   0.60023329   -8.7872129    554.49947  0.011389768  0.010297384            9 
 4058000   0.60185247   -8.7640916    554.93656  0.011395937  0.010293646            5 
 4059000   0.60533549   -8.7557925    554.99638  0.011394358  0.010289914            9 
 4060000   0.60045025   -8.7455407    554.90507  0.011389677  0.010286179           13 
 4061000   0.60666128   -8.7405141    555.62225  0.011401589  0.010282451           10 
 4062000   0.60250526    -8.772206    554.53456  0.011376468  0.010278721           12 
 4063000   0.59129369   -8.7520064    555.27039   0.01138876  0.010274997           19 
 4064000   0.61110621   -8.7858577    555.02259  0.011380877   0.01027127           11 
 4065000   0.60822748   -8.7644159    554.60915  0.011369601  0.010267545           13 
 4066000    0.5983667   -8.7803669    553.82531   0.01135074  0.010263823           12 
 4067000   0.60544666   -8.7894581    555.04797  0.011373002  0.010260098           12 
 4068000   0.58279814     -8.76084     555.2799  0.011374957  0.010256385           12 
 4069000   0.59432765   -8.7721775    554.09608  0.011347917  0.010252667            3 
 4070000   0.59979109   -8.7754409    554.19348  0.011347123  0.010248949            7 
 4071000   0.59601086   -8.7814016    554.75946  0.011355921  0.010245231            5 
 4072000   0.59689921   -8.7497643    554.73248   0.01135258  0.010241514            3 
 4073000   0.61101973   -8.7695221    553.65328  0.011327713  0.010237805            3 
 4074000   0.58084949   -8.7485928    554.32201  0.011338611  0.010234092            3 
 4075000   0.60710669   -8.7831923    553.61236  0.011321316  0.010230382            5 
 4076000   0.60629105   -8.7554736     554.8162  0.011343151  0.010226677            3 
 4077000   0.59897934   -8.7705733     555.1898  0.011348005  0.010222972            3 
 4078000   0.60416412   -8.7681031    555.39466  0.011349409  0.010219268            2 
 4079000   0.59821488   -8.7624498     554.3357  0.011324992  0.010215563            4 
 4080000   0.60198088   -8.7520148     555.6251  0.011348552  0.010211863            1 
 4081000   0.60387231   -8.7782314    555.75426  0.011348408  0.010208166            2 
 4082000   0.60115863   -8.7621917    554.44627  0.011318926  0.010204461            5 
 4083000   0.60692497   -8.7628074    554.65294  0.011320372  0.010200762            2 
 4084000   0.59968615    -8.780955    555.87441  0.011342524  0.010197063            4 
 4085000   0.61529721   -8.7659563    555.23582   0.01132672  0.010193364            2 
 4086000   0.60558603   -8.7560237    554.48135  0.011308561  0.010189668            4 
 4087000   0.59633024   -8.7891814    554.28644   0.01130182  0.010185975            2 
 4088000     0.581379   -8.7766253    555.09637  0.011315565  0.010182279            4 
 4089000   0.59978008   -8.7595496    554.64513  0.011303602  0.010178584            4 
 4090000   0.60710776   -8.7551179    554.70027  0.011301961  0.010174891            6 
 4091000   0.59370487   -8.7931504    554.90729  0.011303416  0.010171205            3 
 4092000   0.59134192   -8.7796614    553.99965  0.011282169  0.010167514            3 
 4093000   0.59905385    -8.785979    554.65419  0.011292739  0.010163828            2 
 4094000   0.59090854    -8.787375    554.40076  0.011284822  0.010160144           10 
 4095000   0.58912084   -8.7847143    554.67748  0.011287698  0.010156463            2 
 4096000   0.59610912   -8.7861258    554.59107  0.011283184  0.010152783            2 
 4097000   0.60660406   -8.7767033    555.55873  0.011300112  0.010149103            2 
 4098000   0.60021045   -8.7968118    554.28059  0.011271364  0.010145426            1 
 4099000   0.59785824   -8.7774467    554.23048  0.011267595  0.010141752            3 
 4100000   0.59160795   -8.7860769    554.46947  0.011269705  0.010138074            2 
 4101000   0.60765565   -8.7606777     553.5165  0.011247592    0.0101344            2 
 4102000    0.5963029   -8.7690135    554.28753  0.011260514  0.010130729            2 
 4103000   0.59450985   -8.7724224     555.3861  0.011280082  0.010127064            2 
 4104000   0.58915039   -8.7909167    555.35041  0.011276608  0.010123398            5 
 4105000   0.60301421   -8.7799649    554.20314  0.011250571  0.010119735            3 
 4106000   0.58853496   -8.8150611    555.05837  0.011265189  0.010116067            2 
 4107000   0.58636356   -8.7664072    554.19419  0.011244911  0.010112406            4 
 4108000   0.59168011   -8.7657249    554.23162  0.011242933  0.010108746            4 
 4109000   0.60453913   -8.7666752    554.36015  0.011242803  0.010105087            2 
 4110000   0.58947358   -8.7832208    554.67066  0.011246364   0.01010143            4 
 4111000   0.59374977   -8.7898288    554.16394  0.011233356  0.010097769            3 
 4112000   0.61517154   -8.7963649    554.67145   0.01124091  0.010094111            2 
 4113000   0.59274688   -8.7912113    554.22927  0.011229218  0.010090458            2 
 4114000   0.59831242   -8.7601905    555.17555  0.011245656  0.010086805            4 
 4115000   0.58064113   -8.7796306    554.40219  0.011227262  0.010083156            2 
 4116000   0.60346058   -8.8048396    554.09175  0.011218249  0.010079502            2 
 4117000   0.57013692   -8.7767817    554.40412  0.011221847  0.010075855            4 
 4118000   0.61546124    -8.817214    554.30141  0.011217043  0.010072208            1 
 4119000   0.59173431   -8.7872897    554.53165  0.011218978  0.010068564            1 
 4120000   0.60633043   -8.7998478    554.65964  0.011218844  0.010064921            2 
 4121000   0.60201934    -8.801606    554.00482   0.01120288  0.010061279            2 
 4122000   0.60014615   -8.7812297    554.25177  0.011205155  0.010057639            3 
 4123000   0.59216294   -8.7725956    554.45604  0.011206566     0.010054            7 
 4124000   0.59983702   -8.7897835    554.51746  0.011205089  0.010050359            5 
 4125000   0.59255131   -8.7742978    555.01184   0.01121236  0.010046722            2 
 4126000   0.58425363   -8.7958824    554.80824  0.011205531  0.010043088            4 
 4127000   0.57753364   -8.7658832    554.55889  0.011197781  0.010039459            6 
 4128000   0.58582277   -8.8166518    553.87884   0.01118134  0.010035826            2 
 4129000   0.58475933   -8.8009957    554.00984  0.011181275  0.010032199            2 
 4130000   0.57950085    -8.783497    553.89906  0.011176333  0.010028576            3 
 4131000   0.59761675   -8.7771334     553.5695  0.011166979  0.010024954            6 
 4132000   0.59154849   -8.7869011    554.37148  0.011180451  0.010021339            3 
 4133000   0.59534368   -8.8160336     554.4569  0.011179468   0.01001772            3 
 4134000   0.59151793   -8.7920349    555.08789  0.011189483  0.010014106            6 
 4135000   0.59700851   -8.7923262    554.26099  0.011170113  0.010010489            4 
 4136000   0.58624886   -8.7864925    553.69039  0.011155915  0.010006869            2 
 4137000   0.59232475   -8.7946548    555.80547  0.011195824  0.010003255            1 
 4138000   0.58045988   -8.7997018    554.60931  0.011169029 0.0099996426            3 
 4139000   0.59400486   -8.7952309    554.05438  0.011155158 0.0099960314            5 
 4140000   0.59126526   -8.8121967    554.54138  0.011162266 0.0099924174            4 
 4141000   0.61198394   -8.7978729    554.34964  0.011155712 0.0099888078            2 
 4142000   0.59972051   -8.7977152    553.21314  0.011130153 0.0099851992            3 
 4143000   0.59110937   -8.7961187    553.89152  0.011141112 0.0099815929            2 
 4144000   0.59567675   -8.8077172    553.46089  0.011129764 0.0099779896            3 
 4145000   0.59576808   -8.7552803    554.55052  0.011148985  0.009974388            3 
 4146000   0.58448455   -8.7941347    554.41313  0.011143535 0.0099707903            6 
 4147000   0.58736639   -8.8077759    556.04704   0.01117368 0.0099671992            2 
 4148000   0.58251968   -8.8118547    553.78683  0.011125579 0.0099635988            3 
 4149000   0.59227229   -8.8015529    553.94675   0.01112611 0.0099600043            2 
 4150000   0.58722504    -8.804643    556.03557  0.011165373 0.0099564162            7 
 4151000   0.58145282   -8.8101821    554.44233  0.011130698 0.0099528233            3 
 4152000   0.58258047    -8.796771    553.19839  0.011103051 0.0099492333            3 
 4153000   0.60122775   -8.8075197     554.7004  0.011130516  0.009945643            6 
 4154000    0.5925141   -8.7941058    554.13083   0.01111641  0.009942056            4 
 4155000   0.59630058   -8.7826229    554.66441  0.011124437 0.0099384736            2 
 4156000   0.57548699   -8.7854709     554.7931   0.01112434 0.0099348907            3 
 4157000   0.59102321   -8.7725825     554.4662  0.011115111 0.0099313136            3 
 4158000   0.56420007   -8.7889026    554.76167   0.01111836 0.0099277402            5 
 4159000   0.59508927   -8.8294027    554.43485  0.011109138  0.009924164            5 
 4160000   0.58281952   -8.7861071    553.84996  0.011094751 0.0099205895            3 
 4161000   0.59211827   -8.7757194    554.90953  0.011113305 0.0099170196            6 
 4162000   0.59011539    -8.799762    554.91787  0.011110801 0.0099134462            6 
 4163000   0.59082396   -8.8053673    554.44452  0.011098657 0.0099098731            5 
 4164000   0.59490487   -8.7836858    554.32965  0.011093693 0.0099063092            5 
 4165000   0.57056795   -8.8160588    554.19748  0.011088385   0.00990274            4 
 4166000   0.58090434    -8.788655    553.31907  0.011068152 0.0098991745            6 
 4167000   0.58795955    -8.799812    553.30703  0.011065255 0.0098956079            4 
 4168000   0.58345975   -8.7936223    554.23995  0.011081253 0.0098920479            8 
 4169000   0.59162985   -8.7941015    554.73497   0.01108849 0.0098884851            6 
 4170000   0.57900956   -8.8043185    554.33292  0.011077796 0.0098849257            8 
 4171000   0.59676633   -8.7833868    555.34741  0.011095409 0.0098813706           10 
 4172000   0.58400921   -8.8093449    554.35863  0.011072999 0.0098778199            6 
 4173000   0.59253042   -8.7993654    555.64266  0.011095987 0.0098742597            4 
 4174000   0.58599592    -8.786637    553.85314  0.011057601 0.0098706983            3 
 4175000   0.59075531   -8.7955005    553.67836  0.011051464 0.0098671388           12 
 4176000   0.57399445   -8.7922461    555.02373  0.011075665 0.0098635822            5 
 4177000   0.59377643    -8.799448    553.53996  0.011043412 0.0098600255            4 
 4178000   0.58322242   -8.8075868    554.27929  0.011055515 0.0098564725            3 
 4179000    0.5882216   -8.8043493    553.88902  0.011045087 0.0098529165            4 
 4180000   0.57957129   -8.7941191    553.71316  0.011038939 0.0098493666            5 
 4181000   0.57941113   -8.8118582    553.81162  0.011038261 0.0098458181            4 
 4182000   0.57525374   -8.7852965    554.70947  0.011053512 0.0098422737            8 
 4183000   0.58985802    -8.800523    554.69138   0.01105051 0.0098387271            8 
 4184000   0.57362109   -8.7993765    554.25064   0.01103909 0.0098351821            9 
 4185000   0.59390247   -8.7940728    554.17997  0.011035045 0.0098316376            4 
 4186000   0.57412151   -8.7881954    553.73917  0.011023634 0.0098280918            7 
 4187000   0.59640074   -8.8087064    553.94594  0.011025116 0.0098245467            4 
 4188000   0.56714819   -8.8117219     554.2667  0.011028866 0.0098210072            1 
 4189000   0.58382567   -8.8034363    553.83599  0.011017665 0.0098174677            1 
 4190000   0.58492021   -8.7923698    553.86187   0.01101555 0.0098139305            4 
 4191000   0.57681495   -8.7913449    554.45294  0.011024675 0.0098103923            1 
 4192000   0.58030027    -8.803066    554.10897  0.011015207 0.0098068603            3 
 4193000   0.56877997   -8.8215455     553.1826  0.010994169 0.0098033315            3 
 4194000   0.57306047   -8.8128319     553.8856  0.011005516 0.0097998042            5 
 4195000   0.56582434   -8.7907375    553.39395  0.010993126  0.009796278            8 
 4196000   0.58018922   -8.8207328     553.7627  0.010997829 0.0097927517            2 
 4197000   0.57319349   -8.7991474    553.70421  0.010994048 0.0097892237            3 
 4198000    0.5936699   -8.8101325    553.57573  0.010988878 0.0097857036            2 
 4199000   0.58415887   -8.7911016    553.81979  0.010991105 0.0097821824            2 
 4200000   0.58299331   -8.7989445    554.28676  0.010997753 0.0097786625            6 
 4201000   0.57916348   -8.8049179    553.67292  0.010982959 0.0097751436            3 
 4202000   0.57256797   -8.7847969    554.24172  0.010991625 0.0097716265            3 
 4203000   0.58104497   -8.8214151    553.97501  0.010983722 0.0097681117            8 
 4204000   0.56950676   -8.8200918    554.44304  0.010990387 0.0097645948            9 
 4205000   0.58482889    -8.810079    553.70445  0.010973136 0.0097610811            8 
 4206000   0.58778457   -8.8224228     554.1918  0.010980183 0.0097575684            4 
 4207000   0.57747072   -8.8173009    553.40567  0.010962001 0.0097540585            7 
 4208000   0.58803863   -8.8172337     553.4423  0.010960121 0.0097505493           14 
 4209000   0.58809347   -8.8258722     553.2785  0.010954275 0.0097470408            6 
 4210000   0.57694744   -8.8026733    554.15034   0.01096893  0.009743535            2 
 4211000   0.58256481   -8.7977776    554.91829  0.010981522 0.0097400325            4 
 4212000   0.57906915   -8.7992818    553.73964  0.010955596 0.0097365325            2 
 4213000   0.56348857    -8.802944    553.73491  0.010952902 0.0097330302           11 
 4214000   0.57374417   -8.8028544    554.75706  0.010970516 0.0097295303           13 
 4215000   0.57122748   -8.7947647    554.11477  0.010955215 0.0097260318            8 
 4216000   0.57509206   -8.7933659     552.9109  0.010928821 0.0097225364            2 
 4217000   0.58903099    -8.791037    553.81728   0.01094414 0.0097190428            4 
 4218000   0.57672688   -8.8144988    553.64748  0.010938191 0.0097155512            5 
 4219000   0.57761617   -8.7985303    554.01637  0.010942885 0.0097120576            4 
 4220000   0.57500989   -8.8144761    553.95834  0.010939146  0.009708563            3 
 4221000   0.57407273   -8.8234146    553.79804  0.010933389 0.0097050723            4 
 4222000   0.56382712   -8.8140605    553.95762  0.010933949 0.0097015835            3 
 4223000   0.57196935   -8.8332453    554.58239  0.010943689  0.009698096            4 
 4224000   0.57351993   -8.8118509    552.81444  0.010906219 0.0096946075            4 
 4225000    0.5692218   -8.8377834    553.64071  0.010919935 0.0096911195            3 
 4226000   0.57926469   -8.7973113    552.52837  0.010895417 0.0096876327            4 
 4227000    0.5595768   -8.8155364    553.83595  0.010918617 0.0096841508            2 
 4228000   0.59289122   -8.8185701    553.90872  0.010917469 0.0096806641            1 
 4229000   0.57653673   -8.8232781    553.35152  0.010903908 0.0096771828            1 
 4230000   0.56475795   -8.8229293    553.38176  0.010901926 0.0096737015            3 
 4231000   0.56572448   -8.8273596    552.86112  0.010889095 0.0096702212            5 
 4232000   0.59473257   -8.8034333    553.52354  0.010899566 0.0096667406            2 
 4233000   0.57132624   -8.8233107    553.15164  0.010889669 0.0096632625            6 
 4234000   0.59172975   -8.8249246    553.15521  0.010887167 0.0096597839            7 
 4235000    0.5768174   -8.8231463    553.30577  0.010887559 0.0096563107            7 
 4236000   0.57237782   -8.8135489    553.90465  0.010896771 0.0096528353            3 
 4237000   0.58898796   -8.8347949     553.2811  0.010881935 0.0096493626            5 
 4238000   0.58426593   -8.8138006    553.72984  0.010888191 0.0096458937            5 
 4239000   0.57126324   -8.8240155    552.99263   0.01087113 0.0096424254            5 
 4240000   0.56804764   -8.8285507    554.11138  0.010890554 0.0096389622            4 
 4241000    0.5757936    -8.817986    553.91627  0.010884152 0.0096354998            2 
 4242000   0.56625032   -8.8283005    553.40995   0.01087164 0.0096320357            6 
 4243000   0.58038821   -8.8394719    552.35837  0.010848424 0.0096285718            6 
 4244000   0.58008376   -8.8287725    553.09145  0.010860263  0.009625108            4 
 4245000   0.56318358   -8.8134618    553.86976  0.010872983 0.0096216488            4 
 4246000   0.57754338   -8.8085456    553.70978  0.010867283 0.0096181934            2 
 4247000   0.57147916   -8.8221185    554.27844  0.010875882 0.0096147371            2 
 4248000   0.57141562    -8.808909    553.72405  0.010862446 0.0096112846            6 
 4249000   0.56332791    -8.845657    552.60122  0.010837868 0.0096078313            7 
 4250000   0.58092678   -8.8135247    553.44831  0.010851928 0.0096043791           12 
 4251000    0.5651107   -8.8183963    553.69829  0.010854275 0.0096009314            1 
 4252000   0.56773831   -8.8086992    551.94504  0.010817361 0.0095974833            3 
 4253000   0.56157886   -8.8309717    553.31115  0.010841585 0.0095940387            4 
 4254000   0.56645613   -8.8304084    552.62384  0.010825573 0.0095905946            4 
 4255000   0.57177537   -8.8055522     553.8556  0.010847152 0.0095871527           10 
 4256000   0.57713157   -8.8265133    553.86633  0.010844814 0.0095837095            3 
 4257000   0.56683298   -8.8193549       552.09  0.010807494 0.0095802657            7 
 4258000   0.56559248   -8.8240077    553.71309  0.010836721 0.0095768261           10 
 4259000   0.57492533   -8.8137599    553.69324  0.010833788 0.0095733907            7 
 4260000   0.55586153   -8.8289326    553.75159  0.010832386 0.0095699527            7 
 4261000   0.57430946   -8.8308594    552.66958  0.010808683   0.00956652            5 
 4262000   0.57198056   -8.8271672    553.56629   0.01082368 0.0095630868            3 
 4263000   0.57811122   -8.8171868    553.12439  0.010812503 0.0095596563            2 
 4264000   0.55955577   -8.8243572    552.42422  0.010796283 0.0095562212            5 
 4265000   0.56198066   -8.8303511    553.49671  0.010814707 0.0095527931            9 
 4266000   0.56841205    -8.829423    552.86348  0.010799802 0.0095493659            7 
 4267000   0.56849379   -8.8270005    553.25063  0.010804832 0.0095459388            3 
 4268000   0.57592313   -8.8331543    552.82531  0.010793996 0.0095425123            5 
 4269000   0.56654436   -8.8433678    551.99027  0.010775167 0.0095390877            4 
 4270000   0.56582761   -8.8170785    552.70888  0.010786668  0.009535668            5 
 4271000    0.5769045   -8.8213868    552.87971  0.010787476 0.0095322463            7 
 4272000   0.58121502   -8.8311078    553.78921  0.010802692 0.0095288276            6 
 4273000   0.55841851   -8.8366027    552.99529  0.010784681  0.009525412            6 
 4274000   0.56557921    -8.809653    553.11077  0.010784409 0.0095219917            3 
 4275000   0.55838379   -8.8328332    553.65707  0.010792536 0.0095185737            5 
 4276000   0.57540149   -8.8215305    553.58453  0.010788598 0.0095151612            8 
 4277000   0.55957308   -8.8414394    553.76375  0.010789567 0.0095117459            2 
 4278000   0.57044369   -8.8326836    552.37387  0.010759971 0.0095083328            3 
 4279000   0.57339058   -8.8223102    554.28838  0.010794741 0.0095049247            6 
 4280000   0.57070748   -8.8435353    553.54109  0.010777669 0.0095015187            7 
 4281000   0.57482606   -8.8430345    552.79219  0.010760574  0.009498108            5 
 4282000   0.57081786   -8.8115127    553.22712  0.010766525 0.0094947013            5 
 4283000   0.56866944   -8.8295404    553.10207  0.010761578 0.0094912946            6 
 4284000   0.56143259   -8.8352875    553.16959   0.01076038  0.009487893            4 
 4285000   0.56596637   -8.8382775    553.54343  0.010765139 0.0094844921            5 
 4286000   0.56395624   -8.8302506    554.19667  0.010775328 0.0094810926            9 
 4287000   0.54953396   -8.8405686    553.20402  0.010753519 0.0094776978            6 
 4288000   0.57484297   -8.8300141    552.89737  0.010745051 0.0094742998            3 
 4289000   0.56613818   -8.8273153    553.34591  0.010751261 0.0094709065           16 
 4290000   0.56185062   -8.8381734    553.09588  0.010743898 0.0094675161            4 
 4291000   0.56557356   -8.8450115    552.49778  0.010729779 0.0094641212            6 
 4292000   0.56968535   -8.8266996     552.9666  0.010736382 0.0094607296            3 
 4293000   0.55746689   -8.8410738    552.23909  0.010719759 0.0094573383            3 
 4294000   0.56375437   -8.8435287    552.29261  0.010718301 0.0094539489           10 
 4295000   0.56738501   -8.8363065    552.72527    0.0107242 0.0094505614            4 
 4296000   0.57120266   -8.8332786    552.24429  0.010712374 0.0094471771            2 
 4297000   0.56705659   -8.8425151    553.32456  0.010730831 0.0094437961            4 
 4298000   0.55203072   -8.8469311     553.0142  0.010722317 0.0094404137            4 
 4299000    0.5567405   -8.8418752     552.8841  0.010717301 0.0094370354            8 
 4300000   0.56511278   -8.8297348    553.57001  0.010728101 0.0094336563            3 
 4301000   0.57361486   -8.8382352    553.41946   0.01072269 0.0094302824            6 
 4302000   0.55921079   -8.8399888    552.44465  0.010701314 0.0094269085           10 
 4303000   0.55790711   -8.8240892     553.5375  0.010719992 0.0094235363            9 
 4304000   0.56822699   -8.8344131    553.43669  0.010715549 0.0094201644            7 
 4305000   0.55334803    -8.841879     552.8962  0.010702598 0.0094167945            7 
 4306000   0.55934749   -8.8229653    553.35964  0.010709081  0.009413422           10 
 4307000   0.55887963   -8.8410305    553.53159  0.010709922 0.0094100523            2 
 4308000   0.55259639   -8.8402522    552.60465  0.010689505 0.0094066875            5 
 4309000   0.55536274   -8.8237859    552.52206  0.010685427 0.0094033227            6 
 4310000   0.55451314   -8.8448157    552.30281  0.010678709 0.0093999605           13 
 4311000   0.56822751   -8.8486257    552.15894  0.010673451 0.0093965974            7 
 4312000   0.55771224   -8.8428244    552.86485  0.010684617 0.0093932342            7 
 4313000   0.55123857   -8.8490377    552.22652  0.010669807 0.0093898757            9 
 4314000   0.55515072   -8.8390477    552.99647  0.010682207 0.0093865185            8 
 4315000   0.57294939   -8.8586062    553.43833  0.010688264 0.0093831631            7 
 4316000   0.56009779   -8.8199831    552.41523  0.010666034 0.0093798074            9 
 4317000   0.56000763   -8.8514203    552.80856  0.010671156 0.0093764521           12 
 4318000   0.56385737   -8.8354544    551.95827  0.010652275 0.0093730919            7 
 4319000   0.55479139    -8.837168    552.89145  0.010667814 0.0093697357            3 
 4320000    0.5621202   -8.8455136    553.18192  0.010670947 0.0093663836            5 
 4321000   0.56378284   -8.8364393    552.53858  0.010656071 0.0093630299            6 
 4322000   0.56296388   -8.8358186    553.02407  0.010662966 0.0093596802            2 
 4323000   0.55626636   -8.8570629    553.00999  0.010660228 0.0093563347            4 
 4324000   0.54799549   -8.8537317    552.60204  0.010649901  0.009352985            6 
 4325000   0.55681766    -8.820675    552.22432   0.01064016 0.0093496385            4 
 4326000   0.55462834    -8.833805    552.08757  0.010635066 0.0093462944            5 
 4327000   0.56711702   -8.8284439    552.46558  0.010639889 0.0093429536            6 
 4328000   0.55709511   -8.8504505    553.30748  0.010653641 0.0093396111            7 
 4329000   0.55806689   -8.8379258    553.11001  0.010647378 0.0093362703            8 
 4330000   0.56612993    -8.847434    552.04201  0.010624365   0.00933293            7 
 4331000   0.55099755   -8.8645135    552.79888  0.010636475 0.0093295871            6 
 4332000    0.5487394   -8.8478969    552.03618  0.010619348 0.0093262458            7 
 4333000   0.55336042   -8.8395051    552.57607   0.01062728  0.009322908            4 
 4334000   0.56225078   -8.8476281    552.79756  0.010629087 0.0093195756            4 
 4335000   0.55372445   -8.8553458    552.67278  0.010624236 0.0093162435            3 
 4336000   0.55983998   -8.8486903     551.5653  0.010600502 0.0093129103            3 
 4337000   0.56116275   -8.8654365    552.21796  0.010610598 0.0093095807            2 
 4338000   0.55010581   -8.8433733    552.38419  0.010611345 0.0093062542            6 
 4339000   0.56667392   -8.8709071     551.3146  0.010588358 0.0093029262            6 
 4340000   0.56366571   -8.8663044    552.68964   0.01061232 0.0092995968            5 
 4341000   0.56776136   -8.8446997    551.99514  0.010596543 0.0092962722            3 
 4342000   0.55201275   -8.8455789    552.44861  0.010602806 0.0092929496            5 
 4343000   0.54740956   -8.8632284    552.73437  0.010605848 0.0092896288            5 
 4344000   0.54566033   -8.8506229    551.86372  0.010586704 0.0092863091            5 
 4345000   0.55362761   -8.8803098    552.89358   0.01060402 0.0092829878            3 
 4346000   0.55735811   -8.8604141     551.9913  0.010584279  0.009279667            3 
 4347000   0.55719046   -8.8400922    552.70564  0.010595538 0.0092763507            5 
 4348000   0.56338427   -8.8654979    552.34455  0.010586181 0.0092730378            6 
 4349000   0.57480874   -8.8575248    551.90047  0.010575237 0.0092697269            3 
 4350000    0.5596338    -8.856633    552.01475  0.010574995  0.009266418            7 
 4351000   0.55492146   -8.8525853    552.69735  0.010585638 0.0092631039            6 
 4352000   0.54368923   -8.8571514    552.15918  0.010572901  0.009259797            3 
 4353000   0.54783834   -8.8556708    551.79008  0.010563406 0.0092564894            2 
 4354000   0.55830157   -8.8546585    552.39043   0.01057247 0.0092531835            4 
 4355000   0.56413195   -8.8379215    552.50747  0.010572282 0.0092498781            5 
 4356000   0.55470219   -8.8633404    553.32609  0.010585516 0.0092465746            1 
 4357000   0.56547915   -8.8738236    551.40951  0.010546429 0.0092432682            5 
 4358000   0.56236667   -8.8538307    552.28939  0.010560834 0.0092399682            3 
 4359000   0.55691512    -8.883071    551.94827   0.01055189 0.0092366657           10 
 4360000   0.55783807   -8.8657096    552.58753  0.010561688 0.0092333654            6 
 4361000   0.55574236   -8.8450822    552.52672  0.010558104 0.0092300702            3 
 4362000   0.56074627   -8.8670265    552.42773  0.010553793 0.0092267752            4 
 4363000   0.55071658   -8.8518605    551.92241  0.010541722 0.0092234844            6 
 4364000   0.55836288   -8.8497696    551.52011  0.010531625 0.0092201943            5 
 4365000   0.55096577   -8.8630098    552.39793   0.01054597 0.0092169071            5 
 4366000   0.55292924    -8.863112    552.30649   0.01054181 0.0092136155            9 
 4367000   0.54815742   -8.8624943    551.97155  0.010533004 0.0092103251            6 
 4368000   0.55118987   -8.8394892     551.7468  0.010526305 0.0092070358           13 
 4369000   0.55827432   -8.8357159    551.67554  0.010522536 0.0092037503            3 
 4370000   0.56987461    -8.862757     552.0262  0.010526815  0.009200467            8 
 4371000    0.5529717   -8.8779284    552.27807  0.010529209 0.0091971839            7 
 4372000   0.54879719   -8.8503269    552.61611  0.010533244 0.0091939016            7 
 4373000   0.54883149    -8.872367    552.22107  0.010523307 0.0091906236            8 
 4374000   0.55309535   -8.8641011    552.32673  0.010522914 0.0091873462            7 
 4375000   0.54664713   -8.8514741     552.1928  0.010517958 0.0091840675            6 
 4376000   0.54931193   -8.8802835    551.73172  0.010506774 0.0091807885            7 
 4377000   0.55764462   -8.8762304    552.29052  0.010515013 0.0091775147            5 
 4378000   0.56126165   -8.8565213     551.3169  0.010494078 0.0091742437            6 
 4379000    0.5585157   -8.8502149    552.85298  0.010520914 0.0091709773           10 
 4380000   0.55061942   -8.8720849    551.90749  0.010500523 0.0091677043           10 
 4381000   0.56050288   -8.8694489    552.43879  0.010508232 0.0091644388            5 
 4382000   0.53634258   -8.8529029    552.13978  0.010500148 0.0091611697            5 
 4383000   0.54420781   -8.8681004     552.4157  0.010502998 0.0091579012            7 
 4384000   0.55177967   -8.8654482    551.85983  0.010490036 0.0091546347            9 
 4385000   0.55323837   -8.8678228    551.97093  0.010489755 0.0091513706            6 
 4386000   0.54208581   -8.8664024    552.85691  0.010504197 0.0091481077            6 
 4387000   0.54888741   -8.8770006    551.87457  0.010483143 0.0091448446            4 
 4388000   0.54642806   -8.8796533    552.55071  0.010493595 0.0091415841            5 
 4389000   0.54944509   -8.8680472    552.24993  0.010485493 0.0091383188            5 
 4390000   0.55242945   -8.8819136    552.67531  0.010491179 0.0091350613            7 
 4391000   0.55170993   -8.8689604    552.76433  0.010490479 0.0091318022            6 
 4392000   0.54262139   -8.8801844    552.23189  0.010477988 0.0091285457            7 
 4393000   0.53846762   -8.8594534    552.66416  0.010483803  0.009125293            3 
 4394000   0.55893845     -8.87335    551.37813  0.010457027 0.0091220383            6 
 4395000   0.54144465   -8.8712609    552.58048  0.010477446 0.0091187856            7 
 4396000   0.53502179   -8.8853612     552.0429  0.010464871 0.0091155357            4 
 4397000   0.54718859   -8.8753111    552.15983  0.010464707 0.0091122923            8 
 4398000   0.54727719   -8.8961251    551.79253  0.010455369 0.0091090408            9 
 4399000    0.5514612   -8.8709735    551.90356  0.010455095 0.0091057958            5 
 4400000   0.54873764   -8.8677748    551.07894  0.010437101 0.0091025524            5 
 4401000   0.54563032   -8.8658538    551.53219  0.010443312 0.0090993083            4 
 4402000   0.54418149   -8.8710307    552.55904  0.010460379 0.0090960645            3 
 4403000   0.54528352   -8.8733231    552.01421  0.010447691 0.0090928258            8 
 4404000   0.55422706   -8.8683108    551.11896  0.010428379 0.0090895874            5 
 4405000   0.55402304   -8.8831687    551.62909  0.010435662 0.0090863529            5 
 4406000   0.55674392   -8.8734147    552.29794  0.010445944 0.0090831171            5 
 4407000   0.55685195   -8.8933256    551.94831  0.010436962  0.009079885            9 
 4408000    0.5467448   -8.8915829    552.41805  0.010443475 0.0090766527            5 
 4409000   0.54504344    -8.872564    551.72171  0.010427945 0.0090734234            6 
 4410000   0.54386105   -8.8836043    551.93822  0.010429672 0.0090701958            6 
 4411000   0.54417516    -8.873896    551.83967  0.010425445 0.0090669695            8 
 4412000   0.54769844   -8.8721202    551.69713   0.01042039 0.0090637426            6 
 4413000   0.54198588    -8.880822      551.777  0.010419537 0.0090605182            4 
 4414000   0.54383372   -8.8855001    551.16804   0.01040568 0.0090572938           10 
 4415000   0.53997702   -8.8659982    552.47567  0.010428004 0.0090540709            7 
 4416000     0.546821   -8.8713755       553.02  0.010435915 0.0090508502            3 
 4417000   0.53866245   -8.8637389    551.29536  0.010401014 0.0090476314            2 
 4418000   0.54520558   -8.8912342    551.12918  0.010395526 0.0090444124            6 
 4419000    0.5512962   -8.8725937    552.06504  0.010410821 0.0090411988            3 
 4420000   0.54926848   -8.8852312    550.75222  0.010383714 0.0090379892            5 
 4421000   0.54629455   -8.8802318    551.71641   0.01039954 0.0090347797            4 
 4422000    0.5469121   -8.8733596    552.13952  0.010405162 0.0090315712            6 
 4423000   0.54280491   -8.8769931    552.78621  0.010414994  0.009028363            2 
 4424000   0.54086934   -8.8632056    551.46189  0.010387694 0.0090251575            3 
 4425000   0.54312381   -8.8777702    551.80485  0.010391805 0.0090219516            4 
 4426000    0.5417335   -8.8589068    551.73189  0.010388084 0.0090187503            7 
 4427000   0.54450256   -8.8643217    552.67128   0.01040342 0.0090155475            5 
 4428000   0.53677167   -8.8696831    551.89197  0.010386404 0.0090123469           10 
 4429000   0.53434206   -8.8778521    552.08213  0.010387637   0.00900915            3 
 4430000   0.53862667   -8.8746842    552.13226  0.010386235 0.0090059509            2 
 4431000   0.53863894   -8.8674634    551.48336  0.010371687 0.0090027517            3 
 4432000   0.54157046   -8.8739616    551.97177  0.010378531 0.0089995543            8 
 4433000   0.56191957   -8.8687973    551.59977  0.010369196 0.0089963603            1 
 4434000   0.54459319   -8.8794887    551.99644  0.010374313 0.0089931651            7 
 4435000   0.53841377   -8.8810675    552.70408   0.01038527 0.0089899685            5 
 4436000   0.53898881   -8.8810496    551.40258   0.01035848  0.008986777            7 
 4437000   0.55647495   -8.8877967    551.72922   0.01036228 0.0089835878            4 
 4438000   0.52866351   -8.8691964    553.45854  0.010392417 0.0089803989            3 
 4439000   0.55763891   -8.8652184    551.57166  0.010354653 0.0089772128            8 
 4440000   0.54933185   -8.8631042    551.63052  0.010353426 0.0089740288            5 
 4441000   0.54051301   -8.8763499    552.50599  0.010367522 0.0089708444            3 
 4442000   0.54495281   -8.8668291    552.03326   0.01035632 0.0089676631            5 
 4443000   0.52824299   -8.8738131    551.70191  0.010347774 0.0089644804            3 
 4444000   0.54371508   -8.8820547    551.72684  0.010345913 0.0089612984            5 
 4445000   0.54469834   -8.9006422    551.69661  0.010343019 0.0089581206            5 
 4446000   0.54243481   -8.9039769    551.63499  0.010339537 0.0089549419           10 
 4447000   0.54970319    -8.880088    551.76633  0.010339673 0.0089517664            4 
 4448000   0.54372191   -8.8707595    552.04596  0.010342588 0.0089485923            4 
 4449000   0.53017489   -8.8705649    551.95043  0.010338474 0.0089454207            4 
 4450000   0.53683415   -8.8782907    551.84499  0.010334176 0.0089422482            4 
 4451000   0.54739616   -8.8857512    551.57197  0.010326743 0.0089390761            3 
 4452000   0.52768367   -8.8800701    552.09235  0.010334163 0.0089359084            6 
 4453000    0.5457383   -8.8609394    551.79912  0.010326355 0.0089327377            4 
 4454000   0.54073427   -8.8799569     552.4615   0.01033643 0.0089295727            4 
 4455000   0.53806929   -8.8984149    551.15185  0.010309612  0.008926406            8 
 4456000   0.53729794   -8.8643126    550.96719  0.010303845 0.0089232416            4 
 4457000   0.54026208   -8.8746623    551.48311  0.010311179 0.0089200825            7 
 4458000   0.54422188   -8.8812439    551.14205  0.010302491  0.008916925            5 
 4459000   0.53694115   -8.8917602    552.06132   0.01031736   0.00891377            3 
 4460000   0.54937897   -8.8865508    551.63688  0.010307117 0.0089106188            2 
 4461000   0.52004249   -8.8775105    551.97712  0.010311162 0.0089074655           12 
 4462000   0.54611049   -8.8742657    552.02385  0.010309724 0.0089043114            4 
 4463000   0.53801203   -8.8916199    550.86553  0.010285785  0.008901158            2 
 4464000   0.54178971   -8.8836024    551.48231  0.010294995 0.0088980078            4 
 4465000   0.52608386   -8.8883129    551.92614  0.010300973  0.008894858            5 
 4466000   0.53603531   -8.8736726    550.98895  0.010281179 0.0088917096            3 
 4467000   0.54247333    -8.887832    551.70747  0.010292282 0.0088885632            6 
 4468000   0.53899831   -8.9038883    551.77076  0.010291159 0.0088854186            5 
 4469000    0.5367579   -8.8899378    551.44956  0.010282866 0.0088822799            5 
 4470000   0.53664607    -8.868589    552.30225  0.010296463  0.008879139           11 
 4471000   0.53009735   -8.9027838     552.0226  0.010288947 0.0088759985            6 
 4472000   0.53415969   -8.8896689    552.14096  0.010288852 0.0088728565            6 
 4473000   0.52761569   -8.8758056    551.08533  0.010266885 0.0088697169            5 
 4474000   0.53261186   -8.8922433    551.66112  0.010275315 0.0088665803            5 
 4475000   0.53759875   -8.9072817    551.87036  0.010276915 0.0088634474            6 
 4476000   0.52830147   -8.9064233    550.68658   0.01025258 0.0088603128            4 
 4477000   0.53738998   -8.8953707    551.65668  0.010268347 0.0088571798            5 
 4478000   0.52718055   -8.9008022     551.7909  0.010268552 0.0088540459            7 
 4479000   0.52262827   -8.8768978    551.79148   0.01026627 0.0088509119            4 
 4480000   0.53258427   -8.8780285    552.07865   0.01026932 0.0088477842            4 
 4481000   0.54700138   -8.8848103    551.84497  0.010262683 0.0088446595            6 
 4482000    0.5304952   -8.8603586    552.08485  0.010264853 0.0088415366            9 
 4483000   0.52826338   -8.8741298    552.20406  0.010264779 0.0088384108            4 
 4484000   0.53580383    -8.893016    551.28791  0.010245464 0.0088352894            6 
 4485000   0.53139967   -8.8766152    550.94644  0.010236835 0.0088321689            2 
 4486000   0.53863225   -8.8737075    552.13063  0.010256551 0.0088290455            4 
 4487000   0.53264208    -8.913959    551.15368  0.010236121 0.0088259245            3 
 4488000   0.52965795    -8.880985    551.52883  0.010240806 0.0088228087            4 
 4489000    0.5436692    -8.892891    551.18641  0.010232168 0.0088196908           17 
 4490000   0.53105277   -8.9061426    551.04654  0.010227293  0.008816574            7 
 4491000   0.54873722   -8.8708038    552.41556  0.010250419 0.0088134582            6 
 4492000   0.53365503    -8.908074    550.81259  0.010218399 0.0088103437            6 
 4493000   0.53542597   -8.8806344    550.71893  0.010214388  0.008807235           14 
 4494000   0.52705724   -8.8855444    552.09889  0.010237704 0.0088041256            7 
 4495000   0.53164109   -8.8903091    551.40058   0.01022248 0.0088010161            8 
 4496000   0.53218505   -8.8970282    551.72805  0.010226276   0.00879791            8 
 4497000    0.5249451   -8.8739001    551.39149  0.010217765 0.0087948029            8 
 4498000   0.52701003   -8.8966647    551.17665  0.010211513 0.0087916991            9 
 4499000   0.53460344   -8.9078841    550.58171  0.010198224  0.008788593            3 
 4500000   0.52479666   -8.8864387    552.20306  0.010225983 0.0087854898            3 
 4501000   0.52557137   -8.8782166    551.14127  0.010204052 0.0087823861            6 
 4502000   0.53441682   -8.8910463    551.20515  0.010202968 0.0087792843            4 
 4503000   0.53063053   -8.9075451    551.90453  0.010213645 0.0087761856            7 
 4504000   0.52834519   -8.8841336    551.32235  0.010200606 0.0087730889            4 
 4505000   0.53656014   -8.8981458     551.6141  0.010203739 0.0087699907            6 
 4506000   0.53998256   -8.9178479    551.48762  0.010199135 0.0087668949            5 
 4507000   0.52845496   -8.9064761    550.87923  0.010185623 0.0087638028            3 
 4508000   0.52430363   -8.8960007    551.03174  0.010186183 0.0087607093            7 
 4509000   0.52802684   -8.8940318    550.91432  0.010181754 0.0087576208            8 
 4510000   0.52749356   -8.9026203    551.09992  0.010182925 0.0087545346            5 
 4511000   0.53226201   -8.9090962    551.06996  0.010180115 0.0087514502           12 
 4512000   0.52473065   -8.8928926    550.92792  0.010175235 0.0087483652            6 
 4513000   0.52687969   -8.9011704    551.29399   0.01017974 0.0087452822            8 
 4514000   0.53450672   -8.8918653    551.84564  0.010187669 0.0087422021            6 
 4515000    0.5333341   -8.9072761     551.1678  0.010172901 0.0087391212           10 
 4516000   0.54452268   -8.8894557    552.02921  0.010186544 0.0087360445            7 
 4517000    0.5280348   -8.8791773     551.0044  0.010165383 0.0087329669            9 
 4518000   0.53478542   -8.8929363    550.60665  0.010155796 0.0087298876           11 
 4519000   0.54290139   -8.9203005    551.03017  0.010161359 0.0087268129            7 
 4520000   0.52967976   -8.8875113    551.57149  0.010169091 0.0087237399            9 
 4521000   0.52940261   -8.8920389    551.12978    0.0101587 0.0087206676            6 
 4522000    0.5289148   -8.8918981    550.93172  0.010152803 0.0087175963            5 
 4523000   0.52289066   -8.8868017    552.17741   0.01017351 0.0087145262            5 
 4524000   0.54148018    -8.877943    551.49603   0.01015871 0.0087114605            8 
 4525000   0.53180971   -8.9045495    551.57015   0.01015783 0.0087083935            6 
 4526000   0.52333772   -8.9067702    551.26439  0.010149956 0.0087053283            5 
 4527000   0.52182355   -8.9083507    551.48171  0.010151714 0.0087022601            8 
 4528000   0.53451979   -8.8918824    551.35651  0.010147168 0.0086991956            7 
 4529000   0.53494451   -8.8918757    551.77392  0.010152608 0.0086961338            6 
 4530000   0.53483882   -8.9197396    550.13272  0.010120175  0.008693074           10 
 4531000   0.52864144   -8.8942443    551.43645   0.01014192 0.0086900134            9 
 4532000    0.5336269   -8.9002487    551.07156  0.010132972 0.0086869547            9 
 4533000   0.52242315   -8.9026408    550.55692  0.010121276 0.0086838992            5 
 4534000   0.53317415   -8.8960432    551.62552  0.010138684 0.0086808445            6 
 4535000   0.52137852   -8.9016883     551.9082  0.010141643 0.0086777923            5 
 4536000   0.52726837   -8.8960549    550.72887  0.010117741 0.0086747388            5 
 4537000    0.5404126   -8.8973739    551.32942  0.010126541 0.0086716908            6 
 4538000   0.52528073   -8.9057642    550.31855  0.010105747  0.008668644           16 
 4539000   0.52513025    -8.890792    550.91878   0.01011454 0.0086655946            8 
 4540000   0.51279058   -8.8832566    552.26718  0.010137063 0.0086625524            6 
 4541000   0.51849583    -8.903717    551.06162  0.010112707 0.0086595099            3 
 4542000   0.52961564   -8.9021842    551.03714  0.010110031 0.0086564639            6 
 4543000   0.52576036   -8.8882924    550.66164  0.010100918 0.0086534215            3 
 4544000   0.51850012   -8.8955777    551.84583  0.010120412 0.0086503828           10 
 4545000   0.51661652    -8.908384    551.06863  0.010103935 0.0086473432            7 
 4546000   0.52705292   -8.8925143    551.28488  0.010105677 0.0086443046            9 
 4547000   0.54138382   -8.8879627    552.07702  0.010117972 0.0086412696            7 
 4548000   0.52856811   -8.9075831     551.0764  0.010097413 0.0086382362            7 
 4549000   0.53704487   -8.9145774    551.64685  0.010105643 0.0086352029            8 
 4550000   0.52171993   -8.8916039    552.21363  0.010113803 0.0086321699            9 
 4551000   0.52211518   -8.9019311     551.5924  0.010100205 0.0086291397           11 
 4552000   0.52702395    -8.909276     550.9917  0.010086989 0.0086261108           10 
 4553000   0.51931145   -8.9049096    550.99261   0.01008479  0.008623082           12 
 4554000    0.5187794   -8.9036651    550.33723  0.010070583 0.0086200572           12 
 4555000   0.52582208    -8.914558    551.56922  0.010090911 0.0086170325           12 
 4556000   0.52481493   -8.8979864    551.16224  0.010081253 0.0086140106            9 
 4557000   0.52066363    -8.898091    551.10909  0.010078068 0.0086109904            8 
 4558000    0.5331904   -8.9145259    550.97087   0.01007333 0.0086079715           11 
 4559000   0.50537219   -8.9018079    551.00628  0.010071768  0.008604954           13 
 4560000   0.53241069   -8.9069203    551.41032  0.010076943  0.008601938           11 
 4561000   0.52629189     -8.90925    550.82713  0.010064078 0.0085989217           12 
 4562000   0.52077245   -8.8958119    551.69548  0.010077734 0.0085959073           11 
 4563000   0.53095734   -8.8888813    551.21549   0.01006676 0.0085928942            6 
 4564000   0.51608014   -8.9036334    551.90787  0.010077196  0.008589887           10 
 4565000   0.51350076   -8.9103998    549.95698  0.010039375 0.0085868782           13 
 4566000   0.52604047   -8.8887462    550.85218  0.010053515 0.0085838706            7 
 4567000    0.5217906   -8.9205711    550.61532  0.010046991 0.0085808638           10 
 4568000   0.51192046   -8.8897136    551.36933  0.010058547 0.0085778602            6 
 4569000   0.53869053   -8.9125117    551.11396  0.010051688 0.0085748551            6 
 4570000   0.51394898   -8.8912165    552.72937  0.010078945  0.008571851           11 
 4571000   0.51576315   -8.9008579    550.03194  0.010027564   0.00856885           11 
 4572000   0.52126445   -8.9058496    551.04444  0.010043826 0.0085658487           12 
 4573000   0.51663775   -8.8993045     551.1853  0.010044196 0.0085628479           16 
 4574000   0.51866665   -8.9116821     550.1916  0.010023896 0.0085598503            9 
 4575000   0.51824887   -8.8980004    550.72388    0.0100314 0.0085568517           10 
 4576000    0.5089919   -8.9083624     551.1613  0.010037174 0.0085538527           12 
 4577000   0.51741039   -8.9278603    551.18815   0.01003547 0.0085508586            9 
 4578000   0.51963368   -8.9173524    550.47011  0.010020207 0.0085478658           12 
 4579000   0.51920372   -8.9094158    550.70347  0.010022266  0.008544872            6 
 4580000   0.51896101   -8.9184448    551.52435  0.010035014 0.0085418798           13 
 4581000   0.51427801   -8.9046805    550.98527  0.010023017  0.008538889            9 
 4582000   0.51474596   -8.9139724     550.9684  0.010020522 0.0085359039            9 
 4583000   0.52021391    -8.916429    552.10098   0.01003893 0.0085329178           11 
 4584000   0.52073332   -8.9194914    551.65872    0.0100287 0.0085299321           12 
 4585000   0.52330091   -8.9198432    551.18063  0.010017823 0.0085269494           11 
 4586000   0.51300271   -8.9017075     550.7196  0.010007261 0.0085239683           10 
 4587000   0.51212694   -8.8920015    551.35666  0.010016653 0.0085209854            6 
 4588000    0.5164482   -8.9254696    551.50758  0.010017211 0.0085180047            7 
 4589000    0.5104308   -8.9234663    551.37775  0.010012671 0.0085150234           14 
 4590000   0.51015509   -8.9176323    550.96522     0.010003 0.0085120418            7 
 4591000   0.52077771   -8.9356648    550.24163 0.0099876866 0.0085090626            7 
 4592000   0.50824184   -8.9159098    550.49959  0.009990193 0.0085060873            8 
 4593000   0.51775453   -8.9202509    550.18091 0.0099822358 0.0085031093            7 
 4594000   0.52166659   -8.9328492    551.18172 0.0099982172 0.0085001361           10 
 4595000   0.51767417   -8.9338839    551.34772  0.009999052 0.0084971652            9 
 4596000   0.51122321   -8.9007775     550.6802  0.009984773 0.0084941944           11 
 4597000    0.5231004   -8.9146369    551.92119  0.010005097 0.0084912246            5 
 4598000   0.51118736   -8.9188943    551.47221 0.0099947842  0.008488257            8 
 4599000   0.53147321   -8.9038403    550.86514 0.0099816109  0.008485289           10 
 4600000   0.51864852   -8.9067526    550.78357 0.0099779633 0.0084823236            8 
 4601000   0.51852156   -8.9170939    550.88789 0.0099776841 0.0084793587            9 
 4602000   0.51052199   -8.9234919    551.21823 0.0099814978 0.0084763979            8 
 4603000   0.52284833   -8.9273208    550.90002 0.0099735683 0.0084734374           10 
 4604000   0.52437361   -8.9194029    551.00723 0.0099733426 0.0084704798            5 
 4605000   0.52667045   -8.9125292    550.65325 0.0099647711 0.0084675181           11 
 4606000   0.51212704    -8.933135    550.19021 0.0099542302 0.0084645615           10 
 4607000   0.51610697   -8.9124821    551.34246  0.009972912 0.0084616055           10 
 4608000   0.51417817   -8.9270452     551.0137 0.0099648022 0.0084586504           10 
 4609000   0.50677737   -8.9161991    550.96462 0.0099617527  0.008455699            7 
 4610000   0.51427039   -8.9194926    550.44767 0.0099502471 0.0084527425            8 
 4611000    0.5235571   -8.9299711     551.3282 0.0099640027 0.0084497905           10 
 4612000   0.53457153   -8.9205364    550.32175 0.0099436569 0.0084468372            6 
 4613000   0.50753255   -8.9221227    550.08674  0.009937256 0.0084438878           13 
 4614000    0.5082704   -8.9067952    550.81569 0.0099482677 0.0084409384           10 
 4615000   0.51028218   -8.9168805     550.4508 0.0099395232 0.0084379881           11 
 4616000   0.51780738   -8.9369401    551.08457 0.0099488116 0.0084350388           15 
 4617000   0.50482415    -8.948422    550.53708  0.009936775  0.008432093            9 
 4618000   0.50994219   -8.9147531    550.40195 0.0099321847 0.0084291487            2 
 4619000    0.5196865   -8.9135165    550.88187 0.0099386928 0.0084262077            7 
 4620000    0.5166411   -8.9203376    550.15505 0.0099234316 0.0084232649            8 
 4621000   0.51269611   -8.9196842    551.06652 0.0099377214 0.0084203249           11 
 4622000   0.50777301   -8.9319216    550.74681 0.0099298069 0.0084173855            8 
 4623000   0.50111061   -8.9154319    551.05181 0.0099331569 0.0084144473            8 
 4624000    0.5121286    -8.939512    549.78605 0.0099081973 0.0084115116           11 
 4625000   0.49284875    -8.932136    550.34972 0.0099162112 0.0084085744            7 
 4626000   0.51180446   -8.9139277    550.51658 0.0099170734 0.0084056401            9 
 4627000   0.51620015   -8.9160051    550.23472 0.0099098537 0.0084027039            5 
 4628000   0.51398043   -8.9231316    550.63436 0.0099149086 0.0083997697            7 
 4629000   0.50658275   -8.9219632    551.08806 0.0099209343 0.0083968411            5 
 4630000   0.52187024   -8.9462689    550.70887 0.0099119667 0.0083939117            7 
 4631000   0.51725368   -8.9185294    550.39745 0.0099042224  0.008390983            9 
 4632000   0.49851262   -8.9176167    551.06756 0.0099141401 0.0083880546            9 
 4633000   0.52395184   -8.9471367    550.49766 0.0099017495  0.008385131            9 
 4634000   0.51440336   -8.9174111    549.96912  0.009890108 0.0083822033           10 
 4635000   0.51086383   -8.9083945    550.63811 0.0099000019 0.0083792785           17 
 4636000   0.50642053   -8.9331523    550.75424  0.009899954 0.0083763555            6 
 4637000   0.51638363   -8.9285996    550.56479 0.0098944144 0.0083734333           10 
 4638000    0.5078624   -8.9056321    550.19108 0.0098855663 0.0083705137            7 
 4639000   0.51059446   -8.9348502    550.87611 0.0098957411 0.0083675957            6 
 4640000   0.51158835    -8.924006    550.47558 0.0098864148 0.0083646768            5 
 4641000   0.51774236    -8.921864    550.42778 0.0098834263 0.0083617593           12 
 4642000   0.52223175   -8.9294323    550.75627 0.0098871943 0.0083588452            9 
 4643000   0.49757561   -8.9298788    549.39018  0.009860546 0.0083559307            8 
 4644000   0.51554894   -8.9226409    550.77222 0.0098832225 0.0083530174            8 
 4645000   0.50014602   -8.9291699    551.59123  0.009895788 0.0083501074           11 
 4646000   0.51160082   -8.9120991    550.46955 0.0098735391 0.0083471977            7 
 4647000   0.52592275   -8.9314088    550.50738 0.0098720928 0.0083442899            9 
 4648000   0.51260679   -8.9355157    550.38889 0.0098678444 0.0083413846            4 
 4649000   0.51452978   -8.9282097    550.79659 0.0098730299 0.0083384782           11 
 4650000   0.50599642    -8.939988    550.03674 0.0098572892 0.0083355749            5 
 4651000   0.51124402   -8.9291644     550.7034 0.0098671145 0.0083326738            9 
 4652000   0.50527507    -8.920082    551.20517  0.009873982 0.0083297725            7 
 4653000   0.51156119   -8.9338163    549.82158 0.0098470804 0.0083268757            6 
 4654000   0.51014936   -8.9326467    550.35104  0.009854445 0.0083239776           10 
 4655000    0.5122441    -8.942517    549.43106 0.0098358585 0.0083210805            7 
 4656000   0.50232059   -8.9263121    550.28593 0.0098490466 0.0083181826            7 
 4657000   0.50624974   -8.9266662    549.57441 0.0098341996 0.0083152863            8 
 4658000   0.51006364   -8.9304045     550.9626 0.0098569236 0.0083123926            7 
 4659000    0.5068904   -8.9345878    550.14859 0.0098402482 0.0083094994            8 
 4660000   0.50816304   -8.9474987    551.01878 0.0098536978 0.0083066071            8 
 4661000   0.50869272   -8.9448001    550.33339 0.0098393298 0.0083037135           13 
 4662000   0.51056423   -8.9329956    551.01084 0.0098493286 0.0083008245           11 
 4663000    0.5126219   -8.9512852     550.3444 0.0098353064  0.008297937            7 
 4664000   0.50221452   -8.9337732    551.04444 0.0098457054 0.0082950519            6 
 4665000   0.50798676   -8.9416573    550.31902 0.0098306363 0.0082921669            8 
 4666000   0.50259584   -8.9458975     549.6956 0.0098173953 0.0082892817            6 
 4667000   0.50897358   -8.9326483    550.40228 0.0098279102 0.0082863996            7 
 4668000   0.50353441   -8.9461189    550.88119 0.0098343543  0.008283517            9 
 4669000   0.51184513   -8.9341998    550.61737 0.0098275392 0.0082806406            8 
 4670000   0.49298108   -8.9305845    550.23623 0.0098186336 0.0082777637           11 
 4671000   0.50630754   -8.9387569    549.60023 0.0098051849 0.0082748874            5 
 4672000    0.4988875   -8.9358685     551.1511 0.0098307488 0.0082720129            8 
 4673000   0.50679866   -8.9321253    549.71425 0.0098030218 0.0082691387            7 
 4674000    0.4974628   -8.9628544    550.45071 0.0098140548 0.0082662628            6 
 4675000   0.50477274   -8.9264201    550.71303 0.0098166315 0.0082633889            4 
 4676000   0.50925135   -8.9332227    549.67297 0.0097959968 0.0082605193            6 
 4677000   0.51493016    -8.925262     549.8022 0.0097962049 0.0082576506            9 
 4678000   0.50158512   -8.9342971    550.36759 0.0098041825 0.0082547841            8 
 4679000   0.50173323   -8.9390227    551.16102 0.0098162182 0.0082519183            9 
 4680000   0.50391521   -8.9426207    549.69985 0.0097881027 0.0082490532            6 
 4681000    0.5083781   -8.9314806    549.76179 0.0097871145 0.0082461884           12 
 4682000   0.49744349   -8.9397168    550.72185 0.0098021119 0.0082433241           12 
 4683000   0.49678597   -8.9320139    550.89167 0.0098030407 0.0082404629            8 
 4684000   0.50785512   -8.9242928    551.34367 0.0098089892 0.0082375995           11 
 4685000   0.50199587   -8.9460885    550.84562 0.0097980366 0.0082347421            9 
 4686000   0.49286791   -8.9265217    549.67885 0.0097751965 0.0082318828            8 
 4687000    0.4956025   -8.9362307    550.33908 0.0097848496 0.0082290242           12 
 4688000   0.50356048   -8.9364784    550.12535 0.0097789631 0.0082261674            8 
 4689000   0.48684271   -8.9550043    550.10651 0.0097765428  0.008223311            6 
 4690000    0.4914397   -8.9290427    549.68352 0.0097669424  0.008220457           10 
 4691000   0.50394414   -8.9448997    549.82208 0.0097673219 0.0082176041            8 
 4692000   0.50561888   -8.9089286      549.911 0.0097668194 0.0082147545            8 
 4693000   0.49659633   -8.9450369     549.7412 0.0097617231 0.0082119064           12 
 4694000   0.48200141   -8.9370127    550.55583 0.0097741057 0.0082090583            5 
 4695000   0.49456765   -8.9334179    549.57331 0.0097545848 0.0082062102           12 
 4696000   0.49181539    -8.946307    550.33479 0.0097660206 0.0082033629           10 
 4697000   0.49459085   -8.9548169    550.19567 0.0097614731 0.0082005174            9 
 4698000   0.50333502   -8.9464265    549.19887 0.0097417141 0.0081976701           10 
 4699000   0.49908292    -8.948823    549.74938 0.0097494038 0.0081948273           10 
 4700000   0.50900679   -8.9320533    550.29169 0.0097569448 0.0081919859           11 
 4701000   0.49580362   -8.9511233    550.59591 0.0097602622  0.008189144            7 
 4702000   0.49764442    -8.944505    549.71517 0.0097425771 0.0081863053           10 
 4703000   0.49435322   -8.9357489    550.29873 0.0097508457 0.0081834678           14 
 4704000   0.50089822   -8.9443284    550.04036 0.0097441956 0.0081806316            9 
 4705000   0.50239586   -8.9553666    549.69586  0.009736023 0.0081777936            9 
 4706000   0.49398621   -8.9503524     549.9632 0.0097386882 0.0081749596           14 
 4707000   0.50043016   -8.9504694    549.41863 0.0097269781 0.0081721249            9 
 4708000   0.48963523   -8.9302712    549.88396 0.0097331485  0.008169293            8 
 4709000   0.48788616   -8.9405814    549.81271 0.0097298207 0.0081664602           11 
 4710000   0.49779386   -8.9505597    549.37811 0.0097200656 0.0081636311           10 
 4711000   0.49296691   -8.9564988    550.46315 0.0097371957 0.0081607988           12 
 4712000   0.48924567   -8.9329486    550.46119 0.0097350946 0.0081579739            9 
 4713000   0.50597184   -8.9531783    550.32252 0.0097305771 0.0081551445           11 
 4714000   0.49818682   -8.9403161    550.30285 0.0097281652 0.0081523217           14 
 4715000    0.4909633   -8.9391568    549.57497 0.0097132373 0.0081494993            9 
 4716000   0.49735168   -8.9430911    549.60878 0.0097117752 0.0081466761           10 
 4717000    0.4970419   -8.9492811    550.03778 0.0097172952  0.008143855           12 
 4718000   0.49398995   -8.9339365     549.6601 0.0097085647  0.008141036            8 
 4719000   0.49542454   -8.9433973    549.55764  0.009704698 0.0081382188            7 
 4720000   0.50674009   -8.9567673    549.32989  0.009698621 0.0081354007           13 
 4721000   0.49659547   -8.9576408    549.69753  0.009703056 0.0081325849           10 
 4722000    0.4987361   -8.9360469    549.76539 0.0097021987 0.0081297716            8 
 4723000   0.49530052   -8.9429956    550.71682 0.0097169317 0.0081269578           10 
 4724000   0.50733558    -8.953892     549.6818 0.0096966166 0.0081241439           10 
 4725000    0.5041738   -8.9570405    550.30308 0.0097055217 0.0081213333           10 
 4726000   0.49234756   -8.9457823    549.98652 0.0096978862 0.0081185235            7 
 4727000   0.50347834   -8.9556736    549.23416 0.0096825711 0.0081157147            8 
 4728000   0.49205026   -8.9416122    550.11716 0.0096960864 0.0081129058           10 
 4729000   0.49247426   -8.9618373     550.0459 0.0096927803 0.0081100973            7 
 4730000   0.49711042    -8.949443     549.9268 0.0096886329 0.0081072951            6 
 4731000   0.50296116   -8.9398664    549.37805  0.009676919 0.0081044902           12 
 4732000   0.49628126   -8.9545017    550.12612 0.0096880481 0.0081016888           14 
 4733000   0.49430586   -8.9457608    550.43754 0.0096914842 0.0080988862            8 
 4734000   0.49027259   -8.9721203     549.0971 0.0096658411 0.0080960855            8 
 4735000   0.49165203   -8.9544693    549.72589 0.0096748661 0.0080932867           11 
 4736000   0.48737023   -8.9372681    549.59381 0.0096704992 0.0080904882            9 
 4737000   0.48867307   -8.9646739     550.0426 0.0096763529 0.0080876913            5 
 4738000   0.50076558   -8.9574359    549.58173 0.0096662047 0.0080848988            7 
 4739000   0.48785563   -8.9581595    549.38025  0.009660622 0.0080821072            9 
 4740000   0.49185236   -8.9523844    550.90412 0.0096853748  0.008079316            6 
 4741000   0.49963081   -8.9686569     549.7129 0.0096623937 0.0080765285           13 
 4742000    0.4934045   -8.9506913    549.94174 0.0096643776 0.0080737395            7 
 4743000   0.49185943   -8.9711701    549.53886 0.0096552614 0.0080709541            9 
 4744000   0.48998071   -8.9475124    548.41253  0.009633441 0.0080681688           10 
 4745000    0.4904442   -8.9522193    550.07763 0.0096606538 0.0080653843           12 
 4746000   0.49291467    -8.958662    549.48047  0.009648133 0.0080625989           13 
 4747000    0.4933034   -8.9483503    549.38395 0.0096444062 0.0080598141            9 
 4748000   0.49784368   -8.9616259    549.99466 0.0096530936 0.0080570313            9 
 4749000   0.49801713    -8.959378    548.82855 0.0096305986 0.0080542507           12 
 4750000   0.48610134   -8.9536765    549.44589 0.0096394016 0.0080514696           10 
 4751000   0.49895804   -8.9491912    550.19996 0.0096505992 0.0080486908            8 
 4752000   0.48919275   -8.9608457    549.62112 0.0096384174 0.0080459137           14 
 4753000   0.49193643   -8.9459546    549.85657 0.0096405177 0.0080431355           11 
 4754000   0.48515979   -8.9695018    549.79161 0.0096373512 0.0080403628            9 
 4755000   0.48034831   -8.9571334    550.75118 0.0096521413 0.0080375886           10 
 4756000   0.48559946   -8.9530776    549.83069 0.0096339833  0.008034816           10 
 4757000   0.49317097   -8.9565654     549.2112 0.0096211058 0.0080320465           15 
 4758000   0.48759666   -8.9515428    549.82046 0.0096297545 0.0080292759           14 
 4759000    0.4951538   -8.9596986    549.67807 0.0096252376 0.0080265077           12 
 4760000   0.49108571   -8.9579865    548.76466 0.0096072244   0.00802374            9 
 4761000   0.49111221   -8.9482036    549.54155 0.0096188046 0.0080209742           14 
 4762000   0.48895734   -8.9525659    549.61573 0.0096180829 0.0080182099           10 
 4763000   0.48999729   -8.9577939    549.38518 0.0096120299 0.0080154443            8 
 4764000   0.48410683   -8.9567355    549.60295 0.0096138215 0.0080126823            9 
 4765000   0.48098594   -8.9456854    549.33162 0.0096070588 0.0080099225            3 
 4766000   0.48872573   -8.9583143    549.46066 0.0096072993 0.0080071604            8 
 4767000   0.48640471   -8.9527498     548.8147 0.0095939916 0.0080044013            8 
 4768000   0.48690376   -8.9563589    550.12064 0.0096148043 0.0080016445            7 
 4769000   0.48912019   -8.9623617    550.51791   0.00961973 0.0079988885            6 
 4770000   0.49600593   -8.9715616    549.71508 0.0096036875 0.0079961317            8 
 4771000   0.49701103   -8.9437662    549.67901 0.0096010447 0.0079933766           13 
 4772000   0.48708473   -8.9696855    549.27948 0.0095920558 0.0079906229           14 
 4773000   0.48981492   -8.9567326    549.99686 0.0096025711 0.0079878715           10 
 4774000   0.47923476   -8.9446276    549.42522 0.0095905812 0.0079851198           13 
 4775000   0.47977143   -8.9674058    549.27632 0.0095859741 0.0079823722           11 
 4776000   0.48427269   -8.9730196    549.31603   0.00958466 0.0079796243            4 
 4777000   0.48915308   -8.9687491    550.43899 0.0096022432 0.0079768774            8 
 4778000   0.49039455   -8.9615431    549.67591 0.0095869247  0.007974133           13 
 4779000   0.48792122   -8.9724159    549.31029  0.009578543 0.0079713884            6 
 4780000   0.48658677   -8.9439357    548.85305 0.0095685678 0.0079686459            6 
 4781000   0.48461086   -8.9582152    549.77315 0.0095826039 0.0079659055            7 
 4782000   0.47250435   -8.9648476     549.5626 0.0095769309 0.0079631677            9 
 4783000   0.48270594   -8.9883646    549.62263 0.0095759745 0.0079604293            7 
 4784000   0.49320673   -8.9564075    549.36349 0.0095694587 0.0079576893           12 
 4785000   0.48116811   -8.9417613    549.90818  0.009576945 0.0079549538            8 
 4786000   0.47681905   -8.9612177    549.33469 0.0095649584 0.0079522163           10 
 4787000   0.48350437     -8.96239    549.50189 0.0095658709 0.0079494822           14 
 4788000   0.49001098   -8.9415678    549.89956 0.0095707944 0.0079467492            7 
 4789000   0.49767303   -8.9674485    549.96696 0.0095699687 0.0079440186           13 
 4790000    0.4883197     -8.96381    549.58939  0.009561402 0.0079412871            5 
 4791000   0.47844996    -8.961742    549.56847 0.0095590425 0.0079385558           10 
 4792000   0.47821242   -8.9600438    549.65214 0.0095585027 0.0079358266           10 
 4793000   0.48815008   -8.9709111    549.03321 0.0095457475 0.0079330995           13 
 4794000   0.48523853   -8.9619566    549.49794 0.0095518346 0.0079303731           12 
 4795000   0.49166895   -8.9695495    549.82739 0.0095555682 0.0079276465           13 
 4796000   0.49252304   -8.9710635    549.40004 0.0095461502  0.007924923           11 
 4797000   0.48289989   -8.9674864    549.03045 0.0095377397 0.0079222034            9 
 4798000   0.48714065   -8.9606827    548.45291 0.0095257209 0.0079194826           11 
 4799000    0.4884422   -8.9649497    549.36747 0.0095396172  0.007916761           11 
 4800000   0.48547928    -8.980038    550.22478 0.0095525135  0.007914042            8 
 4801000   0.47655232   -8.9533601    550.04074 0.0095473294 0.0079113233            9 
 4802000   0.48387355   -8.9869888    550.02142 0.0095450059 0.0079086077            7 
 4803000   0.49245015   -8.9773231    549.20487 0.0095288513 0.0079058915           10 
 4804000   0.48548907   -8.9741072    549.26002 0.0095278243 0.0079031752           16 
 4805000   0.47714343   -8.9643039    548.79477 0.0095177727 0.0079004598            7 
 4806000   0.47634171   -8.9557379    549.88251 0.0095346531 0.0078977458           10 
 4807000   0.48332096   -8.9631565    549.30106 0.0095225896 0.0078950339           12 
 4808000   0.48776363   -8.9673229    549.18139 0.0095185349 0.0078923246            9 
 4809000   0.48398668   -8.9655922    548.71555 0.0095084831 0.0078896163           18 
 4810000   0.48636673   -8.9750548    549.55776 0.0095210976 0.0078869098            6 
 4811000   0.48164404   -8.9700225    549.03558 0.0095100739 0.0078842013           10 
 4812000   0.48213618   -8.9785265    549.19328 0.0095108284 0.0078814977            6 
 4813000   0.48030265   -8.9666751    549.22116  0.009509335 0.0078787957            9 
 4814000   0.49275974   -8.9723815    548.97369 0.0095030758 0.0078760879           10 
 4815000   0.47695707    -8.966665    549.60694  0.009512062 0.0078733838           12 
 4816000   0.48284405   -8.9530481    549.13205 0.0095018697 0.0078706835           11 
 4817000   0.48237734   -8.9636442    549.51537 0.0095065285 0.0078679859            8 
 4818000   0.47290587   -8.9769267    548.40457 0.0094853426 0.0078652879            6 
 4819000   0.46495799    -8.948328    549.47598 0.0095019018 0.0078625935           14 
 4820000   0.48528875   -8.9839692    549.98293 0.0095086952 0.0078598988            8 
 4821000   0.46966662    -8.971394    549.79002 0.0095033883 0.0078572031           12 
 4822000   0.47174636   -8.9720111    548.70904 0.0094827361 0.0078545083           11 
 4823000   0.47817728   -8.9678747     548.0652 0.0094696454 0.0078518152           12 
 4824000   0.47971244   -8.9630568    548.84242 0.0094811087 0.0078491235           12 
 4825000   0.47977642   -8.9669386    548.30718 0.0094698995 0.0078464328           12 
 4826000   0.46948371    -8.979616     549.3545 0.0094860218 0.0078437459           11 
 4827000   0.47290457   -8.9793104    548.14365 0.0094631525 0.0078410579            9 
 4828000   0.48109705    -8.965235    549.01346 0.0094762058 0.0078383719           13 
 4829000   0.48222912   -8.9740535    549.53954 0.0094833219 0.0078356889           14 
 4830000    0.4738655   -8.9778807    549.02628  0.009472503  0.007833005           10 
 4831000   0.47753154     -8.97843    549.40005 0.0094769898 0.0078303227           10 
 4832000   0.47017823   -8.9860292    549.27793 0.0094729223 0.0078276405           14 
 4833000   0.47910242   -8.9903014    549.38832 0.0094728656 0.0078249591           10 
 4834000   0.48172507   -8.9714017     549.0934 0.0094658219  0.007822279           14 
 4835000   0.48352429   -8.9972599    548.64576 0.0094561489 0.0078195999           11 
 4836000   0.48200125     -8.98712    548.91951 0.0094589108  0.007816923           13 
 4837000   0.46893979   -8.9704463    549.11452 0.0094603149 0.0078142485           15 
 4838000   0.48074851   -8.9934315    549.14403 0.0094588678 0.0078115754           10 
 4839000   0.47280307   -8.9795937     549.0998 0.0094561514 0.0078089035           10 
 4840000   0.47640328   -8.9791864    548.92881 0.0094512536  0.007806231           18 
 4841000   0.48033833   -8.9765057    549.32091 0.0094560509 0.0078035638           15 
 4842000   0.47622213   -8.9745941    548.75715 0.0094443954 0.0078008951            9 
 4843000   0.47459459   -8.9920802    549.39532 0.0094534263 0.0077982255           12 
 4844000   0.47333283   -8.9739533    549.55665 0.0094542502 0.0077955586           12 
 4845000   0.48160042   -8.9774998    548.32199 0.0094310629 0.0077928923            9 
 4846000   0.48704006   -8.9746005    549.45753 0.0094486437 0.0077902264            9 
 4847000   0.47977236   -8.9855068    549.12426 0.0094409645 0.0077875624           13 
 4848000   0.47552179   -8.9684704    549.45832 0.0094447594 0.0077848988            8 
 4849000    0.4728974   -8.9813049     549.1484 0.0094374853 0.0077822391            9 
 4850000   0.47105383   -8.9863917    548.67672  0.009427435 0.0077795802           15 
 4851000   0.46605424   -8.9718208    548.25117 0.0094181814 0.0077769208            9 
 4852000   0.47584105   -8.9802875    549.40294 0.0094360219 0.0077742601           13 
 4853000   0.47180249   -8.9787026    549.05132 0.0094280397 0.0077716037            9 
 4854000   0.47223819   -8.9869226    548.94679 0.0094243029 0.0077689497           11 
 4855000   0.46864967   -8.9872527    548.75035 0.0094189899 0.0077662957            8 
 4856000   0.47769088   -8.9800887    549.04799 0.0094221579  0.007763641           12 
 4857000    0.4790334   -8.9703374    548.62211 0.0094129111 0.0077609909           16 
 4858000   0.48123019   -8.9876965    549.47344  0.009425577 0.0077583399           12 
 4859000   0.47099819   -8.9573619    548.77175  0.009411603 0.0077556903           10 
 4860000   0.47520444   -8.9883588    549.11522  0.009415556 0.0077530405           11 
 4861000   0.47443556   -8.9903206     549.0001 0.0094116455 0.0077503906            4 
 4862000   0.45840702   -8.9923786    548.80362  0.009406342 0.0077477425           13 
 4863000   0.48298437   -8.9663427    550.18264  0.009428039 0.0077450956           10 
 4864000   0.47476835    -8.980467    548.71534 0.0094009618 0.0077424518           11 
 4865000   0.47815719   -8.9891314    548.62754 0.0093975256 0.0077398057            5 
 4866000   0.47845195   -8.9854293    549.31172 0.0094073113 0.0077371642            9 
 4867000    0.4699973   -8.9875319    549.19741 0.0094034213 0.0077345222            7 
 4868000   0.46730489    -8.975572    548.63196 0.0093918097 0.0077318803           11 
 4869000    0.4721617   -9.0023684    548.43161 0.0093864519  0.007729239            7 
 4870000   0.47604874   -8.9963323    548.84112 0.0093915318 0.0077266003           14 
 4871000   0.47778868   -8.9941421    549.34911 0.0093982945 0.0077239613            8 
 4872000   0.46999512   -8.9949527    548.48929 0.0093816586 0.0077213265           11 
 4873000    0.4743966   -8.9802607    549.13973 0.0093908566 0.0077186912           14 
 4874000   0.46496495   -8.9643698    548.27286 0.0093741086 0.0077160572            8 
 4875000   0.47776823    -8.986031    548.79572 0.0093811234  0.007713424            6 
 4876000   0.48076123   -8.9859658    548.64251  0.009376581 0.0077107908            9 
 4877000   0.47958231   -8.9950945    548.36656 0.0093699432 0.0077081608           13 
 4878000   0.47828485   -8.9766858    548.03356 0.0093623336 0.0077055305            6 
 4879000   0.47228451   -8.9911851    548.44941 0.0093675175 0.0077029039            7 
 4880000   0.47446309   -8.9920147    549.16394 0.0093777995 0.0077002779           11 
 4881000   0.46593839   -8.9748946    548.29436 0.0093610319 0.0076976522           12 
 4882000   0.46179569   -8.9912862    548.64793 0.0093651498 0.0076950276           13 
 4883000     0.478257   -8.9923029    548.89308 0.0093674154 0.0076924061           15 
 4884000   0.46500518   -9.0022116    548.66042 0.0093615277 0.0076897842            5 
 4885000   0.47710409   -9.0073594    548.96045 0.0093647296 0.0076871645           13 
 4886000   0.46607985   -8.9808273    548.37333 0.0093527994 0.0076845449            7 
 4887000   0.47179587    -8.986134     548.8326 0.0093587169 0.0076819287           10 
 4888000    0.4717249   -8.9813659    548.03177 0.0093431495 0.0076793129           17 
 4889000   0.48566421   -9.0065113     548.6807 0.0093522993 0.0076766997           10 
 4890000     0.475534   -8.9847319    549.68881 0.0093675667 0.0076740865           10 
 4891000   0.47023016   -9.0138407    548.99821 0.0093538848 0.0076714759            9 
 4892000   0.46732738   -9.0077745    549.98955 0.0093688599 0.0076688642           11 
 4893000   0.46861419   -8.9903644    549.47406 0.0093581658 0.0076662544           13 
 4894000   0.47435046   -8.9951004    548.94445 0.0093472356 0.0076636462           12 
 4895000   0.46623402   -8.9792662    549.54194 0.0093554978 0.0076610384            9 
 4896000   0.47187183   -8.9844434     548.4552 0.0093350899 0.0076584352            9 
 4897000   0.46555155   -8.9937379    548.43501 0.0093328399 0.0076558303            9 
 4898000   0.45986338   -8.9896754    548.69196 0.0093353063 0.0076532236           14 
 4899000   0.46664059   -8.9831814    548.62542 0.0093322688  0.007650621           11 
 4900000   0.46911941   -9.0046741    548.71975 0.0093319685 0.0076480183            9 
 4901000   0.46646461   -8.9969625    549.62465 0.0093454508 0.0076454187            7 
 4902000    0.4648111   -8.9891532    549.14246 0.0093353472  0.007642818           10 
 4903000   0.47170245   -8.9851422    548.28062 0.0093187949 0.0076402193           10 
 4904000   0.46677467    -8.988835     549.1393 0.0093314863 0.0076376195            7 
 4905000   0.46359675   -9.0030503    549.14301 0.0093296467 0.0076350244           10 
 4906000   0.46931038   -8.9999623    548.36925  0.009314602 0.0076324302           13 
 4907000   0.47788114   -8.9830414    549.00103 0.0093234331 0.0076298366            8 
 4908000    0.4615688   -8.9999121    548.64315 0.0093154568  0.007627243           12 
 4909000   0.46234481   -8.9915536    549.00966  0.009319781 0.0076246513            9 
 4910000   0.47304371   -9.0010979    548.69693 0.0093125752 0.0076220629           11 
 4911000   0.45771936   -8.9988121    549.07957 0.0093171718 0.0076194734            9 
 4912000   0.46241973   -9.0087107    548.54817 0.0093062597 0.0076168843            8 
 4913000    0.4702374   -8.9946044    549.51126 0.0093207012 0.0076142964            8 
 4914000   0.46477703   -8.9897492    548.92933 0.0093089358 0.0076117108           13 
 4915000   0.46996256   -9.0055131    548.11934 0.0092933086 0.0076091273            9 
 4916000   0.46427591    -8.983425    547.69034 0.0092841461 0.0076065415           14 
 4917000   0.46394374   -8.9935577    549.19061 0.0093076844 0.0076039582            8 
 4918000   0.47060532   -8.9821605    548.76995 0.0092986638 0.0076013761           14 
 4919000   0.46295285   -8.9963148    548.66196 0.0092949441  0.007598794           13 
 4920000   0.45574724     -9.00183     548.8072 0.0092955149 0.0075962146           11 
 4921000   0.46564203   -9.0034674    547.91532 0.0092785227 0.0075936345           13 
 4922000   0.46555284   -9.0018779    548.39022  0.009284678 0.0075910565            9 
 4923000   0.47142443   -8.9904389    548.51674 0.0092849337 0.0075884808           12 
 4924000    0.4585435   -9.0019671    548.34583 0.0092801555 0.0075859047           13 
 4925000     0.465601   -9.0023666    548.81492 0.0092862085 0.0075833291            9 
 4926000   0.46730468   -8.9889829    548.43273 0.0092778578 0.0075807556           13 
 4927000   0.46548351   -9.0117582     549.4151 0.0092925901 0.0075781809           14 
 4928000   0.45140051   -8.9926176     547.6647  0.009261105 0.0075756065           10 
 4929000     0.466038   -8.9991336    548.04934  0.009265729 0.0075730362           10 
 4930000   0.46214214   -9.0077742    548.23884 0.0092670527 0.0075704672           10 
 4931000   0.46569408   -9.0095389    548.81715 0.0092749468 0.0075679007           13 
 4932000   0.47660825   -9.0055556    548.55639 0.0092686603  0.007565335           10 
 4933000   0.46717885   -8.9962016    548.87077 0.0092720922 0.0075627689           13 
 4934000    0.4526689   -9.0012856    548.44886 0.0092630871 0.0075602044           14 
 4935000   0.45890127   -9.0086077    548.90793 0.0092689619 0.0075576439           10 
 4936000   0.45615463   -8.9827528    546.86214 0.0092325456 0.0075550817            8 
 4937000   0.46618482   -8.9992562    548.68114 0.0092613791 0.0075525204           10 
 4938000   0.46438067   -9.0075664    548.59351 0.0092580246 0.0075499594           11 
 4939000   0.45322466   -9.0024567    548.21995 0.0092498473 0.0075474014           10 
 4940000   0.45047405   -9.0190315    548.10941 0.0092461101 0.0075448425           10 
 4941000   0.46830073   -8.9970877    549.26081  0.009263658 0.0075422876           13 
 4942000   0.46632547   -8.9942369    548.52467 0.0092493705 0.0075397322           13 
 4943000   0.46316048   -9.0042525    548.72921 0.0092509477 0.0075371752            8 
 4944000   0.45352019   -8.9907171    549.31363 0.0092589271 0.0075346214           11 
 4945000   0.45364693   -8.9966313    547.80576  0.009231644 0.0075320687           16 
 4946000   0.46301319   -9.0112548    548.73571  0.009245446 0.0075295165            7 
 4947000   0.44799251   -8.9846839    547.99746 0.0092311411 0.0075269659           11 
 4948000   0.46021167    -8.980905    548.73098 0.0092416292 0.0075244184           11 
 4949000   0.46522007   -8.9859598    548.65224  0.009238436 0.0075218706           13 
 4950000   0.46088766    -9.010089    548.78463 0.0092387986 0.0075193224           14 
 4951000   0.44985919   -8.9912815    548.00755  0.009223853 0.0075167751           16 
 4952000   0.45780984   -9.0053989    548.01833 0.0092221718 0.0075142296            9 
 4953000   0.46706935   -9.0038147    548.15029   0.00922253 0.0075116842           10 
 4954000   0.45327658   -9.0077186    548.48517 0.0092263014 0.0075091418            8 
 4955000   0.46001305   -9.0041541    548.27613 0.0092209239 0.0075065996           10 
 4956000   0.45717082   -9.0181746    549.07411 0.0092324811 0.0075040619           15 
 4957000   0.46194884   -9.0069645    547.60572 0.0092059331 0.0075015216           12 
 4958000   0.46372066   -9.0059433     547.7097 0.0092058239 0.0074989836           10 
 4959000   0.45453285   -8.9930012    548.08382 0.0092102543 0.0074964481            8 
 4960000   0.46041666   -8.9848035    548.16705 0.0092097959 0.0074939116           10 
 4961000   0.45656401   -9.0017111    547.92421 0.0092038602 0.0074913783           12 
 4962000   0.44897435   -9.0031138    548.84891 0.0092175351 0.0074888454            9 
 4963000   0.45449346   -9.0123784    547.50638 0.0091931355 0.0074863135            9 
 4964000   0.45591126   -9.0154284    547.75011 0.0091953751 0.0074837798           11 
 4965000   0.45249268   -9.0058231    548.19459 0.0092009834 0.0074812504            8 
 4966000   0.46238031   -9.0120294    547.91682 0.0091944694 0.0074787193           10 
 4967000   0.45378155   -9.0142905    548.50879   0.00920255 0.0074761931           11 
 4968000    0.4638412    -9.019679    548.58995 0.0092020589 0.0074736658           11 
 4969000   0.45573435   -9.0174286    548.18169 0.0091933603 0.0074711384            9 
 4970000   0.46570357   -9.0237999    547.55917 0.0091810726  0.007468611           11 
 4971000   0.45702282    -9.021463    547.60006 0.0091799112 0.0074660842            6 
 4972000   0.44748262   -8.9931845    548.48423  0.009192884 0.0074635591            9 
 4973000   0.45524747   -9.0084854    548.65812 0.0091939493 0.0074610376           13 
 4974000   0.45816705   -9.0108532    548.32074 0.0091864486  0.007458516           10 
 4975000   0.45834424   -9.0119694    548.08759 0.0091806967 0.0074559963           11 
 4976000   0.46819157   -9.0109329    547.91557 0.0091759709 0.0074534765           12 
 4977000   0.45174321   -9.0107068    548.30722 0.0091806847 0.0074509586           11 
 4978000   0.45569485   -9.0095557     548.0715 0.0091748946 0.0074484398           12 
 4979000   0.45897251   -9.0195085    548.35988 0.0091778784 0.0074459243           10 
 4980000   0.44896679   -9.0198679    548.62926 0.0091805432 0.0074434103           11 
 4981000   0.44996256   -9.0165191    548.07018 0.0091693465  0.007440895            7 
 4982000   0.44464407    -9.014475    547.94803 0.0091654629 0.0074383814           11 
 4983000   0.45860673   -9.0195041    548.78055 0.0091775462 0.0074358677            7 
 4984000   0.46385313   -9.0101126    547.75952 0.0091586329 0.0074333576           11 
 4985000   0.46419258   -9.0030614    547.87051 0.0091586511 0.0074308479           14 
 4986000   0.46079786   -9.0254156    547.96797 0.0091584431 0.0074283402           10 
 4987000   0.46016996   -9.0090808    548.04129 0.0091578319 0.0074258327           12 
 4988000   0.45193328   -9.0125081    547.97617  0.009154908  0.007423325           13 
 4989000   0.46059097    -9.016217     548.3278 0.0091589463 0.0074208174           11 
 4990000   0.45040231   -9.0237156    548.25389 0.0091558767 0.0074183125           11 
 4991000   0.45351278   -9.0013988    548.52349 0.0091585436  0.007415808           13 
 4992000   0.45253699   -9.0238904    548.38597 0.0091544133 0.0074133067           10 
 4993000    0.4534671   -9.0157452    547.94475 0.0091452158 0.0074108054           10 
 4994000   0.44251967   -9.0198038    548.05532 0.0091452296 0.0074083042           10 
 4995000    0.4605753    -9.007671    548.03074 0.0091429886  0.007405805           10 
 4996000   0.44341544   -9.0224036    548.56932 0.0091501421 0.0074033066           12 
 4997000    0.4531321   -9.0001522    548.30863 0.0091439636 0.0074008104           15 
 4998000   0.45270491   -9.0120919    548.31858 0.0091422999 0.0073983132            5 
 4999000   0.44491191   -9.0228278    548.72644 0.0091472701 0.0073958186           13 
 5000000   0.44656565   -9.0232176    548.23202 0.0091372003 0.0073933246           11 
 5001000   0.45297353   -9.0302063    549.11464 0.0091500807 0.0073908329            7 
 5002000   0.45751162   -9.0102385    548.76601 0.0091424431 0.0073883404           10 
 5003000   0.45171958   -9.0134238    547.82949 0.0091250165  0.007385852            9 
 5004000   0.46246202   -9.0172819    548.67453 0.0091372656 0.0073833632           11 
 5005000   0.46297027   -9.0365235    548.08463 0.0091256182 0.0073808764           11 
 5006000   0.44907247   -9.0323143    548.10526 0.0091241387 0.0073783889           11 
 5007000    0.4479417   -9.0138576    547.74635 0.0091163429 0.0073759025           11 
 5008000   0.44914025   -9.0220047    548.55051 0.0091279038  0.007373418            7 
 5009000   0.44818311       -9.018    548.51417  0.009125477 0.0073709334           12 
 5010000   0.44540419    -9.017365    548.52354 0.0091238115 0.0073684496            6 
 5011000    0.4514917   -9.0212368    548.31425 0.0091185101 0.0073659684            7 
 5012000    0.4474266    -8.999874    548.87263 0.0091259748 0.0073634875            9 
Loop time of 12463.5 on 48 procs for 5000000 steps with 4000 atoms

Performance: 69322.656 tau/day, 401.173 timesteps/s
99.4% CPU use with 48 MPI tasks x no OpenMP threads

MPI task timing breakdown:
Section |  min time  |  avg time  |  max time  |%varavg| %total
---------------------------------------------------------------
Pair    | 846.71     | 914.89     | 995.37     | 119.1 |  7.34
Neigh   | 81.269     | 85.565     | 89.537     |  24.8 |  0.69
Comm    | 764.67     | 849.81     | 926.03     | 129.2 |  6.82
Output  | 13.892     | 13.897     | 14.002     |   0.4 |  0.11
Modify  | 10464      | 10489      | 10523      |  13.0 | 84.16
Other   |            | 110.6      |            |       |  0.89

Nlocal:        83.3333 ave          92 max          75 min
Histogram: 1 4 6 4 9 12 3 6 2 1
Nghost:        2184.75 ave        2208 max        2167 min
Histogram: 1 5 8 9 7 6 8 3 0 1
Neighs:        14570.8 ave       16400 max       12984 min
Histogram: 3 2 8 7 8 4 8 5 2 1
FullNghs:      29141.5 ave       32216 max       26242 min
Histogram: 2 4 5 5 7 10 7 5 1 2

Total # of neighbors = 1398793
Ave neighs/atom = 349.69825
Neighbor list builds = 266963
Dangerous builds = 0

#clear
#
#next RN
#
#jump SELF
Total wall time: 3:27:46
