
units lj                  # Use reduced LJ style units
atom_style atomic         # Uncharged point particles
atom_modify map hash      # Needed for indexing of clusters etc
                          # Used to be able to find where atoms are in relation to each other.

lattice fcc 1.0 spacing 1 1 1
Lattice spacing in x,y,z = 1.5874011 1.5874011 1.5874011
region box block 0 10 0 10 0 10 units lattice
create_box 2 box
Created orthogonal box = (0.0000000 0.0000000 0.0000000) to (15.874011 15.874011 15.874011)
  3 by 4 by 4 MPI processor grid
create_atoms 1 box
Created 4000 atoms
  using lattice units in orthogonal box = (0.0000000 0.0000000 0.0000000) to (15.874011 15.874011 15.874011)
  create_atoms CPU = 0.002 seconds
set type 1 type/fraction 2 0.46 78393
Setting atom values ...
  1843 settings made for type/fraction
mass 1 1.0
mass 2 1.0
pair_style lj/cut  3.5
pair_modify tail  yes
pair_coeff 1  1  1.0  1.0   # Intearaction between 1 and 1 set with epsilon = 1 and sigma = 1
pair_coeff 1  2  1.5  0.8
pair_coeff 2  2  0.5  0.88

write_data data.0
System init for write_data ...
Neighbor list info ...
  update every 1 steps, delay 10 steps, check yes
  max neighbors/atom: 2000, page size: 100000
  master list distance cutoff = 3.8
  ghost atom cutoff = 3.8
  binsize = 1.9, bins = 9 9 9
  1 neighbor lists, perpetual/occasional/extra = 1 0 0
  (1) pair lj/cut, perpetual
      attributes: half, newton on
      pair build: half/bin/atomonly/newton
      stencil: half/bin/3d
      bin: standard
WARNING: Not all mixed pair coeffs generated from mixing. Use write_data with 'pair ij' option to store all pair coeffs. (../write_data.cpp:312)


#############################
#   M E L T   S Y S T E M   #
#############################

velocity all create 2.4 6229865 mom yes dist gaussian # Assign velocities
                                                    # Temperature 2.4, random number seed, zero linear momentum
                                                                                # Gaussian distribution

timestep 0.002   # simulation timestep
thermo 1000       # output thermodynamic data every 1000 steps bf 100

# Define a fix  in this case with index 1 applied to all
# particles in the simulation. This fix is for simulations
# in the anisotropic NPT ensemble. Note that we use the MTK
# correction.
fix 1 all npt temp 2.4 2.4 0.1 iso 5.68 5.68 0.5 mtk yes tchain 5 pchain 5 # Use NPT ensemble
                                                                         # Set temperature and pressure and damping
                                                                         # Numbers of thermostats in chain and in barostat
run 10000          # run for 10000 steps
Per MPI rank memory allocation (min/avg/max) = 3.642 | 3.644 | 3.648 Mbytes
Step Temp E_pair E_mol TotEng Press Volume 
       0          2.4   -5.5244938            0   -1.9253938   -4.2019961         4000 
    1000     2.434053   -5.0297732            0   -1.3796064    5.6817362     3746.128 
    2000    2.3973812    -4.942729            0   -1.3475563    5.5725374    3791.1037 
    3000    2.4253954   -4.9344405            0   -1.2972569    5.6700717    3782.7881 
    4000    2.3628262   -5.0183795            0   -1.4750263    5.2851988    3777.7911 
    5000    2.4298536   -4.9947505            0   -1.3508813    6.1056234    3730.7389 
    6000    2.4345706   -4.9960274            0   -1.3450844    5.7838784    3752.9356 
    7000    2.4113181   -4.9987032            0   -1.3826303    5.5014713    3770.0371 
    8000     2.452336   -4.9778074            0    -1.300223    5.7864363    3753.3201 
    9000    2.4122527   -4.9907568            0   -1.3732824    5.8992937    3735.3248 
   10000    2.4200215   -4.9482948            0     -1.31917    5.5406755    3787.6814 
Loop time of 2.52442 on 48 procs for 10000 steps with 4000 atoms

Performance: 684512.627 tau/day, 3961.300 timesteps/s
99.7% CPU use with 48 MPI tasks x no OpenMP threads

MPI task timing breakdown:
Section |  min time  |  avg time  |  max time  |%varavg| %total
---------------------------------------------------------------
Pair    | 1.1621     | 1.2179     | 1.2946     |   2.1 | 48.25
Neigh   | 0.2117     | 0.21821    | 0.22255    |   0.5 |  8.64
Comm    | 0.74891    | 0.84212    | 0.89861    |   3.1 | 33.36
Output  | 0.00024879 | 0.00025296 | 0.00030878 |   0.0 |  0.01
Modify  | 0.21541    | 0.23041    | 0.24602    |   1.9 |  9.13
Other   |            | 0.01552    |            |       |  0.61

Nlocal:        83.3333 ave          94 max          72 min
Histogram: 1 5 1 4 7 14 9 2 3 2
Nghost:        1702.10 ave        1729 max        1678 min
Histogram: 5 3 5 6 7 7 4 4 5 2
Neighs:        10082.0 ave       11631 max        8370 min
Histogram: 1 2 7 3 7 9 11 3 3 2

Total # of neighbors = 483937
Ave neighs/atom = 120.98425
Neighbor list builds = 902
Dangerous builds = 187

# Equilibrate just above the melting temperature to avoid step fn in T

fix 1 all npt temp 1.25 1.25 0.1 iso 5.68 5.68 0.5 mtk yes tchain 5 pchain 5
run 2000
Per MPI rank memory allocation (min/avg/max) = 3.644 | 3.645 | 3.649 Mbytes
Step Temp E_pair E_mol TotEng Press Volume 
   10000    2.4200215   -4.9482948            0     -1.31917    5.5406755    3787.6814 
   11000    1.2423609   -7.0298835            0   -5.1668081    5.6991903    2962.2049 
   12000     1.240228    -7.121985            0   -5.2621081     5.920445     2932.181 
Loop time of 0.627555 on 48 procs for 2000 steps with 4000 atoms

Performance: 550708.721 tau/day, 3186.972 timesteps/s
99.7% CPU use with 48 MPI tasks x no OpenMP threads

MPI task timing breakdown:
Section |  min time  |  avg time  |  max time  |%varavg| %total
---------------------------------------------------------------
Pair    | 0.28216    | 0.3058     | 0.33294    |   2.3 | 48.73
Neigh   | 0.039876   | 0.04234    | 0.045183   |   0.7 |  6.75
Comm    | 0.20104    | 0.23004    | 0.25925    |   3.1 | 36.66
Output  | 5.3778e-05 | 5.4792e-05 | 6.849e-05  |   0.0 |  0.01
Modify  | 0.040096   | 0.044448   | 0.048767   |   1.3 |  7.08
Other   |            | 0.00487    |            |       |  0.78

Nlocal:        83.3333 ave          90 max          77 min
Histogram: 3 1 3 11 6 8 11 2 1 2
Nghost:        2028.94 ave        2059 max        2007 min
Histogram: 5 3 8 8 5 8 6 2 2 1
Neighs:        13009.8 ave       15139 max       11507 min
Histogram: 1 4 8 12 6 11 5 0 0 1

Total # of neighbors = 624468
Ave neighs/atom = 156.11700
Neighbor list builds = 143
Dangerous builds = 14

#############################
# L I N E A R  Q U E N C H  #
#############################

# Define solid atoms. This closely follows ten Wolde  Ruiz-Montero and Frenkel  Faraday Discuss  1996  104  93-110
# Compute components of the per-atom q6 vector
compute q6 all orientorder/atom degrees 1 6 components 6 nnn NULL cutoff 1.3 # compute the Q6 parameter.
                                                                             # Use all neighbours within 1.3 unit cell.

# get number of connections
compute coord_number all coord/atom orientorder q6 0.5

# An atom is solid if it has 8 or more connections (of a possible 14)
variable is_solid atom c_coord_number>=8
group solid dynamic all var is_solid    # Must be dynamic to update
dynamic group solid defined

# do clustering
compute cluster solid cluster/atom 1.3 # Create a cluster where all atoms within are solid and max 1.3 units from another member

# define chunks one chunk per cluster
compute clus_chunks solid chunk/atom c_cluster nchunk every compress yes  # Says which atoms are in which chunk

# count the size of each chunk
compute size_chunks solid property/chunk clus_chunks count


# Find the maximum entry in the vector of chunk sizes
variable max_n equal max(c_size_chunks)


# Thermo style which includes this variable
# thermo_style custom step temp pe vol v_max_n

thermo ${N}  # Print the thermo information every 100 steps
thermo 1000  

# Reset the npt fix at a lower temperature (below freezing)
fix 1  all npt temp  ${temp} ${temp}  0.1  iso  5.68  5.68  0.5  mtk yes tchain  5  pchain  5
fix 1  all npt temp  0.45 ${temp}  0.1  iso  5.68  5.68  0.5  mtk yes tchain  5  pchain  5
fix 1  all npt temp  0.45 0.45  0.1  iso  5.68  5.68  0.5  mtk yes tchain  5  pchain  5

dump dmp2 all dcd ${N} traj.dcd
dump dmp2 all dcd 1000 traj.dcd


compute msd all msd com yes
variable twopoint equal c_msd[4]/6/(step*dt+1.0e-6)
fix 9 all vector 10 c_msd[4]
variable fit equal slope(f_9)/6/(10*dt)
thermo_style custom step temp pe c_msd[4] v_twopoint v_fit v_max_n

fix 1 all npt temp 1.25 ${temp} 0.1 iso 5.68 5.68 0.5 mtk yes tchain 5 pchain 5
fix 1 all npt temp 1.25 0.45 0.1 iso 5.68 5.68 0.5 mtk yes tchain 5 pchain 5
run 2000000 # 5000000  # Run for this many steps
Neighbor list info ...
  update every 1 steps, delay 10 steps, check yes
  max neighbors/atom: 2000, page size: 100000
  master list distance cutoff = 3.8
  ghost atom cutoff = 3.8
  binsize = 1.9, bins = 8 8 8
  4 neighbor lists, perpetual/occasional/extra = 1 3 0
  (1) pair lj/cut, perpetual
      attributes: half, newton on
      pair build: half/bin/atomonly/newton
      stencil: half/bin/3d
      bin: standard
  (2) compute orientorder/atom, occasional
      attributes: full, newton on
      pair build: full/bin/atomonly
      stencil: full/bin/3d
      bin: standard
  (3) compute coord/atom, occasional
      attributes: full, newton on
      pair build: full/bin/atomonly
      stencil: full/bin/3d
      bin: standard
  (4) compute cluster/atom, occasional
      attributes: full, newton on
      pair build: full/bin/atomonly
      stencil: full/bin/3d
      bin: standard
Per MPI rank memory allocation (min/avg/max) = 9.835 | 9.840 | 9.845 Mbytes
Step Temp PotEng c_msd[4] v_twopoint v_fit v_max_n 
   12000     1.240228    -7.121985 7.6618115e-31 5.3207022e-33 8.3333333e+20            1 
   13000    1.2371445   -7.1433559   0.47950421 0.0030737448  0.039249646            1 
   14000    1.2489443   -7.1452566   0.90898088 0.0054106003  0.037299102            1 
   15000    1.2568368   -7.1415245    1.3116499 0.0072869436  0.036394859            2 
   16000    1.2566921   -7.1269217    1.7170241 0.0089428334  0.035177438            2 
   17000    1.2547848   -7.1582475    2.1315866  0.010448954  0.034619216            2 
   18000    1.2357964   -7.1864577     2.607175  0.012070254  0.034906358            1 
   19000    1.2401285     -7.17848    2.9638477  0.012999331  0.035094798            4 
   20000     1.229762   -7.1383224    3.3724508  0.014051878  0.034804456            1 
   21000    1.2387998   -7.1415754    3.8501009  0.015278178  0.034665994            1 
   22000    1.2651689    -7.175736    4.2087763  0.015942334  0.034774354            1 
   23000    1.2349105   -7.1548129    4.5467226  0.016473632  0.034550677            1 
   24000    1.2690114   -7.1216525    5.0030534  0.017371713  0.034299083            2 
   25000    1.2505148   -7.1332502      5.35758    0.0178586  0.034140626            2 
   26000    1.2313272   -7.1565221     5.664191  0.018154458  0.033906941            1 
   27000    1.2758946   -7.1797066    6.0758227  0.018752539  0.033685024            2 
   28000    1.2403573   -7.2057441    6.4638265  0.019237579  0.033491491            2 
   29000    1.2677534   -7.1345792    6.7333369  0.019348669  0.033253594            1 
   30000    1.2399916   -7.1739445    7.1062698  0.019739638  0.032966602            2 
   31000     1.237885   -7.1612381     7.579345  0.020374583  0.032799861            1 
   32000     1.191895   -7.1733832    8.0475176  0.020957077  0.032755339            3 
   33000    1.2420206   -7.1710702    8.5326186  0.021547016  0.032813323            1 
   34000    1.2333481    -7.166742     8.845653  0.021680522  0.032867704            4 
   35000      1.24272    -7.152961     9.263843  0.022056769  0.032881622            2 
   36000    1.2434814   -7.1289199    9.6103068   0.02224608  0.032841708            2 
   37000    1.2388039   -7.1596379    9.9218531  0.022346516  0.032793976            4 
   38000    1.2445753   -7.2065457    10.366501  0.022733554  0.032735729            3 
   39000    1.2321408    -7.195588    10.821725  0.023123344  0.032752013            2 
   40000     1.234789    -7.143336    11.222795  0.023380822  0.032762882            1 
   41000    1.2159892   -7.1562472    11.612778  0.023603207  0.032798195            2 
   42000    1.2446463   -7.2060752    11.808672  0.023429905  0.032765668            2 
   43000    1.2471706   -7.1626152    12.151308  0.023549047  0.032687516            2 
   44000    1.2073589   -7.1547652    12.738291  0.024125552  0.032635241            1 
   45000    1.2395221   -7.1907313    13.124388  0.024304421  0.032636082            2 
   46000    1.2586173   -7.1862485    13.585953  0.024612233  0.032640534            1 
   47000    1.2430888   -7.1282725    14.028774  0.024873713  0.032685752            1 
   48000     1.247147   -7.1672126    14.285758  0.024801663  0.032687082            1 
   49000    1.2365328   -7.2194263      14.7202  0.025034354  0.032672231            2 
   50000    1.2558042   -7.1739381    15.152631  0.025254385  0.032673232            3 
   51000    1.2469477   -7.1378237    15.631983  0.025542456  0.032696971            6 
   52000    1.2277674   -7.1418349    15.904682  0.025488272  0.032721702            3 
   53000    1.2451646    -7.164018    16.375134  0.025747066  0.032747287            2 
   54000    1.2266225   -7.1895827    16.752802   0.02585309  0.032765399            1 
   55000    1.2441187   -7.1936465    17.027492  0.025799231  0.032779013            1 
   56000    1.2234557    -7.181745    17.431446  0.025939651   0.03276603            1 
   57000     1.201478   -7.2158148     17.73179   0.02592367  0.032742076            4 
   58000    1.2135481   -7.2037932    18.130765  0.026049949  0.032723109            2 
   59000    1.2001091   -7.1654437    18.671805  0.026372606  0.032702949            2 
   60000    1.2291548    -7.178065    18.986382  0.026369975  0.032696594            2 
   61000    1.2564609    -7.182053    19.454097  0.026576635  0.032696697            4 
   62000    1.2097884   -7.2196565    19.804643  0.026619143  0.032718839            2 
   63000    1.2463853   -7.1756207    20.386016  0.026965629  0.032732851            2 
   64000    1.2428862   -7.1841874    20.652151  0.026890821  0.032752777            1 
   65000    1.2203168   -7.1253762    21.135037  0.027096201  0.032762321            2 
   66000    1.2440065   -7.1733381    21.323846  0.026924048  0.032755692            1 
   67000    1.2429445   -7.1836402     21.67686  0.026961269  0.032741361            1 
   68000    1.2181525   -7.1917911    22.020455  0.026985851  0.032717966            2 
   69000    1.2254747   -7.1826841    22.450758  0.027114442  0.032694806            2 
   70000    1.2390829   -7.1497378    22.936625  0.027305506  0.032689399            2 
   71000    1.2519492   -7.2192055    23.230246  0.027265546  0.032683121            2 
   72000    1.2360828   -7.1533473    23.681327  0.027408943  0.032678149            2 
   73000    1.2121175    -7.173514    24.132923  0.027548999  0.032671651            3 
   74000    1.2168308   -7.2235042    24.360043  0.027432481  0.032670009            3 
   75000    1.2329484   -7.1798544    24.708776  0.027454196  0.032653649            1 
   76000    1.2134781   -7.1958154    25.318424   0.02776143  0.032651992            2 
   77000    1.2148197    -7.199896    25.677005  0.027788966  0.032647786            2 
   78000    1.2260928   -7.1639964    26.099266  0.027883831  0.032650374            1 
   79000    1.2089596   -7.2329456     26.55049  0.028006846  0.032655657            2 
   80000    1.2188206   -7.2132502    26.924187  0.028046028  0.032665899            1 
   81000    1.2277079   -7.1716931    27.391497  0.028180552   0.03267424            2 
   82000    1.2432398   -7.2366747    27.521521  0.027969025  0.032666116            1 
   83000    1.2193117   -7.2353018    27.772423  0.027883959  0.032649404            4 
   84000    1.2018467    -7.200064    28.164175   0.02794065  0.032623274            1 
   85000    1.2093217   -7.1934432    28.566963  0.028006827  0.032607512            1 
   86000    1.2325092   -7.2264875    28.895964  0.027999965  0.032588134            2 
   87000     1.202212   -7.2180173    29.383674  0.028145281  0.032567736            1 
   88000    1.2016235   -7.1736628    29.736934  0.028159975  0.032544619            3 
   89000    1.2126016   -7.2708323    29.942421  0.028035975  0.032522287            3 
   90000    1.2308104   -7.2393659    30.263797  0.028022034  0.032487991            2 
   91000    1.2106688    -7.235067    30.500375  0.027930747  0.032455456            2 
   92000    1.1863534   -7.1882919    31.032984  0.028109587  0.032422093            1 
   93000    1.2155805   -7.2224187    31.277492  0.028026427  0.032387756            2 
   94000    1.2286414    -7.222916    31.650324  0.028058798  0.032348851            3 
   95000    1.1927656   -7.2202374    32.052071  0.028115852  0.032313673            2 
   96000    1.1923582   -7.2423658    32.372827  0.028101412  0.032281686            1 
   97000    1.2213433   -7.2343304    32.753508  0.028138752  0.032249406            2 
   98000    1.2400695   -7.2376699    33.273404  0.028293711  0.032226091            1 
   99000    1.2177473   -7.2676406    33.449641  0.028156263  0.032203853            1 
  100000    1.2154045   -7.1982768    33.971981  0.028309984  0.032179187            2 
  101000    1.2231712   -7.2544286    34.257619  0.028265362   0.03215366            2 
  102000    1.1975602   -7.2251029    34.586683  0.028257094  0.032120951            4 
  103000     1.181977   -7.1926397    34.968026  0.028291283  0.032090726            1 
  104000    1.1996402   -7.2681441    35.395007  0.028361384  0.032063125            1 
  105000    1.2209671   -7.2502469    35.846435  0.028449551  0.032042369            1 
  106000    1.1916539   -7.2440121    36.225431  0.028479112   0.03202831            2 
  107000    1.2287972   -7.1919071    36.707757  0.028588596  0.032013168            2 
  108000    1.2020394    -7.213225    36.916001  0.028484569  0.031997297            2 
  109000    1.2034042   -7.2371866    37.138459  0.028393317  0.031980908            2 
  110000    1.1993988   -7.2705756    37.344462  0.028291259  0.031956502            3 
  111000    1.2130707   -7.2462965    37.923717  0.028471259  0.031936156            2 
  112000    1.2248648   -7.1907625    38.355633  0.028538417  0.031911076            3 
  113000    1.2208424   -7.2561927    38.704174  0.028542901  0.031883792            2 
  114000    1.2363696    -7.188579    39.021115  0.028524206  0.031862316            1 
  115000    1.2082436   -7.2171249    39.278773  0.028462879  0.031839845            1 
  116000     1.193332   -7.2539607    39.713357   0.02852971  0.031813599            5 
  117000    1.1771181   -7.2420888    39.941403  0.028448293  0.031784052            2 
  118000     1.226083   -7.2563295    39.985552  0.028238384  0.031752033            4 
  119000    1.2054623   -7.2458465    40.252419  0.028187969  0.031715093            2 
  120000    1.2226482   -7.2212826    40.818864  0.028346434  0.031674628            4 
  121000    1.2328985   -7.2241441    41.142756  0.028335231  0.031636129            5 
  122000    1.2166193   -7.2727984    41.329995   0.02823087   0.03159927            2 
  123000    1.2177338    -7.256942     41.87162  0.028368306  0.031566351            3 
  124000     1.215941   -7.2327798    42.061424  0.028267086   0.03153334            3 
  125000    1.2251992   -7.2180069    42.512637  0.028341758  0.031499434            1 
  126000    1.2160627    -7.270073    42.811157  0.028314257  0.031467958            2 
  127000     1.236917   -7.2796939     43.20342  0.028348701  0.031438232            2 
  128000    1.2349048   -7.2736828    43.669576  0.028430714  0.031417478            1 
  129000    1.1880211   -7.2322357     44.38796  0.028674393  0.031400514            1 
  130000    1.2066984    -7.271074    44.712356  0.028661766  0.031382909            1 
  131000     1.203921   -7.2546345    44.774832  0.028482717  0.031361831            2 
  132000     1.196239   -7.1928659    45.299047  0.028597883  0.031339711            1 
  133000    1.1753725   -7.2948066    45.307377  0.028388081  0.031312478            2 
  134000     1.203361   -7.2265499    45.727326  0.028437391  0.031283992            2 
  135000     1.207656   -7.2564839    45.890458  0.028327443   0.03125588            3 
  136000     1.182089   -7.2664815    46.396294  0.028429102  0.031228052            2 
  137000    1.1890505   -7.2719715    46.726268  0.028422304  0.031201077            3 
  138000    1.1836054    -7.253362    47.163392  0.028480309  0.031172701            1 
  139000    1.2025529   -7.2820876    47.357616  0.028391856  0.031143641            3 
  140000    1.1740781   -7.2334984    47.868478  0.028493142  0.031116005            1 
  141000    1.2043535   -7.2217526    48.064039  0.028406642  0.031087628            1 
  142000    1.1894033   -7.2630343    47.914792  0.028119009  0.031054133            1 
  143000    1.2176845   -7.2680529    48.151359  0.028060232  0.031013012            3 
  144000    1.1622866   -7.2997348    48.699808  0.028182759  0.030976152            3 
  145000    1.1966216   -7.2688129    49.297659  0.028331988  0.030943041            4 
  146000    1.2160263   -7.2484228    49.631109  0.028328258  0.030914247            2 
  147000    1.1797269   -7.2702408    50.001661  0.028345613  0.030886384            1 
  148000    1.1747554   -7.2908567    50.200249  0.028265906  0.030858062            2 
  149000    1.1833067   -7.2945012    50.786468  0.028404065  0.030831424            2 
  150000    1.2039005   -7.2396018    51.175886  0.028431048  0.030801645            1 
  151000    1.1753711   -7.2828459    51.204594  0.028258606  0.030771343            4 
  152000    1.1882272   -7.2638145     51.47296  0.028219825  0.030741973            1 
  153000    1.1992458   -7.2880295    51.759755  0.028191588   0.03071497            2 
  154000    1.1994719   -7.2632957    52.309945  0.028306247   0.03068722            2 
  155000    1.1984149   -7.2850213    52.913713  0.028448233  0.030663492            2 
  156000    1.1782066   -7.2888226    53.219539  0.028429241  0.030641844            1 
  157000    1.1886629   -7.2692126     53.43043  0.028360101  0.030615995            3 
  158000    1.2011439    -7.274308    53.663264  0.028303409  0.030592857            3 
  159000    1.1792873   -7.2821892    53.762994  0.028177669  0.030568308            1 
  160000    1.1884548   -7.2222582    54.601988  0.028438535  0.030542809            1 
  161000    1.1725369   -7.3264902    54.629639  0.028276211  0.030518231            1 
  162000    1.1990644   -7.2750509    54.877093  0.028228957  0.030496124            1 
  163000    1.2000191   -7.2668441    55.470671  0.028359239  0.030472631            1 
  164000    1.1772419   -7.2883114    55.598885  0.028251466  0.030448468            1 
  165000    1.1668866   -7.3028838    55.870729   0.02821754  0.030425013            2 
  166000    1.2056005   -7.2987233    56.515232    0.0283711  0.030403601            1 
  167000    1.1699529   -7.2806972    56.691091  0.028288967   0.03038354            1 
  168000    1.2224005    -7.261022    57.225647  0.028385738  0.030363548            1 
  169000    1.1830543   -7.2900736     57.46031  0.028333486  0.030345263            1 
  170000    1.1830057   -7.2810667    57.845923  0.028355845  0.030325943            4 
  171000    1.1913685   -7.2986148     58.40569  0.028462812   0.03031017            2 
  172000    1.2012141    -7.276321    58.645476  0.028413506   0.03029456            1 
  173000    1.1788224   -7.2939931    59.340869  0.028584233  0.030282553            1 
  174000    1.1725159   -7.2837689    59.627495  0.028557229  0.030271389            2 
  175000    1.1863996   -7.2514071    60.229894  0.028680902  0.030264212            1 
  176000    1.1779224   -7.3069097     60.55469  0.028671728   0.03025829            2 
  177000    1.1924553   -7.2997196      60.8646  0.028655649  0.030250865            1 
  178000    1.1598907   -7.2730041    61.135596  0.028621534    0.0302431            2 
  179000    1.1821455   -7.2843632    61.590819  0.028673565  0.030237848            4 
  180000    1.1771253   -7.3083698    61.605913  0.028521256  0.030228689            1 
  181000    1.1914799   -7.2965132    62.015159  0.028552099  0.030216878            4 
  182000    1.1768173    -7.281103    62.348965  0.028548061  0.030204141            4 
  183000    1.1996874   -7.2933592     62.63845  0.028523884  0.030194872            1 
  184000    1.1992705   -7.3039469     62.93999   0.02850543  0.030185567            2 
  185000    1.1636563   -7.3195208    63.448408  0.028580364  0.030174371            1 
  186000    1.1977163   -7.2851685    63.501527  0.028450505  0.030161262            1 
  187000    1.2076556   -7.3378025    63.577151  0.028332064  0.030147005            1 
  188000     1.165551    -7.270809    64.207784  0.028460897  0.030130623            4 
  189000    1.1829828   -7.2874453    64.701766  0.028528115  0.030118484            4 
  190000    1.1912095   -7.3411327     64.85925   0.02844704  0.030106197            1 
  191000    1.1773051   -7.2786686    65.250674  0.028468881  0.030095094            4 
  192000    1.1838034   -7.2810702    65.612734  0.028477749  0.030082727            3 
  193000    1.1564349   -7.2778321    65.910161  0.028458619  0.030068963            4 
  194000    1.2008379   -7.3244055    66.185511  0.028430202  0.030052556            2 
  195000      1.16072    -7.300082    66.154155  0.028271006  0.030036056            3 
  196000    1.1844557   -7.2696977    66.659823  0.028341761  0.030017274            1 
  197000    1.1718038   -7.3276945    66.561379  0.028156251  0.029999904            1 
  198000     1.183913   -7.3437395    66.982179  0.028191153  0.029980871            3 
  199000     1.173367   -7.3271501    67.562256  0.028292402  0.029961632            2 
  200000    1.1709008    -7.312102    68.127753  0.028386564  0.029944079            1 
  201000    1.1891528   -7.3433107    68.098608  0.028233254  0.029926596            2 
  202000    1.1758295   -7.2783479     68.78678  0.028377384  0.029909115            1 
  203000    1.1624271   -7.3017185    69.043246  0.028342876  0.029892988            1 
  204000    1.1782453   -7.3119359    69.034744  0.028200467   0.02987518            3 
  205000    1.1801707    -7.321861    69.274519  0.028160374  0.029855388            2 
  206000    1.1439666   -7.3712919    69.574181  0.028144895  0.029836303            2 
  207000    1.1421659   -7.3247171    69.557305  0.028002136  0.029814303            2 
  208000    1.1858757   -7.2987671    70.334718  0.028178973  0.029791154            2 
  209000    1.1846593   -7.3740813    70.225763  0.028000703  0.029769682            2 
  210000    1.1639223   -7.3034912    70.440274   0.02795249  0.029747098            3 
  211000    1.1662815   -7.2916741    70.864411  0.027987524  0.029724826            3 
  212000    1.1938238   -7.3198914    71.039678  0.027924402  0.029701796            3 
  213000    1.1675131   -7.3531452    70.870888  0.027727264  0.029675861            4 
  214000     1.182356   -7.3443972    71.383363   0.02779726  0.029648404            1 
  215000    1.1843545   -7.3843112    71.449032  0.027693423  0.029619703            3 
  216000    1.1737779    -7.397817    71.704794  0.027663887  0.029590748            2 
  217000    1.1821533   -7.3505269    72.523541  0.027850822  0.029562434            2 
  218000    1.1591124   -7.3169398    72.922872  0.027875715  0.029536108            4 
  219000    1.1552261   -7.3226083    73.207737  0.027856825   0.02951143            6 
  220000    1.1758138   -7.3304452     73.24114  0.027742856  0.029486183            2 
  221000    1.1730939    -7.355705    73.406994  0.027679862  0.029461022            4 
  222000    1.1583189   -7.3706919    73.597833  0.027626814  0.029434078            1 
  223000    1.1855511   -7.3528846    73.779876  0.027570955   0.02940583            2 
  224000    1.1622021   -7.3590685    73.901362  0.027493066  0.029376641            1 
  225000    1.1402699    -7.343095    74.399343  0.027555312  0.029347866            4 
  226000    1.1730332   -7.3305432    75.067166  0.027679633  0.029320809            3 
  227000    1.1590227   -7.3748521    75.378799  0.027672099   0.02929511            5 
  228000    1.1460474   -7.3610198     75.67437  0.027658761   0.02927057            3 
  229000    1.1567908   -7.3248974    76.166871  0.027717202  0.029247636            2 
  230000    1.1550402   -7.3326762    76.355217  0.027664934  0.029224055            3 
  231000    1.1522624   -7.3576774    76.489722  0.027593695  0.029199041            2 
  232000    1.1716589   -7.3605385    76.659261  0.027535654  0.029175923            3 
  233000    1.1853584   -7.3793033    77.234424  0.027623184  0.029152511            1 
  234000    1.1600736   -7.3720661    77.220739  0.027500263  0.029128434            2 
  235000    1.1595664    -7.360269    77.730836  0.027564126  0.029104463            1 
  236000    1.1548322   -7.3593706    78.303359  0.027649491  0.029080772            1 
  237000    1.1692105   -7.3620559    78.459041  0.027587567  0.029058129            1 
  238000    1.1569039   -7.3119382     78.72151  0.027563554  0.029035082            3 
  239000    1.1603764   -7.3884588    78.742012  0.027455374  0.029012849            4 
  240000    1.1727017    -7.329197    79.333673  0.027546414  0.028990067            7 
  241000    1.1514565   -7.3519307    79.575073  0.027515585  0.028967535            2 
  242000    1.1282844   -7.3639636    79.875521  0.027505345  0.028944354            6 
  243000    1.1679799   -7.3732405    80.100059  0.027469156  0.028920109            2 
  244000    1.1487273   -7.3995878    79.755274  0.027238823  0.028893583            2 
  245000      1.15917   -7.3823065     80.29708  0.027311932  0.028866979            1 
  246000     1.152355   -7.3568154    80.595694  0.027302064  0.028841417            1 
  247000    1.1717947   -7.3806565    81.032392  0.027338864  0.028816976            2 
  248000    1.1407539   -7.3956013    81.252908  0.027302724   0.02879163            1 
  249000    1.1488839   -7.3524633    81.501171  0.027276161  0.028767018            2 
  250000    1.1443633   -7.3800561    81.865098  0.027288366  0.028743221            2 
  251000    1.1602141   -7.3600525    82.509701  0.027393659  0.028719939            2 
  252000    1.1534289   -7.3619039    82.829189  0.027390605  0.028698046            3 
  253000    1.1451396   -7.3625489    82.603463  0.027207992  0.028674677            1 
  254000    1.1445829   -7.3421503    82.997244  0.027230067  0.028649709            1 
  255000    1.1614763   -7.4032066    83.147683  0.027172445  0.028624768            4 
  256000    1.1406627   -7.4096605    83.477088  0.027173531  0.028601337            2 
  257000    1.1595833   -7.3965038    83.814446  0.027177187  0.028576318            2 
  258000    1.1443598   -7.3951398     84.09477  0.027162393  0.028552941            4 
  259000    1.1655902   -7.3903681    84.369219  0.027145823   0.02853018            1 
  260000    1.1304171   -7.3701789    85.072949  0.027266971   0.02850654            1 
  261000    1.1652678   -7.3787877    85.283646  0.027229772   0.02848406            2 
  262000    1.1336113   -7.3983005     85.27078  0.027121749  0.028462919            3 
  263000    1.1303041   -7.3685695    85.934672  0.027228983  0.028441144            1 
  264000    1.1409352   -7.3600709    86.366784  0.027262242  0.028420726            2 
  265000     1.143522   -7.3739253    86.635805  0.027243964  0.028399913            3 
  266000    1.1386998   -7.3565847    86.928751  0.027233318  0.028379729            2 
  267000    1.1251381   -7.4079061    86.937181  0.027133952  0.028359029            2 
  268000    1.1468283   -7.3936955    87.613963  0.027243148  0.028339448            2 
  269000    1.1605008   -7.3685707    87.929526   0.02723963  0.028319818            8 
  270000    1.1573588   -7.3951097    88.195802  0.027220927  0.028300291            1 
  271000    1.1323624    -7.435212    88.389183  0.027179945  0.028281515            1 
  272000    1.1495612   -7.4268535    88.938156   0.02724821  0.028263741            1 
  273000    1.1600737   -7.4064554    89.082768  0.027192542  0.028245443            3 
  274000    1.1537357   -7.3953562    89.362181  0.027178279  0.028227409            2 
  275000    1.1447689    -7.432949    89.319733  0.027066586  0.028209546            3 
  276000    1.1464915   -7.4097704    89.864494  0.027132999  0.028189952            1 
  277000    1.1343205   -7.4164842    90.119649  0.027111808  0.028171998            2 
  278000    1.1568583    -7.407413    90.114544  0.027012753  0.028153774            1 
  279000    1.1631646   -7.3738879     90.57289  0.027052835  0.028136057            4 
  280000    1.1585839   -7.4424199    91.095679  0.027111809  0.028117465            5 
  281000    1.1480468    -7.430477    91.247745  0.027060423  0.028098762            2 
  282000    1.1271374   -7.3488284    91.930624   0.02716626  0.028080154            1 
  283000    1.1543154   -7.4088391     91.90705  0.027063325  0.028061904            1 
  284000     1.151978   -7.3630195    92.380305  0.027106897  0.028044004            2 
  285000    1.1550564   -7.4364021     92.31332  0.026992199   0.02802642            3 
  286000    1.1366903   -7.3756831    93.044191  0.027110778  0.028007791            4 
  287000    1.1286298   -7.3951772    93.032773     0.027013  0.027990174            1 
  288000    1.1330477   -7.4365073    93.223527    0.0269744  0.027972822            2 
  289000    1.1259408    -7.406176    94.069248  0.027124927  0.027956977            2 
  290000    1.1542648   -7.4051682     94.55556  0.027171138  0.027942607            2 
  291000    1.1333246   -7.4055458    94.599891  0.027090461  0.027928626            2 
  292000     1.146588   -7.4134996    95.390516  0.027223321  0.027914908            2 
  293000    1.1281448   -7.4091206    95.088436  0.027044493  0.027901023            3 
  294000    1.1255243   -7.4351771    95.806818  0.027156128  0.027886813            3 
  295000    1.1507991   -7.4102686    96.071298  0.027138785  0.027872475            2 
  296000    1.1387045   -7.4297043    96.354707  0.027126888  0.027858966            5 
  297000    1.1212589   -7.4248186    96.660755  0.027121424  0.027846478            1 
  298000    1.1533563   -7.4262659    96.723552  0.027047973  0.027833307            1 
  299000    1.1390643   -7.4410087    97.146111  0.027075282  0.027820473            3 
  300000    1.1632552   -7.4485839    97.445724  0.027068257  0.027807811            1 
  301000    1.1370071   -7.4321869    97.744069  0.027060927  0.027794772            1 
  302000    1.1387904   -7.4360215    97.770424  0.026978594  0.027780807            1 
  303000    1.1442507   -7.3966064    98.342285  0.027046833  0.027767467            6 
  304000    1.1288968   -7.4291704    98.715356   0.02706013  0.027755108            2 
  305000    1.1173878   -7.3903621    99.029717    0.0270573  0.027742127            3 
  306000    1.1147573   -7.4498821    98.901068  0.026933842  0.027729134            3 
  307000    1.1109275   -7.4158562    99.098225  0.026899627  0.027715078            2 
  308000    1.1239823   -7.3954277    99.568831  0.026939619   0.02770106            4 
  309000     1.121647    -7.436451    99.967269  0.026959889  0.027687284            2 
  310000    1.0882584   -7.4082322    100.15785  0.026924152  0.027673231            1 
  311000    1.1382507   -7.4024034    100.15082  0.026835697  0.027658101            2 
  312000    1.1237743   -7.4586832    100.25871  0.026778501  0.027641946            1 
  313000    1.1234526   -7.4593334    100.45803  0.026746014  0.027624851            4 
  314000    1.1313867   -7.4246527    101.08243  0.026826546  0.027609397            2 
  315000    1.1172513   -7.4610646    100.84248  0.026677904  0.027593664            1 
  316000    1.1375357   -7.4361769    101.55345  0.026780972  0.027577635            2 
  317000    1.1165961    -7.424222    101.77638  0.026755094  0.027560933            2 
  318000    1.1053819   -7.4374304    101.88423  0.026699222  0.027543582            3 
  319000    1.1134962   -7.4671327    101.60647  0.026542966  0.027525842            1 
  320000    1.1026642   -7.3970882    102.32778  0.026647858  0.027508585            2 
  321000    1.1151693   -7.4682001    102.07674  0.026499674  0.027490773            1 
  322000    1.1239644   -7.4662417    102.82302  0.026610513    0.0274726            1 
  323000    1.1314533    -7.446552    102.77556  0.026515881  0.027454316            3 
  324000    1.1411263   -7.4241765    103.04093  0.026502296  0.027435294            5 
  325000    1.1361585   -7.4294279    103.08474  0.026431984  0.027415489            3 
  326000     1.138187   -7.4423616    103.79961  0.026533644  0.027396131            1 
  327000    1.1252303    -7.418629    104.26876  0.026572059  0.027377934            1 
  328000    1.1003002   -7.4943482    104.04222   0.02643349  0.027359519            2 
  329000    1.1183243    -7.449435    104.30307  0.026419216  0.027340844            2 
  330000    1.1342457   -7.4316576    104.86634  0.026481398  0.027322365            4 
  331000     1.135374   -7.4768818    105.00475  0.026436241  0.027304815            1 
  332000    1.1191846   -7.4596492    105.31819   0.02643529  0.027286892            3 
  333000     1.140552   -7.4642438    105.72816  0.026458498  0.027269348            2 
  334000    1.1079813   -7.4810399    106.21963  0.026501904  0.027251961            1 
  335000    1.1467331   -7.5110894    106.09151  0.026390922  0.027233884            3 
  336000    1.1159358   -7.4394778    106.36151  0.026379343   0.02721656            3 
  337000     1.130985   -7.4523263    107.01275  0.026462103  0.027199863            9 
  338000    1.1260547   -7.5253066     107.0167  0.026384788  0.027183618            1 
  339000    1.1161825   -7.4907809     107.3116  0.026379448   0.02716676            2 
  340000    1.1119987   -7.4969173    107.70245   0.02639766  0.027150147            2 
  341000     1.137279   -7.4932981    108.01412  0.026396413  0.027134001            1 
  342000    1.1044798   -7.4790078    108.14896  0.026352086  0.027117641            2 
  343000    1.1176903   -7.4305525    108.75119  0.026421571  0.027100737            2 
  344000    1.1090582   -7.4527286    109.09697  0.026428528  0.027085014            2 
  345000    1.0986781   -7.5141157    108.83742  0.026289232  0.027069309            4 
  346000    1.1025094   -7.4019759    109.65283   0.02640964  0.027053207            3 
  347000    1.1205155   -7.4649934    109.58702  0.026317727  0.027037399            2 
  348000    1.1246732   -7.4853401    109.72379  0.026274855  0.027021043            2 
  349000    1.1316551   -7.5305214    109.85091   0.02622992  0.027004357            1 
  350000    1.1217526   -7.4833541    109.91322  0.026169814  0.026987611            1 
  351000    1.0970835   -7.4767447    110.80201   0.02630627  0.026969978            1 
  352000    1.1142966   -7.5094356    110.19256  0.026087255  0.026952842            3 
  353000    1.1082608    -7.487608    111.09122  0.026225502  0.026935689            2 
  354000    1.0937085   -7.5331353    110.52122  0.026017236  0.026918024            1 
  355000    1.1091616   -7.4999244    111.20877  0.026105345  0.026899662            2 
  356000    1.1310626   -7.4465107    111.82809  0.026176986  0.026881543            3 
  357000    1.0946223    -7.509218    111.33954  0.025989621  0.026863189            2 
  358000    1.1136706   -7.4684243    111.63496   0.02598579  0.026844639            5 
  359000    1.1272956   -7.4963807    112.05864  0.026011756  0.026825964            1 
  360000    1.1118318   -7.5167951    112.05269  0.025938122  0.026807266            1 
  361000    1.1014229   -7.4937942    112.59029  0.025990372  0.026788267            2 
  362000    1.1068466   -7.5380666    112.45004  0.025886289  0.026769688            4 
  363000    1.0966331   -7.4735639    112.97411  0.025935288  0.026751201            2 
  364000    1.1040831     -7.49966    113.74455   0.02604042  0.026734261            2 
  365000    1.1059901   -7.5298438    113.40374  0.025891266  0.026716166            1 
  366000    1.1024436   -7.5076357    113.63548  0.025873287  0.026698498            3 
  367000    1.0911471   -7.4841304    114.31722  0.025957589  0.026680264            4 
  368000    1.1076878   -7.5229722    113.98061  0.025810828  0.026662459            4 
  369000    1.1102536   -7.4568367    115.11169  0.025996317  0.026644523            1 
  370000    1.0796762   -7.4972613    114.92369  0.025883714  0.026626904            5 
  371000    1.1169807   -7.5064612    115.14871  0.025864489  0.026609408            2 
  372000    1.1023011   -7.4904907     115.7807  0.025936536  0.026592231            1 
  373000    1.0811605   -7.4764686    116.24897   0.02597162  0.026576005            3 
  374000    1.1259421    -7.492011    116.41617  0.025939432  0.026559841            2 
  375000    1.1101732   -7.4939007    116.22691  0.025828203  0.026543161            3 
  376000    1.1010373   -7.4732389    116.93991  0.025917533  0.026526872            1 
  377000    1.0931729   -7.4973389    116.93525  0.025847756  0.026510531            3 
  378000    1.1053491   -7.5186487    117.18765  0.025835019  0.026494646            6 
  379000    1.1025029   -7.4765411    117.56158  0.025849071  0.026478522            2 
  380000    1.1147172   -7.5021875    117.96872  0.025870333  0.026462221            2 
  381000    1.1063622   -7.5055766    117.83623  0.025773453  0.026445492            1 
  382000    1.0954841   -7.5587545     117.6767  0.025671182  0.026428723            6 
  383000    1.1071482   -7.4553574    118.57006  0.025798534   0.02641309            4 
  384000    1.1165882     -7.54039    118.64827  0.025748322  0.026397691            5 
  385000    1.0463351   -7.5332881    118.99095  0.025755616  0.026382555            4 
  386000    1.1173585   -7.5109748    119.47393  0.025793162  0.026367118            3 
  387000    1.0801171   -7.5555809    120.01579  0.025843193  0.026351686            2 
  388000    1.1396894   -7.5386041    120.10912  0.025796633  0.026336105            2 
  389000    1.1108963   -7.5393606    120.22389  0.025754904  0.026321247            2 
  390000    1.0867453    -7.514632    120.80812    0.0258137  0.026307024            2 
  391000    1.0962132   -7.4669116    121.39793  0.025873387  0.026293396            1 
  392000    1.1120846     -7.48234    121.68484  0.025868375  0.026280068            2 
  393000    1.0848612   -7.4970874    121.94956  0.025858685  0.026266617            3 
  394000    1.0982743   -7.4971972    121.98374  0.025800283  0.026252754            5 
  395000     1.124793   -7.5330506    122.20325  0.025781276  0.026239251            2 
  396000    1.1047881   -7.5142695    121.90707  0.025653845   0.02622486            2 
  397000    1.0906956   -7.5175146    122.08302  0.025626158  0.026210322            1 
  398000    1.1135472   -7.5452555    122.56744  0.025663199  0.026195726            1 
  399000    1.0925466   -7.5631289    122.63518  0.025613029   0.02618109            1 
  400000    1.0817991   -7.5336236    123.02984  0.025631217  0.026165822            2 
  401000    1.0835952   -7.5364304    123.36959  0.025637903  0.026150377            2 
  402000    1.1122661   -7.5652078    123.33847  0.025567676  0.026135496            6 
  403000    1.1006926    -7.546901    123.76071  0.025591545  0.026121296            2 
  404000    1.0948911   -7.5341388    124.14289  0.025607032  0.026107046            1 
  405000    1.0771786   -7.5445894    124.63212  0.025644469  0.026092809            3 
  406000    1.0839997   -7.5666069    124.72876  0.025601141  0.026079078            2 
  407000    1.0859958    -7.529764    125.12963  0.025620317  0.026065301            2 
  408000    1.0764934   -7.5142604    125.84812  0.025704272   0.02605252            1 
  409000    1.0923437   -7.4979647    125.80375  0.025632386  0.026039508            1 
  410000    1.0957409   -7.5197731    126.16818  0.025643939  0.026026024            3 
  411000    1.0848833   -7.5270231    126.06492  0.025560609  0.026012449            1 
  412000    1.1169513   -7.5654707    126.25985  0.025537996  0.025997568            3 
  413000    1.1020808   -7.5473586    126.14341  0.025452665  0.025982652            5 
  414000    1.0760176    -7.531574     126.2398  0.025410587  0.025968013            2 
  415000    1.0639727    -7.550276    126.65087  0.025431901  0.025952805            3 
  416000    1.0727719    -7.549396    126.73303  0.025387225  0.025937816            5 
  417000     1.083421   -7.5535284     127.3507   0.02544978  0.025922263            1 
  418000    1.0711749   -7.5609561    127.37204  0.025393149  0.025906417            2 
  419000    1.0897488   -7.5167047    127.68406  0.025394603  0.025890324            2 
  420000    1.0883118   -7.5334053    127.46205   0.02529009  0.025874418            2 
  421000    1.0793949   -7.5367065    127.74924  0.025286865  0.025858028            3 
  422000    1.1130549   -7.6241083    127.27044  0.025132394  0.025841437            1 
  423000    1.0983813   -7.5644528    128.37436  0.025290456  0.025824634            1 
  424000    1.0783854   -7.5717056    128.51373  0.025258201  0.025808547            3 
  425000    1.0487361   -7.5332709    128.57298  0.025210389  0.025791884            4 
  426000    1.0672598   -7.5870373    128.42931  0.025123105  0.025774334            4 
  427000    1.0821452   -7.5612762    128.78596  0.025133871  0.025756883            2 
  428000     1.072966   -7.5835529    129.27213  0.025169807  0.025740269            2 
  429000    1.0897468   -7.5341237    129.68673  0.025191673   0.02572431            3 
  430000    1.0847215   -7.5650969    129.66205  0.025128305  0.025708089            2 
  431000    1.0795093    -7.538452     130.1325  0.025160963  0.025691852            1 
  432000    1.0877536   -7.5374788    130.26497  0.025128274  0.025675372            1 
  433000    1.0889073    -7.602608    130.06361  0.025031487  0.025658715            3 
  434000    1.0655836   -7.5801904    130.52951   0.02506327  0.025642433            2 
  435000    1.0878478   -7.5597566    131.01841  0.025099312  0.025625909            2 
  436000    1.0648435   -7.5759587    131.27838  0.025091433  0.025609717            4 
  437000    1.0754606   -7.5488256     131.7032  0.025115026  0.025593977            2 
  438000    1.0934243   -7.5427886    131.71742  0.025060392  0.025578568            2 
  439000    1.0812772    -7.591214    131.76216    0.0250118  0.025562719            2 
  440000    1.0688599   -7.5743573    132.07451  0.025014111  0.025546486            2 
  441000    1.0830163   -7.5812448    132.14118  0.024969988  0.025530169            3 
  442000     1.082466   -7.5837771    132.01136  0.024889019   0.02551373            2 
  443000    1.0650175    -7.526405    132.82934  0.024986708  0.025496842            3 
  444000    1.1044927   -7.5248103    132.33255   0.02483719  0.025479899            1 
  445000    1.0947226   -7.5777167    132.09077  0.024736098  0.025462197            5 
  446000    1.0802806   -7.5580785    132.59853   0.02477551  0.025444313            5 
  447000    1.0588663   -7.5721911    133.02404  0.024799411   0.02542614            3 
  448000    1.0713825   -7.5504021    133.09704  0.024757633  0.025407988            2 
  449000    1.0800128   -7.5624796    133.39106  0.024757064  0.025389713            2 
  450000    1.0526998   -7.5850112    133.14591  0.024656649  0.025371529            2 
  451000    1.0941728   -7.5793056     133.9291  0.024746693  0.025352914            3 
  452000    1.0692021   -7.5956267    134.12039  0.024727211  0.025334769            4 
  453000    1.0908574   -7.6172676     134.0788  0.024664973  0.025316536            2 
  454000    1.0592981   -7.6043127    134.14538  0.024622867  0.025298488            4 
  455000    1.0698994   -7.6270513    134.16129  0.024571666   0.02528036            2 
  456000    1.0670351   -7.6273297    134.43326  0.024567482  0.025262278            3 
  457000    1.0828908   -7.5579715    135.05068  0.024626309  0.025244209            3 
  458000    1.0727628   -7.6058606    135.06672  0.024575459  0.025226007            2 
  459000    1.0713669   -7.5515168    135.29312  0.024563022  0.025207841            5 
  460000    1.0559357   -7.5883623    135.39047  0.024527259  0.025189348            2 
  461000     1.075515   -7.5639428    135.81051  0.024549983  0.025171096            1 
  462000    1.0797216   -7.5827717     135.7951  0.024494066  0.025153213            2 
  463000    1.0706478   -7.5776184    135.71783  0.024427256  0.025135216            4 
  464000     1.069447   -7.6010128     136.0568  0.024435489  0.025116774            1 
  465000    1.0834767   -7.5711904    136.22836  0.024413684  0.025098168            3 
  466000    1.0853173   -7.6514655    136.44266  0.024399617  0.025079591            3 
  467000    1.0443748   -7.5914188    136.45038  0.024348746  0.025060731            1 
  468000    1.0652599   -7.5844151     137.2863  0.024445566  0.025042104            2 
  469000    1.0731759   -7.6193674    136.66305  0.024282703  0.025023188            3 
  470000    1.0622995   -7.5658792    136.89068  0.024271397  0.025003875            3 
  471000    1.0553495   -7.6440073    137.23263  0.024280366  0.024984541            3 
  472000    1.0621846   -7.5844284    137.86102  0.024339869  0.024965655            8 
  473000     1.069132   -7.6241322    137.99379  0.024311802  0.024947117            3 
  474000    1.0742283   -7.6005698    138.11426  0.024281691  0.024929249            2 
  475000    1.0778046   -7.5431611    138.70653  0.024334478  0.024910753            3 
  476000    1.0664216   -7.6035364    138.59581  0.024263972  0.024892841            3 
  477000    1.0939714   -7.5770179    138.64281  0.024221316  0.024874349            2 
  478000    1.0850989   -7.6608118    138.82669  0.024202701  0.024855804            2 
  479000    1.0587984   -7.6394626    139.15459  0.024209218   0.02483738            3 
  480000      1.04383     -7.64908    139.15457  0.024158779  0.024818601            3 
  481000    1.0518602   -7.6147724    139.22335   0.02412047  0.024799385            1 
  482000    1.0841429   -7.6430429     139.0859  0.024046663  0.024780255            2 
  483000    1.0865821   -7.6227196    139.68192   0.02409971   0.02476081            5 
  484000    1.0678496    -7.627419     139.6513  0.024044645  0.024741632            1 
  485000    1.0518188   -7.6600842    140.00976  0.024056659  0.024722602            4 
  486000    1.0790031   -7.6482165    140.05416  0.024014774  0.024703696            2 
  487000    1.0556089   -7.6065546    140.73089  0.024081262  0.024684959            1 
  488000    1.0691816   -7.6122762    140.98456  0.024075232  0.024666215            1 
  489000    1.0675886   -7.5966016    141.06106  0.024039035  0.024647522            2 
  490000    1.0776834   -7.6108876     141.6384  0.024088164   0.02462927            2 
  491000    1.0580716   -7.6123924     141.1903  0.023963051  0.024610952            1 
  492000    1.0612683   -7.6020921    142.32539  0.024106604  0.024593213            8 
  493000    1.0638126   -7.6239854    142.15505  0.024028912  0.024575538            1 
  494000    1.0544352   -7.6467829    142.18382  0.023985125  0.024557432            2 
  495000    1.0501846   -7.6273475    142.50799  0.023991244  0.024539785            2 
  496000    1.0493538   -7.6097719    142.46084  0.023934953  0.024522188            4 
  497000    1.0528099   -7.6139431    143.40044  0.024044339  0.024504381            3 
  498000    1.0679518   -7.6281686    143.29656  0.023978674  0.024486735            1 
  499000    1.0300465   -7.6345442    143.70741  0.023999233  0.024469613            4 
  500000    1.0457903   -7.5951866    144.24512  0.024040853  0.024452637            5 
  501000     1.053436   -7.6351825    144.44416  0.024025975  0.024435743            2 
  502000     1.047009   -7.6612515    144.11969  0.023924252  0.024418757            2 
  503000    1.0472751   -7.6250093    144.61354  0.023958506  0.024401934            2 
  504000    1.0599867   -7.6943138    144.24717  0.023850391  0.024384859            5 
  505000    1.0561046   -7.6867585    144.63263   0.02386677  0.024367599            3 
  506000    1.0648786   -7.6410919    145.04213  0.023887043  0.024350683            5 
  507000    1.0526012   -7.6338599    145.23266  0.023871246  0.024333458            3 
  508000    1.0636361   -7.6396989    145.56049  0.023878034  0.024316391            2 
  509000    1.0537946   -7.6397844    145.03652  0.023745338  0.024299212            2 
  510000     1.082632    -7.645317    145.15757  0.023718558  0.024281626            3 
  511000    1.0482959   -7.6504797    145.22769  0.023683576  0.024263396            2 
  512000    1.0345596   -7.6608167    145.62079    0.0237013  0.024245447            1 
  513000    1.0665597   -7.6440415     145.5061  0.023636469  0.024227811            1 
  514000    1.0377874   -7.6370765     146.1975  0.023702578  0.024210182            2 
  515000    1.0518366   -7.6552469    146.27563  0.023669196  0.024192744            1 
  516000    1.0491498   -7.6946189    146.56023  0.023669287  0.024174707            1 
  517000    1.0674345   -7.6763973    146.31341  0.023583721  0.024156352            2 
  518000    1.0100936   -7.6615996    146.69277  0.023599224  0.024138028            3 
  519000    1.0621481   -7.6502229     146.6872  0.023552857  0.024119794            2 
  520000    1.0602554   -7.6652805    147.00809  0.023558988  0.024101767            1 
  521000    1.0506695   -7.6333712    147.70159  0.023624694  0.024083689            2 
  522000    1.0538533   -7.6562629    147.00836  0.023468767  0.024065686            2 
  523000    1.0319324   -7.6824361    147.09132  0.023437113  0.024047483            6 
  524000    1.0733665   -7.6629796     147.1155  0.023396231  0.024029231            2 
  525000    1.0611874   -7.6872855    147.66927  0.023439567  0.024010892            6 
  526000    1.0322024   -7.6376739    148.25442  0.023487709  0.023992477            5 
  527000    1.0470168   -7.6230254    148.09074  0.023417257  0.023974093            3 
  528000     1.059075   -7.6527203    147.70848  0.023312576  0.023955116            4 
  529000    1.0148099   -7.6363606    147.75428  0.023275721  0.023935846            1 
  530000    1.0397418   -7.6808876     147.7232  0.023226918  0.023916596            2 
  531000    1.0343389   -7.6505108    148.43886  0.023295489  0.023897175            2 
  532000    1.0285001   -7.6777141    148.17151  0.023209824  0.023878047            2 
  533000     1.020255   -7.6863597    148.58009  0.023230157  0.023858415            2 
  534000    1.0466862   -7.6570851    148.81818  0.023223811  0.023838854            2 
  535000    1.0480883   -7.7060456    148.94894  0.023200769  0.023819319            2 
  536000    1.0399361   -7.6634947    149.13723  0.023186759  0.023800073            2 
  537000    1.0325444    -7.700402     149.5082  0.023201148  0.023780944            3 
  538000    1.0578141    -7.706199    149.33641  0.023131414  0.023761857            1 
  539000    1.0367757   -7.7188971    149.20155  0.023067648  0.023742608            5 
  540000    1.0480568   -7.6787391    149.81692  0.023119895  0.023723216            3 
  541000    1.0338221   -7.6716718    149.82485  0.023078381   0.02370389            3 
  542000    1.0411855   -7.6831883    150.30798  0.023110083  0.023684644            3 
  543000    1.0203524   -7.6951379    150.27361  0.023062249  0.023665539            2 
  544000    1.0162934   -7.6710042     150.1672  0.023003554   0.02364605            3 
  545000    1.0543554   -7.7361376    150.09575   0.02295042  0.023626279            3 
  546000    1.0090397   -7.7052969    150.50301  0.022970545  0.023606806            2 
  547000    1.0479055   -7.7148206    150.48318   0.02292553  0.023587007            3 
  548000    1.0506217   -7.6492251    151.23422  0.022997904   0.02356722            9 
  549000    1.0228271   -7.6965595     151.2261  0.022954782   0.02354795            7 
  550000     1.041239   -7.7093912    151.56135  0.022963842  0.023528831            2 
  551000    1.0622411      -7.6518    151.77206  0.022954032  0.023509697            2 
  552000    1.0469573   -7.6662957     151.8613  0.022925921  0.023490785            3 
  553000    1.0041245   -7.6703545    151.63831   0.02285086  0.023471535            2 
  554000    1.0284019   -7.6646976    152.30733  0.022910248  0.023452555            1 
  555000    1.0464468   -7.6977732    152.17359  0.022848888  0.023433602            3 
  556000    1.0446159   -7.7227063    152.22666  0.022815746   0.02341478            1 
  557000    1.0302109   -7.7040477    152.61378  0.022832702  0.023395765            3 
  558000     1.019407   -7.7199921    153.00766  0.022850607  0.023376873            2 
  559000    1.0309737   -7.7237381    153.16488  0.022833166  0.023357931            2 
  560000    1.0351279   -7.7252126    153.39652  0.022826863   0.02333927            3 
  561000    1.0312809   -7.6715554    153.60541  0.022817203  0.023320519            2 
  562000    1.0383774   -7.6823209    154.15075  0.022857465  0.023302311            2 
  563000    1.0197364   -7.7026901    153.64956  0.022742682  0.023283822            3 
  564000    1.0348966   -7.7129151     154.3747    0.0228095    0.0232653            6 
  565000    1.0213252   -7.7181215    154.27366  0.022754227  0.023246902            1 
  566000    1.0501076   -7.6732613    154.82318  0.022794933  0.023228311            4 
  567000    1.0230936   -7.6897202    154.83415  0.022756342  0.023209878            4 
  568000    1.0394752   -7.6888513    154.91188  0.022727682  0.023191706            3 
  569000      1.03434   -7.6982031    155.08648   0.02271331  0.023173649            3 
  570000    1.0187845   -7.7156137    154.90079  0.022646315  0.023155543            2 
  571000    1.0188334   -7.6618962    155.59776  0.022708371  0.023137641            2 
  572000    1.0067525   -7.7190498    155.67015  0.022679217   0.02311967            4 
  573000    1.0304626   -7.7176607    156.04621  0.022694329   0.02310155            3 
  574000   0.99718543   -7.6950554     156.5115  0.022722343  0.023084203            2 
  575000    1.0288588   -7.6929411    156.55284  0.022688818  0.023066987            1 
  576000    1.0071886   -7.7124483    156.79109  0.022683895  0.023049564            2 
  577000    1.0299972   -7.7206942    156.80034  0.022645918  0.023032127            2 
  578000    1.0370164   -7.7530991    156.97397  0.022631771  0.023015004            2 
  579000    1.0259983   -7.7010345    157.21239  0.022626999  0.022997825            2 
  580000    1.0194606   -7.7366161      157.486  0.022627299  0.022980665            3 
  581000    1.0139404   -7.6873099    158.24558    0.0226973   0.02296363            7 
  582000    1.0198822   -7.7349811    157.59822   0.02256561  0.022946886            2 
  583000    1.0076078   -7.7134946    158.20397  0.022613489  0.022929917            1 
  584000     1.001236   -7.7475813    158.17033  0.022569968  0.022913226            2 
  585000     1.013604   -7.7274088    158.83207  0.022625651  0.022896389            3 
  586000    1.0250168   -7.6983527    158.34829  0.022518244  0.022879351            5 
  587000    1.0368764    -7.716037    158.36679  0.022482509  0.022862319            3 
  588000     1.034408   -7.6911306    158.55268  0.022470618  0.022845172            2 
  589000    1.0051064   -7.7253886    158.81415  0.022469461  0.022828047            4 
  590000    1.0108475   -7.6902678     159.2449  0.022492217  0.022811052            1 
  591000    1.0112919   -7.7534013    159.43833  0.022481434  0.022794101            3 
  592000    1.0201019   -7.7224209    159.19994  0.022409901  0.022777381            1 
  593000    1.0274855   -7.6886688    159.99556  0.022483919  0.022760492            5 
  594000    1.0228837   -7.7592014    159.32136  0.022351481  0.022743808            5 
  595000    1.0310382   -7.7472966    159.91763  0.022397427   0.02272691            5 
  596000    1.0043678   -7.7762267    159.99422  0.022370557  0.022709865            2 
  597000   0.99593415   -7.7365699    160.19893  0.022361659  0.022692576            2 
  598000    1.0448037   -7.7606507    160.34627  0.022344798  0.022675489            2 
  599000    1.0393971   -7.7321223    160.66401  0.022351699  0.022658781            2 
  600000    1.0165096   -7.7266702    161.19281  0.022387891  0.022641669            2 
  601000    1.0191847   -7.7651355    160.84945   0.02230303  0.022624688            2 
  602000    1.0045636   -7.7532816    161.10224  0.022300975  0.022607785            1 
  603000    1.0206408   -7.7351043    161.08852  0.022262095  0.022591131            2 
  604000    1.0333316    -7.723783    162.07383  0.022361179  0.022574879            4 
  605000     1.011146   -7.7217375    162.13952  0.022333267  0.022558299            1 
  606000    1.0159521   -7.7201753    162.04528  0.022283454  0.022541728            3 
  607000   0.99031689    -7.765198    162.00105  0.022240672  0.022525191            2 
  608000    1.0067266   -7.7437244      162.006   0.02220477  0.022508368            3 
  609000    1.0192083   -7.7424996    162.28674  0.022206724  0.022491579            4 
  610000    1.0101761   -7.7943571    162.52701  0.022203144  0.022474933            2 
  611000    1.0081703   -7.7393114    162.60543  0.022177499  0.022457771            2 
  612000    1.0205439    -7.732295    162.69387  0.022153305   0.02244084            3 
  613000    1.0226233   -7.7773168    162.91377   0.02214706  0.022424218            4 
  614000    1.0095583   -7.7615407    163.26842  0.022159123  0.022407919            5 
  615000   0.99138038   -7.6784923    163.55464  0.022161875  0.022391841            4 
  616000    1.0063774   -7.7169041    163.76154  0.022153888  0.022375846            3 
  617000   0.99705056   -7.7648004    163.55047  0.022089475  0.022359787            2 
  618000    1.0252096   -7.7002443    164.43283  0.022172711  0.022343783            4 
  619000    1.0053657   -7.7093881    164.55209  0.022152948   0.02232795            3 
  620000     1.000052    -7.763979      163.732  0.022006989  0.022311716            2 
  621000    1.0037238   -7.7424369     164.3086  0.022048927  0.022295588            1 
  622000   0.98662058   -7.7115058    164.52454   0.02204241  0.022279489            4 
  623000   0.98861386   -7.7010596    164.92422  0.022060489  0.022263322            2 
  624000   0.99801294   -7.7774189    164.91888  0.022024423    0.0222475            3 
  625000    1.0052234    -7.767219    165.14475    0.0220193   0.02223164            2 
  626000   0.97165659    -7.750039    165.48444  0.022029345  0.022215701            3 
  627000    0.9959165   -7.7441908    165.85996   0.02204412  0.022199694            3 
  628000     1.000235   -7.7774754    165.41094  0.021949435  0.022183713            4 
  629000    1.0214502   -7.7584471     165.6874  0.021951166  0.022167753            5 
  630000   0.98289964   -7.7593483    165.94959  0.021951004  0.022151864            2 
  631000    1.0187001    -7.748155    166.51488  0.021990872  0.022136308            3 
  632000    1.0037949   -7.7775157    166.44237  0.021946515  0.022120813            4 
  633000   0.99750763   -7.7585331    166.94504  0.021978019  0.022105066            7 
  634000   0.99787004   -7.8048691    166.78744  0.021922639  0.022089446            5 
  635000   0.97322387    -7.774835    166.96386  0.021911268  0.022073952            1 
  636000    1.0078852   -7.7649538    167.31926  0.021923383  0.022058455            1 
  637000   0.99330227   -7.7553651    167.27733  0.021883481  0.022042691            3 
  638000     1.009751   -7.7888654    167.38925  0.021863799  0.022027247            4 
  639000   0.98668134   -7.7920909    167.47496  0.021840761  0.022011863            2 
  640000    1.0045271   -7.8175091    167.42258  0.021799815  0.021996241            3 
  641000   0.99767759   -7.7987136    167.69997  0.021801868  0.021980506            2 
  642000     1.006822   -7.7900647    168.32726  0.021849333  0.021965256            2 
  643000   0.96701254   -7.8006557    168.24508  0.021804702  0.021949855            2 
  644000    1.0300448   -7.7911846    168.21026  0.021766339  0.021934076            4 
  645000   0.99105257   -7.7724594    168.18686  0.021729568  0.021918293            1 
  646000   0.99682262   -7.8046672    168.15736  0.021692126  0.021902633            4 
  647000    0.9996057   -7.7707061    168.38225  0.021687565  0.021886724            6 
  648000     1.010445   -7.8098238     168.7753  0.021704643  0.021870658            6 
  649000   0.98997181   -7.7681573     168.8507   0.02168088  0.021854763            5 
  650000   0.98012819   -7.7716003    169.29181  0.021704078    0.0218391            3 
  651000   0.99478315   -7.7451809    169.46394  0.021692773  0.021823618            3 
  652000    1.0215499   -7.7860408    169.55193  0.021670747  0.021808441            3 
  653000   0.98061906    -7.835561    169.40638  0.021618987  0.021793002            4 
  654000   0.98308344   -7.8387443    169.29657  0.021571938  0.021777232            5 
  655000     1.008626   -7.8355665    169.10819  0.021515037  0.021761275            2 
  656000    1.0230123   -7.7627509    170.43235  0.021650452  0.021745563            5 
  657000     1.017337   -7.7826459    170.00707  0.021563555  0.021729787            4 
  658000     1.010739   -7.8389516    169.83662  0.021509197  0.021713871            4 
  659000   0.97934829   -7.8135964    169.98532  0.021495361  0.021698006            2 
  660000    1.0256722   -7.8710573    170.44533  0.021520875  0.021682595            3 
  661000   0.99182305   -7.8140416    171.24608  0.021589268  0.021667491            4 
  662000   0.99121148   -7.7948081    171.19298  0.021549972  0.021652311            1 
  663000     1.000481   -7.8467775    170.57859  0.021440245  0.021636893            2 
  664000    1.0023175   -7.8074729    171.11394  0.021475143  0.021621479            1 
  665000    0.9737819   -7.7889237    171.67967  0.021513743  0.021606126            1 
  666000   0.99689546   -7.8018213    171.61001  0.021472724  0.021590888            4 
  667000   0.97729704   -7.8252279    171.48563  0.021424991   0.02157581            2 
  668000   0.97950971   -7.8207189    172.15871  0.021476885  0.021560788            2 
  669000   0.98695718   -7.8124278    171.96302  0.021420407  0.021545798            1 
  670000   0.98207512   -7.8334196    172.32457  0.021433404  0.021530597            1 
  671000   0.98659533   -7.8499592    171.93307  0.021352841   0.02151511            4 
  672000   0.99359374   -7.8349118    172.70286  0.021416525  0.021499675            1 
  673000   0.99930447   -7.8032508    172.93013  0.021412845  0.021484374            2 
  674000   0.98167144   -7.7967699    173.37613  0.021436218  0.021469295            4 
  675000    1.0002449   -7.7907098    173.02661   0.02136131  0.021454398            3 
  676000   0.98570305   -7.8524278    172.84885  0.021307797  0.021439225            2 
  677000    0.9838057   -7.8341573     173.2909  0.021330736  0.021423955            4 
  678000    0.9852447   -7.8296821    172.95892   0.02125847  0.021408608            3 
  679000   0.98136829   -7.8095532    173.33634  0.021273483  0.021393335            2 
  680000    1.0143663   -7.8368134    173.49974  0.021262223  0.021378072            3 
  681000   0.96231668   -7.8598811    172.85845  0.021152527  0.021362579            3 
  682000    0.9888157    -7.801186    173.61889  0.021214429  0.021347006            2 
  683000    1.0039967   -7.8189211     173.7329  0.021197279   0.02133147            4 
  684000   0.97707478    -7.823198    174.00543  0.021199492   0.02131579            1 
  685000   0.98119921   -7.8576498    173.66728  0.021127406  0.021299882            1 
  686000   0.96924929   -7.8493169    173.89575  0.021124362  0.021284141            4 
  687000   0.96738228   -7.8192306      173.809  0.021083091  0.021268265            3 
  688000   0.97980837   -7.8362984    174.18613  0.021098126  0.021252558            6 
  689000   0.98808357    -7.820157     174.6606  0.021124891  0.021237082            2 
  690000   0.95770966   -7.8241771    174.49784  0.021074618  0.021221343            2 
  691000   0.96392256   -7.8604813    174.74617  0.021074068  0.021205693            4 
  692000   0.96534691   -7.8221897     174.9459  0.021067667  0.021190059            2 
  693000    0.9963433   -7.8309345    175.16563  0.021063688   0.02117423            6 
  694000   0.98158932   -7.8446563    174.91205  0.021002888  0.021158291            3 
  695000   0.98463315   -7.8179565    175.42972  0.021034739  0.021142665            5 
  696000   0.98865931   -7.8132355    175.15797  0.020971979  0.021127042            3 
  697000   0.97862927   -7.8654797    174.70782   0.02088807  0.021111362            3 
  698000   0.96915653   -7.8381155    175.54411  0.020957988  0.021096019            3 
  699000   0.98589258   -7.8170336    175.36639  0.020906819  0.021080441            4 
  700000   0.96785527   -7.8476461    175.46763  0.020889003  0.021064768            3 
  701000   0.97664155   -7.8198203    175.98234  0.020920392  0.021048874            3 
  702000   0.97268631   -7.8551318     175.7878  0.020867498  0.021033155            3 
  703000   0.95486427   -7.8667011    175.72447  0.020830308  0.021017147            4 
  704000    0.9796737   -7.8492733    176.06506  0.020841035  0.021001028           14 
  705000   0.95715903   -7.8864649    176.52316  0.020865622  0.020985017            4 
  706000    1.0144775   -7.8842924     175.8258  0.020753753  0.020968886            3 
  707000     0.974723   -7.9034628    176.14496  0.020762017  0.020952658            5 
  708000   0.99404972   -7.9078717    175.74368  0.020685461  0.020936284            4 
  709000     0.966987   -7.8800466    176.30255  0.020721973  0.020919846            3 
  710000   0.96225962    -7.886224    175.93175  0.020649266  0.020903505            4 
  711000   0.96072938   -7.8503235    176.63212  0.020702311  0.020886927            4 
  712000   0.98455867   -7.8738249    176.72329  0.020683906  0.020870748            1 
  713000   0.98633178   -7.8538037    176.51986  0.020631119  0.020854623            2 
  714000   0.95287628   -7.8654394    176.44041  0.020592952  0.020838523            5 
  715000   0.95110238   -7.8653364    177.02584  0.020632383  0.020822493            3 
  716000   0.96945696   -7.8677012    176.96517  0.020596505  0.020806392            7 
  717000    0.9798209   -7.8487877    177.71337  0.020654738  0.020790551            3 
  718000   0.95940496   -7.8767108    177.55541  0.020607638   0.02077464            1 
  719000   0.97938722   -7.8484854    178.20745  0.020654549  0.020758742            5 
  720000   0.97538241   -7.8605257    177.68117   0.02056495  0.020743178            2 
  721000   0.95722914   -7.8576372    178.05576  0.020579722   0.02072708            3 
  722000    0.9652444     -7.86887    178.29316  0.020578619  0.020711219            1 
  723000   0.97061489   -7.8894982    177.62896  0.020473601  0.020695262            3 
  724000   0.96163066   -7.8874201    178.64818  0.020562636  0.020679333            2 
  725000   0.95088527   -7.8651138     178.8519   0.02055769  0.020663597            2 
  726000   0.95721262   -7.8978626    178.55243  0.020494999  0.020647749            2 
  727000   0.97046426   -7.8665184    178.77538  0.020492363  0.020631763            2 
  728000   0.97094288    -7.880855    179.03513  0.020493949  0.020615794            3 
  729000   0.96005558   -7.8904882    177.95422  0.020342275  0.020599715            4 
  730000   0.96360895   -7.8775567    178.82917  0.020414289  0.020583595            3 
  731000   0.96899735   -7.8994909    178.67675  0.020368987  0.020567199            3 
  732000   0.94293143   -7.9375817    178.77633  0.020352497  0.020550769            6 
  733000   0.95935634   -7.8977274    179.05612  0.020356539  0.020534289            4 
  734000    0.9613355   -7.8882345    178.89083  0.020310039  0.020518112            2 
  735000   0.93516124   -7.8829283    179.56289  0.020358604  0.020502125            2 
  736000   0.96690244   -7.9205737     179.1314  0.020282088  0.020486131            2 
  737000   0.93922728   -7.8843109    179.82512  0.020333008  0.020470112            1 
  738000   0.96195717   -7.8636197    179.71997  0.020293583  0.020454296            3 
  739000   0.94970222   -7.8578865    180.09093  0.020307954  0.020438486            3 
  740000    0.9563233   -7.8779566    179.88868  0.020257735  0.020422653            4 
  741000   0.97972909    -7.867591     180.5325    0.0203028  0.020406849            2 
  742000   0.94953581   -7.8948092    180.52755  0.020274882  0.020390979            3 
  743000   0.97284961   -7.8914989    180.60683  0.020256487  0.020375193            3 
  744000   0.94902186   -7.8842246    180.45945  0.020212752  0.020359444            3 
  745000   0.96294994   -7.8896819    180.93396  0.020238698  0.020343829            1 
  746000   0.94111168   -7.9176542    180.98111  0.020216836  0.020328325            2 
  747000   0.97623035   -7.8937993     180.8927  0.020179909  0.020312749            4 
  748000   0.92857414   -7.8408405    181.68164  0.020240824  0.020297166            4 
  749000   0.95456721   -7.9418971    180.93642  0.020130887  0.020281483            3 
  750000   0.94237278   -7.9017876    181.11546   0.02012394   0.02026571            2 
  751000   0.95762646   -7.9202763    181.31876  0.020119703  0.020249947            2 
  752000    0.9508232    -7.899724    181.50675   0.02011378  0.020234104            3 
  753000   0.93249069   -7.8937008    181.43417  0.020079037  0.020218313            5 
  754000   0.96750738   -7.8808921    182.37655  0.020156559   0.02020257            4 
  755000   0.94352935   -7.8787715    182.46034  0.020139111   0.02018701           10 
  756000   0.94804159   -7.9227608    181.73782  0.020032829  0.020171184            7 
  757000   0.95196781   -7.8879221    182.39282   0.02007847  0.020155583            3 
  758000   0.94610276   -7.8846224    182.71494  0.020087394   0.02014015            2 
  759000   0.95531589    -7.917455    182.30692  0.020016131   0.02012459            4 
  760000   0.93383248   -7.9821661    182.28927  0.019987859   0.02010879            2 
  761000   0.95595102   -7.9377221    182.89853  0.020028311  0.020093152            3 
  762000   0.94714448   -7.9340143    182.93703  0.020006237  0.020077587            2 
  763000   0.95610143   -7.9217477    182.95809  0.019982316  0.020062101            5 
  764000   0.94742922   -7.9328392    182.84013  0.019943296  0.020046648            2 
  765000   0.95028727   -7.9193525    183.66331  0.020006897  0.020031235            4 
  766000   0.94485172   -7.9307527    182.84854  0.019892138  0.020015733            2 
  767000   0.95145429   -7.9177646    183.41895  0.019928178  0.020000126            2 
  768000   0.95395301   -7.9290861    183.06995  0.019864361  0.019984408            2 
  769000   0.95098115   -7.8947141    183.75822  0.019913114  0.019968982            3 
  770000   0.95364037   -7.8939344    184.25059   0.01994054  0.019953736            5 
  771000   0.94569232   -7.9436464    183.50891  0.019834513  0.019938353            4 
  772000   0.95999753   -7.9470327    183.92091  0.019853293  0.019922958            2 
  773000   0.95919119   -7.9167762    184.05328   0.01984188  0.019907514            3 
  774000   0.95771559   -7.9262232    184.05047  0.019815942  0.019892101            3 
  775000   0.93677846   -7.9032671    184.16347  0.019802523  0.019876797            1 
  776000   0.94100055   -7.9630784    184.35564  0.019797642  0.019861589            1 
  777000   0.94790656    -7.956701    184.51658  0.019789423  0.019846179            2 
  778000   0.94588012   -7.9134579    185.22508  0.019839875  0.019830826            7 
  779000   0.94229333   -7.9575698    184.23648  0.019708653  0.019815406            5 
  780000   0.95581453   -7.9314008    185.56482  0.019825301  0.019800239            2 
  781000   0.94558474   -7.9005561    185.24234  0.019765508  0.019785273            3 
  782000   0.92867439   -7.9517017    184.61964  0.019673875  0.019770195            4 
  783000    0.9466451   -7.9394044    185.04038  0.019693527  0.019755183            3 
  784000   0.95110786    -7.945274    186.00227   0.01977065  0.019740134            5 
  785000   0.94277176   -7.9225203     185.3961  0.019681115   0.01972518            3 
  786000   0.94585008   -7.9264166    185.73494  0.019691999  0.019710228            1 
  787000   0.91290694   -7.9654038    185.70086   0.01966337  0.019695162            2 
  788000    0.9467464   -7.9658043    185.48754  0.019615857  0.019680036            3 
  789000   0.93177872   -7.9733799    185.66669  0.019609917  0.019664892            3 
  790000   0.95408767   -7.9624486    185.67363  0.019585826  0.019649674            4 
  791000   0.93772301   -7.9544199    186.11551  0.019607618  0.019634559            5 
  792000   0.92938686   -7.9489113    186.56795  0.019630466   0.01961955            2 
  793000   0.95660774    -7.933324     186.2382  0.019571059  0.019604403            4 
  794000   0.91016628   -7.9531075    186.19243  0.019541607   0.01958923            4 
  795000   0.92310001   -7.9518398    185.99952  0.019496805   0.01957418            3 
  796000   0.95079943   -7.9822526    186.62387  0.019537675  0.019559025            3 
  797000   0.92157177   -7.9827068     186.8942  0.019541426  0.019543832            3 
  798000   0.92235041   -7.9588225     186.5161  0.019477454  0.019528651            4 
  799000   0.92210591    -7.951907    186.31663  0.019432273  0.019513325            1 
  800000   0.95733548   -7.9953288    186.67194  0.019444994  0.019497903            2 
  801000   0.93372515   -7.9745393    186.64091   0.01941749  0.019482497            5 
  802000   0.92810685   -7.9212024    187.31199  0.019463008  0.019467284            3 
  803000   0.93995884   -7.9834441    186.98902  0.019405253   0.01945207            4 
  804000   0.92075328   -7.9410766     187.2939  0.019412718  0.019436922            3 
  805000    0.9176601   -7.9323856     187.5488   0.01941499  0.019421783            5 
  806000   0.91663389    -7.955137    187.33305  0.019368595  0.019406703            5 
  807000   0.93242333   -7.9483177    187.52057  0.019363958  0.019391649            2 
  808000   0.92954471   -7.9398641    187.39738  0.019327287  0.019376652            8 
  809000   0.93399706   -7.9534512    187.65253  0.019329679  0.019361693            1 
  810000   0.93822632   -7.9468642    188.34738  0.019377303  0.019346685            4 
  811000   0.92565353   -7.9372779    188.15355  0.019333493  0.019331861            3 
  812000   0.92790837   -7.9427321    188.43138  0.019338195   0.01931696            1 
  813000   0.92155368   -7.9311911    188.10089  0.019280534  0.019302057            3 
  814000   0.93596612   -7.9801729    188.38108  0.019285532  0.019287154            5 
  815000   0.91924512   -7.9163485    188.44865  0.019268778  0.019272146            4 
  816000   0.91329016   -7.9185861    188.48764  0.019249147  0.019257053            3 
  817000   0.92576824   -7.9397562    188.75316  0.019252668  0.019242001            2 
  818000   0.92000727   -7.9364047     188.6963  0.019223339  0.019226755            1 
  819000   0.93480115   -7.9588571     188.6467  0.019194821  0.019211437            5 
  820000   0.92626091   -8.0097464     188.6961  0.019176433  0.019196171            2 
  821000   0.94421519   -7.9944245    188.20394   0.01910312  0.019180982            2 
  822000   0.93037474     -7.95986    188.74542  0.019134775  0.019165722            1 
  823000   0.91854903    -7.972515    189.04486  0.019141844  0.019150492            1 
  824000   0.95539602   -7.9846138    188.84734  0.019098638  0.019135294            1 
  825000   0.93966252   -7.9787733    188.59734  0.019050237  0.019119995            3 
  826000   0.91835671   -7.9771794     188.6552  0.019033011  0.019104561            1 
  827000   0.93054492   -7.9968778     188.7861  0.019023186    0.0190891            2 
  828000   0.92094687    -7.965431    189.58981    0.0190811  0.019073654            3 
  829000   0.93819022   -7.9768712    188.96126  0.018994899  0.019058203            3 
  830000    0.9194849   -7.9858344    189.46977  0.019023069  0.019042672            6 
  831000   0.90871926    -7.964543    189.33189  0.018986351  0.019027283            3 
  832000   0.92846408    -7.941561    189.68307  0.018998705  0.019012055            5 
  833000   0.89234681   -7.9766708    189.78492  0.018986086  0.018996931            3 
  834000   0.92609825   -8.0205729    189.31971  0.018916838  0.018981646            3 
  835000   0.89093053   -7.9646637    189.66267   0.01892841   0.01896635            7 
  836000   0.92324477   -7.9787247    189.77136  0.018916603  0.018951056            6 
  837000   0.90405532   -7.9854109    190.13004  0.018929714  0.018935912            2 
  838000   0.90089812    -7.984931    190.38367  0.018932346  0.018920932            6 
  839000   0.95563702   -7.9940561    190.14925  0.018886497  0.018905864            2 
  840000   0.91949595   -8.0427266    189.97746   0.01884697  0.018890856            3 
  841000   0.92240994   -8.0353376    190.03743  0.018830503  0.018875568            4 
  842000    0.9344394   -8.0089441    190.13664  0.018817957  0.018860406            4 
  843000   0.92121772    -8.015359    190.38148  0.018819838   0.01884525            3 
  844000   0.90820793   -8.0024736    190.83502  0.018842321  0.018830347            2 
  845000   0.93892498   -8.0261414    190.60044  0.018796888   0.01881535            5 
  846000   0.92338161   -7.9911975    191.13435  0.018827261  0.018800472            4 
  847000   0.91295624   -7.9914616    191.09198  0.018800864  0.018785659            4 
  848000   0.91604749   -7.9854314    191.11207  0.018780667   0.01877094            3 
  849000   0.91610455   -8.0439778    191.05091  0.018752543  0.018755934            4 
  850000   0.89893222   -8.0257951    191.57959  0.018782312   0.01874103            4 
  851000   0.92103333   -8.0095734    191.75088  0.018777015  0.018726197            3 
  852000   0.90014719   -8.0354064    191.49539  0.018729987  0.018711426            5 
  853000   0.93901064   -7.9893495     191.5563   0.01871398  0.018696658            2 
  854000   0.91606585   -8.0306783    191.73531  0.018709535  0.018681885            4 
  855000    0.9190922   -8.0309963    191.72923  0.018687059  0.018667182            4 
  856000   0.92382013   -8.0169384     191.8507  0.018677054  0.018652498            3 
  857000   0.90154442   -8.0352185    192.19675   0.01868891  0.018637886            5 
  858000   0.89742722   -8.0059951    192.87637  0.018733136  0.018623339           14 
  859000   0.92121746   -8.0655195    191.99054  0.018625392  0.018608849            2 
  860000   0.93041549   -8.0295874     192.1354  0.018617771  0.018594382            4 
  861000   0.93329483   -8.0639571    192.09957   0.01859268  0.018579786            3 
  862000   0.91114441   -8.0804987    192.75655  0.018634624  0.018565153            8 
  863000   0.93210661   -8.0287346    192.64145  0.018601917  0.018550469            4 
  864000   0.91543911   -8.0263861    192.96792  0.018611875  0.018535969            7 
  865000   0.90785883   -8.0568511      192.813  0.018575433  0.018521503            4 
  866000   0.92937291   -8.0264078     193.0865  0.018580302  0.018506896            5 
  867000    0.9142022   -8.0251159    193.23486  0.018573131  0.018492403            1 
  868000    0.9044105   -8.0695484    193.21208  0.018549546   0.01847796            4 
  869000   0.91666008    -8.067931    192.91155  0.018499382  0.018463354            5 
  870000   0.90752525   -8.0255546    193.33959  0.018519118  0.018448823            7 
  871000   0.88936008   -8.0379419    193.46282  0.018509646  0.018434207            2 
  872000   0.92332745   -8.0257115    193.22509  0.018465701  0.018419604            4 
  873000   0.88374472   -8.0560922    192.95459  0.018418727   0.01840505            7 
  874000    0.8878673   -8.0429757    193.09495  0.018411037  0.018390355            6 
  875000   0.90833085   -8.0516247    193.64969  0.018442828  0.018375731            6 
  876000   0.91046589   -8.0860009    193.18437  0.018377509  0.018361136            4 
  877000   0.90220929   -8.0325664    194.03671  0.018437543  0.018346517            4 
  878000   0.90177569   -8.0435361    194.47787  0.018458416  0.018332067            2 
  879000   0.90610597   -8.0460319      193.994  0.018391544   0.01831762            4 
  880000   0.90559505   -8.0297797    194.54777  0.018423085  0.018303158            4 
  881000   0.88258536   -8.0248436    194.34965  0.018383432  0.018288952            2 
  882000   0.90926398   -8.0184563    194.15845  0.018344525  0.018274534            2 
  883000   0.89463812   -8.0389182    194.21306  0.018328904  0.018260112            9 
  884000   0.89347637   -8.0407576    194.66265  0.018350551  0.018245585            3 
  885000    0.9045611   -8.0597509    193.90279  0.018258267  0.018231123            4 
  886000   0.90035843   -8.0095167    194.72465  0.018314959  0.018216649            3 
  887000   0.91873438   -8.0230338    194.35565  0.018259644  0.018202123            4 
  888000    0.8828514   -8.0555666    194.93048  0.018293026  0.018187623            5 
  889000   0.91757951   -8.0833343    194.88807  0.018268473  0.018173291            3 
  890000   0.90408705   -8.0530117    195.16939  0.018274288  0.018158985            4 
  891000    0.9010562   -8.0934178    194.69351   0.01820927  0.018144558            4 
  892000   0.90980618   -8.0869483    194.51754  0.018172416  0.018130079            3 
  893000   0.90432188   -8.0925939    195.03493  0.018200348  0.018115661            4 
  894000   0.88808879   -8.0691439    195.17947  0.018193463  0.018101252            3 
  895000   0.91120652   -8.1197302    194.86303  0.018143671  0.018086959            2 
  896000   0.90777204   -8.0841547    194.83052  0.018120398  0.018072584            2 
  897000   0.88489009   -8.1120562    195.45329  0.018158054  0.018058235            2 
  898000   0.89048228   -8.0461052    195.15095  0.018109776  0.018043943            3 
  899000   0.88646055   -8.0373235    196.04732  0.018172722  0.018029797            2 
  900000   0.89582198   -8.0423849    195.84922  0.018134187  0.018015626            7 
  901000   0.89847872   -8.0787543     196.4392  0.018168628  0.018001489            4 
  902000   0.88492443   -8.0746797    196.27851  0.018133639  0.017987497            7 
  903000   0.91842511   -8.0769475    195.76923  0.018066558  0.017973537            4 
  904000    0.8703977   -8.0499056    196.40104  0.018104815  0.017959398            5 
  905000   0.89097664   -8.0637591    196.53773  0.018097397  0.017945322            3 
  906000   0.91629398   -8.0820213    196.35487  0.018060603  0.017931248            2 
  907000   0.91153931   -8.0896428    196.34254  0.018039557  0.017917121            6 
  908000   0.87600816   -8.0930475    196.52778   0.01803669  0.017902879            2 
  909000   0.87945712   -8.0899153    196.25281   0.01799164   0.01788867            3 
  910000    0.8780898   -8.0878606    196.39053   0.01798448  0.017874519            4 
  911000   0.87676497   -8.0826933    197.21828  0.018040457  0.017860303            2 
  912000   0.89965374   -8.0572158    196.97581   0.01799852  0.017846257            4 
  913000   0.86355992   -8.0953909    197.10957  0.017991016   0.01783225            4 
  914000   0.87940155   -8.0551741    196.93913  0.017955792  0.017818247            3 
  915000   0.90464942   -8.0872977    196.37071    0.0178844  0.017804142            4 
  916000   0.89110733   -8.0714956    196.91909  0.017914764  0.017790117            3 
  917000    0.8899859   -8.0799915    197.29903  0.017929755  0.017776001            6 
  918000   0.90073654   -8.0770571    197.26595  0.017907221  0.017761987            4 
  919000   0.89405409   -8.0844238     197.2161  0.017883216  0.017747912            2 
  920000   0.88563069   -8.1080641    197.54732  0.017893779  0.017733754            2 
  921000   0.89237271   -8.0774806    197.07614  0.017831718  0.017719715            4 
  922000   0.88818801   -8.0756834     197.5957  0.017859337  0.017705667            4 
  923000   0.88872112   -8.0673312    197.76123  0.017854932  0.017691713            2 
  924000   0.88500279   -8.1183481    197.27849  0.017792071  0.017677635            4 
  925000   0.85800351   -8.1362051     197.2574  0.017770937  0.017663453            4 
  926000   0.88647893   -8.0993323    197.84067  0.017804236  0.017649371            7 
  927000   0.88436478   -8.0864012    197.47487  0.017752146  0.017635335            8 
  928000   0.89158498   -8.1033734    197.66573  0.017750155  0.017621328            6 
  929000   0.88756965   -8.0892802    197.78994  0.017742191  0.017607293            7 
  930000   0.87308132   -8.0979722     197.7132  0.017716236  0.017593186            8 
  931000   0.87966053   -8.0920633    197.89728  0.017713684  0.017579004            5 
  932000    0.8922923    -8.127169    197.98106  0.017702169  0.017564905            6 
  933000   0.88718238   -8.1073584    198.51759  0.017731117  0.017551033           10 
  934000   0.87935176    -8.078283     198.7932  0.017736723  0.017537028            4 
  935000   0.88362837   -8.1435908    197.60317  0.017611691  0.017522912            5 
  936000   0.87565744    -8.094317    198.15609  0.017642102  0.017508868            5 
  937000   0.88592384   -8.1110689     198.0028  0.017609641  0.017494835            2 
  938000   0.89416738   -8.1009066    198.57746  0.017641921  0.017480796            3 
  939000   0.89120224   -8.1105537    198.47237  0.017613806  0.017466832            3 
  940000   0.85583826     -8.10976    198.78658  0.017622924  0.017452938            4 
  941000   0.87398287   -8.0797868    199.11896  0.017633631  0.017439113            8 
  942000   0.88532199    -8.061503    199.10386  0.017613575  0.017425363            4 
  943000   0.86492711   -8.1159593    199.26648  0.017609268  0.017411703            2 
  944000   0.86587276   -8.1197948    199.21758  0.017586297  0.017397984            3 
  945000   0.87565689   -8.0711497    199.49686  0.017592315  0.017384337            9 
  946000   0.86837937   -8.1401062    199.47226  0.017571552  0.017370764            9 
  947000   0.88385823   -8.1064669     199.7001  0.017573047  0.017357219            3 
  948000   0.88882725    -8.082074    200.21407  0.017599689  0.017343694            7 
  949000   0.86701132    -8.119929    199.63298  0.017530118  0.017330103            4 
  950000   0.86999778   -8.1124731    199.72917  0.017520102  0.017316566            2 
  951000   0.88081662   -8.1171577    200.62428  0.017580116  0.017303072            2 
  952000   0.89277159   -8.1425035      199.888  0.017497198  0.017289578            3 
  953000   0.89176018   -8.1591887    199.72111  0.017464245  0.017275953            2 
  954000   0.86661739   -8.1224722    199.93708  0.017464805  0.017262409            5 
  955000   0.87173181   -8.1898214    199.61817  0.017418688  0.017248745            4 
  956000   0.88583687   -8.1720924    199.92773  0.017427452  0.017234948            6 
  957000   0.87108787   -8.1885934    199.46665  0.017369091  0.017221188            5 
  958000   0.85616422   -8.1290719    200.22726  0.017417124  0.017207504            3 
  959000   0.88239832   -8.1334646    200.24766  0.017400735   0.01719386            2 
  960000   0.85778911    -8.126515    200.22142  0.017380332  0.017180111            7 
  961000   0.87069693   -8.1385797    200.21602  0.017361778  0.017166484            3 
  962000   0.87647421   -8.1326209    200.90823  0.017403693  0.017152817            3 
  963000   0.84966792   -8.1458891    200.22245  0.017326277  0.017139052            2 
  964000   0.87365615   -8.1536294    199.96157  0.017285751  0.017125315            5 
  965000   0.86891499   -8.1392534    200.16988  0.017285827  0.017111642            3 
  966000   0.86986282    -8.143314    200.14985  0.017266205  0.017097911            2 
  967000   0.87433929   -8.1521158    199.73701  0.017212772  0.017084098            4 
  968000   0.86071287   -8.1248194    200.79567  0.017286129  0.017070291            4 
  969000   0.86836619    -8.141159    200.65032   0.01725579  0.017056454            2 
  970000   0.85663978   -8.1703362    200.54286  0.017228768  0.017042789            5 
  971000   0.85289761   -8.1302724    200.90321  0.017241951  0.017029092            2 
  972000   0.87043125   -8.1422783    200.50308  0.017189907  0.017015453            7 
  973000   0.85646868   -8.1755171    200.51709   0.01717344  0.017001832            6 
  974000   0.87278811   -8.1423535    201.24923  0.017218449  0.016988225            7 
  975000    0.8822954   -8.1275683    201.68128  0.017237716  0.016974842            4 
  976000   0.85680903   -8.1472724    201.27493  0.017185359   0.01696143            6 
  977000   0.85945424   -8.1828456    201.67017  0.017201482  0.016947822            4 
  978000   0.85360608   -8.2010757    200.62648  0.017094963  0.016934165            4 
  979000   0.86185268   -8.1868048    200.84972  0.017096503  0.016920448            2 
  980000   0.86577021   -8.1802999    201.21353  0.017109994  0.016906747            3 
  981000   0.84716404   -8.1931158    201.44974  0.017112618  0.016893144            4 
  982000   0.85823055   -8.1819998    201.70652  0.017116982  0.016879549           11 
  983000   0.86123551   -8.1967331     201.3159  0.017066455  0.016865997            3 
  984000   0.84984145   -8.1972308    201.47774  0.017062817  0.016852527            4 
  985000   0.86546816   -8.1809597    201.16173  0.017018759  0.016838991            2 
  986000   0.85793929   -8.1827403    201.26683  0.017010381  0.016825461            4 
  987000   0.84913757   -8.1665936    201.66703  0.017026936  0.016811968            4 
  988000   0.85233816   -8.1648208    202.38862  0.017070565  0.016798508            6 
  989000   0.85264912   -8.1636991    202.35826  0.017050746  0.016785163            3 
  990000   0.86914548   -8.2078254     201.8455  0.016990362  0.016771798            5 
  991000   0.85316016   -8.1868786    202.30603  0.017011943  0.016758403            2 
  992000   0.84540095   -8.2239396    201.83765  0.016955448  0.016744912            7 
  993000   0.86345338   -8.2176443    201.79891  0.016935121  0.016731324            2 
  994000   0.85208619   -8.2144949    201.99025  0.016934126   0.01671774            3 
  995000   0.84823432   -8.1897295    201.84803  0.016905195  0.016704102            5 
  996000   0.87011571   -8.1965366     201.8938  0.016892052  0.016690517            6 
  997000   0.87034422   -8.2153903    202.07817  0.016890519  0.016676966            3 
  998000   0.85764523   -8.1691243    202.29258  0.016891498  0.016663474            5 
  999000   0.84665464   -8.1991644     202.4321  0.016886228  0.016650081            6 
 1000000   0.85655677   -8.1873335    203.09325  0.016924437  0.016636781            3 
 1001000   0.85032962   -8.2265533    202.35233  0.016845848  0.016623367            4 
 1002000   0.84865453   -8.2063191    202.72267  0.016859836      0.01661            5 
 1003000   0.85562825   -8.2143039    202.05582  0.016787622  0.016596616            5 
 1004000   0.85278185   -8.1870986    202.71804  0.016825866  0.016583087           10 
 1005000    0.8409728   -8.2181679    202.68183  0.016806122  0.016569522            3 
 1006000   0.85962511   -8.2122349    202.76504  0.016796309  0.016556022            1 
 1007000   0.87926125   -8.2369144    202.56463  0.016763045  0.016542591            2 
 1008000   0.85337085   -8.1785383    202.90351   0.01677443  0.016529168            4 
 1009000    0.8683801   -8.1994078    202.93391  0.016760317  0.016515626            5 
 1010000   0.84828722    -8.194925    202.93459  0.016743778  0.016502202            4 
 1011000   0.84700627   -8.1844202    203.14245   0.01674435  0.016488772           12 
 1012000   0.84121641   -8.2372107    202.73277  0.016694069  0.016475267            2 
 1013000   0.84950475   -8.1887491    203.32951  0.016726679  0.016461873            2 
 1014000   0.84763297   -8.2274747    202.71126  0.016659374  0.016448416            3 
 1015000   0.85710969   -8.1833821    203.25874   0.01668791  0.016434903            2 
 1016000   0.83303532   -8.1899215    202.82902  0.016636238  0.016421488            4 
 1017000   0.83119114   -8.2339859    202.53919  0.016596132    0.0164081            4 
 1018000   0.82037313   -8.2310025    203.22727  0.016636155  0.016394719            5 
 1019000   0.84649895   -8.2171766    203.35851  0.016630562  0.016381315            3 
 1020000   0.84731975   -8.2427726    203.29828  0.016609337  0.016367971            4 
 1021000   0.84034926   -8.2012178    204.00484  0.016650738  0.016354669            4 
 1022000   0.85817484   -8.2244965    202.98894  0.016551609  0.016341391            2 
 1023000    0.8569762   -8.2124101    203.46752  0.016574415  0.016328077            3 
 1024000   0.83927114   -8.2321407     203.4743  0.016558781  0.016314713            2 
 1025000   0.85887144   -8.2438034    203.37828   0.01653482  0.016301445            4 
 1026000    0.8678519     -8.21146    204.14855  0.016581266  0.016288218            4 
 1027000   0.84057712   -8.2076618    203.66055  0.016525523  0.016274842            4 
 1028000   0.84122136   -8.2231815    203.55207  0.016500654  0.016261527            3 
 1029000   0.83934086   -8.1806647    204.51579  0.016562665   0.01624828            2 
 1030000   0.82426547   -8.2117443    203.94153  0.016500123  0.016235078            3 
 1031000   0.82704206   -8.2368304    204.28802  0.016512126  0.016221911            4 
 1032000   0.84706889   -8.2032269    204.47102  0.016510903  0.016208851            2 
 1033000   0.83493976    -8.195476    204.35241  0.016485351  0.016195843            6 
 1034000   0.85276711   -8.2531129    204.31484   0.01646638  0.016182796            4 
 1035000   0.83016029   -8.2278569    204.36899   0.01645483  0.016169707            4 
 1036000   0.84560992   -8.2121072     204.7578  0.016470222  0.016156622            2 
 1037000   0.85675125   -8.2262598     204.2923  0.016416932   0.01614357            5 
 1038000   0.83151369   -8.2660235    204.52687  0.016419948  0.016130488            4 
 1039000   0.82681103   -8.2551496    204.56224  0.016406981  0.016117405            5 
 1040000   0.84398433   -8.2262871    204.54721  0.016390001  0.016104381            3 
 1041000   0.83094116   -8.2567341    204.13263  0.016341069  0.016091257            5 
 1042000    0.8278737   -8.2273552    205.11597  0.016404028  0.016078121            7 
 1043000   0.83302158   -8.2405062    204.77636  0.016361167  0.016065026            6 
 1044000   0.84817304   -8.2210515    204.47721  0.016321616  0.016051877            3 
 1045000   0.83761551   -8.2479521    204.30214  0.016292036  0.016038647            4 
 1046000   0.84108923   -8.2480373    204.64531  0.016303801   0.01602551            6 
 1047000   0.83321575   -8.2557119    204.18432  0.016251538  0.016012346            2 
 1048000   0.82234076      -8.2516    204.41019  0.016253991  0.015999219            2 
 1049000   0.83094577   -8.2243619    205.07093  0.016290986   0.01598612            8 
 1050000   0.83671011   -8.2725151     205.0581  0.016274452  0.015972999            4 
 1051000   0.82782707   -8.2446633     204.7631  0.016235577  0.015959936           13 
 1052000   0.84133678   -8.2496979    205.00294  0.016239143  0.015946854            5 
 1053000   0.81971827   -8.2425139    205.04605  0.016227133  0.015933796            4 
 1054000   0.82239578   -8.2110325     205.7322  0.016265987  0.015920841           13 
 1055000   0.83972923   -8.2174035    205.23648  0.016211412  0.015908013            6 
 1056000   0.83035762   -8.2152909    205.45889  0.016213612  0.015895197            5 
 1057000   0.83024977    -8.246669    205.55877  0.016206147  0.015882294            4 
 1058000   0.81556473   -8.2215452    205.78473  0.016208627  0.015869465            3 
 1059000   0.84979386   -8.2688812    205.19604  0.016146997  0.015856609            2 
 1060000    0.8423526   -8.2690996    205.74522  0.016174938  0.015843747            5 
 1061000     0.838921    -8.241924    205.79323  0.016163465  0.015830892            4 
 1062000   0.83114619   -8.2288813    206.21285  0.016181172  0.015818099            3 
 1063000   0.82950369   -8.2687981    205.41801  0.016103638  0.015805301            3 
 1064000   0.82712695   -8.2644377    206.12842  0.016144143  0.015792503            6 
 1065000     0.836029      -8.2189    206.05592  0.016123312  0.015779633            6 
 1066000   0.82327445   -8.2668593    205.73128  0.016082808  0.015766803            2 
 1067000   0.81519286   -8.2902338    205.63559  0.016060261  0.015753919            3 
 1068000   0.80777116   -8.2807165     205.8799  0.016064287  0.015741084            5 
 1069000   0.83441909   -8.2780125    206.03694  0.016061501  0.015728277            6 
 1070000   0.82212983   -8.2603706    205.89793  0.016035664  0.015715467            4 
 1071000   0.82996201   -8.2946533    205.96122  0.016025616  0.015702712            8 
 1072000     0.839946   -8.2246783    206.60833  0.016060971  0.015689943            9 
 1073000   0.83743211   -8.2540902    205.85732  0.015987676  0.015677237            6 
 1074000   0.83266404   -8.2696143    205.55498  0.015949331  0.015664462           10 
 1075000   0.83567615   -8.2883856      206.457  0.016004419   0.01565161            3 
 1076000   0.81159396   -8.2525461    206.40172  0.015985263  0.015638783            9 
 1077000   0.82982971   -8.2682557    206.65415  0.015989952  0.015625949           12 
 1078000   0.81757188   -8.2987646    206.20426  0.015940342  0.015613174            4 
 1079000   0.83989694    -8.285334    206.55099  0.015952347  0.015600401            4 
 1080000   0.80425569   -8.2643405    206.40171  0.015926058  0.015587558            8 
 1081000    0.8202814   -8.2914946    206.09261  0.015887497  0.015574698            8 
 1082000    0.8141366   -8.2816813    206.12909  0.015875623  0.015561786            4 
 1083000   0.81325582   -8.3223385    206.00895   0.01585172  0.015548934            7 
 1084000   0.83719365   -8.2934228    206.29574  0.015859144  0.015536021            4 
 1085000   0.84199765   -8.3155988    206.40664  0.015853044  0.015523147            3 
 1086000   0.80825523   -8.2799041    206.19261  0.015822023  0.015510253            5 
 1087000   0.82981259   -8.3197487    206.39886  0.015823279  0.015497409            5 
 1088000   0.82824859   -8.3004228    205.85691  0.015767226  0.015484486            8 
 1089000   0.80631229   -8.2979519    206.27991  0.015785117  0.015471614            5 
 1090000    0.8263792    -8.312928    206.66936   0.01580041  0.015458689            7 
 1091000   0.81238426   -8.2985782    205.96308   0.01573198   0.01544579            6 
 1092000   0.81825448   -8.3296299    205.55657  0.015686552  0.015432854            7 
 1093000   0.82527638   -8.3004136     206.3176  0.015730223  0.015420033            5 
 1094000   0.82960036   -8.3079379     206.3686  0.015719729  0.015407258            6 
 1095000    0.8261846   -8.2946077     206.4155  0.015708942  0.015394493            6 
 1096000   0.81084517   -8.3208153    206.49989  0.015701026  0.015381684            4 
 1097000   0.81071215   -8.3219246    206.76652  0.015706968  0.015368848            4 
 1098000   0.83120463   -8.3377545    206.63355  0.015682571  0.015356024           11 
 1099000    0.7983912   -8.3222796    207.00871  0.015696748  0.015343132            7 
 1100000    0.8114441    -8.306383    206.57926  0.015649944   0.01533025            3 
 1101000   0.81071215   -8.3161818    206.07599  0.015597638  0.015317421            4 
 1102000   0.81586566   -8.3078826    206.51857  0.015616951  0.015304561            3 
 1103000   0.80914205   -8.3042409    206.73582  0.015619207  0.015291773            5 
 1104000   0.81369627   -8.3128901    206.31211  0.015573076   0.01527893            5 
 1105000    0.8196868     -8.31647    206.42439   0.01556745  0.015266001            8 
 1106000   0.82174872   -8.2632822    206.82292  0.015583403  0.015253126            7 
 1107000   0.82857081   -8.2964923    206.55237  0.015548959  0.015240239           11 
 1108000   0.81259242   -8.2742177    206.48199  0.015529632  0.015227363            4 
 1109000   0.81920397   -8.3114572    206.39003  0.015508719  0.015214395            3 
 1110000   0.80066992   -8.3405122    206.20281  0.015480691  0.015201413            3 
 1111000   0.80306739   -8.2821981    206.49513  0.015488684  0.015188499            3 
 1112000   0.82625306   -8.3180962    206.75375  0.015494136    0.0151757            3 
 1113000   0.79646894   -8.2702313    207.22162  0.015515245  0.015162989            4 
 1114000   0.79736125   -8.2751098    206.67443  0.015460385  0.015150323            7 
 1115000   0.81366866   -8.2908919    207.17172  0.015483686  0.015137617            9 
 1116000   0.80800747   -8.3164069    206.93157   0.01545188  0.015124838            3 
 1117000   0.80221319     -8.36231    206.79465  0.015427831  0.015112082            7 
 1118000    0.7893778   -8.3067909    207.44086  0.015462199  0.015099301            4 
 1119000   0.79723481   -8.3321387    207.29863  0.015437789   0.01508658           10 
 1120000   0.80000999   -8.2980271    208.02843  0.015478306  0.015073898           24 
 1121000    0.8241484   -8.3519694    206.62334  0.015360046   0.01506116            7 
 1122000   0.81321699   -8.3067973    207.35004   0.01540033  0.015048331           13 
 1123000   0.81818982   -8.3401429    206.77808  0.015344173  0.015035528           15 
 1124000   0.79584341   -8.3207375    207.31824   0.01537057  0.015022672           10 
 1125000   0.79042546   -8.3555791    206.47942  0.015294772  0.015009854            4 
 1126000   0.79861508   -8.3378343    207.43208  0.015351693  0.014997022            8 
 1127000   0.81575388   -8.3566695    206.96573  0.015303589   0.01498419           10 
 1128000   0.80966227   -8.3734034    207.17567  0.015305531  0.014971375            4 
 1129000    0.8075958   -8.3603293    206.86387   0.01526896  0.014958545            2 
 1130000   0.81319726   -8.3362981    206.78156  0.015249377  0.014945715            4 
 1131000   0.81197722   -8.3753233    206.71388  0.015230908  0.014932919            8 
 1132000    0.8155627   -8.3518408    206.79232  0.015223227  0.014920091            4 
 1133000   0.79996063    -8.342871    207.24871  0.015243359  0.014907283            4 
 1134000   0.81388389   -8.3192066    207.23716  0.015229068  0.014894528            8 
 1135000   0.79570788   -8.3382989    207.17625  0.015211178  0.014881736           12 
 1136000   0.80143073   -8.3414464    206.57273  0.015153516  0.014868926            7 
 1137000   0.79788799   -8.3525377    206.88276  0.015162911  0.014856136           15 
 1138000    0.7948377   -8.3151881    207.05615  0.015162284  0.014843266           10 
 1139000   0.77208555   -8.3590465    207.01565  0.015146009   0.01483042            2 
 1140000   0.79436779   -8.3451766    207.13079  0.015141139  0.014817666            5 
 1141000   0.79418276   -8.3163243    207.32315  0.015141919  0.014804924            7 
 1142000   0.78874526   -8.3266875    207.69724  0.015155957  0.014792178            7 
 1143000   0.79971077   -8.3244077    207.10889  0.015099802  0.014779426           13 
 1144000    0.7904664    -8.341914    207.11147  0.015086791   0.01476667           13 
 1145000   0.78493234   -8.3362199    207.30751  0.015087883  0.014753889            7 
 1146000   0.79561741   -8.3509754    207.32891  0.015076273  0.014741103            6 
 1147000   0.78719912   -8.3416375    207.21752  0.015055036  0.014728347            3 
 1148000   0.79679184   -8.3420662      206.833   0.01501401  0.014715626            2 
 1149000   0.79316403   -8.3431997    207.38091  0.015040681  0.014702894            4 
 1150000   0.79991293   -8.3468568    207.09861  0.015007146   0.01469008            8 
 1151000   0.79540811   -8.3722174    207.66681  0.015035245  0.014677315           12 
 1152000   0.78718277   -8.3618689    207.24957  0.014992012  0.014664546            3 
 1153000   0.80138596   -8.3651677    207.00524   0.01496135   0.01465179            3 
 1154000   0.81052549   -8.3474914    207.21241  0.014963346  0.014639078            4 
 1155000   0.79176642   -8.3550382     207.6224  0.014979971  0.014626336            4 
 1156000   0.77317577   -8.3307468    207.46511  0.014955674  0.014613519            7 
 1157000   0.78507281   -8.3577115    207.47677  0.014943588  0.014600798            4 
 1158000   0.80503176   -8.3353366    207.71015  0.014947478  0.014588114            5 
 1159000   0.78852675   -8.3552288    207.81744  0.014942295  0.014575402            9 
 1160000   0.78097531   -8.3605569    207.01851  0.014872019  0.014562695            6 
 1161000   0.76712842   -8.3854641     207.1925  0.014871698  0.014549993            4 
 1162000   0.79592974   -8.3916413    206.94744  0.014841325  0.014537255            4 
 1163000   0.81785924   -8.3566091    207.51565  0.014869279  0.014524507            4 
 1164000   0.79017103   -8.3486015    207.76397  0.014874282  0.014511881            3 
 1165000   0.77085332   -8.3433813    207.89602   0.01487096  0.014499258            5 
 1166000   0.78785533    -8.387055     207.7306  0.014846384  0.014486644            4 
 1167000   0.77674121    -8.387517    207.76915  0.014836415   0.01447403            4 
 1168000   0.79225654   -8.3402779    207.78876  0.014825112  0.014461382            4 
 1169000   0.80310593   -8.3729876    207.28157  0.014776274  0.014448752            6 
 1170000   0.78385539   -8.3950156    207.10642   0.01475117  0.014436089            6 
 1171000   0.78794984   -8.3918443    207.34311  0.014755416  0.014423367            4 
 1172000   0.77838632   -8.3687336     207.2465  0.014735957  0.014410657            3 
 1173000   0.78249506   -8.3597151    207.38499  0.014733233  0.014397975            5 
 1174000   0.80581279   -8.3538836    207.82781  0.014752116  0.014385323            6 
 1175000   0.79296788   -8.3620296    207.92132  0.014746193  0.014372724            8 
 1176000     0.774908   -8.3499068    207.67556  0.014716239  0.014360084            3 
 1177000   0.80691193    -8.360038    207.82927  0.014714618  0.014347451            6 
 1178000   0.78148501   -8.4032833    207.07516   0.01464878  0.014334786            8 
 1179000   0.80466134   -8.4017032    207.32009  0.014653668  0.014322086            5 
 1180000   0.79380201   -8.3572052    207.78369   0.01467399  0.014309462            3 
 1181000   0.79805907   -8.3762046    207.75025  0.014659205  0.014296836            7 
 1182000   0.77720047   -8.4194854    206.83196  0.014582061  0.014284197            2 
 1183000   0.77448019   -8.3918887    207.52824  0.014618783  0.014271513            6 
 1184000   0.79679204   -8.3744685     207.6345  0.014613915  0.014258882            7 
 1185000   0.78504677   -8.3918185    207.12993  0.014566099  0.014246233            8 
 1186000   0.77853702   -8.3904449    206.94253   0.01454065  0.014233545            7 
 1187000   0.76559508   -8.4200353    207.34686  0.014556786  0.014220843            9 
 1188000   0.78997624   -8.3968431    207.09062  0.014526559  0.014208153            8 
 1189000   0.77853081   -8.4221526    207.00444  0.014508301  0.014195492            7 
 1190000   0.78765407   -8.4114998    207.32785  0.014518757  0.014182816            8 
 1191000   0.79654447   -8.4084962    206.89609  0.014476357   0.01417015            6 
 1192000   0.76969053   -8.4351954    207.03148  0.014473678  0.014157445           10 
 1193000   0.75936293   -8.4138629    207.33672  0.014482866  0.014144786            9 
 1194000   0.76121667   -8.4079202    207.06035  0.014451448  0.014132087           14 
 1195000   0.76854345    -8.405827    207.21789  0.014450341   0.01411943           13 
 1196000   0.77601108    -8.402095    207.76912  0.014476667  0.014106789           10 
 1197000   0.78998898   -8.4292183    206.91678  0.014405234   0.01409411            3 
 1198000   0.76294661   -8.4234634    207.21052  0.014413642  0.014081426            6 
 1199000   0.78176411   -8.4152816    207.24269  0.014403857  0.014068753            8 
 1200000    0.7755856   -8.3895749    207.82589  0.014432354  0.014056139            2 
 1201000   0.77430792   -8.4194123    207.07359  0.014368137  0.014043512            7 
 1202000   0.77502443   -8.3841969    207.18745  0.014364077  0.014030868            4 
 1203000   0.77559654   -8.4106974    207.49023  0.014373111  0.014018211            3 
 1204000   0.79148467    -8.416696    207.02992  0.014329314  0.014005532            5 
 1205000   0.78022506   -8.4043614    207.06264  0.014319685  0.013992879            5 
 1206000   0.77007523   -8.4185744    206.85414  0.014293404  0.013980269            7 
 1207000   0.78895159   -8.4167315    207.30615   0.01431277  0.013967622            8 
 1208000    0.7663837   -8.3964938    207.54553  0.014317434  0.013954994            9 
 1209000   0.76097123   -8.3957287    207.23741  0.014284354  0.013942366            8 
 1210000   0.76642135   -8.4387802    207.49361  0.014290194  0.013929769            8 
 1211000   0.77379353   -8.4157633    207.64204  0.014288607  0.013917166            4 
 1212000   0.77120051   -8.4391474    206.79225  0.014218389  0.013904556            8 
 1213000   0.75911473   -8.4229264    207.68957  0.014268313   0.01389193           15 
 1214000    0.7478216   -8.4118925    207.00906  0.014209848  0.013879308            6 
 1215000   0.75593778   -8.4531671    207.25955  0.014215333  0.013866671           10 
 1216000   0.77325238   -8.4413399    207.77193  0.014238756  0.013854061            3 
 1217000   0.76589947   -8.4771942    206.96105  0.014171532  0.013841417           11 
 1218000    0.7576456   -8.4521986    207.71688  0.014211609   0.01382877           14 
 1219000   0.77767037   -8.4595171    207.22821  0.014166545  0.013816087           12 
 1220000   0.77015069   -8.4562068    206.83106  0.014127805   0.01380341            7 
 1221000   0.76974392   -8.4486648    207.55214  0.014165448   0.01379075            7 
 1222000   0.77288536   -8.4409017    207.24236  0.014132731  0.013778133            5 
 1223000   0.77137128   -8.4722817    207.41715  0.014133085  0.013765496            5 
 1224000   0.77101132   -8.4481385    207.35288  0.014117163  0.013752856            7 
 1225000   0.77702178   -8.4664017    206.88087  0.014073528  0.013740243            5 
 1226000   0.76480749   -8.4498806    206.83517  0.014058943  0.013727664            8 
 1227000   0.77164225   -8.4667055    206.74056  0.014041059  0.013715081           10 
 1228000   0.77303593   -8.4797447    206.64392  0.014023067  0.013702482            3 
 1229000   0.75549913    -8.487021    206.74951  0.014018817  0.013689904            2 
 1230000   0.75490834   -8.4729673      206.997  0.014024187  0.013677288            4 
 1231000   0.75962031   -8.4632066    207.20912  0.014027154  0.013664665            9 
 1232000   0.77114033   -8.4616759    207.12632  0.014010168  0.013652083            6 
 1233000   0.75606735    -8.466584    206.69671  0.013969769  0.013639486            8 
 1234000   0.75479248   -8.4942067    206.91598  0.013973256  0.013626883            7 
 1235000   0.77010041   -8.4870968    206.88089  0.013959574  0.013614271            6 
 1236000   0.75945579   -8.4983806    207.07338  0.013961258  0.013601693            6 
 1237000   0.76342007   -8.4935271    207.08779  0.013950942   0.01358916            4 
 1238000   0.77675722   -8.4892146    206.65913  0.013910819  0.013576648            7 
 1239000   0.73986423   -8.4655924    207.05267  0.013926061  0.013564158            5 
 1240000   0.75932274   -8.4768812    207.11832  0.013919242  0.013551663           10 
 1241000   0.76391549   -8.4598538    207.89939  0.013960475  0.013539214            7 
 1242000   0.75829595   -8.4863505    207.00633  0.013889314  0.013526755            5 
 1243000   0.76633616   -8.4841505    206.95323   0.01387458  0.013514306            4 
 1244000   0.76616988   -8.4924683    207.55749  0.013903905  0.013501871            8 
 1245000   0.76059455   -8.5016367    206.96706  0.013853217  0.013489387            6 
 1246000    0.7505966   -8.4854995    207.14839  0.013854226  0.013476944            5 
 1247000   0.75054294   -8.4613449    207.53102  0.013868686  0.013464509           10 
 1248000   0.76137755   -8.4669389    207.39357  0.013848395  0.013452159            5 
 1249000   0.76813314   -8.4644215    207.19682  0.013824181  0.013439851            3 
 1250000   0.74904694   -8.4706098    207.27314   0.01381821  0.013427498            3 
 1251000   0.76136922   -8.4808019    207.37257  0.013813787  0.013415184            6 
 1252000   0.76663596   -8.4685206     206.3773  0.013736508  0.013402856            6 
 1253000   0.75046587   -8.4714806    207.78598  0.013819233  0.013390531            6 
 1254000    0.7539639   -8.4899545    207.58284  0.013794713  0.013378218            7 
 1255000   0.73606751   -8.5002155    207.49274  0.013777738  0.013365916            7 
 1256000   0.76140837   -8.4667476    207.40763  0.013761122  0.013353618            6 
 1257000   0.75239474   -8.4571953    208.05242  0.013792921  0.013341378            4 
 1258000   0.76250272   -8.4807153    208.08984  0.013784436  0.013329129            7 
 1259000   0.75335439   -8.5004844    207.73794  0.013750195  0.013316949            8 
 1260000   0.76588356   -8.4748316     207.2898  0.013709643  0.013304749            9 
 1261000   0.73120189   -8.4601967    207.44591  0.013709087  0.013292609            4 
 1262000   0.73915717   -8.4808549    207.84007  0.013724252  0.013280463           12 
 1263000   0.75444047    -8.483664     207.4242  0.013685946  0.013268325            4 
 1264000   0.74174403   -8.4939585    208.04254  0.013715885  0.013256192            6 
 1265000   0.75451428   -8.4604863     208.2046  0.013715718  0.013244068            7 
 1266000    0.7406201   -8.5217566    207.40298  0.013652118  0.013231956           16 
 1267000   0.77019724   -8.5418894    207.61187  0.013655082  0.013219821           16 
 1268000   0.74974635   -8.5339032    207.53006  0.013638937  0.013207719           10 
 1269000   0.75590962   -8.4873346    207.93325  0.013654666  0.013195652            5 
 1270000    0.7386048   -8.5281837    207.81822  0.013636366  0.013183621            5 
 1271000   0.74497413    -8.503847    208.26067  0.013654647    0.0131716            8 
 1272000   0.75540411   -8.5074052    207.78211   0.01361256  0.013159544            5 
 1273000   0.74707948    -8.515467    207.71363  0.013597383  0.013147473           22 
 1274000   0.76517901   -8.5229367    207.24129  0.013555814  0.013135434           24 
 1275000   0.75206041   -8.5141635    208.18702  0.013606995  0.013123359           27 
 1276000   0.72205617   -8.5173832    207.81032  0.013571729  0.013111303           26 
 1277000   0.75349058   -8.5179898     207.3969  0.013534123    0.0130992           23 
 1278000   0.74602978   -8.5026978    207.94931  0.013559553  0.013087136            8 
 1279000   0.74244282   -8.5565974    207.11738  0.013494747  0.013075052           35 
 1280000   0.75809556   -8.5372363    207.30795  0.013496611  0.013062967           32 
 1281000   0.73268907   -8.5384494    207.65838  0.013508872  0.013050924           38 
 1282000   0.75077145   -8.5541421    207.87367  0.013512329  0.013038885           20 
 1283000   0.74654413   -8.5639207     207.5598  0.013481411  0.013026869           34 
 1284000   0.74150465    -8.519379    207.30823  0.013454584  0.013014832           40 
 1285000   0.74000978   -8.5204923    207.32094  0.013444938  0.013002802           28 
 1286000   0.74014043   -8.5399444    207.37371  0.013437903  0.012990813           36 
 1287000   0.73411159   -8.5171879    207.96259  0.013465591  0.012978844           29 
 1288000   0.74241633   -8.5583523    207.03608  0.013395192  0.012966896           54 
 1289000   0.73898463   -8.5365073    207.48384  0.013413747  0.012954897           54 
 1290000    0.7539709    -8.537378    207.47442   0.01340274  0.012942942           47 
 1291000     0.736322   -8.5537427    207.70836  0.013407459  0.012930966           41 
 1292000   0.73637753   -8.5319315    207.76038  0.013400437  0.012919032           44 
 1293000     0.739794   -8.5441378     207.3634  0.013364488  0.012907115           51 
 1294000   0.73899015    -8.530955    207.60239  0.013369551  0.012895195           58 
 1295000   0.72887018   -8.5287755    207.81539  0.013372934  0.012883278           52 
 1296000      0.73023   -8.5348156     207.2976  0.013329321   0.01287136           56 
 1297000   0.72913498   -8.5575861    207.25145  0.013316078  0.012859434           44 
 1298000   0.74154819   -8.5243279    207.42637   0.01331705  0.012847532           59 
 1299000   0.73646257   -8.5556288    206.79721  0.013266436  0.012835626           63 
 1300000   0.73437995   -8.5493293    207.31298  0.013289294  0.012823745           73 
 1301000   0.72203552   -8.5502867    207.75302  0.013307265  0.012811873           55 
 1302000    0.7343023   -8.5495868    207.90218  0.013306591  0.012799989           60 
 1303000   0.73703438   -8.5452325    207.44898  0.013267394  0.012788145           53 
 1304000   0.73215045   -8.5547675    207.38015  0.013252821  0.012776314           54 
 1305000   0.72050649   -8.5512669    207.93203  0.013277907  0.012764503           47 
 1306000   0.73332415   -8.5517895    207.86651   0.01326356  0.012752672           50 
 1307000    0.7273072   -8.5804796    207.34449  0.013220128  0.012740879           57 
 1308000   0.73661211   -8.5483579    207.47102  0.013218083  0.012729087           64 
 1309000   0.73955357   -8.5644331    207.83818  0.013231358  0.012717286           60 
 1310000   0.72474389    -8.518061     207.8654   0.01322299  0.012705578           56 
 1311000   0.73531276   -8.5348003    208.17749  0.013232742  0.012693911           64 
 1312000   0.72284955   -8.5792825    207.31687  0.013167992  0.012682228           70 
 1313000   0.70414483   -8.5437015    208.44913  0.013229825   0.01267053           94 
 1314000   0.73556387   -8.5514452    207.53048  0.013161497  0.012658859           86 
 1315000   0.73462023    -8.567556    208.09996  0.013187577  0.012647173           76 
 1316000   0.73051317   -8.5281409    207.83257  0.013160624  0.012635513           86 
 1317000   0.72360784   -8.5607706    207.63001  0.013137814  0.012623845           98 
 1318000   0.74320888   -8.5472574    207.95459  0.013148368  0.012612214           77 
 1319000   0.72027168   -8.5484649    207.94361  0.013137706   0.01260056           95 
 1320000   0.72425362   -8.5627017    207.84602  0.013121592  0.012588911           73 
 1321000   0.74208852   -8.5388272    207.61154  0.013096867  0.012577274           95 
 1322000   0.73201613   -8.5959094    207.26387  0.013065045  0.012565626           72 
 1323000   0.71421978   -8.5831475    207.02999  0.013040437  0.012553981           95 
 1324000   0.71645149    -8.592393    207.21712  0.013042367   0.01254232           77 
 1325000   0.73320429   -8.5525121    207.77686  0.013067727  0.012530653           72 
 1326000   0.72667536   -8.5834235    207.36502  0.013031989  0.012519008           58 
 1327000   0.71515875   -8.5898392    207.19123  0.013011255  0.012507367           77 
 1328000   0.71031601   -8.5828081     207.8229  0.013041096  0.012495719           94 
 1329000   0.73116303   -8.5932263    207.34365  0.013001232  0.012484079           77 
 1330000   0.71531295   -8.6087702    207.10071  0.012976235  0.012472447           83 
 1331000   0.72938099   -8.5905359    207.88768  0.013015757  0.012460858           79 
 1332000   0.73413209   -8.5610166    207.66689  0.012992173  0.012449272           96 
 1333000   0.71826387   -8.5985944    207.58508  0.012977312    0.0124377          101 
 1334000   0.72581243   -8.5790531     207.6101  0.012969147  0.012426158          123 
 1335000    0.7149135   -8.5772256     207.3876  0.012945543  0.012414665           82 
 1336000   0.72503049   -8.5889297     207.8639  0.012965562  0.012403156           76 
 1337000    0.7170005    -8.605486    207.34682  0.012923636  0.012391657           84 
 1338000   0.72484479    -8.577478    207.48289  0.012922452  0.012380172          105 
 1339000   0.71714891   -8.5694745    207.68473  0.012925363  0.012368726           79 
 1340000   0.73050903    -8.582737    207.79783  0.012922751  0.012357255           85 
 1341000   0.71188076   -8.6066618    207.46376  0.012892354  0.012345793           93 
 1342000    0.7133343   -8.5926793    207.57783  0.012889831  0.012334322           91 
 1343000   0.71400981   -8.5917628    207.43335  0.012871268  0.012322876           82 
 1344000   0.70278242   -8.5917652    207.73996  0.012880702  0.012311442           74 
 1345000   0.70474761   -8.5995552    207.48441  0.012855292  0.012300059          106 
 1346000   0.72158259   -8.5859159    207.59071  0.012852322  0.012288669           89 
 1347000   0.69644865   -8.5659601    207.52203  0.012838532  0.012277251          105 
 1348000   0.73750254   -8.5901233    207.50998  0.012828263  0.012265875          103 
 1349000    0.7136388   -8.5929428    207.88584  0.012841972  0.012254515          101 
 1350000   0.71092681   -8.5829184    207.44551  0.012805278  0.012243143           88 
 1351000   0.72811511   -8.5696812    207.79543  0.012817384  0.012231825          106 
 1352000   0.71832722   -8.6033123    207.41886  0.012784693  0.012220478           89 
 1353000   0.70442798    -8.609944    207.74192  0.012795142   0.01220916          106 
 1354000    0.6986384   -8.6234064    207.33947  0.012760922  0.012197818           97 
 1355000   0.70734597   -8.6225676    207.26088  0.012746672  0.012186452           89 
 1356000   0.72668244   -8.6106085    207.39932  0.012745779  0.012175142           96 
 1357000   0.70560202   -8.6220629    207.79842  0.012760896  0.012163822           94 
 1358000   0.72970421   -8.5983616    207.99628   0.01276364  0.012152522          115 
 1359000   0.70103445   -8.6159569    207.58002  0.012728723  0.012141205          117 
 1360000   0.70804136   -8.6143058    207.47201  0.012712746  0.012129872          109 
 1361000   0.70889809   -8.6141013    207.47447  0.012703555  0.012118555          109 
 1362000   0.71984201    -8.620248    207.45609  0.012693104  0.012107206          123 
 1363000    0.7194561   -8.6296891    207.80576   0.01270517  0.012095884          110 
 1364000   0.71339096   -8.6247445    207.85475  0.012698848  0.012084588          117 
 1365000   0.71368176   -8.6420071    207.19608  0.012649333  0.012073285          127 
 1366000   0.70927333    -8.624267    207.61251  0.012665478  0.012061984          122 
 1367000   0.71691226   -8.6262444     207.2233  0.012632486  0.012050723          122 
 1368000   0.71834163   -8.6168903    207.30928  0.012628489  0.012039464          128 
 1369000   0.70572294   -8.6167219    207.32917  0.012620475  0.012028188          149 
 1370000   0.71061183   -8.6352091    207.58041  0.012626545  0.012016934          134 
 1371000   0.70740195   -8.6353343    207.14793  0.012591049  0.012005676          135 
 1372000   0.71018516   -8.6195525    207.12089  0.012580229  0.011994438          125 
 1373000    0.7030423    -8.655198    207.84785  0.012615189   0.01198321          129 
 1374000   0.70861187   -8.6238289    207.69562  0.012596775  0.011971999          144 
 1375000   0.70732356   -8.6446614    207.48002  0.012574547  0.011960745          142 
 1376000   0.70146772   -8.6201015    207.31797  0.012555594  0.011949522          138 
 1377000   0.70356623   -8.6287923    207.37455    0.0125499  0.011938306          120 
 1378000   0.68704044   -8.6215947    207.39604  0.012542092  0.011927113          123 
 1379000   0.68470423   -8.6660201     207.4317  0.012535152  0.011915929           93 
 1380000   0.69493127   -8.6476823    207.38869  0.012523471  0.011904732          115 
 1381000   0.70840107   -8.6249448    207.55634   0.01252452  0.011893531          128 
 1382000   0.68049621    -8.658437    206.65037  0.012460828  0.011882366          101 
 1383000   0.70865972   -8.6526901    207.00787  0.012473359  0.011871221          138 
 1384000   0.70196301   -8.6544314    206.89647  0.012457639  0.011860078          141 
 1385000   0.70586362   -8.6506875    207.27549  0.012471449  0.011848928          127 
 1386000   0.67979791   -8.6581102    206.96906  0.012444027  0.011837797          133 
 1387000   0.70328474   -8.6360084     207.2975  0.012454788  0.011826666          149 
 1388000   0.70500956   -8.6657058    207.35614  0.012449336  0.011815545          133 
 1389000   0.70250455   -8.6535877    207.30157  0.012437099  0.011804458          157 
 1390000   0.69349761   -8.6540791    206.93262  0.012406032  0.011793379          136 
 1391000   0.69079385   -8.6648867    207.03077  0.012402994  0.011782317          142 
 1392000   0.70953366   -8.6699307    206.65607  0.012371652   0.01177125          150 
 1393000   0.70715439   -8.6642632    206.93759  0.012379611  0.011760248          162 
 1394000   0.69447822   -8.6502479    207.04995  0.012377448  0.011749213          139 
 1395000   0.68728444   -8.6721684    207.13063  0.012373395  0.011738178          129 
 1396000   0.69172127   -8.6374662    207.64179  0.012395045  0.011727179          138 
 1397000   0.70228607   -8.6536576    207.72733  0.012391275  0.011716185          143 
 1398000   0.69653413    -8.654651    207.47955  0.012367641  0.011705189          156 
 1399000   0.69931193   -8.6639967    207.35545  0.012351409  0.011694222          141 
 1400000   0.69598179   -8.6741999     207.2352  0.012335428  0.011683261          149 
 1401000   0.69026135   -8.6659265     207.0753  0.012317113  0.011672314          125 
 1402000   0.69797252   -8.6693003    207.00177  0.012303957    0.0116614          141 
 1403000   0.69474144   -8.6636966    207.41125  0.012319509  0.011650471          134 
 1404000   0.70484042   -8.6672426    207.36119  0.012307763  0.011639527          134 
 1405000   0.69236542   -8.6857917    207.15294  0.012286651  0.011628589          148 
 1406000   0.68833726   -8.6837372    207.14379   0.01227737  0.011617667          142 
 1407000   0.69195631   -8.6812898    206.66136  0.012240071  0.011606741          140 
 1408000    0.7041653   -8.6793981    206.94771  0.012248325  0.011595833          146 
 1409000    0.6828552   -8.6823983    206.85164  0.012233951  0.011584916          136 
 1410000   0.68727576   -8.6930502    206.92248  0.012229461  0.011574026          139 
 1411000    0.6987642   -8.6748544    207.19867  0.012237105  0.011563167          131 
 1412000   0.69042398   -8.6725554    206.81987  0.012206083  0.011552296          150 
 1413000   0.69989208   -8.6712113     207.1458  0.012216667  0.011541465          127 
 1414000   0.67987498   -8.6607366    206.93142  0.012195393  0.011530636          141 
 1415000      0.70542   -8.6625974     207.1395  0.012199028  0.011519809          148 
 1416000   0.70755512   -8.6902805     207.2485  0.012196828  0.011508996          130 
 1417000   0.69161717    -8.679838    206.83646  0.012163989   0.01149819          140 
 1418000   0.67913301   -8.6964132    206.99838  0.012164926  0.011487366          150 
 1419000   0.69826404   -8.7042638    207.15022   0.01216527  0.011476531          152 
 1420000   0.68662332   -8.6926387    206.91068  0.012142646  0.011465696          120 
 1421000   0.68673375   -8.6872752    207.19453  0.012150746  0.011454893          135 
 1422000    0.6894843   -8.6835286      207.096  0.012136427  0.011444101          117 
 1423000   0.70049804   -8.6918666    207.25061  0.012136953   0.01143333          153 
 1424000    0.6759973   -8.7042039    207.19886  0.012125402  0.011422577          124 
 1425000   0.68573777   -8.6736675    206.77478  0.012092092  0.011411836          132 
 1426000   0.68886805   -8.6939454    206.94716  0.012093687  0.011401089          128 
 1427000   0.68321898   -8.6965475    206.86646  0.012080499  0.011390356          142 
 1428000   0.67999611   -8.6964054    207.06151  0.012083422  0.011379642          133 
 1429000    0.6794934   -8.7037733    206.65163  0.012051063  0.011368919          134 
 1430000   0.68157052   -8.6952313     207.0589   0.01206637  0.011358203          133 
 1431000   0.69791939   -8.6987065    207.07563  0.012058911  0.011347496          135 
 1432000   0.68876764   -8.7094508    206.87632  0.012038892  0.011336813          117 
 1433000   0.69022415   -8.6987341    206.78133  0.012024967  0.011326128          139 
 1434000   0.65989423   -8.7039756    206.49848  0.012000144  0.011315454          133 
 1435000   0.69859149   -8.7228371      206.604  0.011997909  0.011304795          124 
 1436000   0.69880708   -8.7050252    206.55853  0.011986915  0.011294132          129 
 1437000   0.67997862   -8.7195488     206.6452    0.0119836  0.011283494          130 
 1438000   0.68017773   -8.6977553     206.8987  0.011989957  0.011272865          121 
 1439000   0.67838054   -8.7174033    207.01995  0.011988647  0.011262256          154 
 1440000   0.67689364   -8.7277335    206.94605  0.011976045  0.011251634          127 
 1441000   0.68475125   -8.7104668    206.78524  0.011958434  0.011241023          122 
 1442000   0.67831397    -8.721344    206.74637  0.011947895  0.011230421          167 
 1443000   0.67318343   -8.7058242    206.55451  0.011928535  0.011219859          159 
 1444000   0.69431805    -8.730998    206.70853  0.011929163  0.011209307          137 
 1445000   0.68246367   -8.7166218    207.09026  0.011942922  0.011198768          166 
 1446000   0.68436718   -8.7081462    206.94901  0.011926522  0.011188228          138 
 1447000   0.70162078   -8.7183275     206.7991  0.011909646    0.0111777          171 
 1448000   0.65688935   -8.7356335    206.78196  0.011900435  0.011167191          164 
 1449000   0.67052779   -8.7391332    206.85826   0.01189661  0.011156684          182 
 1450000   0.66757206   -8.7276584    206.79571  0.011884811  0.011146184          183 
 1451000   0.68821528   -8.7094744    207.00956  0.011888902  0.011135726          149 
 1452000    0.6785284   -8.7120054    207.22926  0.011893323  0.011125267          155 
 1453000    0.6531714   -8.7071489    207.21746  0.011884461  0.011114811          150 
 1454000   0.67251492   -8.7109828    206.25777  0.011821284  0.011104364          132 
 1455000   0.66453192   -8.7115891    206.46047  0.011824769  0.011093926          164 
 1456000    0.6629016   -8.7291366    206.86838  0.011839995  0.011083505          161 
 1457000   0.68486585   -8.7056618     206.9621  0.011837228  0.011073075          156 
 1458000   0.67716954   -8.7388642    207.06654  0.011835079  0.011062665          139 
 1459000   0.65827348     -8.74113    206.52668  0.011796132   0.01105224          153 
 1460000    0.6679271   -8.7187642    206.72424  0.011799329  0.011041813          145 
 1461000   0.65384161   -8.7126814    207.03703  0.011809094  0.011031434          200 
 1462000    0.6890791   -8.7048114    206.96815   0.01179709  0.011021067          170 
 1463000   0.66476325   -8.7506989    206.52035  0.011763519  0.011010709          197 
 1464000   0.66620932   -8.7338052    206.84806  0.011774138  0.011000338          180 
 1465000   0.66376765   -8.7199448    206.65009   0.01175484  0.010989972          190 
 1466000   0.67055114   -8.7447003    206.41166  0.011733269  0.010979626          228 
 1467000   0.66716122   -8.7434614    207.24904  0.011772838  0.010969287          127 
 1468000    0.6736317   -8.7265003     206.5398  0.011724557   0.01095897          169 
 1469000   0.67439705   -8.7435736    206.43477  0.011710618  0.010948651          176 
 1470000   0.67467522   -8.7290137    206.92032  0.011730177  0.010938348          152 
 1471000   0.65115389   -8.7416793    206.42285  0.011694021  0.010928051          178 
 1472000   0.65270549   -8.7471837    207.01318  0.011719496  0.010917764          154 
 1473000   0.66255317   -8.7306078    207.02494  0.011712205  0.010907481          154 
 1474000   0.67688661   -8.7490042     206.6789  0.011684696  0.010897184          167 
 1475000   0.66536043   -8.7769999    206.48783  0.011665979   0.01088691          172 
 1476000   0.66993034   -8.7440408    206.58983  0.011663834  0.010876647          147 
 1477000   0.66704272   -8.7419081    206.83112  0.011669551  0.010866408          158 
 1478000     0.668272   -8.7376559    206.82345  0.011661223  0.010856159          168 
 1479000   0.66211547   -8.7519963    206.43671  0.011631547  0.010845926          176 
 1480000   0.65823379   -8.7506284    206.94784  0.011652469  0.010835686          186 
 1481000   0.66207381     -8.76168    206.88531  0.011641082  0.010825473          154 
 1482000   0.66152497   -8.7534379    206.33063  0.011602037  0.010815274          166 
 1483000   0.65792733   -8.7497878    206.28938  0.011591896  0.010805073          189 
 1484000   0.65937129   -8.7521113    206.66551  0.011605206  0.010794899          169 
 1485000   0.64308132    -8.751044    206.60078  0.011593759  0.010784714          168 
 1486000    0.6513819   -8.7477016    206.44728  0.011577349  0.010774542          161 
 1487000    0.6523691   -8.7576658    206.68732  0.011583015  0.010764387          176 
 1488000   0.65223118   -8.7578005     206.7422  0.011578304  0.010754233          170 
 1489000    0.6687024   -8.7334216    206.28553  0.011544971  0.010744083          175 
 1490000   0.65473063   -8.7713811    206.31158  0.011538679   0.01073395          180 
 1491000   0.64798536   -8.7743315    206.44505    0.0115384  0.010723817          178 
 1492000   0.66175468   -8.7627343     206.5099  0.011534288  0.010713698          175 
 1493000   0.66667814   -8.7873343    206.09056  0.011503157  0.010703602          181 
 1494000   0.65438443   -8.7808815    206.28425  0.011506261  0.010693513          196 
 1495000   0.66099555   -8.7844841    206.27156  0.011497857  0.010683447          180 
 1496000   0.66756466   -8.7749551    206.37679  0.011496034  0.010673392          160 
 1497000   0.65478256   -8.7833065    206.14951  0.011475702  0.010663348          174 
 1498000   0.64635597   -8.7615006    206.69362   0.01149831  0.010653308          176 
 1499000   0.64856273   -8.7860239    206.47972  0.011478748   0.01064325          177 
 1500000   0.65462859   -8.7755324     206.2012  0.011455622  0.010633217          156 
 1501000   0.66288844    -8.778983    206.11158  0.011443014  0.010623187          192 
 1502000     0.657097   -8.7679784    206.55535  0.011460017  0.010613168          168 
 1503000   0.65154537   -8.7846219    206.23098  0.011434408   0.01060316          180 
 1504000   0.64343584   -8.7609259    206.34131  0.011432918  0.010593162          145 
 1505000   0.65580792   -8.7859654    206.39519  0.011428305  0.010583165          186 
 1506000   0.66058147   -8.7719889    206.30027  0.011415464  0.010573167          165 
 1507000   0.64638044   -8.7681122    206.74751   0.01143262  0.010563197          169 
 1508000   0.64482844   -8.8078841     205.7888   0.01137206  0.010553226          175 
 1509000   0.66267001   -8.7875903    206.72266  0.011416095  0.010543266          158 
 1510000   0.66560971   -8.7881835    206.09895  0.011374114  0.010533318          169 
 1511000   0.64218251   -8.7584174    206.02445  0.011362478  0.010523391          165 
 1512000   0.64440292   -8.7910566    206.33095  0.011371856  0.010513469          202 
 1513000   0.66006601    -8.780309    206.45556  0.011371203  0.010503568          182 
 1514000   0.64425011   -8.7769621     205.8827  0.011332161   0.01049366          171 
 1515000   0.66951055   -8.7920441    205.78384  0.011319243  0.010483749          166 
 1516000   0.64533616   -8.7932106    206.27347  0.011338691  0.010473863          175 
 1517000   0.63724148   -8.7763406    206.06248  0.011319627  0.010463982          203 
 1518000    0.6677142   -8.7709093    206.64557  0.011344179  0.010454139          172 
 1519000   0.64076341   -8.7985628    205.92706  0.011297293  0.010444304          175 
 1520000   0.63962039   -8.7682331    206.09621  0.011299134  0.010434458          159 
 1521000   0.63764984   -8.8030037    205.89393  0.011280623  0.010424615          177 
 1522000   0.63601708   -8.7834342     206.1779  0.011288759  0.010414787          177 
 1523000   0.62731021   -8.7732049    206.14458  0.011279524  0.010404987          177 
 1524000   0.63835035   -8.7871491     206.7332  0.011304309  0.010395215          164 
 1525000   0.64039874   -8.7565985    206.48791  0.011283492  0.010385438          176 
 1526000   0.64343621   -8.8004314    206.07685  0.011253651  0.010375696          176 
 1527000   0.62878726    -8.791687    206.18763  0.011252327   0.01036593          202 
 1528000    0.6423272   -8.7977468    206.33355  0.011252921  0.010356193          167 
 1529000   0.64486168   -8.8074688    206.24963  0.011240987  0.010346446          185 
 1530000   0.63791218   -8.7955341    206.30009  0.011236388  0.010336724          186 
 1531000   0.64119369   -8.8027328    206.16797  0.011221858  0.010327019          176 
 1532000   0.63938068   -8.7845727    206.15629  0.011213897  0.010317315          160 
 1533000   0.64942125   -8.8080058    206.38277  0.011218894   0.01030761          166 
 1534000   0.63895602   -8.8021405    205.87065   0.01118376  0.010297923          169 
 1535000   0.65243362    -8.780613    205.82644  0.011174074  0.010288228          159 
 1536000   0.65956637   -8.7926825    206.18272  0.011186129  0.010278552          167 
 1537000   0.64838699   -8.8169728    206.10498  0.011174636   0.01026889          167 
 1538000   0.64656207   -8.8134394    206.14503   0.01116954  0.010259229          174 
 1539000   0.63023464   -8.8182134    205.86146  0.011146927  0.010249575          152 
 1540000   0.64483138   -8.8035462    206.21408   0.01115877  0.010239921          158 
 1541000   0.62793647   -8.8040909    206.51417  0.011167758  0.010230288          183 
 1542000    0.6372736   -8.7945903    205.80842  0.011122375  0.010220668          154 
 1543000   0.64643786   -8.7969996    206.10758  0.011131323  0.010211055          186 
 1544000   0.64451225   -8.8019811    205.92946    0.0111145  0.010201445          182 
 1545000   0.63536333   -8.8086485    205.96472  0.011109208  0.010191845          152 
 1546000   0.63492457   -8.8068667    206.08495  0.011108503  0.010182259          155 
 1547000   0.62937149   -8.7917333    206.07153  0.011100599  0.010172693          158 
 1548000   0.63850938   -8.8092069    206.34112  0.011107942  0.010163141          170 
 1549000   0.62651848   -8.8425156    205.68078  0.011065245  0.010153595          196 
 1550000   0.64687546   -8.8084401    205.94014   0.01107205  0.010144057          156 
 1551000   0.63694522   -8.7955993     205.9041  0.011062975  0.010134527          194 
 1552000   0.61532129    -8.781548    206.10755  0.011066772  0.010125007          190 
 1553000   0.63332148   -8.8003105    206.13005  0.011060853  0.010115505          171 
 1554000   0.62910581   -8.7959941    206.05539  0.011049732     0.010106          176 
 1555000    0.6170844   -8.8059155    206.14036  0.011047179  0.010096521          185 
 1556000   0.63448317   -8.8378383     205.8258  0.011023233  0.010087032          206 
 1557000   0.61912272   -8.8145953    205.99683  0.011025307  0.010077559          155 
 1558000   0.63115501   -8.8064313    205.79364  0.011007362  0.010068096          153 
 1559000   0.63534697   -8.8096429    206.20031  0.011022039  0.010058625          171 
 1560000   0.62568438   -8.8364711    205.86822  0.010997234  0.010049192          178 
 1561000   0.64318804    -8.828676    205.91064  0.010992454  0.010039761          185 
 1562000   0.63644876   -8.8174256    205.76603  0.010977701   0.01003034          177 
 1563000   0.63650813   -8.8299176    206.05431  0.010986048  0.010020944          189 
 1564000   0.63872864    -8.809113    205.72288  0.010961364   0.01001154          183 
 1565000   0.62686959   -8.8334792    205.86543   0.01096195  0.010002131          167 
 1566000   0.64319858   -8.8339624     205.7753  0.010950154 0.0099927371          175 
 1567000   0.64085309   -8.8299653    205.53625  0.010930454 0.0099833548          186 
 1568000   0.61647836   -8.8248718    205.61523   0.01092768 0.0099739854          187 
 1569000   0.63327172   -8.8175069    206.11196  0.010947098 0.0099646156          185 
 1570000   0.62604966   -8.8377848    205.80113  0.010923627 0.0099552681          182 
 1571000   0.62433559   -8.8235562    205.63891  0.010908069 0.0099459263          185 
 1572000   0.62229103   -8.8361779    205.83343  0.010911441 0.0099365887          175 
 1573000   0.61203497    -8.820949    206.05357  0.010916167 0.0099272738          178 
 1574000    0.6068327   -8.8201761    205.95539  0.010904034 0.0099179678          189 
 1575000   0.62843548   -8.8381872    205.79639  0.010888698 0.0099086725          200 
 1576000   0.61566753   -8.8302406    205.80204  0.010882088  0.009899384          195 
 1577000   0.62476969   -8.8287475    206.00287    0.0108858 0.0098901051          197 
 1578000    0.6262051   -8.8336498    206.02731  0.010880192 0.0098808495          198 
 1579000   0.62484223   -8.8310419    205.80414  0.010861523 0.0098716127          198 
 1580000   0.63077214   -8.8325466     205.8309   0.01085606 0.0098623768          205 
 1581000   0.62314557   -8.8312335    205.82799   0.01084904 0.0098531462          202 
 1582000   0.61812582   -8.8406027    205.70816   0.01083587 0.0098439387          178 
 1583000   0.62311056   -8.8290873    206.13479  0.010851484 0.0098347359          196 
 1584000    0.6113943   -8.8099554    205.81087  0.010827592 0.0098255309          215 
 1585000   0.61900841   -8.8458899    205.96832  0.010829039 0.0098163268          174 
 1586000   0.61013789   -8.8471348     205.6037  0.010803053 0.0098071419          197 
 1587000   0.60770062   -8.8389296    205.54442  0.010793133 0.0097979588          192 
 1588000    0.6246023   -8.8482808    205.30029  0.010773525 0.0097887991          204 
 1589000   0.63387334   -8.8580023    205.40923  0.010772458 0.0097796202          207 
 1590000   0.62542296   -8.8414683    205.57539  0.010774391  0.009770464          203 
 1591000   0.61061624   -8.8559906    205.56469  0.010767059 0.0097613108          177 
 1592000   0.62105858   -8.8501399    205.76872  0.010770976 0.0097521614          195 
 1593000   0.59724649   -8.8217814    205.52069  0.010751239 0.0097430275          184 
 1594000   0.61473948   -8.8263051    205.43463  0.010739995 0.0097339074          199 
 1595000   0.61840163   -8.8322897    205.61506  0.010742689  0.009724793          178 
 1596000   0.61409459    -8.829331    205.66899  0.010738774  0.009715689          196 
 1597000   0.61787591   -8.8278643    205.49453  0.010722946 0.0097065928          174 
 1598000   0.61263109   -8.8497207    205.71529  0.010727748 0.0096975152          191 
 1599000   0.62222984   -8.8518968    205.23385  0.010695948 0.0096884563          226 
 1600000    0.5999195   -8.8448224    205.50616  0.010703446 0.0096793893          175 
 1601000   0.61892335   -8.8488299    205.83532  0.010713894 0.0096703318          209 
 1602000   0.62341691   -8.8698876    205.02018  0.010664803 0.0096612839          207 
 1603000   0.60873991   -8.8843471    205.69527  0.010693246 0.0096522445          197 
 1604000   0.61127426   -8.8546851    205.57305  0.010680229 0.0096432209          203 
 1605000   0.61351986   -8.8426988     205.3337  0.010661147 0.0096342134          190 
 1606000   0.62739928   -8.8660265    205.11676  0.010643252 0.0096252084          191 
 1607000    0.6186346    -8.866272    205.31558  0.010646939 0.0096162207          188 
 1608000   0.60321464   -8.8721553    205.01412  0.010624695 0.0096072224          196 
 1609000   0.59893382   -8.8472181    205.47456  0.010641939 0.0095982594          189 
 1610000    0.6188162   -8.8660606    205.50597  0.010636955 0.0095893017          200 
 1611000    0.6163153   -8.8711798    205.50783  0.010630448 0.0095803586          198 
 1612000   0.60855108   -8.8510362    205.08796  0.010602148 0.0095714403          204 
 1613000   0.61998003    -8.847715    205.73837  0.010629178 0.0095625169          205 
 1614000   0.61100078   -8.8558444    205.58057  0.010614445 0.0095536069          198 
 1615000   0.60163754     -8.86772    205.27254  0.010591978 0.0095447042          186 
 1616000   0.60873803   -8.8726633    205.63842  0.010604292 0.0095358123          183 
 1617000   0.60467047   -8.8740032    205.58922  0.010595198 0.0095269271          208 
 1618000   0.62137798   -8.8726422    205.23813  0.010570567 0.0095180491          192 
 1619000   0.60547372   -8.8868586    205.00129  0.010551847 0.0095091766          204 
 1620000   0.60827702   -8.8298815    205.54561  0.010573334 0.0095003142          184 
 1621000   0.60268375   -8.8975461    205.07268  0.010542499 0.0094914575          227 
 1622000   0.61951173   -8.8612845    205.63946  0.010565118 0.0094826126          212 
 1623000    0.6033106   -8.8730261    205.24093  0.010538146 0.0094737796          212 
 1624000   0.59704416   -8.8744113     205.4568  0.010542734 0.0094649479          211 
 1625000   0.60560394   -8.8865449    205.27059  0.010526697  0.009456132          221 
 1626000   0.59682125   -8.8710748    205.34348  0.010523958 0.0094473183          204 
 1627000   0.61195522   -8.8633288    205.25209   0.01051281 0.0094385124          193 
 1628000   0.61469736   -8.8639074    205.52788  0.010520469 0.0094297244          216 
 1629000   0.60338975   -8.8888003    205.20979  0.010497738 0.0094209424          191 
 1630000   0.61161493   -8.8767187    205.77186  0.010520034 0.0094121775          202 
 1631000   0.59940101   -8.8901002    205.29717   0.01048933 0.0094034065          200 
 1632000   0.60914661   -8.8720979    205.58021  0.010497356 0.0093946518          201 
 1633000   0.59168941    -8.884664    205.25774  0.010474471  0.009385907          211 
 1634000    0.6012655    -8.882737    205.55869   0.01048341 0.0093771841          206 
 1635000   0.60423142   -8.8947089    205.40368  0.010469097 0.0093684683          215 
 1636000   0.61474632   -8.8934898    205.14148  0.010449342 0.0093597645          229 
 1637000   0.61166789   -8.8888136    205.34463    0.0104533 0.0093510809          176 
 1638000   0.59594176   -8.9018672    205.24002  0.010441596 0.0093423907          209 
 1639000   0.59781995   -8.8985937    205.30296  0.010438426  0.009333715          217 
 1640000   0.60638107   -8.8882538    205.59079  0.010446686  0.009325063          210 
 1641000   0.59980513   -8.8874556    205.50953  0.010436194 0.0093164202          208 
 1642000   0.58775157   -8.8885654    205.34061  0.010421265 0.0093077883          192 
 1643000   0.60179197   -8.8786205    205.11409  0.010403433 0.0092991569          206 
 1644000   0.59390179   -8.9136249     205.3196  0.010407522 0.0092905433          207 
 1645000     0.597183   -8.8927784    205.73944  0.010422464 0.0092819311          232 
 1646000    0.5943391   -8.9011152    205.38253  0.010398062 0.0092733351          216 
 1647000   0.58448622   -8.8845243    205.47556  0.010396456 0.0092647409          238 
 1648000   0.60199423   -8.8598085    205.44733   0.01038872 0.0092561557          197 
 1649000   0.58899735   -8.9134038    205.21075  0.010370464 0.0092475677          177 
 1650000   0.59357744   -8.8828757    204.83809  0.010345358 0.0092389928          206 
 1651000   0.59912997   -8.9073856     205.2383  0.010359292 0.0092304116          195 
 1652000   0.59245162   -8.9196028    204.90129  0.010336022 0.0092218343          202 
 1653000   0.58836339   -8.9223667    204.85663  0.010327517 0.0092132678          221 
 1654000   0.58859315   -8.9164669    205.17767  0.010337448 0.0092047068          224 
 1655000   0.57917089    -8.902987    205.36475  0.010340622 0.0091961681          218 
 1656000   0.59118744   -8.9026945    205.21674   0.01032693 0.0091876337          205 
 1657000   0.58142565   -8.9043779    205.05675  0.010312651 0.0091791028          226 
 1658000   0.59275171   -8.9049993    204.83015  0.010295042 0.0091705877          211 
 1659000    0.5964767   -8.9045669    205.09259  0.010302019  0.009162091          219 
 1660000   0.57585823   -8.9032164    205.04591   0.01029347 0.0091536066          230 
 1661000   0.58366686   -8.9075765    204.91367  0.010280637 0.0091451157          230 
 1662000   0.59100828   -8.9107034    204.96612  0.010277082 0.0091366487          199 
 1663000   0.58792909   -8.8993643    205.17934  0.010281586 0.0091281977          207 
 1664000   0.59399726   -8.8895176    205.06635  0.010269749 0.0091197419          231 
 1665000   0.59881837   -8.9260953    204.99395  0.010259958 0.0091112975          212 
 1666000   0.58812251      -8.9081    205.23943  0.010266078 0.0091028519          229 
 1667000   0.58453433   -8.9258049    204.70209  0.010233058 0.0090944166          230 
 1668000    0.5938148   -8.9211859     205.0953  0.010246568 0.0090859999          201 
 1669000   0.58646884    -8.918951    204.88428  0.010229892 0.0090775841          212 
 1670000   0.59167059   -8.9325832    204.50657  0.010204919 0.0090691689          227 
 1671000   0.59269394   -8.9262154    204.97039  0.010221943 0.0090607699          253 
 1672000   0.59186255    -8.896545     205.0423  0.010219413 0.0090523821          231 
 1673000   0.59102779   -8.9261627    204.94109  0.010208263 0.0090440058          234 
 1674000   0.57902018   -8.9166282    204.79898   0.01019509 0.0090356336          227 
 1675000   0.57776684   -8.9340784    205.03807  0.010200899 0.0090272702          231 
 1676000   0.58746788   -8.9330358    205.09135  0.010197462 0.0090189138          225 
 1677000    0.5732055   -8.8989827    204.89864  0.010181805 0.0090105729          226 
 1678000   0.57654494   -8.9049791    204.99281  0.010180414 0.0090022372          215 
 1679000    0.5722437   -8.9355215     204.9811  0.010173769 0.0089939078          216 
 1680000   0.58490009   -8.9156962    205.15032  0.010176107 0.0089855931          234 
 1681000   0.58458985   -8.9202924    204.83239  0.010154293 0.0089772965          246 
 1682000    0.5903459   -8.9369037    204.83165  0.010148219 0.0089689961          253 
 1683000   0.59721204   -8.9277247    204.95888  0.010148489 0.0089607107          237 
 1684000   0.57431707    -8.928264    204.82762  0.010135967 0.0089524338          240 
 1685000   0.56709729   -8.9115064    204.85066  0.010131091 0.0089441696          246 
 1686000   0.59039879   -8.9081656    204.81779  0.010123458 0.0089359159          236 
 1687000   0.58625053   -8.9132651    205.08485  0.010130649 0.0089276734          225 
 1688000    0.5821721   -8.9274409    204.97984  0.010119463 0.0089194447          232 
 1689000   0.59196121   -8.9048125    204.47829  0.010088726  0.008911213          215 
 1690000    0.5842691   -8.9240075    204.76088   0.01009669 0.0089029903          232 
 1691000   0.58336777    -8.924813    204.64151  0.010084837 0.0088947782          251 
 1692000   0.58052659    -8.925518    204.42716  0.010068319 0.0088865721          231 
 1693000   0.57304133   -8.9343094    204.75721  0.010078618 0.0088783824          241 
 1694000   0.57895656   -8.9510157     205.2623  0.010097516 0.0088702129          235 
 1695000   0.58385006   -8.9176073    204.88778  0.010073145 0.0088620505          251 
 1696000   0.57348552   -8.9305715    204.58008  0.010052087 0.0088538927          242 
 1697000   0.57183758    -8.930068    204.78845  0.010056396 0.0088457404          235 
 1698000   0.57950857   -8.9207637    205.26804  0.010074011 0.0088376036          229 
 1699000   0.57015087   -8.9357035    204.54585  0.010032659 0.0088294655          222 
 1700000    0.5705623   -8.9328008    204.82912  0.010040643 0.0088213325          235 
 1701000   0.56735685   -8.9397453     204.8359  0.010035072  0.008813213          230 
 1702000   0.57899915   -8.9217582    204.89711  0.010032173 0.0088051056          241 
 1703000   0.57219438   -8.9337947    204.58112   0.01001082 0.0087970028          249 
 1704000   0.56894544   -8.9372918    204.85099  0.010018143 0.0087889023          232 
 1705000   0.57524182   -8.9409286    204.74502  0.010007088 0.0087808214          240 
 1706000   0.57479201   -8.9344954    204.67362 0.0099977347 0.0087727506          232 
 1707000   0.57305429   -8.9465143    204.88075  0.010001989 0.0087646819          237 
 1708000    0.5632353    -8.955309     204.9241 0.0099982485 0.0087566315          230 
 1709000   0.56528477   -8.9376666    204.62097 0.0099776171 0.0087485948          222 
 1710000    0.5667073   -8.9368489    204.69617 0.0099754466 0.0087405517          252 
 1711000   0.57536571   -8.9416171    204.67962 0.0099688107 0.0087325207          239 
 1712000   0.57068026   -8.9283033    205.00623 0.0099788859 0.0087245058          244 
 1713000   0.56301934   -8.9362903    204.43955 0.0099454927 0.0087164917          255 
 1714000   0.57448642   -8.9456858    204.73855 0.0099542272 0.0087084882          244 
 1715000    0.5668314   -8.9563781     204.8399  0.009953348 0.0087004878          245 
 1716000   0.56923536   -8.9557566    204.37347 0.0099248966 0.0086924975          251 
 1717000   0.57723273   -8.9583655    204.58443 0.0099293551 0.0086845275          256 
 1718000    0.5675476   -8.9521967    204.47049 0.0099180485 0.0086765645          223 
 1719000   0.56853905   -8.9502409    204.75222 0.0099259368 0.0086686202          239 
 1720000   0.57449436   -8.9413546    204.85442 0.0099251172 0.0086606665          247 
 1721000   0.56672342   -8.9595667    204.63264 0.0099086115  0.008652733          234 
 1722000   0.56432029   -8.9404373    204.16239 0.0098801003 0.0086448062          245 
 1723000   0.57082939   -8.9396332    204.56721 0.0098939452 0.0086368935          252 
 1724000   0.54832659   -8.9564845    204.38959 0.0098796204 0.0086289815          252 
 1725000   0.57589462   -8.9684453     204.4727 0.0098779083 0.0086210852          259 
 1726000   0.55977442   -8.9503112    204.68231 0.0098823055 0.0086131917          240 
 1727000   0.57201926   -8.9513856    204.45187 0.0098654639 0.0086053245          250 
 1728000   0.57914622   -8.9534438    204.62864 0.0098682793 0.0085974633          241 
 1729000   0.56721204   -8.9539059    204.40254 0.0098516746 0.0085896064          235 
 1730000   0.55437319   -8.9456054    204.72267 0.0098614002 0.0085817582          214 
 1731000   0.56164146   -8.9528875    204.76747   0.00985786 0.0085739148          247 
 1732000   0.56440892   -8.9425357    204.56368 0.0098423631 0.0085660794          230 
 1733000   0.57192217   -8.9593932    204.73058 0.0098447098 0.0085582554          256 
 1734000   0.55658053   -8.9607145    204.85197 0.0098448659 0.0085504443          239 
 1735000   0.57838811   -8.9550168     204.6944 0.0098316232 0.0085426257          234 
 1736000   0.55579912   -8.9821756     204.5953 0.0098212031 0.0085348224          252 
 1737000   0.54822869   -8.9524612    204.41519 0.0098069078 0.0085270286          244 
 1738000   0.56869472   -8.9678036    204.20815 0.0097913381 0.0085192416          210 
 1739000   0.54553007   -8.9632683     204.6501 0.0098068863 0.0085114728          232 
 1740000   0.56135126    -8.959597    204.50338  0.009794223 0.0085037036          224 
 1741000   0.55032738   -8.9701529    204.54604 0.0097906394 0.0084959525          211 
 1742000   0.55270307   -8.9541293    204.64575 0.0097897891 0.0084882017          252 
 1743000   0.55994638   -8.9346729    204.47424 0.0097759725 0.0084804755          245 
 1744000   0.56817405   -8.9729839    204.56467 0.0097746882 0.0084727415          246 
 1745000   0.56053198   -8.9685803    204.41387 0.0097618849 0.0084650175          242 
 1746000   0.55457448   -8.9629951    204.20806 0.0097464709 0.0084573072          247 
 1747000   0.55104005   -8.9756986    204.65036 0.0097619899 0.0084496142          252 
 1748000    0.5613714   -8.9767329    204.80834 0.0097639369 0.0084419192          232 
 1749000   0.55248816    -8.965268    204.60048 0.0097484504 0.0084342239          244 
 1750000   0.56157706   -8.9400782    204.52722 0.0097393915 0.0084265414          239 
 1751000    0.5461078   -8.9716793    204.17162 0.0097169056  0.008418872          221 
 1752000   0.54875226   -8.9576497    204.61267  0.009732338 0.0084112019          245 
 1753000   0.55231154    -8.983487    204.38393 0.0097159122 0.0084035418          220 
 1754000   0.55876992   -8.9747895    204.47431 0.0097146671 0.0083958923          221 
 1755000   0.54909392   -8.9900922    204.38456 0.0097048698 0.0083882547          257 
 1756000   0.55671381   -8.9812816    204.42052 0.0097010499 0.0083806228          224 
 1757000    0.5474514   -8.9783626    204.43418 0.0096961761 0.0083730023          218 
 1758000   0.55226639   -8.9927088    204.67637 0.0097021412  0.008365388          230 
 1759000   0.54550984   -8.9593836    204.27693 0.0096777019 0.0083577826          215 
 1760000   0.54546656   -8.9739537    204.40353 0.0096781975  0.008350183          238 
 1761000   0.55431973    -8.984884    204.12637 0.0096595857 0.0083425938          237 
 1762000   0.54894178    -8.962235    204.44561 0.0096692021 0.0083350213          253 
 1763000    0.5576185    -8.961906    204.31177 0.0096573914 0.0083274474          231 
 1764000    0.5466944   -8.9855707    204.01659 0.0096379721 0.0083198833          226 
 1765000   0.55666287   -8.9869179    204.65721 0.0096627579 0.0083123245          238 
 1766000   0.53692328   -8.9938624    204.25705 0.0096384034 0.0083047786          218 
 1767000   0.56243231   -8.9698208    204.08531 0.0096248496 0.0082972376          235 
 1768000   0.55257266   -8.9848174    204.40122 0.0096342958 0.0082896973          235 
 1769000    0.5584025   -9.0035971    204.12106 0.0096156522 0.0082821733          247 
 1770000   0.55938573   -8.9761678    204.38417 0.0096226068 0.0082746528          242 
 1771000   0.53680408   -8.9841515    204.51321 0.0096232453 0.0082671498          225 
 1772000   0.55250507   -8.9897131    204.47908 0.0096162094 0.0082596606          217 
 1773000   0.54714052   -8.9636536    204.38671 0.0096064441 0.0082521684          246 
 1774000   0.54750476   -8.9800676    204.25107 0.0095946574 0.0082446819          230 
 1775000   0.54816546   -8.9772958    204.41579 0.0095969855 0.0082372119          230 
 1776000    0.5443261   -8.9934751    204.28483  0.009585437 0.0082297414          236 
 1777000   0.54909634    -8.996068    204.32093 0.0095817356  0.008222279          223 
 1778000   0.55248188   -8.9992912    204.51994 0.0095856741 0.0082148369          221 
 1779000   0.53799851   -8.9831615    204.40824 0.0095750533 0.0082073968          226 
 1780000   0.55018461   -8.9943521     204.1885 0.0095593865 0.0081999651          236 
 1781000    0.5532935   -8.9856417    204.38843 0.0095633742 0.0081925406          213 
 1782000   0.54319408   -8.9970665    204.18303 0.0095484021 0.0081851258          215 
 1783000   0.54395236   -8.9908522    204.42953 0.0095545678 0.0081777101          239 
 1784000   0.54848341   -8.9983792    204.11123 0.0095343438 0.0081703059          223 
 1785000   0.53388706   -8.9770937    204.17335 0.0095319026 0.0081629195          229 
 1786000   0.53275527   -8.9843673    204.09979  0.009523133 0.0081555352          207 
 1787000   0.53387787   -8.9862169    204.36649 0.0095302409 0.0081481548          233 
 1788000   0.55711446   -8.9944786    204.13754 0.0095142403 0.0081407919          216 
 1789000   0.54416699   -8.9751037    204.00599 0.0095027944 0.0081334349          202 
 1790000    0.5435294   -8.9925039    203.98843  0.009496668 0.0081260818          231 
 1791000   0.53698127   -8.9871736    204.05041 0.0094942493  0.008118744          230 
 1792000   0.54284068   -8.9882889    204.06796 0.0094897675  0.008111408          246 
 1793000   0.53586227   -9.0209515    203.87567 0.0094755376 0.0081040834          251 
 1794000   0.52842969   -8.9857839    204.41254 0.0094951943 0.0080967726          242 
 1795000   0.53505288   -8.9717511    204.16932 0.0094786126  0.008089471          204 
 1796000   0.53272198   -8.9883964    204.36188 0.0094822698 0.0080821704          217 
 1797000   0.53508264   -9.0097107    204.10378 0.0094650242 0.0080748775          234 
 1798000   0.52396958   -8.9923816    203.83505 0.0094473048 0.0080675867          230 
 1799000   0.53865559   -9.0107432    204.16308 0.0094572484 0.0080603052          238 
 1800000   0.53020899   -8.9968653    203.91986 0.0094407342 0.0080530384          223 
 1801000   0.54020766   -9.0035545     203.9021 0.0094346706 0.0080457862          248 
 1802000   0.52590173   -8.9877266    204.14995 0.0094408965 0.0080385412          225 
 1803000   0.54272573   -8.9922506    204.03652 0.0094304179 0.0080312972          234 
 1804000   0.53984506   -9.0219461    204.17266 0.0094314793 0.0080240659          231 
 1805000   0.53493433   -8.9945497    204.18034 0.0094266083 0.0080168409          234 
 1806000   0.52812183   -8.9944324    204.16532 0.0094206957  0.008009624          251 
 1807000    0.5304231   -9.0146142    204.05339 0.0094103203 0.0080024206          234 
 1808000   0.53295434    -9.016033    204.10718 0.0094075949 0.0079952193          229 
 1809000   0.53508905   -9.0045551    203.98057  0.009396562 0.0079880248          232 
 1810000   0.52749752   -9.0120417    204.29606 0.0094058958  0.007980835          235 
 1811000   0.52999258   -9.0174608    203.71789 0.0093740974 0.0079736521          214 
 1812000   0.53083442   -9.0288278    203.97596 0.0093807929 0.0079664815          227 
 1813000   0.52675705   -9.0224396    203.85357 0.0093699933 0.0079593208          230 
 1814000   0.53136235   -9.0031339     204.0106 0.0093720415 0.0079521731          234 
 1815000   0.52342508   -9.0201268    204.22793 0.0093768562 0.0079450365          230 
 1816000     0.530741   -9.0108107    204.04759 0.0093634172 0.0079378956          224 
 1817000    0.5329779   -9.0016913    203.97463 0.0093549181 0.0079307686          214 
 1818000   0.52491613   -9.0064714    203.83413 0.0093433318 0.0079236532          240 
 1819000   0.52551634   -9.0019147    204.41445 0.0093647814 0.0079165533          238 
 1820000   0.53664324   -9.0106172    204.13845 0.0093469987 0.0079094532          246 
 1821000   0.51439958   -9.0061102    204.21644 0.0093454346 0.0079023581          231 
 1822000   0.51426591   -9.0203947    203.90935 0.0093262598 0.0078952719          251 
 1823000   0.52740455   -9.0289572    203.62366 0.0093080848 0.0078881959          218 
 1824000   0.52397705   -9.0068494      203.725 0.0093076115 0.0078811354          252 
 1825000   0.52254916   -8.9981518    204.02092 0.0093160239 0.0078740741          225 
 1826000    0.5224339    -9.019675    204.27037 0.0093223061 0.0078670333          237 
 1827000   0.53210375   -9.0195179    204.18951 0.0093135155 0.0078599907          232 
 1828000   0.52145442   -9.0276137    203.89283 0.0092948958 0.0078529576          229 
 1829000   0.52313387    -9.007575    203.99372 0.0092944106 0.0078459337          236 
 1830000   0.52715972   -9.0242477    204.02766 0.0092908773 0.0078389165          216 
 1831000   0.51308754   -9.0092471    204.37879 0.0093017836 0.0078319053          231 
 1832000   0.51931482   -9.0162961    203.78665 0.0092697714 0.0078249044          225 
 1833000   0.51907984   -9.0343163    203.89142  0.009269477 0.0078179104          221 
 1834000   0.52866697   -9.0251825    203.50215 0.0092467354  0.007810924          229 
 1835000   0.51874286   -9.0245198    203.81001 0.0092556773 0.0078039474          238 
 1836000   0.52443887   -9.0295404    203.67672  0.009244586 0.0077969734          233 
 1837000   0.51563615   -9.0328739    203.73266 0.0092420911  0.007790002          230 
 1838000   0.51274046   -9.0237332    204.14702 0.0092558498  0.007783045          213 
 1839000   0.52527621   -9.0461468    203.72635  0.009231754 0.0077760934          210 
 1840000   0.52015803   -9.0082929    203.70089 0.0092255836 0.0077691465          242 
 1841000    0.5199949   -9.0215016    203.82524 0.0092262012 0.0077622075          211 
 1842000   0.52273234   -9.0276352    203.76895 0.0092186462 0.0077552752          210 
 1843000   0.51237787   -9.0081083    203.62253 0.0092070236 0.0077483492          234 
 1844000   0.51954436   -9.0090952    203.88007  0.009213669 0.0077414321          240 
 1845000   0.51438492   -9.0313382    203.86029 0.0092077819 0.0077345203          238 
 1846000   0.51587891   -9.0429011    203.87132 0.0092032919 0.0077276111          251 
 1847000   0.50684137   -9.0178374    203.67049 0.0091892478 0.0077207208          245 
 1848000   0.51204902   -9.0349379    203.66016 0.0091838095 0.0077138252          256 
 1849000   0.52541883   -9.0215437    203.60082 0.0091761681  0.007706942          239 
 1850000   0.50423345   -9.0287676     203.6237 0.0091722389 0.0077000754          231 
 1851000   0.53035753   -9.0443746    203.48674 0.0091611174 0.0076932066          236 
 1852000   0.51638097   -9.0377831    203.46997 0.0091554164 0.0076863492          230 
 1853000   0.51938107   -9.0317735    203.53054 0.0091531994 0.0076795026          226 
 1854000   0.51363799   -9.0532007    203.94965 0.0091671006 0.0076726635          254 
 1855000   0.51395961   -9.0318421    203.42262 0.0091384826 0.0076658302          226 
 1856000   0.51362164   -9.0358916    203.46303 0.0091353731   0.00765901          251 
 1857000   0.51849918   -9.0390972    203.76318 0.0091439232 0.0076522007          232 
 1858000   0.49694503   -9.0419822    203.80745 0.0091409874 0.0076453969          244 
 1859000   0.52410029   -9.0324503    203.63957 0.0091285445 0.0076385923          258 
 1860000   0.52492493   -9.0465866    203.77972 0.0091299159 0.0076317968          244 
 1861000   0.51503598   -9.0283985      203.693 0.0091211266 0.0076250082          258 
 1862000   0.52159347   -9.0255171    203.50483 0.0091078065 0.0076182355          261 
 1863000   0.50971268   -9.0545814    203.58428 0.0091064715 0.0076114683          239 
 1864000   0.52018483   -9.0344236    203.63705 0.0091039452 0.0076047108          210 
 1865000   0.50757129   -9.0347543    203.81034 0.0091068072 0.0075979541          213 
 1866000   0.50517657   -9.0441931     203.5859 0.0090919032 0.0075912107          233 
 1867000   0.50527232   -9.0322181    203.74996 0.0090943565 0.0075844701          234 
 1868000   0.51184822   -9.0264401    203.59632 0.0090826337 0.0075777387          244 
 1869000   0.50388393   -9.0575054    203.55847 0.0090760867 0.0075710112          233 
 1870000    0.5062943   -9.0729642    203.71673 0.0090782857  0.007564292          244 
 1871000   0.49816135   -9.0599334    203.34606 0.0090569241 0.0075575788          251 
 1872000   0.50322921   -9.0395212    203.85367 0.0090746827 0.0075508813          235 
 1873000   0.49537704   -9.0508018    203.66909 0.0090616254 0.0075441963          217 
 1874000   0.50807603     -9.02857    203.98051 0.0090706383 0.0075375171          226 
 1875000   0.51373354   -9.0488191    203.36206 0.0090383136 0.0075308441          244 
 1876000   0.50401404   -9.0523891    203.58652 0.0090434666 0.0075241768          235 
 1877000   0.49809634    -9.052885    203.62916 0.0090405414 0.0075175194          244 
 1878000   0.49916277   -9.0583903    203.73088 0.0090402413  0.007510866          248 
 1879000   0.50672121   -9.0500367    203.46652 0.0090237058 0.0075042225          228 
 1880000    0.5059206   -9.0539332    203.68791 0.0090287196 0.0074975825          231 
 1881000   0.49729974   -9.0482411    203.65604 0.0090225076 0.0074909493          231 
 1882000   0.50841137   -9.0549779    203.52626 0.0090119668 0.0074843283          229 
 1883000   0.49547474   -9.0663478    203.72516 0.0090159833 0.0074777165          239 
 1884000   0.50228145    -9.053105    203.59247 0.0090053286 0.0074711058          231 
 1885000   0.49561504   -9.0542303    203.79665 0.0090095778 0.0074645059          222 
 1886000   0.49492012   -9.0511268    203.62977 0.0089974273 0.0074579096          244 
 1887000   0.50695392   -9.0520569    203.35011 0.0089803089 0.0074513158          230 
 1888000   0.49108509   -9.0462452    203.38623 0.0089771463 0.0074447368          241 
 1889000   0.50741753   -9.0647456    203.40138 0.0089730623 0.0074381671          230 
 1890000   0.49141279   -9.0586185    203.27122 0.0089625757 0.0074315998          242 
 1891000   0.50054557   -9.0552622     203.3435 0.0089610213 0.0074250348          265 
 1892000   0.49400025   -9.0737121    203.61241 0.0089681292 0.0074184799          244 
 1893000   0.49211359   -9.0740077    203.37833 0.0089530874 0.0074119338          246 
 1894000   0.50154659   -9.0691363     203.2795 0.0089440117 0.0074053977          251 
 1895000   0.50865104   -9.0579305    203.37411 0.0089434527 0.0073988703          230 
 1896000   0.49707831   -9.0687383    203.33538  0.008937033 0.0073923508          231 
 1897000   0.50272921   -9.0690103    203.51574  0.008940245  0.007385839          236 
 1898000   0.48792749   -9.0613813    203.55299 0.0089371703 0.0073793338          240 
 1899000   0.48344315   -9.0619382    203.40549 0.0089259912 0.0073728395          208 
 1900000   0.49644653   -9.0664316    203.35039 0.0089188768 0.0073663521          243 
 1901000   0.49792378   -9.0833876    203.63047 0.0089264628 0.0073598738          218 
 1902000   0.50862316   -9.0606451    203.53816 0.0089177252 0.0073534041          216 
 1903000    0.4862186   -9.0582507     203.4102 0.0089074357 0.0073469384          234 
 1904000   0.49912972   -9.0854621    203.60217 0.0089111594 0.0073404805          226 
 1905000   0.50626142   -9.0772729    203.31165 0.0088937732 0.0073340293          251 
 1906000   0.48574933   -9.0804655    203.47725 0.0088963469 0.0073275832          238 
 1907000   0.48887648   -9.0894708    203.22366 0.0088806005   0.00732115          241 
 1908000   0.49287108   -9.0700428    203.00854 0.0088665503 0.0073147159          246 
 1909000   0.47627458   -9.0682068     203.6668 0.0088906406 0.0073082923          240 
 1910000    0.4966471   -9.0689139    203.20779 0.0088659596 0.0073018736          246 
 1911000    0.4886831   -9.0911251    202.97548 0.0088511897 0.0072954599          238 
 1912000   0.48805255   -9.0848004    203.57091 0.0088725119 0.0072890551          226 
 1913000   0.48391197   -9.0811225     203.3554 0.0088584859 0.0072826551          231 
 1914000   0.49029432   -9.0613772    203.16336 0.0088454965  0.007276275          220 
 1915000   0.49486411   -9.0903072    203.16564 0.0088409766 0.0072698941          249 
 1916000   0.48742261   -9.0648736    203.56011 0.0088535192 0.0072635209          226 
 1917000   0.48087561    -9.094267    203.20925 0.0088336484 0.0072571605          233 
 1918000   0.47736266   -9.0878242    203.22964 0.0088299287 0.0072508003          258 
 1919000   0.48725833   -9.0922247    203.31583 0.0088290703 0.0072444447          241 
 1920000   0.48283332   -9.0912007    203.38562 0.0088275011 0.0072380973          243 
 1921000   0.49591412   -9.0864895     203.2568 0.0088173176 0.0072317591          233 
 1922000   0.49152416    -9.079343    203.08296 0.0088051925 0.0072254224          243 
 1923000   0.49041232   -9.0869658    203.22188 0.0088066339  0.007219105          230 
 1924000   0.49439445   -9.0864179    202.95672 0.0087905715 0.0072127861          218 
 1925000   0.49418875   -9.0963545    203.27412 0.0087997456 0.0072064755          233 
 1926000   0.48059698   -9.0847547    203.31496 0.0087969435 0.0072001729          240 
 1927000    0.4714147   -9.0956973    203.37312 0.0087948936 0.0071938771          243 
 1928000   0.48806348   -9.0839701    203.26116 0.0087854928 0.0071875846          228 
 1929000   0.48562104   -9.0883426    203.31036 0.0087830637 0.0071813046          224 
 1930000   0.48483942   -9.0886715    203.08248 0.0087686734  0.007175031          226 
 1931000   0.47707797   -9.0980542    202.87435 0.0087551507 0.0071687622          235 
 1932000   0.48701658   -9.0769834    203.46161 0.0087759494  0.007162504          227 
 1933000   0.48311731   -9.0779165    203.46243 0.0087714448  0.007156255          248 
 1934000   0.48275647   -9.0770709    203.08681 0.0087507244 0.0071500104          232 
 1935000   0.48153617   -9.0842479    203.26739 0.0087539787 0.0071437689          246 
 1936000   0.48340997   -9.1035204    203.12715 0.0087434209 0.0071375372          242 
 1937000   0.48180059   -9.0827862    203.24667  0.008744049 0.0071313107          226 
 1938000   0.47526604   -9.0780714    203.21628 0.0087382303 0.0071250897          236 
 1939000   0.48295616   -9.0783224    203.03527 0.0087259441 0.0071188843          245 
 1940000   0.48795905   -9.0970262    203.08356 0.0087235206 0.0071126807          235 
 1941000   0.47294474   -9.0777812    203.20967 0.0087244404 0.0071064821          243 
 1942000   0.47349634   -9.1215545    203.11265  0.008715785  0.007100289          233 
 1943000   0.47472568   -9.1078233    203.72619 0.0087376131 0.0070941073          227 
 1944000   0.47628852   -9.1048008    203.15577 0.0087086664 0.0070879387          214 
 1945000   0.47591939   -9.1073244    203.10803 0.0087021433 0.0070817742          223 
 1946000   0.46386525   -9.0923694    203.09085 0.0086969359  0.007075616          247 
 1947000   0.46872068   -9.0991171    203.12902  0.008694103 0.0070694639          239 
 1948000   0.47711791   -9.1031899    203.19618 0.0086925128 0.0070633155          244 
 1949000   0.46910818   -9.0874683    202.88236 0.0086746348 0.0070571736          216 
 1950000   0.48147107   -9.0937055    203.09882 0.0086794369 0.0070510387          231 
 1951000   0.46402768   -9.0810843    203.31884 0.0086843856 0.0070449108          220 
 1952000    0.4686664   -9.1079537    203.00091 0.0086663641  0.007038784          246 
 1953000   0.46208492    -9.086021    203.06771  0.008664777 0.0070326629          245 
 1954000   0.47024332   -9.1017715    202.84821 0.0086509813 0.0070265515          234 
 1955000   0.46503668   -9.0983247    203.34259 0.0086676294 0.0070204539          224 
 1956000   0.47525027   -9.0876209    202.99328 0.0086483162 0.0070143558          222 
 1957000   0.46226451   -9.0873027    203.12447 0.0086494835 0.0070082589          230 
 1958000    0.4731113   -9.1196668    202.96689 0.0086383593 0.0070021823          247 
 1959000   0.47951844   -9.1067278     202.8264 0.0086279735 0.0069961032          228 
 1960000   0.46824599   -9.1078091    202.92027 0.0086275625 0.0069900369          234 
 1961000   0.47712893   -9.1210454    203.16814 0.0086336961 0.0069839783          243 
 1962000   0.47368417    -9.093838    203.05783 0.0086246106 0.0069779257          220 
 1963000   0.46280003   -9.1066993    203.10452 0.0086221988 0.0069718794          239 
 1964000   0.47383241   -9.1139174    202.89646 0.0086089808 0.0069658394          241 
 1965000    0.4722457   -9.1124285    203.39079 0.0086255638 0.0069598069          239 
 1966000    0.4677274   -9.1072183    203.01251 0.0086051421  0.006953779          218 
 1967000   0.47086067   -9.1246865    203.03107 0.0086015537 0.0069477537          228 
 1968000   0.47235886   -9.1187823    203.06143 0.0085984685 0.0069417424          249 
 1969000   0.46685698   -9.1251186    202.89847 0.0085872044  0.006935735          232 
 1970000   0.45770791   -9.1099446    202.94754 0.0085849215 0.0069297332          232 
 1971000   0.47067982   -9.1048454    203.12324 0.0085879944  0.006923742          236 
 1972000   0.46714438   -9.1060402    202.92508 0.0085752655 0.0069177562          240 
 1973000   0.46505871   -9.1060593    202.94279 0.0085716669 0.0069117742          240 
 1974000   0.45991071   -9.1283151    202.71939 0.0085578938 0.0069058018          219 
 1975000   0.45527193   -9.1279922    203.15157 0.0085717961 0.0068998338          245 
 1976000   0.45732764   -9.1089944    202.54895 0.0085420439 0.0068938707          231 
 1977000   0.47518315   -9.1329439    203.15454 0.0085632501 0.0068879198          246 
 1978000   0.47039972   -9.1149466    202.91439 0.0085488032  0.006881976          239 
 1979000   0.46716993   -9.1065963    202.96481 0.0085466063 0.0068760368          245 
 1980000   0.46990475     -9.10607     203.1019 0.0085480596 0.0068701063          248 
 1981000   0.45949816   -9.1134082    202.60279  0.008522749 0.0068641818          244 
 1982000    0.4577837   -9.1279269    202.90538 0.0085311715 0.0068582594          243 
 1983000   0.46573925   -9.0977494    202.84018 0.0085241293 0.0068523451          235 
 1984000   0.45536937   -9.1240303    202.69208 0.0085136121 0.0068464398          233 
 1985000    0.4666338    -9.115517    203.03416 0.0085236843   0.00684054          251 
 1986000   0.46691379   -9.1056554    202.69876  0.008505319 0.0068346424          236 
 1987000   0.45803393   -9.1210019    202.88641 0.0085089082 0.0068287575          247 
 1988000   0.46360079   -9.1177696    202.79969 0.0085009931 0.0068228755          230 
 1989000   0.46398078   -9.1194055    202.97262 0.0085039644 0.0068170035          238 
 1990000   0.46712935   -9.1362137    202.98115  0.008500048 0.0068111361          263 
 1991000   0.45751646   -9.1124316    203.02993 0.0084978206 0.0068052795          240 
 1992000   0.46318307   -9.1286955    202.79165 0.0084835863 0.0067994209          235 
 1993000   0.46628455   -9.1305269    202.94149  0.008485595 0.0067935806          255 
 1994000   0.45755034   -9.1175451     203.0103 0.0084842153 0.0067877393          226 
 1995000   0.46351045   -9.1216657    202.83484 0.0084726334 0.0067819033          241 
 1996000   0.45233143    -9.118692    202.80062 0.0084669598 0.0067760726          230 
 1997000   0.45776056   -9.1208561     202.6392 0.0084559839 0.0067702431          239 
 1998000   0.45056144   -9.1210271    202.77097 0.0084572477 0.0067644225          255 
 1999000   0.44282823   -9.1162812    202.72242 0.0084509931 0.0067586095          237 
 2000000   0.44399026   -9.1369231      203.059 0.0084607917 0.0067528027          235 
 2001000   0.45229864    -9.132195    202.66565 0.0084401822 0.0067470073          236 
 2002000   0.46148624    -9.130593    202.90329 0.0084458579 0.0067412223          240 
 2003000   0.45740781   -9.1295608    202.92429 0.0084425151 0.0067354374          243 
 2004000   0.45511774   -9.1318564    202.59916 0.0084247823  0.006729667          252 
 2005000   0.44449688   -9.1444422    202.52409 0.0084174599 0.0067238974          226 
 2006000   0.45268387   -9.1518146    202.56948 0.0084151496  0.006718132          238 
 2007000   0.45566688   -9.1372294    203.06817 0.0084316627 0.0067123748          234 
 2008000   0.45246595   -9.1307941    202.69759 0.0084120847 0.0067066234          247 
 2009000   0.45004268   -9.1305498    202.65163 0.0084059909 0.0067008791          239 
 2010000    0.4639824   -9.1387156    202.67395 0.0084027342 0.0066951436          238 
 2011000   0.43970268   -9.1355396    202.95483 0.0084101952 0.0066894091          234 
 2012000   0.44714073   -9.1470312    202.93553 0.0084052157 0.0066836902          239 
Loop time of 5030.95 on 48 procs for 2000000 steps with 4000 atoms

Performance: 68694.712 tau/day, 397.539 timesteps/s
99.4% CPU use with 48 MPI tasks x no OpenMP threads

MPI task timing breakdown:
Section |  min time  |  avg time  |  max time  |%varavg| %total
---------------------------------------------------------------
Pair    | 343.58     | 365.64     | 382.54     |  55.3 |  7.27
Neigh   | 33.691     | 35.044     | 36.683     |  12.0 |  0.70
Comm    | 322.32     | 342.21     | 365.71     |  61.0 |  6.80
Output  | 4.5835     | 4.5853     | 4.6238     |   0.3 |  0.09
Modify  | 4227.9     | 4237.8     | 4251.7     |   8.6 | 84.23
Other   |            | 45.68      |            |       |  0.91

Nlocal:        83.3333 ave          88 max          76 min
Histogram: 1 2 2 2 6 8 11 4 5 7
Nghost:        2270.67 ave        2289 max        2252 min
Histogram: 3 5 3 6 6 7 5 6 4 3
Neighs:        15284.9 ave       16628 max       13869 min
Histogram: 2 2 7 7 7 2 8 7 3 3
FullNghs:      30569.3 ave       32727 max       27557 min
Histogram: 1 0 4 4 7 7 10 8 5 2

Total # of neighbors = 1467328
Ave neighs/atom = 366.83200
Neighbor list builds = 106599
Dangerous builds = 0

#clear
#
#next RN
#
#jump SELF
Total wall time: 1:23:54
