
units lj                  # Use reduced LJ style units
atom_style atomic         # Uncharged point particles
atom_modify map hash      # Needed for indexing of clusters etc
                          # Used to be able to find where atoms are in relation to each other.

lattice fcc 1.0 spacing 1 1 1
Lattice spacing in x,y,z = 1.5874011 1.5874011 1.5874011
region box block 0 10 0 10 0 10 units lattice
create_box 2 box
Created orthogonal box = (0.0000000 0.0000000 0.0000000) to (15.874011 15.874011 15.874011)
  3 by 4 by 4 MPI processor grid
create_atoms 1 box
Created 4000 atoms
  using lattice units in orthogonal box = (0.0000000 0.0000000 0.0000000) to (15.874011 15.874011 15.874011)
  create_atoms CPU = 0.019 seconds
set type 1 type/fraction 2 0.32 78393
Setting atom values ...
  1310 settings made for type/fraction
mass 1 1.0
mass 2 1.0
pair_style lj/cut  3.5
pair_modify tail  yes
pair_coeff 1  1  1.0  1.0   # Intearaction between 1 and 1 set with epsilon = 1 and sigma = 1
pair_coeff 1  2  1.5  0.8
pair_coeff 2  2  0.5  0.88

write_data data.0
System init for write_data ...
Neighbor list info ...
  update every 1 steps, delay 10 steps, check yes
  max neighbors/atom: 2000, page size: 100000
  master list distance cutoff = 3.8
  ghost atom cutoff = 3.8
  binsize = 1.9, bins = 9 9 9
  1 neighbor lists, perpetual/occasional/extra = 1 0 0
  (1) pair lj/cut, perpetual
      attributes: half, newton on
      pair build: half/bin/atomonly/newton
      stencil: half/bin/3d
      bin: standard
WARNING: Not all mixed pair coeffs generated from mixing. Use write_data with 'pair ij' option to store all pair coeffs. (../write_data.cpp:312)


#############################
#   M E L T   S Y S T E M   #
#############################

velocity all create 2.4 9622624 mom yes dist gaussian # Assign velocities
                                                    # Temperature 2.4, random number seed, zero linear momentum
                                                                                # Gaussian distribution

timestep 0.002   # simulation timestep
thermo 1000       # output thermodynamic data every 1000 steps bf 100

# Define a fix  in this case with index 1 applied to all
# particles in the simulation. This fix is for simulations
# in the anisotropic NPT ensemble. Note that we use the MTK
# correction.
fix 1 all npt temp 2.4 2.4 0.1 iso 5.68 5.68 0.5 mtk yes tchain 5 pchain 5 # Use NPT ensemble
                                                                         # Set temperature and pressure and damping
                                                                         # Numbers of thermostats in chain and in barostat
run 10000          # run for 10000 steps
Per MPI rank memory allocation (min/avg/max) = 3.642 | 3.644 | 3.648 Mbytes
Step Temp E_pair E_mol TotEng Press Volume 
       0          2.4   -6.3097323            0   -2.7106323   -4.0355096         4000 
    1000    2.3762224   -4.9689553            0   -1.4055128    5.7771717    4097.4505 
    2000    2.3773808    -5.036647            0   -1.4714673    5.5651956    4091.3825 
    3000    2.3838961   -5.0871146            0   -1.5121645    5.6857539    4052.7461 
    4000    2.4360409   -5.0451126            0   -1.3919648    5.7128999    4071.6214 
    5000     2.403219   -4.9750696            0   -1.3711423    5.8171173    4101.6939 
    6000    2.4620103   -4.9814581            0   -1.2893659    5.6886042    4115.6736 
    7000    2.3817746   -5.0238757            0   -1.4521069    5.6331348    4087.0017 
    8000    2.3981162   -4.9821071            0   -1.3858321    5.6764359     4108.419 
    9000    2.4253427   -5.0133756            0    -1.376271    5.2230663    4135.7179 
   10000    2.4036704   -5.0597172            0    -1.455113    5.9339219    4053.5193 
Loop time of 2.44784 on 48 procs for 10000 steps with 4000 atoms

Performance: 705929.664 tau/day, 4085.241 timesteps/s
99.6% CPU use with 48 MPI tasks x no OpenMP threads

MPI task timing breakdown:
Section |  min time  |  avg time  |  max time  |%varavg| %total
---------------------------------------------------------------
Pair    | 1.0413     | 1.121      | 1.189      |   3.1 | 45.79
Neigh   | 0.20257    | 0.21161    | 0.22241    |   1.0 |  8.64
Comm    | 0.72326    | 0.81776    | 0.91889    |   3.9 | 33.41
Output  | 0.00024166 | 0.00024587 | 0.00031465 |   0.0 |  0.01
Modify  | 0.245      | 0.28251    | 0.31755    |   3.4 | 11.54
Other   |            | 0.01475    |            |       |  0.60

Nlocal:        83.3333 ave          90 max          75 min
Histogram: 3 0 5 7 7 4 5 3 5 9
Nghost:        1626.67 ave        1647 max        1611 min
Histogram: 4 8 5 4 5 8 7 3 2 2
Neighs:        9411.98 ave       10435 max        8163 min
Histogram: 2 2 6 9 4 4 3 9 2 7

Total # of neighbors = 451775
Ave neighs/atom = 112.94375
Neighbor list builds = 908
Dangerous builds = 219

# Equilibrate just above the melting temperature to avoid step fn in T

fix 1 all npt temp 1.25 1.25 0.1 iso 5.68 5.68 0.5 mtk yes tchain 5 pchain 5
run 2000
Per MPI rank memory allocation (min/avg/max) = 3.643 | 3.645 | 3.649 Mbytes
Step Temp E_pair E_mol TotEng Press Volume 
   10000    2.4036704   -5.0597172            0    -1.455113    5.9339219    4053.5193 
   11000    1.2656875     -6.89772            0   -4.9996633    5.8438041    3279.3794 
   12000    1.2372203   -6.9431929            0   -5.0878265    5.6110188    3271.9046 
Loop time of 0.564498 on 48 procs for 2000 steps with 4000 atoms

Performance: 612225.024 tau/day, 3542.969 timesteps/s
99.6% CPU use with 48 MPI tasks x no OpenMP threads

MPI task timing breakdown:
Section |  min time  |  avg time  |  max time  |%varavg| %total
---------------------------------------------------------------
Pair    | 0.24918    | 0.27307    | 0.29859    |   2.5 | 48.37
Neigh   | 0.036716   | 0.039411   | 0.042008   |   0.7 |  6.98
Comm    | 0.17815    | 0.20487    | 0.23275    |   3.2 | 36.29
Output  | 5.0641e-05 | 5.1904e-05 | 6.6214e-05 |   0.0 |  0.01
Modify  | 0.038917   | 0.042532   | 0.046694   |   1.1 |  7.53
Other   |            | 0.004561   |            |       |  0.81

Nlocal:        83.3333 ave          90 max          76 min
Histogram: 2 4 8 3 4 5 5 11 3 3
Nghost:        1879.83 ave        1900 max        1851 min
Histogram: 2 1 4 4 4 10 6 8 3 6
Neighs:        11682.4 ave       13277 max        9899 min
Histogram: 2 1 5 9 6 3 10 8 2 2

Total # of neighbors = 560753
Ave neighs/atom = 140.18825
Neighbor list builds = 142
Dangerous builds = 6

#############################
# L I N E A R  Q U E N C H  #
#############################

# Define solid atoms. This closely follows ten Wolde  Ruiz-Montero and Frenkel  Faraday Discuss  1996  104  93-110
# Compute components of the per-atom q6 vector
compute q6 all orientorder/atom degrees 1 6 components 6 nnn NULL cutoff 1.3 # compute the Q6 parameter.
                                                                             # Use all neighbours within 1.3 unit cell.

# get number of connections
compute coord_number all coord/atom orientorder q6 0.5

# An atom is solid if it has 8 or more connections (of a possible 14)
variable is_solid atom c_coord_number>=8
group solid dynamic all var is_solid    # Must be dynamic to update
dynamic group solid defined

# do clustering
compute cluster solid cluster/atom 1.3 # Create a cluster where all atoms within are solid and max 1.3 units from another member

# define chunks one chunk per cluster
compute clus_chunks solid chunk/atom c_cluster nchunk every compress yes  # Says which atoms are in which chunk

# count the size of each chunk
compute size_chunks solid property/chunk clus_chunks count


# Find the maximum entry in the vector of chunk sizes
variable max_n equal max(c_size_chunks)


# Thermo style which includes this variable
# thermo_style custom step temp pe vol v_max_n

thermo ${N}  # Print the thermo information every 100 steps
thermo 1000  

# Reset the npt fix at a lower temperature (below freezing)
fix 1  all npt temp  ${temp} ${temp}  0.1  iso  5.68  5.68  0.5  mtk yes tchain  5  pchain  5
fix 1  all npt temp  0.45 ${temp}  0.1  iso  5.68  5.68  0.5  mtk yes tchain  5  pchain  5
fix 1  all npt temp  0.45 0.45  0.1  iso  5.68  5.68  0.5  mtk yes tchain  5  pchain  5

dump dmp2 all dcd ${N} traj.dcd
dump dmp2 all dcd 1000 traj.dcd


compute msd all msd com yes
variable twopoint equal c_msd[4]/6/(step*dt+1.0e-6)
fix 9 all vector 10 c_msd[4]
variable fit equal slope(f_9)/6/(10*dt)
thermo_style custom step temp pe c_msd[4] v_twopoint v_fit v_max_n

fix 1 all npt temp 1.25 ${temp} 0.1 iso 5.68 5.68 0.5 mtk yes tchain 5 pchain 5
fix 1 all npt temp 1.25 0.45 0.1 iso 5.68 5.68 0.5 mtk yes tchain 5 pchain 5
run 2000000 # 5000000  # Run for this many steps
Neighbor list info ...
  update every 1 steps, delay 10 steps, check yes
  max neighbors/atom: 2000, page size: 100000
  master list distance cutoff = 3.8
  ghost atom cutoff = 3.8
  binsize = 1.9, bins = 8 8 8
  4 neighbor lists, perpetual/occasional/extra = 1 3 0
  (1) pair lj/cut, perpetual
      attributes: half, newton on
      pair build: half/bin/atomonly/newton
      stencil: half/bin/3d
      bin: standard
  (2) compute orientorder/atom, occasional
      attributes: full, newton on
      pair build: full/bin/atomonly
      stencil: full/bin/3d
      bin: standard
  (3) compute coord/atom, occasional
      attributes: full, newton on
      pair build: full/bin/atomonly
      stencil: full/bin/3d
      bin: standard
  (4) compute cluster/atom, occasional
      attributes: full, newton on
      pair build: full/bin/atomonly
      stencil: full/bin/3d
      bin: standard
Per MPI rank memory allocation (min/avg/max) = 9.811 | 9.819 | 9.824 Mbytes
Step Temp PotEng c_msd[4] v_twopoint v_fit v_max_n 
   12000    1.2372203   -6.9431929 1.5266431e-30 1.0601688e-32 8.3333333e+20            2 
   13000    1.2503162   -6.9296457   0.49862592 0.0031963198  0.039931755            2 
   14000    1.2629148   -6.9378296   0.98726345  0.005876568  0.040766463            1 
   15000    1.2648273    -6.929876     1.430465 0.0079470275   0.03965326            1 
   16000    1.2736354   -6.9647896    1.9104631 0.0099503284  0.038869567            2 
   17000    1.2234043   -6.9227097    2.3113868  0.011330327  0.038523112            1 
   18000    1.2334419   -6.9405366     2.752506  0.012743083  0.037903439            1 
   19000    1.2590151   -6.9237393    3.2978824  0.014464396  0.038021799            2 
   20000     1.238104    -6.964133    3.7514686  0.015631119  0.038360049            3 
   21000    1.2368599   -6.9466092    4.2205378  0.016748165  0.038465688            1 
   22000     1.238656   -6.9579473    4.7041354  0.017818694   0.03856112            1 
   23000     1.233816   -6.9265845    5.1785831  0.018762982   0.03867857            1 
   24000    1.2526499   -6.9537439    5.7075305  0.019817814  0.038948277            1 
   25000     1.241544   -6.9895274    6.2258997  0.020752998  0.039211207            2 
   26000    1.2288876   -6.9507538    6.7394118  0.021600678  0.039524217            1 
   27000    1.2498763   -6.8936175    7.2387818  0.022341919  0.039775662            1 
   28000    1.2211931   -6.9353861    7.6319286  0.022714073  0.039896492            2 
   29000    1.2441667   -6.9903354    8.0331256  0.023083694  0.039804483            1 
   30000    1.2580988   -6.9908753     8.508603  0.023635008  0.039733996            1 
   31000    1.2587443   -6.9288706    8.9412515  0.024035622  0.039640768            2 
   32000    1.2393307   -6.9691414    9.3614613  0.024378805  0.039516604            2 
   33000    1.2456321   -6.9630687      9.89497  0.024987298  0.039482449            1 
   34000    1.2527161   -6.9496156    10.398115  0.025485575  0.039429339            2 
   35000    1.2541078   -6.9395764    10.941389  0.026050925  0.039460305            2 
   36000    1.2403684   -6.9794331    11.339307  0.026248395  0.039468951            2 
   37000    1.2493732   -6.9988091    11.779297  0.026529947  0.039443229            2 
   38000    1.2068495   -6.9786026     12.39065  0.027172477  0.039494963            2 
   39000    1.2415625   -6.9702229    12.827475  0.027409134  0.039554187            1 
   40000    1.2367089   -6.9740856    13.276759  0.027659915  0.039562485            2 
   41000    1.2382985   -6.9641902    13.784698  0.028017679  0.039567536            1 
   42000    1.2418133   -6.9368749    14.275394  0.028324194  0.039569153            1 
   43000    1.2414715   -6.9445836    14.733836  0.028553946  0.039580155            1 
   44000    1.2708835   -6.9111502     15.18768  0.028764544   0.03957085            1 
   45000    1.2295727   -6.9902096    15.615679  0.028917924  0.039523636            1 
   46000    1.2631203   -6.9484017    16.068072  0.029108826  0.039500385            2 
   47000    1.2229107   -7.0229656    16.468378  0.029199252  0.039470729            4 
   48000    1.2430042   -6.9568111    17.000041   0.02951396  0.039437354            1 
   49000    1.2345146   -6.9728132    17.653104  0.030022286  0.039444878            1 
   50000    1.2163946   -6.9599871    18.086284  0.030143806  0.039493039            2 
   51000    1.2226379   -6.9722698    18.435212  0.030122895  0.039495025            2 
   52000    1.2212224   -6.9943813    18.794523  0.030119427  0.039446687            2 
   53000    1.2537674   -6.9403758    19.108948  0.030045515  0.039389826            1 
   54000    1.2100755   -6.9659106    19.465338  0.030039101  0.039295848            6 
   55000    1.2406921   -6.9543321    19.923777   0.03018754  0.039196256            1 
   56000    1.2193122   -6.9505718    20.272816  0.030167881  0.039091653            1 
   57000    1.2170174   -6.9570075    20.731069  0.030308579  0.038974674            2 
   58000    1.2346615   -6.9911308    21.223753  0.030493897  0.038883169            2 
   59000    1.2308832   -6.9954977    21.694357  0.030641747  0.038804355            3 
   60000    1.2332072    -6.989678    22.156346  0.030772702  0.038737192            1 
   61000    1.2459769    -6.943685    22.603472   0.03087906  0.038676839            1 
   62000    1.2532387   -6.9068452    23.055228   0.03098821  0.038616019            2 
   63000    1.2115525   -7.0022031    23.580892  0.031191655  0.038578343            1 
   64000    1.2361714    -7.015473    23.817548  0.031012432  0.038524063            1 
   65000     1.238903   -6.9823763    24.220708   0.03105219  0.038452313            1 
   66000    1.2069004   -7.0016883    24.584085  0.031040511  0.038382061            1 
   67000    1.2095666   -6.9619268    25.086108  0.031201627    0.0383134            1 
   68000    1.2358454   -6.9990482    25.571398  0.031337498  0.038236546            1 
   69000    1.2283581   -7.0061574     25.94226  0.031331232  0.038170982            2 
   70000    1.2197802   -6.9794236    26.283158  0.031289473  0.038100636            1 
   71000    1.2207681   -6.9794065    26.767302  0.031417021  0.038040688            4 
   72000    1.2248784   -7.0046771    27.301231  0.031598647  0.037980612            1 
   73000     1.243789   -6.9847252    27.841625  0.031782676  0.037932796            2 
   74000    1.2032769   -7.0046138    28.168684  0.031721491  0.037895384            1 
   75000     1.206941   -6.9701247    28.539966  0.031711073  0.037853275            1 
   76000    1.2129145   -6.9975034    29.028082  0.031829037  0.037814103            1 
   77000    1.2003871   -7.0353549    29.406851  0.031825596  0.037773022            1 
   78000    1.2338872   -7.0129109    29.981063   0.03203105  0.037739539            3 
   79000    1.2222954   -6.9494521    30.445406  0.032115407  0.037709634            2 
   80000    1.2008126   -6.9940101    30.837208  0.032122091   0.03768731            2 
   81000    1.1905589   -7.0213982    31.204902  0.032103808  0.037648448            2 
   82000     1.212832   -7.0038034    31.513615  0.032026031  0.037603136            2 
   83000    1.2080046   -7.0116228    31.872803  0.032000806  0.037552152            1 
   84000    1.2031917   -6.9697994    32.285744  0.032029507  0.037498291            1 
   85000    1.2320216   -6.9894748    32.623634  0.031983955  0.037444119            2 
   86000    1.2093285   -6.9904061    32.933664  0.031912465  0.037385788            2 
   87000    1.2159197   -6.9657166    33.267332  0.031865261  0.037329187            3 
   88000     1.201528   -6.9907139    33.688953  0.031902417  0.037267539       -1e+20 
   89000    1.2245789   -7.0124146      33.9971  0.031832491  0.037192517            1 
   90000    1.2146569   -7.0002782    34.383602  0.031836669  0.037119577            2 
   91000    1.2336599   -6.9951434    34.983466  0.032036141  0.037053381            4 
   92000    1.2112205   -6.9727515    35.499557  0.032155396  0.036999506            2 
   93000    1.1872129    -6.975327    35.853702  0.032126973  0.036946805            1 
   94000    1.2005084   -7.0098904    36.157055  0.032054127  0.036893901            1 
   95000    1.2137882   -7.0188906    36.708141  0.032200124  0.036843377            1 
   96000    1.1860889   -6.9993551    37.271907  0.032354086  0.036807006            1 
   97000    1.2287952   -6.9866853    37.841604  0.032509969  0.036778354            1 
   98000    1.2399496   -6.9996387    38.109077  0.032405677  0.036743296            2 
   99000    1.2100047   -7.0465705    38.369111  0.032297232  0.036704591            1 
  100000    1.2204745   -6.9707274    38.647305  0.032206088  0.036662391            2 
  101000    1.2020364     -6.96776    39.241528  0.032377498  0.036616154            1 
  102000    1.2145028   -7.0265462     39.54698  0.032309624  0.036566164            1 
  103000    1.2117746   -7.0394306    39.878901  0.032264483  0.036524215            2 
  104000     1.221105   -7.0040281    40.366872  0.032345249  0.036487194            2 
  105000    1.2096874   -7.0318962    40.757324  0.032347083  0.036449723            1 
  106000    1.1942746   -7.0352255    41.104499  0.032314858  0.036412395            1 
  107000    1.2083317     -7.04595    41.331531  0.032189666  0.036368676            3 
  108000    1.2012674   -6.9786185    41.942285  0.032362874   0.03632529            1 
  109000    1.1915365   -7.0282105    42.539903  0.032522862  0.036288351            1 
  110000    1.2096892   -6.9695936    43.010036   0.03258336  0.036264156            2 
  111000    1.1852091   -7.0360773    43.462111  0.032629212   0.03624216            4 
  112000    1.2045838   -7.0435731    43.893566  0.032658903   0.03622348            2 
  113000    1.1832788   -6.9991412    44.727142  0.032984618  0.036209038            1 
  114000    1.2043972   -7.0581769    45.216489  0.033052989  0.036203224            2 
  115000    1.2007326    -7.006039    45.753131  0.033154443  0.036205122            1 
  116000     1.210201   -7.0781282    45.891254  0.032967855   0.03620509            2 
  117000    1.1861918   -6.9290498    46.889079   0.03339678   0.03620615            1 
  118000    1.1962187   -7.0054651    46.917734  0.033133993  0.036207723            1 
  119000    1.2257108   -7.0530724    47.317403  0.033135436   0.03620772            2 
  120000    1.1986391   -7.0294298     47.95254  0.033300375  0.036209378            3 
  121000    1.2055223   -7.0580131    48.498282  0.033401021  0.036216324            3 
  122000    1.2065581   -7.0290948     48.75377  0.033301755  0.036224181            1 
  123000    1.1920193   -7.0549561    49.022638  0.033213169  0.036225314            3 
  124000     1.202494    -7.013134    49.688397   0.03339274   0.03622396            1 
  125000    1.2203577   -7.0335389     49.94708  0.033298053  0.036224818            1 
  126000       1.1873    -7.014892    50.797534  0.033596253  0.036230159            2 
  127000    1.2056219   -7.0200224    50.938943  0.033424503  0.036237281            1 
  128000    1.2041427   -7.0280808    51.285594  0.033389058  0.036234986            1 
  129000     1.224274   -7.0293081    51.744441  0.033426642  0.036229791       -1e+20 
  130000    1.1948777   -7.0190836    52.051339  0.033366243  0.036229827            2 
  131000    1.1901762   -7.0694812    52.564579  0.033438027  0.036228447            2 
  132000    1.2207161   -7.0150469    52.935785  0.033419056  0.036222314            1 
  133000    1.1806765   -6.9990348    53.414018   0.03346743  0.036219781            1 
  134000    1.1967897   -7.0477134    53.695122  0.033392489  0.036216724            2 
  135000    1.1653652   -7.0405662    54.156069  0.033429672  0.036210423            2 
  136000    1.1870968   -7.0140726    54.505676  0.033398086    0.0362078            2 
  137000     1.183893   -7.0790826    54.684875  0.033263306  0.036200289            3 
  138000    1.1889114   -7.0976676    54.883504  0.033142212  0.036183994            1 
  139000    1.1955061    -7.024261    55.521295  0.033286148  0.036166632            1 
  140000    1.1921794   -7.0225307    55.895132  0.033270911  0.036150834            1 
  141000    1.2014192   -7.0744411    56.226371  0.033230716  0.036134411            1 
  142000    1.1883575   -7.0191665    56.892607   0.03338768  0.036122316            1 
  143000    1.1958167   -7.0563452     57.37195  0.033433537  0.036111691            2 
  144000    1.1822585   -7.0391708    57.585942  0.033325198  0.036099022            1 
  145000    1.1992707   -7.0334044    58.197949  0.033447097  0.036086863            1 
  146000    1.1889332   -7.0126135    58.442219  0.033357431  0.036075461            1 
  147000    1.1893649   -7.0670539     58.88478  0.033381394  0.036063391            3 
  148000    1.2014912   -7.0622979    59.358038  0.033422319  0.036047915            3 
  149000    1.1887408   -7.0290435    59.441646  0.033244768  0.036031264            1 
  150000    1.1673828   -7.0288903    59.614882  0.033119379  0.036004234            2 
  151000    1.1760581   -7.0542119    59.682428  0.032937322  0.035972075            3 
  152000    1.2154398    -7.043798    60.280988  0.033048787   0.03594368            2 
  153000    1.1895783   -7.0437059    60.327851  0.032858307  0.035909266            1 
  154000    1.1726987   -7.0349605    60.893403  0.032950976  0.035876828            1 
  155000    1.1989835   -7.0852358    61.332975  0.032974718  0.035844559            2 
  156000    1.1970991   -7.0847929    61.815595  0.033021151  0.035816427            1 
  157000     1.194743   -7.0382382     62.66772  0.033263121  0.035792674            1 
  158000    1.2081497   -7.0250275    62.906431  0.033178497  0.035769694            2 
  159000    1.1949446   -7.0729264     63.14044  0.033092474  0.035748164            2 
  160000    1.1909814   -7.0511084    63.647923   0.03314996   0.03572523            1 
  161000    1.1903859   -7.0479678    64.055366  0.033154951  0.035702694            2 
  162000    1.1758611    -7.032558    64.527619   0.03319322  0.035680604            1 
  163000    1.2086343   -7.0779668    64.662033  0.033058299  0.035656236            2 
  164000    1.2092085   -7.0321907    65.295889  0.033178805  0.035632588            1 
  165000    1.1966016   -7.0659015    65.312079  0.032985898  0.035607604            2 
  166000    1.1669075   -7.0668058     65.80033  0.033032294  0.035580342            6 
  167000    1.1885063   -7.0512536    66.191398  0.033029639  0.035555635            3 
  168000    1.1921435   -7.0787696    66.460769  0.032966651  0.035527903            2 
  169000    1.2105891   -7.0189141     66.72682  0.032902771  0.035498427            1 
  170000    1.1765871   -7.0841081    66.811446  0.032750709  0.035468757            2 
  171000    1.1858251      -7.0955    67.138645  0.032718638  0.035439211            1 
  172000    1.1919779   -7.0501196    67.806773  0.032852119  0.035406595            2 
  173000    1.1667795   -7.0963637    67.991294  0.032751105  0.035373546            1 
  174000    1.1834875   -7.0360507    68.328665  0.032724456  0.035338716            2 
  175000    1.1828605   -7.0737509    68.802076  0.032762893  0.035305173            3 
  176000    1.1829913   -7.0956874    68.949696  0.032646636  0.035271848            1 
  177000    1.1975885   -7.0470098    69.393289   0.03267104  0.035238111            2 
  178000    1.1893644   -7.0729149    69.998038  0.032770617  0.035205613            2 
  179000    1.1650163   -7.0665079    70.399229  0.032774315  0.035177544            2 
  180000    1.2161947   -7.0981969    70.738729  0.032749411  0.035151343            1 
  181000    1.2094321   -7.1260265    71.066276   0.03271928  0.035123874            2 
  182000    1.1601524   -7.0907656    71.724761  0.032841008  0.035098123            1 
  183000    1.1854281   -7.0563963    72.146051  0.032853393  0.035073352            3 
  184000    1.1722142   -7.1065982    72.395049  0.032787612  0.035052358            2 
  185000    1.1685871   -7.0350036    73.532998  0.033122972  0.035033061            2 
  186000    1.1823024   -7.0718232    73.543898  0.032949775  0.035014455            1 
  187000    1.1827886   -7.0851296    73.904101  0.032934091  0.034995948            2 
  188000     1.185292   -7.0968898    74.375114  0.032967692  0.034977924            2 
  189000    1.1608419   -7.0820674    74.603863  0.032894119  0.034956662            1 
  190000    1.1937564   -7.1075528    74.746367  0.032783494  0.034934757            1 
  191000    1.1873859   -7.0552776    75.709321   0.03303199  0.034915393            1 
  192000    1.2121203   -7.0834022    76.060095  0.033012194  0.034897566            1 
  193000    1.1887331   -7.0957661    76.319646  0.032953215  0.034880415            2 
  194000    1.1821875   -7.0697521    76.554305  0.032884152  0.034860523            2 
  195000    1.1955074   -7.1174154    77.029819  0.032918726  0.034842738            1 
  196000    1.1793574   -7.0996601    77.367274  0.032894249  0.034825843            2 
  197000    1.1804841   -7.1122488    77.721868  0.032877271  0.034808367       -1e+20 
  198000    1.1897603   -7.1264261    77.970537  0.032815882  0.034788979            1 
  199000    1.1568601   -7.0830714    78.538829  0.032888957  0.034771606            1 
  200000       1.1855   -7.0990255    78.854547  0.032856061  0.034755392            1 
  201000    1.1581629   -7.1229747    79.341833  0.032894624  0.034738326            1 
  202000    1.1719282   -7.0665933     79.58484  0.032832029  0.034719614            2 
  203000    1.1568518   -7.1154543    79.963533  0.032825752  0.034701411            3 
  204000    1.1677041   -7.1061366    80.438443  0.032858841  0.034682255            1 
  205000    1.1575772   -7.0982772    80.898419  0.032885536  0.034663181            2 
  206000     1.170039   -7.0789356    81.095111  0.032805465  0.034644157            3 
  207000    1.1411129   -7.1151507      81.5506  0.032830354  0.034623504            1 
  208000    1.1788218   -7.1241194     81.76818  0.032759688  0.034604868            1 
  209000    1.1820236   -7.1017648    82.558655  0.032918124  0.034588259            1 
  210000    1.1720679   -7.1377284     82.97175  0.032925297  0.034575642            1 
  211000    1.2098934   -7.0780693    83.601214  0.033017857  0.034562571            3 
  212000    1.1515367   -7.1369369    83.578114  0.032853032  0.034548349            1 
  213000    1.1643521     -7.10412      84.4181  0.033027426  0.034536262            1 
  214000    1.1580372   -7.1327905    84.528193  0.032915963  0.034522764            1 
  215000    1.1591227   -7.0747751    85.136686  0.032998715  0.034509278            1 
  216000    1.1548502   -7.1101563    84.946481  0.032772562  0.034494354            5 
  217000    1.1588555   -7.0889509    85.767277  0.032936742  0.034477966            1 
  218000    1.1659242   -7.0955018    85.624011  0.032730891  0.034462419            1 
  219000    1.1689807   -7.1230084     86.00435  0.032726161  0.034445158            2 
  220000    1.1934129   -7.1227601     86.24478  0.032668477  0.034428633            2 
  221000    1.1741221   -7.0969339    87.129424  0.032854232  0.034413071            1 
  222000    1.1713284   -7.1065186    87.454857    0.0328284  0.034398584            2 
  223000    1.1507908   -7.1194003    87.644548  0.032752073  0.034382776            1 
  224000    1.1749084   -7.1593847     87.78443  0.032657898  0.034365168            2 
  225000    1.1898769   -7.1408797    88.191788  0.032663625  0.034348137            1 
  226000     1.156652   -7.0944746    88.844819  0.032759889  0.034331391            2 
  227000    1.1708575   -7.1246044    88.958072  0.032657148  0.034312705            1 
  228000    1.1690096   -7.1287295    89.367253   0.03266347  0.034293417            1 
  229000    1.1623509   -7.1467721    89.599871  0.032605484  0.034274978            1 
  230000    1.1652902   -7.1470253    90.290108  0.032713807  0.034257967            1 
  231000    1.1602301   -7.1348739    90.602105  0.032684742    0.0342397            3 
  232000     1.159998   -7.0744883    90.945656  0.032667261  0.034223071            1 
  233000    1.1527256   -7.1033611    91.224533    0.0326268  0.034205973            1 
  234000    1.1519201   -7.1316069    91.609798  0.032624572  0.034187716            1 
  235000    1.1552505   -7.1446933    91.951037  0.032606751  0.034171569            1 
  236000    1.1383348   -7.1614351    92.568206  0.032686513  0.034156215            1 
  237000    1.1542875   -7.1560176    92.898645  0.032664784  0.034141728            1 
  238000    1.1592693   -7.1395991    92.987176  0.032558535  0.034126594            3 
  239000    1.1451984   -7.1121437    93.727201  0.032680335  0.034112231            1 
  240000    1.1735639   -7.1568481    93.700236  0.032534804  0.034097732            1 
  241000    1.1868484   -7.1317863    94.178749  0.032565266  0.034079394            1 
  242000       1.1776   -7.0941611    94.496553  0.032540135  0.034061429            2 
  243000    1.1600284   -7.1483527    94.608824  0.032444727   0.03404228            3 
  244000    1.1616772   -7.1253553    95.112039   0.03248362  0.034022815            1 
  245000    1.1510305    -7.144958      94.8614  0.032265782  0.034000374            1 
  246000    1.1578987   -7.1571288    95.091129  0.032212442  0.033975477            1 
  247000    1.1450044   -7.1364548    95.622406  0.032261271  0.033950807            1 
  248000    1.1240309    -7.197255    95.666101  0.032145867  0.033927173            1 
  249000    1.1614258   -7.1425677    96.126821  0.032170958    0.0339037            1 
  250000    1.1587381   -7.1287355    96.830281   0.03227676  0.033881315            3 
  251000    1.1500086   -7.1390699    97.453644  0.032355128  0.033860744            2 
  252000     1.135236   -7.1534762    98.022554  0.032414866  0.033842637            1 
  253000     1.191197   -7.1707659     97.89242   0.03224388  0.033824885            2 
  254000    1.1504097   -7.1300065    98.710887  0.032385461  0.033807517            2 
  255000    1.1699109   -7.1419267    99.369658  0.032473744  0.033790547            4 
  256000     1.174498   -7.1649435    99.516314  0.032394633  0.033774688            3 
  257000    1.1453322   -7.1461999    99.900208  0.032393063  0.033758327            2 
  258000    1.1549398   -7.1377323    100.31258  0.032400705  0.033742603            2 
  259000    1.1179736   -7.1825584    100.14233  0.032220827  0.033725439            1 
  260000     1.151257    -7.155116    101.08519  0.032399099  0.033707376            1 
  261000    1.1390449   -7.1453532    101.03537  0.032259057  0.033690906            1 
  262000    1.1383004   -7.1384101    101.47393  0.032275423  0.033674514            3 
  263000     1.129901    -7.165561    102.10515  0.032352708   0.03365806            1 
  264000    1.1652385   -7.1589721    102.37997  0.032316909  0.033641677            2 
  265000    1.1222149   -7.1863344    102.61279  0.032268173  0.033624417            1 
  266000    1.1331237   -7.1796407    103.07355  0.032291213  0.033607621            1 
  267000    1.1554442   -7.1765121    103.50134  0.032303788  0.033590758            3 
  268000    1.1472463   -7.1470658     103.9525   0.03232354  0.033574777            3 
  269000    1.1339095   -7.1569469    104.14364   0.03226259  0.033557506            2 
  270000     1.158998    -7.156327    104.34103  0.032204022  0.033541221            2 
  271000    1.1466223   -7.2101656     104.6477   0.03217949  0.033524177            2 
  272000    1.1452899   -7.1975945    105.04187  0.032181944  0.033505507            1 
  273000    1.1267814   -7.2008347    104.97055  0.032042293  0.033487405            1 
  274000    1.1394718   -7.1646505    105.51887  0.032092113  0.033468109            1 
  275000    1.1339789   -7.1813405    105.97676  0.032114168  0.033448739            1 
  276000    1.1546896   -7.1841926    105.83935  0.031956327  0.033428608            1 
  277000    1.1580744   -7.1758539    106.05007  0.031904353  0.033407953            1 
  278000    1.1418445    -7.164169    106.52417  0.031931704  0.033386503            1 
  279000    1.1512774   -7.1570425    106.65779  0.031857166  0.033365026            1 
  280000     1.139303   -7.1708265    107.45879  0.031981784  0.033343139            1 
  281000      1.14875   -7.1826408    107.93838  0.032010197  0.033323183            2 
  282000    1.1287447   -7.1539374    107.91317  0.031889236  0.033301792            1 
  283000    1.1464929   -7.1722834    107.92637  0.031780439  0.033280148            1 
  284000    1.1334997   -7.1663878    108.52631  0.031844574  0.033258427            1 
  285000    1.1610726   -7.2212591    108.87169  0.031833828  0.033237182            3 
  286000    1.1389018   -7.1960889    109.21532  0.031822645  0.033214916            3 
  287000    1.1284513   -7.1937884    109.26867  0.031727256  0.033191855            1 
  288000    1.1400588   -7.1858247    109.71086   0.03174504  0.033168951            2 
  289000    1.1571895   -7.1862732     109.9115  0.031693051  0.033146295            1 
  290000    1.1395221   -7.1660888    110.21291  0.031670377  0.033123698            1 
  291000    1.1375256   -7.1885126    110.91095  0.031761441  0.033102184            1 
  292000    1.1421852   -7.1583172    111.07656  0.031699932  0.033080063            1 
  293000    1.1326316   -7.1955305    111.65318  0.031755738  0.033058444            2 
  294000    1.1319016   -7.1483661     112.1595  0.031791241    0.0330374            2 
  295000    1.1154841   -7.1888668    112.20596  0.031696599  0.033016816            2 
  296000    1.1393687   -7.1870289    112.67024  0.031720225   0.03299665            1 
  297000     1.137098   -7.1633602    112.84266  0.031661801  0.032976494            2 
  298000    1.1192791   -7.1918462    113.33868  0.031694262  0.032956063            2 
  299000    1.1111543   -7.1709924    113.81382  0.031720687  0.032935539            1 
  300000    1.1148481    -7.205867    113.50925  0.031530348  0.032916537            1 
  301000    1.1436755   -7.2410596    114.06422   0.03157924   0.03289643            1 
  302000    1.1432321    -7.224567     114.6439   0.03163463  0.032876485            1 
  303000    1.1147844   -7.1938474    114.96901  0.031619641  0.032856881            2 
  304000    1.1528797   -7.2040316    114.92988  0.031504901  0.032836258            2 
  305000    1.1317464    -7.200661    115.78007    0.0316339  0.032815922            1 
  306000    1.1342539   -7.1968644     116.5719   0.03174616  0.032797465            1 
  307000    1.1239562   -7.1618757    116.56631  0.031641234  0.032779524            1 
  308000    1.1371032   -7.1780994    117.07617  0.031676452  0.032761359            1 
  309000    1.1360841    -7.239182    116.90988  0.031529094  0.032742495            3 
  310000    1.1224774   -7.1779694    117.26939  0.031524029  0.032723257            1 
  311000    1.1428486   -7.1883685    117.76057   0.03155428  0.032703165            1 
  312000     1.122464    -7.164691    118.28292  0.031592659  0.032683464            1 
  313000    1.1391157   -7.1883019    118.21524  0.031473706  0.032663667            1 
  314000    1.1429876   -7.2159804    118.36905  0.031414292   0.03264328            2 
  315000    1.1219011   -7.2180158     118.4368  0.031332486  0.032622429            1 
  316000    1.1366682   -7.2244814    119.02835  0.031389334  0.032601278            2 
  317000     1.120443   -7.2081787    119.28717  0.031358352  0.032580929            2 
  318000    1.1192488   -7.2235426     120.2056  0.031500419  0.032561014            2 
  319000    1.1378679   -7.2169962     120.1579  0.031389211  0.032541425            1 
  320000    1.1033812   -7.1875624    120.75079  0.031445517  0.032522443            3 
  321000    1.1208564   -7.2375605    120.91306  0.031389683  0.032502206            2 
  322000    1.1258881   -7.2296399    120.79937  0.031262776  0.032482316            3 
  323000    1.1195005   -7.1823643    121.25857  0.031284461  0.032462002            1 
  324000    1.1501402   -7.2302741     121.5592  0.031265227  0.032441892            3 
  325000    1.1060483   -7.1699298    122.23273  0.031341726  0.032422078            1 
  326000    1.1186367   -7.2233979      122.345  0.031274284  0.032401596            1 
  327000    1.1236678   -7.2047506    122.25777  0.031156415  0.032380174            1 
  328000    1.0969303   -7.1971901    122.78434  0.031195209  0.032358901            1 
  329000    1.1185357   -7.2401372    122.56291  0.031044304  0.032337429            4 
  330000    1.1238363   -7.1850805    123.47537  0.031180649   0.03231528            1 
  331000    1.1113646   -7.2121476    123.41336  0.031070835  0.032293723            2 
  332000    1.1038556   -7.2159378    123.66845  0.031041277  0.032271625            1 
  333000    1.1353165   -7.2281095    124.26938  0.031098443  0.032249002            2 
  334000    1.1277727   -7.2164828    123.93347  0.030921524  0.032225811            4 
  335000     1.105204   -7.1820003     124.6709  0.031012662  0.032203339            1 
  336000    1.1310468   -7.2069132    125.05198  0.031014877  0.032181101            1 
  337000    1.1348815   -7.1912458    125.17152  0.030952404  0.032157995            1 
  338000    1.1136103   -7.2059586    125.43108  0.030924822  0.032135437            1 
  339000    1.0978456   -7.2061675    125.70108   0.03089997  0.032113559            2 
  340000    1.1308267    -7.195575    126.13139  0.030914557   0.03209037            1 
  341000    1.1268377   -7.2351167    125.90172  0.030767772  0.032067512            2 
  342000    1.1196233   -7.2674703    125.97586  0.030695872  0.032044586            2 
  343000    1.1234703   -7.2320359    126.44558  0.030720501  0.032020721            2 
  344000    1.1223455   -7.2509593    126.73354  0.030700954  0.031996849            1 
  345000    1.1131605   -7.2135451    127.36714  0.030765009  0.031972437            2 
  346000    1.1150871   -7.2448353    127.78366  0.030776411  0.031948129            3 
  347000    1.1242754   -7.2612851    127.98173  0.030735287  0.031924997            1 
  348000    1.1528025   -7.2231462       128.62  0.030799808  0.031902314            2 
  349000    1.1011382   -7.2127573    128.66353   0.03072195  0.031880677            1 
  350000    1.1258864    -7.242338     128.9618   0.03070519  0.031858428            1 
  351000    1.1389894   -7.1841868    129.50987  0.030747831  0.031836035            1 
  352000     1.103281   -7.2306801    129.87394   0.03074667  0.031814143            3 
  353000     1.113453   -7.2436697    129.71553  0.030622175   0.03179112            2 
  354000    1.1173043   -7.2386096    129.75938  0.030545993  0.031768418            1 
  355000    1.1366399   -7.2261528    130.16591  0.030555379  0.031744745            2 
  356000    1.1144229   -7.2309903    130.43189  0.030531809  0.031721207            1 
  357000    1.1085002   -7.2198419    130.44833  0.030450124  0.031696869            3 
  358000    1.1340869   -7.2430327    130.49299  0.030375464  0.031672759            2 
  359000    1.1217628   -7.2405918     131.0727  0.030425418   0.03164841            2 
  360000    1.1090083   -7.1908863    131.18772  0.030367527  0.031623489            2 
  361000    1.1172132   -7.2595244    131.26989  0.030302376  0.031598521       -1e+20 
  362000    1.1088785   -7.2322189    131.96556  0.030378811  0.031573823            2 
  363000    1.1027211   -7.2339029    132.41788  0.030398963  0.031549082            1 
  364000    1.1292415   -7.2309127    132.45507  0.030323964  0.031524244            1 
  365000    1.1074494   -7.2202721     133.0219  0.030370296  0.031500025            1 
  366000    1.1196899   -7.2400406    132.93953  0.030268563  0.031475999            3 
  367000    1.0886534   -7.2581669    133.22107  0.030250015   0.03145191            2 
  368000    1.0953601   -7.1891417    133.77809  0.030293951  0.031427592            1 
  369000    1.0989408   -7.2371026    134.15126   0.03029613  0.031403928            2 
  370000    1.0821401   -7.2320135    134.36689  0.030262812   0.03138041            1 
  371000    1.1205648   -7.2363781    134.72684  0.030262094  0.031356735            2 
  372000    1.0899904   -7.2562087    135.01584  0.030245483   0.03133326            2 
  373000    1.1011804   -7.2984888    134.76681   0.03010876  0.031309346            2 
  374000    1.1008258   -7.2495865    135.14454  0.030112419  0.031285215            3 
  375000    1.1076266   -7.2466919    135.60301  0.030134002   0.03126135            1 
  376000     1.102572   -7.2845218    135.86402  0.030111706  0.031237507            1 
  377000    1.1183603   -7.2569685     136.6031  0.030195202  0.031214168            1 
  378000    1.1253485   -7.2478601    136.53315  0.030099901  0.031191676            1 
  379000      1.12908   -7.2376627    136.95088  0.030112332  0.031169406            1 
  380000    1.1185558   -7.2608965    137.23874  0.030096214  0.031147336            1 
  381000    1.1140987   -7.2576083    137.71252  0.030120849  0.031125036            1 
  382000     1.090988   -7.2519526     138.2345  0.030155869  0.031102989            2 
  383000    1.1234423   -7.2629557    138.17797  0.030064833  0.031080904            1 
  384000    1.0787523   -7.2275274    138.72265  0.030104742  0.031059502            1 
  385000    1.0852427   -7.2343818    138.71665   0.03002525  0.031037251            1 
  386000    1.1137854   -7.2735641    138.72954  0.029950245   0.03101422            1 
  387000    1.0974737   -7.2764005    139.27417  0.029990132  0.030990094            1 
  388000    1.0960861    -7.250432    139.33584  0.029926083  0.030967259            1 
  389000    1.0950223   -7.2422426    140.03708  0.029999375  0.030943927            2 
  390000    1.0882801   -7.2315485    140.29029  0.029976557  0.030921828            1 
  391000    1.0855395   -7.2965069    140.25279  0.029891899  0.030899549            1 
  392000    1.1050162   -7.2338601     140.8309  0.029938542  0.030877018            3 
  393000    1.1062417   -7.2170125    140.83135  0.029862457  0.030854481            1 
  394000    1.0727369   -7.2486758    140.97805  0.029817692  0.030831857            2 
  395000    1.0844315   -7.2839577    141.14323  0.029777053  0.030809585            1 
  396000    1.1151128   -7.2650324    142.28022  0.029941124  0.030787281            1 
  397000    1.0955375   -7.2678252    142.27541  0.029864696  0.030765479            1 
  398000    1.0833793   -7.2584545    142.13486  0.029760231  0.030743756       -1e+20 
  399000     1.066176   -7.2610031    142.93516  0.029852789  0.030722766            1 
  400000    1.0713304   -7.2712402    143.36174  0.029867029  0.030702224            1 
  401000    1.0936055   -7.2748635    143.15876  0.029750366  0.030681188            2 
  402000    1.1031245   -7.2920379    143.34588  0.029715148  0.030659456            3 
  403000    1.0904751   -7.2442116    143.96579  0.029769601  0.030638116            4 
  404000    1.0938497   -7.2512571    144.15472  0.029734885  0.030617521            1 
  405000    1.0852109   -7.2907957    143.85932  0.029600684   0.03059662            3 
  406000    1.0896403   -7.2830974    144.77214  0.029715135  0.030575214            1 
  407000    1.0951334   -7.2565505    144.74782  0.029637145  0.030553865            1 
  408000    1.0942432    -7.317822    144.93987  0.029603731  0.030532666            2 
  409000    1.0704529   -7.2800355    145.82483   0.02971166   0.03051163            2 
  410000    1.0927498   -7.2912953    146.03072   0.02968104  0.030490798            1 
  411000     1.104064   -7.3003206    146.03756  0.029610211  0.030470789            1 
  412000    1.0946817   -7.2937412    147.04008  0.029741117  0.030450763            3 
  413000    1.1159194    -7.260226    147.30597  0.029722754  0.030431319            1 
  414000    1.0697979   -7.3057052    147.30132  0.029650024  0.030411323            2 
  415000    1.0872756   -7.2650457     148.0753  0.029733995  0.030391439            2 
  416000    1.1014687   -7.2888562     147.9571  0.029638843  0.030371469            2 
  417000    1.0761917    -7.277593    148.17566  0.029611443  0.030351112            3 
  418000    1.0929011   -7.2987745    148.39156  0.029583645  0.030331252            2 
  419000    1.0709965   -7.2802797    148.88024  0.029610232  0.030311107            1 
  420000    1.0714743   -7.3446385    148.19539  0.029403847  0.030291148            1 
  421000    1.0961474   -7.3170518    148.84297  0.029462187  0.030271014            1 
  422000    1.0979705   -7.2885613    149.68443  0.029558537  0.030251527            3 
  423000    1.1014265   -7.3057387    149.81253  0.029513895  0.030231954       -1e+20 
  424000    1.0602288    -7.263526    149.89598  0.029460688   0.03021189            1 
  425000    1.0741651   -7.3141073     150.3898  0.029488195   0.03019283            2 
  426000    1.0737761   -7.2821903    151.66956  0.029669319  0.030174222            3 
  427000    1.0993791   -7.2852357    150.99496  0.029468181  0.030155822            5 
  428000    1.0775395   -7.2923102    151.26985  0.029452853  0.030136732            1 
  429000    1.1039567   -7.2942464    151.53903  0.029436486  0.030117724            1 
  430000    1.0825214   -7.3088441    151.96979   0.02945151  0.030098535            3 
  431000    1.0900819   -7.3195061    152.06986  0.029402525  0.030079915            2 
  432000    1.0845023    -7.331491    152.11578  0.029343321  0.030060672            2 
  433000    1.1074514   -7.3299256    153.15935  0.029476396  0.030041389            2 
  434000    1.0944447   -7.3085335    153.27147  0.029430005  0.030023141            1 
  435000     1.079161   -7.2659452    153.24396  0.029357081   0.03000505            2 
  436000    1.0846763   -7.3055281    153.58036  0.029354044  0.029987583            1 
  437000    1.0712586   -7.3042938    154.82225  0.029523694  0.029970912            4 
  438000    1.0774278   -7.3302556    154.44877  0.029385231   0.02995442            2 
  439000     1.087118   -7.2814399    155.30529  0.029480883  0.029937333            1 
  440000    1.0915097   -7.2968115    155.60664  0.029470954  0.029920832            2 
  441000    1.0709676    -7.302565    155.44607  0.029373785  0.029904893            2 
  442000    1.0805329   -7.2641479    155.77884  0.029370068  0.029888294            1 
  443000    1.0565781   -7.3228738    155.46367  0.029244482  0.029871167            1 
  444000     1.080262   -7.2956883    155.92932  0.029266013  0.029853912            2 
  445000    1.0777366    -7.295505    156.64046   0.02933342  0.029836111            2 
  446000    1.0567971   -7.2759832    156.78273  0.029294231  0.029818255            3 
  447000    1.0644881   -7.3253249    156.88317  0.029247421  0.029800774            1 
  448000    1.0800965   -7.3726389    157.11912  0.029226026  0.029782899            4 
  449000    1.0659123   -7.3155568    158.04434  0.029332654  0.029765801            3 
  450000    1.1082145   -7.3261358    157.75309  0.029213536  0.029749135            2 
  451000    1.0931947   -7.3153527    158.40039  0.029268365   0.02973247            1 
  452000    1.0756422   -7.3227538    158.79204  0.029275818  0.029716463            4 
  453000     1.044512   -7.3067389    159.00895  0.029251094  0.029700833            2 
  454000    1.0683894   -7.3427627    158.93522  0.029173131  0.029684555            1 
  455000    1.0840763   -7.3337018    160.07405  0.029317591   0.02966858            3 
  456000    1.0632433   -7.3293314    159.27214   0.02910675  0.029652436            1 
  457000    1.0725859   -7.3060679    160.38932  0.029246775  0.029636063            2 
  458000    1.0764577   -7.3360745    160.22533  0.029153081  0.029619689            2 
  459000     1.080104   -7.3264787    160.41872  0.029124677  0.029602991            1 
  460000    1.0816795   -7.3470565    161.23843  0.029209861  0.029586416            1 
  461000    1.0759041   -7.3371881    160.78519  0.029064567  0.029569851            1 
  462000    1.0679103   -7.3121374    161.68369  0.029163724   0.02955346            3 
  463000    1.0710801   -7.3134456    161.89458  0.029138694  0.029537523            4 
  464000    1.0844206   -7.2939976    162.12762  0.029117747  0.029521797            2 
  465000    1.0629907   -7.3633114    162.04229  0.029039836  0.029505695            1 
  466000    1.0622572   -7.2980513    163.19797  0.029184186  0.029490021            3 
  467000    1.0494013   -7.3322855    162.85389  0.029060294  0.029474534            1 
  468000    1.0523064   -7.3438278    163.30902  0.029079241  0.029458531            1 
  469000     1.047963   -7.3196843    163.29058  0.029013962  0.029442173            1 
  470000    1.0783465   -7.3387925    163.39706   0.02897111  0.029425855            2 
  471000    1.0748711     -7.32462    163.82493  0.028985303  0.029409416            2 
  472000    1.0411724   -7.3289795    163.90537  0.028938095  0.029392714            1 
  473000    1.0795691   -7.3523116    164.25222  0.028938023  0.029374958            2 
  474000    1.0665398    -7.323983    164.25792  0.028877975  0.029356959            4 
  475000    1.0824587    -7.323986    164.23087  0.028812433  0.029339554            2 
  476000    1.0710067   -7.3341153    164.50716  0.028800274  0.029321468            2 
  477000    1.0804051   -7.3486756     164.7754  0.028786758  0.029303493            1 
  478000     1.046744   -7.3252927    165.18821  0.028798502  0.029286099            1 
  479000    1.0644558   -7.3339494    165.21332  0.028742749  0.029268406            2 
  480000    1.0673326   -7.3699767    165.12447  0.028667443  0.029250299            1 
  481000     1.045628   -7.3461588     165.7694  0.028719578  0.029232039            2 
  482000     1.050836   -7.3245021    165.99242  0.028698552  0.029214572            1 
  483000    1.0594502   -7.3557015    165.97829  0.028636696   0.02919697            2 
  484000    1.0347456   -7.3608597    166.88102  0.028732957  0.029179241            1 
  485000    1.0768609   -7.3532581    167.07771  0.028707511  0.029161598            2 
  486000     1.062587   -7.3604045    166.76552  0.028594911  0.029143931            2 
  487000    1.0466489   -7.3853809    166.96111  0.028569664  0.029125778            4 
  488000    1.0562489   -7.4019477     166.9189   0.02850391  0.029107511            3 
  489000    1.0422645   -7.3324181    168.03134  0.028635197  0.029089053            1 
  490000    1.0829648   -7.3738316    167.59656  0.028502816  0.029071022            1 
  491000    1.0719617   -7.3137392    168.57027  0.028610026  0.029052901            2 
  492000    1.0686035   -7.3736317    168.58958  0.028555146   0.02903513            3 
  493000    1.0360445   -7.3548732    168.60084  0.028499127  0.029017313            2 
  494000    1.0511069   -7.3837578     168.9775  0.028504976  0.028999357            4 
  495000    1.0724707   -7.3030511    169.80913  0.028587396  0.028981679            1 
  496000    1.0601567   -7.3534831    168.79072  0.028358657  0.028964131            1 
  497000    1.0707524   -7.3562063     169.1534  0.028362408  0.028945914            1 
  498000    1.0553446   -7.3448334    169.84376  0.028420978  0.028927665            1 
  499000    1.0438393   -7.3778164    169.40907  0.028291428  0.028908928            1 
  500000    1.0477779     -7.37132    169.51392  0.028252321  0.028890015            2 
  501000    1.0702339   -7.4167861    170.10741  0.028294646  0.028871205            1 
  502000    1.0612099   -7.3536027    170.62019  0.028323405  0.028852336            2 
  503000    1.0582563    -7.327339    170.17879  0.028193968  0.028833989            2 
  504000    1.0494183   -7.3140364    171.02062  0.028277219  0.028815035            1 
  505000    1.0530687   -7.3960407    170.68625  0.028166048   0.02879596            1 
  506000    1.0558527   -7.3578166    171.49604  0.028243748  0.028776915       -1e+20 
  507000    1.0653447   -7.3666554    171.90196  0.028254761  0.028758106            1 
  508000    1.0518222   -7.3527928    171.74174  0.028172858  0.028739316            2 
  509000    1.0759364   -7.3816585    172.27743  0.028205212  0.028721118            1 
  510000    1.0444845   -7.3912406    172.39046  0.028168376  0.028703069            1 
  511000    1.0558615   -7.3886854    172.44481  0.028122116  0.028685168            4 
  512000    1.0421329   -7.3863187    173.62244   0.02825886  0.028667387            1 
  513000    1.0382242   -7.4104914    173.18465   0.02813266  0.028649903            1 
  514000     1.034825    -7.393467    173.68674  0.028159329  0.028632178            2 
  515000    1.0416643   -7.3554564    173.96334  0.028149408   0.02861478            3 
  516000    1.0637714   -7.3160201    174.77466  0.028225881  0.028598055            2 
  517000    1.0334652   -7.3712158    174.28772  0.028092798  0.028580906            1 
  518000     1.054073   -7.3940691    175.45427  0.028226234  0.028563583            1 
  519000    1.0481478   -7.3695325    175.61432  0.028197546  0.028546813            1 
  520000    1.0595071   -7.3941962    175.33144  0.028097987   0.02852974            3 
  521000    1.0565909    -7.397666    175.27615  0.028035213   0.02851284            3 
  522000    1.0323375   -7.3660071    175.91145  0.028082927  0.028495555            2 
  523000     1.041034   -7.3615237    176.50124  0.028123206  0.028478433            4 
  524000     1.045104   -7.3730913    176.53774   0.02807534  0.028461831            3 
  525000    1.0137887   -7.4062726    176.87828  0.028075917  0.028445032            2 
  526000    1.0739697   -7.3577528    177.47503  0.028117083  0.028428283            1 
  527000    1.0483105   -7.3643925    177.25361  0.028028718  0.028411714            2 
  528000     1.052759     -7.41038    177.50378  0.028015116  0.028394811            3 
  529000    1.0411052   -7.4133941    177.39269  0.027944658  0.028377547            2 
  530000    1.0474139   -7.3823489    177.93804   0.02797768  0.028360436            1 
  531000     1.019733   -7.3834516    178.83183  0.028065259  0.028343806            1 
  532000    1.0448158   -7.4321463    178.67304  0.027987632  0.028327289            1 
  533000    1.0776869   -7.3795349    179.03069  0.027991039  0.028310914            1 
  534000    1.0807597   -7.3997198    179.29867  0.027980442  0.028294813            2 
  535000    1.0470018   -7.3558705    179.55127  0.027967487  0.028278839            2 
  536000    1.0321712   -7.3971503    180.20945  0.028017638  0.028263206            2 
  537000    1.0480044    -7.401162    180.59097   0.02802467   0.02824777            1 
  538000    1.0576535   -7.3861818    181.13347   0.02805661  0.028232579            4 
  539000    1.0361679   -7.4314864    181.40653  0.028046773  0.028217799            3 
  540000    1.0352952   -7.3967468    181.13822  0.027953429  0.028203062            2 
  541000    1.0391328   -7.3807445    181.85221  0.028011739  0.028188146            1 
  542000    1.0314038   -7.3174267    182.27843  0.028025589  0.028173764            2 
  543000    1.0420713   -7.3753855    182.32867  0.027981686  0.028159226            1 
  544000      1.03178   -7.3785948    181.85771  0.027858105  0.028144129            1 
  545000    1.0401619   -7.4372112    181.80116  0.027798343  0.028128563            2 
  546000    1.0359121   -7.3722554    182.45009  0.027846473  0.028113043            1 
  547000    1.0297003   -7.4285433    182.56867   0.02781363  0.028097746            2 
  548000     1.049486    -7.392656    183.59723  0.027919287  0.028082555            1 
  549000     1.024688    -7.407965    183.00932  0.027779192  0.028067194            2 
  550000    1.0260041   -7.4084251    183.44276  0.027794357  0.028051655            2 
  551000    1.0133577   -7.4619441    183.03709  0.027682561  0.028035823            3 
  552000    1.0370424   -7.4129984    183.63096  0.027722065   0.02801965            3 
  553000    1.0505834   -7.4057958    183.92108  0.027715653  0.028003751            1 
  554000    1.0429306   -7.4029847    184.19419  0.027706707  0.027988107            1 
  555000    1.0349599   -7.4047367    184.37117  0.027683358  0.027971801            4 
  556000    1.0305861   -7.4166891    184.31814  0.027625621  0.027955351            2 
  557000    1.0223323   -7.4125259    184.96816  0.027673274  0.027939123            1 
  558000    1.0526143   -7.4239854    184.75572  0.027591954  0.027922678            1 
  559000    1.0269983    -7.431009    184.83628  0.027554603  0.027906346            1 
  560000    1.0375834   -7.3991638    186.35466  0.027731348  0.027890144            3 
  561000    1.0506919   -7.4243024     185.9916  0.027627985  0.027874186            3 
  562000    1.0634827    -7.419121    186.13973  0.027600791  0.027858571            2 
  563000    1.0351326    -7.425841    186.07483  0.027542159  0.027842662            2 
  564000    1.0503593   -7.4435243    186.17835  0.027508621  0.027826575            2 
  565000     1.024096   -7.4407912    186.13843  0.027454045  0.027810144            2 
  566000    1.0582923   -7.4259322    186.60022  0.027473531  0.027793632            2 
  567000    1.0398357   -7.4413568    186.85758  0.027462901   0.02777761            1 
  568000    1.0231781   -7.4064559    187.33699  0.027484887  0.027761664            5 
  569000    1.0479765   -7.4208907     187.5716  0.027470943  0.027745442            1 
  570000    1.0208453   -7.4170054    187.07529  0.027350188  0.027729078            2 
  571000    1.0202797    -7.427016    187.72519  0.027397138   0.02771264            2 
  572000    1.0264782   -7.4583637    187.93493  0.027379797  0.027696085            4 
  573000      1.04192   -7.4313905    188.12812  0.027360111  0.027679464            3 
  574000    1.0192787   -7.4436633    188.45614  0.027360067  0.027663436            2 
  575000    1.0157354   -7.4779268    188.64741  0.027340204  0.027647053            2 
  576000    1.0173967   -7.4219782    189.34972  0.027394346  0.027630994            1 
  577000    1.0388298   -7.4027024    188.92347  0.027285307   0.02761522            3 
  578000    1.0199116    -7.459091    188.94421  0.027241092   0.02759894            2 
  579000    1.0209092   -7.4004122    190.49593  0.027417377  0.027583094            2 
  580000    1.0147551   -7.4188716    190.27812   0.02733881  0.027567484            1 
  581000    1.0395779   -7.4339412     190.3904   0.02730786  0.027552027            2 
  582000    1.0345805   -7.4525785    191.05342  0.027355874  0.027536657            3 
  583000    1.0168701   -7.4667207    191.47431  0.027369112  0.027521106            2 
  584000    1.0191897   -7.4230392    191.75568  0.027362397  0.027505394            1 
  585000    1.0152831   -7.4423788    191.44805  0.027271802  0.027489596            2 
  586000    1.0087407   -7.4061436    191.25908  0.027198391  0.027473306            1 
  587000    1.0231442   -7.4168897    191.43407  0.027176899  0.027457179            1 
  588000    1.0246637   -7.4164836    191.92028  0.027199586  0.027440857            2 
  589000    1.0018757   -7.4060013     191.9528  0.027158008  0.027424165            1 
  590000    1.0361865   -7.4586647    191.46657    0.0270433  0.027407529            1 
  591000    1.0497474   -7.4284419    192.23889  0.027106443   0.02739083            1 
  592000   0.99600378   -7.4365803    192.27256  0.027065394   0.02737424            3 
  593000    1.0266781   -7.5058838    192.06134   0.02699007   0.02735751            1 
  594000    1.0175922   -7.4712162    192.72152   0.02703725  0.027340587            1 
  595000    1.0337741    -7.438136    192.94722   0.02702342  0.027323986            4 
  596000    1.0248916    -7.445357    193.68128  0.027080716  0.027307777            2 
  597000    1.0452976   -7.4469777    193.80826  0.027053079  0.027291451            5 
  598000    1.0016225   -7.4547411    193.78763  0.027004964   0.02727487            2 
  599000   0.99557539   -7.4355191    193.33551  0.026896983  0.027258533            3 
  600000    1.0241093    -7.448053     194.1929  0.026971236  0.027242219            1 
  601000    1.0157913    -7.485115    194.13049  0.026917706  0.027225628            2 
  602000   0.98473993   -7.4815346    194.18451  0.026880469  0.027208809            4 
  603000   0.98120953   -7.4713984    194.49867  0.026879307  0.027192061            2 
  604000    1.0060063   -7.4679467    194.99292  0.026902997  0.027176048            2 
  605000   0.99271153   -7.4793351    195.25457  0.026894569  0.027159838            4 
  606000    1.0273805   -7.4753981    195.75239  0.026918645  0.027143779            4 
  607000    1.0116848   -7.4610147    195.89874   0.02689439  0.027128155            2 
  608000    1.0122172   -7.4521332    196.39643   0.02691837  0.027112373            2 
  609000    1.0249478   -7.4554016    195.99069  0.026818649  0.027096133            2 
  610000    1.0003291   -7.4596542    196.22891  0.026807228  0.027079892            1 
  611000   0.99587273   -7.4781571    196.75482  0.026835082  0.027063846            1 
  612000    1.0154581   -7.4879099    196.41343  0.026744748  0.027047225            2 
  613000    1.0127391   -7.4790419    196.65333  0.026733731  0.027030914            1 
  614000    1.0229907   -7.4641726    196.79766   0.02670978  0.027014453            2 
  615000    1.0159772   -7.4791126    196.98397  0.026691594  0.026998049            2 
  616000    1.0130025    -7.450756    197.34367  0.026696925  0.026981232            6 
  617000    1.0278561   -7.5025794    197.02792   0.02661101  0.026964248            2 
  618000    1.0054922   -7.4499326     198.0129  0.026700768  0.026947562       -1e+20 
  619000    1.0225507   -7.4515653    198.60156  0.026736882  0.026931129            1 
  620000    1.0160585   -7.4989881    197.97457  0.026609485  0.026914732            2 
  621000     1.005279   -7.4726513    198.38429  0.026621617  0.026897941            2 
  622000   0.98360925   -7.4554009    198.80291  0.026634903  0.026880959            2 
  623000    1.0004978   -7.4942451    198.62024  0.026567715  0.026864386            1 
  624000    1.0004123   -7.4711537    198.85047  0.026555886  0.026847912            1 
  625000   0.99103116   -7.4908026      198.878  0.026517066  0.026831473            2 
  626000      1.02021   -7.4984073     199.1682  0.026513338  0.026814928            1 
  627000     1.016939   -7.4736214      200.028  0.026585327  0.026798648            1 
  628000   0.97705916   -7.4738648    200.03125  0.026543425  0.026782684            3 
  629000    1.0023664    -7.463119    200.04528  0.026503084  0.026766298            1 
  630000    1.0177338   -7.5106671    199.70349  0.026415806  0.026749752            2 
  631000     1.007221   -7.5116171    199.98315  0.026410875  0.026733132            2 
  632000   0.99231276   -7.4818339    200.89613  0.026489469  0.026716322            2 
  633000    1.0169431   -7.5061847    200.49744  0.026395134   0.02669963            3 
  634000    0.9859571    -7.490692     200.8628  0.026401525  0.026682882            1 
  635000    0.9941895   -7.5035448    200.71558  0.026340627  0.026665899            2 
  636000    1.0109523   -7.4918724    201.19149  0.026361568  0.026649286            3 
  637000   0.99064809   -7.4511535    201.87151  0.026409146  0.026633079            1 
  638000   0.97774203   -7.4691988    202.58037   0.02646034   0.02661731            2 
  639000     1.010851    -7.518511     202.3688  0.026391341    0.0266015            2 
  640000    1.0224083   -7.5658646    201.64216  0.026255489  0.026585244            1 
  641000   0.98853478   -7.5289502    202.83098  0.026369082  0.026569069            4 
  642000   0.99837681   -7.4659359    202.84755  0.026330159  0.026553423            2 
  643000    1.0254994   -7.5102926    203.24326  0.026340495  0.026537626            1 
  644000   0.96843117   -7.4925793    203.02684  0.026271589  0.026521969            1 
  645000    1.0050599   -7.4891745    204.46508  0.026416677  0.026506253            1 
  646000   0.97709796   -7.5106518    204.42195  0.026370221  0.026490645            4 
  647000      1.00008   -7.5263577    204.28934  0.026312383  0.026474582            1 
  648000    1.0009996   -7.5177777    203.98458  0.026232585  0.026458994            2 
  649000     1.003626   -7.4836241    204.24385  0.026225456  0.026443384            2 
  650000    1.0031385   -7.4794732    205.07222   0.02629131  0.026427919            2 
  651000   0.99498388   -7.5077029    205.33393  0.026284425  0.026412327            2 
  652000    1.0092321   -7.4655279    205.86539  0.026312038  0.026396536            1 
  653000    0.9747192   -7.5256947    205.59393  0.026237102  0.026381035            4 
  654000   0.98999867   -7.4890154    205.81197  0.026224767  0.026365496            2 
  655000   0.99502334   -7.5352534    206.02419  0.026211729  0.026349991            3 
  656000   0.99196192   -7.5127367    205.99359  0.026167885  0.026334107            1 
  657000    1.0072594   -7.5048172    206.67664  0.026214693  0.026318436            2 
  658000   0.97890617   -7.5598689      205.385  0.026011272  0.026302248            2 
  659000   0.99926631   -7.5552104    206.35498  0.026094459  0.026286043            1 
  660000   0.98264303   -7.5167336    206.32677   0.02605136  0.026269945            1 
  661000   0.99648322   -7.5075255    206.31991  0.026011083  0.026253961            2 
  662000     1.004688   -7.5396774    206.30592  0.025970031  0.026237965            2 
  663000   0.99104956    -7.499962     207.6567  0.026100641  0.026221914            2 
  664000    1.0067746   -7.5153409    207.39336  0.026028283  0.026205962            1 
  665000    1.0060277   -7.5473037    207.09687  0.025951989  0.026189751            2 
  666000   0.97526396   -7.5390429    207.45383  0.025957686  0.026173652            1 
  667000   0.99293988   -7.5194372    206.57453  0.025808912  0.026157303            1 
  668000   0.98001966   -7.5374073    207.73877  0.025915516  0.026140839            1 
  669000   0.99068652   -7.5270367    207.36312  0.025829984  0.026124208            1 
  670000   0.99795277   -7.5243761    207.65761  0.025828061  0.026107559            3 
  671000   0.98509362   -7.4817557     208.3315  0.025873261  0.026090952            2 
  672000   0.98073911   -7.5177674     207.8563  0.025775831  0.026074432            2 
  673000    1.0081407   -7.5024584    208.34039  0.025797473  0.026057715            1 
  674000   0.98186414   -7.5222795    207.58379  0.025665651  0.026040924            2 
  675000   0.97071146   -7.5258873    208.00161  0.025679211     0.026024            2 
  676000    1.0061286   -7.5475594    209.47185  0.025822467  0.026006929            4 
  677000    1.0109282    -7.509606    209.14811  0.025744474  0.025990133            2 
  678000   0.97907906   -7.5408484    208.89344  0.025675202  0.025973062            3 
  679000    1.0082505   -7.5295428    208.70097  0.025613767  0.025956011            2 
  680000   0.99128577   -7.4973158    210.07984  0.025745078  0.025939083            4 
  681000   0.98506061   -7.5320112    208.96612  0.025570989  0.025921962            1 
  682000    1.0120316   -7.5356474    209.43192   0.02559041  0.025904795            1 
  683000   0.98548462   -7.5227188    210.52685  0.025686537  0.025888013            2 
  684000   0.96393444   -7.5355839    209.98495  0.025582962  0.025871206            2 
  685000   0.98827137   -7.5688664    209.89527  0.025534704  0.025854378            2 
  686000   0.98307728   -7.5253004      210.583  0.025581025  0.025837468            2 
  687000   0.98700067    -7.552201    210.43166  0.025525432  0.025820322            1 
  688000   0.98771446   -7.5449587    210.59018  0.025507531  0.025803335            2 
  689000   0.97670923   -7.5701864    210.40445  0.025448047  0.025786325            2 
  690000   0.97372363    -7.523856    211.28854   0.02551794  0.025769566            2 
  691000   0.99001084   -7.4997252    210.75134  0.025416226  0.025752884            3 
  692000    1.0014493   -7.5578249    210.96184  0.025404846  0.025735974            3 
  693000   0.97772131   -7.5443515    211.47864  0.025430332  0.025718804            2 
  694000   0.97148341   -7.5521456    211.96742  0.025452379  0.025701629            1 
  695000    0.9839507   -7.5487874    211.75714  0.025390544  0.025684517            5 
  696000   0.97191905   -7.5705152    211.84506  0.025364591  0.025667251            1 
  697000    1.0017696   -7.5547268    211.98826  0.025345321  0.025650041            2 
  698000   0.96603303   -7.5161296    213.22089  0.025456171  0.025633192            3 
  699000   0.97250687   -7.5349134    212.70337  0.025358055  0.025616178            1 
  700000   0.97706195   -7.5646039    212.24263  0.025266979  0.025598928            1 
  701000    1.0024908   -7.5051219     213.0839  0.025330943  0.025581855            1 
  702000   0.96612322    -7.528314    213.01732  0.025286956  0.025564996            5 
  703000   0.96320464   -7.5196061    213.14981  0.025266691  0.025548047            1 
  704000   0.97198699   -7.5538704    213.25423  0.025243161  0.025531055            2 
  705000   0.96372804   -7.5328886    213.42215  0.025227205  0.025514097            1 
  706000   0.96703867   -7.5566294    213.94369  0.025253032  0.025497045            3 
  707000   0.97343273   -7.5467811    214.16235  0.025243087  0.025480074            2 
  708000   0.96917183   -7.5631193     214.3635  0.025231108  0.025463399            2 
  709000   0.96329487   -7.5550223    213.89724  0.025140719  0.025446611            2 
  710000    0.9374579   -7.5907673    213.58228  0.025068342  0.025429579            1 
  711000    0.9824205   -7.5398157     215.2337  0.025226641  0.025412536            3 
  712000   0.96138972   -7.5384676    214.92643  0.025155247  0.025395884            3 
  713000   0.99041319   -7.5648454    215.41565  0.025177145  0.025379316            1 
  714000   0.94438624   -7.5304029    215.22388  0.025119501   0.02536265            1 
  715000   0.98612711   -7.5575809    215.41888  0.025107095  0.025346092            4 
  716000   0.97601166   -7.5561115     215.6445  0.025098289  0.025329507            6 
  717000   0.98193179   -7.5521724    215.45366  0.025041104  0.025312868            2 
  718000   0.96222355   -7.5669632    216.20514  0.025093447  0.025296039            2 
  719000   0.95266555   -7.5582511    216.20076  0.025058039  0.025279405            2 
  720000   0.97541377   -7.5770127     215.8091  0.024977905  0.025262546            1 
  721000   0.95555778   -7.5751361    216.20178  0.024988648  0.025245614            3 
  722000   0.96436993   -7.5617077    216.32165  0.024967873  0.025228416            4 
  723000   0.96930362   -7.5498118    216.51785  0.024955953  0.025211638            1 
  724000   0.96281162    -7.597831    216.54773  0.024924922  0.025194671            2 
  725000     0.968177   -7.5728845    216.40879  0.024874573  0.025177679            2 
  726000    0.9502398   -7.5528007    217.07893  0.024917233  0.025160814            1 
  727000   0.95849332   -7.6077425    216.87992  0.024860147  0.025143805            2 
  728000   0.97463022   -7.6073769    216.98657  0.024838206  0.025126808            2 
  729000   0.95685597    -7.612531    217.12695  0.024820182  0.025109863            3 
  730000   0.96708238   -7.5710773    218.11024  0.024898429  0.025093092            1 
  731000   0.97032586   -7.5907814    218.20521  0.024875195  0.025076345            2 
  732000   0.97119885   -7.5762659    218.74502  0.024902666   0.02505973            2 
  733000   0.98010446   -7.5796431     218.5348  0.024844793  0.025043303            2 
  734000    0.9470329   -7.5754675    218.88865  0.024851118  0.025027273            1 
  735000   0.97541703    -7.608632    219.73626  0.024913408  0.025011465            1 
  736000   0.94549654   -7.5698787    219.92499  0.024900928  0.024995799            2 
  737000   0.95991833    -7.564782    220.06476  0.024882944  0.024980116            1 
  738000   0.96650004   -7.5857251    220.26835  0.024872217  0.024964524            3 
  739000   0.95249367   -7.6076515    220.62023   0.02487824  0.024948772            3 
  740000      0.96236   -7.5684037     220.7286  0.024856825   0.02493309            3 
  741000   0.95071216   -7.5848929    220.49446  0.024796948  0.024917284            2 
  742000   0.94824086   -7.5515427    221.85555  0.024916391  0.024901578            1 
  743000   0.96394575   -7.5966635    220.69253  0.024752415  0.024885805            2 
  744000    0.9664992   -7.6389806    220.05222  0.024647426  0.024869801            4 
  745000   0.93439208   -7.6249647    221.41164  0.024766403   0.02485382            2 
  746000   0.96667764   -7.6100853    221.29396  0.024720058  0.024838011            2 
  747000   0.97073967   -7.5769463    222.10233  0.024777145  0.024822271            2 
  748000   0.97217681    -7.600807    221.29074  0.024653602  0.024806622            3 
  749000   0.95071313    -7.634237    222.62441  0.024769071   0.02479098            5 
  750000   0.93346313   -7.6299367    221.62918  0.024625465  0.024775153            2 
  751000   0.94525358   -7.5851064      222.416  0.024679982  0.024759288            2 
  752000   0.96666641   -7.5979683    222.67703  0.024676089  0.024743381            2 
  753000    0.9521837   -7.6097254    221.74132  0.024539766  0.024727544            5 
  754000   0.95759126   -7.6056137    222.28039  0.024566798  0.024711623            2 
  755000   0.93846937   -7.5873952    222.23353  0.024529087  0.024695582            4 
  756000   0.93803832   -7.6278856    222.78127  0.024557018  0.024679444            3 
  757000    0.9445481   -7.6026417    222.07207  0.024446507  0.024663373            1 
  758000   0.95205633   -7.6007856    223.27323  0.024546309  0.024647117            2 
  759000   0.95146391    -7.614372    222.91503  0.024474641  0.024630686            1 
  760000   0.93693399    -7.608991    223.12976  0.024465983  0.024614173            2 
  761000   0.92729112    -7.595366     223.0142  0.024421178  0.024597735            2 
  762000   0.93467109   -7.6121417    222.45186  0.024327631  0.024581369            2 
  763000   0.94229916   -7.6214349    223.23563  0.024381349  0.024564877            1 
  764000   0.95479046   -7.6098918    223.04697  0.024328858  0.024548155            2 
  765000   0.94470947   -7.6540781    223.01904  0.024294013  0.024531364            2 
  766000   0.96301161   -7.6451015    222.92646  0.024252226   0.02451436            1 
  767000   0.96534083    -7.598378    223.74222  0.024309237  0.024497394            2 
  768000   0.91789907   -7.6231677    223.22338  0.024221286  0.024480724            2 
  769000   0.95047191   -7.6150909    223.45881  0.024215302  0.024464183            2 
  770000   0.96756045   -7.6545214    224.28519  0.024273289  0.024447574            2 
  771000   0.96876748   -7.6369664    223.91173  0.024201441  0.024430813            1 
  772000   0.95316628   -7.6011969    224.37231  0.024219808  0.024414109            2 
  773000   0.94066575   -7.6478857    224.29471  0.024180111  0.024397623            2 
  774000   0.94957929   -7.6596237    224.86912  0.024210715  0.024381026            5 
  775000   0.94000126    -7.563078    224.90682   0.02418353  0.024364543            1 
  776000   0.95501131   -7.6310971    224.57814  0.024117069  0.024347801            2 
  777000   0.94198072   -7.6628957    224.38815  0.024065653  0.024330853            1 
  778000    0.9385704   -7.5812535    225.37971  0.024140929  0.024313888            1 
  779000   0.92436635   -7.6696496     224.6012  0.024026658  0.024296792            3 
  780000   0.93185451   -7.6579456    224.94858  0.024032967  0.024279698            2 
  781000   0.92992144   -7.6493664    224.48854  0.023953109  0.024262575            1 
  782000   0.95228122   -7.6825624     224.3872   0.02391168  0.024245398            1 
  783000   0.93401598   -7.6648385    225.22244  0.023970034  0.024228292            1 
  784000   0.92670556   -7.6126336    226.05291  0.024027733  0.024211377            2 
  785000   0.92507726   -7.6397431    225.66566  0.023956015  0.024194408            3 
  786000   0.93382941   -7.6456848     226.1226  0.023973982  0.024177429            1 
  787000   0.93304864   -7.6360621    225.69513  0.023898256   0.02416055            2 
  788000   0.94934646   -7.6473121    225.82373  0.023881528  0.024143684            1 
  789000   0.91809334   -7.6151185    226.14405  0.023885092  0.024126909            1 
  790000   0.93968645   -7.6118226    227.32136  0.023979046   0.02411018            2 
  791000   0.93083349   -7.6422276    226.74492  0.023888002  0.024093426            3 
  792000   0.95979993   -7.6081238     226.4872  0.023830723  0.024076758            1 
  793000   0.94718078   -7.6362217    227.04249  0.023859026  0.024060113            4 
  794000   0.92237277   -7.6156736    227.02435  0.023827073  0.024043418            2 
  795000   0.96317998   -7.6411163    227.26286  0.023822102  0.024026519            3 
  796000   0.97215045   -7.6561237    227.00819  0.023765514  0.024009643            1 
  797000   0.93205473   -7.6697395     227.2464  0.023760602  0.023992537            1 
  798000   0.93521074   -7.6470118    226.94512  0.023699365  0.023975351            1 
  799000   0.92754133   -7.6726681    227.07801  0.023683564  0.023958164            2 
  800000   0.93571296   -7.6324539    227.45473  0.023693201   0.02394104            2 
  801000   0.92461655   -7.6718991    227.88512  0.023708398  0.023923995            1 
  802000   0.93943222   -7.6190172    228.92916  0.023787319  0.023907102            3 
  803000   0.93867209   -7.6501802    228.00661  0.023661956  0.023890326            2 
  804000   0.93944071   -7.6530721    228.08839  0.023641002  0.023873372            3 
  805000   0.91723494   -7.6375629    228.35519  0.023639254  0.023856597            3 
  806000   0.94625497   -7.6363515    228.04095  0.023577435  0.023839732            3 
  807000   0.93635519   -7.6736241    228.98032  0.023645221  0.023822708            2 
  808000   0.92004099   -7.6398176     228.1862  0.023534056   0.02380571            2 
  809000   0.92458023   -7.6571491    228.95435  0.023584091   0.02378881            1 
  810000   0.93087687   -7.6694066    228.80905  0.023540025  0.023771874            1 
  811000   0.92425465   -7.6651504    228.87402  0.023517676  0.023754989            2 
  812000   0.93091735   -7.6574805    229.04853  0.023506622  0.023737824            4 
  813000   0.95179347   -7.6429295    229.41511  0.023515284   0.02372087            2 
  814000   0.92447449   -7.6664863    229.37516  0.023482306  0.023704053            4 
  815000   0.94907368    -7.681921    229.60711   0.02347721  0.023687114            1 
  816000   0.90810348   -7.6435817    229.46827  0.023434259  0.023670124            2 
  817000   0.91934891   -7.6717417    230.26876  0.023487226  0.023653122            4 
  818000   0.91384928   -7.6578977    230.21337   0.02345287  0.023636258            1 
  819000   0.92398293   -7.6526859    230.68761  0.023472488  0.023619489            3 
  820000   0.92262085    -7.665371    230.14636  0.023388858  0.023602688            1 
  821000    0.9519074    -7.657119    230.49733  0.023395994  0.023585882            2 
  822000   0.91265363   -7.6374305     230.4725  0.023365014  0.023569064            2 
  823000   0.93104828   -7.6550878    230.87267  0.023377143  0.023552126            1 
  824000   0.91743677   -7.6846925    230.41977   0.02330297   0.02353513            2 
  825000   0.94131424   -7.6780371    231.29152   0.02336278  0.023518312            2 
  826000   0.91649842   -7.6739613    231.33493  0.023338875  0.023501424            3 
  827000   0.91850686   -7.6940947    230.35109  0.023211517  0.023484367            1 
  828000   0.94193995   -7.6626992    231.60308  0.023309489  0.023467438            1 
  829000   0.93117678    -7.694684    230.99686  0.023220432  0.023450318            2 
  830000   0.92768085   -7.6539697    231.18142  0.023210986  0.023433167            2 
  831000   0.93420254   -7.6727705    231.68354  0.023233407  0.023416156            2 
  832000   0.91178389   -7.6909214    231.95926  0.023233099  0.023398971            3 
  833000   0.92034669   -7.7131906    230.91827  0.023101068  0.023381863            2 
  834000   0.90803329   -7.7112641    230.55479  0.023037049   0.02336457            1 
  835000   0.91754376   -7.6697605     231.2589   0.02307973  0.023347197            4 
  836000   0.91330534   -7.6747529    231.91318  0.023117342  0.023330017            2 
  837000   0.90768527   -7.7456925    231.04311  0.023003097  0.023312621            1 
  838000   0.93277291   -7.6765459    231.74854  0.023045797  0.023295143            3 
  839000   0.93004415   -7.6898656    232.11654   0.02305488  0.023277917            2 
  840000   0.92631555   -7.7074834    231.26662  0.022943117  0.023260481            2 
  841000   0.92036041   -7.6786896    231.07161  0.022896513  0.023242922            6 
  842000   0.90855145   -7.6706786    231.67594  0.022929131  0.023225429            2 
  843000   0.92201729   -7.6641539    232.31744  0.022965346  0.023207887            1 
  844000   0.92307791   -7.6995866    232.03594  0.022910342  0.023190523            2 
  845000   0.90851834   -7.6617995    232.78332  0.022956935  0.023173227            1 
  846000   0.91050031   -7.6987054    232.12986  0.022865432  0.023155811            1 
  847000   0.92427686   -7.7433799    232.46356  0.022871267   0.02313829            3 
  848000   0.90952082   -7.7176659    232.43682  0.022841669   0.02312067            3 
  849000   0.91702146   -7.6913477    232.35117  0.022806358  0.023103116            1 
  850000   0.91440695   -7.6961884    232.97445  0.022840632  0.023085726            2 
  851000   0.91346098    -7.699312    232.71342  0.022788232   0.02306829            4 
  852000   0.89004101   -7.6881585    233.15573  0.022804747  0.023050798            2 
  853000   0.91300699   -7.7050789    232.81339  0.022744567   0.02303333            2 
  854000   0.92294446   -7.7305241    233.09103  0.022745026  0.023015931            3 
  855000   0.90552842   -7.7135735    233.00993  0.022710519  0.022998422            2 
  856000   0.91882319   -7.6878398    233.82009  0.022762859  0.022980912            3 
  857000   0.89390996   -7.7119448    233.71806  0.022726377  0.022963567            2 
  858000   0.90825927   -7.6860611    234.16184  0.022742991  0.022946214            1 
  859000    0.9198545   -7.7436326    233.78431  0.022679891  0.022928992            5 
  860000   0.91902183   -7.7022064     234.0701  0.022681211  0.022911854            3 
  861000   0.90367631   -7.7087808    234.87966  0.022733223  0.022894907            2 
  862000   0.90645316   -7.6911641    234.27826   0.02264871  0.022877907            3 
  863000   0.89796715   -7.7106832    234.63865  0.022657266  0.022860971            2 
  864000   0.92617207   -7.6881105    235.08573  0.022674164  0.022843859            3 
  865000   0.88216276   -7.7041649     234.9492  0.022634798  0.022826811            2 
  866000   0.91327737   -7.7342497    234.75789  0.022590251  0.022809793            1 
  867000   0.88641173   -7.7564901    234.76407   0.02256479   0.02279278            2 
  868000   0.91290314   -7.6839239    235.40369    0.0226002  0.022775716            1 
  869000   0.91226282   -7.7201981    235.06776  0.022541979  0.022758772            2 
  870000   0.89100464   -7.7357013     234.7647   0.02248704  0.022741664            2 
  871000   0.92384622   -7.7452732    235.31538  0.022513909  0.022724434            3 
  872000   0.90774829   -7.7759026    235.09405  0.022466939  0.022707155            9 
  873000   0.89590261   -7.7418243    235.66902  0.022496088  0.022689903            1 
  874000   0.89572517   -7.6944653    236.10647  0.022512058  0.022672946            1 
  875000   0.91566083   -7.7185634     235.6867  0.022446352  0.022655848            3 
  876000   0.90651175    -7.709376    236.16962  0.022466668  0.022638814            2 
  877000   0.91152184   -7.7323787    235.86485  0.022412092  0.022621765            2 
  878000   0.92001655   -7.7254806    235.97076  0.022396618  0.022604582            6 
  879000   0.89309834   -7.6625483    236.69616  0.022439909  0.022587615            2 
  880000   0.88457649   -7.7373969    236.74207  0.022418756  0.022570608            2 
  881000   0.88559653   -7.7312144    236.47749  0.022368283  0.022553669            2 
  882000   0.91102513   -7.7146102    236.67295   0.02236139  0.022536754            1 
  883000   0.90940701   -7.7177783    236.93645  0.022360933  0.022520081            1 
  884000   0.90332444   -7.7373109    237.17125  0.022357772  0.022503371            3 
  885000   0.90506032   -7.7188287    237.20591  0.022335773  0.022486578            2 
  886000    0.8832496   -7.7363652    237.39859  0.022328686  0.022469923            2 
  887000   0.88529382   -7.7369531     237.7893   0.02234022  0.022453012            2 
  888000   0.91218168   -7.7639566    237.38237  0.022276874  0.022436119            2 
  889000   0.90159766   -7.7455217     237.5258  0.022265261  0.022419248            2 
  890000   0.89918604   -7.7277625    237.64157  0.022251083   0.02240238            3 
  891000   0.89954978    -7.707567    237.93079  0.022253161  0.022385603            2 
  892000    0.8949746   -7.7442366    237.58475  0.022195885  0.022368753            3 
  893000   0.91558771   -7.7007657    237.82473  0.022193423  0.022351908            3 
  894000   0.89936937   -7.7353067    237.37191   0.02212639  0.022334976            2 
  895000   0.89725556   -7.7399942    237.88183  0.022149147   0.02231813            5 
  896000   0.91391171   -7.7404483    238.21173  0.022155109  0.022301378            3 
  897000   0.88372014   -7.7394184    238.00624  0.022111319  0.022284428            2 
  898000   0.89997742   -7.7550211    238.24581  0.022108929  0.022267385            2 
  899000   0.87262981   -7.7585038     238.0854  0.022069466  0.022250368            2 
  900000   0.87767322   -7.7125732    238.84033  0.022114846  0.022233288            3 
  901000   0.91161042   -7.7414318    238.60517   0.02206855  0.022216354            5 
  902000   0.89597237   -7.7498578    238.78496  0.022060695  0.022199524            6 
  903000   0.88757399   -7.6994102    239.27743  0.022081712  0.022182778            2 
  904000    0.9046564   -7.7733825     238.4971  0.021985352  0.022165707            1 
  905000   0.90449017   -7.7777553    238.42747  0.021954648  0.022148678            3 
  906000   0.89142798    -7.770872    239.05563  0.021988192  0.022131657            2 
  907000   0.88801308   -7.7584923    238.51039  0.021913854  0.022114594            1 
  908000   0.87324399   -7.7757236    238.38501  0.021878213  0.022097581            4 
  909000   0.88374815   -7.7571484    239.42586  0.021949566  0.022080531            2 
  910000   0.90966138   -7.7608528    238.95498  0.021882324  0.022063475            2 
  911000    0.8770014   -7.7456938    239.70301   0.02192673  0.022046447            2 
  912000   0.87476882   -7.7755423    239.17183  0.021854151  0.022029441            1 
  913000   0.90325829   -7.7686233    239.75087  0.021883066  0.022012536            1 
  914000   0.90042578    -7.760807    239.38472  0.021825741   0.02199535            6 
  915000   0.88792063   -7.8002077    238.89742  0.021757507  0.021978107            2 
  916000   0.87720875   -7.7625834    239.93433  0.021828087  0.021960847            2 
  917000   0.88118504   -7.7501649    239.97044  0.021807564   0.02194396            3 
  918000   0.89611671   -7.7619594    239.65417  0.021755099  0.021927179            1 
  919000   0.86693738   -7.7689567    239.41103  0.021709379  0.021910389            2 
  920000   0.87888581    -7.757738    239.97798  0.021737136  0.021893502            3 
  921000   0.90807616    -7.766278    240.19408  0.021733087  0.021876725            1 
  922000    0.8653862    -7.742585    240.48407  0.021735726    0.0218599            2 
  923000   0.88476005   -7.7533146    240.29774  0.021695354  0.021843072            2 
  924000   0.87654065   -7.7643027    240.20089   0.02166314  0.021826166            2 
  925000   0.89958063    -7.784216    240.74735  0.021688951  0.021809252            2 
  926000   0.88659098   -7.7518256    240.56474  0.021649095  0.021792308            2 
  927000   0.88328956   -7.7953675    240.52265  0.021621957  0.021775299            3 
  928000   0.89546358   -7.7676333    240.43572  0.021590851  0.021758274            2 
  929000   0.88756982   -7.7842288    240.32328  0.021557524  0.021741229            2 
  930000   0.88569955    -7.763977    240.19958  0.021523259   0.02172425            1 
  931000   0.89050491   -7.7745397    241.28499  0.021597296  0.021707293            5 
  932000   0.85285157   -7.7420396    241.06675  0.021554609  0.021690467            2 
  933000   0.88107591   -7.7633399    241.55394  0.021575021  0.021673759            2 
  934000   0.87869421   -7.7564131    241.56511  0.021552918  0.021657052            2 
  935000   0.85584116    -7.809387    240.73406  0.021455798  0.021640312            1 
  936000   0.88872007   -7.7869892    241.94416  0.021540612  0.021623476            1 
  937000    0.8752179   -7.7793131    241.88257  0.021512146  0.021606741            3 
  938000   0.87018598   -7.8042785    241.49295  0.021454598  0.021590028            2 
  939000   0.89841597   -7.7808656    241.72125   0.02145201  0.021573387            1 
  940000   0.86676402   -7.7831028    241.91125  0.021446033  0.021556699            3 
  941000   0.88132483   -7.7828261    242.65069  0.021488726  0.021540093            3 
  942000   0.88978016   -7.7851226    242.32085  0.021436734  0.021523459            2 
  943000   0.91413898   -7.7968354    242.02372  0.021387744  0.021506813            2 
  944000   0.87789016    -7.767231    242.57965  0.021414164  0.021490191            2 
  945000   0.87132445   -7.7921652    242.82683  0.021413301  0.021473657            1 
  946000   0.86530151   -7.8312082     241.7713  0.021297683  0.021456977            2 
  947000   0.87746158   -7.8014283    242.25785  0.021318009  0.021440248            2 
  948000   0.86548004   -7.8214031    242.46862  0.021314049  0.021423735            6 
  949000   0.85927904   -7.7774014    243.67364  0.021397404  0.021407311            1 
  950000   0.86101405   -7.8169194    242.95301  0.021311668  0.021390956            2 
  951000   0.86463711   -7.7996885    243.64772  0.021350134  0.021374727            1 
  952000   0.86979668   -7.7819695    243.48314    0.0213133  0.021358523            1 
  953000   0.87791653   -7.7996493     243.1936  0.021265617  0.021342376            2 
  954000   0.85929625   -7.8097704    243.59492  0.021278383  0.021326126            2 
  955000   0.87281341   -7.8023355    243.53684  0.021251033  0.021309941            3 
  956000   0.87178785   -7.7948474     243.3128  0.021209275  0.021293715            3 
  957000   0.86866903   -7.8134156    243.13182  0.021171353  0.021277563            3 
  958000   0.88413843   -7.8078148    243.59367  0.021189429  0.021261348            1 
  959000   0.85669187   -7.8094199    244.28587  0.021227483  0.021245172            1 
  960000   0.87066852   -7.7963128    243.53973  0.021140602  0.021228979            4 
  961000   0.87890219   -7.7758968    244.78189  0.021226318  0.021212894            5 
  962000   0.86866597     -7.79673    244.43952  0.021174594  0.021196873            2 
  963000   0.86479675   -7.8412353    244.13124  0.021125929  0.021180677            2 
  964000    0.8667837   -7.7674802    245.01807  0.021180677  0.021164579            3 
  965000   0.87168566   -7.8147596    244.55897  0.021119082  0.021148467            1 
  966000   0.88167833   -7.8451353    244.51487  0.021093415  0.021132162            4 
  967000   0.87827568   -7.8008316    244.80691  0.021096769  0.021115951            3 
  968000   0.87065684     -7.80588    245.65772   0.02114822  0.021099806            3 
  969000   0.88375272    -7.827555    244.67928  0.021042249  0.021083782            1 
  970000   0.86522465    -7.795884    244.79395  0.021030408  0.021067891            1 
  971000   0.85675345   -7.8340207    244.69947  0.021000641  0.021051814            2 
  972000   0.87534254   -7.8517005    244.86721  0.020993416  0.021035719            3 
  973000   0.85904878   -7.8425106    244.95249  0.020979144  0.021019743            1 
  974000    0.8577922   -7.8332277    245.93803  0.021041926  0.021003792            2 
  975000   0.86845507   -7.7969012    246.02689   0.02102794  0.020987836            2 
  976000   0.85532038   -7.8290797    245.14937  0.020931469   0.02097182            3 
  977000   0.85604683    -7.819552    245.86694  0.020971251  0.020955746            7 
  978000   0.85379135   -7.8150398    246.07923  0.020967897  0.020939778            1 
  979000   0.86207726   -7.7991564    245.83102  0.020925351  0.020923889            1 
  980000   0.86948064   -7.8226213    245.99541  0.020917977  0.020907984            1 
  981000   0.85735002   -7.8294979    246.77225  0.020962644  0.020892122            1 
  982000   0.86796487    -7.854455    246.43392  0.020912587  0.020876167            3 
  983000   0.87798461   -7.7882962    247.11804  0.020949309  0.020860266            2 
  984000   0.85778034   -7.8368519    246.17852  0.020848452  0.020844454            1 
  985000   0.86018762   -7.8429654    246.66019  0.020868036   0.02082856            2 
  986000   0.85124827    -7.836129    246.54013  0.020836725  0.020812743            1 
  987000   0.87420855   -7.8230021    247.09154  0.020862169  0.020797118            2 
  988000   0.85232858   -7.8202623    247.40439  0.020867441  0.020781459            2 
  989000   0.86320976   -7.8393033    247.06743   0.02081795  0.020765866            2 
  990000     0.874927   -7.8518622    246.90937  0.020783617  0.020750347            2 
  991000   0.87343178   -7.8215374    247.75481  0.020833738  0.020734804            2 
  992000   0.86190597   -7.8453392    247.85496  0.020821149  0.020719227            2 
  993000   0.83737084   -7.8376345     247.6376   0.02078194  0.020703687            4 
  994000   0.82628476   -7.8519763    247.29907  0.020732651  0.020688148            2 
  995000   0.86756192   -7.8389514    247.88193  0.020760631  0.020672571            4 
  996000   0.84278259   -7.8460648    247.19184  0.020682048   0.02065685            1 
  997000   0.86704824   -7.8558552    247.37466  0.020676585  0.020641032            4 
  998000   0.86516577   -7.8466598    247.92895   0.02070215  0.020625301            2 
  999000   0.85329309   -7.8390766    247.91981  0.020680665  0.020609595            2 
 1000000   0.83845673   -7.8725745    246.56838  0.020547365  0.020593827            2 
 1001000   0.86283101   -7.8866457    247.01384  0.020563923  0.020577888            2 
 1002000   0.85937952   -7.8642155     247.7555  0.020605082     0.020562            4 
 1003000   0.86125575   -7.8671219    247.81796  0.020589728  0.020546164            2 
 1004000   0.85323653   -7.8410706    247.85728  0.020572483   0.02053043            4 
 1005000   0.84998124   -7.8244301    248.50144  0.020605426  0.020514754            2 
 1006000   0.84400831   -7.8494753    248.48958  0.020583961  0.020499188            2 
 1007000   0.85750517   -7.8625779    248.11749  0.020532728  0.020483635            2 
 1008000   0.85303429   -7.8488602    248.14645  0.020514753  0.020468018            2 
 1009000   0.85316595   -7.8390164    248.50769  0.020524256  0.020452485            2 
 1010000   0.85705853   -7.8375461    248.68634  0.020518675  0.020436967            2 
 1011000    0.8522458   -7.8246305    249.10051  0.020532518  0.020421458            1 
 1012000    0.8612895   -7.8098675    248.96162  0.020500792  0.020406119            3 
 1013000   0.84683224   -7.8609693    248.64827  0.020454777  0.020390583            3 
 1014000   0.84194176   -7.8476851    248.69845  0.020438729   0.02037496            3 
 1015000   0.85385459   -7.8816642     248.6336  0.020413268  0.020359254            3 
 1016000   0.82737574   -7.8561746    248.85609  0.020411425  0.020343513            3 
 1017000   0.84301013   -7.8816622     248.5861  0.020369232  0.020327879            3 
 1018000    0.8547361   -7.9114985    248.79551  0.020366365  0.020312073            7 
 1019000   0.83797718   -7.8660698    248.80438  0.020347103  0.020296368            2 
 1020000   0.85993889   -7.8565635    249.39407  0.020375332  0.020280749            3 
 1021000   0.85329309   -7.8601197    249.89221  0.020396035  0.020265235            2 
 1022000   0.85521031   -7.8592738    249.80439  0.020368917  0.020249713            3 
 1023000   0.84459116   -7.8922895    249.15909  0.020296439  0.020234188            2 
 1024000   0.83999612   -7.8684737     249.4217   0.02029799  0.020218596            2 
 1025000   0.85317917   -7.8731453    249.34595  0.020272029  0.020202984            1 
 1026000   0.86118107   -7.8762234    249.79352  0.020288622  0.020187351            2 
 1027000   0.83652806   -7.9018782    249.63289  0.020255834   0.02017173            1 
 1028000   0.83636368    -7.882607    249.47305  0.020223172    0.0201562            1 
 1029000   0.83386822   -7.8670458    249.99795  0.020246028  0.020140735            2 
 1030000   0.84304846   -7.8956087    249.13573  0.020156612  0.020125239            2 
 1031000   0.82761695   -7.8786214    249.91296  0.020199883  0.020109777            5 
 1032000   0.85051346   -7.8754529    250.21949  0.020205062  0.020094438            2 
 1033000   0.84447381   -7.8615906    250.12662  0.020178011  0.020079073           10 
 1034000   0.83671748   -7.8815439    249.99875  0.020148191  0.020063724            3 
 1035000   0.84524513    -7.881318    250.40871  0.020161732  0.020048337            2 
 1036000   0.83855052   -7.8707471    250.31669  0.020134869   0.02003291            2 
 1037000   0.84022743   -7.9116032    250.49021  0.020129396  0.020017689            2 
 1038000    0.8514512   -7.9256405    250.26373  0.020091822  0.020002341            3 
 1039000   0.84541784   -7.9133587    250.93968  0.020126699  0.019987121            1 
 1040000   0.82841403   -7.9200985    250.98375  0.020110878   0.01997203            2 
 1041000   0.82290577   -7.9103683    251.44535  0.020128511  0.019956911            2 
 1042000   0.83999099   -7.8795115    251.08332   0.02008024  0.019941734            1 
 1043000   0.81929139   -7.9138809    250.20131  0.019990517  0.019926444            4 
 1044000   0.83669161   -7.9138566    251.32995  0.020061458   0.01991121            1 
 1045000   0.82272187   -7.9099101    251.46202  0.020052792  0.019895933            2 
 1046000   0.83661953    -7.902685    251.77316   0.02005841  0.019880699            5 
 1047000   0.85030807   -7.9336173    251.53139  0.020020008  0.019865484            2 
 1048000   0.85664693   -7.9013313    251.36335  0.019987544  0.019850285            3 
 1049000    0.8458158   -7.8778726    251.50439  0.019979694   0.01983506            2 
 1050000   0.81581667    -7.849098     252.1967  0.020015611  0.019819878            4 
 1051000   0.83138645   -7.9201877    251.59046  0.019948498  0.019804668            1 
 1052000   0.81762881   -7.9352365    251.98234  0.019960578  0.019789422            1 
 1053000   0.84317337   -7.9122423    251.56149  0.019908317  0.019774206            3 
 1054000    0.8269761   -7.8886276    251.41549  0.019877885  0.019758923            3 
 1055000   0.84221938   -7.9254905    251.70082  0.019881581  0.019743584            3 
 1056000   0.83489908   -7.8973125    251.48361  0.019845613  0.019728281            2 
 1057000   0.84006926   -7.8794956    251.92868  0.019861927  0.019713022            2 
 1058000   0.81740707   -7.9251809    251.44735  0.019805241   0.01969786            2 
 1059000   0.82878309   -7.9188577     251.3751  0.019780855  0.019682673            2 
 1060000   0.81154948   -7.9321235    252.31588  0.019836154  0.019667538            2 
 1061000   0.81872013   -7.9162738    252.28678  0.019815173  0.019652307            2 
 1062000   0.81404021    -7.922844    251.57075  0.019740329  0.019637095            2 
 1063000   0.85073325   -7.9241715    252.02427  0.019757312  0.019621906            3 
 1064000   0.83747473   -7.9310598    252.64497  0.019787357  0.019606674            2 
 1065000   0.83351753   -7.9316282    251.97376  0.019716257  0.019591378            4 
 1066000   0.82642669    -7.924523    252.62147  0.019748395  0.019576216            1 
 1067000   0.83082583   -7.9075628    252.33213  0.019707289  0.019561171            2 
 1068000   0.82842141   -7.9061914    253.12828  0.019750958  0.019546082            1 
 1069000   0.82954532   -7.9325025    252.32684  0.019670006  0.019531021            4 
 1070000   0.82864879   -7.9300995    252.46922  0.019662711   0.01951612            2 
 1071000   0.84286158   -7.9224526    252.81178  0.019671007  0.019501152            3 
 1072000   0.82217107   -7.9145089    253.73441  0.019724379  0.019486251            2 
 1073000   0.83503786   -7.9246042     252.8208  0.019635042  0.019471371            2 
 1074000   0.81387703   -7.9357691    253.18615  0.019645108  0.019456541            4 
 1075000   0.83563317   -7.9066548    253.40795  0.019644027  0.019441639            1 
 1076000   0.81522873   -7.9232266    254.10719  0.019679925  0.019426785            1 
 1077000     0.802145   -7.9702069    252.84445  0.019563947  0.019411877            2 
 1078000   0.81683457   -7.9572271    252.97748  0.019556082  0.019396916            1 
 1079000   0.82627738   -7.9456518     252.6259  0.019510805  0.019381975            2 
 1080000   0.81391357   -7.9677535    252.93399  0.019516511  0.019367019            1 
 1081000   0.82461432   -7.9560037    253.36958  0.019532037  0.019352087            3 
 1082000   0.82656147   -7.9237291    252.83259  0.019472627  0.019337166            2 
 1083000   0.81644914   -7.9432926    253.50397  0.019506307  0.019322266            2 
 1084000   0.81737058    -7.966261    253.10226   0.01945743  0.019307246            1 
 1085000   0.83292719   -7.9548775    253.06279  0.019436466  0.019292279            1 
 1086000   0.82417257   -7.9143173    253.31663  0.019438047  0.019277412            4 
 1087000   0.82627864   -7.9497464    253.31105  0.019419737  0.019262485            2 
 1088000   0.84030433   -7.9380905    253.86191   0.01944408  0.019247526            2 
 1089000   0.80684053   -7.9488548    253.46194  0.019395618  0.019232523            5 
 1090000   0.82222637    -7.910341    253.90444  0.019411655  0.019217614            2 
 1091000   0.81924719   -7.9656902    254.02057  0.019402732  0.019202705            2 
 1092000   0.81366791   -7.9181814    255.26398  0.019479852  0.019187897            1 
 1093000   0.80041914   -7.9325902    254.49305  0.019403252  0.019173158            2 
 1094000   0.80259993   -7.9584154    254.35146   0.01937473   0.01915839            1 
 1095000   0.81534032    -7.943745     254.5492  0.019372085  0.019143635            2 
 1096000   0.79358328   -7.9631935    254.61481  0.019359399  0.019128966            1 
 1097000   0.81986932    -7.925695    254.50665  0.019333535  0.019114311            4 
 1098000   0.80538025   -7.9532929    254.20479  0.019293017  0.019099674            3 
 1099000   0.81956227   -7.9309002    254.45885  0.019294726  0.019085001            2 
 1100000   0.81800861   -7.9405192    254.45632  0.019276994  0.019070389            2 
 1101000   0.82017661   -7.9395994    254.38609  0.019254169  0.019055668            2 
 1102000    0.8062027   -7.9648286    254.33398  0.019232757  0.019040897            2 
 1103000     0.801198   -7.9458819     254.0994  0.019197597  0.019026105            2 
 1104000   0.83178887   -7.9642091    254.62931  0.019220208  0.019011339            1 
 1105000   0.82245342   -7.9493553    255.28841  0.019252519  0.018996553            1 
 1106000   0.79279039   -7.9760156    254.58558  0.019182157  0.018981786            2 
 1107000   0.80335578   -7.9662164    255.12646  0.019205545  0.018967087            2 
 1108000   0.78913565   -7.9394778    255.57823  0.019222189  0.018952423            2 
 1109000   0.80740871   -7.9339058    255.50154  0.019199094  0.018937895            1 
 1110000   0.80632563   -7.9835465     255.3652  0.019171561  0.018923291            1 
 1111000   0.81309054   -7.9830187    254.93601  0.019122113  0.018908688            2 
 1112000   0.82223226   -7.9593772    255.39697  0.019139461  0.018894098            3 
 1113000   0.80055873   -7.9865298    255.27105  0.019112837   0.01887951            2 
 1114000   0.81917167   -7.9382588    255.67388  0.019125814  0.018865062            5 
 1115000   0.81120064   -7.9645787     255.5137  0.019096689  0.018850449            2 
 1116000   0.81645897   -7.9990526    255.03999  0.019044205  0.018835782            2 
 1117000   0.79978439   -7.9780309    256.07676  0.019104503  0.018821229            1 
 1118000   0.80157269   -7.9927315    255.53749  0.019047219  0.018806683            2 
 1119000   0.80591858   -7.9660895    255.75589  0.019046462  0.018792146            1 
 1120000   0.80525066   -7.9929027    256.02049  0.019049144  0.018777691            2 
 1121000   0.80205984   -7.9509294    255.81892  0.019017167  0.018763324            1 
 1122000   0.82239442   -7.9601728    256.17312  0.019026524  0.018748948            2 
 1123000   0.80825278   -7.9797174    256.05206  0.019000598   0.01873452            3 
 1124000    0.8036336   -7.9838403    255.69023  0.018956868  0.018720068            2 
 1125000   0.80716219   -7.9727419    256.19013  0.018977047  0.018705601            2 
 1126000   0.81435777   -7.9520707    257.11751  0.019028827   0.01869117            1 
 1127000   0.79191179   -7.9716622    256.52793  0.018968347  0.018676734            4 
 1128000   0.79700962   -7.9539704    256.11367  0.018920927  0.018662198            2 
 1129000   0.80158722   -7.9588002    256.33835  0.018920752  0.018647694            2 
 1130000    0.8071279   -7.9857411     256.6388  0.018926165  0.018633173            6 
 1131000   0.80419734   -7.9791928    256.25432  0.018881102  0.018618753            4 
 1132000   0.81382544   -7.9968547    256.22306  0.018862122  0.018604249            2 
 1133000   0.79655251   -7.9689282    256.36971   0.01885626  0.018589778            2 
 1134000   0.79270146   -7.9835707    256.07936  0.018818295  0.018575238            1 
 1135000   0.77991636   -7.9550707    256.71667  0.018848507  0.018560643            2 
 1136000   0.78660483   -7.9808098    256.59519  0.018823004  0.018546011            1 
 1137000    0.8101419   -8.0044389    256.10191  0.018770296   0.01853142            7 
 1138000   0.81110826   -8.0123227    256.14874   0.01875723   0.01851682            1 
 1139000   0.80807429   -7.9793716    256.78672  0.018787439  0.018502274            1 
 1140000   0.79083061   -8.0025478    256.26637  0.018732922  0.018487813            2 
 1141000   0.81804094   -7.9759246    256.52281  0.018735233  0.018473349            2 
 1142000   0.80412769   -7.9554138     256.5078  0.018717732  0.018458881            1 
 1143000   0.79985396   -8.0344615    256.06659  0.018669188  0.018444265            2 
 1144000   0.80090011   -8.0019501    256.36258   0.01867443  0.018429515            2 
 1145000   0.80392284   -8.0183296    255.93006  0.018626642  0.018414817            2 
 1146000   0.80879461   -8.0204325    256.02219  0.018617088  0.018400116            2 
 1147000   0.79573947   -7.9867314    256.77624  0.018655641  0.018385473            1 
 1148000   0.78655841     -8.03471    256.40877  0.018612716  0.018370814            1 
 1149000    0.7952436    -8.006088    256.05098  0.018570568   0.01835614            2 
 1150000   0.79858706   -8.0057289    256.40703   0.01858022  0.018341547            2 
 1151000   0.81244914   -7.9888779    256.49923  0.018570752  0.018326965            1 
 1152000    0.7859971   -8.0217127    256.04157  0.018521525  0.018312422            2 
 1153000    0.7845713   -8.0141911    256.49659  0.018538349  0.018297828            3 
 1154000   0.80059088   -8.0190543    256.78676  0.018543238   0.01828317            1 
 1155000   0.80270621   -8.0198235    256.76603  0.018525687  0.018268493            4 
 1156000   0.78994163   -7.9874569    256.70563  0.018505308  0.018253963            2 
 1157000   0.81071463   -7.9773947    256.77235  0.018494119   0.01823951            2 
 1158000   0.78316845    -8.011385    256.82705  0.018482085  0.018225066            2 
 1159000    0.7834477   -7.9880655    256.87559  0.018469628  0.018210506            3 
 1160000   0.80600236   -7.9819966    257.35879  0.018488419  0.018196017            2 
 1161000    0.7779401   -8.0086513    257.72717  0.018498936  0.018181566            7 
 1162000   0.79386158    -8.008634    257.07659  0.018436359  0.018167079            1 
 1163000   0.79191441   -8.0261864    257.15413  0.018426062  0.018152584            1 
 1164000   0.77795069   -8.0318386    256.85318  0.018388687  0.018138151            3 
 1165000   0.79636413   -8.0472735    256.95406  0.018380118  0.018123745            3 
 1166000   0.79321628   -8.0483322    257.40271   0.01839642  0.018109318            1 
 1167000   0.79236954   -8.0237273    256.97551  0.018350151  0.018094855            2 
 1168000   0.77308821   -8.0120916    257.51364  0.018372834  0.018080414            1 
 1169000   0.80101983   -8.0277705    257.29018  0.018341187  0.018066026            3 
 1170000   0.79423838   -8.0109651    257.57343  0.018345686  0.018051637            2 
 1171000   0.78597345   -7.9903527    257.21322  0.018304385   0.01803725            2 
 1172000     0.772836   -7.9736705    258.05381  0.018348536  0.018022927            2 
 1173000   0.78684385   -8.0058259     258.3008  0.018350441  0.018008738            3 
 1174000   0.79094325   -7.9987392    258.07217  0.018318581  0.017994536            1 
 1175000   0.78182396   -8.0043379    258.73838  0.018350239  0.017980356            1 
 1176000   0.78267178   -8.0147127    257.56067  0.018251181  0.017966192            2 
 1177000   0.76664608   -8.0458981     258.3469  0.018291341  0.017951917            1 
 1178000   0.76818782   -8.0353267    257.18537  0.018193645  0.017937651            7 
 1179000   0.77697779   -8.0119766    257.89051  0.018228054  0.017923432            2 
 1180000   0.77383495   -8.0271902    257.68496  0.018198091  0.017909251            1 
 1181000   0.81375329   -8.0137779     258.2388  0.018221761  0.017895164            2 
 1182000   0.80286733   -8.0336155    258.31449  0.018211681  0.017881077            1 
 1183000   0.78226165   -8.0260708    258.41301  0.018203227  0.017867043            3 
 1184000   0.77526785   -8.0238154    258.42193   0.01818848   0.01785292            4 
 1185000   0.79717636   -8.0532629    258.24781  0.018160887  0.017838832            3 
 1186000   0.79136561   -8.0292693    258.28554  0.018148225  0.017824769            4 
 1187000   0.76579476   -8.0438638    258.49839  0.018147879  0.017810584            3 
 1188000   0.77397823   -8.0479589    258.07223   0.01810271  0.017796445            2 
 1189000    0.7722863   -8.0544052    258.12361  0.018091086   0.01778225            1 
 1190000   0.78604397   -8.0401223    257.78474  0.018052153  0.017768108            2 
 1191000   0.77831496    -8.039832    257.94788   0.01804841  0.017754014            3 
 1192000   0.77997281   -8.0355506    258.36997  0.018062777  0.017739887            2 
 1193000   0.78278271   -8.0139425    258.80965   0.01807835  0.017725748            5 
 1194000   0.76309164   -8.0285552    258.14901    0.0180171  0.017711605            4 
 1195000   0.77042508   -8.0477102    258.77791  0.018045879  0.017697416            2 
 1196000   0.78049388   -8.0542203    258.59711  0.018018193  0.017683198            4 
 1197000   0.78441391   -8.0574005    258.27412  0.017980655  0.017668977            3 
 1198000   0.76297706   -8.0602169    258.20963   0.01796116  0.017654751            2 
 1199000   0.77586462   -8.0870997    258.62189  0.017974832   0.01764052            2 
 1200000   0.78665815   -8.0699835    258.80914  0.017972857  0.017626378            2 
 1201000   0.77367763   -8.0632827    259.10995  0.017978764   0.01761228            2 
 1202000   0.76516973   -8.0497453    258.67319  0.017933526  0.017598212            2 
 1203000   0.78374815    -8.044677    258.41862  0.017900985  0.017584172            2 
 1204000   0.78638387   -8.0452609    258.63672  0.017901213  0.017570109            3 
 1205000   0.76718538   -8.0537286    258.15876  0.017853303  0.017556011            2 
 1206000   0.77079944   -8.0477876    258.72191  0.017877412  0.017541953            2 
 1207000   0.76245297   -8.0595276    258.52611  0.017849083   0.01752788            4 
 1208000   0.77096484   -8.0496939    258.71831  0.017847566  0.017513805            1 
 1209000   0.77186001    -8.046693    258.27084   0.01780196  0.017499686            3 
 1210000   0.77105957    -8.029645    258.62235  0.017811457  0.017485663            2 
 1211000   0.76763888   -8.0665966    258.60232   0.01779537   0.01747158            5 
 1212000   0.77823792   -8.0885875    259.14266   0.01781784  0.017457508            7 
 1213000   0.77351736   -8.0516082    259.36802  0.017818633   0.01744343            3 
 1214000   0.77432096    -8.096966    258.47769   0.01774284  0.017429407            4 
 1215000   0.76744243   -8.0520576    259.14898  0.017774278  0.017415383            1 
 1216000   0.77216958   -8.0670668    259.14423  0.017759336  0.017401429            1 
 1217000    0.7655362   -8.0519248    259.40156  0.017762364  0.017387478            4 
 1218000   0.76420048   -8.0499968    259.79849  0.017774938  0.017373545            1 
 1219000   0.76377681   -8.0814116    258.44911   0.01766811  0.017359598            3 
 1220000   0.78296065   -8.0992375    259.27987  0.017710374  0.017345631            1 
 1221000   0.76146612   -8.0555852    259.71777  0.017725755    0.0173317            2 
 1222000   0.75693986   -8.0356414    260.00964  0.017731154  0.017317855            1 
 1223000   0.76454211   -8.0485539    259.54238  0.017684817  0.017303933            4 
 1224000   0.74341408   -8.0493605    259.71025  0.017681798  0.017289998            2 
 1225000   0.76561112   -8.0704845      258.549  0.017588368  0.017276053            2 
 1226000   0.75925052   -8.1003125    258.84855  0.017594382  0.017262123            2 
 1227000   0.77085092   -8.1004241    259.28657  0.017609791   0.01724818            3 
 1228000   0.76739325   -8.0544981    259.52361  0.017611537  0.017234288            3 
 1229000   0.75867023   -8.0638746    259.48609  0.017594663  0.017220394            4 
 1230000    0.7605335   -8.0933006    258.52976  0.017515566   0.01720645            1 
 1231000    0.7521928   -8.0931656     259.4746  0.017565299  0.017192515            2 
 1232000   0.77470378   -8.0703032    259.48062  0.017551449  0.017178653            1 
 1233000   0.76627323   -8.0635109    259.21013  0.017518933   0.01716478            2 
 1234000   0.76035598   -8.0682097    259.25092   0.01750749  0.017150978            2 
 1235000   0.76281361   -8.0871975    259.92679   0.01753892  0.017137158            1 
 1236000    0.7501164   -8.0750673    259.73357  0.017511703  0.017123338            4 
 1237000   0.75272242   -8.1065589    259.22785  0.017463477  0.017109485            2 
 1238000   0.77339293   -8.1051427    259.56513  0.017472074  0.017095639            3 
 1239000   0.76802122   -8.0964261    259.85217  0.017477278  0.017081762            2 
 1240000   0.76307486   -8.1218787    259.25141   0.01742281  0.017067916            1 
 1241000   0.74991689   -8.0908225    259.08489  0.017397588  0.017054002            2 
 1242000   0.74158655   -8.0907249    259.77303  0.017429752  0.017040135            3 
 1243000   0.77286433   -8.1000882    259.15699  0.017374429  0.017026228            2 
 1244000   0.75158378   -8.1006325    259.25249   0.01736686  0.017012333            2 
 1245000   0.76666007   -8.0836084    259.50699  0.017369946  0.016998428            3 
 1246000   0.73471301   -8.1401804    259.11584  0.017329845   0.01698449            4 
 1247000   0.75429107   -8.1281158    259.24408  0.017324518    0.0169706            3 
 1248000   0.76226412   -8.1225399    259.76977  0.017345738  0.016956676            1 
 1249000   0.75314462   -8.1478787    259.35504  0.017304179  0.016942743            2 
 1250000   0.74756493   -8.1609543    258.92124  0.017261416  0.016928856            1 
 1251000   0.76590739   -8.1249024    259.25351  0.017269751  0.016914996            3 
 1252000   0.74863842   -8.1002032    259.69432  0.017285298  0.016901152            2 
 1253000   0.75483572    -8.079766    259.72784  0.017273733  0.016887334            4 
 1254000   0.74359506   -8.1171382    259.51933  0.017246101  0.016873547            3 
 1255000   0.75166951   -8.1351436      260.012  0.017265073  0.016859789            2 
 1256000   0.73952302   -8.1037345    259.79889  0.017237188  0.016846036            1 
 1257000   0.74927233   -8.1197945    259.49086  0.017203054  0.016832254            2 
 1258000   0.74817876   -8.1349597    259.78539  0.017208889  0.016818462            3 
 1259000   0.74882834   -8.1136467    260.30693  0.017229741   0.01680475            2 
 1260000    0.7515651   -8.1477511    259.30419  0.017149748  0.016791038            1 
 1261000   0.78283092   -8.1320063    259.75122   0.01716569  0.016777344            5 
 1262000   0.75411127    -8.116511    259.76289  0.017152859  0.016763663            2 
 1263000    0.7514903   -8.1223309    260.11377  0.017162429  0.016750015            2 
 1264000   0.74422655   -8.1079321    260.56455   0.01717857  0.016736342            2 
 1265000   0.73652072    -8.113878    260.17188  0.017139122  0.016722721            2 
 1266000   0.72953627   -8.1458028    259.62518  0.017089598  0.016709066            2 
 1267000   0.75328657    -8.143938    259.09652  0.017041339  0.016695389            2 
 1268000   0.74495407   -8.1626327    259.86759  0.017078574  0.016681678            3 
 1269000   0.76268211   -8.1229136    259.63843  0.017050067  0.016667947            5 
 1270000   0.77763102   -8.1313318    259.62814  0.017035967  0.016654257            2 
 1271000   0.74580343   -8.1330788    259.91904  0.017041637  0.016640585            2 
 1272000   0.74628896   -8.1254029    259.80646  0.017020864  0.016626922            3 
 1273000   0.75853166   -8.1331888    260.22607  0.017034961  0.016613258            3 
 1274000   0.74368993   -8.1408978    260.04851  0.017009976  0.016599648            3 
 1275000   0.73111041   -8.1269204    260.07053  0.016998074  0.016586038            2 
 1276000   0.74550817   -8.1361397     260.1219  0.016988107  0.016572379            1 
 1277000   0.74213371   -8.1157206    260.28313  0.016985326  0.016558722            3 
 1278000   0.72682076    -8.143722    260.37135  0.016977788  0.016545108            2 
 1279000   0.75561786   -8.1479432    259.81258  0.016928107  0.016531486            3 
 1280000   0.74263152    -8.161492    260.16263  0.016937671  0.016517818            2 
 1281000   0.74389305   -8.1171517    260.03522   0.01691616  0.016504222            3 
 1282000    0.7458455   -8.1293202    259.73604  0.016883518  0.016490604            3 
 1283000   0.73927235    -8.172851    260.63505  0.016928751  0.016477075            2 
 1284000   0.70843188   -8.1469532    260.29351    0.0168934  0.016463554            2 
 1285000   0.74211942   -8.1373591    260.49054  0.016893031  0.016450017            3 
 1286000   0.73878528   -8.1525694    260.26346   0.01686518  0.016436441            2 
 1287000   0.73429158    -8.120776    260.58443  0.016872859  0.016422936            2 
 1288000   0.74388585   -8.1325538    260.42072  0.016849167  0.016409446            1 
 1289000   0.72344283     -8.14408    260.43395  0.016836951  0.016395972            1 
 1290000   0.73358194   -8.1575359     260.7612  0.016845039  0.016382491            2 
 1291000   0.73670666   -8.1334731    260.13288  0.016791433  0.016368975            3 
 1292000   0.73416133   -8.1209146    260.40502   0.01679599  0.016355484            1 
 1293000   0.73654426   -8.1303272    260.47239  0.016787341  0.016341892            4 
 1294000   0.73816142   -8.1720564    260.20197  0.016756953  0.016328298            3 
 1295000   0.74309257   -8.1729724    260.21121  0.016744608  0.016314702            2 
 1296000   0.72432474   -8.1371613    260.33557  0.016739684  0.016301097            3 
 1297000   0.73253391   -8.1930478    260.30019  0.016724505  0.016287488            1 
 1298000   0.75207263   -8.1722892    260.07452  0.016697131   0.01627383            4 
 1299000   0.73917245   -8.1879717     259.8991  0.016673024  0.016260208            2 
 1300000   0.73487219   -8.1969002    260.30511  0.016686225  0.016246624            2 
 1301000   0.74330118    -8.162999     260.2877  0.016672284  0.016233061            3 
 1302000    0.7328279   -8.1702822    259.75872  0.016625622  0.016219491            3 
 1303000    0.7369277   -8.1854913     259.8999  0.016621892  0.016206004            3 
 1304000   0.73587491   -8.1460299    260.03665  0.016617884  0.016192503            7 
 1305000   0.73187585   -8.1578997    260.11584  0.016610207  0.016178976            1 
 1306000   0.74401735   -8.1837894    260.25278  0.016606227  0.016165497            3 
 1307000    0.7142298   -8.2016894    259.85077  0.016567889   0.01615195            2 
 1308000    0.7411535   -8.1730034     260.1001  0.016571108  0.016138464            3 
 1309000   0.72535796   -8.1691889    260.07537  0.016556873  0.016124993            1 
 1310000   0.72379179   -8.1858199    260.19385  0.016551771  0.016111502            1 
 1311000   0.73897277   -8.1596341    260.54094  0.016561209  0.016098054            2 
 1312000   0.73371493   -8.1672356    260.75468  0.016562162  0.016084643            3 
 1313000   0.73321588   -8.1869231    260.09683  0.016507796  0.016071232            1 
 1314000   0.70814099   -8.1456681    260.38468  0.016513488  0.016057815            3 
 1315000   0.74924867   -8.1729353    260.64293  0.016517296  0.016044404            2 
 1316000   0.72121127   -8.1891489    260.30881  0.016483587  0.016031013            2 
 1317000   0.72206212   -8.1634989    260.16884  0.016462215  0.016017576            2 
 1318000   0.71603537   -8.1861091    260.56456  0.016474744  0.016004176            1 
 1319000   0.71269191   -8.2124823    260.06283  0.016430556  0.015990773            2 
 1320000   0.72193478   -8.2100546    260.06191   0.01641805   0.01597738            2 
 1321000   0.72776537   -8.1989081    260.13475  0.016410216  0.015964042            6 
 1322000    0.7499188   -8.1836196    260.13768  0.016397988  0.015950711            1 
 1323000   0.72649416   -8.1713369    260.97423  0.016438286  0.015937408            2 
 1324000   0.72348768   -8.2085001    260.16152  0.016374718  0.015924089            4 
 1325000   0.73563536   -8.1900647    260.75837  0.016399897  0.015910777            2 
 1326000   0.73629738   -8.2143917    260.08467  0.016345191  0.015897465            2 
 1327000    0.7251827   -8.1899053    260.19223  0.016339628  0.015884191            2 
 1328000   0.71864686   -8.1797055    260.52888  0.016348449  0.015870964            3 
 1329000      0.71849   -8.1684699    260.74842  0.016349913  0.015857764            2 
 1330000   0.73751352   -8.1862029     260.8185  0.016342011  0.015844563            2 
 1331000    0.7170629   -8.1603344    261.19023  0.016353007  0.015831371            2 
 1332000   0.69937593   -8.1882259    260.58937  0.016303139  0.015818167            2 
 1333000   0.72256208   -8.2151545    261.04794  0.016319576  0.015804929            1 
 1334000   0.71487326   -8.1654199    260.94459  0.016300887  0.015791746            3 
 1335000   0.71445687   -8.2153616     259.8038  0.016217465  0.015778528            3 
 1336000   0.74166186   -8.2059704    260.67906  0.016259921  0.015765295            1 
 1337000   0.72837133   -8.2166855    260.56532  0.016240671  0.015752077            2 
 1338000   0.72067455   -8.2044359    259.83854  0.016183267  0.015738791            2 
 1339000   0.71659988   -8.1905692    260.74882  0.016227833  0.015725578            1 
 1340000   0.72534385   -8.1805532    260.87088  0.016223314  0.015712364            1 
 1341000   0.72214663   -8.2322185    260.67211  0.016198864  0.015699142            2 
 1342000   0.70952732   -8.2145218    260.21939   0.01615868  0.015685923            7 
 1343000   0.72457152   -8.2303186    260.11062  0.016139899  0.015672731            1 
 1344000   0.71028016   -8.2173474    260.94762  0.016179788  0.015659526            2 
 1345000   0.71756762   -8.2039901    260.48633  0.016139178  0.015646334            4 
 1346000   0.70497565   -8.2235608    260.38522  0.016120927  0.015633156            1 
 1347000   0.71215211   -8.2459892    260.53949  0.016118504  0.015620023            2 
 1348000   0.72421373   -8.2076829    260.27697  0.016090317  0.015606896            3 
 1349000   0.71965639   -8.2143638    260.98133  0.016121901   0.01559376            5 
 1350000   0.72471346   -8.2261444     261.2596  0.016127136  0.015580644            4 
 1351000   0.71946652   -8.2311661    261.12885  0.016107134  0.015567531            2 
 1352000   0.72608651   -8.2320856    260.39318  0.016049875  0.015554444           10 
 1353000   0.70581738   -8.2324428    260.74963  0.016059967  0.015541334            2 
 1354000   0.72655263   -8.2228841    260.95901  0.016060992  0.015528353            2 
 1355000    0.7139005   -8.2361892    260.74729  0.016036118  0.015515332            4 
 1356000   0.72656776   -8.2248633    260.55198   0.01601229  0.015502305            2 
 1357000   0.72113925   -8.2272447    260.66354  0.016007341  0.015489275            2 
 1358000   0.71440283   -8.1990582    260.62845    0.0159934   0.01547628            2 
 1359000   0.70321046   -8.2268117    260.30932  0.015962063  0.015463284            2 
 1360000   0.72164698    -8.231442    260.45491  0.015959247  0.015450302            2 
 1361000   0.70532196   -8.2086922    260.74659   0.01596538  0.015437289            2 
 1362000   0.70562397   -8.2567903    259.75364  0.015892905  0.015424284            2 
 1363000   0.70184453   -8.2337989     260.5106  0.015927525  0.015411297            1 
 1364000   0.71124892   -8.2142783    260.54941  0.015918219  0.015398335            1 
 1365000   0.71427325   -8.2215866    260.78045  0.015920662  0.015385429            1 
 1366000   0.69732789   -8.2211282    260.56855  0.015896081  0.015372521            1 
 1367000   0.69449412   -8.2261642     260.4386   0.01587653  0.015359593            2 
 1368000   0.68609496   -8.2106807    260.79117  0.015886401  0.015346699            1 
 1369000   0.70918677   -8.2360076    260.91845  0.015882545  0.015333818            1 
 1370000   0.68357038   -8.2418724    260.68028  0.015856465  0.015320934            2 
 1371000   0.69340611   -8.2318743    260.87453  0.015856706  0.015308022            2 
 1372000   0.69293949   -8.2295264    261.14197  0.015861393  0.015295171            2 
 1373000    0.7077082   -8.2313913    261.24511    0.0158561  0.015282336            5 
 1374000    0.6942903   -8.2327015    260.82442  0.015819046  0.015269493            1 
 1375000   0.71586408   -8.2136473    260.95552  0.015815486  0.015256683            1 
 1376000   0.71330938   -8.2204391    261.63212  0.015844968   0.01524391            2 
 1377000    0.7114588   -8.2064963    261.37947  0.015818172  0.015231115            3 
 1378000    0.7008542   -8.2165625    260.86902  0.015775824   0.01521832            2 
 1379000    0.7160304   -8.2474052    261.39112  0.015795935  0.015205538            2 
 1380000   0.71437512   -8.2395026    260.89675  0.015754635  0.015192742            1 
 1381000   0.71092756   -8.2533664    261.00952  0.015750031  0.015179953            1 
 1382000   0.68610522   -8.2400177    261.16187  0.015747821  0.015167163            2 
 1383000   0.71127872   -8.2277641    260.85872  0.015718168  0.015154415            3 
 1384000   0.69221323   -8.2420123    261.14922  0.015724303  0.015141676            2 
 1385000   0.68771928   -8.2571064    260.21431  0.015656698  0.015128879            1 
 1386000   0.69723593   -8.2483418    261.07684  0.015697261  0.015116143            3 
 1387000   0.70099841   -8.2276891    260.93312  0.015677308  0.015103429            2 
 1388000   0.69797917   -8.2526973    260.88622  0.015663198  0.015090687            3 
 1389000   0.68970936   -8.2562521    260.78606  0.015645912  0.015077929            2 
 1390000   0.70217931   -8.2542342    260.82683    0.0156371   0.01506515            2 
 1391000   0.69676972    -8.261049    261.07324  0.015640621  0.015052419            1 
 1392000   0.70339527   -8.2699091    260.56145  0.015598746  0.015039696            3 
 1393000   0.69056134   -8.2527358    261.03074  0.015615622  0.015026996            2 
 1394000   0.67222219   -8.2393868    261.44976  0.015629469  0.015014359            4 
 1395000   0.70049494   -8.2333789    261.00823  0.015591889  0.015001735            1 
 1396000    0.6844107    -8.267972    261.21884  0.015593293  0.014989088            3 
 1397000    0.6756539   -8.2648669    260.79098  0.015556608  0.014976397            1 
 1398000    0.6930501   -8.2776161    260.59812  0.015533984  0.014963717            4 
 1399000   0.69799178   -8.2729136    260.92837  0.015542552  0.014951095            4 
 1400000   0.70614887   -8.2707304    261.11273  0.015542425  0.014938469            3 
 1401000    0.6972265   -8.2778693    261.13896  0.015532891  0.014925871            2 
 1402000   0.70110489   -8.2890728    260.96086  0.015511226  0.014913259            2 
 1403000   0.71069968   -8.2718983    260.70215  0.015484804  0.014900636            1 
 1404000   0.69186691   -8.2990507    261.32035  0.015510467  0.014888036            2 
 1405000   0.69836427   -8.2844551    261.15163  0.015489421  0.014875407            1 
 1406000   0.69751508   -8.2866379    260.78528  0.015456691  0.014862799            2 
 1407000   0.69019648   -8.2896381    261.00648  0.015458806  0.014850185            1 
 1408000   0.69796687   -8.2778937    260.98465  0.015446534  0.014837626            2 
 1409000   0.68773468   -8.2929837    261.27136  0.015452529  0.014825115            1 
 1410000   0.70118707     -8.29883    261.21926  0.015438491  0.014812553            3 
 1411000   0.68926864   -8.2791022    261.09154  0.015420006  0.014799957            2 
 1412000   0.70066025   -8.2776105    260.94491  0.015400431  0.014787404            1 
 1413000   0.69813154   -8.2950007    261.26323  0.015408306  0.014774834            2 
 1414000   0.68067007    -8.313642    260.72257  0.015365545  0.014762299            1 
 1415000   0.68054997   -8.2999428    260.82699  0.015360836  0.014749762            2 
 1416000   0.68683803   -8.3041008    261.62747  0.015397097  0.014737242            2 
 1417000   0.69347555   -8.2726767     261.4483  0.015375694  0.014724766            3 
 1418000   0.67824961   -8.2942407    260.66504   0.01531882  0.014712276            2 
 1419000     0.680102   -8.2612744    261.29792  0.015345192  0.014699838            1 
 1420000   0.67501461   -8.2558137    261.05246   0.01531998  0.014687425            2 
 1421000   0.68204435   -8.2791579     261.4298  0.015331328  0.014675061            3 
 1422000    0.6845868   -8.2725227     260.8249  0.015285097   0.01466269            9 
 1423000   0.68491624   -8.2622381      261.247  0.015299075  0.014650329            2 
 1424000   0.67326934   -8.2918387    261.65614  0.015312274  0.014637969            3 
 1425000   0.69205543   -8.2821917    261.26856  0.015278863  0.014625641            3 
 1426000    0.6807441   -8.2700049    260.90312  0.015246793  0.014613334            1 
 1427000   0.69087241    -8.282403    261.67317  0.015281077  0.014600995            3 
 1428000   0.67768934   -8.2704982    261.67248  0.015270336  0.014588669            2 
 1429000   0.67892118   -8.2909108    261.30993  0.015238508  0.014576362            3 
 1430000   0.67230277   -8.2649073    261.26279  0.015225104  0.014564049            5 
 1431000   0.67875404   -8.2749494    261.64786  0.015236889  0.014551764            2 
 1432000   0.67770079   -8.2938514    261.73115  0.015231096  0.014539489            1 
 1433000   0.68294639    -8.296034    261.20361  0.015189789  0.014527177            3 
 1434000   0.69056449   -8.2978549    261.32295  0.015186132  0.014514895            2 
 1435000   0.68506152    -8.295145    261.67918  0.015196236  0.014502609            2 
 1436000   0.68756925    -8.276061     261.3975  0.015169307  0.014490326            1 
 1437000   0.67283835   -8.2722598    261.19453   0.01514698   0.01447807            2 
 1438000   0.68248344   -8.3282003    260.61753   0.01510301  0.014465818            2 
 1439000   0.69210212   -8.2980669    261.75115  0.015158162  0.014453557            3 
 1440000   0.68871517   -8.2932102    261.67123  0.015143011  0.014441324            5 
 1441000   0.67863866   -8.3092746    260.82473  0.015083549  0.014429047            3 
 1442000   0.66996594   -8.2921101     262.0172  0.015142002  0.014416772            5 
 1443000   0.67256412   -8.3274165    261.04745  0.015075505  0.014404524            1 
 1444000   0.68345852   -8.3093451    260.91703  0.015057539  0.014392251            2 
 1445000   0.67646649   -8.3219595    260.84326  0.015042864  0.014379996            1 
 1446000    0.6761866   -8.3311144     260.9217  0.015036981  0.014367736            3 
 1447000   0.68356101   -8.3390737    260.95835    0.0150287  0.014355478            3 
 1448000   0.68576472   -8.3149166    260.95091  0.015017893  0.014343246            2 
 1449000   0.66880671   -8.3048558    260.91444  0.015005431  0.014331066            4 
 1450000   0.68066508   -8.3018035    261.08685  0.015004992  0.014318903            4 
 1451000   0.67221491    -8.332168    261.23966  0.015003427  0.014306735            4 
 1452000   0.67338349   -8.3185221    261.37276  0.015000732  0.014294536            2 
 1453000   0.66018766   -8.3143425    260.79227  0.014957116  0.014282358            1 
 1454000   0.67467533   -8.3142693      260.654  0.014938904  0.014270207            3 
 1455000   0.66763217   -8.3431304    261.67343  0.014987024  0.014258073            2 
 1456000   0.67828291   -8.3192311    261.27176  0.014953741  0.014245912            1 
 1457000   0.66707998   -8.3079357    261.12585  0.014935132  0.014233795            1 
 1458000   0.66732944   -8.3120269    261.12315  0.014924734  0.014221685            2 
 1459000   0.69428329   -8.3243745    261.39818  0.014930214  0.014209592            1 
 1460000   0.66751662   -8.3331649    260.84022  0.014888141  0.014197501            2 
 1461000   0.67067849   -8.3372783    260.82804  0.014877255  0.014185391            1 
 1462000   0.67253039   -8.3408225    261.09825  0.014882481  0.014173306            2 
 1463000   0.67579571   -8.3253895    261.18538  0.014877272  0.014161246            2 
 1464000   0.67050671   -8.3275984    261.16346  0.014865862  0.014149192            1 
 1465000    0.6669135   -8.3033796    261.10718  0.014852513  0.014137138            1 
 1466000   0.67908672   -8.3341002    260.93809   0.01483277  0.014125096            2 
 1467000   0.66579796    -8.333608     261.1518  0.014834799  0.014113057            3 
 1468000   0.66797057   -8.3344754    261.11473  0.014822589  0.014101027            2 
 1469000   0.67244963   -8.3386837     260.9401  0.014802593  0.014088979            1 
 1470000   0.66518516   -8.3624859    260.83035  0.014786301  0.014076927            4 
 1471000   0.67883009    -8.329122    260.74858  0.014771617  0.014064924            1 
 1472000   0.66523756   -8.3461487    261.54634  0.014806745  0.014052972            6 
 1473000   0.64632762   -8.3468097    261.13822  0.014773604  0.014041056            6 
 1474000    0.6723179   -8.3459183     260.9622   0.01475363   0.01402916            1 
 1475000   0.65769674   -8.3113865    261.29668  0.014762525  0.014017284            4 
 1476000   0.67426325    -8.315322    261.07549  0.014740034  0.014005416            3 
 1477000   0.66423757   -8.3541239    261.02879   0.01472742  0.013993521            2 
 1478000   0.66859175   -8.3402898    261.45792  0.014741651  0.013981652            2 
 1479000   0.66508315   -8.3267232    261.65639  0.014742866  0.013969812            3 
 1480000   0.66570065   -8.3402106     261.1734  0.014705709  0.013957989            2 
 1481000   0.66291288   -8.3441813    261.32655  0.014704397  0.013946168            2 
 1482000   0.65724773    -8.352464    261.39018  0.014698053  0.013934357            4 
 1483000   0.67096598   -8.3304537    261.11582  0.014672725  0.013922527            3 
 1484000   0.67377515   -8.3515985    261.41321  0.014679538  0.013910722            2 
 1485000   0.64772954    -8.346112    261.81598  0.014692255  0.013898929            1 
 1486000   0.65102558   -8.3710197    261.76896  0.014679731  0.013887144            1 
 1487000   0.67315073   -8.3458692    261.58148  0.014659352  0.013875373            4 
 1488000   0.65010304   -8.3649051    260.89538  0.014611076  0.013863595            2 
 1489000   0.66767098   -8.3470079    261.09848   0.01461263  0.013851838            2 
 1490000   0.67002309   -8.3896086    260.88251  0.014590745  0.013840087            1 
 1491000   0.67196812   -8.3668249    261.69612  0.014626432  0.013828325            2 
 1492000   0.64244917    -8.366207    261.49556  0.014605426  0.013816575            2 
 1493000   0.65827379   -8.3723973      261.258  0.014582384  0.013804803            1 
 1494000   0.65831449   -8.3793379    261.29556  0.014574719  0.013793061            1 
 1495000   0.66210265   -8.3510329    260.76657  0.014535483  0.013781349            1 
 1496000   0.65692753   -8.3682104    261.73845  0.014579905  0.013769641            3 
 1497000   0.64208403   -8.3532528    260.98773  0.014528375  0.013757947            2 
 1498000   0.65521324   -8.3625499    261.48661  0.014546429  0.013746256            2 
 1499000   0.65447139   -8.3701844    261.00072  0.014509713  0.013734555            4 
 1500000   0.64832685   -8.3844262    261.10999   0.01450611  0.013722879            3 
 1501000   0.66275479   -8.3795811    260.72346  0.014474987  0.013711204            1 
 1502000   0.65532676   -8.3872545    260.51546  0.014453809  0.013699501            3 
 1503000    0.6664775    -8.392155     261.2171  0.014483095  0.013687809            2 
 1504000   0.65799651   -8.3714713    261.22072  0.014473666  0.013676152            1 
 1505000   0.64995658   -8.3818755    261.54215  0.014481847  0.013664493            2 
 1506000   0.67050975   -8.3796577    261.21291  0.014454012  0.013652848            2 
 1507000   0.65853384   -8.3774462    261.43915  0.014456932    0.0136412            2 
 1508000   0.64761308   -8.3813593    261.48456  0.014449854  0.013629561            2 
 1509000   0.65091487   -8.3827684    260.60301  0.014391595  0.013617944            1 
 1510000   0.65083225   -8.4061453    261.16947  0.014413326  0.013606326            3 
 1511000    0.6554273   -8.3605599     261.2321  0.014407241  0.013594718            2 
 1512000   0.64980758     -8.35407    261.36393  0.014404979  0.013583132            2 
 1513000    0.6564213   -8.3523531    261.33652  0.014393948  0.013571577            2 
 1514000   0.65028749   -8.3884834    261.16663   0.01437509  0.013560025            2 
 1515000   0.63453614   -8.3905007    261.53754  0.014386003  0.013548503            1 
 1516000    0.6597127   -8.3617364    261.44307  0.014371321  0.013536989            1 
 1517000   0.65994589   -8.3693428    260.83661  0.014328533  0.013525488            2 
 1518000   0.64539733   -8.3645105    261.07195  0.014332013  0.013513994            5 
 1519000   0.64350283   -8.3898523    261.35368  0.014338034  0.013502498            2 
 1520000   0.64917046   -8.3844169     261.4843  0.014335762  0.013490998            2 
 1521000   0.66000371   -8.3932019    261.45855  0.014324926  0.013479511            2 
 1522000   0.64792734   -8.3792811    261.47552  0.014316443  0.013468049            2 
 1523000   0.65164888   -8.4056617     261.7064  0.014319676  0.013456574            4 
 1524000    0.6511474   -8.3945333    260.70441   0.01425549  0.013445098            1 
 1525000   0.65139126   -8.3821044     261.4154  0.014284994  0.013433646            1 
 1526000   0.63569184   -8.3856791    261.29382  0.014268994  0.013422192            2 
 1527000   0.65665877   -8.3965125    261.49386  0.014270566  0.013410759            1 
 1528000   0.63853422   -8.3977623    261.02126  0.014235452  0.013399343            2 
 1529000   0.63750687   -8.3924617    260.90641  0.014219883  0.013387918            1 
 1530000    0.6405727   -8.3897501    260.99401   0.01421536  0.013376499            1 
 1531000   0.62880416    -8.369828    261.33627  0.014224704  0.013365105            4 
 1532000   0.63179591   -8.3712656    261.18639  0.014207266  0.013353693            1 
 1533000   0.63530731   -8.3982932    261.20457  0.014198987  0.013342281            1 
 1534000    0.6323201    -8.413337    261.36341   0.01419836  0.013330897            5 
 1535000   0.65216228    -8.417583    261.49009  0.014195987  0.013319494            1 
 1536000   0.62707449   -8.4150848    261.07341  0.014164139  0.013308098            2 
 1537000   0.63709775   -8.4059912    260.98136  0.014149933  0.013296714            1 
 1538000   0.65668606   -8.4049162    261.19153   0.01415212  0.013285359            1 
 1539000    0.6381498   -8.4060467    260.57505  0.014109544  0.013274001            1 
 1540000   0.64479363   -8.4109161    260.86684  0.014116171  0.013262649            1 
 1541000    0.6363237   -8.4102687    260.25319  0.014073826  0.013251282            3 
 1542000   0.64848613   -8.3891108    260.57154  0.014081903  0.013239927            1 
 1543000   0.63399993   -8.4178304    260.70016  0.014079723   0.01322859            1 
 1544000   0.63696891   -8.4220576    260.91715  0.014082316  0.013217238            2 
 1545000   0.63677545   -8.4035607    261.00604  0.014077996  0.013205887            2 
 1546000    0.6162666   -8.4253967    260.22809  0.014026956  0.013194545            6 
 1547000    0.6440797    -8.420184    260.81089  0.014049283  0.013183205            1 
 1548000   0.62776307   -8.4277523     260.5265  0.014024898  0.013171896            2 
 1549000   0.64013991   -8.4107835    261.01439  0.014042091  0.013160622            2 
 1550000   0.64637414   -8.4056519    260.61451  0.014011533  0.013149332            3 
 1551000   0.63593654   -8.4316699     260.2982  0.013985504  0.013138044            2 
 1552000   0.64096037   -8.4225117    260.72485  0.013999401  0.013126751            2 
 1553000   0.62345979   -8.4160689    261.03447  0.014007001  0.013115484            2 
 1554000   0.63468701   -8.4415098    260.77533  0.013984091  0.013104232            3 
 1555000   0.63671536    -8.442994    260.38773  0.013954326  0.013092973            1 
 1556000   0.62377667   -8.4321388    260.41322  0.013946723  0.013081731            1 
 1557000   0.63994385   -8.4384046    261.09085  0.013974034  0.013070481            1 
 1558000   0.63689524   -8.4457522    260.91444  0.013955629  0.013059241            2 
 1559000   0.63459142   -8.4101742    260.37146  0.013917653  0.013048028            2 
 1560000   0.62964493   -8.4308245    260.28185  0.013903945  0.013036822            2 
 1561000   0.63561384    -8.437243    260.40349  0.013901532  0.013025628            5 
 1562000   0.62718001   -8.4411594    260.59034    0.0139026  0.013014441            2 
 1563000   0.62838066   -8.4227846    260.55411  0.013891774  0.013003281            4 
 1564000   0.63373562   -8.4589501     260.7222  0.013891848  0.012992123            3 
 1565000   0.62442603    -8.447289    260.80186  0.013887213  0.012980958            4 
 1566000   0.64227932   -8.4223837     260.5796  0.013866518  0.012969812            2 
 1567000    0.6383244   -8.4402046    260.70631  0.013864407  0.012958682            2 
 1568000   0.62831003   -8.4159695    260.71897  0.013856238  0.012947577            3 
 1569000   0.62228931   -8.4365151    260.73307  0.013848156   0.01293649            4 
 1570000   0.63691058   -8.4395871    261.04418  0.013855848  0.012925428            2 
 1571000   0.63585194    -8.437263    261.24355  0.013857604  0.012914367            4 
 1572000   0.62288386   -8.4375028    260.58852  0.013814065  0.012903322            3 
 1573000    0.6181755   -8.4335082    260.69696  0.013811028  0.012892294            4 
 1574000   0.62370882   -8.4230557    260.91061  0.013813565   0.01288124            2 
 1575000   0.65545498   -8.4561878    260.85919  0.013802074  0.012870205            4 
 1576000   0.62374935   -8.4463718    260.24481   0.01376083  0.012859173            3 
 1577000   0.62527829   -8.4314279    260.73727  0.013778127  0.012848161            3 
 1578000   0.61874058   -8.4403185    260.44683  0.013754058  0.012837142            4 
 1579000   0.62283867   -8.4427609    260.61082  0.013754002  0.012826123            4 
 1580000   0.62457222    -8.447679     259.8708  0.013706266  0.012815112            3 
 1581000   0.61099709   -8.4323775    260.67044  0.013739745  0.012804122            2 
 1582000   0.61622797   -8.4454889    260.11307    0.0137017  0.012793153            3 
 1583000   0.62944373   -8.4399034    260.55371  0.013716241  0.012782193            4 
 1584000   0.62054539   -8.4337058    260.47601  0.013703494  0.012771233            3 
 1585000   0.62219952   -8.4459618     260.3561  0.013688543  0.012760295            1 
 1586000   0.62287998   -8.4475187     260.6573  0.013695739  0.012749364            2 
 1587000   0.61752115   -8.4620301    260.64149  0.013686279  0.012738446            2 
 1588000   0.62045641   -8.4423716    260.10205  0.013649352  0.012727556            2 
 1589000   0.61651053   -8.4431791    260.61978  0.013667914  0.012716683            1 
 1590000   0.62689974   -8.4778673    260.40526  0.013648074  0.012705805            3 
 1591000   0.62111928   -8.4556053    260.32704  0.013635399  0.012694944            1 
 1592000    0.6167239   -8.4733843    260.10443  0.013615182  0.012684064            6 
 1593000   0.61563614   -8.4589039    260.48703  0.013626649  0.012673205            1 
 1594000   0.62240326   -8.4484642    260.52038  0.013619844  0.012662358            3 
 1595000   0.61238417   -8.4695411    260.50151  0.013610319  0.012651509            2 
 1596000   0.61532324   -8.4763632    260.18138  0.013585076  0.012640678            2 
 1597000   0.61805435   -8.4735489    260.05292  0.013569867  0.012629826            2 
 1598000   0.63029224    -8.449136    260.39845  0.013579393  0.012618989            2 
 1599000   0.61096661   -8.4653066    260.39041  0.013570482  0.012608169            5 
 1600000   0.62544374   -8.4749113    260.55441  0.013570542  0.012597358            4 
 1601000   0.61785382   -8.4771575    260.38449  0.013553221  0.012586538            3 
 1602000   0.61315745   -8.4706319    260.01192  0.013525381  0.012575754            3 
 1603000   0.61122762   -8.4609833    260.59413   0.01354721  0.012564986            6 
 1604000   0.60835228   -8.4696938    260.00432  0.013508121  0.012554214            1 
 1605000   0.61705081    -8.497921    260.07518  0.013503384  0.012543419            2 
 1606000   0.61197005   -8.4669757      260.644  0.013524492  0.012532624            4 
 1607000   0.62058683   -8.4809293    260.16262  0.013491113  0.012521856            1 
 1608000   0.62416103   -8.4826477     260.5073  0.013500586  0.012511111            4 
 1609000   0.61742631   -8.4742109    260.12046   0.01347216  0.012500371            4 
 1610000   0.60360679   -8.4779248    260.03339  0.013459285  0.012489628            3 
 1611000   0.61791934     -8.48336     260.2865  0.013464023  0.012478895            3 
 1612000   0.60985102   -8.4930109    260.10951  0.013446521  0.012468173            3 
 1613000   0.61283126   -8.5007463    259.96223  0.013430576   0.01245745            3 
 1614000   0.61740097   -8.4707598    260.06505  0.013427564  0.012446752            2 
 1615000   0.61130952   -8.5094307    259.60239  0.013395376  0.012436051            1 
 1616000   0.59841442   -8.5133237    259.72842  0.013393586  0.012425357            3 
 1617000   0.60650692   -8.4968872    260.59541  0.013429984  0.012414675            4 
 1618000   0.60497701   -8.4748686    260.18276  0.013400431  0.012403994            3 
 1619000   0.61199884   -8.5002755    260.07459  0.013386586  0.012393331            3 
 1620000   0.60568814   -8.4990962    260.36351  0.013393185  0.012382685            1 
 1621000    0.6096807   -8.5024395     260.1859  0.013375792  0.012372044            5 
 1622000   0.60164968   -8.5183695    259.93947  0.013354884  0.012361402            5 
 1623000     0.601241   -8.4894184    259.99871  0.013349698  0.012350769            2 
 1624000   0.60610406   -8.4903152    259.55739  0.013318831  0.012340141            4 
 1625000   0.60196507   -8.4784336    260.07726  0.013337295  0.012329534            4 
 1626000   0.61206563   -8.5057959    259.92387  0.013321231  0.012318931            5 
 1627000   0.60712425   -8.4645955    260.10751   0.01332245  0.012308347            3 
 1628000   0.60445992   -8.4831083    260.30603  0.013324428  0.012297774            6 
 1629000   0.59693443   -8.5065368    260.03974  0.013302626  0.012287216            7 
 1630000   0.60415065   -8.5022955    259.95125  0.013289941  0.012276674            3 
 1631000   0.59968661   -8.5128512    259.99195  0.013283872  0.012266136            3 
 1632000   0.60296517   -8.5092504    259.89694  0.013270881  0.012255605            5 
 1633000   0.59222242   -8.4784035     259.5445   0.01324477  0.012245065            3 
 1634000   0.60146066   -8.4829422    260.25406  0.013272851  0.012234539            7 
 1635000   0.59363925    -8.495692    259.94943  0.013249206   0.01222403            4 
 1636000   0.60632062   -8.5106582    259.69735  0.013228268  0.012213528            2 
 1637000   0.59429877   -8.5147513    259.84197  0.013227549  0.012203037            2 
 1638000    0.6022902   -8.5306219    260.02209  0.013228637  0.012192559            2 
 1639000   0.59500069   -8.5029608     260.1798  0.013228585  0.012182091            2 
 1640000   0.59541555   -8.4971747    259.86843  0.013204697  0.012171635            3 
 1641000   0.59541219   -8.4960363    259.84164   0.01319529  0.012161195            2 
 1642000   0.59890416   -8.5195973    259.89959  0.013190195  0.012150758            5 
 1643000    0.6095444   -8.5174953    259.85413  0.013179861   0.01214032            1 
 1644000   0.60286308   -8.5319978    260.11742   0.01318519  0.012129896            2 
 1645000   0.59288614   -8.5185651    260.02836  0.013172663  0.012119474            2 
 1646000   0.60350386   -8.5044698    259.47871  0.013136832   0.01210906            6 
 1647000   0.58089488   -8.5205795    259.56586  0.013133266  0.012098655            2 
 1648000   0.60258698   -8.5132762    259.50327  0.013122131  0.012088245            1 
 1649000   0.58081064   -8.5071031    259.31061  0.013104438  0.012077866            3 
 1650000   0.59411968   -8.5107624    259.71034  0.013116684  0.012067505            2 
 1651000   0.59248857     -8.51568    260.08513  0.013127657  0.012057158            2 
 1652000   0.59601382   -8.5096491    260.04021  0.013117444  0.012046824            5 
 1653000   0.59562665    -8.517897    259.80969  0.013097887  0.012036496            3 
 1654000   0.59169823   -8.5229476    260.33441  0.013116405  0.012026179            2 
 1655000   0.58522416   -8.5027564    260.02603  0.013092952  0.012015849            1 
 1656000   0.58336501   -8.5379168    259.62479  0.013064855   0.01200554            2 
 1657000   0.60154234   -8.5027692    259.83485  0.013067534  0.011995233            2 
 1658000    0.5950825    -8.506704    259.53501  0.013044582  0.011984942            2 
 1659000   0.58175705   -8.5048875    259.59646  0.013039806  0.011974674            1 
 1660000   0.57823116   -8.5404509    259.60438  0.013032349  0.011964411            2 
 1661000   0.59837887   -8.5117199    259.78492   0.01303356  0.011954146            1 
 1662000   0.58492077   -8.5078811    260.02714  0.013037863  0.011943912            2 
 1663000   0.57509524   -8.5159082    259.97686  0.013027503  0.011933684            2 
 1664000   0.58789441   -8.5301287    259.52506  0.012997048   0.01192346            1 
 1665000   0.58244231   -8.4987987    259.75966  0.013000984  0.011913242            2 
 1666000   0.59191386   -8.5062292    260.17448   0.01301393  0.011903055            3 
 1667000   0.58779558   -8.5323782    260.29431  0.013012113  0.011892878            2 
 1668000    0.5828716   -8.5067044    260.10617  0.012994913  0.011882694            2 
 1669000   0.60015582    -8.508563     260.1061  0.012987123  0.011872528            2 
 1670000   0.60127482   -8.5062256    259.75725  0.012961939  0.011862383            1 
 1671000   0.57562714    -8.517244    259.75482  0.012954061  0.011852257            1 
 1672000   0.59055606   -8.5167809    260.01723  0.012959391  0.011842132            2 
 1673000   0.58666992   -8.5193828    259.60318  0.012931021  0.011832006            1 
 1674000   0.58814341   -8.5242989    260.18081  0.012952052  0.011821894            1 
 1675000   0.59425786   -8.5264626    260.40136  0.012955292  0.011811792            2 
 1676000   0.57066462   -8.5135884    259.65632  0.012910517    0.0118017            4 
 1677000   0.58882256   -8.5283636    259.81446  0.012910677  0.011791624            3 
 1678000   0.58932244   -8.5302246     259.4324  0.012884009  0.011781545            2 
 1679000   0.58789343   -8.5092491    259.53753  0.012881553  0.011771475            3 
 1680000   0.58445907   -8.5243041    259.90764  0.012892244  0.011761421            3 
 1681000   0.58758653   -8.5259014    259.64103  0.012871358  0.011751359            4 
 1682000   0.57904259   -8.5212884    259.71705  0.012867472  0.011741328            2 
 1683000   0.57994141   -8.5309886    259.88193   0.01286799  0.011731297            3 
 1684000   0.58822611   -8.5414734    259.71447  0.012852062  0.011721255            1 
 1685000   0.57253476   -8.5108704    260.06645  0.012861842  0.011711236            1 
 1686000   0.58840646   -8.5267723     259.5598  0.012829172  0.011701233            2 
 1687000    0.5771449   -8.5074169    259.44243  0.012815769  0.011691233            3 
 1688000   0.58092937   -8.5205324    259.47019  0.012809547  0.011681234            2 
 1689000   0.58222331   -8.5314992     260.3852  0.012847109  0.011671256            1 
 1690000    0.5817162   -8.5500238    259.33584  0.012787763  0.011661283            1 
 1691000   0.58000761   -8.5668343    259.87736  0.012806888  0.011651305            2 
 1692000   0.57490902   -8.5374045    259.43835  0.012777697  0.011641334            2 
 1693000   0.58626243   -8.5204234    259.74781  0.012785382  0.011631385            3 
 1694000     0.570789   -8.5428497    260.04688  0.012792546  0.011621438            3 
 1695000   0.57793758   -8.5329349    259.54768  0.012760456  0.011611497            4 
 1696000   0.57410026   -8.5467659     259.4068   0.01274601  0.011601578            1 
 1697000   0.56995992   -8.5585363    259.74948  0.012755327  0.011591657            3 
 1698000    0.5781044   -8.5515784    259.53262  0.012737172  0.011581754            1 
 1699000    0.5705517   -8.5408155    258.87544  0.012697442  0.011571861            2 
 1700000    0.5688986   -8.5545529    259.45295  0.012718282  0.011561961            1 
 1701000   0.55871406   -8.5397602    259.29431  0.012703033  0.011552066            1 
 1702000   0.57066297   -8.5487906    259.51985  0.012706613  0.011542179            5 
 1703000   0.58006841   -8.5603732    258.62641  0.012655432  0.011532303            2 
 1704000   0.56510485   -8.5430969    259.06412  0.012669411  0.011522444            2 
 1705000   0.58077406   -8.5589674    259.31535  0.012674259  0.011512585            2 
 1706000    0.5796364   -8.5615945    259.59333  0.012680409  0.011502728            1 
 1707000   0.57433787   -8.5565251    259.14354  0.012651022  0.011492877            2 
 1708000   0.56508227   -8.5848098    258.92555   0.01263298  0.011483027            4 
 1709000   0.57469747   -8.5573865    259.63396  0.012660131  0.011473191            5 
 1710000   0.56899766    -8.560194    259.48302  0.012645371  0.011463377            2 
 1711000   0.56867487   -8.5671222    258.84238  0.012606779  0.011453557            2 
 1712000   0.58192663   -8.5618572    258.98522  0.012606368  0.011443743            2 
 1713000   0.56007025    -8.560529    259.14597  0.012606829  0.011433948            1 
 1714000   0.56877918   -8.5647915    259.67453  0.012625172  0.011424153            2 
 1715000   0.57344192   -8.5466821    259.75925  0.012621927  0.011414387            2 
 1716000   0.57934272   -8.5630218    258.86556  0.012571171  0.011404616            1 
 1717000   0.57088047   -8.5608753    258.88863   0.01256497  0.011394859            3 
 1718000   0.57528037    -8.596622    259.26746  0.012576031  0.011385106            1 
 1719000   0.57132324    -8.578723    259.22397  0.012566607  0.011375369            2 
 1720000   0.57069551   -8.5573131    259.27044  0.012561552  0.011365636            1 
 1721000   0.56032845   -8.5765159     258.9925  0.012540795  0.011355913            2 
 1722000   0.56871506   -8.5765995    259.36701  0.012551636  0.011346199            1 
 1723000   0.56181662   -8.5874742    259.26208  0.012539277  0.011336493            3 
 1724000    0.5577496   -8.5704822    258.83526  0.012511372  0.011326794            3 
 1725000   0.56232456   -8.5647139    258.84673  0.012504673  0.011317085            1 
 1726000   0.56546509   -8.5814555    258.70863   0.01249076  0.011307394            3 
 1727000   0.55606858   -8.5925921    259.09294  0.012502072  0.011297713            1 
 1728000   0.57316286   -8.5560639     258.7962  0.012480527  0.011288039            5 
 1729000    0.5585034   -8.5976383    258.50133  0.012459096  0.011278372            2 
 1730000   0.55946545   -8.5795191    259.29639  0.012490192  0.011268705            2 
 1731000   0.55920922   -8.5715936    259.28899   0.01248262  0.011259062            7 
 1732000    0.5588972   -8.5558361      259.186  0.012470458   0.01124942            3 
 1733000   0.56010957   -8.5655964     259.1302  0.012460579  0.011239805            3 
 1734000   0.55723496   -8.5699248    258.52154  0.012424142  0.011230193            1 
 1735000   0.57696612   -8.5655072     258.9704   0.01243854  0.011220595            3 
 1736000   0.54789819   -8.5715601    258.95807  0.012430783  0.011210994            2 
 1737000   0.55488115   -8.5801445     259.0193  0.012426564  0.011201398            3 
 1738000   0.55245765   -8.5852175    259.17064  0.012426671   0.01119182            3 
 1739000   0.55363139     -8.58479    258.64779   0.01239447  0.011182252            2 
 1740000   0.55621063   -8.6019788     258.8204  0.012395613  0.011172685            2 
 1741000   0.55595126   -8.6057108    258.89709  0.012392164  0.011163118            2 
 1742000   0.55307478   -8.5918128    259.21894  0.012400447  0.011153565            2 
 1743000   0.55902332   -8.5822488    259.08035  0.012386707  0.011144027            1 
 1744000   0.56073508   -8.5833354    259.25307  0.012387857  0.011134499            2 
 1745000   0.55251681   -8.5864883    258.82502  0.012360316  0.011124981            4 
 1746000   0.55995727   -8.5909572     258.9282  0.012358162  0.011115469            3 
 1747000   0.54761443    -8.591546     258.3994  0.012325863  0.011105977            4 
 1748000   0.55859079   -8.5865666    258.60604  0.012328663  0.011096483            3 
 1749000   0.55807757   -8.6041996    259.21728  0.012350738  0.011087008            1 
 1750000   0.55625311   -8.5803902    258.72299  0.012320143  0.011077536            2 
 1751000    0.5470472     -8.57277    258.34064   0.01229491  0.011068082            2 
 1752000   0.55488053   -8.6040055     258.5618  0.012298411  0.011058625            2 
 1753000   0.54509882   -8.6021233     258.6776  0.012296901   0.01104917            1 
 1754000   0.55153822   -8.5975519    258.51314  0.012282076  0.011039736            1 
 1755000   0.55507643    -8.584666    258.43065  0.012271161  0.011030314            2 
 1756000   0.54127761   -8.5738223    258.90594  0.012286728  0.011020898            1 
 1757000   0.55099961   -8.6113308    258.94337  0.012281511  0.011011496            2 
 1758000   0.54218594   -8.5931808    258.86431  0.012270777  0.011002089            1 
 1759000   0.55047947   -8.5813014    259.18983  0.012279223  0.010992706            1 
 1760000   0.55142275   -8.6093706    258.48249  0.012238754  0.010983331            1 
 1761000   0.55192529   -8.5909013    258.43263  0.012229445  0.010973958            2 
 1762000   0.52733849   -8.5880034     258.4854     0.012225  0.010964601            1 
 1763000   0.54640086   -8.5864157    258.65437  0.012226052   0.01095525            3 
 1764000   0.55745617   -8.6034895    259.04539  0.012237594  0.010945903            3 
 1765000   0.56489757   -8.6024243    258.78293  0.012218269  0.010936575            2 
 1766000   0.55734355   -8.5973078     258.5103  0.012198485  0.010927259            1 
 1767000   0.53947937   -8.5992159     258.5721  0.012194496   0.01091795            1 
 1768000   0.54285405   -8.6025475    258.49725  0.012184071  0.010908639            1 
 1769000   0.53633231   -8.6110557    258.55743  0.012180018  0.010899331            3 
 1770000   0.54524131   -8.6121857    258.55386  0.012172969   0.01089004            1 
 1771000     0.553397   -8.6094287    258.56768  0.012166746  0.010880766            2 
 1772000   0.53427276   -8.6014319    258.14475   0.01213999  0.010871488            2 
 1773000    0.5690384   -8.6337433    258.84859  0.012166225  0.010862233            1 
 1774000   0.54068283   -8.6262909    258.50492  0.012143222  0.010852972            3 
 1775000   0.54350591   -8.5890855    258.96744  0.012158096  0.010843734            2 
 1776000   0.53948845   -8.6002836    258.68155  0.012137835  0.010834507            2 
 1777000   0.54704526   -8.6105567    258.29074  0.012112678  0.010825273            3 
 1778000   0.54900344   -8.5979117    258.46217    0.0121139  0.010816056            4 
 1779000   0.55246074   -8.6150382    258.86058  0.012125753  0.010806857            2 
 1780000   0.54935754    -8.605202    258.80725  0.012116444  0.010797677            1 
 1781000   0.54498425   -8.5972686     258.3475  0.012088129  0.010788486            3 
 1782000   0.53929955   -8.6175993    258.76716  0.012100971  0.010779311            1 
 1783000   0.53688116   -8.6154525    258.60694  0.012086696  0.010770151            1 
 1784000   0.52936176   -8.6176263    258.54362  0.012076963  0.010760999            1 
 1785000   0.54836914   -8.6208324    258.40953  0.012063937  0.010751864            2 
 1786000   0.52985364   -8.6347128    258.09607  0.012042556  0.010742734            1 
 1787000   0.54529889    -8.613748    258.86671  0.012071755  0.010733613            2 
 1788000   0.54305472   -8.6150069    258.82619  0.012063115  0.010724505            2 
 1789000   0.54645072    -8.608328    258.52631  0.012042403  0.010715404            3 
 1790000   0.54903685   -8.6238281    258.22277  0.012021544  0.010706311            2 
 1791000   0.54123321   -8.6324241    258.79859  0.012041625  0.010697214            3 
 1792000   0.52762058   -8.6242047    258.47952  0.012020067  0.010688124            3 
 1793000   0.53031003   -8.6247034    258.42411  0.012010788  0.010679053            1 
 1794000   0.53854551   -8.6252283    258.10174  0.011989118  0.010669982            1 
 1795000   0.54911488      -8.6336      258.751  0.012012581  0.010660931            1 
 1796000   0.53957571   -8.6229016    258.66082  0.012001709   0.01065188            2 
 1797000   0.54044255   -8.6259408    258.02624  0.011965602  0.010642841            2 
 1798000   0.53878474   -8.6095223    258.48139  0.011980042  0.010633816            1 
 1799000   0.52901934   -8.6285923    258.32256  0.011966026  0.010624802            1 
 1800000    0.5278464   -8.6376771    258.45363  0.011965446  0.010615781            3 
 1801000   0.53215264   -8.6200932    258.35119  0.011954062  0.010606772            1 
 1802000   0.54447061   -8.6525906    258.15207   0.01193822  0.010597784            2 
 1803000   0.53587534   -8.6305226    258.25728  0.011936461  0.010588794            1 
 1804000   0.54127312   -8.6316135    258.19784  0.011927099  0.010579829            1 
 1805000   0.54338391    -8.617363    258.09543  0.011915763  0.010570863            2 
 1806000    0.5445888   -8.6267654    258.25902  0.011916714  0.010561916            4 
 1807000   0.53331732   -8.6381015    257.99597  0.011897988  0.010552954            2 
 1808000   0.53767917   -8.6355225    258.25279  0.011903244  0.010544015            1 
 1809000   0.53699913   -8.6235988    258.54029  0.011909908  0.010535079            3 
 1810000   0.53898477   -8.6355749    257.84209  0.011871183  0.010526143            5 
 1811000   0.53455965   -8.6255683    257.98893  0.011871384  0.010517223            1 
 1812000   0.53430055   -8.6334591    258.41768  0.011884551  0.010508316            5 
 1813000   0.53260665    -8.648107    258.33291    0.0118741  0.010499415            3 
 1814000   0.50913644   -8.6326406    258.60383  0.011879999  0.010490533            1 
 1815000   0.52723573   -8.6366858    258.32483  0.011860644  0.010481658            2 
 1816000   0.53857322    -8.631275    258.29763  0.011852865  0.010472793            4 
 1817000   0.52583355   -8.6399402     258.2013  0.011841924  0.010463937            1 
 1818000   0.51926867   -8.6300309    258.30004  0.011839936  0.010455089            2 
 1819000   0.52566704   -8.6351572    257.69487  0.011805702   0.01044625            1 
 1820000   0.53120865   -8.6292672    258.48798   0.01183553  0.010437407            2 
 1821000    0.5344534   -8.6588892    258.29875  0.011820371  0.010428584            1 
 1822000   0.52721986    -8.626166    257.80493  0.011791297  0.010419765            4 
 1823000    0.5222298   -8.6496388    258.11963  0.011799215  0.010410959            3 
 1824000    0.5086623   -8.6338655    258.26185  0.011799244  0.010402159            2 
 1825000   0.52331522   -8.6561143    257.77957  0.011770757  0.010393376            2 
 1826000   0.52124963   -8.6476207    257.89912  0.011769767  0.010384585            1 
 1827000   0.52221591   -8.6635086    257.90733  0.011763699   0.01037581            4 
 1828000   0.52225838    -8.639376     258.4874  0.011783707  0.010367045            2 
 1829000   0.53102875   -8.6453006    258.02095  0.011756012  0.010358286            1 
 1830000   0.52451998   -8.6511512    258.22132  0.011758712  0.010349546            2 
 1831000   0.51160364   -8.6446149    257.94059  0.011739513  0.010340806            2 
 1832000   0.53621394   -8.6443826    257.83279  0.011728202  0.010332081            1 
 1833000   0.51383018   -8.6446181    257.93922  0.011726642   0.01032336            2 
 1834000   0.52283933   -8.6436105    258.06823   0.01172611  0.010314645            2 
 1835000   0.51692946   -8.6242625    258.01134  0.011717136  0.010305939            2 
 1836000   0.50894907   -8.6522425     257.9061  0.011705977  0.010297242            2 
 1837000   0.51226022   -8.6448765     257.8619    0.0116976  0.010288556            1 
 1838000   0.52007652   -8.6489817    258.16496  0.011704976  0.010279862            4 
 1839000   0.50961146   -8.6503386    258.13836  0.011697406  0.010271201            2 
 1840000   0.50995459   -8.6535899    257.98322  0.011684023  0.010262549            2 
 1841000   0.50644446   -8.6560704    257.86357   0.01167226  0.010253899            2 
 1842000   0.52044452   -8.6653656    258.29041  0.011685234  0.010245255            1 
 1843000   0.52712845   -8.6542523    258.21192  0.011675345  0.010236622            2 
 1844000   0.51917253   -8.6568208    257.62968  0.011642701  0.010227999            1 
 1845000    0.5088922   -8.6593016    257.55448  0.011632993  0.010219385            2 
 1846000    0.5264538   -8.6619272    257.89431  0.011642033  0.010210777            2 
 1847000   0.51092055   -8.6595165    257.84055  0.011633304  0.010202179            3 
 1848000   0.51114482   -8.6611249    257.84483  0.011627202  0.010193588            2 
 1849000   0.51470952   -8.6477878    258.19077  0.011636505  0.010185005            1 
 1850000    0.5113495   -8.6749943    257.79881  0.011612559  0.010176431            1 
 1851000    0.5059246   -8.6562098    258.02343  0.011616398  0.010167859            2 
 1852000   0.51678569   -8.6517665    257.77281  0.011598848  0.010159308            1 
 1853000   0.51015355   -8.6617659    258.06402  0.011605685  0.010150767            2 
 1854000   0.50525946   -8.6725943    257.93239  0.011593509  0.010142238            1 
 1855000    0.5082071   -8.6502758    257.91892  0.011586654  0.010133711            1 
 1856000   0.52829538   -8.6714638    257.75133  0.011572887  0.010125196            1 
 1857000   0.51511087   -8.6708055     258.0851  0.011581633  0.010116682            1 
 1858000   0.51234423     -8.67096    258.10108  0.011576116  0.010108193            2 
 1859000   0.50863011   -8.6761165    257.79031  0.011555958  0.010099694            2 
 1860000   0.51231809   -8.6660942    257.65301  0.011543594  0.010091218            1 
 1861000   0.50958257   -8.6558379    258.03441  0.011554469  0.010082744            2 
 1862000   0.51280186   -8.6499262    257.93555  0.011543839  0.010074284            2 
 1863000    0.4919281   -8.6549707     257.7351  0.011528677  0.010065832            2 
 1864000   0.49886892   -8.6750293    258.11648  0.011539542  0.010057374            2 
 1865000    0.5087938   -8.6645875    257.80119  0.011519267  0.010048936            2 
 1866000   0.50632454   -8.6626842    257.80348  0.011513196  0.010040512            1 
 1867000   0.51323551   -8.6554421      257.722  0.011503392  0.010032082            1 
 1868000   0.51191945   -8.6545127    257.75321  0.011498627  0.010023665            4 
 1869000   0.49285109   -8.6559968    257.56074  0.011483893  0.010015258            2 
 1870000     0.505259   -8.6756202    257.56865  0.011478104  0.010006851            1 
 1871000   0.50371765   -8.6511291    258.17098  0.011498796 0.0099984582            3 
 1872000   0.49578397   -8.6695416    257.50712  0.011463102 0.0099900731            2 
 1873000    0.4963966   -8.6912765    257.76217  0.011468329 0.0099816973            1 
 1874000   0.50348262   -8.6670695    257.56278  0.011453343 0.0099733261            3 
 1875000   0.50283419   -8.6856442    257.86662  0.011460739 0.0099649631            2 
 1876000   0.49270793   -8.6749734    257.88724  0.011455545 0.0099566131            1 
 1877000   0.49777644   -8.6729824    257.83734  0.011447227  0.009948275            2 
 1878000   0.50725797   -8.6831326    257.80966  0.011439903 0.0099399538            2 
 1879000   0.49690329   -8.6751116    257.73118  0.011430334 0.0099316245            2 
 1880000   0.50678844   -8.6741925    257.71791  0.011423666 0.0099233038            1 
 1881000   0.50379315   -8.6634988    258.07181  0.011433272 0.0099149984            2 
 1882000   0.51534138   -8.6943133    257.50401  0.011402055 0.0099067016            1 
 1883000   0.49813605   -8.6898838    257.52364  0.011396868   0.00989841            2 
 1884000   0.50247225   -8.6717647    257.24699  0.011378583 0.0098901213            1 
 1885000   0.49832172   -8.6838336    257.94188  0.011403266 0.0098818505            1 
 1886000    0.4949086    -8.661361    257.45138  0.011375547 0.0098735862            3 
 1887000   0.50086811   -8.6890973     257.5346  0.011373194 0.0098653356            3 
 1888000   0.50425372   -8.6808751    258.35143  0.011403224 0.0098570948            1 
 1889000    0.4981786   -8.6788536    257.61166  0.011364552 0.0098488632            3 
 1890000    0.5042171    -8.674196    257.08958   0.01133552 0.0098406298            2 
 1891000   0.48826129   -8.6969959    257.21966  0.011335257  0.009832409            2 
 1892000   0.50985009    -8.688835    257.57942  0.011345112 0.0098242013            2 
 1893000   0.49560626   -8.7041176     257.2862  0.011326211 0.0098159989            2 
 1894000   0.49427987   -8.6998155    257.88788  0.011346704 0.0098078064            2 
 1895000   0.50366331    -8.693359     257.6039  0.011328228 0.0097996191            2 
 1896000   0.48684143   -8.6836187    257.80197  0.011330959  0.009791435            2 
 1897000   0.50077578   -8.7158596    257.60157  0.011316182 0.0097832729            1 
 1898000   0.49472517   -8.7016514    257.37062   0.01130008 0.0097751184            1 
 1899000   0.49825865   -8.6844141    257.52186  0.011300766 0.0097669586            1 
 1900000   0.49649272   -8.6911113    257.27932  0.011284181  0.009758822            2 
 1901000   0.49649521    -8.708931     257.4738   0.01128677 0.0097506889            2 
 1902000   0.49767287   -8.6783609    257.54155  0.011283804 0.0097425712            1 
 1903000   0.49691769   -8.6889757    257.77225  0.011287977 0.0097344534            3 
 1904000   0.49684103   -8.6958329    257.60095  0.011274551 0.0097263479            3 
 1905000   0.47859055    -8.691739     257.3706  0.011258556 0.0097182502            2 
 1906000   0.47941849    -8.701007    257.68738    0.0112665 0.0097101582            2 
 1907000    0.4985026   -8.6912186    257.50602  0.011252667 0.0097020783            2 
 1908000   0.48070566   -8.6966429    257.25163  0.011235658 0.0096940022            1 
 1909000   0.49151487   -8.7049899     257.2437  0.011229427 0.0096859389            1 
 1910000    0.5101309   -8.6986152    257.63891   0.01124079 0.0096778844            2 
 1911000   0.47669506   -8.6980313     257.2052  0.011215995 0.0096698382            1 
 1912000   0.49032117   -8.6944149    257.45319  0.011220938 0.0096617955            2 
 1913000   0.49210259   -8.6920193    257.70869  0.011226202 0.0096537716            2 
 1914000   0.49581222   -8.6940037      257.636  0.011217172 0.0096457484            3 
 1915000   0.49258301   -8.6969559    257.75912  0.011216672 0.0096377294            1 
 1916000   0.49273246   -8.7171514    257.57448  0.011202787 0.0096297214            2 
 1917000   0.49159494   -8.6908397    257.44497  0.011191313 0.0096217244            1 
 1918000   0.49118906   -8.7039338    257.36816  0.011182141 0.0096137398            2 
 1919000   0.48655518   -8.6996255    257.28984  0.011172913 0.0096057635            2 
 1920000    0.4814548   -8.7069379    257.47591   0.01117517 0.0095977925            2 
 1921000   0.47601067   -8.6835753    257.27184    0.0111605 0.0095898346            2 
 1922000   0.47865528   -8.6922765    257.97026  0.011184975  0.009581884            1 
 1923000   0.49390887   -8.7086565    257.29108  0.011149726 0.0095739375            2 
 1924000   0.49325709   -8.6939708    257.10501  0.011135872 0.0095659947            1 
 1925000   0.47940828   -8.7054509    257.54067  0.011148947 0.0095580616            1 
 1926000    0.4858079   -8.6913082    257.23446  0.011129909 0.0095501367            1 
 1927000   0.48612303   -8.7021369    257.68288  0.011143525 0.0095422242            2 
 1928000   0.47735554   -8.7013147    257.10498  0.011112767 0.0095343203            2 
 1929000   0.48737834   -8.7048373    257.38182  0.011118966 0.0095264283            1 
 1930000   0.48382142   -8.7142223    257.32741  0.011110856 0.0095185348            2 
 1931000   0.48536395   -8.7121607    257.34259  0.011105756  0.009510652            1 
 1932000   0.47854334   -8.7025818    257.30846  0.011098536 0.0095027815            1 
 1933000   0.47992216   -8.6927862    257.80372  0.011114146 0.0094949187            2 
 1934000   0.47926236   -8.6975349    257.04231  0.011075591 0.0094870574            1 
 1935000   0.48520232   -8.6976257    257.43735   0.01108688 0.0094792051            2 
 1936000   0.48752143   -8.7140682    257.18589  0.011070329 0.0094713594            2 
 1937000   0.48008332   -8.6940065    257.79575  0.011090851 0.0094635249            3 
 1938000   0.47718607   -8.7275431    256.92636  0.011047745 0.0094556901            2 
 1939000   0.47557229   -8.7156844    257.18703  0.011053251 0.0094478609            1 
 1940000   0.47891013   -8.6932344    257.02011  0.011040383 0.0094400428            2 
 1941000   0.47608329   -8.7112791    257.39465  0.011050775   0.00943224            1 
 1942000   0.48022995    -8.702702    257.07686  0.011031448 0.0094244479            1 
 1943000    0.4803727   -8.7120326    257.15654  0.011029188 0.0094166618            2 
 1944000   0.47477355   -8.7218591    257.18927  0.011024917 0.0094088809            1 
 1945000   0.47484597   -8.7292655    257.06185   0.01101379 0.0094010999            2 
 1946000   0.48563216   -8.7222237    257.13001  0.011011049 0.0093933326            2 
 1947000   0.47534125   -8.7085765    257.33135  0.011014011 0.0093855616            1 
 1948000   0.47591524   -8.7278262    257.31638  0.011007716 0.0093778123            2 
 1949000   0.46774282    -8.731359    257.65248  0.011016439 0.0093700725            2 
 1950000   0.48245788   -8.7238979    257.15756  0.010989639 0.0093623328            1 
 1951000    0.4696746   -8.7266839    256.94701  0.010975013 0.0093546063            3 
 1952000   0.47804966   -8.6975604     257.3585  0.010986958  0.009346891            1 
 1953000   0.46308175   -8.7360318    256.88508  0.010961131 0.0093391806            2 
 1954000   0.47703012   -8.7188282    257.23634  0.010970502 0.0093314748            2 
 1955000   0.47236471   -8.7344929    257.30071  0.010967635 0.0093237726            2 
 1956000   0.46981058   -8.7298604     257.1298  0.010954746 0.0093160863            2 
 1957000   0.46668538   -8.7341017    257.25025  0.010954277  0.009308403            3 
 1958000   0.48673274   -8.7175287    257.19932  0.010946515 0.0093007288            2 
 1959000    0.4768729   -8.7204955    257.20634  0.010941226 0.0092930571            2 
 1960000   0.46301606   -8.7279428    256.93853  0.010924257  0.009285402            2 
 1961000   0.47567402   -8.7203714    256.61879  0.010905099 0.0092777434            1 
 1962000   0.46770534   -8.7198703    256.98536   0.01091511 0.0092701027            2 
 1963000   0.47674048   -8.7330696    256.90342  0.010906071 0.0092624686            2 
 1964000   0.46975975   -8.7334592    257.15196  0.010911064  0.009254844            2 
 1965000   0.47802183   -8.7270544     256.6779  0.010885407 0.0092472288            1 
 1966000   0.46875454   -8.7262668    256.68738  0.010880272 0.0092396165            1 
 1967000   0.46906154   -8.7499593    256.92453  0.010884788 0.0092320132            1 
 1968000   0.46834351   -8.7257496    257.22423  0.010891947 0.0092244196            2 
 1969000   0.47150403   -8.7326978    257.10836  0.010881512 0.0092168311            2 
 1970000   0.46904389   -8.7371299    256.88979  0.010866742 0.0092092479            2 
 1971000   0.47852228   -8.7171534     256.8323  0.010858799 0.0092016803            2 
 1972000   0.46903666   -8.7276679     257.1247  0.010865648 0.0091941145            3 
 1973000   0.46917532   -8.7305264    257.12579  0.010860187 0.0091865543            2 
 1974000   0.46640525   -8.7269886    257.01062  0.010849823 0.0091790032            2 
 1975000   0.46482153   -8.7514867     257.0782  0.010847181 0.0091714573            2 
 1976000   0.46499577   -8.7198616    256.93922  0.010835831 0.0091639251            2 
 1977000   0.46738407     -8.72772     256.9801  0.010832073 0.0091564001            1 
 1978000   0.45827858   -8.7153064    257.14902  0.010833713 0.0091488787            2 
 1979000   0.45881138   -8.7399235    256.45644  0.010799075  0.009141367            6 
 1980000   0.46830445   -8.7454537    256.94345  0.010814118 0.0091338628            3 
 1981000   0.47082938   -8.7347372    256.80576  0.010802867 0.0091263696            4 
 1982000   0.46328457   -8.7385244    256.86649   0.01079997 0.0091188853            3 
 1983000   0.45306514   -8.7354749    257.02729  0.010801281 0.0091114098            2 
 1984000   0.45941595   -8.7386529    256.82538  0.010787356 0.0091039364            4 
 1985000   0.46013088   -8.7313059    257.29205  0.010801514 0.0090964804            2 
 1986000      0.46998   -8.7360007    257.34506  0.010798299 0.0090890252            2 
 1987000     0.458529   -8.7399311    256.80435  0.010770187 0.0090815764            2 
 1988000   0.46695922    -8.735191    256.72971  0.010761641 0.0090741389            1 
 1989000   0.45528858   -8.7586231    257.06364  0.010770221 0.0090667006            2 
 1990000   0.46188616   -8.7434215    256.76698  0.010752386  0.009059267            2 
 1991000   0.44712108   -8.7401202    256.50457  0.010736002 0.0090518503            3 
 1992000   0.45369841   -8.7444651    256.64822  0.010736622 0.0090444335            1 
 1993000   0.46090982   -8.7384427    256.93506  0.010743229 0.0090370205            2 
 1994000   0.45012188   -8.7473139    257.01604  0.010741225 0.0090296183            3 
 1995000   0.46272076   -8.7623688     256.6497  0.010720539 0.0090222235            3 
 1996000   0.45185216   -8.7290093    256.43518  0.010706211 0.0090148331            3 
 1997000   0.45659985   -8.7456536    256.79399  0.010715823 0.0090074567            2 
 1998000   0.45296081   -8.7424779    257.10975   0.01072363 0.0090000853            2 
 1999000   0.45543799    -8.759876    256.60671  0.010697295 0.0089927178            2 
 2000000   0.45428206   -8.7535206    256.61438  0.010692266 0.0089853574            2 
 2001000   0.44995093   -8.7532697    256.87458  0.010697759 0.0089780086            2 
 2002000   0.45922852   -8.7461279    256.48539  0.010676215 0.0089706652            3 
 2003000   0.45869037   -8.7603019    256.87284  0.010687005 0.0089633343            2 
 2004000   0.45001337   -8.7366504    256.61709  0.010671037  0.008956012            2 
 2005000   0.45942702   -8.7605364    256.47333   0.01065974 0.0089486923            2 
 2006000   0.46084278   -8.7533464    257.05361  0.010678532 0.0089413872            3 
 2007000   0.46753829   -8.7490458    256.82639  0.010663776  0.008934087            1 
 2008000   0.45203231   -8.7540162    256.55954  0.010647391  0.008926797            4 
 2009000   0.44179817   -8.7621666    256.48955  0.010639188  0.008919506            2 
 2010000   0.44805142    -8.758213    256.68864  0.010642149 0.0089122282            2 
 2011000   0.45436697   -8.7631266    256.68841  0.010636848  0.008904952            2 
 2012000   0.45421217    -8.757447    256.61698  0.010628603 0.0088976843            2 
Loop time of 5024.52 on 48 procs for 2000000 steps with 4000 atoms

Performance: 68782.745 tau/day, 398.048 timesteps/s
99.4% CPU use with 48 MPI tasks x no OpenMP threads

MPI task timing breakdown:
Section |  min time  |  avg time  |  max time  |%varavg| %total
---------------------------------------------------------------
Pair    | 313.15     | 329.83     | 351.01     |  48.4 |  6.56
Neigh   | 32.983     | 33.922     | 34.689     |   7.1 |  0.68
Comm    | 298.76     | 320.8      | 353.28     |  82.0 |  6.38
Output  | 3.9766     | 3.9786     | 4.0105     |   0.2 |  0.08
Modify  | 4256.7     | 4288.5     | 4315       |  25.1 | 85.35
Other   |            | 47.53      |            |       |  0.95

Nlocal:        83.3333 ave          90 max          76 min
Histogram: 2 0 6 6 3 13 6 9 2 1
Nghost:        2086.60 ave        2108 max        2062 min
Histogram: 2 3 2 4 9 9 11 1 5 2
Neighs:        13675.5 ave       15145 max       12276 min
Histogram: 6 1 6 5 5 7 8 5 3 2
FullNghs:      27350.6 ave       29770 max       24688 min
Histogram: 1 2 2 10 8 8 6 8 2 1

Total # of neighbors = 1312828
Ave neighs/atom = 328.20700
Neighbor list builds = 107058
Dangerous builds = 0

#clear
#
#next RN
#
#jump SELF
Total wall time: 1:23:47
