
units lj                  # Use reduced LJ style units
atom_style atomic         # Uncharged point particles
atom_modify map hash      # Needed for indexing of clusters etc
                          # Used to be able to find where atoms are in relation to each other.

lattice fcc 1.0 spacing 1 1 1
Lattice spacing in x,y,z = 1.5874011 1.5874011 1.5874011
region box block 0 10 0 10 0 10 units lattice
create_box 2 box
Created orthogonal box = (0.0000000 0.0000000 0.0000000) to (15.874011 15.874011 15.874011)
  3 by 4 by 4 MPI processor grid
create_atoms 1 box
Created 4000 atoms
  using lattice units in orthogonal box = (0.0000000 0.0000000 0.0000000) to (15.874011 15.874011 15.874011)
  create_atoms CPU = 0.003 seconds
set type 1 type/fraction 2 0.3 78393
Setting atom values ...
  1229 settings made for type/fraction
mass 1 1.0
mass 2 1.0
pair_style lj/cut  3.5
pair_modify tail  yes
pair_coeff 1  1  1.0  1.0   # Intearaction between 1 and 1 set with epsilon = 1 and sigma = 1
pair_coeff 1  2  1.5  0.8
pair_coeff 2  2  0.5  0.88

write_data data.0
System init for write_data ...
Neighbor list info ...
  update every 1 steps, delay 10 steps, check yes
  max neighbors/atom: 2000, page size: 100000
  master list distance cutoff = 3.8
  ghost atom cutoff = 3.8
  binsize = 1.9, bins = 9 9 9
  1 neighbor lists, perpetual/occasional/extra = 1 0 0
  (1) pair lj/cut, perpetual
      attributes: half, newton on
      pair build: half/bin/atomonly/newton
      stencil: half/bin/3d
      bin: standard
WARNING: Not all mixed pair coeffs generated from mixing. Use write_data with 'pair ij' option to store all pair coeffs. (../write_data.cpp:312)


#############################
#   M E L T   S Y S T E M   #
#############################

velocity all create 2.4 6583654 mom yes dist gaussian # Assign velocities
                                                    # Temperature 2.4, random number seed, zero linear momentum
                                                                                # Gaussian distribution

timestep 0.002   # simulation timestep
thermo 1000       # output thermodynamic data every 1000 steps bf 100

# Define a fix  in this case with index 1 applied to all
# particles in the simulation. This fix is for simulations
# in the anisotropic NPT ensemble. Note that we use the MTK
# correction.
fix 1 all npt temp 2.4 2.4 0.1 iso 5.68 5.68 0.5 mtk yes tchain 5 pchain 5 # Use NPT ensemble
                                                                         # Set temperature and pressure and damping
                                                                         # Numbers of thermostats in chain and in barostat
run 10000          # run for 10000 steps
Per MPI rank memory allocation (min/avg/max) = 3.642 | 3.644 | 3.648 Mbytes
Step Temp E_pair E_mol TotEng Press Volume 
       0          2.4   -6.4318281            0   -2.8327281   -3.9834666         4000 
    1000    2.3776509   -4.9901124            0   -1.4245277    5.4092676     4170.044 
    2000    2.3782822    -4.998567            0   -1.4320356    5.5306245    4148.6675 
    3000    2.4128099   -4.9193608            0   -1.3010508    5.8775204    4164.9045 
    4000    2.4644656   -4.9987541            0   -1.3029799    5.6382243    4165.1709 
    5000    2.4138821   -4.9346171            0   -1.3146992    5.7428145    4174.5556 
    6000    2.3684275   -4.9873116            0   -1.4355584    5.6995996    4145.9014 
    7000    2.3736082   -4.9712241            0   -1.4117019    5.5887122    4169.7471 
    8000    2.4288235   -5.0004485            0   -1.3581241    5.7204907    4145.1845 
    9000    2.3508966   -4.9790316            0   -1.4535683    5.6511727    4164.1306 
   10000    2.3307028   -4.9607184            0   -1.4655382    5.3190762    4186.7757 
Loop time of 2.39296 on 48 procs for 10000 steps with 4000 atoms

Performance: 722119.467 tau/day, 4178.932 timesteps/s
99.7% CPU use with 48 MPI tasks x no OpenMP threads

MPI task timing breakdown:
Section |  min time  |  avg time  |  max time  |%varavg| %total
---------------------------------------------------------------
Pair    | 1.021      | 1.1077     | 1.1881     |   2.8 | 46.29
Neigh   | 0.20193    | 0.21133    | 0.22741    |   0.9 |  8.83
Comm    | 0.74362    | 0.82289    | 0.89846    |   3.6 | 34.39
Output  | 0.00024306 | 0.00024716 | 0.00030538 |   0.0 |  0.01
Modify  | 0.20923    | 0.23593    | 0.25323    |   2.4 |  9.86
Other   |            | 0.01489    |            |       |  0.62

Nlocal:        83.3333 ave          91 max          76 min
Histogram: 3 3 4 4 13 4 6 3 6 2
Nghost:        1590.23 ave        1615 max        1566 min
Histogram: 2 3 8 5 4 10 5 8 1 2
Neighs:        9106.81 ave       10315 max        8275 min
Histogram: 6 4 6 9 5 8 5 3 0 2

Total # of neighbors = 437127
Ave neighs/atom = 109.28175
Neighbor list builds = 909
Dangerous builds = 227

# Equilibrate just above the melting temperature to avoid step fn in T

fix 1 all npt temp 1.25 1.25 0.1 iso 5.68 5.68 0.5 mtk yes tchain 5 pchain 5
run 2000
Per MPI rank memory allocation (min/avg/max) = 3.643 | 3.645 | 3.649 Mbytes
Step Temp E_pair E_mol TotEng Press Volume 
   10000    2.3307028   -4.9607184            0   -1.4655382    5.3190762    4186.7757 
   11000    1.2545897   -6.8733653            0   -4.9919512    5.6692599    3336.0738 
   12000    1.2462414   -6.8528279            0   -4.9839332    5.7384992    3342.0244 
Loop time of 0.563877 on 48 procs for 2000 steps with 4000 atoms

Performance: 612899.736 tau/day, 3546.873 timesteps/s
99.6% CPU use with 48 MPI tasks x no OpenMP threads

MPI task timing breakdown:
Section |  min time  |  avg time  |  max time  |%varavg| %total
---------------------------------------------------------------
Pair    | 0.25359    | 0.27129    | 0.29485    |   1.7 | 48.11
Neigh   | 0.037351   | 0.039292   | 0.044292   |   0.5 |  6.97
Comm    | 0.17411    | 0.20375    | 0.22162    |   2.3 | 36.13
Output  | 5.2279e-05 | 5.3737e-05 | 6.7748e-05 |   0.0 |  0.01
Modify  | 0.040668   | 0.044728   | 0.048669   |   1.1 |  7.93
Other   |            | 0.00477    |            |       |  0.85

Nlocal:        83.3333 ave          90 max          76 min
Histogram: 3 2 7 4 3 14 0 10 0 5
Nghost:        1852.96 ave        1876 max        1830 min
Histogram: 5 2 7 8 2 3 9 3 6 3
Neighs:        11417.8 ave       12626 max       10110 min
Histogram: 5 5 1 6 6 6 4 2 10 3

Total # of neighbors = 548052
Ave neighs/atom = 137.01300
Neighbor list builds = 142
Dangerous builds = 13

#############################
# L I N E A R  Q U E N C H  #
#############################

# Define solid atoms. This closely follows ten Wolde  Ruiz-Montero and Frenkel  Faraday Discuss  1996  104  93-110
# Compute components of the per-atom q6 vector
compute q6 all orientorder/atom degrees 1 6 components 6 nnn NULL cutoff 1.3 # compute the Q6 parameter.
                                                                             # Use all neighbours within 1.3 unit cell.

# get number of connections
compute coord_number all coord/atom orientorder q6 0.5

# An atom is solid if it has 8 or more connections (of a possible 14)
variable is_solid atom c_coord_number>=8
group solid dynamic all var is_solid    # Must be dynamic to update
dynamic group solid defined

# do clustering
compute cluster solid cluster/atom 1.3 # Create a cluster where all atoms within are solid and max 1.3 units from another member

# define chunks one chunk per cluster
compute clus_chunks solid chunk/atom c_cluster nchunk every compress yes  # Says which atoms are in which chunk

# count the size of each chunk
compute size_chunks solid property/chunk clus_chunks count


# Find the maximum entry in the vector of chunk sizes
variable max_n equal max(c_size_chunks)


# Thermo style which includes this variable
# thermo_style custom step temp pe vol v_max_n

thermo ${N}  # Print the thermo information every 100 steps
thermo 1000  

# Reset the npt fix at a lower temperature (below freezing)
fix 1  all npt temp  ${temp} ${temp}  0.1  iso  5.68  5.68  0.5  mtk yes tchain  5  pchain  5
fix 1  all npt temp  0.45 ${temp}  0.1  iso  5.68  5.68  0.5  mtk yes tchain  5  pchain  5
fix 1  all npt temp  0.45 0.45  0.1  iso  5.68  5.68  0.5  mtk yes tchain  5  pchain  5

dump dmp2 all dcd ${N} traj.dcd
dump dmp2 all dcd 1000 traj.dcd


compute msd all msd com yes
variable twopoint equal c_msd[4]/6/(step*dt+1.0e-6)
fix 9 all vector 10 c_msd[4]
variable fit equal slope(f_9)/6/(10*dt)
thermo_style custom step temp pe c_msd[4] v_twopoint v_fit v_max_n

fix 1 all npt temp 1.25 ${temp} 0.1 iso 5.68 5.68 0.5 mtk yes tchain 5 pchain 5
fix 1 all npt temp 1.25 0.45 0.1 iso 5.68 5.68 0.5 mtk yes tchain 5 pchain 5
run 2000000 # 5000000  # Run for this many steps
Neighbor list info ...
  update every 1 steps, delay 10 steps, check yes
  max neighbors/atom: 2000, page size: 100000
  master list distance cutoff = 3.8
  ghost atom cutoff = 3.8
  binsize = 1.9, bins = 8 8 8
  4 neighbor lists, perpetual/occasional/extra = 1 3 0
  (1) pair lj/cut, perpetual
      attributes: half, newton on
      pair build: half/bin/atomonly/newton
      stencil: half/bin/3d
      bin: standard
  (2) compute orientorder/atom, occasional
      attributes: full, newton on
      pair build: full/bin/atomonly
      stencil: full/bin/3d
      bin: standard
  (3) compute coord/atom, occasional
      attributes: full, newton on
      pair build: full/bin/atomonly
      stencil: full/bin/3d
      bin: standard
  (4) compute cluster/atom, occasional
      attributes: full, newton on
      pair build: full/bin/atomonly
      stencil: full/bin/3d
      bin: standard
Per MPI rank memory allocation (min/avg/max) = 9.810 | 9.817 | 9.823 Mbytes
Step Temp PotEng c_msd[4] v_twopoint v_fit v_max_n 
   12000    1.2462414   -6.8528279 1.837257e-30 1.2758729e-32 8.3333333e+20            1 
   13000    1.2114797   -6.8883333   0.50259738 0.0032217779  0.040701197            2 
   14000    1.2431272   -6.8282398   0.96853861 0.0057651106  0.039164682            3 
   15000    1.2404838   -6.8840839    1.4338275 0.0079657079  0.039318619            2 
   16000    1.2492751   -6.8676532    1.8949046 0.0098692944  0.039370717            5 
   17000    1.2481245   -6.8808668    2.3761344  0.011647717    0.0392155            3 
   18000    1.2702348   -6.8971158    2.8491844  0.013190668  0.039209183            1 
   19000    1.2641329   -6.8849598    3.3484754  0.014686295  0.039381815            2 
   20000    1.2776013   -6.9090861    3.7753447  0.015730602   0.03932722            3 
   21000    1.2139525   -6.8627753    4.1999456   0.01666645  0.039113263            2 
   22000    1.2700078   -6.8777951    4.6962236  0.017788725  0.038837396            1 
   23000    1.2448411   -6.8906405    5.2156954  0.018897447  0.038908441            1 
   24000    1.2255577   -6.8663753    5.6545346    0.0196338  0.038930483            1 
   25000    1.2354819   -6.8675126    6.0989304  0.020329768  0.038911102            2 
   26000     1.243122   -6.8316985    6.6714102  0.021382725  0.039018314            3 
   27000    1.2349552   -6.8885922    7.2250389  0.022299502  0.039240633            1 
   28000    1.2110243   -6.9025578    7.7312606  0.023009704  0.039548531            4 
   29000    1.2763778    -6.910045    8.2016408  0.023567933  0.039811169            2 
   30000    1.2234151   -6.9011856    8.6961856  0.024156071  0.039983557            1 
   31000     1.247369   -6.8866209    9.2201887  0.024785453  0.040133417            2 
   32000    1.2431243   -6.9027269    9.6924989  0.025240882  0.040297621            2 
   33000    1.2553197   -6.9131463      10.2331  0.025841162  0.040429158            1 
   34000     1.245345   -6.8993368    10.703901  0.026235052   0.04052519            1 
   35000    1.2386196   -6.9190323    11.135074   0.02651208  0.040613435            1 
   36000    1.2771674   -6.8916327    11.721188  0.027132379  0.040666182            4 
   37000    1.2227894   -6.8785907    12.195014  0.027466248  0.040722043            1 
   38000    1.2446953   -6.9251112    12.583727  0.027595893  0.040725184            1 
   39000    1.2126786   -6.8714329    13.074962  0.027937954  0.040697408            1 
   40000    1.2319041   -6.9078857    13.671816  0.028482949  0.040744978            1 
   41000    1.2326548   -6.9201938    14.093426  0.028645174  0.040773376            2 
   42000    1.2365732   -6.9280001    14.620296  0.029008524  0.040785971            1 
   43000    1.2107004   -6.9249586     15.06828  0.029202093    0.0407741            2 
   44000    1.2571358   -6.9091383    15.510707  0.029376339  0.040783497            4 
   45000     1.241718   -6.9360518    15.818566  0.029293641  0.040724241            2 
   46000    1.2371466   -6.8900679    16.204544  0.029356057  0.040613056            3 
   47000    1.2377989   -6.9211755    16.626627  0.029479835  0.040481367            1 
   48000     1.221605   -6.8853991    17.118497  0.029719613  0.040359226            1 
   49000     1.244664   -6.8827167    17.470459  0.029711665  0.040245367            7 
   50000    1.2157892   -6.9378011    17.818265  0.029697107  0.040086489            1 
   51000     1.245378   -6.9049394    18.352744  0.029988144  0.039959564            1 
   52000    1.2223777   -6.9097121    18.859509  0.030223572  0.039853011            1 
   53000    1.2510067   -6.9196835    19.223762   0.03022604  0.039754221            2 
   54000     1.228794   -6.9305131    19.732559   0.03045148  0.039654548            1 
   55000    1.2229759   -6.9080848    20.248954  0.030680232  0.039569461            2 
   56000    1.2300412   -6.8954841    20.777273  0.030918561  0.039506857            1 
   57000    1.2542283   -6.9058754    21.396312  0.031281157  0.039471921            1 
   58000    1.2318419   -6.9145187    21.735887  0.031229723  0.039455275            1 
   59000    1.2373337   -6.9054746    22.223451  0.031389055  0.039434219            3 
   60000      1.22263    -6.908319     22.79166  0.031655083  0.039422548            3 
   61000    1.2442067   -6.9248763    23.211138  0.031709205  0.039417859            1 
   62000    1.2274743   -6.9059521    23.833815  0.032034697  0.039411644            1 
   63000    1.2455112   -6.9086194     24.11931  0.031903849  0.039411297            2 
   64000    1.2177813   -6.9242597    24.639725  0.032082974  0.039394904            1 
   65000    1.2185686    -6.920146    25.061064   0.03212957  0.039371606            2 
   66000    1.2201949   -6.9436164    25.371675  0.032034944  0.039345968            2 
   67000    1.2073755   -6.9200219    25.998395  0.032336311  0.039332077            3 
   68000    1.2276473   -6.8841853    26.630495   0.03263541  0.039329792            2 
   69000    1.1989357   -6.9625127    26.853411  0.032431655  0.039317412            3 
   70000    1.2343158   -6.9248723    27.374437  0.032588615  0.039301894            1 
   71000     1.217187    -6.929777    27.940019  0.032793449  0.039298113            2 
   72000    1.2348962    -6.918931     28.45769  0.032937141   0.03929635            2 
   73000    1.2296529   -6.9472407    28.484841  0.032516942  0.039268995            3 
   74000    1.2289564    -6.960351    28.904323  0.032549913  0.039227928            1 
   75000    1.2253335   -6.9083863    29.606118  0.032895686  0.039192748            2 
   76000    1.2356142   -6.9181966    30.307934  0.033232384   0.03918195            1 
   77000    1.2327957    -6.950751    30.676148  0.033199294  0.039181167            1 
   78000     1.234991   -6.9037986    31.034283  0.033156285  0.039173221            2 
   79000     1.223035   -6.9172764    31.430225  0.033154246   0.03915118            1 
   80000    1.2336544   -6.9386187    31.902372  0.033231638  0.039129511            1 
   81000    1.1891932   -6.9756372    32.314902  0.033245784  0.039107329            3 
   82000    1.2195101   -6.9197837    32.764718  0.033297478  0.039075413            2 
   83000    1.2229419   -6.9402688    33.161215  0.033294393  0.039045396            2 
   84000    1.2229009   -6.9192299    33.630987  0.033364074  0.039015482            2 
   85000    1.2069153   -6.9515567    34.181446  0.033511221   0.03899622            1 
   86000     1.221169   -6.9463438    34.597903    0.0335251  0.038983177            1 
   87000    1.2254322    -6.935835    35.218318   0.03373402  0.038974452            1 
   88000    1.2182979   -6.9614754    35.772976  0.033875924  0.038971812            1 
   89000    1.2092649   -6.9360145    35.943708  0.033655157  0.038955654            3 
   90000    1.2238758   -6.9457607    36.387145  0.033691801  0.038936139            2 
   91000    1.2025134   -6.9894962    36.923136  0.033812395  0.038918214            2 
   92000    1.1983481   -6.9895388    37.618922   0.03407511  0.038915094            3 
   93000     1.251493   -6.9670393    38.112001  0.034150538  0.038918162            2 
   94000    1.2203911   -6.9696003    38.556387  0.034181194  0.038923123            2 
   95000    1.2250711    -6.925087    39.105761  0.034303299  0.038928331            1 
   96000    1.2128609   -6.9582094    39.438539  0.034234843  0.038926508            2 
   97000     1.218443   -6.9597105    39.895936  0.034274859  0.038915946            2 
   98000    1.2196056   -6.9285209     40.46545  0.034409396  0.038912055            1 
   99000    1.2217388   -6.9526306    40.945444  0.034465861  0.038912757            1 
  100000    1.2188092   -6.9453387    41.189612  0.034324676  0.038907479            1 
  101000    1.2219009   -6.9264719    41.747495  0.034445128  0.038903734            1 
  102000    1.2063006   -6.9587733    42.091717  0.034388658  0.038896852            2 
  103000    1.1961339   -6.9693434    42.542977  0.034419884  0.038883983            1 
  104000    1.2325059   -6.9621257    42.926917  0.034396568  0.038868476            3 
  105000    1.1888577   -6.9693499    43.272062  0.034342906  0.038843684            1 
  106000    1.2251614   -6.9891337    43.614722  0.034288303  0.038819667            1 
  107000    1.2048781    -6.981415    44.038064  0.034297557  0.038801301            2 
  108000    1.2465328   -6.9421309    44.708931  0.034497631  0.038787426            2 
  109000    1.2117019   -6.9095365    45.297665  0.034631242   0.03877293            1 
  110000    1.2070244   -6.9601476     45.69403  0.034616689  0.038762347            1 
  111000    1.2426721   -6.9319229    46.049098  0.034571395  0.038751088            1 
  112000    1.2077466   -6.9648675    46.320088  0.034464351  0.038735567            2 
  113000    1.2162922   -6.9847832    47.035287   0.03468679  0.038722529            3 
  114000    1.2257168    -6.969961    47.313389   0.03458581  0.038704745            1 
  115000    1.1973952   -7.0037403    47.707709  0.034570804  0.038686208            3 
  116000    1.1746556   -6.9714384    48.017013   0.03449498  0.038661697            2 
  117000    1.2112523   -6.9767003    48.376982   0.03445654  0.038633565            1 
  118000     1.221834   -6.9852883    48.914607  0.034544214  0.038606798            1 
  119000    1.2159083   -6.9677836    49.413556  0.034603331   0.03858453            2 
  120000    1.1917271   -6.9805339    49.731156  0.034535525  0.038560036            1 
  121000     1.221891   -6.9404722    50.303001   0.03464394  0.038538031            2 
  122000    1.1921527   -6.9669526    50.823048  0.034715196   0.03851428            2 
  123000    1.2025696   -6.9855386    51.356074  0.034794088  0.038494042            4 
  124000    1.2075998   -6.9944659     51.35118  0.034510201  0.038471871            1 
  125000    1.2249744    -6.915287    52.141505  0.034761003  0.038448247       -1e+20 
  126000    1.2320692   -7.0025644    52.369159  0.034635687  0.038428124            1 
  127000    1.2214311   -6.9587188    53.030976  0.034797229  0.038410964            3 
  128000    1.1983445   -6.9913428    53.114828  0.034579966  0.038385854            2 
  129000    1.2071355   -7.0014238    53.613694  0.034634169  0.038359863            2 
  130000    1.2077013   -6.9739479    53.974435  0.034598996  0.038333957            1 
  131000    1.1849902   -6.9934589    54.477292  0.034654766  0.038307784            2 
  132000    1.1980735   -6.9751181    54.856093  0.034631372  0.038279906            1 
  133000    1.2140395   -7.0148704    55.249121  0.034617243  0.038249417            1 
  134000    1.1926357   -7.0054996    55.706349  0.034643252  0.038222308            2 
  135000    1.1936518   -6.9542174    56.310417  0.034759517  0.038197243            2 
  136000    1.2003088   -6.9736506    56.610657  0.034687902   0.03817537            2 
  137000    1.2070162   -7.0024394    56.826839  0.034566204  0.038151061            3 
  138000    1.2009128   -6.9869991    57.137782  0.034503491  0.038121298            1 
  139000    1.1997671   -6.9497604    57.725967  0.034607894  0.038090431            2 
  140000    1.1989178     -6.99312    58.137174   0.03460546  0.038060504            2 
  141000     1.192672   -6.9737045    58.752296  0.034723579  0.038035604            1 
  142000    1.2053077   -7.0455907    59.029187  0.034641542  0.038013699            2 
  143000    1.1771465   -6.9795653    59.758354  0.034824216  0.037997454            1 
  144000    1.2182214   -6.9729541    60.497809  0.035010306  0.037984939            1 
  145000     1.200538   -6.9626665    60.911865  0.035006819  0.037972613            2 
  146000    1.1829129   -7.0005896    61.245759  0.034957625  0.037963787            2 
  147000    1.2024944   -6.9944465    61.822284  0.035046646  0.037956121            1 
  148000    1.1816985    -6.950589    62.380687  0.035124261  0.037950551            2 
  149000    1.1712221   -6.9901111    62.987444  0.035227877  0.037944062            2 
  150000     1.192839   -7.0053954    63.369918   0.03520551  0.037938925            1 
  151000    1.1821403   -6.9788887    63.861551  0.035243681   0.03793351            2 
  152000    1.1913184   -7.0254576    64.010023  0.035093214  0.037926269            2 
  153000    1.2106601   -6.9991724    64.174132  0.034953231  0.037914514            2 
  154000    1.1919933   -6.9818271    64.400809  0.034848922  0.037898081            1 
  155000    1.1645227   -7.0030743    64.962838  0.034926257   0.03788115            1 
  156000    1.1953672   -6.9878443    65.486847   0.03498229  0.037863745            2 
  157000    1.1991218   -7.0015168    66.123668  0.035097488  0.037848112            4 
  158000    1.1985863   -7.0312794    66.536802   0.03509325  0.037835636            2 
  159000    1.1905618   -7.0148519    66.956856  0.035092692  0.037823844            1 
  160000    1.2019934   -7.0316666    67.165272  0.034981912  0.037810832            1 
  161000    1.1552221   -6.9868701    67.665345  0.035023471  0.037795175            3 
  162000    1.1625839     -7.01691    67.842125  0.034898212  0.037776644            1 
  163000    1.1752765   -7.0233436    68.130996  0.034831797  0.037753407            1 
  164000    1.2148392   -7.0226178     68.73649  0.034927078  0.037729829            2 
  165000    1.1973286   -7.0272579    68.992781  0.034844839  0.037709939            2 
  166000     1.177738   -7.0654011    69.300896  0.034789606  0.037688594            1 
  167000    1.1924684   -7.0035322    69.495229  0.034678258  0.037666134            2 
  168000    1.1819947   -6.9879581    70.095898   0.03476979   0.03764101            1 
  169000    1.1759463   -7.0142182    70.805042  0.034913729  0.037618654            1 
  170000    1.1746791   -7.0002483    71.298734  0.034950359  0.037595466            1 
  171000    1.1908131   -7.0296229    71.574223  0.034880225  0.037573772            1 
  172000    1.1840098    -6.961239    72.232213  0.034996227  0.037556029            1 
  173000    1.1578451   -7.0318497    72.385612  0.034867828  0.037538022            1 
  174000    1.1747602   -7.0515641    73.016372  0.034969527  0.037520427            2 
  175000    1.1974716   -6.9961381    73.262213  0.034886768   0.03750106            2 
  176000    1.1891908   -7.0079616    73.724695  0.034907526  0.037482925            5 
  177000     1.163898   -7.0325022    74.362872  0.035010768  0.037464368            2 
  178000    1.1847091   -7.0450701    74.454945  0.034857184  0.037446212            2 
  179000    1.1613833    -6.937702    75.310841  0.035060913  0.037428745            1 
  180000    1.1718438   -7.0355442    75.377696  0.034897081  0.037410043            2 
  181000    1.1864232   -7.0370581    75.730493  0.034866709  0.037390378            3 
  182000    1.1969839   -7.0108565    76.407942  0.034985321  0.037373325            3 
  183000    1.1935214    -6.995143    76.814408  0.034979239  0.037356203            3 
  184000    1.1787546   -6.9905988    77.332186  0.035023635  0.037339614            1 
  185000    1.1771498   -7.0053709    77.868584  0.035075939  0.037324377            2 
  186000    1.1870163   -7.0452216    77.960381  0.034928486  0.037311271            2 
  187000    1.1708791   -7.0415181    78.664481  0.035055473  0.037296743            1 
  188000    1.1892341   -6.9963282     79.09011  0.035057673  0.037284339            1 
  189000      1.17678   -7.0159435    79.523258  0.035063165  0.037273893            2 
  190000    1.1564342    -6.976583    79.947473  0.035064681    0.0372615            2 
  191000    1.1784564   -7.0505836    80.418472  0.035086593  0.037248793            3 
  192000    1.1666829   -7.0316213    80.826838  0.035081093  0.037237422            2 
  193000    1.1710473   -7.0637068    81.062568  0.035001109  0.037227183            2 
  194000      1.17841   -7.0360253    81.601186  0.035052056  0.037216176            1 
  195000    1.1778878   -7.0363432    81.835381  0.034972385  0.037202854            2 
  196000     1.172913   -7.0381666     81.92728  0.034833027  0.037184371            3 
  197000    1.2127519   -7.0500988    82.151134  0.034750902  0.037165614            1 
  198000     1.204221   -7.0364208    82.626086  0.034775289  0.037144773            2 
  199000    1.1896574   -7.0334573    82.958049  0.034739551  0.037123284            1 
  200000    1.1676417   -7.0515414    83.440997  0.034767082  0.037101812            1 
  201000    1.1621009   -7.0352408    83.873749  0.034773528  0.037079636            1 
  202000     1.198997   -7.0633813    84.202271   0.03473691  0.037060246            1 
  203000    1.1722529   -7.0276363    84.631938  0.034742175  0.037038177            2 
  204000    1.1675976   -7.0432164    84.765025  0.034626235  0.037014423            2 
  205000    1.1741223   -7.0509826    85.385119  0.034709398  0.036991435            3 
  206000    1.1707767   -7.0734619    85.415369  0.034553143  0.036967519            1 
  207000    1.1583335   -7.0271617    85.809862  0.034545033  0.036941538            3 
  208000    1.1758834   -7.0349402    86.305655  0.034577586  0.036917763            1 
  209000    1.1890498   -7.0460071     86.52586  0.034499944  0.036890141            1 
  210000     1.176581    -7.025543    86.936308  0.034498535  0.036863103            1 
  211000    1.1605537   -7.0170465    87.480745  0.034550057     0.036837            2 
  212000    1.1747494   -7.0705613    87.676044  0.034463854  0.036811416            1 
  213000    1.1540961   -7.0158528    88.309947  0.034550057  0.036784214            2 
  214000    1.1544324   -7.0260098    88.175457  0.034336237  0.036756375            1 
  215000    1.1913163   -7.0450537    88.477807  0.034293723  0.036728157            2 
  216000    1.1573429   -7.0613138    89.058354  0.034358933  0.036698554            2 
  217000    1.1750754    -7.065932    89.197813  0.034254152   0.03666834            1 
  218000    1.1523472    -7.059688    89.545487  0.034229926  0.036639374            1 
  219000    1.1666151   -7.0468548    90.038595  0.034261261  0.036610309            2 
  220000    1.1812911   -7.0611581    90.568763   0.03430635  0.036582252            1 
  221000    1.1462189   -7.0572392    90.509088  0.034128615  0.036552449            2 
  222000    1.1791567   -7.0537805     91.10474  0.034198476   0.03652367            1 
  223000    1.1731852   -7.0431277    91.211585  0.034085047  0.036493576            1 
  224000    1.1440766   -7.0255922    92.042747  0.034242093  0.036462256            2 
  225000    1.1590538   -7.0487004    91.979876  0.034066621  0.036429823            1 
  226000    1.1786606   -7.0166007    92.187904   0.03399259  0.036397461            1 
  227000    1.1434855   -7.0715316    92.500998  0.033957782  0.036364658            1 
  228000    1.1672369   -7.0435274    92.597801  0.033844225  0.036331894            1 
  229000    1.1724731   -7.0964091    93.188805  0.033911501  0.036297903            1 
  230000    1.1738193   -7.0759081     93.72751  0.033959243  0.036265039            1 
  231000    1.1796654   -7.0757367    94.048326  0.033927967  0.036233194            1 
  232000    1.1686565   -7.0589639    94.274974  0.033863137  0.036201046            1 
  233000    1.1572969    -7.039632    94.778798  0.033897996  0.036166572            1 
  234000    1.1364227   -7.0792685    95.082458  0.033861274   0.03613335            3 
  235000    1.1831095   -7.0385655    95.764515  0.033959048  0.036103231            1 
  236000    1.1607708    -7.068202    95.917478  0.033869166  0.036073884            2 
  237000    1.1519636   -7.0429969    96.338154  0.033874175  0.036042383            1 
  238000    1.1841404   -7.0687972    96.406472  0.033755767  0.036011356            1 
  239000    1.1511822   -7.0808866    96.820382   0.03375885  0.035980838            1 
  240000    1.1760247   -7.0613512    97.173966   0.03374096  0.035949146            1 
  241000    1.1685083   -7.0519381    97.681082  0.033776308  0.035916525            2 
  242000      1.16398   -7.0716813    97.636456  0.033621369  0.035884343            1 
  243000    1.1845728   -7.0900437    98.214403  0.033681208  0.035851626            2 
  244000    1.1766648   -7.0787853     98.65984  0.033695301  0.035819692            3 
  245000    1.1582545   -7.1139725    98.804707  0.033607043  0.035785521            2 
  246000    1.1509132   -7.0514088    99.060308  0.033557015  0.035753714            4 
  247000    1.1685587   -7.0736767    99.681225  0.033630643  0.035722387            2 
  248000    1.1376092   -7.0672869    99.904099  0.033569926  0.035691757            1 
  249000    1.1575583   -7.0930437    100.24593  0.033549508  0.035660369            1 
  250000    1.1718519   -7.1085738    100.41356  0.033471187  0.035627003            2 
  251000    1.1583924   -7.0071352    101.47445  0.033690057   0.03559589            1 
  252000    1.1589694   -7.1052049    101.40693  0.033534037  0.035566885            3 
  253000    1.1460771   -7.0528724    101.99961  0.033596709  0.035537402            1 
  254000    1.1631675   -7.0722815    102.10341  0.033498494  0.035506569            1 
  255000     1.151125   -7.1149909    102.42254  0.033471418  0.035475797            1 
  256000    1.1516948   -7.0725873    103.12111   0.03356807  0.035446592            2 
  257000     1.133123   -7.0904963    103.02757  0.033407124  0.035416292            2 
  258000    1.1592964   -7.1172371    103.52163  0.033437221  0.035386103            1 
  259000     1.173226   -7.0381888    104.34946  0.033574471  0.035357465            1 
  260000    1.1445912   -7.0532394    104.40584  0.033463412  0.035329247            2 
  261000     1.135502   -7.0835748    105.15752  0.033575198  0.035302137            1 
  262000    1.1334426    -7.082423     105.1612  0.033448219   0.03527424            1 
  263000    1.1568667   -7.0798653    105.68189  0.033486024  0.035246934            1 
  264000    1.1313985   -7.1129021     105.6525  0.033349905  0.035217399            1 
  265000     1.145416   -7.0680422    105.74702  0.033253781  0.035186632            1 
  266000    1.1400676   -7.0874619    106.03432   0.03321877  0.035155031            1 
  267000    1.1490784   -7.0829285    106.70813  0.033304658  0.035124133            1 
  268000    1.1544157   -7.0767594    107.43366   0.03340599  0.035094189            1 
  269000    1.1476238   -7.1105479    107.24793  0.033224265  0.035064614            2 
  270000     1.150558   -7.1065761    107.63938  0.033222031  0.035035005            1 
  271000    1.1577137    -7.099191     108.4431  0.033346586  0.035006712            2 
  272000    1.1668805   -7.0610344    108.83861  0.033345164  0.034979265            2 
  273000    1.1358655   -7.0696971    109.07466  0.033295073  0.034952625            1 
  274000    1.1405031   -7.0830183     109.3221  0.033248815   0.03492652            3 
  275000    1.1237248   -7.1077927    109.26315  0.033110044  0.034897716            1 
  276000    1.1488375   -7.0988089    109.93229  0.033192117   0.03486966            1 
  277000    1.1350428   -7.0418263    110.39464  0.033211384  0.034842699            2 
  278000    1.1520669   -7.0777439    110.60638  0.033155391  0.034817343            1 
  279000    1.1523432   -7.1050394    110.94416  0.033137443  0.034791333            2 
  280000    1.1420659   -7.1099129    111.39419  0.033153034  0.034765229            1 
  281000    1.1392649   -7.1218069    111.70839  0.033128229  0.034740216            1 
  282000    1.1335991   -7.1214696     111.8813  0.033061849  0.034714582            2 
  283000    1.1650857     -7.10383    112.74114  0.033198216  0.034689017            1 
  284000    1.1274899   -7.1017752    113.32007  0.033251195  0.034664676            1 
  285000    1.1477779   -7.1284166    113.28102  0.033123106  0.034640479            3 
  286000    1.1362425   -7.1068836    113.20559  0.032985311  0.034616911            1 
  287000    1.1419395   -7.0995559    113.85115  0.033057825  0.034592705            1 
  288000    1.1233492   -7.1137495    113.87146  0.032948918  0.034567847            1 
  289000    1.1239936    -7.107022     114.6574  0.033061534  0.034542864            1 
  290000     1.138571   -7.0963433    115.38773  0.033157395  0.034518568            1 
  291000    1.1179412   -7.0885362    115.45407  0.033062449  0.034493757            2 
  292000    1.1396827   -7.1101208    115.57451  0.032983592     0.034469            2 
  293000    1.1198401   -7.0986613    115.68793   0.03290328  0.034443742            2 
  294000    1.1477452   -7.1110145    115.96083  0.032868716  0.034418533            2 
  295000    1.1599831   -7.0976578    116.60542  0.032939385  0.034393623            1 
  296000    1.1439114   -7.1615232    116.61574  0.032831007  0.034367708            2 
  297000    1.1211396   -7.1220612     116.8363   0.03278235  0.034342474            3 
  298000    1.1310716   -7.1131504    117.25651  0.032789851  0.034317719            1 
  299000    1.1609599   -7.1017865    117.83346  0.032840987  0.034292499            1 
  300000    1.1428666   -7.1062358    118.27493  0.032854148  0.034267453            1 
  301000    1.1076607   -7.0909288    118.22948  0.032732415  0.034241385            2 
  302000    1.1549317   -7.1365913    118.64632  0.032739052  0.034214032            2 
  303000    1.1367443   -7.1299165    118.57125  0.032610354  0.034185722       -1e+20 
  304000    1.1276947   -7.1518349    118.72679  0.032545722   0.03415742            1 
  305000    1.1706906   -7.1392193    119.43029  0.032631226  0.034130215            1 
  306000    1.1203002   -7.1255353     119.8396  0.032636056   0.03410359            1 
  307000    1.1106599   -7.1375143    120.37833  0.032675985  0.034077586            1 
  308000    1.1327009   -7.0799878    121.07052  0.032757176  0.034052692            5 
  309000    1.1511248    -7.137139    120.75775  0.032566815  0.034026732            1 
  310000    1.1598775   -7.1109959    121.05914   0.03254278  0.033999865            1 
  311000    1.1212294   -7.1162859    121.71876  0.032614887  0.033973947            2 
  312000    1.1361731    -7.127486    121.98686   0.03258196  0.033948021            3 
  313000    1.1325017   -7.1455423    121.96664  0.032472482  0.033923169            1 
  314000    1.1208297   -7.1316432    122.50167   0.03251106  0.033897781            1 
  315000    1.1223078    -7.126275    123.10437  0.032567292   0.03387347            2 
  316000    1.1247033   -7.1114442      123.657  0.032609968  0.033849464            2 
  317000    1.1402717   -7.1543523    124.00743  0.032599219  0.033826294            1 
  318000    1.1271925   -7.1178133    124.13107  0.032529107  0.033803588            1 
  319000    1.1396192   -7.1382741    124.26946  0.032463286  0.033779233            6 
  320000    1.1402527   -7.1328138    124.99172  0.032549927  0.033756844            5 
  321000    1.1145515   -7.1318388    125.64562  0.032618281  0.033734207            3 
  322000    1.1093852   -7.1479018    125.73727  0.032540701  0.033712417            1 
  323000    1.1287709   -7.1090454    126.48732  0.032633468  0.033691221            2 
  324000    1.1421323   -7.1430483    126.76615  0.032604463  0.033670385            2 
  325000    1.1345909   -7.1208761    126.91932  0.032543416  0.033649733            1 
  326000    1.1528675   -7.1402498    127.23734  0.032524881  0.033628741            2 
  327000    1.1400991   -7.1433646    127.33866  0.032451238  0.033607407            2 
  328000    1.1060767   -7.1503595    127.45068  0.032380761  0.033585756            1 
  329000     1.125596   -7.1591718    127.81266  0.032374027  0.033563448            1 
  330000    1.1089713   -7.1713416    128.10666  0.032350167   0.03354114            1 
  331000    1.1315615   -7.1497695    128.50106  0.032351728  0.033518674            2 
  332000    1.1047733   -7.1061545    128.79593  0.032328295  0.033495113            1 
  333000    1.1087141   -7.1651875    128.88438  0.032253348  0.033471592            1 
  334000    1.0926423   -7.1780792    129.00399  0.032186624  0.033448592            2 
  335000    1.1279575   -7.1461704    129.35403  0.032177618  0.033425532            2 
  336000    1.1141596   -7.1749637    129.86713   0.03220911  0.033401677            2 
  337000    1.1040967   -7.1635975    130.09854  0.032170757  0.033377309            1 
  338000    1.0898223    -7.171164    130.56357   0.03219023  0.033353245            2 
  339000    1.1240855   -7.1835887    130.57897  0.032099058  0.033329011            2 
  340000    1.0749616   -7.1062346    131.32668  0.032187912  0.033305773            1 
  341000    1.1064621   -7.1374164    131.64601  0.032171556  0.033282659            2 
  342000    1.1319684   -7.1979553    131.42117  0.032022703  0.033258617            2 
  343000    1.1014907   -7.1277471    132.28472  0.032139145  0.033235237            1 
  344000    1.1112266    -7.168889    132.23671  0.032034088  0.033212414            1 
  345000    1.1072192   -7.1516683    132.90151  0.032101815  0.033189295            1 
  346000    1.0931311   -7.1566205    132.88408  0.032004836  0.033164859            1 
  347000    1.1093289   -7.1612978     133.3864  0.032033237   0.03314041            2 
  348000    1.1143047   -7.1562968    133.82107  0.032045274  0.033116643            1 
  349000     1.099571   -7.1861282    133.62244  0.031906027  0.033092931            4 
  350000    1.0853474   -7.1797106    134.18938  0.031949851  0.033069252            1 
  351000    1.1022387   -7.1277592    134.94566  0.032038382  0.033046315            1 
  352000    1.1291692   -7.1702285    134.94278   0.03194668  0.033025038            3 
  353000    1.1157368   -7.1650881     135.0972  0.031892634  0.033003327            1 
  354000    1.1065557   -7.1990201    135.03343   0.03178753  0.032981046            2 
  355000    1.1288163   -7.2045568    136.24238   0.03198178  0.032959063            2 
  356000    1.1176628   -7.1718094    136.07501  0.031852763  0.032936868            5 
  357000    1.1118039   -7.1691498    136.67968  0.031904687  0.032915369            4 
  358000    1.1164271   -7.1350623    137.52666  0.032012724  0.032893217            2 
  359000    1.1040019   -7.1403181    137.56774  0.031933088   0.03287151            3 
  360000    1.1308818   -7.1813447    137.47546  0.031823023  0.032849367            3 
  361000    1.1254339   -7.1829898    138.26326  0.031916727  0.032827735            1 
  362000    1.1088496   -7.1572572     138.3771  0.031854764  0.032805393            2 
  363000    1.0990527   -7.1599329    138.95348   0.03189933  0.032783738            2 
  364000    1.1219089   -7.2074074    138.53165   0.03171512  0.032760947            3 
  365000    1.0876104   -7.2304445    138.08227  0.031525632  0.032736998            2 
  366000    1.1126743   -7.2193381    138.96728  0.031641003  0.032712913            1 
  367000    1.1378929   -7.1707814    139.27298    0.0316242  0.032689203            2 
  368000    1.1149868   -7.2019584    139.42958  0.031573727  0.032666055            1 
  369000    1.1204076   -7.1725369    139.83247  0.031579149    0.0326426            1 
  370000    1.0957148   -7.1482549    140.32576  0.031604901  0.032619477            1 
  371000    1.1194313   -7.1828827    140.38031  0.031531965  0.032596258            7 
  372000    1.1082531   -7.1487919    140.79893   0.03154098  0.032572919            3 
  373000    1.1040754   -7.1944704    141.06507  0.031515879  0.032549588            1 
  374000    1.1197812   -7.1950992     141.3172  0.031487791  0.032525797            1 
  375000    1.1154045    -7.181168    141.62473  0.031472162  0.032502551            2 
  376000    1.1292109   -7.1664574    142.42965  0.031566854  0.032479772            2 
  377000    1.0925855   -7.1489543    142.70133  0.031543175  0.032458048            2 
  378000    1.1233782    -7.169515    143.01812  0.031529567  0.032435678            2 
  379000     1.098273    -7.188267    143.06772  0.031457283  0.032413375            1 
  380000    1.1112332   -7.2115376    143.30882  0.031427373  0.032390951            3 
  381000    1.1238364   -7.1563825    143.75868  0.031443281  0.032369358            1 
  382000    1.0988377   -7.1998018    144.41866  0.031504944  0.032348228            1 
  383000    1.1096036    -7.238546    144.53995  0.031449076   0.03232776            1 
  384000    1.1127049   -7.1951497     145.0585  0.031479709  0.032307049            1 
  385000    1.0934919   -7.1661449     145.5193  0.031497684  0.032286717            2 
  386000    1.0965763   -7.2249094    146.00611  0.031521181  0.032266524            4 
  387000    1.0970241    -7.216281    146.25541  0.031493413  0.032247268            2 
  388000    1.1049766     -7.18735    146.30692  0.031423308  0.032227756            3 
  389000    1.0825688   -7.2151836    146.64828  0.031415656  0.032208277            4 
  390000    1.0971472   -7.1854865    147.29797  0.031473925  0.032189208            1 
  391000    1.0896258   -7.1734017    147.31094  0.031396194  0.032169934            1 
  392000    1.0883829   -7.1548374    147.75365  0.031410215  0.032150875            2 
  393000    1.1033269   -7.1608281    148.30864  0.031447973  0.032131502            2 
  394000    1.1019479   -7.1962707    148.25106  0.031355976  0.032112924            3 
  395000    1.1261905   -7.1627255    148.70691  0.031372765  0.032094225            1 
  396000    1.1284165   -7.2418936    148.37581  0.031223865  0.032073933            1 
  397000    1.0869409   -7.1844146    149.37571  0.031355103  0.032054153            1 
  398000    1.1155636   -7.2194766    148.82548  0.031161113  0.032034146            3 
  399000    1.0966553   -7.2083986     149.7043  0.031266563   0.03201382            1 
  400000    1.0931047   -7.1859591    150.36351  0.031325731   0.03199363            1 
  401000    1.0854681   -7.2041211    150.88948  0.031356917  0.031975143            2 
  402000    1.0881336   -7.1984587    151.11646  0.031325966   0.03195688            1 
  403000    1.1210038   -7.2256395    150.90201  0.031203889  0.031938186            1 
  404000    1.0912111   -7.1944682    151.35498  0.031220086  0.031919145            4 
  405000    1.0964708   -7.2295225    151.95509   0.03126648  0.031900264            1 
  406000    1.1097644   -7.2169764    152.16536  0.031232627  0.031880737            1 
  407000    1.1211188   -7.1938239    152.18756  0.031160434  0.031861406            2 
  408000    1.1019465   -7.2108975    152.44188  0.031136004  0.031842612            2 
  409000     1.075527   -7.2036365    152.36617  0.031044451  0.031823997            2 
  410000    1.0847389   -7.2130666    152.82935  0.031062876  0.031804603            1 
  411000    1.0905162   -7.2417977    153.11262  0.031044733  0.031784913            2 
  412000    1.0640806   -7.2417618    153.66713   0.03108154  0.031764849            4 
  413000    1.0920437   -7.2240449    153.41829  0.030956072  0.031745082            2 
  414000    1.0749579   -7.2139371    153.81689  0.030961531  0.031725073            2 
  415000    1.1116283   -7.2106013    154.12741   0.03094928  0.031704606            2 
  416000    1.0894269   -7.2035199    154.55084  0.030959703  0.031684446            2 
  417000    1.0703182   -7.2126891    154.43641  0.030862593  0.031663571            3 
  418000    1.1112842   -7.2120086    154.58256  0.030817895  0.031642337            2 
  419000    1.1109092   -7.2149118    155.39464  0.030905856   0.03162236            2 
  420000     1.095406   -7.2275363    155.95601  0.030943653  0.031601798            1 
  421000    1.0901185    -7.212777    156.06283  0.030891297   0.03158174            2 
  422000    1.0748997   -7.2084533    157.14024  0.031030853  0.031561962            3 
  423000    1.1085268   -7.2011856    156.80282  0.030891021  0.031542225            1 
  424000    1.1099741   -7.2537613    156.83815  0.030825108  0.031522853            3 
  425000    1.0942027   -7.1869375    157.96939   0.03097439  0.031503793            2 
  426000     1.097087   -7.2551555    157.48609  0.030807138  0.031484593            2 
  427000    1.0974737   -7.2325701    157.94661  0.030824866  0.031465191            1 
  428000    1.1052466   -7.1993684    158.78489  0.030916062  0.031446321            2 
  429000    1.0925217   -7.2219559    158.82571  0.030851925  0.031427547            1 
  430000    1.1130723   -7.2223611    158.95913  0.030806034  0.031408532            5 
  431000    1.0910038   -7.2074168    159.52902  0.030844745  0.031389822            2 
  432000    1.0897115   -7.2559869    158.96783   0.03066509  0.031370345            3 
  433000    1.0773798   -7.2524075    160.12066   0.03081614  0.031350856            1 
  434000    1.0672289   -7.2403987    159.99854  0.030721686  0.031331749            2 
  435000    1.0905296   -7.2896779    159.58283  0.030571424  0.031311773            1 
  436000    1.0665299   -7.2996276    159.57521  0.030499849  0.031291364            1 
  437000    1.0837733   -7.2284768    160.62581  0.030630398  0.031270617            2 
  438000    1.0501184   -7.2089772     161.4189  0.030711359  0.031250966            2 
  439000    1.0438664   -7.2464742    160.86331  0.030535937  0.031230929            2 
  440000    1.0589464   -7.2530297    160.83269  0.030460736  0.031210464            3 
  441000     1.071779   -7.2534947     161.3899  0.030496958    0.0311906            4 
  442000    1.0868579   -7.2348345    161.94837  0.030533253  0.031171361            2 
  443000    1.0734662   -7.2357425    162.23738  0.030518695  0.031152205            1 
  444000    1.0754661   -7.2482235    162.91205  0.030576586   0.03113318            2 
  445000    1.1034232   -7.2115643    163.13948  0.030550465  0.031114074            2 
  446000    1.0983281   -7.2634719    163.89118  0.030622418  0.031095883            2 
  447000    1.0725923   -7.2505252    163.39973  0.030462291  0.031077709            2 
  448000    1.0630327   -7.2794149    163.99178  0.030504424  0.031059152            1 
  449000    1.1038052   -7.2594436    164.26807  0.030487763  0.031040339            1 
  450000    1.0997267   -7.2603332    164.62528  0.030486164  0.031022506            2 
  451000    1.0864971   -7.2645777    164.95608  0.030479689  0.031004305            2 
  452000    1.0581574   -7.2636959    165.06399  0.030432152  0.030985704            1 
  453000    1.1015405   -7.2621415    165.30973  0.030410178  0.030967349            2 
  454000    1.1098802   -7.2967908    165.70806   0.03041631  0.030949617            3 
  455000     1.078469   -7.2616038    166.37043  0.030470775  0.030932204            3 
  456000    1.0582381   -7.2298134    167.61701  0.030631764  0.030915435            2 
  457000    1.0578949   -7.2512035    167.48184  0.030540087  0.030898472            2 
  458000    1.0792473   -7.2259852    167.52655  0.030481541  0.030882112            2 
  459000    1.0823965   -7.2592746    168.33231  0.030561422  0.030865765            1 
  460000    1.0735412   -7.2431812    168.55419  0.030535179  0.030849451            3 
  461000    1.0786353   -7.2726985    168.49913   0.03045899  0.030833169            4 
  462000    1.0873172   -7.3125487    168.34749  0.030365708  0.030816342            2 
  463000    1.0633013   -7.2884849    168.31135   0.03029362  0.030799004            1 
  464000    1.0489892   -7.2302582    168.95099  0.030343209  0.030782013            3 
  465000    1.0612761   -7.2449939    169.39454  0.030357445  0.030764904            2 
  466000    1.0752356   -7.2880729    168.88427  0.030201049  0.030747969       -1e+20 
  467000    1.0690231   -7.3107421    169.42652  0.030233141  0.030730338            2 
  468000     1.084631   -7.2776201    169.77816  0.030231153  0.030712929            1 
  469000     1.069791    -7.281312    170.07108  0.030218742  0.030695625            4 
  470000     1.053042   -7.3201263    170.09629  0.030158917  0.030677891            2 
  471000    1.0704496   -7.2658929    170.79796   0.03021903  0.030660109            1 
  472000       1.0683   -7.2573166    170.74704  0.030146017  0.030642031            3 
  473000    1.0761859   -7.2733443    170.95988  0.030119781  0.030623455            2 
  474000    1.0690791    -7.265455    170.82193  0.030031985  0.030604689            2 
  475000    1.0603334    -7.300515    171.03826  0.030006712   0.03058559            3 
  476000     1.045277   -7.2439497     172.0879  0.030127434  0.030566931            3 
  477000    1.0764625   -7.2780814    171.94788  0.030039811  0.030548755            3 
  478000    1.0965579    -7.259374     172.8222  0.030129393  0.030530082            1 
  479000    1.0587588   -7.3175973    171.92375  0.029910186  0.030511397            2 
  480000    1.0712445   -7.2789743    172.64919  0.029973818  0.030492702            1 
  481000     1.043272   -7.2952277    173.24561  0.030014832   0.03047442            3 
  482000    1.0592869   -7.2652262    173.08442  0.029924692  0.030455694            1 
  483000    1.0551946    -7.296001    172.95129  0.029839767  0.030436701            2 
  484000    1.0669801   -7.2796038    173.55077   0.02988133  0.030417799            1 
  485000    1.0411581   -7.2729424    173.79872  0.029862323  0.030399147            1 
  486000    1.0588669   -7.2569821    174.49819  0.029920815  0.030380582            3 
  487000    1.0591232   -7.2324038    174.80466  0.029911817  0.030362113            3 
  488000    1.0801559   -7.2691566    174.48339  0.029795661   0.03034322            2 
  489000    1.0596543   -7.2548469    175.03893  0.029829402  0.030324601            1 
  490000    1.0597928   -7.2425945      175.881  0.029911735   0.03030719            6 
  491000    1.0701871    -7.287946    175.55219  0.029795008  0.030289307            1 
  492000    1.0565765    -7.261465    176.35115  0.029869775  0.030271573            2 
  493000     1.067907   -7.2591006    176.29988   0.02980052  0.030253936            1 
  494000    1.0596845   -7.2665911    176.70107  0.029807873  0.030236684            2 
  495000    1.0570276   -7.2709307    177.11064  0.029816606  0.030218959            1 
  496000    1.0713872   -7.3269458    177.10309  0.029755223  0.030201417            3 
  497000    1.0529294   -7.3096615    177.62943  0.029783606  0.030183659            2 
  498000    1.0735911   -7.3308453    177.65228  0.029727623  0.030166272            1 
  499000    1.0501734   -7.2836765    178.01729  0.029729007  0.030148888            1 
  500000    1.0596138   -7.3320553    178.37519  0.029729198  0.030131791            1 
  501000    1.0489764   -7.3199021    178.75356  0.029732794  0.030114762            2 
  502000    1.0689098   -7.2898327    179.42767   0.02978547  0.030097752            4 
  503000    1.0518509   -7.3002002    179.98849  0.029819167  0.030081408            1 
  504000     1.070409   -7.3346959    179.94848  0.029753385  0.030065237            3 
  505000    1.0584245   -7.3069474    180.31275  0.029754579  0.030049177            2 
  506000    1.0513943   -7.3039348     180.5981   0.02974277  0.030033073            1 
  507000     1.045497   -7.2974017    180.55151  0.029676447  0.030017317            2 
  508000    1.0277557   -7.3435504    180.67693  0.029638605  0.030001023            2 
  509000    1.0493606   -7.3058144    181.28942  0.029680652  0.029985064            5 
  510000     1.051777   -7.3169891    181.72957  0.029694374  0.029968867            2 
  511000    1.0473314   -7.3318399    181.82032  0.029651063  0.029952435            2 
  512000    1.0453367   -7.3438482    181.71172  0.029575476  0.029935964            2 
  513000    1.0599521   -7.3131078    182.14883  0.029588829  0.029919236            2 
  514000    1.0626226   -7.3068258     182.4407  0.029578583  0.029902652            1 
  515000    1.0580639    -7.308209    182.37528  0.029510563  0.029886392            2 
  516000    1.0470881   -7.3000207    183.49693  0.029634518  0.029870599            2 
  517000    1.0462716   -7.2778057    183.95263   0.02965065  0.029854552            2 
  518000    1.0536256   -7.3561823    183.59266  0.029535498  0.029838989            2 
  519000    1.0470185    -7.317121    184.46162  0.029618115  0.029823222            1 
  520000    1.0617956   -7.3807747    183.64594  0.029430439  0.029807605            2 
  521000    1.0679775   -7.2890767     185.0011  0.029590707  0.029792084            1 
  522000    1.0695989   -7.3110863    185.16071  0.029559501  0.029777024            2 
  523000    1.0400227   -7.2750345    185.31913  0.029528223  0.029761747            1 
  524000    1.0482286   -7.3111721    185.86294  0.029558355  0.029745959            1 
  525000    1.0534166   -7.3248364    185.88985  0.029506326  0.029730474            2 
  526000    1.0482037   -7.3372593    185.94031  0.029458224  0.029714763            3 
  527000    1.0481962   -7.3436038    186.01042  0.029413413  0.029698919            4 
  528000    1.0371148   -7.3015155    186.53561  0.029440595   0.02968269            1 
  529000    1.0326818   -7.3344236    186.73933  0.029417033  0.029666727            2 
  530000    1.0423026   -7.2927385    187.10847  0.029419571  0.029651049            3 
  531000    1.0360171   -7.3277071    187.08747   0.02936087  0.029634933            1 
  532000    1.0502006   -7.2970101    187.23736   0.02932916  0.029618709            3 
  533000    1.0466229   -7.3223998    187.71813    0.0293493  0.029602354            1 
  534000    1.0449309   -7.3013862    188.38394  0.029398243  0.029586679            2 
  535000    1.0551894   -7.3300886    188.22378  0.029318346  0.029570717            2 
  536000    1.0586971   -7.3693804    188.32893  0.029279996  0.029554818            1 
  537000    1.0492085   -7.3357826    189.08039  0.029342083  0.029538831            3 
  538000    1.0461019   -7.3016561    189.40773  0.029338247  0.029522648            2 
  539000    1.0211596   -7.3354175    189.12174  0.029239601  0.029506575            2 
  540000     1.072531   -7.3797393    189.16681  0.029192408  0.029489682            2 
  541000    1.0349193   -7.3380227    189.17956  0.029140413  0.029473195            3 
  542000    1.0300194   -7.3088802    190.19185  0.029242289  0.029456663            6 
  543000    1.0282938   -7.3243363    190.49216  0.029234524  0.029440386            4 
  544000     1.034427   -7.3200209    190.38956  0.029165068   0.02942382            2 
  545000    1.0396452   -7.3370071    189.68998  0.029004583  0.029407052            1 
  546000    1.0441352   -7.2929745    190.02115  0.029002007  0.029390217            1 
  547000     1.047682   -7.3101654    191.16457  0.029123183  0.029373331            3 
  548000    1.0112926   -7.3235259    190.86167  0.029023977  0.029356831            2 
  549000     1.026161    -7.341024    191.06076   0.02900133  0.029340082            4 
  550000    1.0477468   -7.3553583    191.18952   0.02896811  0.029322844            3 
  551000    1.0477313   -7.3259921    191.74748  0.028999921  0.029305914            1 
  552000   0.99425663    -7.342448    191.98215  0.028982812  0.029288578            1 
  553000     1.026416   -7.3683313    192.09747  0.028947781   0.02927144            1 
  554000    1.0759102   -7.3737422    192.75753  0.028994815    0.0292547            1 
  555000    1.0620548   -7.3753858    192.57367  0.028914966  0.029237873            2 
  556000      1.02655    -7.361096    192.42008   0.02883994  0.029221231            3 
  557000    1.0125082   -7.3613415    193.12457  0.028893562  0.029204532            2 
  558000    1.0579644   -7.3516012    193.95287  0.028965483  0.029187843            2 
  559000    1.0302937   -7.3285306    194.25891   0.02895929  0.029171275            5 
  560000    1.0447824    -7.365211    194.18996  0.028897316  0.029154458            2 
  561000    1.0421979   -7.3607867     194.5251  0.028895588  0.029137583            2 
  562000    1.0223329   -7.3873374     194.0468   0.02877325  0.029120996            2 
  563000    1.0603678   -7.4044217    194.44713  0.028781399  0.029104202            1 
  564000    1.0203433   -7.3687186    194.76194  0.028776882   0.02908719            2 
  565000    1.0164234   -7.3680148    195.48817  0.028833063  0.029070831            2 
  566000    1.0651723   -7.3821045    195.04338  0.028716634  0.029054288            1 
  567000     1.052194   -7.3633673    195.11651  0.028676736  0.029037282            2 
  568000    1.0314756   -7.3589647     195.3909  0.028666506  0.029020463            2 
  569000    1.0235274   -7.4110821    195.48408  0.028629772  0.029003263            4 
  570000     1.009162    -7.415402    195.93478  0.028645435  0.028985847            7 
  571000    1.0259564   -7.3690461    196.60029  0.028692395  0.028968728            3 
  572000     1.024395   -7.3902109    196.99542  0.028699798  0.028951743            1 
  573000    1.0313153   -7.3622038     196.8351  0.028626396  0.028934692            2 
  574000    1.0212079   -7.3561487    197.09754  0.028614626   0.02891744            2 
  575000     1.016409   -7.3637673    196.80569  0.028522564  0.028900219            1 
  576000    1.0296362   -7.3876367    196.87359  0.028482869  0.028882637            3 
  577000     1.005281   -7.3673335    197.13705  0.028471556  0.028865366            3 
  578000    1.0247419   -7.3952271    197.25333  0.028439061  0.028847877            1 
  579000    1.0490416   -7.4066986    197.77241  0.028464653  0.028830715            2 
  580000    1.0277772   -7.3888509    197.93446   0.02843886  0.028813446            1 
  581000    1.0431176   -7.3803906    198.69301   0.02849871  0.028796338            2 
  582000    1.0287015   -7.3915696    198.38824  0.028406105  0.028778984            3 
  583000    1.0416389   -7.3405337    198.74078  0.028407772  0.028761733            2 
  584000    1.0414097   -7.3798982     198.6381  0.028344478  0.028743945            3 
  585000    1.0123548   -7.3732207    199.61244   0.02843482  0.028726644            2 
  586000    1.0306719   -7.4137207    199.43343  0.028360841  0.028709375            2 
  587000     1.007614   -7.3775954    200.22704   0.02842519  0.028692358            1 
  588000   0.99272117   -7.3516362    200.57223   0.02842577  0.028675382            1 
  589000    1.0250214   -7.3602359     200.6164  0.028383758  0.028658454            6 
  590000    1.0138002   -7.3783157    200.41471  0.028307162  0.028641122            1 
  591000    1.0132243   -7.3728915    200.13743  0.028220167  0.028623375            4 
  592000    1.0352647   -7.3647907    200.50558  0.028224322  0.028605367            2 
  593000   0.99459051   -7.3533007    201.28158  0.028285776  0.028587515            4 
  594000    1.0164477   -7.3891526    201.12246  0.028215834  0.028569659            2 
  595000     1.026585   -7.4294958    201.21015  0.028180693  0.028552149            2 
  596000     1.025226   -7.4072302    200.86927  0.028085748  0.028534187            1 
  597000    1.0284915   -7.3776624    201.30934  0.028100131   0.02851649            2 
  598000    1.0020608   -7.3794627    201.93037  0.028139684  0.028498454            2 
  599000    1.0150766   -7.3732441    201.86388  0.028083456  0.028480234            1 
  600000   0.98696963   -7.4143092    201.74768  0.028020511   0.02846217            1 
  601000     1.015231   -7.3662343    202.61255  0.028093808  0.028444103            2 
  602000    1.0341758   -7.3513238    202.70543  0.028059999  0.028426269            2 
  603000    1.0229058   -7.4107959    202.89149  0.028039177  0.028408543            2 
  604000   0.99755828   -7.3561114    203.83851  0.028123415  0.028390527            3 
  605000    1.0159218   -7.3982863    203.59903  0.028043943  0.028372638            1 
  606000    1.0260664   -7.3682485    204.23699  0.028085394  0.028355028            2 
  607000    1.0274943   -7.3675776    203.67411  0.027961849   0.02833739            1 
  608000   0.98871609   -7.4128512    204.39434  0.028014576  0.028319952            2 
  609000    1.0175692   -7.3740018    204.24502  0.027948141  0.028302282            2 
  610000    1.0296405   -7.4083566    204.88953  0.027990374  0.028284382            3 
  611000    1.0234857   -7.3722435    204.92897  0.027949942  0.028266853            2 
  612000   0.98652061   -7.4214776    204.78404  0.027884537  0.028249045            2 
  613000    1.0032363   -7.4045917    204.94614  0.027861084  0.028231151            2 
  614000    1.0139098    -7.413816    205.12967  0.027840618  0.028213052            2 
  615000     1.021497   -7.4095799    205.19541  0.027804256  0.028195171            2 
  616000    1.0060384   -7.3931901    205.88364  0.027852224  0.028177567            3 
  617000    1.0087114   -7.3977661    205.86151  0.027804094  0.028159762            3 
  618000    1.0223561   -7.4393594    206.46438  0.027840396  0.028141982            2 
  619000   0.99426238   -7.3930063    207.19575  0.027893881  0.028124377            2 
  620000    1.0203154   -7.4168137    206.36547  0.027737294  0.028106948            5 
  621000    1.0008141    -7.432543    206.53811  0.027715795  0.028089044            2 
  622000    1.0146715   -7.4146945    206.47547  0.027662844  0.028071405            1 
  623000    1.0168215   -7.4062201    207.34047  0.027734145  0.028053583            4 
  624000    1.0005348   -7.4466871     207.1442  0.027663488  0.028035478            2 
  625000    1.0070528   -7.4179626    208.32005  0.027776006  0.028017309            2 
  626000    1.0101051   -7.4093257     207.3631  0.027604247  0.027999196            1 
  627000    1.0092023   -7.4235301    207.05095  0.027518734  0.027980949            3 
  628000   0.99661852   -7.3885565    207.38485  0.027519221  0.027962331            2 
  629000    1.0001225    -7.383557    208.18173  0.027581045  0.027943605            2 
  630000    1.0340046   -7.4297371    207.67638   0.02747042  0.027924868            1 
  631000     1.011183   -7.4000866    207.96742  0.027465323  0.027905977            2 
  632000    1.0057017   -7.4121199    207.21649  0.027322849  0.027887199            2 
  633000    0.9920062   -7.4218052    207.89815  0.027369424  0.027867868            2 
  634000    1.0079057   -7.4384557    207.88174  0.027324098  0.027848208            2 
  635000   0.98773255   -7.4214832     208.6645  0.027383793  0.027828744            2 
  636000    1.0129607   -7.4147704    208.22017  0.027282516   0.02780949            2 
  637000    1.0016579   -7.4607351    208.17128  0.027233291  0.027790074            2 
  638000    1.0109229   -7.3992564     209.3191  0.027340531  0.027770803            2 
  639000   0.99862551   -7.4246185    208.65354  0.027210947  0.027751579            2 
  640000    1.0018265   -7.4133994    210.02595  0.027347129  0.027732493            4 
  641000    1.0120814   -7.4077727    209.97552  0.027297909  0.027713474            2 
  642000   0.99258226   -7.4265519    209.88534  0.027243683  0.027694144            1 
  643000    1.0074194   -7.4253199    210.36326  0.027263253   0.02767475            2 
  644000   0.98459273   -7.4470392    210.07989  0.027184251  0.027655836            1 
  645000   0.97421373   -7.4243864    210.23467  0.027162102  0.027636603            1 
  646000   0.99822416   -7.4313926    211.03094  0.027222773  0.027617602            4 
  647000   0.98215613    -7.465247    210.35237  0.027093299  0.027598561            2 
  648000   0.97955392   -7.4335845    211.25979  0.027168183  0.027579364            1 
  649000   0.99008477   -7.4259501    211.06716  0.027101587  0.027560307            1 
  650000    0.9932831   -7.4151124    211.45573  0.027109709  0.027541336            1 
  651000   0.98246437   -7.4192364    212.10083  0.027150644  0.027522295            2 
  652000    1.0231774   -7.4462568    211.58609  0.027043211  0.027503295            3 
  653000    1.0110668   -7.4243008    211.70279  0.027016691   0.02748436            2 
  654000   0.97344442   -7.4120962    212.29622  0.027050996  0.027465216            4 
  655000   0.99937533   -7.4454064     211.9714  0.026968372  0.027445904            4 
  656000   0.98666873   -7.4490578    212.57787  0.027004302  0.027426827            1 
  657000     1.005343   -7.4570856    212.18305  0.026913121  0.027407436            2 
  658000   0.99986921   -7.4550668    213.67657  0.027061369  0.027388195            6 
  659000   0.96759732   -7.4165956    213.22415  0.026963094  0.027369442            3 
  660000   0.98011858   -7.4263396    213.57508   0.02696655   0.02735059            1 
  661000     1.005258   -7.4761056    213.03852  0.026858109  0.027331867            2 
  662000   0.97322506   -7.4619242    213.41904  0.026865438  0.027312818            2 
  663000    0.9699933   -7.4577165    213.57143  0.026844072  0.027293705            3 
  664000   0.96730171   -7.4123303    214.73194  0.026949289  0.027274876            1 
  665000    0.9907897   -7.4415263    214.17507  0.026838981  0.027256415            4 
  666000    1.0041668   -7.4407245    214.80315  0.026877271  0.027237673            1 
  667000   0.98489492   -7.4575039    215.31712   0.02690119  0.027218633            1 
  668000    1.0045688   -7.4632751    214.69071  0.026782773  0.027199751            1 
  669000    1.0208116   -7.4534279    215.40361   0.02683154  0.027181261            2 
  670000    1.0036251   -7.4337187     215.8361  0.026845286  0.027162755            2 
  671000   0.97921989   -7.4440822    215.44256  0.026756403  0.027144285            2 
  672000   0.99545662   -7.4789761    215.42122  0.026713941  0.027125708            1 
  673000   0.99590389   -7.4318572    216.59445   0.02681952  0.027107017            1 
  674000   0.97261058   -7.4114859    216.94966  0.026823647   0.02708851            2 
  675000    1.0109844   -7.4275148    217.03617  0.026794589  0.027070022            2 
  676000   0.97898056   -7.4630997    216.71339  0.026715161  0.027051605            1 
  677000   0.97160502   -7.4543483    216.45902  0.026644389  0.027033256            2 
  678000   0.97577508   -7.5021014    216.50691  0.026610977  0.027014759            3 
  679000   0.98313232   -7.4845524    216.92562  0.026623173  0.026996001            1 
  680000   0.97061278   -7.5175802    216.91766  0.026583046   0.02697737            1 
  681000   0.97324458   -7.4533224    217.86993  0.026660539  0.026959026            1 
  682000   0.99053431   -7.4567278     218.3045  0.026674547  0.026940695            1 
  683000   0.98269006   -7.4875419     218.1499   0.02661663  0.026922462            2 
  684000   0.97493642   -7.4605862    218.42591  0.026611343   0.02690453            1 
  685000   0.98211881   -7.4674619    219.09721  0.026654162  0.026886556            1 
  686000   0.97978335   -7.4647635    218.59385   0.02655416  0.026868593            3 
  687000   0.97072562   -7.4800899    219.11613  0.026578861  0.026850544            1 
  688000   0.97466863   -7.4470692    219.72857   0.02661441  0.026832937            1 
  689000   0.97651443   -7.4748783    218.96477  0.026483402  0.026815267            3 
  690000   0.96663131   -7.4907816     218.9849  0.026447451  0.026797183            4 
  691000   0.98122792   -7.4885268    219.04428  0.026416338  0.026779115            2 
  692000   0.95674645   -7.4833463    219.72868  0.026460583  0.026761042            1 
  693000   0.97510077   -7.4557426     220.4117  0.026504534  0.026743226            2 
  694000   0.96947825   -7.4781906    219.73195   0.02638472  0.026725516            1 
  695000   0.97130398   -7.4499674     221.0283  0.026502194  0.026707688            1 
  696000   0.98508435   -7.4910759    220.57336  0.026409646  0.026689985            3 
  697000    1.0070945   -7.4895936    220.09894  0.026315034  0.026672341            1 
  698000   0.97317948   -7.4601656    220.63497  0.026341329  0.026654507            2 
  699000    0.9843225   -7.4771926    221.38214  0.026392721  0.026636394            2 
  700000   0.97134167    -7.479798    220.79404  0.026285004  0.026618192            2 
  701000   0.97854872   -7.4853034    221.33692  0.026312045  0.026599936            3 
  702000   0.97869527   -7.4821414    221.20421   0.02625881  0.026581746            1 
  703000   0.97987767   -7.4928156    220.68986  0.026160486  0.026563204            2 
  704000   0.96425315   -7.5131602     221.3476  0.026201184  0.026544719            1 
  705000   0.98597722   -7.4630912    221.72325  0.026208422  0.026526334            4 
  706000   0.97815784   -7.4721806    222.09889  0.026215639  0.026508101            4 
  707000   0.98528289   -7.4982134    222.14047  0.026183459  0.026489782            1 
  708000   0.99337572   -7.4880636    222.53808  0.026193277  0.026471484            1 
  709000   0.97766248   -7.4593946    222.34886  0.026134092  0.026452927            2 
  710000   0.98245605   -7.5121695     222.1679  0.026076044  0.026434539            2 
  711000   0.98901699   -7.4277014    222.75526  0.026108211  0.026416014            1 
  712000   0.98639403   -7.4250729    223.32856  0.026138643  0.026397806            3 
  713000   0.98415106   -7.4925216    222.42273  0.025996111  0.026379468            1 
  714000    0.9613282    -7.519519    222.82403  0.026006539  0.026360961            1 
  715000   0.95535614   -7.4878837    223.25956  0.026020928  0.026342566            5 
  716000   0.94769519   -7.4941277    223.52911  0.026015958  0.026324238            1 
  717000   0.96509081   -7.5152391    223.42887  0.025968023   0.02630587            2 
  718000   0.98560625    -7.526131    224.25509   0.02602775  0.026287734            1 
  719000   0.95930902   -7.4738548    224.61192  0.026032907  0.026269797            2 
  720000   0.95510739   -7.4991064    224.47185  0.025980538  0.026251665            3 
  721000   0.98036221   -7.5273112     224.2757  0.025921834  0.026233785            2 
  722000   0.96877202    -7.491784    224.76367  0.025942252  0.026215703            2 
  723000   0.99494438   -7.5292978    224.27203  0.025849704  0.026197507            1 
  724000   0.95043031   -7.4967428    225.05419  0.025904027  0.026179242            1 
  725000   0.96031727   -7.5162707    224.83197  0.025842755   0.02616106            2 
  726000    0.9719571    -7.501845     225.2688    0.0258573  0.026142694            2 
  727000    0.9646014   -7.4929809    225.94437  0.025899171  0.026124664            1 
  728000   0.93653699   -7.4767792    226.11138  0.025882713  0.026106758            2 
  729000   0.97863912   -7.5116671    225.99832  0.025834284  0.026088814            4 
  730000   0.95987867   -7.4861345    226.24648  0.025827223  0.026070887            1 
  731000   0.96144162   -7.5337189    226.28214  0.025795957  0.026052701            3 
  732000   0.99466714   -7.5422723    226.32951   0.02576611  0.026034336            1 
  733000   0.96582063   -7.5280622    226.74952  0.025778709  0.026016299            2 
  734000   0.95522625   -7.5051734    226.62813  0.025729806  0.025998265            6 
  735000   0.96726676   -7.5326575    226.71509  0.025704659  0.025980417            3 
  736000   0.94409281   -7.4574968    228.08146  0.025824441  0.025962733            1 
  737000   0.93612169   -7.5071572    228.06284  0.025787295  0.025944973            2 
  738000   0.95010584   -7.5554208    227.77942  0.025720351  0.025927265            3 
  739000   0.96930549   -7.5317554     228.0074  0.025711254  0.025909512            2 
  740000   0.95641407   -7.5122954    228.02968  0.025679018  0.025891683            2 
  741000   0.97885376   -7.5194275    228.34711  0.025680061  0.025873761            2 
  742000   0.94782345   -7.5067362    228.49494  0.025662055  0.025855896            3 
  743000   0.96200127   -7.5589917    227.88037  0.025558588  0.025838099            1 
  744000   0.95666504    -7.534583    228.31833  0.025573289  0.025820163            2 
  745000   0.94644634   -7.5120455    229.74967  0.025699069  0.025802556            2 
  746000   0.95971549   -7.5472154    227.78724  0.025445402  0.025784796            1 
  747000   0.96833788   -7.4935947    229.52468  0.025605163  0.025766876            2 
  748000   0.96892895   -7.5434381    229.27591  0.025543217  0.025749122            1 
  749000   0.95987666     -7.52843    229.11354  0.025491048  0.025731231            2 
  750000   0.95040871    -7.519917    229.47193  0.025496881  0.025713306            2 
  751000    0.9644824   -7.5381047    229.86919  0.025507012  0.025695498            5 
  752000   0.95502847   -7.5130926    229.90565  0.025477134  0.025677621            2 
  753000   0.93403043   -7.5544448    229.52345  0.025401002  0.025659549            2 
  754000   0.96349511   -7.5781422    228.98037  0.025307291  0.025641222            2 
  755000   0.93799863   -7.5291615    230.56086  0.025448218  0.025623083            4 
  756000   0.94146796   -7.4984277    229.92458   0.02534442  0.025605219            2 
  757000   0.93641632   -7.5371056    230.43879  0.025367546  0.025587516            2 
  758000   0.97543073   -7.4923628    230.89653  0.025384403  0.025569605            1 
  759000   0.96662053   -7.5548397    230.39367  0.025295748  0.025551783            1 
  760000   0.95922761   -7.5350944    230.47465  0.025271344  0.025533715            2 
  761000    0.9455653   -7.5234138    230.68706  0.025261395  0.025515834            1 
  762000   0.94508228   -7.5228553    231.55259  0.025322899  0.025498026            2 
  763000   0.94831542   -7.5513299    230.76353  0.025203531  0.025480081            6 
  764000   0.93867942   -7.5232644    231.11426  0.025208798  0.025462146            2 
  765000   0.94317696   -7.5321443    231.90962  0.025262486  0.025444282            2 
  766000   0.95207423   -7.5722979    231.10871  0.025142375  0.025426391            1 
  767000   0.94598093   -7.5742577    231.70708  0.025174607  0.025408166            2 
  768000   0.93235965   -7.5322716    231.89092  0.025161775  0.025389959            2 
  769000    0.9687153   -7.5746747     232.1034   0.02515208   0.02537179            1 
  770000   0.94516368    -7.540626    231.37567  0.025040657  0.025353519            2 
  771000   0.95125312   -7.5646612     231.9553  0.025070827  0.025335224            1 
  772000   0.93487662   -7.5497304    231.74527  0.025015681  0.025316886            1 
  773000   0.93275801   -7.5506749    232.77798   0.02509465  0.025298922            1 
  774000   0.95303703   -7.5585194    232.48507  0.025030692   0.02528063            2 
  775000   0.95618222   -7.5341189    233.12749  0.025067471  0.025262546            1 
  776000   0.93619662   -7.5332453    233.28479  0.025052061  0.025244475            4 
  777000   0.93997113   -7.5023141    233.82162  0.025077393  0.025226357            1 
  778000   0.94808305   -7.5314123    233.06007  0.024963589  0.025208208            2 
  779000   0.92665242   -7.5737057    232.19194  0.024838676  0.025189967            1 
  780000   0.95820944   -7.5950094    233.36858  0.024932541  0.025171704            2 
  781000   0.93841122   -7.5397287    233.95199  0.024962867  0.025153582            1 
  782000   0.94204183   -7.5365368    233.95561  0.024931331  0.025135621            1 
  783000    0.9290562   -7.5141448    234.06193  0.024910805  0.025117846            1 
  784000   0.95564186   -7.5640123    233.98361  0.024870707   0.02509982            2 
  785000   0.93294371   -7.5333577    234.45496  0.024889061   0.02508179            2 
  786000   0.92408369   -7.5418747    233.97603  0.024806619  0.025063841            1 
  787000   0.95018494   -7.5677586    233.86474  0.024763314    0.0250458            3 
  788000    0.9542893   -7.5469933    234.39869  0.024788355  0.025027762            5 
  789000   0.93764052   -7.5690646    235.02713  0.024823313  0.025009713            3 
  790000   0.91846356   -7.5741079    235.09692  0.024799253   0.02499161            1 
  791000   0.92614735   -7.5947545    235.05646  0.024763639  0.024973525            2 
  792000   0.92159806    -7.573092    234.62946  0.024687443  0.024955575            1 
  793000   0.94953392   -7.5665994    234.92944  0.024687835  0.024937552            1 
  794000   0.93109305   -7.5495738    235.85109  0.024753473  0.024919542            3 
  795000   0.91451954   -7.5378893    235.01346  0.024634535  0.024901456            4 
  796000   0.93024365   -7.5948979    235.55456  0.024660234  0.024883425            1 
  797000   0.92638749   -7.5669149    235.53359    0.0246271  0.024865443            4 
  798000    0.9374569   -7.5463412     235.8446  0.024628717  0.024847494            3 
  799000   0.93569867   -7.5543421    236.30157  0.024645554  0.024829826            1 
  800000   0.92564746   -7.5841712    236.23446  0.024607757  0.024812072            3 
  801000    0.9438615   -7.5607054     236.4859  0.024603194  0.024794269            4 
  802000   0.93501299   -7.6141865    236.71049  0.024595853  0.024776201            3 
  803000   0.93089285   -7.5589824    237.02783  0.024598156  0.024758313            2 
  804000   0.94076469   -7.5866865    236.43374  0.024505985  0.024740572            2 
  805000   0.95216811   -7.5758193    236.64931  0.024497858  0.024722723            2 
  806000   0.94270997   -7.5951505    236.44342  0.024446176  0.024704848            1 
  807000   0.92794625   -7.5944908    237.14651  0.024488487  0.024686997            1 
  808000   0.94822466   -7.6077462    236.78863   0.02442127  0.024669091            2 
  809000   0.92222602     -7.56533     237.2758  0.024441265   0.02465139            2 
  810000   0.94189733    -7.537943    238.95612  0.024583963  0.024633777            2 
  811000   0.92236932   -7.5668127    238.15454  0.024471284  0.024616373            1 
  812000   0.92619871   -7.5691827    237.93109  0.024418216  0.024598945            2 
  813000   0.90151395    -7.555969    238.26433  0.024422338  0.024581447            2 
  814000   0.92074973   -7.5533226    238.83859  0.024451125  0.024563884            2 
  815000   0.92791182   -7.5707542    238.91521  0.024428958  0.024546422            2 
  816000   0.94230588   -7.5659888    238.50669  0.024357301  0.024528943            1 
  817000   0.93413087   -7.5944112    238.53981  0.024330866  0.024511341            2 
  818000    0.9167487    -7.624849    238.37708  0.024284544  0.024493694            2 
  819000   0.90292364   -7.6144846    239.11732  0.024330212  0.024476195            2 
  820000   0.91460048   -7.5811102    239.42094  0.024331396  0.024458871            2 
  821000   0.91988111   -7.5898917    239.65478  0.024325495  0.024441698            4 
  822000   0.92341401   -7.6098016     240.0597  0.024336952  0.024424529            2 
  823000   0.91513869   -7.5940048    239.47284  0.024247959  0.024407287            2 
  824000   0.90361832   -7.6126346    240.19186  0.024291248  0.024389922            3 
  825000   0.93805025   -7.5876883    239.78201  0.024220405  0.024372801            2 
  826000   0.92424717   -7.5882641    240.11057   0.02422423  0.024355515            2 
  827000   0.91114161   -7.5950239    240.78029  0.024262424  0.024338315            2 
  828000   0.91249659   -7.5723674     240.4569  0.024200574  0.024321099            3 
  829000    0.9293458   -7.6504022    240.29752   0.02415536  0.024303753            2 
  830000   0.92811595   -7.6125869    240.91444  0.024188197   0.02428651            2 
  831000   0.92495718    -7.631043    240.91047  0.024158692  0.024269349            1 
  832000    0.9111527   -7.6052829    240.92236  0.024130845  0.024252044            1 
  833000   0.90962343   -7.6280116    241.26559  0.024136213  0.024234832            1 
  834000   0.93810849   -7.6059329    240.83785  0.024064533  0.024217554            2 
  835000   0.93601116   -7.6226298    241.58153  0.024109934  0.024200366            1 
  836000   0.92287053   -7.5952762    241.34738  0.024057753  0.024183124            4 
  837000   0.94083575   -7.6535662    240.97151  0.023991588  0.024166001            2 
  838000   0.89244221   -7.6293422    242.00948  0.024066178  0.024148672            2 
  839000   0.91594237   -7.6161397    241.71984  0.024008724  0.024131421            2 
  840000   0.95821132   -7.6237275    241.71589  0.023979751  0.024114115            2 
  841000   0.91064769    -7.611141    243.02182   0.02408064  0.024096792            3 
  842000   0.92779929   -7.6115772    242.29821  0.023980424  0.024079598            1 
  843000    0.9180234   -7.6188646     242.2577  0.023947973  0.024062237            2 
  844000   0.91428633   -7.6455548    241.96812  0.023891007  0.024045086            2 
  845000    0.9285218   -7.5991762    242.69282  0.023934203  0.024027843            3 
  846000   0.89868571   -7.5983787    242.33989  0.023871148   0.02401049            2 
  847000    0.9063632   -7.5931702    242.30399  0.023839432  0.023993149            4 
  848000   0.91716749   -7.6158174     242.9511  0.023874912  0.023975937            3 
  849000   0.91998898   -7.6331505    243.12391  0.023863753  0.023958759            3 
  850000   0.91784557   -7.6524398     243.1558  0.023838804  0.023941523            2 
  851000   0.89354129   -7.6295045    243.29045  0.023823977  0.023924304            2 
  852000   0.89423546   -7.6124165    243.57052  0.023823407  0.023907239            1 
  853000   0.92873166   -7.6095072    243.58063  0.023796466  0.023890286            2 
  854000   0.92697502    -7.627634    243.86259  0.023796115  0.023873345            4 
  855000   0.90925056   -7.6248124    244.77931  0.023857633   0.02385653            4 
  856000   0.91467236   -7.6119096    243.96074  0.023750072   0.02383958            2 
  857000    0.9104861   -7.6598085    244.81317  0.023805248  0.023822756            2 
  858000   0.91336304   -7.6579007    244.68655  0.023765205  0.023806048            2 
  859000   0.89434541   -7.6800736    244.63579  0.023732615  0.023788974            1 
  860000   0.92964261    -7.633932    244.46576  0.023688543   0.02377202            2 
  861000   0.90538551    -7.592878    245.29791  0.023741571  0.023755277            3 
  862000   0.89348087   -7.6183181    245.18914  0.023703513  0.023738373            3 
  863000   0.90480355   -7.6420375    245.06255  0.023663823  0.023721457            2 
  864000   0.93834332   -7.6166737    244.97098  0.023627602  0.023704536            2 
  865000   0.92219923   -7.6322659    245.40647  0.023642242  0.023687597            2 
  866000   0.90829302   -7.6465308    245.41214  0.023615487  0.023670639            3 
  867000   0.93165301   -7.6541469    246.36973   0.02368029   0.02365373            3 
  868000   0.91703611   -7.6209961    245.50765  0.023570243  0.023636725            4 
  869000   0.90570905   -7.6305697    246.05788  0.023595884  0.023619644            4 
  870000   0.90329241   -7.6429002    245.40194  0.023505933  0.023602543            2 
  871000   0.91491876   -7.6400738     245.1086   0.02345088  0.023585393            2 
  872000   0.88912872   -7.6650202    245.22269   0.02343489  0.023568082            2 
  873000   0.90159561   -7.6417196    245.84732  0.023467671  0.023550727            1 
  874000   0.92990489   -7.6530767    245.56864  0.023414249  0.023533214            3 
  875000   0.89164618   -7.6702708    245.18056   0.02335053   0.02351589            8 
  876000   0.90107534   -7.6462317    246.67749  0.023466276   0.02349881            1 
  877000   0.91583771   -7.6582656    246.86317  0.023457161  0.023481742            1 
  878000   0.90029193   -7.6716414    245.99894  0.023348419  0.023464688            2 
  879000   0.92031748   -7.6899188    245.95075  0.023317287  0.023447455            4 
  880000   0.91819304   -7.6583021     246.9597  0.023386335  0.023430186            1 
  881000   0.92077802   -7.6741011    246.38514  0.023305443  0.023412861            4 
  882000   0.91021541   -7.6486329    246.70851  0.023309572  0.023395752            3 
  883000   0.89690329   -7.6215525    247.47512  0.023355523  0.023378794            4 
  884000   0.92521003   -7.6442402    247.39016  0.023321094  0.023361851            2 
  885000   0.90274733   -7.6424605    247.66919  0.023321016  0.023344925            3 
  886000   0.91160733   -7.6540386    247.27433  0.023257556  0.023327958            2 
  887000   0.90648903   -7.6891718    247.63811  0.023265512  0.023310999            3 
  888000   0.89322502   -7.7116685    247.23681  0.023201653  0.023293853            1 
  889000    0.8972879   -7.6580535    248.18066  0.023264029  0.023276835            2 
  890000    0.8913385   -7.6724314    247.88451   0.02321016  0.023259947            1 
  891000   0.90048198   -7.6862453    248.27089  0.023220247   0.02324294            2 
  892000   0.89540837   -7.6642298    248.22662  0.023190081  0.023225909            1 
  893000   0.90665604   -7.6754829     247.9637  0.023139576  0.023208994            2 
  894000   0.90489107   -7.6362721     248.0992  0.023126324  0.023191974            4 
  895000   0.89460485   -7.6647943    248.18483  0.023108457  0.023175012            1 
  896000   0.89508014   -7.6957313    248.24899  0.023088634  0.023158149            4 
  897000    0.9047538   -7.6760326    248.46309  0.023082785  0.023141273            2 
  898000   0.88762841   -7.6754966     249.5673  0.023159549  0.023124391            4 
  899000   0.88298489   -7.6849175    248.44142  0.023029424  0.023107427            2 
  900000   0.88717556   -7.6978784    249.13193  0.023067771  0.023090434            2 
  901000   0.90351658   -7.7023251    249.81733  0.023105562   0.02307354            1 
  902000   0.89624392    -7.656788    249.31895  0.023033902  0.023056615            3 
  903000   0.90266731   -7.7029087    249.07631  0.022986001  0.023039601            1 
  904000   0.89669265   -7.6414321    250.02864  0.023048363  0.023022752            1 
  905000     0.903516    -7.695943    249.58054  0.022981634  0.023005923            2 
  906000   0.91212865   -7.6635452    250.13997  0.023007724  0.022989125            6 
  907000   0.89980728   -7.6585005    249.33801  0.022908675  0.022972236            2 
  908000   0.91789861   -7.6801659    250.24167  0.022966379  0.022955213            3 
  909000   0.88904873   -7.6787715    249.22703  0.022848096  0.022938094            2 
  910000   0.88863964   -7.6744958    249.69717  0.022866041  0.022920882            2 
  911000   0.88813105   -7.6963595    249.77381  0.022847952  0.022903944            4 
  912000   0.88679016   -7.6348598    250.84955  0.022921194  0.022887104            1 
  913000    0.8819213   -7.6526143    250.59651  0.022872993  0.022870345            1 
  914000   0.88619954    -7.703551    249.74583  0.022770408  0.022853701            2 
  915000   0.89201263   -7.6470805    251.22105  0.022879877   0.02283697            6 
  916000   0.89525978   -7.6724905    251.58993  0.022888458  0.022820351            1 
  917000   0.85883311   -7.7109965    250.51178   0.02276552  0.022803514            4 
  918000   0.90749696   -7.6811658    250.84484  0.022770955  0.022786765            2 
  919000    0.9143249    -7.694289    250.44198  0.022709647  0.022769921            7 
  920000   0.87519627   -7.7312024    250.89735  0.022726209   0.02275288            2 
  921000   0.88976063   -7.7226687     250.4702  0.022662885  0.022735838            1 
  922000   0.87351797   -7.7024798    250.59956  0.022649996  0.022718882            2 
  923000    0.8728418   -7.7169882    250.75967  0.022639913  0.022701713            1 
  924000   0.89127911   -7.7008891    251.01046  0.022638029  0.022684586            1 
  925000   0.87256038   -7.7019829    251.10213  0.022621814  0.022667506            1 
  926000   0.88141659   -7.7195087    251.46834  0.022630341   0.02265064            2 
  927000   0.87673981   -7.7053655    251.81704  0.022637274  0.022633667            3 
  928000   0.87480302   -7.7190541    250.72852  0.022515133   0.02261661            2 
  929000   0.89076245    -7.686669    251.33465  0.022545268    0.0225997            1 
  930000   0.88379101   -7.6933349    251.49326  0.022535239  0.022582802            6 
  931000   0.89643213   -7.6990832    251.86812  0.022544587  0.022565852            2 
  932000   0.85983343   -7.7157814    251.54381    0.0224914  0.022548846            3 
  933000   0.87989155   -7.6971404    251.60016  0.022472326  0.022531837            4 
  934000   0.88929505   -7.7206709    251.92548  0.022477291  0.022514725            3 
  935000   0.88421546   -7.7162204    251.58089   0.02242254  0.022497468            3 
  936000   0.87444878   -7.6981789    251.73658  0.022412444  0.022480088            3 
  937000   0.87151689   -7.7113508    251.30075  0.022349765  0.022462767            2 
  938000   0.87837804   -7.6715517    251.57562  0.022350358  0.022445365            2 
  939000   0.90531972   -7.7271226    251.37993  0.022309188  0.022428017            3 
  940000   0.87833837   -7.7398356    251.22908  0.022272082  0.022410491            3 
  941000   0.87087189   -7.7065531    251.73222   0.02229297  0.022393047            3 
  942000   0.86818036   -7.6820295    251.39605  0.022239566  0.022375542            1 
  943000   0.86796807   -7.7436053    251.64698  0.022238157  0.022358117            2 
  944000   0.87702509   -7.6982007    252.07365  0.022252264  0.022340848            1 
  945000   0.85371676   -7.7388371    251.51062  0.022179067  0.022323409            1 
  946000   0.88891774   -7.7201898    252.22516  0.022218566  0.022305971            4 
  947000   0.88193386    -7.719143    251.94709  0.022170634  0.022288609            1 
  948000   0.84853045   -7.6981823     252.3837  0.022185627  0.022271371            3 
  949000   0.89131872   -7.7285065     253.0827   0.02222363  0.022254107            2 
  950000   0.88332267   -7.7484897    252.55489  0.022153937  0.022236753            2 
  951000    0.8788969   -7.7098131    252.93902  0.022164302  0.022219438            2 
  952000    0.8584568   -7.7237771    252.46743   0.02209974  0.022202062            2 
  953000   0.85671669   -7.7418085    252.82271  0.022107617  0.022184781            3 
  954000   0.88018676   -7.7334987     253.1903  0.022116553  0.022167597            2 
  955000   0.85224874   -7.7489106    252.97133  0.022074287  0.022150489            6 
  956000   0.85798273   -7.7203929    253.39406  0.022088046  0.022133252            2 
  957000    0.8835754   -7.7337892    252.68803  0.022003486  0.022115965            9 
  958000   0.86351815   -7.7266005    254.22836  0.022114506   0.02209877            1 
  959000   0.88173961   -7.7157526    253.78562  0.022052973   0.02208166            2 
  960000   0.87554951   -7.7353363    253.42177  0.021998418  0.022064585            4 
  961000    0.8680042   -7.7288981     253.6394  0.021994398  0.022047431            1 
  962000   0.86066393   -7.7590223    253.69521  0.021976369  0.022030266            2 
  963000   0.86259483    -7.741343      253.683  0.021952492  0.022013053            1 
  964000   0.86772349   -7.7530683    253.72852  0.021933655  0.021995802            5 
  965000   0.84870327   -7.7562494    253.82953  0.021919648  0.021978662            2 
  966000   0.85848658   -7.7861812    253.46391  0.021865417  0.021961395            2 
  967000   0.86556916   -7.7638106    253.06445  0.021808381  0.021943949            2 
  968000   0.86959175   -7.7432867    253.78221  0.021847642  0.021926552            1 
  969000   0.83552743   -7.7201721    254.51808   0.02188838  0.021909242            1 
  970000   0.87585418   -7.7547338    254.18101  0.021836857  0.021891976            1 
  971000   0.85742802   -7.7388944    254.90412  0.021876426  0.021874756            1 
  972000   0.83596435   -7.7324032    254.31059  0.021803034  0.021857524            2 
  973000   0.85972319   -7.7783094    253.78988   0.02173603  0.021840231            4 
  974000   0.88240236   -7.7875229     253.6309  0.021700111  0.021822931            2 
  975000   0.88064134   -7.7449267    254.67069  0.021766726  0.021805652            2 
  976000   0.87882402    -7.725822    254.50416  0.021730205  0.021788388            4 
  977000   0.86486604   -7.7252685     254.1247  0.021675597  0.021771106            3 
  978000   0.86344604   -7.7458353    255.16008  0.021741657  0.021753797            1 
  979000   0.85919637   -7.7671765    254.29593  0.021645891   0.02173634            4 
  980000   0.85674898   -7.7634838    254.03329   0.02160147  0.021718907            4 
  981000   0.87359189    -7.783404     254.4667  0.021616268  0.021701637            3 
  982000   0.88237568   -7.7711972    255.30813  0.021665659  0.021684316            5 
  983000   0.86123511   -7.7870101    254.55245  0.021579557  0.021666917            4 
  984000   0.88401774    -7.778061    255.36283  0.021626256  0.021649526            2 
  985000   0.87551849   -7.7522652    255.16419  0.021587495  0.021632173            4 
  986000   0.86573221   -7.7695946    255.02399  0.021553751  0.021614814            1 
  987000    0.8561304   -7.7704691    255.58833  0.021579561  0.021597508            3 
  988000   0.85566124   -7.7866037    254.90333  0.021499944  0.021580182            1 
  989000   0.85432431    -7.753062    255.13717  0.021497908  0.021562941            4 
  990000   0.86043528   -7.7254953    256.12476  0.021559323  0.021545651            2 
  991000    0.8722242   -7.7698847    255.49938   0.02148498  0.021528556            2 
  992000   0.85748001   -7.7734428    256.10861  0.021514501   0.02151147            1 
  993000   0.85855839    -7.779345    255.49713  0.021441518  0.021494344            1 
  994000   0.83605478    -7.777185    255.90749   0.02145435  0.021477163            5 
  995000   0.85479821   -7.7712076    255.47102  0.021396232  0.021460105            2 
  996000     0.869759   -7.7365227    256.90986  0.021495135  0.021443102            1 
  997000   0.85905285    -7.737075    256.81186  0.021465385  0.021426144            2 
  998000   0.84152207   -7.7593063     256.8308  0.021445458  0.021409092            2 
  999000   0.86535003   -7.7860676    256.09739  0.021362812  0.021392156            2 
 1000000   0.86027165   -7.7782363    256.17082  0.021347568  0.021375127            2 
 1001000   0.86376463   -7.8257143     255.6446  0.021282434  0.021357931            2 
 1002000   0.86206125   -7.7986334    256.20507  0.021307807  0.021340832            3 
 1003000   0.85338936   -7.7852947    256.38069  0.021301154  0.021323708            1 
 1004000   0.84940561   -7.7941082    256.56024  0.021294841  0.021306727            2 
 1005000   0.86960088   -7.8062377     256.6445  0.021280638  0.021289667            2 
 1006000   0.85534757   -7.7751942    256.33014  0.021233444  0.021272693            2 
 1007000   0.84001578   -7.7554407    256.22818  0.021203921  0.021255702            1 
 1008000   0.85834187   -7.7656634     257.1933  0.021262674  0.021238712            1 
 1009000   0.84591141   -7.7822157    257.16877  0.021239575  0.021221721            2 
 1010000    0.8524659   -7.8040383     257.0341  0.021207434  0.021204694            2 
 1011000   0.86086701   -7.7872175     256.6743  0.021156801   0.02118763            1 
 1012000   0.85645572   -7.7844927    257.05301   0.02116708  0.021170718            2 
 1013000    0.8506177   -7.8311723    256.84608  0.021129161  0.021153682            1 
 1014000   0.85849507   -7.7746125    256.87667  0.021110837  0.021136645            2 
 1015000   0.85623656   -7.7892581    257.43873  0.021136185  0.021119741            2 
 1016000   0.85535248   -7.7834219    257.48198  0.021118929  0.021102791            5 
 1017000   0.85457278   -7.7932518    257.17237  0.021072793   0.02108588            2 
 1018000   0.85891852   -7.7966812    257.57422  0.021084988   0.02106894            4 
 1019000   0.84868774   -7.7868343    257.17359  0.021031533  0.021051954            4 
 1020000   0.84839721   -7.7782125    257.20379  0.021013382  0.021034981            3 
 1021000   0.85847004   -7.7857474    258.12932  0.021068342  0.021018176            4 
 1022000   0.85302095   -7.7811751    257.82505  0.021022917  0.021001436            3 
 1023000   0.84756909   -7.8036033     257.6843  0.020990901  0.020984667            3 
 1024000    0.8380421   -7.8092564    257.47115  0.020953056  0.020967782            1 
 1025000   0.82066569   -7.8149723    258.01117  0.020976518  0.020950929       -1e+20 
 1026000   0.85486342   -7.7982532    257.86755  0.020944408  0.020934135            3 
 1027000   0.82986393   -7.7658109    258.33296  0.020961779  0.020917372            2 
 1028000   0.85102394   -7.7665128    258.21644  0.020931942  0.020900694            3 
 1029000   0.85284366   -7.8055915    258.40674  0.020927011  0.020883979            2 
 1030000   0.83435497   -7.7955973    258.27566  0.020896089  0.020867286            3 
 1031000   0.85659325   -7.7897095    258.45097  0.020889991  0.020850655            3 
 1032000   0.85007572   -7.7902051    258.96348  0.020911134  0.020834061            2 
 1033000   0.85393817   -7.7829756    258.63384  0.020864298  0.020817519            2 
 1034000   0.82540149   -7.8196066    258.53845  0.020836432   0.02080089            3 
 1035000   0.83243782   -7.8084019    259.13487  0.020864321  0.020784344            2 
 1036000   0.85926167   -7.7890212    259.47705  0.020871706  0.020767929            2 
 1037000   0.83416074   -7.7753883    258.74973  0.020793132  0.020751458            4 
 1038000   0.82621416    -7.796699    259.65477  0.020845759  0.020735021            3 
 1039000   0.82722285   -7.7742639    259.34925  0.020801191  0.020718578            2 
 1040000    0.8353298   -7.8539287    259.14791  0.020765057   0.02070209            2 
 1041000   0.83958165   -7.8217484    259.33899  0.020760405  0.020685574            1 
 1042000   0.83266741    -7.824513    259.62941  0.020763708  0.020669158            1 
 1043000   0.82964998   -7.8326156    259.67318  0.020747298   0.02065274            3 
 1044000   0.83503164   -7.7999877    260.22931  0.020771816  0.020636311            1 
 1045000   0.84352761   -7.8366856     259.4151   0.02068701  0.020619874            1 
 1046000   0.83660343   -7.8013213    259.74902  0.020693836  0.020603366            2 
 1047000   0.82370041   -7.8235553    259.72621  0.020672254  0.020586906            2 
 1048000   0.84538836   -7.8427187    259.97634  0.020672419  0.020570489            1 
 1049000   0.82286083   -7.8133754    259.76492  0.020635917  0.020554036            1 
 1050000   0.83058673   -7.8225311    259.94118  0.020630252  0.020537608            2 
 1051000   0.83949295   -7.8168056    260.79646  0.020678438  0.020521149            1 
 1052000   0.84324212   -7.8199277    259.56954  0.020561592  0.020504979            1 
 1053000   0.81903167   -7.8149101    260.84772  0.020643219  0.020488665            3 
 1054000    0.8287797    -7.819184    260.07949  0.020562895  0.020472439            2 
 1055000   0.81418396   -7.8137462    260.58326  0.020583196  0.020456212            1 
 1056000   0.83817941   -7.8516103    260.81824  0.020582248  0.020440078            3 
 1057000   0.81764151   -7.8248573    260.78331  0.020560022  0.020423822            5 
 1058000     0.843736   -7.8355882    261.31101  0.020582153  0.020407707            4 
 1059000   0.81914936   -7.8403997    260.44895  0.020494881  0.020391571            4 
 1060000   0.84077509   -7.8128269    261.15716  0.020531223  0.020375455            3 
 1061000   0.82093114   -7.8334018    261.08801  0.020506441  0.020359258            4 
 1062000   0.82872779    -7.834216    260.99922  0.020480165   0.02034312            3 
 1063000   0.83277159   -7.8447093    261.20718  0.020477202  0.020326934            1 
 1064000   0.84084084   -7.8536722    261.23295  0.020459974  0.020310813            2 
 1065000   0.81979117    -7.867809    260.12482  0.020354055  0.020294645            1 
 1066000   0.84587448   -7.8343743    261.23062  0.020421406   0.02027857            6 
 1067000   0.82494578   -7.8571422    260.96967  0.020381886  0.020262411            1 
 1068000    0.8325736   -7.8100264    261.27379  0.020386532  0.020246211            2 
 1069000   0.83544422   -7.8119705    261.23843  0.020364704  0.020230119            5 
 1070000   0.84155614   -7.8052238    262.04888  0.020408791  0.020213953            4 
 1071000   0.82900742     -7.80676    261.74117  0.020365793   0.02019796            3 
 1072000   0.82434323   -7.8221479    261.62661   0.02033789  0.020182002            2 
 1073000   0.81973958   -7.8458742    261.48093  0.020307622  0.020165975            3 
 1074000   0.83961978   -7.8442865    262.34528  0.020355779  0.020150029            3 
 1075000   0.82751992   -7.8533295    261.81142  0.020295459   0.02013408            2 
 1076000    0.8310228   -7.8372342    261.70755  0.020268552   0.02011821            3 
 1077000   0.82674789   -7.8346968    262.04457   0.02027581  0.020102272            2 
 1078000   0.80647584   -7.8442961    262.64311  0.020303271  0.020086372            4 
 1079000   0.82305135   -7.8377077     262.2572   0.02025465  0.020070483            1 
 1080000   0.81603672   -7.8534731    262.11501  0.020224924  0.020054581            1 
 1081000   0.81782062   -7.8293678    261.90264  0.020189843   0.02003871            2 
 1082000    0.8252949   -7.8627495    261.75324  0.020159677    0.0200228            4 
 1083000   0.82028202   -7.8769362    261.74381  0.020140336  0.020006894            1 
 1084000   0.83591155   -7.8748421    262.24085  0.020159967  0.019991033            2 
 1085000   0.82239157   -7.8404539    263.02573  0.020201669  0.019975241            2 
 1086000   0.84295813   -7.8893575    262.82518  0.020167678  0.019959387            3 
 1087000   0.80354131   -7.8529268    262.64147  0.020135041  0.019943488            4 
 1088000   0.81578323   -7.8576795    262.83498  0.020131355  0.019927547            4 
 1089000   0.83627844   -7.8644247    262.84159  0.020113375  0.019911604            4 
 1090000    0.8250847   -7.8677796    262.39312  0.020060636  0.019895756            8 
 1091000   0.82450918   -7.8734138    262.86847  0.020078557   0.01988002            5 
 1092000   0.82132732   -7.8493129    262.87777   0.02006088  0.019864166            2 
 1093000   0.81772777   -7.8682533    263.11286   0.02006045  0.019848381            2 
 1094000    0.8249751   -7.8668195    262.69673  0.020010415  0.019832529            4 
 1095000   0.82627724    -7.860064    263.27042  0.020035801  0.019816714            2 
 1096000    0.8156457   -7.8458292    263.32007  0.020021295  0.019800903            4 
 1097000   0.83208244   -7.8523182    262.88373  0.019969898  0.019785124            1 
 1098000   0.81368606   -7.8477651    263.14553  0.019971579  0.019769297            3 
 1099000   0.82689076   -7.8563016    263.34636  0.019968635  0.019753518            3 
 1100000   0.80041262    -7.872659    263.40143  0.019954654  0.019737764            2 
 1101000   0.82111982   -7.8719019    263.81145  0.019967563  0.019722131            1 
 1102000    0.8229553   -7.8786804    264.49659  0.020001255  0.019706522            3 
 1103000   0.81785115   -7.8875572    263.27067  0.019890501  0.019690911            2 
 1104000   0.80997269    -7.885817    263.51306   0.01989078  0.019675229            2 
 1105000   0.81227817   -7.9102746    262.99487    0.0198337  0.019659469            3 
 1106000   0.81453449   -7.8701926    263.43656  0.019849047  0.019643792            4 
 1107000   0.81024845   -7.8786871    263.64606  0.019846888  0.019628128            2 
 1108000   0.79902136   -7.8868166    263.70991  0.019833778  0.019612512            3 
 1109000   0.81935066   -7.8719178    264.31508  0.019861368   0.01959688            4 
 1110000   0.80523755   -7.8997139    263.44619  0.019778242  0.019581246            2 
 1111000    0.8126763   -7.9028529    263.65052  0.019775767  0.019565636            2 
 1112000   0.80181657   -7.8997672    263.38349  0.019737971      0.01955            3 
 1113000   0.81179755    -7.859919    263.97674  0.019764655  0.019534378            2 
 1114000    0.8097502   -7.8889484    264.83527  0.019811136  0.019518733            2 
 1115000   0.81460364   -7.9106541    263.83832  0.019718858   0.01950308            1 
 1116000   0.82385332   -7.8835525    263.98333  0.019712017  0.019487356            1 
 1117000   0.82476237   -7.8867323    263.51761  0.019659625  0.019471613            3 
 1118000   0.79645585   -7.8776138    263.81316   0.01966407  0.019455956            5 
 1119000   0.79832588   -7.8773488    264.38258  0.019688902  0.019440359            2 
 1120000   0.79529781   -7.9151921    264.08585  0.019649245  0.019424762            1 
 1121000   0.80951413   -7.8511652      264.749  0.019681014  0.019409223            2 
 1122000   0.81462925   -7.9048829    264.08597  0.019614228  0.019393688            1 
 1123000   0.80135428   -7.9092036    264.18065  0.019603788   0.01937807            4 
 1124000   0.81525457   -7.8748366    264.71591  0.019626031  0.019362475            1 
 1125000   0.80424366   -7.8879089    264.47617  0.019590828  0.019347014            3 
 1126000   0.81877601   -7.9190004     264.5312  0.019577501  0.019331395            2 
 1127000   0.79504469   -7.8599064    265.08819  0.019601315  0.019315835            2 
 1128000   0.80414665   -7.9013142    265.08197  0.019583479  0.019300344            3 
 1129000   0.79697177   -7.9255667    264.85478  0.019549364  0.019284689            2 
 1130000   0.81178486   -7.9326695    264.58661  0.019512287  0.019269089            1 
 1131000   0.78310811   -7.8646574    265.19937  0.019540184   0.01925366            3 
 1132000   0.81349782   -7.8905308    264.98011  0.019506781  0.019238274            1 
 1133000   0.78071681   -7.9234148    264.91562   0.01948482   0.01922285            2 
 1134000   0.79472312   -7.8922097    265.58611   0.01951691  0.019207426            2 
 1135000   0.78584887   -7.9037808    264.93008  0.019451548  0.019191965            3 
 1136000   0.79631646   -7.9150143    265.26986   0.01945935  0.019176527            3 
 1137000   0.81634174   -7.9207679    264.33476  0.019373699  0.019161046            1 
 1138000   0.79761063   -7.8954279    265.32463  0.019429161  0.019145609            2 
 1139000   0.81622054   -7.9122728    265.15344  0.019399578  0.019130252            1 
 1140000   0.79167705   -7.9138611    265.34666  0.019396686  0.019114822            5 
 1141000   0.79651926   -7.9325094    265.17739  0.019367323  0.019099377            7 
 1142000   0.80641055   -7.8991418      265.289  0.019358509  0.019083991            3 
 1143000   0.79713192   -7.9311105    265.60964  0.019364949  0.019068605            2 
 1144000   0.80443726   -7.8948804    265.39457  0.019332355  0.019053242            1 
 1145000   0.80880322   -7.9198397    265.70465  0.019338038  0.019037906            3 
 1146000   0.79749029   -7.9293996    265.05972  0.019274267  0.019022451            5 
 1147000   0.80630804   -7.9485059    264.85046  0.019242259  0.019006897            1 
 1148000   0.78951084    -7.936241    264.93395  0.019231558  0.018991342            2 
 1149000   0.78764469   -7.9323218    265.19118  0.019233477  0.018975838            2 
 1150000   0.80124321   -7.9019821    266.02509   0.01927718  0.018960472            1 
 1151000   0.78941097   -7.9003767    265.64822  0.019233146  0.018945158            3 
 1152000   0.79111491   -7.9286619    265.54526  0.019209003  0.018929833            2 
 1153000   0.80087029   -7.9486326    265.20007  0.019167394    0.0189145            3 
 1154000   0.80274094   -7.9095861    266.20147  0.019223099  0.018899248            1 
 1155000   0.78357363   -7.9215356    265.94742  0.019188126  0.018883994            4 
 1156000    0.7919479   -7.9157157    265.69421  0.019153274  0.018868752            2 
 1157000   0.78480557    -7.911984    265.78467  0.019143235  0.018853522            3 
 1158000   0.78237495   -7.8900162    266.13136  0.019151652  0.018838286            2 
 1159000    0.7850612   -7.9241061    265.92939  0.019120606  0.018823054            1 
 1160000   0.79390364   -7.9230717    266.02391  0.019110913  0.018807752            2 
 1161000   0.79010044   -7.9331731     265.7276  0.019073184  0.018792479            2 
 1162000   0.79998114   -7.9470629    266.01074  0.019077075  0.018777149            2 
 1163000   0.79529021   -7.9340326    265.65699  0.019035325  0.018761863            2 
 1164000   0.79389065   -7.9610795    266.17849  0.019056307  0.018746589            2 
 1165000   0.76279614   -7.9392331     266.6358  0.019072661   0.01873132            3 
 1166000   0.78165997   -7.9276846    265.93549  0.019006253   0.01871611            3 
 1167000    0.7965385   -7.9386702    266.04062  0.018997473  0.018700822            2 
 1168000   0.79001428   -7.9410711    266.07442   0.01898362  0.018685505            6 
 1169000   0.79067874   -7.9544888    265.99468  0.018961697  0.018670214            3 
 1170000   0.76652685   -7.9531245    266.55531  0.018985421  0.018654998            2 
 1171000   0.76682009   -7.9039719    266.20968  0.018944612  0.018639732            1 
 1172000   0.78629734   -7.9354217    266.41588  0.018943109  0.018624534            2 
 1173000   0.78510884   -7.9467941    266.29371   0.01891828  0.018609337            2 
 1174000   0.75479502   -7.9225844     266.5492  0.018920301  0.018594106            1 
 1175000   0.78247036   -7.9612058    265.11816  0.018802707  0.018578781            2 
 1176000     0.790881    -7.970308    266.50381  0.018884907  0.018563451            2 
 1177000   0.76747973   -7.9674961    265.91636   0.01882727  0.018548151            2 
 1178000   0.77742791   -7.9500348    265.90367   0.01881039  0.018532864            1 
 1179000   0.79874578   -7.9413652    266.15632  0.018812293  0.018517593            4 
 1180000   0.79386598   -7.9447778    266.40379  0.018813827  0.018502311            2 
 1181000   0.78956325   -7.9623559    265.50555  0.018734515  0.018487051            4 
 1182000   0.79095863   -7.9809248    265.53264  0.018720576  0.018471726            2 
 1183000   0.79716039    -7.976457    265.89482  0.018730263  0.018456372            2 
 1184000   0.77018325   -7.9487642    266.28518  0.018741918  0.018440998            2 
 1185000   0.76928513   -7.9311432    266.07697   0.01871146  0.018425678            2 
 1186000   0.77858046   -7.9846275    265.75848  0.018673305  0.018410262            2 
 1187000   0.78517908   -7.9690258    265.43915  0.018635155  0.018394879            2 
 1188000   0.80075521   -7.9745801    265.29996  0.018609705  0.018379539            2 
 1189000   0.79008232   -7.9658338     265.4956  0.018607765   0.01836418            5 
 1190000   0.78465245   -7.9674132    265.92704  0.018622342  0.018348884            3 
 1191000   0.77750131   -7.9652454     266.1088  0.018619424  0.018333528            2 
 1192000     0.771926    -7.978392    265.91923   0.01859055  0.018318193            1 
 1193000   0.78101279    -8.002744    266.05459  0.018584422   0.01830285            2 
 1194000   0.76806229   -7.9720131    266.04192  0.018567973  0.018287547            3 
 1195000   0.78115563   -7.9693192    266.49876  0.018584293  0.018272279            2 
 1196000   0.77295711   -7.9724474    266.31609  0.018556026  0.018257135            2 
 1197000   0.79116006    -7.972302    266.63483  0.018562715  0.018242006            2 
 1198000   0.76641377     -7.95943    266.44552  0.018534051  0.018226884            3 
 1199000   0.75743041   -7.9967332    267.00457  0.018557449   0.01821176            2 
 1200000   0.78685848   -7.9658058    266.65616  0.018517789  0.018196611            2 
 1201000   0.76830223   -7.9665931    266.60374  0.018498733   0.01818152            6 
 1202000   0.77009306    -7.985192    266.57423  0.018481297  0.018166395            1 
 1203000   0.76110796   -7.9871174    266.34335  0.018449941  0.018151259            2 
 1204000   0.77241147   -8.0050004    266.52171  0.018446962  0.018136159            2 
 1205000   0.78600713     -7.98721      266.441  0.018426072  0.018121083            1 
 1206000   0.77040444    -7.970899    267.23353  0.018465556  0.018105992            2 
 1207000   0.77606988   -7.9938591    267.32899  0.018456848  0.018090963            1 
 1208000   0.77512008   -8.0012471    266.49429  0.018383988    0.0180759            2 
 1209000   0.76595932   -7.9826538    266.71666  0.018384109  0.018060837            3 
 1210000   0.75583616   -7.9607742    266.63958  0.018363607  0.018045822            4 
 1211000   0.77007371    -7.972793    267.01361  0.018374182  0.018030804            2 
 1212000   0.77457674   -7.9924649    266.66403  0.018334986  0.018015852            3 
 1213000   0.77185301   -8.0128345    266.86972  0.018334001  0.018000864            4 
 1214000   0.78085619   -8.0126233    267.14667   0.01833791  0.017985935            1 
 1215000   0.77353844   -7.9813973    267.73885  0.018363433  0.017971075            2 
 1216000    0.7695032   -8.0020092     268.1255  0.018374828  0.017956263            3 
 1217000   0.76970817   -7.9946715    267.77857  0.018335975  0.017941505            1 
 1218000   0.77158191   -7.9878253    267.63664  0.018311209  0.017926666            1 
 1219000   0.78547889   -7.9948552    267.19526  0.018266015  0.017911815            1 
 1220000   0.76914732   -8.0071078    267.53578  0.018274302  0.017896971            4 
 1221000   0.76736599    -7.993044    267.29943  0.018243204  0.017882111            2 
 1222000   0.77239686   -7.9991737    267.27706   0.01822675  0.017867235            1 
 1223000   0.77334345   -8.0125334     267.0952  0.018199455   0.01785241            2 
 1224000   0.76152416   -8.0292491    268.16523  0.018257437  0.017837569            2 
 1225000   0.76606937   -7.9978865    267.76764  0.018215486  0.017822764            3 
 1226000   0.76460869   -7.9910105    267.94773  0.018212869  0.017808056            1 
 1227000   0.76595038   -7.9683131    268.38735  0.018227883  0.017793382            3 
 1228000   0.77985706   -8.0307402    267.22112  0.018133898  0.017778689            4 
 1229000    0.7569515   -7.9912632     267.5095  0.018138697  0.017763965            3 
 1230000   0.77032086   -7.9629531    267.51229  0.018124139  0.017749328            3 
 1231000   0.77178061   -8.0317546     267.0799  0.018080145  0.017734563            2 
 1232000   0.75438761   -8.0039647    267.74998  0.018110794  0.017719757            2 
 1233000   0.78644906   -8.0053021    267.92707  0.018108075  0.017705005            2 
 1234000   0.76444155   -7.9985863    267.70677  0.018078523  0.017690264            2 
 1235000   0.75988131   -7.9879398    267.67419  0.018061687  0.017675505            2 
 1236000   0.75462835   -8.0369251    267.29137  0.018021263  0.017660779            1 
 1237000   0.75541402   -8.0374271    267.15461  0.017997481  0.017645979            1 
 1238000   0.75750076   -8.0478165    267.64059  0.018015656  0.017631227            2 
 1239000    0.7783951   -8.0213495    268.10296  0.018032214  0.017616506            5 
 1240000   0.77284596   -8.0174054    267.71057  0.017991302  0.017601765            4 
 1241000   0.76713151   -8.0166606    267.80618  0.017983224  0.017587119            2 
 1242000   0.74991338   -8.0243774     267.7093  0.017962245  0.017572476            3 
 1243000    0.7547734   -8.0044431    268.05662   0.01797108  0.017557867            3 
 1244000    0.7669071   -8.0240152    267.96164  0.017950271   0.01754323            3 
 1245000   0.76528136    -7.992627    268.42082  0.017966588  0.017528593            5 
 1246000   0.77481039   -8.0372355    268.00781  0.017924546  0.017513963            2 
 1247000   0.75011457   -8.0205831    268.25751  0.017926859  0.017499381            1 
 1248000   0.75091552   -8.0259351    268.32381  0.017916921    0.0174848            2 
 1249000   0.75878474   -8.0324024    268.02167  0.017882417   0.01747016            5 
 1250000   0.75235064   -8.0387209      268.128    0.0178752  0.017455553            2 
 1251000   0.75591541   -7.9991868    268.55503  0.017889357  0.017441014            3 
 1252000   0.76647273   -8.0244303    268.42912  0.017866688   0.01742649            2 
 1253000   0.75839592   -8.0183801     268.1559  0.017834258  0.017412015            2 
 1254000    0.7495173   -8.0020199    268.07236  0.017814484  0.017397614            2 
 1255000   0.75018939   -8.0006071    269.08766  0.017867707  0.017383158            1 
 1256000   0.74775234   -8.0217194    268.73804  0.017830284  0.017368726            2 
 1257000   0.75985942    -8.008503    268.67904  0.017812187  0.017354328            2 
 1258000   0.75204812   -8.0279819     269.2514  0.017835943  0.017339957            5 
 1259000   0.76316969   -8.0160681    268.57576  0.017777056  0.017325568            1 
 1260000   0.74711282   -8.0604858    268.76108  0.017775204  0.017311137            6 
 1261000    0.7579043   -8.0317462    268.89112  0.017769701  0.017296756            2 
 1262000   0.74217628   -8.0500604    269.07605  0.017767832   0.01728233            2 
 1263000    0.7587239   -8.0397924     268.8474  0.017738678  0.017268002            4 
 1264000   0.73769037   -7.9988925    268.26056  0.017685955  0.017253686            2 
 1265000   0.76399368   -8.0315978    269.32224  0.017741913  0.017239383            1 
 1266000   0.75912451    -7.997312    269.15329  0.017716778  0.017225165            3 
 1267000   0.73919537   -8.0207383    269.35739  0.017716219  0.017210967            3 
 1268000    0.7411877   -8.0244167    269.17475  0.017690244  0.017196781            2 
 1269000    0.7479508   -8.0330211     268.6749  0.017643479  0.017182605            1 
 1270000   0.74547685    -8.069286    268.78225  0.017636631   0.01716834            3 
 1271000   0.74552333   -8.0280796     269.4454  0.017666234   0.01715414            2 
 1272000   0.73780795   -8.0529069     268.7338  0.017605726  0.017139925            6 
 1273000   0.76129239   -8.0479166    269.27531  0.017627344  0.017125725            2 
 1274000   0.75533826    -8.068273      268.623   0.01757084  0.017111539            2 
 1275000   0.75367498   -8.0572679    268.96175  0.017579199  0.017097313            4 
 1276000     0.745422   -8.0448977    269.39125  0.017593472  0.017083152            2 
 1277000   0.73990858    -8.034149    269.06946  0.017558696  0.017068959            5 
 1278000   0.73373713   -8.0414844    269.58034  0.017578269  0.017054791            3 
 1279000   0.73798461   -8.0229295    269.21032  0.017540417  0.017040645            2 
 1280000   0.73708117   -8.0580425     269.7508  0.017561901  0.017026545            2 
 1281000   0.75771098   -8.0642411    268.45119  0.017463648  0.017012421            2 
 1282000   0.74058868   -8.0908329    269.42758  0.017513493  0.016998305            2 
 1283000   0.73321316   -8.0467314    269.79743  0.017523865  0.016984176            3 
 1284000   0.73647825   -8.0405873    269.87678  0.017515367  0.016970101            2 
 1285000   0.74868198   -8.0593457    269.73307  0.017492417   0.01695609            1 
 1286000   0.73812149   -8.0277564     269.7493  0.017479867  0.016942081            2 
 1287000   0.75148658   -8.0408495    269.00551  0.017418124  0.016928097            2 
 1288000   0.73350863   -8.0672407    269.30909  0.017424243  0.016914086            2 
 1289000   0.74030113   -8.0378615    269.92589  0.017450601  0.016900091            1 
 1290000    0.7313454   -8.0568684    269.56526  0.017413777   0.01688614            1 
 1291000   0.72791007   -8.0615201    269.78469  0.017414452   0.01687208            2 
 1292000   0.74594103   -8.0740076    270.25669  0.017431417  0.016858086            1 
 1293000   0.71515785   -8.0517705    269.94361  0.017397758  0.016844098            1 
 1294000   0.72867802   -8.0619538    269.61752  0.017363313  0.016830104            2 
 1295000   0.72334277   -8.0954718    269.05126  0.017313466   0.01681614            2 
 1296000    0.7489649   -8.0645835    269.90126  0.017354762  0.016802176            3 
 1297000   0.72517637   -8.0897277    269.43144  0.017311195  0.016788284            3 
 1298000   0.73091649   -8.0564373     269.6248  0.017310272  0.016774363            1 
 1299000    0.7336357   -8.0843501    270.50095  0.017353153  0.016760443            1 
 1300000   0.73813501   -8.0628334    270.25532  0.017324059  0.016746575            1 
 1301000   0.74138584   -8.0889976     269.6408  0.017271381   0.01673267            4 
 1302000   0.72725245   -8.0794859    269.90824  0.017275233  0.016718764            1 
 1303000   0.71663634   -8.0815709    269.83786  0.017257474  0.016704858            3 
 1304000   0.73774914   -8.0788963    269.65572    0.0172326  0.016690963            2 
 1305000    0.7276018   -8.1103177    269.79222  0.017228111  0.016677066            3 
 1306000   0.72726344   -8.0716817    269.85466  0.017218904  0.016663241            1 
 1307000   0.73185283   -8.0862008    270.44307  0.017243246   0.01664946            1 
 1308000   0.74181054    -8.081343    270.32439  0.017222502  0.016635695            2 
 1309000   0.73238115   -8.0965098    270.00849  0.017189234  0.016621948            5 
 1310000   0.74639376   -8.1123577    270.08771  0.017181152  0.016608232            4 
 1311000   0.72375069   -8.0840221    270.07285  0.017167102  0.016594496            3 
 1312000   0.72641265   -8.0943252    270.39579  0.017174529  0.016580771            2 
 1313000   0.74569425    -8.120607    269.93976  0.017132506  0.016567077            3 
 1314000    0.7220205   -8.0945716    270.36414  0.017146382  0.016553404            2 
 1315000   0.71822008      -8.0976    270.55373  0.017145356  0.016539727            3 
 1316000   0.72913997   -8.0944634    270.30784  0.017116758   0.01652612            2 
 1317000   0.73672905   -8.0984695    270.84453   0.01713772  0.016512534            7 
 1318000   0.72358785   -8.0701134    271.13549  0.017143114  0.016498963            7 
 1319000   0.73350189   -8.0721058    270.87713  0.017113794  0.016485359            5 
 1320000   0.74732113   -8.0887773     270.7835  0.017094918  0.016471796            2 
 1321000   0.72663529   -8.1249897    270.63177  0.017072406  0.016458178            2 
 1322000   0.73158078   -8.0933991     271.1816   0.01709415   0.01644458            2 
 1323000   0.71633992   -8.1190012    270.70288  0.017051076  0.016431009            2 
 1324000   0.74581212   -8.0948568     270.5188  0.017026611  0.016417464            2 
 1325000   0.72022654     -8.11114    270.52146  0.017013929  0.016403867            1 
 1326000   0.73829165   -8.1037415    270.23035  0.016982802  0.016390266            2 
 1327000   0.71834503   -8.0932084    270.17895  0.016966777  0.016376663            2 
 1328000   0.72794574   -8.1414372    270.07519  0.016947489  0.016363058            2 
 1329000   0.73040866   -8.1156751     270.3053  0.016949166  0.016349498            2 
 1330000   0.71620315   -8.1160148    271.15842  0.016989876  0.016335951            2 
 1331000   0.71187714   -8.1247169    270.60959  0.016942749  0.016322382            2 
 1332000   0.71879058   -8.1187705    270.44248  0.016919575  0.016308845            1 
 1333000   0.73762003   -8.0887403    270.99561  0.016941461  0.016295357            4 
 1334000    0.7120647   -8.1214563    270.24637  0.016881957  0.016281889            3 
 1335000   0.71763335    -8.108225    271.12678  0.016924269  0.016268422            3 
 1336000   0.71455193   -8.0872885    271.30917  0.016922977  0.016255016            1 
 1337000   0.71596434   -8.0961246    271.49691  0.016922021  0.016241618            1 
 1338000   0.72072169   -8.1087472    270.72955  0.016861581  0.016228206            2 
 1339000   0.72895403   -8.1188847    271.28023  0.016883261  0.016214802            6 
 1340000   0.71201503   -8.1302819    271.18623  0.016864815  0.016201435            3 
 1341000   0.71084839   -8.0978433    271.30743  0.016859771  0.016188104            4 
 1342000   0.71333955   -8.1159136    271.04524  0.016830927  0.016174726            5 
 1343000   0.71666503     -8.09544    271.22334  0.016829445  0.016161394            3 
 1344000   0.71891114   -8.1290202    270.31968  0.016760893  0.016148052            5 
 1345000   0.71464596   -8.1180301    270.70461  0.016772281  0.016134718            5 
 1346000   0.71053656    -8.108522     270.8388  0.016768128  0.016121401            5 
 1347000    0.7277378   -8.1124738    270.68705  0.016746291  0.016108086            4 
 1348000   0.71806359    -8.110225    271.12168  0.016760737  0.016094717            1 
 1349000   0.72356365   -8.0959106    271.06611   0.01674488  0.016081372            3 
 1350000   0.71229943   -8.1241385    270.89401  0.016721852  0.016068041            2 
 1351000   0.69894523   -8.0928814     271.1257  0.016723766  0.016054686            3 
 1352000   0.70602602   -8.1202822    270.72572  0.016686743  0.016041338            2 
 1353000   0.72342661    -8.108449    271.77213   0.01673886  0.016028029            2 
 1354000   0.71644882     -8.13779    270.88632  0.016671979  0.016014672            2 
 1355000   0.72257508   -8.1284799    270.65651  0.016645542  0.016001288            5 
 1356000   0.71950537   -8.1542126    270.45566  0.016620923  0.015987886            3 
 1357000   0.72206814    -8.143428      270.401  0.016605318  0.015974483            2 
 1358000   0.72062417   -8.1292842    271.49963  0.016660507  0.015961155            3 
 1359000   0.70773405   -8.1387667    270.94366  0.016614156  0.015947867            3 
 1360000   0.69855224   -8.1402435    270.64399  0.016583578  0.015934509            2 
 1361000   0.70061435   -8.1437394    270.53613  0.016564789  0.015921202            2 
 1362000   0.71517027   -8.1462653    270.66566  0.016560552  0.015907918            3 
 1363000    0.7100055   -8.1299211    270.37285    0.0165305  0.015894611            3 
 1364000   0.70230866   -8.1537421    270.81631  0.016545474  0.015881319            3 
 1365000   0.72188875   -8.1568353    271.33933  0.016565283  0.015868068            3 
 1366000   0.70448722    -8.149751    271.06963  0.016536702  0.015854825            4 
 1367000   0.71186823   -8.1345203    271.33558  0.016540818  0.015841612            3 
 1368000   0.69558774   -8.1512232    270.84554  0.016498875   0.01582838            3 
 1369000   0.69439842   -8.1474431    270.67836  0.016476647  0.015815154            3 
 1370000   0.70732194   -8.1534546    270.78698  0.016471228   0.01580188            3 
 1371000   0.69408879   -8.1454268    270.53108  0.016443659  0.015788639            2 
 1372000   0.70247805   -8.1792234    270.45995  0.016427353  0.015775364            2 
 1373000    0.7096233   -8.1509841    270.92282  0.016443482  0.015762148            4 
 1374000   0.70625563   -8.1611463    270.63311  0.016413944  0.015748929            1 
 1375000   0.70242038   -8.1605837    270.39729  0.016387714   0.01573566            2 
 1376000    0.6974833    -8.147462    269.92915  0.016347454  0.015722422            3 
 1377000   0.70089093   -8.1715455    270.41946  0.016365254  0.015709245            1 
 1378000   0.69018759   -8.1765561    270.46333  0.016356031  0.015696055            2 
 1379000    0.6977338   -8.1722185    270.67101  0.016356721  0.015682888            2 
 1380000   0.70571037   -8.1597765    270.91624  0.016359676  0.015669719            1 
 1381000   0.70278133   -8.1720402     270.8343  0.016342886  0.015656562            1 
 1382000   0.69715602   -8.1552323    270.61202  0.016317657  0.015643436            2 
 1383000   0.70604311   -8.1759202    270.94597   0.01632598  0.015630346            2 
 1384000   0.69309681   -8.2069568    270.61787  0.016294429  0.015617248            4 
 1385000    0.7070062   -8.1525292    271.75213   0.01635091  0.015604178            2 
 1386000   0.70663769   -8.1705343     270.9122  0.016288612  0.015591097            2 
 1387000   0.70659819   -8.1627321    271.10454  0.016288425   0.01557803            1 
 1388000   0.70030024   -8.1754448    271.30352  0.016288636  0.015564942            3 
 1389000   0.70893441   -8.1480741    271.31714  0.016277726  0.015551914            1 
 1390000   0.70821418   -8.1308571     271.6864  0.016288153  0.015538933            2 
 1391000   0.69028731   -8.1818922    271.24149   0.01624979  0.015525977            3 
 1392000   0.69821025    -8.157442    270.69554  0.016205432  0.015513031            3 
 1393000   0.68959209   -8.1815106    270.77543  0.016198578  0.015500032            4 
 1394000   0.70217138     -8.16465    271.15944  0.016209914  0.015487018            1 
 1395000   0.68442971   -8.1994306    270.70553  0.016171179  0.015474009            3 
 1396000   0.68907109   -8.1843889    271.00416  0.016177421  0.015461002            5 
 1397000   0.69420752   -8.1933667    271.40077    0.0161895  0.015448006            2 
 1398000   0.70469283   -8.1785013    271.15439  0.016163232  0.015435093            4 
 1399000   0.69377702    -8.159494    270.55381  0.016115905  0.015422164            2 
 1400000   0.70097265   -8.1385072     271.5629  0.016164459  0.015409271            3 
 1401000   0.69241702   -8.1604012    271.46351  0.016147008  0.015396405            1 
 1402000   0.69169655   -8.1742826    271.15319  0.016117046  0.015383558            3 
 1403000   0.69033746    -8.173105    271.11937   0.01610355  0.015370676            3 
 1404000   0.69720543   -8.1871355    270.66712  0.016065237  0.015357794            3 
 1405000   0.69316006   -8.2045373    270.94302  0.016070167   0.01534491            3 
 1406000   0.68354001   -8.1760454    271.36053  0.016083484  0.015332022            2 
 1407000   0.68878686   -8.1847923    271.44227  0.016076894  0.015319179            1 
 1408000   0.68970387   -8.2037408    270.98572  0.016038454  0.015306325            4 
 1409000   0.67333748   -8.1786173    271.36303  0.016049387  0.015293501            4 
 1410000   0.70055251   -8.1777617    270.88229  0.016009591  0.015280685            2 
 1411000   0.70807989   -8.2015598    270.90789  0.015999758  0.015267828            3 
 1412000   0.68525897   -8.2046338    270.81625  0.015983018  0.015254982            2 
 1413000   0.69617483    -8.178096    270.92976  0.015978401   0.01524216            6 
 1414000    0.6787941   -8.2047993    270.74353  0.015956125  0.015229347            2 
 1415000   0.68371081   -8.1958877    270.91555  0.015954979  0.015216538            2 
 1416000   0.68330791   -8.2091407    270.36749  0.015911458  0.015203743            3 
 1417000   0.67830258   -8.2199373    270.86538  0.015929509  0.015190949            1 
 1418000   0.68989566   -8.2159112     271.1861  0.015937124  0.015178161            2 
 1419000   0.67491853   -8.2145964    270.56106  0.015889186  0.015165356            2 
 1420000   0.69321553    -8.206187    270.74116  0.015888566  0.015152589            2 
 1421000   0.68324359    -8.190745    270.74568   0.01587765  0.015139829            1 
 1422000    0.6957322   -8.2010825    271.07273   0.01588565  0.015127085            4 
 1423000   0.66406621   -8.2130286    270.94094  0.015866768  0.015114326            3 
 1424000   0.67234722   -8.2129945    271.55141  0.015891351  0.015101574            3 
 1425000   0.68945828   -8.2250736     271.0049   0.01584824   0.01508886            2 
 1426000   0.66983588   -8.1968956    270.77679  0.015823795   0.01507615            2 
 1427000   0.67246706   -8.2017167    270.82496   0.01581552  0.015063409            1 
 1428000   0.68781438   -8.2356501    270.37666  0.015778283  0.015050714            3 
 1429000    0.6994147   -8.2062607    271.33196  0.015822951  0.015037994            4 
 1430000   0.68728057   -8.2180048     270.8192  0.015782005  0.015025327            6 
 1431000   0.68373482   -8.2105107    271.25048  0.015796091  0.015012665            8 
 1432000   0.68644881   -8.2191384    271.24024  0.015784465  0.015000011            3 
 1433000   0.69512645   -8.2195162    271.45661  0.015786032  0.014987369            3 
 1434000   0.68173474   -8.2141231    271.08726   0.01575356  0.014974713            3 
 1435000   0.69622778   -8.2293632    270.92118  0.015732937  0.014962062            2 
 1436000   0.67824234   -8.2281979    270.98749  0.015725829  0.014949392            2 
 1437000   0.66329695   -8.2561552    270.73521  0.015700256  0.014936762            3 
 1438000   0.66657744   -8.1985406    271.07286  0.015708905  0.014924159            1 
 1439000   0.68708374   -8.2382829    270.81072  0.015682808  0.014911538            3 
 1440000   0.66265946    -8.232705     270.8427  0.015673767   0.01489895            2 
 1441000     0.674922   -8.2335543     271.2074  0.015683981  0.014886372            1 
 1442000   0.67574079   -8.2631772    270.86053  0.015653059  0.014873774            1 
 1443000   0.67644251   -8.2263975    270.67452  0.015631469  0.014861212            3 
 1444000   0.67619825   -8.2592295    270.50835  0.015611054   0.01484864            2 
 1445000   0.67855034    -8.238103    270.82733  0.015618647  0.014836053            2 
 1446000   0.69159979   -8.2634274    270.93356  0.015613967  0.014823516            3 
 1447000    0.6795784   -8.2241768    271.01009  0.015607584  0.014810976            2 
 1448000   0.67797895   -8.2237726     270.7741  0.015583224  0.014798434            3 
 1449000   0.68157696   -8.2389598    270.54034  0.015559026  0.014785916            6 
 1450000   0.68725739    -8.241018    270.88671  0.015568202  0.014773384            1 
 1451000   0.68077062    -8.245063    270.16176  0.015515837  0.014760839            2 
 1452000   0.68030142    -8.251141    271.11456  0.015559835  0.014748312            2 
 1453000   0.68024639   -8.2618498     270.3088  0.015502914  0.014735778            2 
 1454000   0.67828249    -8.249603    270.50288  0.015503375  0.014723224            5 
 1455000   0.66426196   -8.2746492    270.64636  0.015500937  0.014710726            1 
 1456000    0.6704488   -8.2758288    270.76877  0.015497297  0.014698229            3 
 1457000   0.67218306   -8.2286938    270.48736  0.015470565  0.014685749            2 
 1458000    0.6820681    -8.249744    270.97759  0.015487974  0.014673288            2 
 1459000    0.6584284   -8.2241829    270.99336  0.015478259  0.014660862            1 
 1460000   0.67782619   -8.2362749    270.89134  0.015461835  0.014648423            2 
 1461000    0.6702157   -8.2636326    270.81902  0.015447126  0.014635985            1 
 1462000   0.67234209    -8.269949    271.19141  0.015457787  0.014623574            3 
 1463000   0.64923977   -8.2561153     271.1166   0.01544296  0.014611176            3 
 1464000   0.66911403   -8.2685167    270.97631  0.015424426  0.014598776            1 
 1465000   0.66998129   -8.2486338    271.07697  0.015419623  0.014586385            2 
 1466000   0.66425987   -8.2639326    270.95958  0.015402432  0.014574028            4 
 1467000   0.66913895   -8.2729351    271.07455  0.015398464  0.014561659            5 
 1468000   0.66899348   -8.2433118    271.46765  0.015410289  0.014549328            4 
 1469000   0.66894053   -8.2392827     271.0324  0.015375108   0.01453695            2 
 1470000   0.67522138   -8.2802291    270.78361  0.015350545  0.014524543            2 
 1471000   0.66394768    -8.266534    270.98588  0.015351568   0.01451217            3 
 1472000   0.65654136   -8.2794914     270.4542   0.01531104  0.014499796            2 
 1473000    0.6495195   -8.2695149    270.85633  0.015323395  0.014487418            3 
 1474000   0.65678235   -8.2622667    271.28173  0.015337049  0.014475116            2 
 1475000   0.67817124   -8.2496134    271.12742  0.015317934  0.014462808            3 
 1476000   0.65516241   -8.2567489     270.9998   0.01530035  0.014450529            1 
 1477000   0.65324249   -8.2719543    270.93997  0.015286615  0.014438242            1 
 1478000   0.64873668   -8.2701046    270.58563  0.015256294  0.014425986            1 
 1479000   0.66104559   -8.2956682    270.57303  0.015245269   0.01441375            2 
 1480000   0.66452595   -8.2825875    270.98308  0.015258056  0.014401534            2 
 1481000   0.66137449   -8.2721173    270.65771  0.015229446  0.014389314            1 
 1482000   0.65357063   -8.2473454    270.78317  0.015226224  0.014377125            2 
 1483000   0.66091998   -8.2807345    271.06153  0.015231599  0.014364914            2 
 1484000   0.66282097   -8.2713316    271.29323  0.015234346  0.014352748            1 
 1485000   0.66647134    -8.269071    271.00329  0.015207816  0.014340603            3 
 1486000   0.67069519   -8.2680463    270.68886   0.01517995  0.014328458            3 
 1487000   0.66645257   -8.2871398    270.67044  0.015168709  0.014316316            4 
 1488000   0.65638286   -8.2815817    270.50318  0.015149148  0.014304191            4 
 1489000   0.64576264   -8.2850073     271.3796  0.015188023  0.014292054            1 
 1490000   0.66410074   -8.2669662    270.99371  0.015156248  0.014279921            2 
 1491000   0.64646665   -8.2865528    271.45413  0.015171816  0.014267806            1 
 1492000   0.66000541   -8.2797274    270.93334  0.015132559  0.014255712            2 
 1493000   0.64701586   -8.2802507    271.44694   0.01515109  0.014243608            2 
 1494000   0.66197837   -8.2930045    271.26562  0.015130836  0.014231537            4 
 1495000   0.66297803   -8.2953152    270.89904  0.015100281  0.014219468            2 
 1496000   0.64244277   -8.2569509    271.41176  0.015118748  0.014207412            3 
 1497000   0.66058922    -8.296899    271.05138  0.015088587  0.014195355            1 
 1498000   0.65313318   -8.2924167    271.08485  0.015080377  0.014183298            4 
 1499000   0.65565771   -8.2830161     271.0719  0.015069596  0.014171256            3 
 1500000   0.65290948   -8.2951257    270.96858   0.01505381  0.014159207            1 
 1501000   0.65366915   -8.2812656    270.59129  0.015022834  0.014147157            5 
 1502000   0.66373649   -8.2865884    271.07917  0.015039901  0.014135144            3 
 1503000   0.66300913   -8.2838627    271.45491  0.015050727  0.014123124            4 
 1504000   0.64326118   -8.2966622    270.36506  0.014980334  0.014111114            2 
 1505000   0.66605119   -8.2907182    270.96427  0.015003559  0.014099119            1 
 1506000   0.64681778   -8.2938891    271.18422  0.015005767  0.014087146            2 
 1507000   0.64075766   -8.3111612    270.58256  0.014962539  0.014075205            2 
 1508000   0.65098005   -8.2967874    271.25273  0.014989651  0.014063271            1 
 1509000   0.64701928   -8.3069067    270.72389  0.014950513  0.014051358            2 
 1510000   0.66634569   -8.2821741    271.38396   0.01497704  0.014039439            4 
 1511000   0.66516072   -8.2981323    270.76952  0.014933241  0.014027517            4 
 1512000   0.65344441   -8.3096726    270.83226  0.014926822  0.014015586            8 
 1513000    0.6367432   -8.2917906    270.46704  0.014896841  0.014003644            3 
 1514000   0.64284418   -8.3071074    270.97386  0.014914898  0.013991707            2 
 1515000   0.63831844   -8.2861499    270.69473  0.014889699  0.013979758            2 
 1516000   0.65202865   -8.3023334    270.64535  0.014877163  0.013967826            3 
 1517000   0.65731416   -8.3052979    271.11997  0.014893429  0.013955904            2 
 1518000   0.64278433   -8.3093288    270.64683  0.014857643  0.013943984            2 
 1519000   0.66304751   -8.3202409    270.52366  0.014841105  0.013932073            4 
 1520000   0.64879592   -8.2946381    271.06159  0.014860833  0.013920193            2 
 1521000    0.6462676   -8.3017294    270.26604  0.014807475  0.013908312            3 
 1522000   0.64494244    -8.301195     270.3223  0.014800827  0.013896444            2 
 1523000   0.63279833   -8.3004267    270.88879  0.014822105  0.013884584            3 
 1524000   0.64800433   -8.3133955    270.44065  0.014787874  0.013872751            3 
 1525000   0.64418416   -8.3256663    270.68366  0.014791457  0.013860913            2 
 1526000   0.65111695   -8.3380995    271.06512  0.014802595  0.013849117            3 
 1527000   0.63652753   -8.3403397    270.56123  0.014765402  0.013837311            3 
 1528000   0.63237588   -8.3211441    270.02708  0.014726607  0.013825495            4 
 1529000   0.66733048   -8.3101376    270.87289  0.014763074  0.013813702            2 
 1530000   0.63920226   -8.3034765     270.8637  0.014752925  0.013801952            2 
 1531000   0.64993873    -8.309869    270.73246  0.014736145  0.013790185            2 
 1532000   0.66402283   -8.3148095    270.48603  0.014713121  0.013778403            1 
 1533000   0.63057837   -8.3181487    270.40946  0.014699362  0.013766633            3 
 1534000   0.64682633   -8.3293853    270.73615  0.014707527  0.013754874            2 
 1535000   0.64306884   -8.3231667     271.0009  0.014712318  0.013743107            1 
 1536000   0.65786949   -8.3031874    270.97835  0.014701516  0.013731354            4 
 1537000   0.64342635   -8.3352322    270.19329  0.014649387    0.0137196            5 
 1538000   0.64999069   -8.3304271    270.55292  0.014659348   0.01370786            2 
 1539000   0.63592579   -8.3145623     270.6317  0.014654088  0.013696162            1 
 1540000   0.62796553   -8.3270308    270.87276  0.014657617  0.013684463            5 
 1541000   0.63538885   -8.3115955    270.82372  0.014645453  0.013672803            3 
 1542000   0.62762972   -8.3002511     270.3189  0.014608674  0.013661141            4 
 1543000   0.62381879     -8.31744    270.57509  0.014613042  0.013649477            4 
 1544000   0.62070377   -8.3286342    270.17897  0.014582199  0.013637812            4 
 1545000   0.64854927   -8.3356109    270.56053   0.01459334  0.013626165            3 
 1546000   0.63783636   -8.3330657    270.70552  0.014591716  0.013614518            2 
 1547000   0.63188277   -8.3247716    270.65145  0.014579371  0.013602862            3 
 1548000   0.64201027   -8.3281197    270.22035  0.014546746  0.013591227            1 
 1549000   0.63115191    -8.339011    270.01327  0.014526214  0.013579594            4 
 1550000   0.64379642   -8.3086534    270.59862  0.014548313  0.013567976            2 
 1551000   0.63713611   -8.3421215    270.68348  0.014543492  0.013556364            2 
 1552000   0.65180979   -8.3422404    270.49399  0.014523947  0.013544765            3 
 1553000   0.63178713   -8.3461582    270.22096  0.014499944  0.013533181            1 
 1554000    0.6200898   -8.3449131    270.17093   0.01448793  0.013521574            2 
 1555000   0.63233339    -8.323086    270.80766  0.014512736  0.013510001            1 
 1556000   0.63237775   -8.3552231    270.46851  0.014485246  0.013498447            2 
 1557000   0.63781302   -8.3395465    270.53012   0.01447924  0.013486898            2 
 1558000   0.62501626   -8.3341314    270.78839  0.014483761   0.01347534            3 
 1559000   0.63273681   -8.3393645    270.23372  0.014444821  0.013463797            3 
 1560000    0.6272983   -8.3492799    270.25988  0.014436959  0.013452254            4 
 1561000   0.62939978   -8.3529141    270.63078  0.014447511  0.013440695            2 
 1562000   0.63242579   -8.3539528    269.93817  0.014401311  0.013429141            1 
 1563000   0.62935731    -8.345079    269.82416  0.014386018  0.013417587            3 
 1564000   0.64159386   -8.3465626    270.18815  0.014396215  0.013406052            3 
 1565000   0.62198902    -8.370703    270.23494  0.014389507  0.013394514            5 
 1566000   0.62656712   -8.3506745    270.60556  0.014400041  0.013383009            2 
 1567000    0.6342975   -8.3582704    269.80492  0.014348273  0.013371512            2 
 1568000   0.62266145    -8.361386    269.82983  0.014340446  0.013360014            2 
 1569000   0.62850669   -8.3545967    270.17686  0.014349737  0.013348518            2 
 1570000   0.61641602   -8.3350817    270.44941  0.014355064  0.013337053            2 
 1571000   0.62784689   -8.3544721    270.52755  0.014350072  0.013325613            4 
 1572000   0.62598498   -8.3269046    270.27539  0.014327576  0.013314176            1 
 1573000   0.61065742   -8.3428507    270.14421  0.014311518  0.013302746            1 
 1574000   0.61704879   -8.3727638    270.13743  0.014302066  0.013291329            3 
 1575000   0.63130203   -8.3669365     270.1939  0.014295973  0.013279925            2 
 1576000   0.61289132   -8.3393444    269.96822  0.014274969  0.013268541            2 
 1577000   0.62095525     -8.35567     270.0739  0.014271502  0.013257173            4 
 1578000   0.62341233   -8.3554322    270.41386  0.014280411  0.013245795            5 
 1579000   0.61713615   -8.3631381    270.13922  0.014256872   0.01323442            4 
 1580000   0.61121428   -8.3517349    270.17511  0.014249742  0.013223066            2 
 1581000   0.62842912   -8.3740023    270.40727  0.014252966  0.013211736            1 
 1582000   0.61898431   -8.3755966    269.83232  0.014213671  0.013200394            2 
 1583000   0.60851661    -8.377645    269.56601  0.014190672  0.013189063            3 
 1584000   0.64267473   -8.3589682    269.71481  0.014189542  0.013177722            3 
 1585000   0.61224406   -8.3520405    269.82581  0.014186425  0.013166389            2 
 1586000   0.60598828   -8.3907458    269.22998  0.014146174  0.013155063            1 
 1587000   0.61181629   -8.3598265    270.14681  0.014185403  0.013143743            3 
 1588000   0.62067401   -8.3759786    270.05483  0.014171643  0.013132456            2 
 1589000    0.6271258   -8.3871229    270.27776  0.014174416  0.013121173            1 
 1590000   0.62985337   -8.3554998    269.78597  0.014139726  0.013109901            1 
 1591000   0.62292937   -8.3867703    270.19818  0.014152429  0.013098649            1 
 1592000   0.61641329   -8.3872646    269.98777  0.014132525  0.013087417            2 
 1593000   0.62843951   -8.3632731    270.26405  0.014138107  0.013076197            1 
 1594000   0.62935631   -8.3792997    269.85324  0.014107761   0.01306498            3 
 1595000   0.62410212   -8.3790729    269.94764  0.014103847  0.013053781            3 
 1596000   0.62290522   -8.3807159    270.90365  0.014144927  0.013042575            2 
 1597000   0.60780085   -8.3919011    270.39291  0.014109419  0.013031402            1 
 1598000   0.62295546   -8.3618921    270.03176  0.014081756  0.013020232            4 
 1599000   0.62446989   -8.4025702    269.78056  0.014059858  0.013009081            3 
 1600000   0.60809262   -8.3554374    269.57275  0.014040248  0.012997926            4 
 1601000   0.61327498     -8.36597     270.2046  0.014064366   0.01298679            2 
 1602000   0.61410132   -8.3773939    270.20738  0.014055731  0.012975674            3 
 1603000    0.6104139   -8.3655748    269.58881  0.014014806  0.012964531            1 
 1604000    0.6132351   -8.3947042    269.88717  0.014021569  0.012953409            1 
 1605000   0.60864742   -8.3994588    269.33402  0.013984113  0.012942289            1 
 1606000   0.61515043   -8.3611645    269.43707  0.013980753  0.012931173            1 
 1607000   0.62322627   -8.3935009    269.38672  0.013969442  0.012920058            2 
 1608000   0.62043411   -8.3833863    269.87374  0.013985994  0.012908985            3 
 1609000   0.61079709   -8.3978167    269.88896   0.01397809  0.012897913            2 
 1610000   0.61228244   -8.3807863    269.73906  0.013961649  0.012886856            2 
 1611000   0.59479666   -8.3971767    270.85687  0.014010805  0.012875806            2 
 1612000    0.6191925   -8.3800431    269.83486  0.013949279  0.012864752            3 
 1613000   0.61558509   -8.3897502    269.53339  0.013925056   0.01285371            3 
 1614000   0.60617033   -8.3766161    269.85629  0.013933101  0.012842669            2 
 1615000    0.6132559   -8.3905591    269.74608  0.013918787  0.012831642            2 
 1616000   0.60862396   -8.3787477    270.01467  0.013924024  0.012820632            4 
 1617000   0.59432259   -8.3976405    269.96682  0.013912947  0.012809625            2 
 1618000   0.61326933   -8.3992696    270.05839  0.013909064  0.012798627            2 
 1619000   0.60290622   -8.3987475    269.43183  0.013868222  0.012787651            1 
 1620000   0.60723012   -8.3839859    270.07603    0.0138928  0.012776709            2 
 1621000   0.59540205   -8.4098156    269.75494  0.013867723  0.012765742            1 
 1622000    0.5939949   -8.4087101    269.88342  0.013865774   0.01275479            2 
 1623000   0.60638697   -8.4212791     269.6129   0.01384334  0.012743822            2 
 1624000   0.61492664   -8.3856044    269.41438   0.01382463  0.012732882            3 
 1625000   0.60139961   -8.3834939    270.08485  0.013850505  0.012721948            2 
 1626000    0.6040457   -8.3941231     269.3149  0.013802527  0.012711026            2 
 1627000   0.61545886   -8.4127565     269.4491  0.013800917  0.012700091            2 
 1628000   0.61094995   -8.3918105    269.80262  0.013810535   0.01268918            5 
 1629000   0.58267637   -8.3924407    269.68563  0.013796073  0.012678278            1 
 1630000   0.59103143   -8.4108031    269.37765  0.013771864  0.012667397            2 
 1631000    0.5934165    -8.421452     269.2286  0.013755804  0.012656504            2 
 1632000   0.60475494   -8.4285417    269.92827  0.013783102  0.012645606            4 
 1633000   0.59693318   -8.3961922     269.4028  0.013747846  0.012634719            4 
 1634000   0.59629251   -8.4226953    269.46685  0.013742699  0.012623863            2 
 1635000   0.60037232   -8.4133943    269.80801  0.013751683  0.012612997            2 
 1636000   0.60948799   -8.4105132    270.07611  0.013756933  0.012602151            5 
 1637000   0.59630918   -8.4175042     269.8634  0.013737701  0.012591328            3 
 1638000    0.6056865   -8.4100709    269.87412   0.01372986  0.012580501            2 
 1639000   0.59313765   -8.4205017    269.66754  0.013710979  0.012569687            2 
 1640000   0.60109315   -8.4166459    269.55415  0.013696857  0.012558889            5 
 1641000   0.60087743   -8.4073083    269.14218   0.01366759  0.012548111            2 
 1642000   0.60381481   -8.4374451    269.85952  0.013695672  0.012537333            2 
 1643000   0.60265919   -8.4037413     269.4804  0.013668107  0.012526566            8 
 1644000   0.58907213   -8.4157634    269.43344  0.013657413  0.012515811            3 
 1645000   0.59160123   -8.4145553    269.87682  0.013671571  0.012505062            2 
 1646000   0.59854361   -8.4101951     269.5648  0.013647469  0.012494325            2 
 1647000   0.59739011   -8.4229483    269.52507  0.013637172  0.012483598            2 
 1648000   0.59931072   -8.4046171    269.60624  0.013633002  0.012472889            2 
 1649000   0.59161037   -8.4218194    269.07006  0.013597638  0.012462194            3 
 1650000   0.57699888   -8.4080984    269.75564  0.013624022  0.012451505            2 
 1651000   0.59413449    -8.427026     269.0458  0.013579941  0.012440819            2 
 1652000   0.58614034   -8.4070411     269.2806  0.013583566  0.012430147            2 
 1653000   0.59739275   -8.4222494     269.5231  0.013587573  0.012419479            1 
 1654000   0.60230393   -8.4344688    269.46058  0.013576208  0.012408819            6 
 1655000   0.59168933   -8.4294134    269.35923  0.013562902  0.012398175            1 
 1656000   0.59235072   -8.4483248    269.69928  0.013571824  0.012387567            1 
 1657000   0.59792098   -8.4212229    269.74455   0.01356591  0.012376954            3 
 1658000   0.58858455   -8.4200219    269.60779  0.013550854  0.012366341            2 
 1659000   0.58299509   -8.4025615     269.8367  0.013554184  0.012355743            4 
 1660000   0.59761398   -8.4185197    268.83351  0.013495658  0.012345139            4 
 1661000   0.59516095   -8.4218963    269.10222  0.013501015  0.012334536            3 
 1662000    0.5960997   -8.4287273    268.88595  0.013482047  0.012323949            3 
 1663000   0.59067755   -8.4254245    269.55777  0.013507605  0.012313371            4 
 1664000   0.57927523   -8.4329631     269.0845  0.013475786  0.012302813            8 
 1665000   0.57569767   -8.4534961     269.7233  0.013499665   0.01229227            2 
 1666000   0.59068228    -8.437153    269.65408  0.013488099  0.012281734            3 
 1667000   0.58392199   -8.4390931    269.44786  0.013469699  0.012271217            2 
 1668000   0.58623251   -8.4311047    269.34308  0.013456389  0.012260704            3 
 1669000   0.57994577    -8.434124    269.90345  0.013476306  0.012250213            2 
 1670000   0.58037061   -8.4314464    269.37906  0.013442069  0.012239722            3 
 1671000   0.58231121    -8.432155    268.83143  0.013406714  0.012229254            2 
 1672000   0.59108562   -8.4342692    269.60696  0.013437348   0.01221877            1 
 1673000   0.58527324    -8.439138    269.11318  0.013404721  0.012208302            1 
 1674000   0.59264878   -8.4290018    269.29432  0.013405731  0.012197836            3 
 1675000    0.5989102   -8.4478739    269.16896   0.01339149  0.012187372            2 
 1676000   0.58582889     -8.45004     269.6634  0.013408085  0.012176916            3 
 1677000   0.58718872   -8.4344471    269.40641  0.013387319  0.012166466            1 
 1678000   0.59854812   -8.4426838    268.82346  0.013350391  0.012156042            3 
 1679000   0.58069903   -8.4253854    269.22468  0.013362353  0.012145618            2 
 1680000   0.58562961   -8.4277764    268.93053  0.013339808  0.012135208            2 
 1681000    0.5777238   -8.4353996    269.25111  0.013347765  0.012124803            2 
 1682000   0.57908601   -8.4447627     269.3925  0.013346834   0.01211442            2 
 1683000    0.5818087   -8.4486125    269.00801  0.013319866  0.012104022            6 
 1684000   0.57568048   -8.4409558    268.95146  0.013309158  0.012093645            2 
 1685000   0.58427227   -8.4496508    268.84742  0.013296114  0.012083287            2 
 1686000   0.57255545   -8.4583716    268.46752  0.013269451  0.012072935            2 
 1687000   0.57929127   -8.4398963    269.36697  0.013306015  0.012062581            3 
 1688000   0.57217743   -8.4549705    269.10058  0.013284981  0.012052252            2 
 1689000   0.58242208   -8.4393161    269.24898  0.013284438  0.012041923            3 
 1690000   0.58215976   -8.4574469    268.76177  0.013252553    0.0120316            2 
 1691000    0.5829222   -8.4446381    268.84316  0.013248727  0.012021285            2 
 1692000   0.56848318   -8.4568355    268.55831  0.013226867  0.012010967            4 
 1693000   0.56941142    -8.448418    268.63522   0.01322284  0.012000659            2 
 1694000   0.57816998   -8.4595629    268.88584  0.013227363  0.011990358            2 
 1695000   0.58054711   -8.4731272    268.67655   0.01320927  0.011980077            3 
 1696000    0.5865315   -8.4520164    268.77491  0.013206314  0.011969787            4 
 1697000   0.58626201   -8.4647141    268.68049  0.013193895  0.011959516            2 
 1698000   0.58358725   -8.4835578    268.58202  0.013181293  0.011949263            3 
 1699000   0.56310898    -8.469986    269.40048  0.013213679  0.011939027            3 
 1700000   0.58432328   -8.4651805    268.82066  0.013177483  0.011928799            3 
 1701000   0.56396988   -8.4621607    269.04898  0.013180922  0.011918571            2 
 1702000   0.58501788   -8.4527047    268.78737  0.013160369  0.011908349            3 
 1703000   0.57630493   -8.4508712      268.835  0.013154972  0.011898148            3 
 1704000   0.57255969   -8.4678035    268.70111  0.013140704  0.011887956            4 
 1705000   0.57684597    -8.460493    268.67379  0.013131661  0.011877779            1 
 1706000    0.5675141   -8.4851753    268.99814  0.013139808  0.011867595            2 
 1707000   0.55611819   -8.4790436     268.8631  0.013125517  0.011857432            2 
 1708000   0.57898227   -8.4772682    268.90098  0.013119681  0.011847271            2 
 1709000   0.58333463   -8.4788178    268.31982  0.013083666  0.011837127            3 
 1710000   0.57114983   -8.4471721    268.66027  0.013092606  0.011826981            3 
 1711000   0.56717972   -8.4675735    268.11925  0.013058604  0.011816838            1 
 1712000   0.56812124   -8.4780629    268.77949  0.013083114  0.011806715            1 
 1713000   0.57561799   -8.4664826    269.01535   0.01308695  0.011796601            3 
 1714000   0.56419279    -8.476895    268.98433  0.013077807  0.011786498            1 
 1715000   0.55875982   -8.4648003    268.60172   0.01305159  0.011776403            1 
 1716000   0.56897156   -8.4656033    268.84325  0.013055713  0.011766314            1 
 1717000   0.56080833   -8.4547455     268.8559  0.013048724  0.011756249            1 
 1718000    0.5659313   -8.4775414     269.0234  0.013049253  0.011746174            2 
 1719000   0.57959279   -8.4711383    268.93275  0.013037267  0.011736114            1 
 1720000    0.5606037   -8.4877753     268.4221  0.013004947  0.011726072            1 
 1721000   0.55850061   -8.4840349    268.55004  0.013003585  0.011716029            4 
 1722000   0.56715438   -8.4793609    268.95794  0.013015773  0.011706002            1 
 1723000   0.56449283   -8.4680379    269.03511  0.013011951   0.01169597            3 
 1724000   0.56354791   -8.4829597    267.82076  0.012945706  0.011685972            3 
 1725000   0.55943888    -8.487888    268.70749  0.012981038  0.011675959            1 
 1726000   0.57620458   -8.5001091     268.9173  0.012983647  0.011665954            4 
 1727000   0.56454019   -8.5007307    268.25639  0.012944238  0.011655965            3 
 1728000   0.56363745   -8.4779098    268.51165  0.012949057  0.011645984            2 
 1729000   0.55445537   -8.4970566    268.18757  0.012925948  0.011636008            5 
 1730000   0.56186539   -8.5166335    267.94824  0.012906948   0.01162605            3 
 1731000   0.57021388   -8.4641909    268.45731  0.012923999  0.011616096            3 
 1732000   0.57261712   -8.4820941    268.57415  0.012922159  0.011606143            2 
 1733000   0.57015522   -8.4947844    268.43161  0.012907848  0.011596203            2 
 1734000   0.56104193   -8.4780695    268.06628  0.012882847  0.011586271            2 
 1735000   0.55774067   -8.5107715    268.15384  0.012879628   0.01157636            1 
 1736000   0.55569613   -8.5089272     268.5307  0.012890298  0.011566473            3 
 1737000   0.56786862   -8.5066012    268.39366  0.012876303  0.011556576            3 
 1738000   0.55107542   -8.4998577     268.3015  0.012864476  0.011546683            2 
 1739000   0.56519675   -8.5055231     268.8394  0.012882854  0.011536809            2 
 1740000   0.56352352   -8.4861644    268.15443  0.012842645  0.011526944            2 
 1741000   0.56105295   -8.5062249    268.56267  0.012854809   0.01151708            1 
 1742000   0.54998434   -8.4984723    268.26082   0.01283299  0.011507244            3 
 1743000   0.55863849   -8.4930057    268.46507  0.012835393  0.011497408            2 
 1744000   0.55420116   -8.5298487    268.49622  0.012829521  0.011487579            2 
 1745000   0.55791434    -8.496465    268.26085  0.012810929  0.011477748            1 
 1746000   0.55189739   -8.5075354    268.33115  0.012806947   0.01146793            1 
 1747000   0.55417581   -8.4993612    268.16932  0.012791897  0.011458128            1 
 1748000   0.56332396   -8.4896972    268.45462   0.01279818  0.011448331            3 
 1749000   0.56271675   -8.5035134    268.30896  0.012783922  0.011438546            2 
 1750000   0.56252054   -8.5192614    268.40082  0.012780991  0.011428754            4 
 1751000   0.56009236   -8.4991666    267.91791  0.012750709  0.011418976            1 
 1752000   0.55051841   -8.4771815    268.19634  0.012756675   0.01140922            1 
 1753000   0.55184687   -8.5092588    268.54605  0.012766023  0.011399488            2 
 1754000   0.55673271   -8.4963429    267.98384  0.012732034  0.011389752            2 
 1755000   0.55150035   -8.4914756    268.77335  0.012762268  0.011380036            2 
 1756000   0.55602769   -8.5177274    268.27457  0.012731329  0.011370323            1 
 1757000   0.55102191   -8.5138227    268.18999  0.012720072  0.011360611            3 
 1758000   0.55739955   -8.4994582    268.22526  0.012714508  0.011350914            2 
 1759000   0.54866149   -8.5122072     267.7117   0.01268295  0.011341225            2 
 1760000   0.55255639   -8.5326763      267.838  0.012681723  0.011331538            3 
 1761000   0.54965133   -8.5107436    268.20107  0.012691703  0.011321856            2 
 1762000   0.53835616   -8.5098507    268.02252  0.012676056  0.011312198            2 
 1763000   0.54812815    -8.527875    268.17061  0.012675866  0.011302544            2 
 1764000   0.55400225   -8.5244144    267.90598  0.012656178    0.0112929            2 
 1765000   0.55634749    -8.527849    267.88149  0.012647851  0.011283259            2 
 1766000   0.54999541   -8.5247053    268.09646  0.012650833  0.011273645            3 
 1767000   0.55091165   -8.5215516    268.27374  0.012652034  0.011264043            2 
 1768000   0.54962053   -8.5190056    268.16778  0.012639884  0.011254437            1 
 1769000   0.54891263   -8.5152184     268.3582  0.012641709  0.011244848            2 
 1770000   0.53844054   -8.5237321    268.15514  0.012625006  0.011235282            2 
 1771000   0.55514681   -8.5075481    268.50173  0.012634187  0.011225708            3 
 1772000   0.55098035   -8.5114664    268.05215  0.012605914  0.011216161            1 
 1773000   0.55568317   -8.5214577    267.65547  0.012580159  0.011206623            3 
 1774000   0.54007418   -8.5120988    268.09604  0.012593764  0.011197093            1 
 1775000   0.54338184    -8.544243    267.78613  0.012572119  0.011187566            2 
 1776000   0.53831082   -8.5170074    268.27133  0.012587806  0.011178056            2 
 1777000   0.55553888   -8.5140814    268.00312  0.012568145   0.01116855            1 
 1778000   0.54348352   -8.5228325    267.86432  0.012554571  0.011159038            2 
 1779000   0.52939714   -8.5386413     268.0079  0.012554239  0.011149539            1 
 1780000   0.54475543   -8.5188512    268.17755  0.012555129  0.011140036            1 
 1781000   0.54725394   -8.5345225    267.75105  0.012528123   0.01113056            2 
 1782000    0.5430448   -8.5172519    268.26392  0.012545077  0.011121088            2 
 1783000   0.53244604   -8.5200322    267.93732  0.012522776  0.011111624            1 
 1784000   0.54819383   -8.5504119    268.04298  0.012520692  0.011102181            3 
 1785000   0.53305501   -8.5240631    268.34689  0.012527866  0.011092747            2 
 1786000   0.53629609   -8.5028827    268.04466   0.01250675  0.011083319            4 
 1787000   0.54143161   -8.5296126    268.06766  0.012500824  0.011073893            1 
 1788000   0.54369305   -8.5081577    268.27689  0.012503584  0.011064484            1 
 1789000   0.53512026   -8.5434182    267.94092  0.012480945   0.01105508            3 
 1790000   0.54542756   -8.5303954    268.22554  0.012487222  0.011045679            2 
 1791000   0.53862909   -8.5219479    267.55712   0.01244915  0.011036296            1 
 1792000   0.53707059   -8.5389057    267.63297   0.01244573  0.011026918            2 
 1793000   0.54061579   -8.5294892    267.83005  0.012447948  0.011017546            2 
 1794000   0.55367037   -8.5432651    267.56382  0.012428643  0.011008181            5 
 1795000   0.52987712   -8.5364719    267.92093  0.012438298  0.010998831            2 
 1796000   0.54402759    -8.539531     267.4874  0.012411256  0.010989477            2 
 1797000   0.53750262   -8.5386415    268.15035  0.012435093  0.010980147            2 
 1798000   0.51991574   -8.5305185    267.78067  0.012411043   0.01097082            2 
 1799000   0.53725262   -8.5369209     267.5383  0.012392917  0.010961506            2 
 1800000   0.53035865   -8.5282361    267.47852  0.012383265  0.010952196            1 
 1801000   0.52597068   -8.5548373    267.87136  0.012394566  0.010942893            3 
 1802000   0.54131969   -8.5495187    267.79399   0.01238411  0.010933596            1 
 1803000   0.53499786   -8.5256397    267.98054  0.012385863  0.010924321            1 
 1804000     0.535924   -8.5518421    267.77201  0.012369365   0.01091504            1 
 1805000   0.52815891   -8.5307454    267.57625  0.012353474  0.010905776            2 
 1806000   0.53841521   -8.5381711    268.14294  0.012372782  0.010896535            2 
 1807000   0.52942028   -8.5421423    268.21532  0.012369273  0.010887294            1 
 1808000   0.53013773   -8.5424952    267.33859  0.012322022  0.010878061            2 
 1809000   0.53331955   -8.5380506    268.05893  0.012348394  0.010868837            1 
 1810000   0.53507898   -8.5527805    268.03068  0.012340271  0.010859619            2 
 1811000   0.52069531   -8.5495391    267.59891  0.012313589   0.01085041            4 
 1812000    0.5321918   -8.5290674     267.7082  0.012311819  0.010841225            3 
 1813000   0.52844129   -8.5379305    267.70334  0.012304805   0.01083203            2 
 1814000   0.52201398   -8.5613401     267.8062  0.012302747  0.010822858            1 
 1815000   0.52132063   -8.5488684    267.90209  0.012300371  0.010813692            2 
 1816000   0.53073848    -8.566234    267.36847  0.012269111  0.010804524            2 
 1817000   0.52804902   -8.5483982    267.82065  0.012283097  0.010795369            6 
 1818000   0.52850989   -8.5516903    267.65101  0.012268565  0.010786218            1 
 1819000   0.53289161    -8.547998     267.6371  0.012261183   0.01077708            1 
 1820000   0.52963666   -8.5583135     267.7785   0.01226092  0.010767946            1 
 1821000   0.52277385    -8.539742    267.42349  0.012237941   0.01075882            1 
 1822000   0.52578279   -8.5522917     267.8754  0.012251894  0.010749716            3 
 1823000   0.52498224   -8.5464744     267.6579   0.01223523  0.010740616            3 
 1824000    0.5209577   -8.5649127    267.94169  0.012241488  0.010731523            2 
 1825000   0.50779498   -8.5559791    268.04801  0.012239635  0.010722449            2 
 1826000   0.51791611   -8.5497951    267.52584  0.012209102  0.010713382            1 
 1827000   0.51996608   -8.5562321    267.71736  0.012211155  0.010704318            2 
 1828000   0.53580193   -8.5720943    267.40646  0.012190302  0.010695277            1 
 1829000   0.51381078   -8.5444667    267.25988  0.012176958  0.010686242            3 
 1830000   0.50932295   -8.5697478    267.32772  0.012173393  0.010677207            1 
 1831000   0.52722822   -8.5608327    267.59572  0.012178942  0.010668181            2 
 1832000   0.51506022   -8.5443895    267.46202  0.012166213  0.010659168            2 
 1833000   0.51957102   -8.5654299     267.7502  0.012172677  0.010650157            2 
 1834000   0.52393258   -8.5631795     266.9617  0.012130212  0.010641163            2 
 1835000   0.52032721   -8.5560729    267.51284   0.01214863  0.010632174            2 
 1836000   0.52647858   -8.5675743    267.28699  0.012131762  0.010623211            1 
 1837000   0.53350799   -8.5732281    267.18612  0.012120582   0.01061425            5 
 1838000   0.52823039   -8.5533692    267.59992  0.012132749  0.010605297            1 
 1839000    0.5216909   -8.5762932    267.05721  0.012101559  0.010596352            2 
 1840000   0.51400163   -8.5649522    267.25827  0.012104088  0.010587414            1 
 1841000   0.53058578   -8.5690022    267.34702  0.012101531  0.010578486            2 
 1842000   0.51896374    -8.569894    267.47786   0.01210088  0.010569571            2 
 1843000   0.51624988   -8.5768525    266.99117  0.012072308  0.010560657            1 
 1844000   0.52061069   -8.5732253    267.48779  0.012088204  0.010551759            2 
 1845000   0.52305953   -8.5644807     267.9767  0.012103735  0.010542878            1 
 1846000   0.52076444   -8.5679127     267.3442  0.012068626  0.010533987            1 
 1847000   0.51972723   -8.5792267    267.65107  0.012075937  0.010525116            2 
 1848000   0.52784291   -8.5619954    267.10867  0.012044944  0.010516251            2 
 1849000   0.51792431   -8.5754904    267.70449  0.012065282  0.010507396            1 
 1850000   0.51073651   -8.5704047    267.55621  0.012052081  0.010498566            2 
 1851000   0.51380216   -8.5626397    267.39485  0.012038306  0.010489736            1 
 1852000   0.50289881   -8.5713853    267.04644  0.012016129  0.010480915            1 
 1853000   0.51620047   -8.5740477    267.31291  0.012021628  0.010472094            1 
 1854000    0.5010488   -8.5683523    267.12214  0.012006569  0.010463284            3 
 1855000   0.51726174   -8.5677836    267.23156  0.012005012  0.010454488            1 
 1856000   0.51008427   -8.5796718    267.77102  0.012022765  0.010445697            2 
 1857000   0.52225902   -8.5798776    267.22691  0.011991874  0.010436918            1 
 1858000   0.51155379   -8.5921465    267.59772  0.012002051  0.010428139            3 
 1859000    0.4974354   -8.5648757    267.29147  0.011981866  0.010419374            3 
 1860000   0.51255512   -8.5740873    267.80986  0.011998649  0.010410613            2 
 1861000   0.50545983   -8.5644427    267.42923  0.011975158  0.010401864            2 
 1862000   0.51125215   -8.5839447    267.34777  0.011965081  0.010393126            2 
 1863000   0.51726501    -8.571591    267.30827  0.011956892  0.010384392            3 
 1864000   0.50916203   -8.5815246    267.34409  0.011952078  0.010375671            1 
 1865000   0.50898059   -8.5955655    266.94583  0.011927874  0.010366958            2 
 1866000   0.50632616   -8.5862811    267.07183  0.011927109  0.010358239            2 
 1867000   0.49860807   -8.5950786     267.3877   0.01193482  0.010349539            2 
 1868000     0.505631   -8.5868694    267.56262  0.011936234  0.010340852            2 
 1869000   0.50338171   -8.5819297    267.04928  0.011906959  0.010332163            1 
 1870000    0.5153365   -8.5967166    267.42011  0.011917117  0.010323487            2 
 1871000   0.50125413   -8.6011259    267.27227  0.011904163  0.010314819            2 
 1872000   0.50490386   -8.5912271    266.58847  0.011867364  0.010306165            2 
 1873000   0.51217471   -8.5934484    267.09402  0.011883521  0.010297519            1 
 1874000   0.51824896   -8.5778182    267.26005  0.011884563  0.010288886            3 
 1875000   0.50868366   -8.5625249    266.93465  0.011863762  0.010280272            2 
 1876000   0.49906287   -8.5991412    267.22233  0.011870217  0.010271656            2 
 1877000   0.50672842   -8.5736479    267.31329  0.011867932  0.010263049            2 
 1878000   0.49945871   -8.5876521    267.19527  0.011856375  0.010254445            3 
 1879000   0.51032401   -8.5929154    266.79061  0.011832118  0.010245851            1 
 1880000   0.50144568   -8.5813088    267.06659  0.011838058  0.010237274            2 
 1881000   0.50167597   -8.5849456    267.62905  0.011856683  0.010228701            1 
 1882000   0.50160427     -8.58988    267.33956  0.011837565  0.010220135            3 
 1883000   0.50775084   -8.6020706    266.82345  0.011808437  0.010211576            3 
 1884000   0.50909724   -8.5844528    267.20989  0.011819262  0.010203029            2 
 1885000   0.49706248   -8.5977498    266.89629  0.011799129  0.010194492            3 
 1886000   0.50268317   -8.5925663    267.33936   0.01181245   0.01018596            2 
 1887000   0.49712364   -8.5929669    267.27149  0.011803192  0.010177436            3 
 1888000   0.50763365   -8.5990817    267.07507  0.011788271   0.01016893            2 
 1889000   0.49856799   -8.6012799    266.90808  0.011774664  0.010160424            2 
 1890000   0.50753999   -8.6280332    267.48498   0.01179387  0.010151925            2 
 1891000   0.49437807   -8.6058012    266.92682  0.011763036  0.010143437            2 
 1892000   0.50298811   -8.6135285    267.03731  0.011761686  0.010134948            2 
 1893000   0.50227012    -8.597342    266.89605  0.011749254  0.010126475            2 
 1894000    0.4892177   -8.5947976    266.96986  0.011746298  0.010118015            4 
 1895000   0.49351168    -8.597385    267.51055  0.011763876  0.010109565            2 
 1896000   0.49713222   -8.5879909    267.29619   0.01174825  0.010101126            1 
 1897000   0.50308926   -8.5990415    267.19486  0.011737606  0.010092699            2 
 1898000   0.50316509   -8.6104656    267.24306  0.011733538  0.010084274            2 
 1899000   0.48973189    -8.611585    267.36232  0.011732593  0.010075862            3 
 1900000   0.49079405   -8.6067711     267.1076  0.011715245  0.010067453            5 
 1901000   0.50046658   -8.6034903    267.07251  0.011707545  0.010059056            2 
 1902000     0.492798   -8.6079835    266.93741   0.01169547  0.010050665            2 
 1903000   0.49750015   -8.6099936    267.01086  0.011692541  0.010042291            2 
 1904000   0.49651674   -8.5955803    266.87649  0.011680519  0.010033921            4 
 1905000   0.49038987   -8.6107412    266.77345   0.01166988  0.010025568            2 
 1906000   0.49282918   -8.6153781    267.18467  0.011681736  0.010017206            1 
 1907000   0.49246756   -8.6073504     266.7221  0.011655397  0.010008866            2 
 1908000   0.49874306   -8.6217878     266.8822  0.011656281  0.010000531            1 
 1909000   0.48621409   -8.6139229    266.47036  0.011632197 0.0099921961            1 
 1910000   0.48796581   -8.6156902    267.25938  0.011660531 0.0099838721            2 
 1911000   0.50110057   -8.6013863    266.90299  0.011638889 0.0099755622            3 
 1912000    0.4911195   -8.6111146    267.28972  0.011649657 0.0099672626            1 
 1913000   0.48486749   -8.6114699    266.98069  0.011630105 0.0099589609            1 
 1914000   0.48451497   -8.6151643    266.65682  0.011609928 0.0099506681            2 
 1915000   0.48692108   -8.6297647    267.03055  0.011620129 0.0099423793            2 
 1916000   0.49101334   -8.6130589    267.08584  0.011616468 0.0099341084            1 
 1917000   0.48712704   -8.6237318     266.5847  0.011588624 0.0099258506            2 
 1918000   0.48821239   -8.6013856    267.09747  0.011604861 0.0099175993            2 
 1919000   0.49492538   -8.6259669    266.94875  0.011592355 0.0099093503            2 
 1920000   0.48989457   -8.6010383    266.89369  0.011583927 0.0099011104            2 
 1921000   0.47874122   -8.6158691    267.01732   0.01158326 0.0098928714            4 
 1922000   0.48589219   -8.6219345    266.40815  0.011550822 0.0098846423            1 
 1923000   0.48218667   -8.6299547    266.83096  0.011563138 0.0098764255            1 
 1924000   0.48811357   -8.6309239    267.08273  0.011568032 0.0098682183            1 
 1925000   0.48298083   -8.6406573    267.04089  0.011560211  0.009860015            1 
 1926000   0.48730424   -8.6176885    266.71272  0.011540011 0.0098518272            1 
 1927000   0.48040518   -8.6155505    266.67628  0.011532446 0.0098436406            2 
 1928000   0.48512447   -8.6205674    266.64809  0.011525246 0.0098354633            1 
 1929000   0.47953935   -8.6293285    266.26868  0.011502881 0.0098272894            1 
 1930000   0.49242328   -8.6346928    266.53776  0.011508539 0.0098191278            1 
 1931000   0.47738676   -8.6261436    266.70663  0.011509867 0.0098109775            1 
 1932000   0.47591963   -8.6327068    266.57718  0.011498325 0.0098028409            3 
 1933000   0.48270863   -8.6337987    266.55995  0.011491634 0.0097946998            2 
 1934000   0.47375378   -8.6281846     266.5858  0.011486806 0.0097865685            1 
 1935000   0.47974418   -8.6270585    266.74817  0.011487862 0.0097784512            3 
 1936000   0.47857471   -8.6253549    266.36804  0.011465566 0.0097703427            1 
 1937000   0.48252591   -8.6339039    266.91841  0.011483325   0.00976224            2 
 1938000   0.48004046   -8.6327916    266.79342  0.011472025  0.009754141            1 
 1939000   0.47646974   -8.6327809    267.10514  0.011479506 0.0097460583            3 
 1940000   0.48161203   -8.6233031    266.44528  0.011445244 0.0097379845            6 
 1941000   0.46579966   -8.6265805    266.71519  0.011450936 0.0097299257            2 
 1942000   0.47432149   -8.6318763    266.30802  0.011427567 0.0097218702            1 
 1943000   0.48079634   -8.6348706    266.60291  0.011434333  0.009713822            2 
 1944000   0.46399412   -8.6399061    266.42348  0.011420759 0.0097057838            1 
 1945000   0.46866292   -8.6435173    266.89308  0.011435008 0.0096977501            3 
 1946000   0.47970261   -8.6480657    266.54311  0.011414145 0.0096897272            2 
 1947000   0.46900927   -8.6365972    266.64969  0.011412844 0.0096817123            2 
 1948000   0.46982351   -8.6330407    265.98614  0.011378599 0.0096737073            3 
 1949000   0.46590276   -8.6536175    266.63364  0.011400447 0.0096657174            2 
 1950000   0.45903261   -8.6423764    266.52742  0.011390061 0.0096577287            2 
 1951000    0.4709832   -8.6383794    266.78621  0.011395276 0.0096497455            3 
 1952000   0.47922998   -8.6422329    266.61067  0.011381945 0.0096417747            3 
 1953000   0.46867974    -8.628356    266.95484  0.011390802 0.0096338053            1 
 1954000   0.48087708   -8.6381575    267.10472  0.011391365 0.0096258453            3 
 1955000   0.47257033   -8.6504389    266.54933  0.011361864 0.0096178901            2 
 1956000   0.47390684   -8.6309902    266.54223  0.011355753 0.0096099466            3 
 1957000   0.47707627    -8.630313    266.67877  0.011355764 0.0096020197            4 
 1958000   0.46549195    -8.645199    266.67227  0.011349688 0.0095941005            2 
 1959000   0.47363305   -8.6405422    266.76584  0.011347875 0.0095861893            2 
 1960000   0.47252639   -8.6345766    266.28357   0.01132158 0.0095782848            1 
 1961000   0.47438798   -8.6461073    266.98208  0.011345491 0.0095703902            2 
 1962000   0.47409963   -8.6452552    266.42884   0.01131621 0.0095625031            2 
 1963000   0.46344004   -8.6433222     266.5799  0.011316858 0.0095546173            1 
 1964000   0.46754925    -8.643134    266.34462  0.011301112 0.0095467416            2 
 1965000    0.4627375    -8.640258    265.76664   0.01127085 0.0095388623            2 
 1966000    0.4734805   -8.6603598    266.68019   0.01130384  0.009530995            1 
 1967000   0.46363067   -8.6424421    266.44129  0.011287972 0.0095231403            1 
 1968000   0.46925097    -8.675232     266.0881  0.011267281 0.0095152859            2 
 1969000   0.46303698   -8.6534139    266.14987  0.011264173 0.0095074458            1 
 1970000   0.47065138   -8.6598021    266.18661  0.011260009 0.0094996162            1 
 1971000    0.4691321   -8.6515765    266.66699  0.011274606 0.0094917898            2 
 1972000   0.46596447   -8.6363048    266.17939  0.011248284 0.0094839755            6 
 1973000   0.46467661   -8.6491238    266.29207  0.011247342 0.0094761658            2 
 1974000   0.47789429   -8.6509501    266.26453  0.011240482 0.0094683647            1 
 1975000   0.46513881   -8.6453777    266.28732  0.011235752 0.0094605692            2 
 1976000   0.46677878   -8.6485212    265.99194  0.011217609 0.0094527786            2 
 1977000   0.46586347   -8.6599537     266.3094  0.011225316  0.009445006            2 
 1978000   0.46638429   -8.6453812    266.47832  0.011226758 0.0094372333            2 
 1979000   0.47066215   -8.6557241    265.89532  0.011196535 0.0094294727            1 
 1980000   0.46121981   -8.6528106    266.38439  0.011211464 0.0094217189            3 
 1981000   0.47287641   -8.6536346    266.35061  0.011204384  0.009413975            2 
 1982000   0.46232402   -8.6608464    266.10233  0.011188292 0.0094062367            3 
 1983000   0.46352885   -8.6611391    265.82194  0.011170867 0.0093985045            2 
 1984000   0.46748724   -8.6459366    266.23311  0.011182506 0.0093907828            1 
 1985000   0.45992454   -8.6503816     266.1572  0.011173686 0.0093830684            1 
 1986000   0.45761407   -8.6518818    265.84064  0.011154777  0.009375361            1 
 1987000   0.46084957     -8.67227    266.23057  0.011165516 0.0093676698            2 
 1988000   0.46786201   -8.6613648    266.50157   0.01117126 0.0093599804            2 
 1989000   0.47021339   -8.6726266    266.49363   0.01116531 0.0093522971            2 
 1990000   0.45106602   -8.6528713    265.80123  0.011130705 0.0093446215            2 
 1991000   0.44515193   -8.6799927    266.50809    0.0111547 0.0093369595            1 
 1992000   0.46280167   -8.6566852    266.52291   0.01114972    0.0093293            1 
 1993000   0.45807362   -8.6466434     266.2189  0.011131414 0.0093216614            2 
 1994000   0.46513723   -8.6771334    266.18404  0.011124375 0.0093140254            2 
 1995000   0.46450474   -8.6554924    266.28288  0.011122927 0.0093063941            3 
 1996000   0.44977074   -8.6641934    266.05757  0.011107948 0.0092987729            2 
 1997000   0.46637989    -8.653245    266.23836   0.01110993 0.0092911568            3 
 1998000   0.46643405   -8.6671942    266.07872  0.011097711 0.0092835634            2 
 1999000   0.45083826   -8.6537675    266.62154  0.011114788 0.0092759657            2 
 2000000   0.45183014   -8.6580265    266.01419  0.011083925 0.0092683772            3 
 2001000   0.44868545   -8.6638442    266.44886  0.011096488 0.0092608018            1 
 2002000   0.44874048   -8.6580445    265.70987  0.011060185 0.0092532178            1 
 2003000   0.44889582   -8.6638796    266.15412  0.011073145 0.0092456422            2 
 2004000   0.44287147    -8.676732    266.04781  0.011063199 0.0092380742            2 
 2005000    0.4599485   -8.6654379    266.31954  0.011068975 0.0092305204            2 
 2006000   0.46043046   -8.6719812    265.89302  0.011045738 0.0092229732            2 
 2007000   0.43966071   -8.6756204    266.00013  0.011044682 0.0092154326            3 
 2008000   0.45816709   -8.6679851    266.09089  0.011042949 0.0092079028            3 
 2009000   0.44900916   -8.6713531    265.87668  0.011028567 0.0092003762            2 
 2010000    0.4517874   -8.6730231    266.17973  0.011035644 0.0091928635            2 
 2011000   0.45909037   -8.6726679    266.42958   0.01104051 0.0091853611            2 
 2012000   0.46130101   -8.6696425    265.98203  0.011016486 0.0091778681            1 
Loop time of 4759.54 on 48 procs for 2000000 steps with 4000 atoms

Performance: 72612.055 tau/day, 420.209 timesteps/s
99.4% CPU use with 48 MPI tasks x no OpenMP threads

MPI task timing breakdown:
Section |  min time  |  avg time  |  max time  |%varavg| %total
---------------------------------------------------------------
Pair    | 295.78     | 316.44     | 337.06     |  56.1 |  6.65
Neigh   | 31.344     | 32.628     | 33.682     |  10.5 |  0.69
Comm    | 302.59     | 321.08     | 341.63     |  60.1 |  6.75
Output  | 4.0364     | 4.0387     | 4.0678     |   0.2 |  0.08
Modify  | 4033.6     | 4042.4     | 4054       |   7.8 | 84.93
Other   |            | 42.94      |            |       |  0.90

Nlocal:        83.3333 ave          90 max          74 min
Histogram: 1 1 2 7 1 14 8 5 5 4
Nghost:        2062.62 ave        2088 max        2040 min
Histogram: 3 3 5 8 11 4 5 5 1 3
Neighs:        13398.5 ave       15128 max       11412 min
Histogram: 1 2 2 6 7 10 14 4 1 1
FullNghs:      26797.4 ave       29230 max       23767 min
Histogram: 2 0 2 8 7 9 7 7 2 4

Total # of neighbors = 1286276
Ave neighs/atom = 321.56900
Neighbor list builds = 107148
Dangerous builds = 0

#clear
#
#next RN
#
#jump SELF
Total wall time: 1:19:22
