
units lj                  # Use reduced LJ style units
atom_style atomic         # Uncharged point particles
atom_modify map hash      # Needed for indexing of clusters etc
                          # Used to be able to find where atoms are in relation to each other.

lattice fcc 1.0 spacing 1 1 1
Lattice spacing in x,y,z = 1.5874011 1.5874011 1.5874011
region box block 0 10 0 10 0 10 units lattice
create_box 2 box
Created orthogonal box = (0.0000000 0.0000000 0.0000000) to (15.874011 15.874011 15.874011)
  3 by 4 by 4 MPI processor grid
create_atoms 1 box
Created 4000 atoms
  using lattice units in orthogonal box = (0.0000000 0.0000000 0.0000000) to (15.874011 15.874011 15.874011)
  create_atoms CPU = 0.003 seconds
set type 1 type/fraction 2 0.63 78393
Setting atom values ...
  2531 settings made for type/fraction
mass 1 1.0
mass 2 1.0
pair_style lj/cut  3.5
pair_modify tail  yes
pair_coeff 1  1  1.0  1.0   # Intearaction between 1 and 1 set with epsilon = 1 and sigma = 1
pair_coeff 1  2  1.5  0.8
pair_coeff 2  2  0.5  0.88

write_data data.0
System init for write_data ...
Neighbor list info ...
  update every 1 steps, delay 10 steps, check yes
  max neighbors/atom: 2000, page size: 100000
  master list distance cutoff = 3.8
  ghost atom cutoff = 3.8
  binsize = 1.9, bins = 9 9 9
  1 neighbor lists, perpetual/occasional/extra = 1 0 0
  (1) pair lj/cut, perpetual
      attributes: half, newton on
      pair build: half/bin/atomonly/newton
      stencil: half/bin/3d
      bin: standard
WARNING: Not all mixed pair coeffs generated from mixing. Use write_data with 'pair ij' option to store all pair coeffs. (../write_data.cpp:312)


#############################
#   M E L T   S Y S T E M   #
#############################

velocity all create 2.4 6583654 mom yes dist gaussian # Assign velocities
                                                    # Temperature 2.4, random number seed, zero linear momentum
                                                                                # Gaussian distribution

timestep 0.002   # simulation timestep
thermo 1000       # output thermodynamic data every 1000 steps bf 100

# Define a fix  in this case with index 1 applied to all
# particles in the simulation. This fix is for simulations
# in the anisotropic NPT ensemble. Note that we use the MTK
# correction.
fix 1 all npt temp 2.4 2.4 0.1 iso 5.68 5.68 0.5 mtk yes tchain 5 pchain 5 # Use NPT ensemble
                                                                         # Set temperature and pressure and damping
                                                                         # Numbers of thermostats in chain and in barostat
run 10000          # run for 10000 steps
Per MPI rank memory allocation (min/avg/max) = 3.642 | 3.644 | 3.648 Mbytes
Step Temp E_pair E_mol TotEng Press Volume 
       0          2.4    -4.562992            0  -0.96389204   -3.9987934         4000 
    1000    2.3493027   -4.2431265            0  -0.72005346    5.6235474    3639.0573 
    2000    2.3798305   -4.2961606            0  -0.72730729    5.7020244     3604.948 
    3000    2.4377182   -4.2229383            0   -0.5672752    5.9703909     3634.156 
    4000    2.4259795   -4.3030765            0  -0.66501701    5.4506575    3643.6598 
    5000     2.382896   -4.3564037            0  -0.78295337    5.6847085    3587.2696 
    6000    2.4536828   -4.3072254            0   -0.6276213    5.8592854    3598.7455 
    7000     2.421448   -4.3276123            0  -0.69634835     5.838924    3593.2992 
    8000    2.4089149    -4.242714            0  -0.63024502    6.0378042    3608.7891 
    9000    2.3682858   -4.2598372            0  -0.70829665    6.0226263    3600.5445 
   10000    2.4736021   -4.3074638            0  -0.59798831    5.7987093    3594.3483 
Loop time of 2.72347 on 48 procs for 10000 steps with 4000 atoms

Performance: 634483.554 tau/day, 3671.780 timesteps/s
99.6% CPU use with 48 MPI tasks x no OpenMP threads

MPI task timing breakdown:
Section |  min time  |  avg time  |  max time  |%varavg| %total
---------------------------------------------------------------
Pair    | 1.2079     | 1.2772     | 1.52       |   3.9 | 46.90
Neigh   | 0.22045    | 0.22585    | 0.26154    |   1.2 |  8.29
Comm    | 0.72559    | 0.93045    | 1.0274     |   6.4 | 34.16
Output  | 0.00026888 | 0.00027495 | 0.00034066 |   0.0 |  0.01
Modify  | 0.19957    | 0.27414    | 0.36136    |  10.1 | 10.07
Other   |            | 0.01556    |            |       |  0.57

Nlocal:        83.3333 ave          93 max          74 min
Histogram: 2 0 6 9 6 12 7 3 2 1
Nghost:        1763.77 ave        1788 max        1740 min
Histogram: 1 3 7 11 5 4 7 4 1 5
Neighs:        10620.2 ave       12022 max        9035 min
Histogram: 1 2 2 5 12 8 8 6 3 1

Total # of neighbors = 509770
Ave neighs/atom = 127.44250
Neighbor list builds = 908
Dangerous builds = 223

# Equilibrate just above the melting temperature to avoid step fn in T

fix 1 all npt temp 1.25 1.25 0.1 iso 5.68 5.68 0.5 mtk yes tchain 5 pchain 5
run 2000
Per MPI rank memory allocation (min/avg/max) = 3.644 | 3.646 | 3.650 Mbytes
Step Temp E_pair E_mol TotEng Press Volume 
   10000    2.4736021   -4.3074638            0  -0.59798831    5.7987093    3594.3483 
   11000    1.2506756   -6.2762127            0   -4.4006683    5.7548873    2769.6324 
   12000    1.2465439    -6.389431            0   -4.5200826    5.8906321    2737.8899 
Loop time of 0.667676 on 48 procs for 2000 steps with 4000 atoms

Performance: 517616.050 tau/day, 2995.463 timesteps/s
99.6% CPU use with 48 MPI tasks x no OpenMP threads

MPI task timing breakdown:
Section |  min time  |  avg time  |  max time  |%varavg| %total
---------------------------------------------------------------
Pair    | 0.2938     | 0.32714    | 0.35294    |   2.2 | 49.00
Neigh   | 0.042017   | 0.044055   | 0.046194   |   0.5 |  6.60
Comm    | 0.21701    | 0.24625    | 0.28389    |   2.9 | 36.88
Output  | 5.1926e-05 | 5.3884e-05 | 6.8254e-05 |   0.0 |  0.01
Modify  | 0.042319   | 0.045197   | 0.047967   |   0.9 |  6.77
Other   |            | 0.004978   |            |       |  0.75

Nlocal:        83.3333 ave          91 max          79 min
Histogram: 7 4 8 7 8 10 2 0 0 2
Nghost:        2123.15 ave        2146 max        2108 min
Histogram: 1 5 15 6 7 6 1 5 1 1
Neighs:        13952.3 ave       15499 max       12380 min
Histogram: 3 2 2 8 8 8 10 1 5 1

Total # of neighbors = 669712
Ave neighs/atom = 167.42800
Neighbor list builds = 143
Dangerous builds = 9

#############################
# L I N E A R  Q U E N C H  #
#############################

# Define solid atoms. This closely follows ten Wolde  Ruiz-Montero and Frenkel  Faraday Discuss  1996  104  93-110
# Compute components of the per-atom q6 vector
compute q6 all orientorder/atom degrees 1 6 components 6 nnn NULL cutoff 1.3 # compute the Q6 parameter.
                                                                             # Use all neighbours within 1.3 unit cell.

# get number of connections
compute coord_number all coord/atom orientorder q6 0.5

# An atom is solid if it has 8 or more connections (of a possible 14)
variable is_solid atom c_coord_number>=8
group solid dynamic all var is_solid    # Must be dynamic to update
dynamic group solid defined

# do clustering
compute cluster solid cluster/atom 1.3 # Create a cluster where all atoms within are solid and max 1.3 units from another member

# define chunks one chunk per cluster
compute clus_chunks solid chunk/atom c_cluster nchunk every compress yes  # Says which atoms are in which chunk

# count the size of each chunk
compute size_chunks solid property/chunk clus_chunks count


# Find the maximum entry in the vector of chunk sizes
variable max_n equal max(c_size_chunks)


# Thermo style which includes this variable
# thermo_style custom step temp pe vol v_max_n

thermo ${N}  # Print the thermo information every 100 steps
thermo 1000  

# Reset the npt fix at a lower temperature (below freezing)
fix 1  all npt temp  ${temp} ${temp}  0.1  iso  5.68  5.68  0.5  mtk yes tchain  5  pchain  5
fix 1  all npt temp  0.45 ${temp}  0.1  iso  5.68  5.68  0.5  mtk yes tchain  5  pchain  5
fix 1  all npt temp  0.45 0.45  0.1  iso  5.68  5.68  0.5  mtk yes tchain  5  pchain  5

dump dmp2 all dcd ${N} traj.dcd
dump dmp2 all dcd 1000 traj.dcd


compute msd all msd com yes
variable twopoint equal c_msd[4]/6/(step*dt+1.0e-6)
fix 9 all vector 10 c_msd[4]
variable fit equal slope(f_9)/6/(10*dt)
thermo_style custom step temp pe c_msd[4] v_twopoint v_fit v_max_n

fix 1 all npt temp 1.25 ${temp} 0.1 iso 5.68 5.68 0.5 mtk yes tchain 5 pchain 5
fix 1 all npt temp 1.25 0.45 0.1 iso 5.68 5.68 0.5 mtk yes tchain 5 pchain 5
run 5000000 # 5000000  # Run for this many steps
Neighbor list info ...
  update every 1 steps, delay 10 steps, check yes
  max neighbors/atom: 2000, page size: 100000
  master list distance cutoff = 3.8
  ghost atom cutoff = 3.8
  binsize = 1.9, bins = 8 8 8
  4 neighbor lists, perpetual/occasional/extra = 1 3 0
  (1) pair lj/cut, perpetual
      attributes: half, newton on
      pair build: half/bin/atomonly/newton
      stencil: half/bin/3d
      bin: standard
  (2) compute orientorder/atom, occasional
      attributes: full, newton on
      pair build: full/bin/atomonly
      stencil: full/bin/3d
      bin: standard
  (3) compute coord/atom, occasional
      attributes: full, newton on
      pair build: full/bin/atomonly
      stencil: full/bin/3d
      bin: standard
  (4) compute cluster/atom, occasional
      attributes: full, newton on
      pair build: full/bin/atomonly
      stencil: full/bin/3d
      bin: standard
Per MPI rank memory allocation (min/avg/max) = 9.848 | 9.852 | 9.856 Mbytes
Step Temp PotEng c_msd[4] v_twopoint v_fit v_max_n 
   12000    1.2465439    -6.389431 2.080029e-30 1.4444645e-32 8.3333333e+20            3 
   13000    1.2581532   -6.3146761   0.55069627 0.0035301042  0.045140276            2 
   14000    1.2448963   -6.3500499     1.014236 0.0060371187  0.041834074            2 
   15000    1.2467679   -6.4084527    1.5104495 0.0083913857  0.041232342            1 
   16000    1.2438556   -6.4351906    1.9668237  0.010243873  0.040450844            3 
   17000    1.2514367   -6.3299816    2.4472111  0.011996132  0.040397007            4 
   18000    1.2651004   -6.3484495     2.966323  0.013732976   0.04036705            2 
   19000    1.2263894   -6.3987263    3.4854829  0.015287205  0.040817047            3 
   20000    1.2788721   -6.4073706    3.9893224  0.016622176  0.040944336            1 
   21000     1.239101   -6.3565687    4.3718621  0.017348659  0.040828302            3 
   22000    1.2435067     -6.38518    4.7610001  0.018034091  0.040296803            2 
   23000    1.2515609   -6.4100732    5.3388617  0.019343702  0.040019236            2 
   24000     1.253805    -6.387429    5.7760904  0.020055869  0.040007722            3 
   25000    1.2611822   -6.4215735    6.3192526  0.021064175  0.039975561            2 
   26000    1.2433881   -6.4126452     6.770897  0.021701593  0.039972012            2 
   27000    1.2846553   -6.4133975    7.2122358  0.022259987  0.039854669            2 
   28000    1.2488207   -6.3609033    7.6618268  0.022803056  0.039760325            2 
   29000    1.2590985   -6.3783774    8.0251413   0.02306075  0.039587553            2 
   30000    1.2535665   -6.4544984    8.4055457  0.023348738  0.039307394            3 
   31000    1.2355961   -6.3449283    8.9549819  0.024072532  0.039076143            3 
   32000    1.2582828   -6.4456657    9.3353224  0.024310735  0.038956877            4 
   33000    1.2675203   -6.3927216      9.81832  0.024793737  0.038769312            3 
   34000    1.2443537   -6.3668453    10.374778  0.025428376    0.0386613            5 
   35000    1.2503463   -6.3471146    10.806433  0.025729601  0.038662422            2 
   36000    1.2440079    -6.384067    11.294563  0.026144822  0.038640881            2 
   37000    1.2404684   -6.3862278    11.883012   0.02676354  0.038686067            2 
   38000    1.2038928   -6.4076639     12.31454  0.027005569  0.038744441            3 
   39000    1.2471965   -6.4073563    12.849092  0.027455325  0.038795312            2 
   40000    1.2299141   -6.3671967    13.307863  0.027724714   0.03883817            1 
   41000     1.252056   -6.4005456    13.640037  0.027723652  0.038853019            2 
   42000    1.2633298     -6.40716    13.966516  0.027711342  0.038821386            2 
   43000    1.2237303   -6.3935954    14.319212   0.02775041  0.038719526            2 
   44000    1.2210351   -6.4219514    14.782176  0.027996545  0.038615025            1 
   45000    1.2565797   -6.3735609    15.325048  0.028379717  0.038520883            2 
   46000    1.2153304   -6.4046672    15.657728   0.02836545  0.038427706            3 
   47000    1.2282427   -6.4013303    16.064281  0.028482767  0.038329207            1 
   48000    1.2463718    -6.407254    16.485407  0.028620498  0.038234135            2 
   49000    1.2689235   -6.3649756    16.935874  0.028802507  0.038145127            1 
   50000    1.2412734   -6.3893404     17.43478  0.029057967  0.038073699            3 
   51000    1.2670265   -6.4062507    17.939416  0.029312772  0.038016665            2 
   52000    1.2634477   -6.3989517    18.402257  0.029490796  0.037966121            1 
   53000    1.2478522   -6.4172523    18.877263  0.029681231   0.03794301            1 
   54000    1.2556854   -6.3997865    19.450933  0.030016871  0.037944424            3 
   55000    1.2393839   -6.3527043    19.923422  0.030187003   0.03795447            4 
   56000    1.2601952   -6.3969012    20.326555   0.03024785  0.037943127            1 
   57000    1.2739751   -6.4073349    20.839562  0.030467196  0.037933847            2 
   58000    1.2747625   -6.3629427    21.392653   0.03073657  0.037963757            4 
   59000     1.227776   -6.3944334    21.780968  0.030764079  0.037981825            2 
   60000    1.2474863   -6.4456191    22.200473   0.03083399  0.037997659            2 
   61000     1.235817   -6.4079838    22.957959  0.031363331  0.038056651            2 
   62000    1.2277556   -6.4681999    23.380709  0.031425684  0.038118348            2 
   63000    1.2601418   -6.4061565    23.782727  0.031458634  0.038171709            2 
   64000    1.2695938   -6.3954631    24.204483  0.031516254  0.038213576            3 
   65000    1.2452918   -6.4216315    24.627386  0.031573572  0.038241382            4 
   66000     1.248687   -6.3904476      24.9727  0.031531186  0.038252866            2 
   67000    1.2148573   -6.4426519    25.492831  0.031707501  0.038250492            2 
   68000    1.2604781   -6.4356869    25.930031  0.031776999  0.038261872            2 
   69000    1.2580243   -6.4240961    26.476179  0.031976061  0.038276523            4 
   70000    1.2133157   -6.4237678    27.078012  0.032235728  0.038302809            3 
   71000     1.261814   -6.4098675    27.565262  0.032353594  0.038332712            8 
   72000    1.2371209   -6.4236836    28.071792  0.032490499  0.038366996            3 
   73000      1.23467   -6.4054751    28.531685  0.032570416  0.038395434            2 
   74000    1.2291478   -6.4299663    28.864882  0.032505498  0.038418516            1 
   75000    1.2354495   -6.4257238     29.36361  0.032626233   0.03844449            5 
   76000    1.2648326   -6.4436868    30.044239  0.032943244  0.038480627            4 
   77000    1.2665158   -6.4210245    30.522371  0.033032869  0.038512897            3 
   78000    1.2282076   -6.4566505    30.679893  0.032777663  0.038535672            1 
   79000      1.27817   -6.3912025    31.105059  0.032811244  0.038536141            3 
   80000    1.2359433   -6.4073724    31.659101   0.03297823  0.038533885            2 
   81000    1.2146739   -6.4463694    32.082287  0.033006468  0.038538998            2 
   82000    1.2258704   -6.4280699    32.317294  0.032842778  0.038534552            3 
   83000      1.25671   -6.4028664    32.692457  0.032823752  0.038511339            3 
   84000    1.2304418   -6.4316413    32.976101  0.032714386  0.038474706            2 
   85000    1.2318168   -6.4537756    33.496586   0.03283979  0.038439382            2 
   86000    1.2385725   -6.4307463    34.034853  0.032979509  0.038415024            3 
   87000     1.239067   -6.3768827    34.554432  0.033098115  0.038400857            1 
   88000    1.2510337   -6.4239053     34.89485  0.033044365   0.03837494            5 
   89000    1.2267127    -6.470102    35.334169  0.033084428  0.038348559            3 
   90000    1.2144056   -6.4187404    35.795286  0.033143783  0.038322947            2 
   91000      1.22605   -6.4675415    36.192276   0.03314311  0.038297195            2 
   92000    1.2606514   -6.4097109    36.776938  0.033312443  0.038269299            4 
   93000    1.2585386    -6.414823    37.228114  0.033358525  0.038257619            3 
   94000    1.2303656   -6.4292604    37.683421  0.033407288  0.038251742            4 
   95000    1.2409291   -6.4238713    38.096141  0.033417667  0.038241043            2 
   96000    1.2048212   -6.3952098    38.652265  0.033552313  0.038226579            2 
   97000    1.2091155   -6.4637225    38.909194  0.033427143  0.038211323            2 
   98000    1.2314835   -6.4269863    39.402697  0.033505694  0.038194397            1 
   99000    1.2359745   -6.4024506    40.093608  0.033748828  0.038185699            3 
  100000    1.2398035    -6.402243    40.476022  0.033730018  0.038177877            2 
  101000    1.2348086   -6.4043351    41.146755  0.033949468  0.038180248            3 
  102000    1.2446835   -6.4393463    41.417941  0.033838187   0.03818223            3 
  103000    1.2705168   -6.4371986    42.021061  0.033997622  0.038185164            1 
  104000    1.2271953   -6.4527304    42.384545  0.033961975  0.038189088            3 
  105000    1.2228613   -6.4630013    42.890883  0.034040383  0.038198453            1 
  106000    1.2564559   -6.4272477    43.552348  0.034239267  0.038206529            3 
  107000    1.2410814   -6.3856701    43.896309  0.034187156  0.038212988            7 
  108000    1.2406178   -6.4546605    44.124743   0.03404687  0.038215965            1 
  109000    1.2127337   -6.4310698    44.939116  0.034357122  0.038221317            2 
  110000    1.2089327   -6.3673649    45.796079  0.034693999  0.038239744            2 
  111000    1.2480367   -6.4028935     46.15146  0.034648243   0.03826184            3 
  112000    1.2310428   -6.4399711    46.507571  0.034603848  0.038282985            4 
  113000    1.2245986   -6.4429542    46.873379  0.034567388  0.038301186            3 
  114000    1.2406765   -6.3641741     47.72369  0.034885738  0.038324418            4 
  115000    1.2057833   -6.4133157    48.096239  0.034852347  0.038353093            2 
  116000    1.2199298   -6.4529605    48.434122  0.034794628  0.038379058            3 
  117000    1.2438323   -6.4235271    49.084935   0.03496078  0.038402019            3 
  118000    1.2388665   -6.3760759    49.563534  0.035002496  0.038423083            2 
  119000    1.2428001   -6.3988189    49.981395  0.035000977  0.038442122            1 
  120000    1.2361179   -6.3901968    50.532804  0.035092225  0.038459211            5 
  121000    1.2310962   -6.3734855    51.275809  0.035313918  0.038481736            4 
  122000    1.2337341   -6.4431613    51.751842  0.035349618  0.038509122            3 
  123000    1.2286237   -6.4296234    51.856422  0.035133077  0.038530555            2 
  124000    1.2496453    -6.415824    52.489662  0.035275311  0.038551137            2 
  125000      1.22168   -6.4526518    53.021171  0.035347447  0.038574829            1 
  126000    1.2159744   -6.3964244    53.290431  0.035244994  0.038593111            2 
  127000    1.2198078   -6.4752964    53.499962  0.035104962  0.038602852            1 
  128000    1.2447364   -6.4244124    53.936682  0.035115027  0.038610665            2 
  129000    1.2154523   -6.4445399    54.620151  0.035284335  0.038621845            1 
  130000    1.2208596   -6.4640647    55.162389  0.035360506  0.038636442            2 
  131000    1.2157773   -6.3380347     55.83569  0.035518887  0.038650239            1 
  132000     1.226024   -6.4383391    56.154096  0.035450818  0.038661585            4 
  133000    1.2734176   -6.4396472    56.893196  0.035647366  0.038677676            3 
  134000       1.2318   -6.4446015    57.507964  0.035763659   0.03869719            1 
  135000    1.2241089   -6.4059584    58.084857   0.03585485  0.038720686            1 
  136000    1.2218892   -6.4991953    58.288532  0.035716012  0.038746946            1 
  137000    1.2539307   -6.4322863    58.804371  0.035769082  0.038769158            5 
  138000    1.2578499   -6.4726225    59.305095  0.035812255  0.038788784            1 
  139000    1.2308523   -6.4857752    59.794678  0.035848128  0.038808391            2 
  140000    1.2268533   -6.3710839     60.53586   0.03603325  0.038830252            4 
  141000    1.2828123   -6.4095367    60.657196  0.035849407  0.038852381            4 
  142000    1.2263599    -6.430751    61.191825  0.035910695  0.038872793            1 
  143000    1.2277993    -6.441351    61.237138  0.035685978  0.038882027            5 
  144000    1.2094407   -6.4477362    61.548537  0.035618366  0.038887439            2 
  145000    1.2163697   -6.4218889    62.529541  0.035936517   0.03889312            3 
  146000    1.2515959   -6.4245434    62.536853  0.035694551  0.038896671            2 
  147000    1.2090333   -6.4099579    63.173698  0.035812754  0.038901263            3 
  148000    1.2459814   -6.3894336    63.816114  0.035932497  0.038907083            2 
  149000    1.2023522   -6.3976929    64.453699   0.03604793  0.038917345            1 
  150000    1.1972739   -6.4554128    64.927512   0.03607084  0.038933774            3 
  151000    1.2105775   -6.3881798    65.384136   0.03608396  0.038948882            3 
  152000    1.2221644   -6.4258345    66.158493  0.036271104  0.038962319            2 
  153000    1.2502798   -6.4394744    66.324645  0.036124534  0.038975877            2 
  154000    1.2186149   -6.4399965    66.950332  0.036228534   0.03898809            2 
  155000    1.2308473   -6.4524641    67.500073  0.036290361  0.039002254            1 
  156000    1.2276207   -6.4204069    68.003105  0.036326445  0.039017876            2 
  157000    1.2209382   -6.4280092    68.261878  0.036232419  0.039029078            2 
  158000     1.242409   -6.4750068    68.528326  0.036143632   0.03903437            2 
  159000    1.2384528   -6.4645576    69.067865  0.036199091  0.039042142            6 
  160000    1.1942232   -6.4325988    69.325641  0.036107105  0.039048315            2 
  161000    1.2314053   -6.4355066    69.948001   0.03620497  0.039052133            2 
  162000    1.2505437   -6.4381959    70.125114  0.036072589  0.039049883            2 
  163000     1.241736   -6.4638209    70.095031  0.035835905  0.039044487            1 
  164000    1.2075577   -6.4375651    70.902238   0.03602756  0.039037727            2 
  165000    1.2181263   -6.4738299    71.205144  0.035962194  0.039031671            3 
  166000    1.2383296   -6.4551343    71.441484  0.035864199  0.039021867            3 
  167000    1.2314059   -6.4493132    71.674697  0.035765817  0.039008086            2 
  168000    1.1812695   -6.4607001    72.215587  0.035821224  0.038992167            2 
  169000    1.2327268   -6.4245089    72.522497    0.0357606   0.03897605            2 
  170000    1.2054215   -6.4445407    72.525653  0.035551791  0.038957763            1 
  171000    1.2196889   -6.3681813    73.687469  0.035910073  0.038939539            1 
  172000     1.222242   -6.4498147    73.549415  0.035634407  0.038919338            5 
  173000    1.2163599    -6.465891    74.070888  0.035679619  0.038900799            3 
  174000    1.2335565   -6.4494559    74.782484  0.035815366  0.038885896            1 
  175000    1.2192055   -6.4461489     75.52536  0.035964457  0.038876172            2 
  176000    1.2258045   -6.4506084    75.853759  0.035915606  0.038865734            4 
  177000    1.2274586   -6.4797729    76.120729  0.035838385  0.038854417            4 
  178000    1.2501371   -6.4827764    76.660331  0.035889668  0.038845402            3 
  179000    1.2254856   -6.4709885     77.05364  0.035872272  0.038836123            2 
  180000    1.2204921   -6.4222916    77.828829  0.036031865  0.038827233            2 
  181000    1.2238081   -6.4349138    78.280607  0.036040795  0.038816638            3 
  182000    1.2581075   -6.4362547    78.493552  0.035940271  0.038807664            2 
  183000    1.2030071   -6.4112242    79.031864  0.035989009  0.038796419            1 
  184000    1.2092404   -6.4113232    79.647048  0.036072032  0.038785715            2 
  185000    1.1845436    -6.451349    79.964307  0.036019958  0.038775844            3 
  186000    1.2464428   -6.4509471    80.526056  0.036077982  0.038769012            2 
  187000    1.2416674   -6.4344745    81.153753  0.036164774  0.038761608            4 
  188000    1.2163931   -6.4936776    81.093073  0.035945511  0.038754306            6 
  189000    1.2155013   -6.4582081    81.735622  0.036038634  0.038744891            3 
  190000    1.2215187   -6.4786706    82.393133  0.036137339   0.03873557            2 
  191000    1.2097447   -6.4725262    82.545875   0.03601478  0.038726527            8 
  192000     1.182354   -6.4718428    83.278491  0.036145178  0.038717179            4 
  193000    1.2260904   -6.4036412    84.102545  0.036313707   0.03871171            2 
  194000    1.1986289   -6.4449246    84.308479  0.036214982  0.038709222            5 
  195000    1.2224728   -6.4486343    84.858228    0.0362642  0.038701475            2 
  196000    1.2233347   -6.4741018    85.084537  0.036175398  0.038695116            2 
  197000     1.222787   -6.4401156    85.252167  0.036062676  0.038688434            2 
  198000    1.2192492    -6.435693     86.15046  0.036258611  0.038682381            2 
  199000    1.2247445   -6.4293969    86.518637  0.036230585  0.038678834            2 
  200000    1.2018269    -6.463238    87.322713  0.036384464   0.03867597            2 
  201000    1.2356736   -6.5044122    87.599492  0.036318197  0.038673635            2 
  202000    1.2400071   -6.4578625    88.069958  0.036332491  0.038670099            3 
  203000    1.2219919    -6.469586    88.202372   0.03620787  0.038667819            1 
  204000    1.1920762   -6.4818701    88.961551  0.036340503  0.038665321            2 
  205000    1.2412659   -6.4669367    89.708916  0.036467039  0.038662105            2 
  206000    1.1935338   -6.4515689    89.748633  0.036306081  0.038656992            4 
  207000    1.2113258   -6.4919859    89.992194  0.036228741  0.038651309            2 
  208000      1.23737   -6.4793674    90.672846  0.036327262  0.038647368            2 
  209000    1.2026598   -6.4390618    91.056233  0.036306313  0.038642975            4 
  210000    1.2178063   -6.4151091    92.063639   0.03653319  0.038639736            1 
  211000    1.2089732   -6.4302301    92.119909   0.03638227  0.038634903            2 
  212000    1.2652052   -6.4634718     92.40712  0.036323553  0.038629587            3 
  213000    1.2290213   -6.4853481    92.750914  0.036287525  0.038624758            5 
  214000    1.2253136   -6.4717881    93.727863  0.036498389  0.038621456            3 
  215000    1.2160792   -6.4446513    93.725673   0.03632778  0.038617503            2 
  216000    1.2303784   -6.4542358    94.626761  0.036507238  0.038612441            3 
  217000    1.2113094   -6.4974043    94.454353  0.036272793  0.038609264            2 
  218000    1.2127042   -6.4752149    95.661598  0.036567889  0.038607777            2 
  219000    1.2058772   -6.4415351    96.294079  0.036641583   0.03860856            2 
  220000    1.2347642   -6.4613977    96.792229  0.036663723  0.038609419            6 
  221000    1.2198752   -6.4863774    96.873318    0.0365284  0.038610728            2 
  222000    1.2170448   -6.4660669     97.67832  0.036666036   0.03860899            2 
  223000    1.2227675   -6.4471634     97.58925  0.036468329  0.038609316            4 
  224000    1.1984717   -6.4957322    98.039917  0.036473183  0.038607801            2 
  225000    1.2286488   -6.4559801    98.439477  0.036459066  0.038605932            3 
  226000    1.2001441   -6.4879901    98.993815  0.036502144  0.038602846            2 
  227000    1.2086808   -6.4737651    99.471617  0.036516746  0.038598788            2 
  228000    1.2274692   -6.5085718    99.599146  0.036403197  0.038594502            2 
  229000    1.2341877   -6.4695231    100.42374  0.036544302  0.038589338            4 
  230000    1.2372165   -6.4898824    100.40914  0.036380123  0.038584438            4 
  231000    1.2484602   -6.4499643    100.89753   0.03639882  0.038579233            4 
  232000     1.205628   -6.4504757    101.75009  0.036548164  0.038574904            2 
  233000    1.2128552   -6.4763854    101.92561  0.036454081  0.038567697            3 
  234000    1.2276867   -6.5193483    102.16959  0.036385182  0.038559934            3 
  235000    1.2305796   -6.4612257    102.35002  0.036294334  0.038551396            2 
  236000    1.1996298   -6.4625421    103.06219  0.036392015  0.038543063            1 
  237000    1.2466258   -6.4585222    103.24811  0.036303837  0.038534071            3 
  238000     1.246033   -6.4332608    104.12994  0.036460064  0.038525789            3 
  239000    1.2038875   -6.4359396    104.09983  0.036297013   0.03851582            2 
  240000     1.208246   -6.4494589    104.63028  0.036329957  0.038506563            2 
  241000    1.2089706   -6.4993037    105.14971  0.036358822  0.038496693            3 
  242000    1.2019424   -6.4368348    105.81543  0.036437821  0.038489132            1 
  243000    1.2506807   -6.4679445    106.06222  0.036372504   0.03848193            5 
  244000    1.2006425   -6.4318584    106.99805  0.036543051  0.038474891            1 
  245000    1.2193201   -6.4541584    107.44537  0.036546044  0.038468118            2 
  246000    1.1953017   -6.4606118    107.73706  0.036496295   0.03846262            6 
  247000    1.2000024   -6.4811066    107.72887  0.036345773  0.038455994            2 
  248000    1.2164986    -6.467762    108.69161  0.036522719  0.038449462            2 
  249000     1.222584   -6.4835883    108.42372  0.036286384  0.038439878            2 
  250000    1.2139474   -6.4589146    108.78301  0.036261003  0.038427919            4 
  251000    1.2152795   -6.4603094    109.45219   0.03633871  0.038419415            2 
  252000    1.1979162   -6.5120354    109.75053  0.036293165  0.038411212            2 
  253000    1.2129455   -6.4894969    110.22055  0.036304529  0.038400708            2 
  254000    1.2294098    -6.449842    110.68336  0.036313439    0.0383914            2 
  255000    1.2064731     -6.46912    111.34362  0.036386805  0.038381792            3 
  256000    1.2302446   -6.4827773    111.75034  0.036377062  0.038372981            5 
  257000    1.2209805   -6.5194386     111.8545  0.036269294  0.038363748            2 
  258000    1.2113574   -6.4855506     112.7499  0.036417926  0.038352422            5 
  259000    1.2152233   -6.4892984    112.65131  0.036245594  0.038342411            3 
  260000    1.2197818   -6.5026311    113.20704  0.036284308  0.038331811            3 
  261000      1.22372   -6.4869025    113.78136  0.036328658   0.03832292            3 
  262000    1.2223867   -6.4993805    113.90918  0.036230656  0.038313851            2 
  263000    1.2202072    -6.502686     114.3831  0.036243061  0.038305369            3 
  264000    1.2038503   -6.4835034    114.83812  0.036249405  0.038296759            2 
  265000    1.1862797   -6.4894796    115.56488  0.036341157  0.038286573            1 
  266000    1.2161939    -6.491005    115.58748  0.036211616  0.038275877            6 
  267000    1.2027413   -6.5116633    115.78604  0.036137966  0.038264693            3 
  268000    1.2271449   -6.5327161    116.13901  0.036112877  0.038251381            2 
  269000    1.2010425   -6.4656647    116.75632  0.036169864  0.038237837            4 
  270000    1.1955224   -6.5152961    116.50972  0.035959791  0.038222502            3 
  271000    1.2172871   -6.4928255    117.12293  0.036015661  0.038205483            2 
  272000    1.2106328    -6.538247    117.49106  0.035996035  0.038189575            4 
  273000    1.2142822   -6.4782366    118.49495  0.036170621  0.038174607            3 
  274000    1.2137815   -6.4929558     118.8852  0.036157299   0.03815837            6 
  275000    1.1978032   -6.4836877    118.79751  0.035999244  0.038143013            2 
  276000    1.1808362   -6.4983259    119.44414  0.036064051  0.038126791            2 
  277000    1.1805945   -6.5014211    119.53436  0.035960999  0.038111133            1 
  278000    1.2001238   -6.4684314    120.39812  0.036090562  0.038095755            2 
  279000    1.1822935   -6.4649671    120.87195  0.036102733  0.038081925            2 
  280000    1.2051983   -6.4693033    121.19353  0.036069504  0.038069006            3 
  281000    1.2030879   -6.4811319    121.72675  0.036099273   0.03805429            2 
  282000    1.1962749   -6.4817367    122.02086  0.036058175  0.038040885            2 
  283000    1.2357884   -6.5055234     122.5658  0.036091224  0.038027089            1 
  284000    1.1937122   -6.5600543    121.88569  0.035764581  0.038013005            4 
  285000    1.1969545   -6.5152511    123.01815  0.035970219  0.037998339            1 
  286000     1.216646   -6.4919655    123.67285  0.036035213  0.037984467            3 
  287000    1.1999472   -6.5046768    124.33876  0.036103008   0.03797139            2 
  288000    1.1878103   -6.5517618    124.20085  0.035937747  0.037958554            3 
  289000    1.1791257   -6.4590644    125.11639   0.03607739  0.037945712            2 
  290000    1.1910676   -6.5169551    125.40636   0.03603631  0.037932594            5 
  291000    1.2239364   -6.4905435    125.97984    0.0360767  0.037919058            3 
  292000    1.2144679   -6.5057432    126.18811  0.036012588  0.037903728            2 
  293000    1.1934557   -6.4996927    125.97685  0.035829594  0.037888616            2 
  294000    1.1919995   -6.4983201    126.73379  0.035922276   0.03787329            1 
  295000    1.2221375    -6.448343    127.43124  0.035997526   0.03785858            2 
  296000    1.2159117   -6.5015625     127.0373  0.035765006  0.037842182            3 
  297000    1.2136841    -6.473652    127.75344  0.035845522  0.037825997            1 
  298000    1.2112915   -6.4885227    128.03525  0.035804042  0.037808914            1 
  299000    1.2099868   -6.5202268    128.25455  0.035745415  0.037791722            2 
  300000    1.2228202   -6.5134519    128.06265  0.035572958  0.037774783            4 
  301000    1.2085018   -6.5025101    129.52479  0.035859577  0.037758919            3 
  302000    1.1839928   -6.5563899    129.33982  0.035689795  0.037742478            2 
  303000    1.1842474   -6.4949889    130.11659  0.035785641  0.037726402            3 
  304000    1.1909893   -6.5348843    130.54871  0.035786378   0.03771194            2 
  305000    1.1951199   -6.4922638     131.0773   0.03581347  0.037696524            2 
  306000    1.2073943   -6.4925822    131.30002  0.035757087  0.037681148            1 
  307000    1.2119165   -6.5196394    131.83507  0.035785848  0.037666113            2 
  308000    1.2080646   -6.5143057    132.03091   0.03572265  0.037649648            2 
  309000    1.2093623   -6.4773821    132.47355  0.035726415   0.03763266            2 
  310000    1.1949068   -6.5483575    132.49074  0.035615791  0.037614922            4 
  311000    1.1985863   -6.4756491    133.10984  0.035667161  0.037596179            2 
  312000    1.2196865   -6.5193875     133.2187  0.035581918   0.03757768            4 
  313000     1.192616   -6.4624398    134.15308  0.035717007  0.037560168            2 
  314000    1.2135643   -6.5222183    133.74677  0.035495426  0.037543409            1 
  315000    1.2260572   -6.4729012    134.60358  0.035609414  0.037524784            3 
  316000    1.2094607   -6.4900399    134.97599  0.035594935  0.037505332            1 
  317000    1.2166116   -6.4902518    134.73339  0.035418872  0.037485427            3 
  318000    1.1742813    -6.482172    135.22633  0.035436669  0.037464633            3 
  319000    1.2173885   -6.4868494    135.66418  0.035439963  0.037444313            4 
  320000    1.2156828   -6.4961689    135.94746  0.035402984  0.037424875            6 
  321000    1.2223393   -6.5015523    136.41298  0.035413546  0.037405267            1 
  322000     1.174535   -6.5093016     136.6985  0.035377458  0.037385921            2 
  323000    1.2134857   -6.5173198    137.19608  0.035396304  0.037365792            2 
  324000    1.2262102   -6.4420388    137.73566  0.035425839  0.037345594            2 
  325000    1.2000391   -6.5190649    137.46217   0.03524671  0.037326052            2 
  326000    1.1562124   -6.5299765    138.08286  0.035297256  0.037306677            6 
  327000    1.1801198   -6.5304862    138.30491    0.0352459  0.037287001            3 
  328000    1.2431397   -6.5218651    138.58642  0.035209964  0.037268053            1 
  329000    1.1934519   -6.5025414    139.71882  0.035389773  0.037249852            2 
  330000    1.2225302   -6.5304148    139.76507  0.035294209  0.037231354            3 
  331000     1.195385   -6.4662251    140.84678  0.035459913  0.037213122            4 
  332000    1.2093376   -6.5181199    141.09347  0.035415027  0.037196293            4 
  333000    1.1784843   -6.5010655    141.74476  0.035471662  0.037179862            5 
  334000    1.2064144   -6.5489785    141.58546  0.035325713   0.03716324            4 
  335000    1.1953727   -6.5062428    142.35027  0.035410515  0.037145894            2 
  336000    1.2195176   -6.5458676    142.96085   0.03545656  0.037129432            1 
  337000    1.1959032    -6.508942    143.26013  0.035425354  0.037112713            2 
  338000     1.162543    -6.507824    143.41367  0.035358399  0.037097425            4 
  339000    1.1867401   -6.5202136    143.87312  0.035367041  0.037082407            6 
  340000    1.2199392   -6.5452901    144.30521  0.035368924  0.037066952            6 
  341000    1.1819884   -6.5284825    144.69073  0.035359415  0.037052545            1 
  342000    1.1947241   -6.5518305    145.87264  0.035544014  0.037038119            4 
  343000    1.2163587   -6.5178261    145.66244  0.035389319  0.037024266            4 
  344000    1.1875875   -6.4827739    146.03035   0.03537557  0.037009863            2 
  345000    1.2018738   -6.4749927     147.3048  0.035580868  0.036996585            3 
  346000    1.2005244    -6.529805     146.9508  0.035392773  0.036982364            2 
  347000    1.2078897   -6.5622913    147.20241  0.035351202  0.036966946            1 
  348000    1.1956621   -6.5410774    147.54317  0.035331218  0.036952583            2 
  349000      1.19721   -6.5090868    148.09124  0.035360851  0.036938111            3 
  350000    1.1818529   -6.4535906     148.9985  0.035475833  0.036923749            1 
  351000    1.2097131   -6.5190365    149.32012  0.035451121  0.036909308            3 
  352000     1.218991   -6.5062863    149.66775  0.035432705  0.036896459            2 
  353000     1.213347   -6.4967915    150.71142   0.03557871  0.036884695            2 
  354000    1.1966957   -6.5072077    150.21989  0.035362497  0.036873356            2 
  355000    1.2188713   -6.4928341    151.43372  0.035547821  0.036861709            1 
  356000    1.1891906   -6.5522125     151.4657  0.035455454  0.036848912            2 
  357000    1.2144305   -6.4743328    152.25848  0.035541196  0.036836568            3 
  358000    1.2139131   -6.4927373    152.75727  0.035558024   0.03682554            3 
  359000    1.1759272   -6.5572325    152.28105  0.035348432  0.036814281            2 
  360000    1.1959565   -6.5291352     153.2245  0.035468634  0.036802791            5 
  361000    1.2049269   -6.4882969    153.53699  0.035442519  0.036791279            2 
  362000    1.2029766   -6.5341279    153.73235  0.035389583  0.036779937            2 
  363000    1.1815061   -6.5082847    154.38629  0.035442216  0.036768211            2 
  364000    1.2046518   -6.5269475    154.45565  0.035360726  0.036756668            2 
  365000      1.18152   -6.5407704     155.2358  0.035441963  0.036744719            2 
  366000    1.2049113   -6.5357512     154.9636  0.035283151  0.036732636            4 
  367000    1.1879315   -6.5565598    155.44351  0.035295982  0.036720065            4 
  368000    1.1885496    -6.507225    156.15268  0.035360661  0.036708951            4 
  369000     1.174544   -6.5432722     156.3627  0.035312264  0.036695675           10 
  370000    1.1877168   -6.5255251    157.05933  0.035373723  0.036683151            3 
  371000    1.2017936   -6.5184716    157.26906  0.035325486  0.036671504            3 
  372000    1.2108435   -6.5382397    157.55771  0.035295186  0.036660241            2 
  373000    1.1782048   -6.5598085     158.4951  0.035409987  0.036649219            3 
  374000    1.1548353   -6.5027911    159.19489  0.035471232  0.036638461            2 
  375000    1.1720461   -6.5349244    158.85016  0.035300036  0.036628082            2 
  376000    1.1951384   -6.5156618    159.25243  0.035295307  0.036616915            2 
  377000    1.1921864   -6.5078444    160.18841  0.035408579  0.036606145            4 
  378000    1.2009725   -6.5070957    160.62814  0.035411848  0.036594882            3 
  379000     1.160434    -6.570521    160.48371  0.035286657  0.036583087            4 
  380000    1.1942663   -6.5464902    161.21795  0.035354813  0.036571131            5 
  381000    1.1917226   -6.5208823    161.28688  0.035277095  0.036559549            2 
  382000    1.1894832   -6.5596542    161.62059  0.035257546  0.036548823            2 
  383000    1.1886594     -6.49959    162.71094  0.035402728   0.03653751            2 
  384000    1.1980043   -6.5312636    163.39468  0.035458914  0.036527801            5 
  385000     1.193651   -6.5755602    162.80967  0.035240189  0.036517818            3 
  386000    1.1781956   -6.5014362    163.65973  0.035332412  0.036507162            2 
  387000    1.1917993    -6.586129    163.79609  0.035270476  0.036496501            5 
  388000    1.2023694   -6.5713559    164.12121  0.035249401  0.036484846            2 
  389000    1.1758452   -6.5572815     164.1983    0.0351753   0.03647428            1 
  390000    1.1834075   -6.5209025    165.34705  0.035330567  0.036463639            3 
  391000    1.2022105    -6.533234    165.59965  0.035294043  0.036453547            5 
  392000    1.1757732   -6.5210552    166.44203  0.035383085  0.036442471            2 
  393000    1.2044163   -6.5591622    166.16237   0.03523375  0.036432916            3 
  394000     1.170146   -6.5517184    167.17084  0.035357622  0.036424093            2 
  395000    1.1624922   -6.5448554    167.52691  0.035343229  0.036415201            2 
  396000    1.2003068   -6.5185103    168.61597  0.035483158  0.036407596            2 
  397000     1.189303   -6.5515122    169.13198  0.035502095  0.036401643            3 
  398000    1.1745657   -6.5009829    170.05842  0.035606872  0.036395844            2 
  399000    1.2095275   -6.5346282    170.25041   0.03555773  0.036391547            4 
  400000    1.1791891   -6.5636079    171.21227  0.035669223  0.036386816            4 
  401000    1.1935849    -6.497366    171.58435  0.035657596  0.036383006            2 
  402000    1.1824438   -6.5279775    171.59995   0.03557213  0.036379553            2 
  403000    1.1827809   -6.5829467    172.02587  0.035571934  0.036376429            3 
  404000    1.1869771   -6.5383094    173.07862  0.035701036  0.036372823            2 
  405000    1.1992584   -6.5710077    172.92171  0.035580598  0.036368823            4 
  406000       1.2139   -6.5319501    173.86101  0.035685756  0.036364193            1 
  407000    1.1990618   -6.5082592    173.56728  0.035537936  0.036359797            2 
  408000    1.1856123   -6.5115841    174.40295  0.035621517  0.036355631            4 
  409000    1.1855974   -6.5704054    174.77833  0.035610906  0.036351783            3 
  410000    1.1893941   -6.5248606    175.44972  0.035660513  0.036347604            3 
  411000    1.1814485    -6.554562    175.70113  0.035624723  0.036343541            2 
  412000    1.1745961   -6.5152079    176.35168  0.035669838  0.036338872            1 
  413000    1.1805532   -6.5498077    175.87298  0.035486881  0.036335134            2 
  414000    1.2067774   -6.5769617    176.67023   0.03556164  0.036330554            2 
  415000    1.1835523   -6.5598495    176.99983  0.035542135  0.036326412            2 
  416000    1.2237063   -6.5504461     177.6458  0.035586098  0.036322961            3 
  417000    1.1764678   -6.5521987    177.90111   0.03555178  0.036319751            2 
  418000    1.1754523   -6.5790226    177.58247  0.035403203  0.036315115            6 
  419000     1.186609   -6.5405063    179.45137  0.035690408  0.036311198            2 
  420000     1.192858   -6.5646152    179.10683  0.035537069  0.036307313            2 
  421000    1.1750671   -6.5118696    179.91346  0.035612324  0.036303197            3 
  422000    1.2002704   -6.5153062    180.09299  0.035563386  0.036298752            3 
  423000    1.1948721   -6.5625631    180.40151  0.035540093  0.036293494            6 
  424000     1.177815   -6.5613605    180.09142  0.035395327  0.036287727            1 
  425000    1.1932768   -6.5578561    180.77478  0.035446035  0.036282468            4 
  426000    1.1911452   -6.5619753    181.24478  0.035454769  0.036276189            2 
  427000    1.2154339   -6.5265718    181.22014  0.035366929  0.036270782            6 
  428000    1.1838422   -6.5832598    181.26766  0.035293548  0.036264931            2 
  429000    1.1823685   -6.5515392    181.66207  0.035287892  0.036258869            1 
  430000    1.2134074   -6.5377483    182.80661  0.035427638  0.036252111            4 
  431000    1.1840591   -6.5308231    183.55217  0.035489593  0.036246017            3 
  432000    1.1904521   -6.5560087    183.67596  0.035431319  0.036239857            2 
  433000      1.18574   -6.5085359    184.87192  0.035579661  0.036234484            3 
  434000    1.2090825   -6.5341376    183.78708  0.035289378   0.03622865            1 
  435000    1.1770514    -6.606901    183.72822  0.035196978  0.036221753            4 
  436000    1.1868557   -6.5107845     185.1747  0.035392718  0.036214693            2 
  437000    1.1712182   -6.5411853    185.68376  0.035408802  0.036207845            2 
  438000    1.1750943   -6.5531602    185.06307  0.035209868  0.036199991            2 
  439000    1.1851519   -6.5433545    186.01004  0.035309423  0.036193271            1 
  440000    1.1420931   -6.5150352    186.89884  0.035397508  0.036186613            1 
  441000    1.1802988   -6.5571613    186.54066  0.035249557  0.036178487            1 
  442000    1.1640143   -6.5883581    187.23031  0.035299832  0.036170709            2 
  443000    1.1763159   -6.5564983    187.73201  0.035314524  0.036162726            2 
  444000    1.1606548   -6.6325195    187.10298  0.035116926  0.036154226            3 
  445000    1.1645731   -6.5858076    187.90182  0.035187607  0.036145915            3 
  446000    1.1624977   -6.5868699    188.42865  0.035207148  0.036136929            1 
  447000     1.217267   -6.5454713    188.01727  0.035051691  0.036128513            4 
  448000    1.1365478    -6.604775    188.24762  0.035016297  0.036119395            2 
  449000    1.2114256   -6.5532887    189.81867  0.035229894  0.036110748            2 
  450000    1.1562787   -6.5920491     189.8824  0.035163407  0.036102661            2 
  451000    1.1665964   -6.5764504    190.12692   0.03513062  0.036094915            2 
  452000     1.176229   -6.5227706    191.73554  0.035349472  0.036087963            4 
  453000    1.1640381    -6.590537    191.65801  0.035257176  0.036081091            6 
  454000    1.1564561   -6.5891756    191.83335  0.035211701  0.036073364            3 
  455000    1.1770642   -6.5467829    192.60005  0.035274734  0.036065935            2 
  456000    1.1851779   -6.6230831    191.76616  0.035044986  0.036058946            2 
  457000     1.182545   -6.5888146    192.10455  0.035030005  0.036051116            3 
  458000    1.1802733    -6.550689    192.57945   0.03503993  0.036042668            2 
  459000    1.1447916   -6.5902846     192.9159  0.035024674  0.036034522            2 
  460000    1.1760511   -6.6146986     193.0053  0.034964728  0.036025683            5 
  461000    1.1384905   -6.5895458    194.60408   0.03517789  0.036016236            1 
  462000    1.1945801   -6.5925713    194.13037  0.035016301  0.036007251            6 
  463000    1.1824398   -6.5445941       194.41  0.034991002  0.035998038            2 
  464000    1.1929616   -6.5450448    194.75306  0.034977201  0.035988916            2 
  465000    1.1919149   -6.5671008    195.83561  0.035095987  0.035978925            4 
  466000    1.2019707   -6.5325937    196.20407  0.035086565  0.035970442            3 
  467000    1.1523704   -6.5613603    196.12631  0.034997557  0.035961854            5 
  468000     1.175395   -6.5422282    197.45134  0.035158714  0.035952576            2 
  469000    1.1729684   -6.6080481    196.09866    0.0348434  0.035943475            5 
  470000    1.1590445   -6.5937877    197.19197  0.034963115  0.035933593            4 
  471000    1.1553252   -6.5252923    197.65138  0.034970166  0.035923556            2 
  472000    1.1762787   -6.5325551    197.62601  0.034891598  0.035914201            6 
  473000     1.190313   -6.5933726    197.80743  0.034849793  0.035905026            3 
  474000    1.1576696   -6.6032453    198.00115  0.034810328   0.03589474            1 
  475000    1.1782279   -6.5761769    198.82123  0.034880917  0.035884561            2 
  476000    1.1595545   -6.5515461    199.22728  0.034878725  0.035874025            3 
  477000    1.1913814   -6.5748901    199.53765  0.034859827  0.035864251            3 
  478000    1.1795988   -6.5530839    199.61458   0.03480031  0.035853921            6 
  479000    1.1836553   -6.5596119    201.00356  0.034969304  0.035843457            4 
  480000    1.1929919   -6.5712486    200.63956  0.034833257  0.035833633            2 
  481000    1.1735171   -6.6093766    200.95099  0.034814795  0.035823275            3 
  482000    1.1822549   -6.5261159    201.95169  0.034915575  0.035813055            4 
  483000    1.1658881   -6.5627756    202.29155  0.034901924  0.035802587            1 
  484000    1.1772377   -6.5536627     201.5184  0.034696694  0.035791526            1 
  485000    1.1759966   -6.5581584    201.45332  0.034613972  0.035780211            6 
  486000     1.168312   -6.6140342    201.87064  0.034614308  0.035768343            2 
  487000    1.1854925   -6.5637867    202.73804  0.034691656  0.035757248            4 
  488000    1.1967306   -6.5327589    202.59956  0.034596919  0.035746041            3 
  489000    1.1666854   -6.5605392    203.01704  0.034597314  0.035735427            1 
  490000    1.1909868   -6.5704117    203.46405  0.034602729  0.035724294            3 
  491000    1.1890635   -6.5703078    203.93054  0.034611429  0.035712396            3 
  492000    1.1960997   -6.5772582    204.93236  0.034710765  0.035700912            4 
  493000    1.1828059   -6.5894784    204.10475  0.034500464  0.035689552            4 
  494000    1.1597364   -6.5837218    205.54209  0.034673092  0.035678931            2 
  495000    1.1890302   -6.6102146    206.71888  0.034801159  0.035668478            2 
  496000    1.1755935   -6.5414642    206.47259  0.034689615  0.035658713            2 
  497000    1.1675491   -6.6106691    206.83907  0.034681266  0.035649011            1 
  498000    1.1820027   -6.5807787    207.29839  0.034688485  0.035638801            1 
  499000      1.17933   -6.5735023    207.66934  0.034680918  0.035629077            2 
  500000     1.172012   -6.6302549    207.86746  0.034644576   0.03561949            6 
  501000    1.1600316   -6.5093572     209.3606  0.034823785  0.035610082            2 
  502000    1.1723334   -6.5749633    208.94718  0.034685787  0.035601435            2 
  503000    1.1565814   -6.6033089    208.79754  0.034592037  0.035592511            2 
  504000    1.2079122   -6.5940545    209.75503  0.034681719  0.035583267            7 
  505000    1.1832269   -6.5946376    210.42299  0.034723266  0.035573814            5 
  506000    1.1588624   -6.5892725    210.39206  0.034649548  0.035564591            3 
  507000    1.1840725   -6.6266971    210.59048   0.03461382  0.035556136            3 
  508000    1.1923316   -6.5827753    211.60083  0.034711422  0.035547126            4 
  509000    1.1706717   -6.5835559    211.97651  0.034704733  0.035538067            1 
  510000    1.1474983   -6.5670898    212.10443  0.034657587  0.035530284            3 
  511000    1.1657589   -6.5930948    213.25387  0.034777213  0.035522035            3 
  512000    1.1608598   -6.5660023    213.60779  0.034766893  0.035513688            2 
  513000    1.1628164   -6.5942687    213.55006  0.034689743  0.035505271            2 
  514000    1.1438708   -6.5886164    214.35961  0.034753504  0.035497194            2 
  515000     1.149419   -6.5586854    215.54052  0.034877108  0.035489513            3 
  516000     1.164187   -6.5689993    215.16919  0.034749546  0.035480806            2 
  517000    1.1497081   -6.6098908     215.8455  0.034791345  0.035472711            3 
  518000    1.1694672    -6.594835    216.14473  0.034772319  0.035464514            4 
  519000    1.1376001   -6.5503645    216.42022  0.034749554  0.035456512            4 
  520000    1.1482604   -6.5788659    217.12674  0.034795952   0.03544866            2 
  521000     1.192382   -6.5576543    217.63607  0.034810632  0.035440524            3 
  522000    1.1635007   -6.6092767    217.36893  0.034701298  0.035432009            5 
  523000    1.1638984   -6.5965744    217.47751  0.034652248  0.035423676            1 
  524000    1.1611264   -6.6273294    217.39245  0.034572591  0.035415261            3 
  525000    1.1860164   -6.6029351    218.00295  0.034603642  0.035406394            3 
  526000    1.1645352    -6.611672    217.98972  0.034535761  0.035397475            3 
  527000    1.1854596   -6.6137406    217.78634  0.034438068   0.03538859            2 
  528000    1.1715149   -6.6332601    218.51008  0.034487071  0.035379425            3 
  529000    1.1835656   -6.5794792    219.15769  0.034523895  0.035370132            4 
  530000    1.1776391   -6.5851691    220.60142  0.034685757  0.035361175            2 
  531000    1.1661471   -6.6035922    219.52401  0.034451351  0.035352376            2 
  532000    1.1935216   -6.6110858    220.41186  0.034525667  0.035343371            4 
  533000    1.1647687   -6.6137132    220.52058  0.034477889  0.035333773            3 
  534000    1.1627046   -6.6231056    220.98227  0.034485373  0.035324519            6 
  535000    1.1620861   -6.6311425    221.13481  0.034444674  0.035314735            6 
  536000     1.155486   -6.5778803    222.18575  0.034543804  0.035305879            2 
  537000    1.1940487   -6.5644245    221.88409  0.034432664  0.035296487            1 
  538000    1.1673116   -6.6171796    221.70578  0.034341043  0.035286365            2 
  539000    1.1691353   -6.6018702    222.34682  0.034376441  0.035276953            5 
  540000    1.1868425   -6.5641699    223.07375  0.034424962  0.035267144            3 
  541000    1.1529951   -6.5867825    223.27298  0.034392018  0.035257647            3 
  542000    1.1567297   -6.5983459    224.46179  0.034511346  0.035248996            4 
  543000    1.1680346   -6.5824604    223.73726  0.034336596  0.035239662            3 
  544000    1.1811777   -6.5545874    225.12581  0.034486184  0.035230288            4 
  545000    1.1560043   -6.6043403    224.88547  0.034386157  0.035220872            3 
  546000    1.1422519   -6.5697774    225.50172  0.034417234  0.035211197            3 
  547000    1.1706781   -6.5719989    226.31961  0.034478916  0.035201883            2 
  548000    1.1779789   -6.6268369    225.64028  0.034312694  0.035192285            1 
  549000    1.1557321   -6.6229094    225.41261  0.034215636  0.035182253            3 
  550000    1.1743851   -6.5946215    225.91221  0.034229122  0.035171817            3 
  551000    1.1871396   -6.6025558    226.46125  0.034250038  0.035162407            6 
  552000    1.1782084   -6.5627005     227.2977  0.034314266  0.035152587            1 
  553000    1.1662495   -6.6496767     227.1278  0.034226612  0.035141801            2 
  554000    1.1506669   -6.6320703    227.26299  0.034185168  0.035131108            3 
  555000    1.1748323   -6.5852952    228.62964  0.034328775  0.035120558            2 
  556000    1.1804615   -6.5805472    229.34738  0.034374607  0.035110007            3 
  557000    1.1620193   -6.5937123    229.16943   0.03428627  0.035099602            6 
  558000    1.1401706   -6.5893126    230.07721  0.034360395   0.03508948            2 
  559000    1.1495392   -6.6080105    229.58143   0.03422502  0.035079107            2 
  560000    1.1948768   -6.6159371    229.28733  0.034120139  0.035068312            3 
  561000    1.1641377   -6.5753525    230.25255  0.034202697   0.03505762            3 
  562000    1.1676537    -6.615227    230.03931  0.034110219  0.035046933            1 
  563000    1.1598334   -6.5771866    230.82322  0.034165663  0.035036335            2 
  564000    1.1502089   -6.6195223    231.58376  0.034217458  0.035026305            5 
  565000    1.1756823   -6.5575546    232.95055  0.034358488  0.035016541            3 
  566000    1.1519502    -6.573977    232.16949  0.034182786  0.035007111            3 
  567000    1.1414762   -6.5725184    232.70442   0.03420112  0.034996706            1 
  568000    1.1997299    -6.621514    232.26422  0.034076323  0.034985973            2 
  569000    1.1722268   -6.6062021    232.23126  0.034011609  0.034975163            4 
  570000    1.1507594   -6.6020662    233.47072  0.034133146  0.034964362            3 
  571000    1.1232867   -6.6225104    233.80919  0.034122765  0.034953598            4 
  572000    1.1343075   -6.6114772    233.84917  0.034068934  0.034942871            2 
  573000    1.1564237   -6.5758164    234.50872  0.034105399  0.034932188            3 
  574000    1.1569352   -6.5999405    234.91784  0.034105378  0.034921925            2 
  575000    1.1607119   -6.6046312    235.65445  0.034152819  0.034911759            2 
  576000    1.1836659   -6.6249691    234.93246  0.033989071  0.034901921            4 
  577000    1.1693685   -6.5656918    236.26092  0.034122028  0.034892387            2 
  578000    1.1634465   -6.6265595    235.96056  0.034019688  0.034883828            2 
  579000    1.1435865   -6.5539362    237.05986  0.034119151  0.034874191            3 
  580000    1.1651003   -6.5980886    237.68948  0.034150787   0.03486425            2 
  581000    1.1542423   -6.6454898    237.17445  0.034018137  0.034854177            4 
  582000    1.1779813   -6.6596382     237.8839  0.034061269  0.034843852            3 
  583000    1.1439423    -6.607265    238.21855  0.034050679  0.034833882            5 
  584000    1.1378842   -6.6199069     238.4972  0.034032134  0.034824747            4 
  585000    1.1635285   -6.6250966    238.97595  0.034042158   0.03481515            2 
  586000    1.1560171   -6.6448708    238.53856  0.033921865  0.034805207            4 
  587000    1.1764495   -6.6191002    240.13988  0.034091409  0.034795004            4 
  588000     1.154411   -6.5935704    240.53706  0.034089719  0.034785275            2 
  589000    1.1475076    -6.630476    240.11844  0.033972615  0.034775453            3 
  590000    1.1757749   -6.5959946     240.4347  0.033959703  0.034765938            3 
  591000    1.1351187   -6.6461944    240.33113  0.033887638  0.034755642            5 
  592000    1.1719478    -6.619741    240.56676  0.033863565  0.034745676            3 
  593000    1.1528901   -6.6341145    241.13611  0.033886468  0.034735105            2 
  594000    1.1298531    -6.608244    241.75012  0.033915562    0.0347245            5 
  595000    1.1240649   -6.6144714    242.01459  0.033895601  0.034714255            3 
  596000      1.15444    -6.642318    241.86748   0.03381816  0.034704287            1 
  597000    1.1295426   -6.6531391    242.85015  0.033898681  0.034694137            3 
  598000    1.1552765   -6.6101523    244.02936   0.03400632  0.034684448            5 
  599000    1.1477968   -6.6263559    244.27514  0.033983742  0.034675472            2 
  600000    1.1431965    -6.620889    244.31646  0.033932841  0.034665763            2 
  601000    1.1402754   -6.6392688    244.42222  0.033891046  0.034655776            3 
  602000    1.1431486   -6.5961226    245.15061  0.033935577  0.034645875            2 
  603000    1.1616533   -6.6239337    245.22413  0.033889459  0.034636108            2 
  604000     1.145038   -6.6537698    245.10367  0.033816732  0.034626523            1 
  605000    1.1937799   -6.6682678    245.57795  0.033826164  0.034616573           12 
  606000    1.1496041   -6.5835231    247.61758  0.034050823  0.034607675            2 
  607000    1.1476354   -6.6653735    246.68857  0.033867184  0.034598667            1 
  608000    1.1579814    -6.636991    247.37046  0.033904943  0.034589434            5 
  609000    1.1594727   -6.6080827    248.12616  0.033952676  0.034580261            8 
  610000    1.1572864   -6.6178163    248.12329  0.033896625    0.0345704            4 
  611000    1.1346819   -6.6456331    247.66089   0.03377808  0.034560669            2 
  612000    1.1467666   -6.6064779     248.2412  0.033801907    0.0345508            5 
  613000    1.1580222    -6.585402    248.26587  0.033750118  0.034540954            3 
  614000    1.1513546   -6.6471196    248.59121  0.033739307  0.034530787            2 
  615000    1.1201977    -6.644173     248.6681  0.033694865  0.034520089            1 
  616000    1.1553384   -6.6227785    249.16881  0.033707902   0.03450975            2 
  617000    1.1587705   -6.6188437    249.51928  0.033700604  0.034499087            3 
  618000    1.1595243   -6.6042911    250.57459  0.033788375   0.03448918            1 
  619000    1.1425785   -6.6722948    249.81697  0.033631795  0.034479216            3 
  620000    1.1655379   -6.6609129    251.23469  0.033768103  0.034468793            4 
  621000    1.1447501   -6.6487745    251.34769  0.033728891  0.034458333            3 
  622000    1.1459347   -6.6579182    251.04297  0.033633838  0.034448586            4 
  623000    1.1356835   -6.6341759    252.10448   0.03372184  0.034438515            7 
  624000    1.1559505   -6.6449569    252.19241  0.033679543  0.034428664            6 
  625000    1.1288125   -6.6207331    252.89844  0.033719791  0.034419106            3 
  626000    1.1490396   -6.6308093    252.67568  0.033636272  0.034409383            2 
  627000    1.1498513   -6.6227267    254.05006  0.033765292  0.034399517            5 
  628000    1.1534796   -6.6135219    255.13511  0.033855509  0.034389871            4 
  629000    1.1647414   -6.6708089    254.02882  0.033655117   0.03438074            1 
  630000    1.1318309   -6.6524632    254.01374  0.033599702  0.034371527            3 
  631000    1.1441936   -6.5777029    255.54031   0.03374806  0.034361743            2 
  632000    1.1330774   -6.6039264    255.72485  0.033718994  0.034352763            3 
  633000     1.150938   -6.6294821    255.26321  0.033604952  0.034343428            3 
  634000     1.119307   -6.6302043    255.77744  0.033619538  0.034333737            2 
  635000    1.1521239   -6.6127125    256.98919  0.033725615  0.034324039            2 
  636000      1.15197   -6.6186078    255.87762  0.033526942  0.034314977            3 
  637000    1.1234318   -6.6167153    257.20887  0.033648465  0.034306046            4 
  638000     1.145916    -6.634021    257.43266  0.033624955  0.034297024            4 
  639000    1.1426866   -6.6244059    257.94314  0.033638908  0.034287821            8 
  640000     1.171022   -6.6863718    257.36128  0.033510583  0.034277806            3 
  641000    1.1361059    -6.639247    258.29163  0.033579255  0.034268066            3 
  642000    1.1364587   -6.6277228    258.15883  0.033509714   0.03425809            2 
  643000    1.1462376   -6.6453321     258.8663  0.033549287   0.03424779            2 
  644000    1.1527091    -6.617803    259.53226  0.033583367  0.034238077            3 
  645000    1.1269075   -6.6640189    259.29017  0.033500021  0.034228134            2 
  646000    1.1432136   -6.6412983    259.28578  0.033447598  0.034218103            2 
  647000    1.1615824   -6.6389671    260.30419  0.033527073  0.034208938            5 
  648000    1.1551541   -6.6001975    261.10579   0.03357842  0.034199933            2 
  649000    1.1421199   -6.6496986    261.21582  0.033540809  0.034190276            3 
  650000    1.1610329   -6.6394341    261.79191  0.033563066  0.034180354            3 
  651000    1.1615943   -6.5933484    262.32918  0.033580284  0.034170763            3 
  652000    1.1435897   -6.6924372    261.40969  0.033411259   0.03416116            3 
  653000    1.1522529   -6.6722103    262.56829  0.033507949  0.034151625            3 
  654000    1.1518787   -6.6869499    262.27451   0.03341928  0.034141954            4 
  655000    1.1427868    -6.675283    263.30829  0.033499782  0.034132856            4 
  656000    1.1512054   -6.6657482    263.80793  0.033512186  0.034123852            3 
  657000    1.1485512   -6.6513236    263.97825  0.033482781  0.034114894            2 
  658000    1.1517202   -6.6576303    264.75118  0.033529785  0.034105763            2 
  659000    1.1372142   -6.6486045    264.27883  0.033419175  0.034097303            2 
  660000    1.1418347   -6.6520179    265.57415   0.03353209  0.034088755            5 
  661000    1.1373921   -6.6075743    266.56955  0.033606851  0.034080383            3 
  662000    1.1399048   -6.6379592    266.05844  0.033491748  0.034072128            2 
  663000    1.1164533   -6.6890951    266.19724  0.033458678  0.034064079            2 
  664000    1.1079382   -6.6594323     266.8023  0.033484225  0.034055252            2 
  665000    1.1477418   -6.6358182    267.30716  0.033497137   0.03404638            5 
  666000    1.1458535   -6.6569893    267.12435  0.033423968  0.034037123            4 
  667000    1.1591025   -6.6822594    267.18752  0.033381749  0.034027671            2 
  668000    1.1712828   -6.6444822    267.82103  0.033410808   0.03401785            4 
  669000    1.1422295   -6.6465417     266.9452  0.033251768  0.034008357            2 
  670000    1.1169929   -6.6592693    267.87682  0.033318012  0.033998374            2 
  671000    1.1479667   -6.6723194    268.86774  0.033391423  0.033988899            6 
  672000    1.1382168   -6.6603642    269.42046  0.033410275  0.033979014            7 
  673000    1.1421291   -6.6454228    269.76197  0.033402918  0.033969588            2 
  674000    1.1085704   -6.6745177    269.12293  0.033274349  0.033959855            3 
  675000     1.129909   -6.6666964    269.60946  0.033285119   0.03394973            3 
  676000    1.1408581   -6.6544844    269.99543  0.033283461  0.033939979            2 
  677000    1.1333939   -6.6881364    269.55803  0.033180457  0.033930205            3 
  678000    1.1423261   -6.6157013    271.53776  0.033374847  0.033920441            4 
  679000    1.1451713   -6.6500416    271.81627  0.033359877  0.033911434            4 
  680000    1.1751489   -6.6931974    270.74571  0.033179621  0.033902393            3 
  681000    1.1566102   -6.6390341    272.43417  0.033337515  0.033892819            2 
  682000    1.1245962   -6.6583049    272.59068  0.033307756  0.033883763            6 
  683000    1.1653018   -6.6519544    272.75965  0.033279606  0.033874548            2 
  684000     1.138342   -6.6250394    273.18045  0.033282219  0.033865555            3 
  685000    1.1459985   -6.6338753    273.20761  0.033236935  0.033856546            3 
  686000    1.1537134   -6.6851729    273.07425  0.033172286  0.033846936            2 
  687000    1.1521669   -6.6528875    274.84733  0.033339075  0.033837616            2 
  688000    1.1462709   -6.6272406    272.80612  0.033043377  0.033828054            1 
  689000    1.1094269   -6.6960659    274.22336  0.033166831   0.03381818            6 
  690000    1.1465237   -6.6799199    274.42531  0.033143154  0.033807881            3 
  691000    1.1575285   -6.6515706    274.88204   0.03315027  0.033797838            2 
  692000    1.1573982   -6.6823638    274.95929  0.033111667  0.033787794            3 
  693000    1.1550932   -6.6649201    275.52317  0.033131694  0.033778141            6 
  694000    1.1220777   -6.7083584    275.69898  0.033105065  0.033768356            3 
  695000    1.1354502   -6.6229299    277.02985  0.033217008  0.033758924            8 
  696000    1.1391462   -6.6664408    276.96552   0.03316158  0.033749157            4 
  697000    1.1297738    -6.662542    276.91245  0.033107658  0.033739222            5 
  698000    1.1544777   -6.6180578    277.67925  0.033151773  0.033729538            3 
  699000    1.1388003   -6.6472758    277.23246   0.03305108  0.033719362            3 
  700000    1.1288592   -6.6227387    277.74557  0.033064949  0.033709465            2 
  701000    1.1453199   -6.6395954    278.41181  0.033096981   0.03369981            4 
  702000    1.1289307   -6.6755676    278.48905  0.033059004  0.033689862            1 
  703000    1.1163953   -6.6583475    277.87372  0.032939038  0.033679854            6 
  704000     1.143905   -6.6805311      277.641  0.032864702  0.033669733            5 
  705000    1.1369863   -6.6513154    279.34731  0.033019777  0.033659011            3 
  706000     1.122988   -6.7318395    278.65358  0.032891122  0.033648733            3 
  707000    1.1502344   -6.7137537    278.36381  0.032810444  0.033638023            3 
  708000    1.1374773   -6.6799605    279.12645  0.032853866  0.033627592            3 
  709000    1.1330199   -6.6550536    280.22659  0.032936835  0.033617555            3 
  710000     1.142337    -6.636027    280.67117  0.032942626   0.03360785            1 
  711000    1.1471581   -6.6955132    280.66958  0.032896107  0.033597857            3 
  712000    1.1545316   -6.6811461     280.9266  0.032879986  0.033587612            3 
  713000    1.1271028   -6.6480743    281.66541   0.03292022  0.033577122            4 
  714000    1.1223918   -6.6777105    281.82301  0.032892508  0.033566206            4 
  715000    1.1697267   -6.7030795    281.74035  0.032836871  0.033555791            4 
  716000    1.1645219   -6.6931747    281.74382  0.032791413  0.033545238            3 
  717000    1.1367098   -6.6737544     282.5431  0.032838575  0.033535251            3 
  718000     1.147897   -6.6351294    284.06928  0.032969972  0.033525095            1 
  719000    1.1527968   -6.6621814     284.8328   0.03301261  0.033515268            4 
  720000    1.1474789   -6.7281408     282.6166  0.032710255  0.033505371            3 
  721000    1.1517311   -6.6830605    283.70967  0.032791224   0.03349565            7 
  722000     1.153172   -6.6929904    284.11972  0.032793134  0.033486071            5 
  723000    1.1420748   -6.6527342    285.93532  0.032957044   0.03347605            3 
  724000     1.142611   -6.7032421    284.45939  0.032741643   0.03346571            3 
  725000    1.1254086   -6.6740972    284.53195  0.032704822  0.033455452            7 
  726000    1.1565482   -6.6351845    285.84322  0.032810287  0.033445325            5 
  727000    1.1287665   -6.6849584    285.27689   0.03270024  0.033435147            2 
  728000    1.1430231   -6.6390804      286.705  0.032818795   0.03342518            2 
  729000    1.1417463   -6.6836801    286.86622  0.032792206  0.033414829            5 
  730000    1.1475113   -6.6941253     286.6504  0.032722649  0.033403967            2 
  731000    1.1618861   -6.6444955    287.79166  0.032807987   0.03339336            5 
  732000     1.141892   -6.6978055    286.55854  0.032622785  0.033382487            2 
  733000    1.1496485   -6.6150497    287.83137  0.032722985   0.03337221            5 
  734000    1.1086531   -6.7137691     286.8542  0.032567461  0.033361759            3 
  735000    1.1159973   -6.7179352    288.00139  0.032653219  0.033351446            2 
  736000    1.1377822   -6.6846921    288.90287  0.032710923  0.033341323            2 
  737000    1.1337632   -6.6428929    289.93003  0.032782681  0.033331276            6 
  738000     1.136089   -6.6460449    291.13674  0.032874518  0.033321642            4 
  739000    1.1127348   -6.6323177    291.51168  0.032872314  0.033312271            3 
  740000    1.1282814    -6.718015    289.49733   0.03260105  0.033302528            4 
  741000    1.1199445   -6.6770607    290.76051  0.032699113  0.033292748            4 
  742000    1.1350395   -6.6611005    290.49039  0.032624707  0.033282674            5 
  743000    1.1632036   -6.6839705    290.95301  0.032632684  0.033272385            4 
  744000    1.1258662   -6.6885819    291.59338  0.032660549  0.033262298            3 
  745000    1.1345939   -6.6771652     291.9274  0.032654071  0.033252541            4 
  746000    1.1233625   -6.6853992    292.65691   0.03269179  0.033242908            4 
  747000    1.1612855   -6.7004833    293.01604   0.03268809   0.03323315            3 
  748000    1.1476305   -6.6644308    293.47695  0.032695739  0.033223648            2 
  749000    1.0977891   -6.7318507    291.93096   0.03248008   0.03321359            7 
  750000    1.1439444   -6.7252127    292.76904  0.032529894  0.033203531            3 
  751000    1.1265497   -6.6527748     293.8603  0.032607667  0.033193882            3 
  752000    1.1403155   -6.7047393     293.8665  0.032564993  0.033184135            1 
  753000    1.1314187   -6.6660913    294.51619  0.032593646  0.033173674            3 
  754000    1.1553821   -6.6887194    294.39615  0.032537152  0.033163486            2 
  755000    1.1566899   -6.6953445    295.46502  0.032612033  0.033152958            2 
  756000    1.1315982   -6.7261604     293.5752  0.032360582  0.033142281            2 
  757000    1.1371613    -6.666091    295.55265  0.032535519  0.033132435            4 
  758000    1.1318531   -6.6537298    296.28474   0.03257308  0.033122059            4 
  759000    1.1281108   -6.6613642    296.65531  0.032570851  0.033111551            4 
  760000    1.1638853   -6.6500855     296.2622  0.032484891    0.0331017            3 
  761000    1.1422454   -6.6885215    296.54302  0.032472955  0.033091703            2 
  762000    1.1297958   -6.6837965    296.02975  0.032374207  0.033081377            2 
  763000    1.1462474   -6.6611682    296.41163  0.032373486   0.03307095            2 
  764000    1.1228707   -6.6851443    296.79881  0.032373343  0.033060469            3 
  765000    1.1263897   -6.6494277    297.91237  0.032452328  0.033050128            2 
  766000     1.125709   -6.6892864    297.40826   0.03235512  0.033039651            4 
  767000    1.1316773   -6.6491704    298.22064    0.0324012  0.033029011            5 
  768000    1.1147641   -6.6580666    297.75548  0.032308537  0.033018266           10 
  769000    1.1220762   -6.6871478    297.36838  0.032224575  0.033007334            4 
  770000    1.1154954   -6.6342053    299.07621  0.032367555   0.03299679            2 
  771000    1.1319261   -6.6631075    298.84121  0.032300174  0.032986136            2 
  772000     1.129151   -6.6979222    298.91459  0.032266255  0.032975624            3 
  773000    1.1334449   -6.7347257    298.12345  0.032139224  0.032964725            2 
  774000    1.1282515    -6.634824    300.82645  0.032388722  0.032954248            2 
  775000    1.1554296   -6.6920158    299.55799  0.032210536   0.03294429           10 
  776000    1.1102876   -6.6991058    301.77382  0.032406982  0.032933979            2 
  777000    1.1237254   -6.7168868    300.19336   0.03219577  0.032923483            4 
  778000    1.1216796   -6.6385335    302.23321   0.03237288  0.032913008            3 
  779000    1.0975814   -6.7393115    301.55453  0.032258722  0.032902839            7 
  780000    1.1372742    -6.706932    303.58088  0.032433854  0.032892761            4 
  781000    1.1102026   -6.7451344    302.50486  0.032277514  0.032882809            2 
  782000    1.1110906   -6.7006699    303.47971  0.032340123  0.032873054            3 
  783000     1.134748   -6.6559362    305.00579  0.032461238  0.032863895            2 
  784000    1.1417075   -6.6683146    305.14165  0.032434274   0.03285453            3 
  785000    1.1373277   -6.7106845    304.57161  0.032332442  0.032844816            4 
  786000    1.1175474    -6.661392    304.89688  0.032325793   0.03283501            3 
  787000    1.1197279   -6.7320763    303.98082  0.032187719  0.032825236            1 
  788000    1.1102188   -6.7328265    304.58638  0.032210912   0.03281544            2 
  789000    1.1482845   -6.7222965    304.69591  0.032181655   0.03280495            2 
  790000    1.1560478   -6.7320185    305.64786  0.032241336  0.032794918            1 
  791000    1.1362644   -6.6994375    306.02431  0.032240235  0.032785281            2 
  792000    1.1298045   -6.6706131     307.4875  0.032353482  0.032775742            7 
  793000    1.1151203   -6.7217395    306.15692  0.032172858  0.032766478            3 
  794000    1.1265624   -6.6868956    308.81295  0.032411099  0.032757154            3 
  795000    1.1276295   -6.7201206    307.87509  0.032272022  0.032748375            1 
  796000    1.1062572   -6.6809529     308.8652  0.032335134   0.03273917            2 
  797000    1.1417016   -6.6769665    309.30859  0.032340923  0.032730235            2 
  798000    1.1147435    -6.738255    308.33857  0.032199099  0.032721186            2 
  799000    1.1373841   -6.6996868    309.96548  0.032328482  0.032712129            2 
  800000    1.0991427   -6.6437994     309.8149  0.032272385  0.032703399            1 
  801000    1.1404252   -6.6813751    310.14246  0.032266173   0.03269437            4 
  802000    1.1488804   -6.7240879    310.21735  0.032233723  0.032685595            2 
  803000    1.1412627   -6.6939944    310.55224  0.032228335   0.03267665            2 
  804000    1.1176864   -6.7305979    310.82792  0.032216824  0.032667811            6 
  805000     1.117114   -6.7134614    311.62305  0.032259115  0.032658894            3 
  806000    1.1267166   -6.6910669    312.30719  0.032289825  0.032650318            3 
  807000    1.1401014   -6.7124955    312.63786  0.032283959  0.032642104            3 
  808000    1.1332132   -6.7405785    312.66124  0.032246415  0.032633637            6 
  809000    1.1424941   -6.7012099     312.8551  0.032226525  0.032625213            3 
  810000    1.1290297    -6.672749    313.59845  0.032263215  0.032616473            5 
  811000    1.1121692     -6.68128    313.32319  0.032195149  0.032607991            4 
  812000    1.1036366   -6.7049824    313.50174  0.032173824  0.032599287            2 
  813000    1.1132763   -6.7316188    314.29324  0.032215379   0.03259039            2 
  814000    1.1172297   -6.7245802    313.71607  0.032116715   0.03258165            2 
  815000    1.0937674   -6.6948319    315.12328  0.032221194  0.032572752            1 
  816000    1.1158393   -6.7295567    314.91509  0.032160446  0.032564087            4 
  817000    1.1054786   -6.7119008    315.47699  0.032178396  0.032555731            2 
  818000    1.0984786   -6.6688918    315.58216  0.032149771  0.032547244            2 
  819000    1.1363228   -6.7183507    315.51909  0.032104099  0.032538513            3 
  820000     1.128361   -6.7594614    313.93391  0.031903853  0.032529683            2 
  821000    1.1048653   -6.7016708    315.88157  0.032062685  0.032520265            2 
  822000    1.1174325    -6.667142     316.7628  0.032113017  0.032510801            2 
  823000    1.1280242   -6.6946226     316.1616  0.032013122  0.032501612            7 
  824000    1.1170209   -6.7096272      317.555   0.03211519  0.032492704            3 
  825000    1.1193517   -6.7167191    317.11867  0.032032189  0.032483669            3 
  826000    1.0833444   -6.7294987    317.93619  0.032075887  0.032474737            3 
  827000    1.1167919   -6.7153592    318.95594  0.032139857  0.032465696            5 
  828000    1.1256477   -6.7451248    318.46353  0.032051483  0.032456807            5 
  829000    1.1299723   -6.7351071    320.12065  0.032179398  0.032448625            2 
  830000    1.0942124   -6.7435987    319.63864  0.032092233  0.032440485            3 
  831000    1.1330622   -6.7787754    318.49509  0.031938938  0.032431932            3 
  832000    1.1400886   -6.7384626    319.71875  0.032023112  0.032423196            3 
  833000    1.1153237   -6.7419941    320.81256  0.032094094  0.032414904            6 
  834000    1.1028736   -6.7245659     322.1181  0.032186061  0.032406763            3 
  835000    1.1376916   -6.7153565    321.20527  0.032056414   0.03239915            5 
  836000    1.1376642   -6.7098718    321.95458  0.032092761  0.032391272            1 
  837000    1.1366755   -6.7243839    322.74763  0.032133376  0.032383158            3 
  838000    1.1134204    -6.738497    322.90182  0.032110364  0.032375102            2 
  839000    1.1189767   -6.7267343     322.7573  0.032057737  0.032367137            3 
  840000    1.1201625   -6.7095666    322.64749  0.032008679  0.032359134            2 
  841000    1.1174547   -6.7148822    323.69533  0.032074448  0.032351028            2 
  842000    1.1240341   -6.7200907    322.90797  0.031958429  0.032342589            2 
  843000    1.1440823   -6.7087639    322.59149  0.031889234  0.032334113            3 
  844000    1.0726557   -6.7073528    323.56413  0.031947486  0.032325318            6 
  845000    1.1090814   -6.7841598    322.70309  0.031824762  0.032316403           10 
  846000    1.1046962   -6.7201053    323.47583  0.031863262  0.032307241            3 
  847000    1.0982851   -6.7078073    323.87268  0.031864687  0.032298495            5 
  848000     1.109795   -6.7331296     324.7715  0.031915438  0.032289766            2 
  849000    1.1161236   -6.7212686    324.89675  0.031890141  0.032281188            8 
  850000    1.1337595   -6.6738712    326.42938   0.03200288  0.032272529            3 
  851000    1.1264474   -6.7215429    326.32474  0.031955027     0.032264            4 
  852000    1.1101693   -6.7427555    326.15456  0.031900876  0.032255786            4 
  853000    1.1062764   -6.6981522    327.58219  0.032002949  0.032247512            3 
  854000    1.1085099   -6.7043398    328.15255  0.032021131  0.032239272            2 
  855000     1.108475   -6.7411776    326.38033  0.031810949  0.032230773            3 
  856000    1.1012438   -6.7457644    328.72304  0.032001854  0.032222698            3 
  857000    1.1380927   -6.6869797    330.27093  0.032115027  0.032214573            7 
  858000     1.133368   -6.7092678      330.387  0.032088869  0.032206651            2 
  859000    1.1110167   -6.7456303    328.97851  0.031914873   0.03219861            4 
  860000    1.0828746   -6.7147816    330.37012  0.032012609  0.032190703            3 
  861000    1.1116336   -6.7674536    330.05906  0.031945322  0.032182997            4 
  862000    1.1263947   -6.7357083    328.60207  0.031767408  0.032174719            3 
  863000    1.1190816   -6.7215124    330.09881  0.031875126  0.032166618            4 
  864000    1.1170836   -6.7669773    329.49604  0.031780097  0.032158378            3 
  865000    1.1181654   -6.7239519    330.75043  0.031864203  0.032150069            3 
  866000    1.1108812   -6.7489872    330.17972   0.03177249  0.032141609            3 
  867000    1.0951806   -6.7717504    329.53974  0.031674331  0.032132763            4 
  868000    1.1276858   -6.7182289    329.35226  0.031619841  0.032124155            2 
  869000    1.1261013   -6.7184526    331.79031  0.031817252  0.032115609            4 
  870000    1.1201116   -6.6962528    330.95867  0.031701022  0.032107619            3 
  871000    1.1032508   -6.7478501    332.14957  0.031778566  0.032099402            2 
  872000    1.1193194   -6.7271837    331.86401  0.031714833  0.032090929            2 
  873000     1.107625   -6.7335985    332.85196   0.03177281  0.032082393            6 
  874000    1.0929884   -6.7220271    333.78338  0.031825265  0.032073912            2 
  875000    1.1207166   -6.7559965    333.95441  0.031805182  0.032065425            2 
  876000    1.1116958   -6.7158368    336.11812  0.031974707  0.032057193            4 
  877000    1.1115166   -6.7134342    334.40588   0.03177555  0.032049313            2 
  878000    1.1086035    -6.736702    333.45922  0.031649509  0.032041641            2 
  879000    1.1155237   -6.7472243     335.5935  0.031815842  0.032033614            2 
  880000    1.1237048   -6.7030026     335.2832  0.031750303  0.032025739            2 
  881000    1.0746176   -6.7392263     335.2235  0.031708617  0.032017747            5 
  882000    1.1042618   -6.7467319    335.39217  0.031688602  0.032009772            3 
  883000    1.1140331   -6.7703056    335.10066  0.031625204  0.032001668            2 
  884000    1.1043008   -6.7400813    336.61281  0.031731977  0.031993418            3 
  885000    1.0957819   -6.7405959    337.80486  0.031808367  0.031985302            4 
  886000    1.1151788   -6.7233766    337.74596  0.031766926  0.031977223            2 
  887000    1.1012369   -6.7537255    337.53358  0.031711159  0.031969047            2 
  888000    1.1038399   -6.7385162    336.97511  0.031623039   0.03196054            3 
  889000     1.104302   -6.7458385    337.98287  0.031681934  0.031952028            3 
  890000    1.1201551   -6.7582998     337.9699  0.031645121  0.031943288            5 
  891000    1.1165683   -6.7105474    339.50096  0.031752802  0.031934879            2 
  892000    1.0948598   -6.7496139    338.77253  0.031649152  0.031926645            4 
  893000    1.1220337    -6.769933    339.12533  0.031646634  0.031918709            3 
  894000    1.1265354    -6.682428    341.10389  0.031795664  0.031910893            4 
  895000    1.1108407   -6.7396973    340.09619  0.031666311  0.031903234            3 
  896000    1.1001165   -6.6863711    341.23824  0.031737187  0.031895432            3 
  897000     1.081718   -6.6952891    342.11705  0.031783449  0.031887859            5 
  898000    1.0954268   -6.7746825    340.07273  0.031558345  0.031879831            4 
  899000    1.1019207   -6.7048085    342.46686  0.031745167  0.031872169            3 
  900000    1.1003081   -6.7602512    342.35049  0.031699119  0.031864573            2 
  901000     1.116233   -6.7935766    341.10369  0.031548621  0.031857011            6 
  902000    1.1124203    -6.736819    343.21642  0.031708834  0.031849298            3 
  903000    1.1044206   -6.7788957    342.18414  0.031578455  0.031841707            3 
  904000     1.117533   -6.7559367    342.83899  0.031603889  0.031833803            3 
  905000    1.1183144   -6.7287187    343.82327  0.031659602  0.031826067            4 
  906000    1.0837667   -6.7725583     342.8666  0.031536663  0.031818716            7 
  907000    1.0822373   -6.7895744    344.09745  0.031614981  0.031811345            3 
  908000    1.1127407   -6.7772169    344.61053  0.031627251  0.031803933            3 
  909000    1.0998343   -6.7668453    344.47628   0.03158015  0.031796641            5 
  910000    1.1179591   -6.7110108    346.14763  0.031698501  0.031789342            3 
  911000    1.1050987   -6.7687065    345.75075  0.031627402  0.031782173            2 
  912000    1.1100014   -6.7869712    344.58714  0.031486398  0.031774896            6 
  913000    1.0923659   -6.7804585    345.85529   0.03156766  0.031767371            6 
  914000    1.1138371   -6.7765331    345.67261  0.031516467   0.03175972            2 
  915000    1.1093123   -6.7857119    346.88517  0.031592456  0.031752139            2 
  916000    1.0927236   -6.7494629    346.07299  0.031484079  0.031744333            4 
  917000    1.1255398   -6.7692485    347.59687  0.031588229   0.03173699            2 
  918000    1.0995371   -6.7154968    348.18393  0.031607111  0.031729903            4 
  919000    1.1210017   -6.7634491    348.34781  0.031587578  0.031722826            2 
  920000     1.095124   -6.7803495    349.10054  0.031621426  0.031715528            2 
  921000      1.08426   -6.7669675    348.29652  0.031514343  0.031708429            3 
  922000    1.1081255     -6.76125    348.70109  0.031516729  0.031700993            2 
  923000    1.1066871   -6.7632796    348.35442  0.031451284  0.031693551            5 
  924000     1.108331   -6.7490916     349.0146  0.031476786  0.031685942            2 
  925000    1.1176403   -6.7506717    351.09752  0.031630407  0.031678653            5 
  926000    1.1346416   -6.8088448    349.63626  0.031464746  0.031671191            4 
  927000    1.0952964   -6.7653856    350.51804  0.031510072  0.031663908            5 
  928000    1.1251046    -6.763543    350.93718  0.031513755  0.031656534            2 
  929000    1.1091547   -6.7159057    352.29207   0.03160137  0.031649569            2 
  930000    1.1111984    -6.753643    353.28268  0.031656154  0.031642794            7 
  931000    1.0924531    -6.726385    352.89968   0.03158787  0.031636406            5 
  932000    1.1009829   -6.7559307    353.68788  0.031624453  0.031629762            3 
  933000    1.1020034   -6.7875723    352.42527  0.031477784  0.031622804            6 
  934000    1.1107859   -6.7455704    352.88198  0.031484831  0.031615433            8 
  935000    1.0932961   -6.8460068    352.21182  0.031391428  0.031608124            4 
  936000    1.1149401   -6.7834137    353.24709  0.031450061  0.031600807            6 
  937000    1.1132051   -6.7283262    354.76072  0.031551114  0.031593574            5 
  938000     1.084653   -6.7260783    354.52445  0.031496486  0.031586388            3 
  939000    1.1032052    -6.709544     355.6251  0.031560623  0.031579524            9 
  940000    1.0889788     -6.80159    354.74195  0.031448754  0.031572823            6 
  941000    1.1010988   -6.7254185     355.9334  0.031520846  0.031565638            2 
  942000    1.0996612   -6.7669317    354.65758   0.03137452   0.03155902            3 
  943000    1.1212781   -6.7585703    355.48349  0.031414236   0.03155213            2 
  944000    1.0975086   -6.7713016    357.12238  0.031525634  0.031545451            5 
  945000    1.1148214   -6.7905984    356.80988  0.031464716  0.031538611            5 
  946000    1.1009049   -6.7548282    356.74798  0.031426002  0.031531616            1 
  947000    1.1068574   -6.7848378    357.34586   0.03144543  0.031524849            3 
  948000    1.1115085   -6.7860302    357.60437  0.031434984  0.031518036            2 
  949000    1.0902615   -6.7621884    357.75447   0.03141504  0.031510888            5 
  950000    1.0762512   -6.7337389    359.25701  0.031513773   0.03150398            7 
  951000    1.0922667   -6.7205856    359.25119  0.031480125    0.0314972            2 
  952000     1.119327   -6.7574442    358.16585  0.031352053  0.031490174            2 
  953000     1.107926   -6.8010581    357.85401  0.031291886    0.0314832            4 
  954000    1.1160823   -6.7717004    359.56741  0.031408753  0.031476362            4 
  955000     1.075457   -6.7504619    359.73109  0.031390148   0.03146928            5 
  956000    1.0898125   -6.7516368    359.37007  0.031325842  0.031462353            6 
  957000    1.1202865   -6.7157358    359.78261  0.031329033   0.03145532            1 
  958000    1.0858158    -6.748535     360.2127  0.031333742  0.031448199            2 
  959000    1.0816774   -6.7310083      359.979  0.031280761   0.03144104            2 
  960000    1.0509233   -6.7801381    360.78059   0.03131776  0.031433714            2 
  961000     1.100233   -6.7210842    362.42836  0.031428058  0.031426318            3 
  962000    1.0968355   -6.7482123    360.88466  0.031261665  0.031419092            9 
  963000    1.0912084   -6.7984372    360.24265  0.031173646  0.031411466            3 
  964000    1.0650298   -6.7865105    361.11853  0.031217024  0.031403933            3 
  965000    1.1091149   -6.7897325    361.51224  0.031218674  0.031396349            5 
  966000    1.0750809   -6.7408044    362.86401  0.031302968  0.031388673            4 
  967000    1.1008545   -6.8010958    362.11668  0.031206194  0.031380896            7 
  968000    1.0854863   -6.7693127    361.50406  0.031121217  0.031372918            8 
  969000    1.1046596   -6.7576382    362.41937  0.031167816  0.031364835            2 
  970000    1.1067876   -6.7608404    362.47985  0.031140881  0.031356822            2 
  971000    1.0869973   -6.8039659    363.33413  0.031182126  0.031349217            2 
  972000    1.0624153    -6.803313    361.89593  0.031026743  0.031341145            1 
  973000    1.1114365    -6.749597    364.00048  0.031175101  0.031333437            3 
  974000      1.08732   -6.7783012    363.45062  0.031096049  0.031325724            9 
  975000    1.0959695   -6.7926872     362.5638  0.030988359  0.031317773            3 
  976000    1.0988171   -6.7841745    364.49716  0.031121684  0.031309885            3 
  977000     1.084759   -6.8048772     364.0934  0.031055391  0.031301797            3 
  978000    1.0788703   -6.7548758    365.44716  0.031138987  0.031294033            4 
  979000    1.1014088   -6.7672479    365.15489  0.031082303  0.031286322            2 
  980000    1.0792634   -6.7795911    365.11142  0.031046889   0.03127856            6 
  981000     1.082701   -6.8159956    366.38141  0.031123124  0.031271035            3 
  982000    1.0904303   -6.7552965    367.28246  0.031167894  0.031263641            2 
  983000    1.0887818    -6.776464    368.03467  0.031199955  0.031256603            4 
  984000      1.08454   -6.7972018    367.22743  0.031099884  0.031249643            3 
  985000    1.0694639   -6.7865385    368.33083  0.031161661  0.031242776            2 
  986000    1.0867044   -6.7955192    368.39688  0.031135639  0.031235679            7 
  987000    1.0903872   -6.7660839    368.51592  0.031114144   0.03122838            3 
  988000    1.1015399   -6.7988681    368.66165  0.031094944   0.03122129            3 
  989000     1.091745   -6.8111704    368.56275  0.031055169    0.0312142            2 
  990000    1.0983465   -6.7693259    370.06408  0.031150175  0.031207027            5 
  991000    1.0981325   -6.8061224    369.97548  0.031111291  0.031200025            2 
  992000    1.1102803   -6.7983024     369.6309  0.031050983  0.031193227            2 
  993000    1.0883282   -6.7663192    371.65003   0.03118916  0.031186724            4 
  994000    1.1021162   -6.7686778     371.5339  0.031148046  0.031180125            6 
  995000    1.0896428   -6.8216586    370.87461  0.031061525  0.031173395            4 
  996000    1.0985371   -6.7388891     372.7342  0.031185927  0.031166855            4 
  997000    1.0641022   -6.7767406    372.15109  0.031105909  0.031160493            3 
  998000     1.113369   -6.7878109    372.28534   0.03108595  0.031153885            3 
  999000    1.1155557   -6.8115193    372.21924  0.031049319  0.031147487            2 
 1000000    1.1019361   -6.7495816    372.77602  0.031064669  0.031140619            4 
 1001000     1.102735   -6.8138382    373.30153  0.031077384  0.031133524            2 
 1002000    1.0847893   -6.7759733    374.04343   0.03110807  0.031126521            2 
 1003000    1.0890474   -6.7677874    373.77152  0.031054463  0.031119818            3 
 1004000    1.0769298   -6.7625088    375.66274  0.031180507  0.031113013            3 
 1005000    1.0855952   -6.8606061    373.10663  0.030937531  0.031105979            1 
 1006000    1.0980571   -6.7972047    374.52899  0.031024601  0.031098808            6 
 1007000    1.0903318   -6.8228824    374.36159   0.03097994  0.031091416            7 
 1008000    1.1146511   -6.7933582    375.79509  0.031067715  0.031084354            2 
 1009000    1.0978888   -6.7890779    375.58907   0.03101991  0.031077155            7 
 1010000    1.0545262   -6.7985394    375.12552   0.03095095  0.031069973            4 
 1011000    1.0631056   -6.7872816    376.28372  0.031015803  0.031062886            5 
 1012000    1.0991564   -6.8002807    374.68483  0.030853494   0.03105575            3 
 1013000    1.0895625   -6.8235327    376.43077  0.030966664  0.031048486            2 
 1014000    1.0691054   -6.8035926     376.6538  0.030954454  0.031041165            2 
 1015000    1.0771307   -6.8015347    376.34653   0.03089873  0.031033743            3 
 1016000    1.1059581   -6.7903851    377.31863   0.03094805  0.031026649            4 
 1017000    1.1012246   -6.8057552     377.3577  0.030920821  0.031019644            4 
 1018000    1.0989954   -6.7525841    377.72554  0.030920559  0.031012689            2 
 1019000    1.1023509   -6.8396697    376.15104  0.030761453  0.031005538            3 
 1020000    1.0793761   -6.8177863     378.1697  0.030896217  0.030998106            4 
 1021000    1.0971026   -6.7676412     378.9157  0.030926845  0.030991191            2 
 1022000    1.1261323   -6.7822313    379.25104  0.030923927  0.030984443            3 
 1023000    1.0723672   -6.7757897    378.43467  0.030827197  0.030977495            2 
 1024000    1.0602424   -6.7890293    379.47911  0.030882089  0.030970301            3 
 1025000    1.0731448   -6.7936698    378.84112  0.030800091  0.030963176            3 
 1026000    1.0581027     -6.78078    378.61499  0.030751705  0.030955987           10 
 1027000    1.0922952   -6.7821732    379.15633  0.030765688  0.030948699            3 
 1028000    1.0998289   -6.8002809    379.20581  0.030739771  0.030941367            5 
 1029000    1.1011408   -6.7807216    379.77045  0.030755625  0.030933891            3 
 1030000    1.0783201   -6.8146465    380.43439  0.030779481  0.030926474            4 
 1031000    1.1021841   -6.7798228    380.66845  0.030768546  0.030919284            3 
 1032000    1.0651177   -6.7814679    382.64575  0.030898397  0.030911982            4 
 1033000    1.0880944   -6.8119141    381.24418  0.030755419  0.030904608            3 
 1034000    1.0871498    -6.806657    381.07206  0.030711803  0.030897313            4 
 1035000    1.0728766   -6.8078007    382.08698  0.030763847  0.030890088            6 
 1036000    1.0996093   -6.7882647    383.28582  0.030830584  0.030882946            3 
 1037000    1.1078189   -6.7806254    384.31005  0.030883161  0.030876082            4 
 1038000    1.0678534   -6.8174653    382.24714  0.030687792   0.03086885            3 
 1039000    1.0666189    -6.795324    382.83586  0.030705475  0.030861586            4 
 1040000    1.0916016   -6.7575854    384.41321  0.030802341  0.030854383            2 
 1041000    1.0860453   -6.7773349    383.98352  0.030738354  0.030847317            2 
 1042000    1.1012156   -6.7892372     383.3819  0.030660741  0.030840017            2 
 1043000    1.0779389   -6.8201297    383.56607  0.030646059  0.030832408            2 
 1044000    1.0975907   -6.8134104    385.03739  0.030734147    0.0308248            4 
 1045000    1.0627753   -6.7840363    383.49645  0.030581854   0.03081722            6 
 1046000    1.0866357   -6.7750376    384.41489  0.030625788  0.030809745            4 
 1047000    1.0988483   -6.8541847    384.11849  0.030572946  0.030802256           17 
 1048000    1.0862369   -6.8232677    385.41955  0.030647229  0.030794733            3 
 1049000    1.0855252   -6.7945394    385.80363  0.030648525   0.03078723            5 
 1050000    1.1128624   -6.8125335    385.05394  0.030559837  0.030779719            7 
 1051000    1.0837236   -6.8586163    384.48537  0.030485678  0.030771995            3 
 1052000    1.0869184   -6.8323857    385.22734  0.030515474    0.0307639            3 
 1053000    1.0708373    -6.837289    385.85939  0.030536514  0.030755957            4 
 1054000    1.0656115   -6.8266984    386.14963  0.030530489  0.030747957            2 
 1055000    1.0755683   -6.7719517    387.31808  0.030593845  0.030740217            2 
 1056000    1.0814287   -6.8183359    386.39348   0.03049191  0.030732526            1 
 1057000    1.0985575   -6.8013045    387.98373  0.030588437   0.03072484            5 
 1058000    1.0740387    -6.770143    388.72611  0.030617998  0.030717264            2 
 1059000    1.1076923   -6.7980643    388.76735  0.030592332  0.030709842            6 
 1060000     1.089308   -6.7962037    388.66644  0.030555538   0.03070211            1 
 1061000     1.064682   -6.7867984    387.72292  0.030452632  0.030694469            5 
 1062000    1.0820595   -6.7815278    389.81421  0.030588058  0.030686958            3 
 1063000    1.0591681   -6.8039314    388.98514  0.030494288  0.030679233            4 
 1064000    1.0954919   -6.8125621    389.27479  0.030488314  0.030671479            3 
 1065000    1.0983708   -6.7961144    388.88524  0.030429205  0.030663867            6 
 1066000     1.084004    -6.799153    390.60715  0.030535268  0.030656125            6 
 1067000    1.0802541   -6.8048786    389.00134  0.030381235  0.030648451            3 
 1068000    1.0636808   -6.8549804    389.30455  0.030376447  0.030640486            3 
 1069000    1.0804697   -6.8023957    390.13933  0.030413107  0.030632331            2 
 1070000    1.0676601   -6.7963178    391.03147  0.030454164  0.030624308            5 
 1071000    1.0814356   -6.8336488    390.04746  0.030349165  0.030616454            4 
 1072000    1.0543681   -6.8070386    390.49949  0.030355992  0.030608432            2 
 1073000    1.0623999   -6.7941988    390.59364  0.030335014  0.030600301            3 
 1074000    1.0767375   -6.8125303    390.92596  0.030332554  0.030591925            4 
 1075000    1.0873721   -6.8394149    390.84967  0.030298424  0.030583572            3 
 1076000    1.1129711   -6.7674296    392.24759   0.03037853  0.030575544            3 
 1077000    1.0664861   -6.7931642    392.77133  0.030390849  0.030567622            3 
 1078000    1.0790646   -6.8140838    392.96356  0.030377517  0.030559589            3 
 1079000    1.0962621   -6.8157027    391.55744  0.030240766  0.030551528            3 
 1080000    1.0633188   -6.8294983    392.76916  0.030306262  0.030543288            4 
 1081000    1.0938325    -6.802444    394.58664  0.030418335  0.030535281            3 
 1082000    1.0612764   -6.7777898    393.82172  0.030331309  0.030527343            5 
 1083000    1.0927148    -6.803728    394.78473  0.030377403  0.030519492           10 
 1084000    1.0809134   -6.8168867    393.58437  0.030257101  0.030511387            4 
 1085000    1.0741655   -6.8495253    393.98631  0.030260085  0.030503117            4 
 1086000    1.0654823   -6.8074868    393.83014  0.030220238  0.030494848            7 
 1087000    1.1032297   -6.8161746     394.8932  0.030273935  0.030486839            5 
 1088000    1.0839116   -6.8295548    395.59444  0.030299819  0.030478795            4 
 1089000    1.0571323   -6.8679906    395.75056  0.030283942  0.030470662            1 
 1090000    1.0816554   -6.8427882    394.82201  0.030185169  0.030462573            3 
 1091000    1.0793045   -6.8706646    395.26922   0.03019166  0.030454331            6 
 1092000    1.0709071   -6.8697004    393.24567   0.03000959  0.030445773            2 
 1093000    1.1076855   -6.8384052    396.14538  0.030203216  0.030437504            3 
 1094000    1.0744341   -6.8484992    396.33604  0.030190131  0.030429379            7 
 1095000    1.0818734     -6.82002    395.66493  0.030111486   0.03042115            4 
 1096000    1.0872919   -6.7622795    399.23048  0.030355116  0.030413413            2 
 1097000    1.0743459   -6.8211275    397.61908  0.030205035  0.030405492            3 
 1098000    1.0836796   -6.8736697    397.10351  0.030138396  0.030397571            7 
 1099000     1.065428   -6.8579247    397.65119  0.030152501  0.030389679            3 
 1100000    1.0845506   -6.7986096    398.64957  0.030200725  0.030382015            3 
 1101000    1.0677898   -6.8463844    398.92446  0.030194101  0.030374311            4 
 1102000    1.0864106   -6.8338567    399.70392  0.030225644  0.030366536            2 
 1103000    1.0824574   -6.8107554    401.10841  0.030304353  0.030359047            8 
 1104000    1.0686493   -6.8357148    398.26571  0.030062327  0.030351481            2 
 1105000    1.0680725   -6.7820119     400.2431  0.030184246  0.030343597            2 
 1106000    1.0768018   -6.8058174    398.96577  0.030060712  0.030335656            2 
 1107000      1.07621   -6.8058139    400.58887  0.030155741  0.030327857            2 
 1108000    1.0772159   -6.8346388    400.42349  0.030116087  0.030319965            3 
 1109000    1.0949388   -6.8158177    400.81093  0.030118044   0.03031205            5 
 1110000    1.0646367   -6.8537352    400.89757  0.030097415  0.030304098            2 
 1111000    1.0796434   -6.8032558    401.07616  0.030083721  0.030296246            3 
 1112000    1.0610398   -6.8520436    401.27517   0.03007158  0.030288267            2 
 1113000     1.090793   -6.8335658    401.53237  0.030063819  0.030280306            3 
 1114000    1.0904468   -6.8699646    401.30694  0.030019968  0.030272258            2 
 1115000    1.0673363   -6.8639367    401.04624   0.02997356  0.030264019            4 
 1116000    1.1081039   -6.8283194    402.19285  0.030032322  0.030255935            3 
 1117000    1.0782043   -6.8701576    400.39676  0.029871438  0.030247812            2 
 1118000    1.0640922   -6.8113238      402.593  0.030008423  0.030239704            4 
 1119000    1.0507433   -6.8345227    403.24265  0.030029986  0.030231502            3 
 1120000    1.0518191   -6.8494605    402.35431  0.029937077  0.030223092            6 
 1121000    1.0818051   -6.8480657    401.38784  0.029838525  0.030214641            2 
 1122000    1.0670748   -6.8292502    404.04403  0.030009212  0.030206371            2 
 1123000    1.0675219   -6.8383574    402.32241  0.029854735    0.0301982            4 
 1124000    1.0747649    -6.874348    402.96802  0.029876039    0.0301898            4 
 1125000    1.0917965   -6.8131884    405.12972  0.030009609  0.030181438            4 
 1126000    1.0675895   -6.8319671    404.49821   0.02993622  0.030173351            7 
 1127000    1.0610372   -6.8515058    403.84004  0.029860991  0.030165224            3 
 1128000     1.085345   -6.8705583    405.23165  0.029937326  0.030157205            2 
 1129000       1.0764   -6.8010675     405.9106  0.029960924  0.030149202            1 
 1130000    1.0650868   -6.7977522    405.38962  0.029895989  0.030140902            3 
 1131000     1.060682   -6.8331433    405.06785  0.029845848  0.030132546            4 
 1132000    1.0669928   -6.8537781    405.96525  0.029885546  0.030124228            4 
 1133000    1.0703176   -6.8782609    405.11982  0.029796986  0.030115731            9 
 1134000    1.0710496    -6.827663    406.57137  0.029877378  0.030107395            5 
 1135000    1.0768037   -6.8120129    408.23468  0.029973178  0.030099116            3 
 1136000    1.0603583   -6.8504348    405.18312   0.02972294  0.030091123            5 
 1137000    1.0768619    -6.880338    406.16191  0.029768536   0.03008283            2 
 1138000    1.0589245   -6.8540491    407.67891  0.029853464  0.030074743            2 
 1139000    1.0544662     -6.84833    407.80074  0.029836168  0.030066414            5 
 1140000    1.0628506   -6.8042509     408.5109  0.029861908  0.030058182            8 
 1141000    1.0905474   -6.8588373    407.66832  0.029774198  0.030050065            2 
 1142000    1.0430816   -6.8160727    409.18045  0.029858469  0.030041942            2 
 1143000    1.0772501   -6.8752591    407.92694  0.029740955  0.030033677            4 
 1144000    1.0633069   -6.8522146    409.08985  0.029799668  0.030025504            3 
 1145000    1.0624756   -6.8317728    409.53635  0.029806139  0.030017627            7 
 1146000    1.0794021   -6.8384315    410.90596  0.029879723  0.030009703            2 
 1147000    1.0704804   -6.8848858    409.10548  0.029722863   0.03000158            3 
 1148000    1.0880378     -6.84338    410.67842  0.029811151    0.0299934            3 
 1149000    1.0735997   -6.8443045    410.64562  0.029782827  0.029985327            7 
 1150000    1.0386707    -6.844633    409.24303  0.029655292  0.029977319            5 
 1151000    1.0567331   -6.8354026     412.0952  0.029836027  0.029969259            5 
 1152000     1.063155   -6.8739193    410.61374  0.029702962  0.029961168            4 
 1153000    1.0596716   -6.8977578    410.45582  0.029665786  0.029952876           10 
 1154000     1.049708   -6.8490004    411.49785  0.029715327  0.029944447            4 
 1155000    1.0764623   -6.8726745    408.97378  0.029507488  0.029935932            7 
 1156000    1.0696492   -6.8080218     412.9509  0.029768664  0.029927542            3 
 1157000    1.0623893   -6.8052606    413.41832  0.029776601  0.029919306            9 
 1158000    1.0576493   -6.8793539    412.16481   0.02966068  0.029910953            3 
 1159000    1.0379032   -6.8688235    411.60339  0.029594722  0.029902522            4 
 1160000    1.0429289    -6.856689    411.90406  0.029590809  0.029894144            6 
 1161000    1.0812053    -6.880868    411.98008  0.029570778    0.0298858            2 
 1162000     1.064246   -6.9307768    412.05994  0.029551057  0.029877082            2 
 1163000      1.06583   -6.8659616    411.63276  0.029495039  0.029868629            3 
 1164000    1.0704441   -6.8792616    412.21112  0.029511105  0.029860146            4 
 1165000    1.0857555   -6.8878449    412.97609  0.029540493   0.02985161            3 
 1166000    1.0785236   -6.8493596    413.46881  0.029550373  0.029842975            3 
 1167000     1.069054   -6.8864573     413.3098  0.029513696  0.029834407            6 
 1168000    1.0610922   -6.8732791    414.36221  0.029563514  0.029825973            3 
 1169000    1.0475635   -6.8637046    413.72546  0.029492833   0.02981742            4 
 1170000    1.0778347   -6.8555207    414.12521  0.029496098  0.029808723            3 
 1171000    1.0588162    -6.869855    413.60787  0.029434093  0.029800074            7 
 1172000    1.0709184   -6.8913145    414.09504  0.029443618  0.029791356            3 
 1173000    1.0608613   -6.8385526    414.09351  0.029418408  0.029782787            4 
 1174000    1.0411395    -6.855961    415.34135  0.029481924  0.029774219            2 
 1175000    1.0680025   -6.8690256    415.63168  0.029477424  0.029765793            3 
 1176000    1.0824803   -6.8622566    416.30478  0.029500056  0.029757384            7 
 1177000    1.0758171   -6.8990653    417.09231   0.02953075  0.029749114            1 
 1178000    1.0671953   -6.8487241    416.76573  0.029482579  0.029740785            2 
 1179000    1.0397689   -6.8776784    416.81414  0.029460994  0.029732362            3 
 1180000    1.0850455   -6.8720721    417.02587  0.029450979  0.029723867            5 
 1181000    1.0641471   -6.8437257    417.82742  0.029482601  0.029715353            3 
 1182000    1.0731782   -6.8848986    417.83055  0.029457878  0.029706849            3 
 1183000    1.0422617   -6.8923106    417.02794   0.02937644   0.02969831            2 
 1184000    1.0609343   -6.8619919    418.44433  0.029451318  0.029689917            3 
 1185000    1.0352365   -6.8414412     418.8995  0.029458474  0.029681456            5 
 1186000    1.0537244   -6.8425192    418.84104  0.029429528  0.029673205            4 
 1187000    1.0895641   -6.8473098    419.88783  0.029478225  0.029665307            5 
 1188000    1.0556554   -6.9168916    418.54055  0.029358905  0.029657154            2 
 1189000    1.0484547   -6.8674035    419.43434  0.029396856  0.029649078            3 
 1190000    1.1034285   -6.8579177    419.87218  0.029402814  0.029641055            4 
 1191000    1.0624234   -6.8361669    421.06313  0.029461456  0.029633146            2 
 1192000    1.0527842   -6.8528965    420.57828  0.029402844  0.029625116            2 
 1193000    1.0626287   -6.8793061    421.77191  0.029461575  0.029616876            3 
 1194000    1.0545885   -6.8711868    420.28801  0.029333334  0.029608621            5 
 1195000    1.0606756   -6.9035237    420.36163  0.029313921  0.029600404            4 
 1196000     1.037528   -6.8664898    421.07592  0.029339181  0.029592151            7 
 1197000    1.0572457   -6.8896206    421.20773  0.029323846  0.029583955            3 
 1198000    1.0517254   -6.8415229    422.53108  0.029391422  0.029575662            6 
 1199000    1.0591642   -6.8874241    421.99633  0.029329742  0.029567589            4 
 1200000    1.0579885   -6.8529848    422.87966  0.029366643  0.029559614            5 
 1201000    1.0694786   -6.8384267    424.53652  0.029457155  0.029551729            8 
 1202000    1.0485713   -6.8351276    424.57714  0.029435464  0.029543719            2 
 1203000    1.0740532   -6.8699625    423.98953  0.029370292  0.029535867            2 
 1204000    1.0445366   -6.8722307    423.56838  0.029316748  0.029527858            2 
 1205000    1.0414114    -6.875548    425.33656    0.0294147  0.029519741            3 
 1206000    1.0676499   -6.8635042    424.72929  0.029348348  0.029511765            3 
 1207000    1.0623876   -6.8319701    426.01483  0.029412788  0.029503993            5 
 1208000    1.0753539   -6.8494387    425.76846  0.029371445  0.029496289            2 
 1209000     1.069197   -6.8675542    424.85767  0.029284372  0.029488386            5 
 1210000    1.0471535   -6.9072319    424.69643  0.029249066  0.029480293            4 
 1211000    1.0624583   -6.8981682     426.5117  0.029349828   0.02947238            6 
 1212000    1.0341003   -6.8886421    426.36614  0.029315603  0.029464355            3 
 1213000    1.0951906   -6.9073554    425.54668  0.029235139   0.02945632            5 
 1214000    1.0498758   -6.8998871    426.14935  0.029252427  0.029448139            7 
 1215000    1.0629859    -6.885067    427.23991  0.029303149  0.029440153            4 
 1216000    1.0491868   -6.9056588    426.82919  0.029250904  0.029431991            4 
 1217000    1.0666774   -6.8397259    427.10228  0.029245569  0.029423903            6 
 1218000      1.05551   -6.8391133    428.64586  0.029327166   0.02941597            5 
 1219000    1.0583906   -6.9235712    427.27668  0.029209508   0.02940819            5 
 1220000    1.0500438    -6.891573    427.03496  0.029169055  0.029400207            3 
 1221000    1.0418069   -6.8295896     428.7045  0.029259111  0.029392406            2 
 1222000    1.0628685   -6.8812008    428.28697  0.029206695  0.029384734            3 
 1223000     1.072288    -6.895176    428.05974   0.02916733  0.029376716            4 
 1224000    1.0871712   -6.8549208    429.08224  0.029213116  0.029368759            3 
 1225000    1.0526669    -6.899711    428.58921  0.029155728  0.029360553            3 
 1226000    1.0688894   -6.9131814    427.70759  0.029072022  0.029352186            4 
 1227000    1.0665936   -6.8387489    429.41129  0.029164037  0.029344108            3 
 1228000    1.0567758   -6.9051693    428.11313  0.029052194  0.029335922            4 
 1229000    1.0547564    -6.875648    429.09471  0.029095112  0.029327644            2 
 1230000    1.0557285   -6.8920248    428.78493   0.02905047  0.029319598            3 
 1231000    1.0374915   -6.9095105    429.29654  0.029061504  0.029311269            2 
 1232000    1.0586984   -6.8968146    429.96676   0.02908325  0.029303009            3 
 1233000    1.0450319   -6.8914614    428.97669  0.028992747   0.02929493            2 
 1234000    1.0641236   -6.9259062    429.44288  0.029000735  0.029286738            3 
 1235000    1.0438793   -6.9127303    431.87794  0.029141561  0.029278463            2 
 1236000    1.0639365   -6.8819324    431.26288  0.029076516  0.029270242            5 
 1237000    1.0652677   -6.8855049    431.04516  0.029038343  0.029262242            1 
 1238000    1.0514379   -6.8570845    432.11079  0.029086617  0.029254383            2 
 1239000    1.0344394   -6.8143291    433.30886  0.029143722  0.029246549            2 
 1240000    1.0519419   -6.8985595    433.22099  0.029114314  0.029238616            5 
 1241000    1.0410511   -6.8867365    432.95768  0.029073172   0.02923064            5 
 1242000    1.0341045   -6.9320369    431.71639  0.028966478  0.029222544            2 
 1243000    1.0604554   -6.8841701    432.53587  0.028998114  0.029214415            6 
 1244000    1.0621015   -6.8319521    434.51143  0.029107143  0.029206543            3 
 1245000    1.0685653   -6.8691952    433.98014  0.029048202   0.02919868            2 
 1246000    1.0519323   -6.9365816    432.21935  0.028907126  0.029190484            3 
 1247000    1.0415461   -6.9235223    434.33633  0.029025416  0.029182567            6 
 1248000    1.0411319   -6.8664495    434.81815  0.029034332    0.0291746            4 
 1249000    1.0535489   -6.9128565    433.90219  0.028949973  0.029166629            5 
 1250000    1.0551078   -6.9172084    432.83004  0.028855336  0.029158386            2 
 1251000    1.0629797     -6.85079    435.56729  0.029014607  0.029150249            4 
 1252000    1.0495466   -6.8808478    433.96934  0.028885073  0.029142323            4 
 1253000    1.0516305   -6.9012657    435.63811  0.028973005  0.029134184            2 
 1254000     1.056738   -6.9224622    433.82455  0.028829383  0.029125827            4 
 1255000    1.0583729   -6.8993815    436.10766  0.028958012  0.029117516            6 
 1256000    1.0664704   -6.9060259    435.78503   0.02891355  0.029109537            4 
 1257000    1.0661226   -6.9053543    435.75393  0.028888486   0.02910149            4 
 1258000    1.0531175    -6.929854    436.03517  0.028884152  0.029093264            5 
 1259000    1.0512647   -6.8951444    436.15275  0.028868993  0.029084975            5 
 1260000    1.0453748   -6.9283988    436.54022  0.028871708    0.0290767            5 
 1261000    1.0363593   -6.9156721    436.71415  0.028860306  0.029068584           11 
 1262000    1.0539737   -6.8916305    437.74693  0.028905634  0.029060401            3 
 1263000    1.0559023   -6.8936344    436.96216  0.028830969  0.029052162            5 
 1264000    1.0444125    -6.941571    436.25829  0.028761754  0.029043909            3 
 1265000    1.0404026   -6.9284223    435.32186   0.02867733  0.029035661            4 
 1266000    1.0492554     -6.93411    438.04021  0.028833611  0.029027393            6 
 1267000    1.0622013   -6.8780955    438.59384  0.028847266  0.029019338            5 
 1268000    1.0644309   -6.8838097    439.02874  0.028853098  0.029011345            3 
 1269000    1.0339158   -6.9151081    438.38432  0.028788043   0.02900344            3 
 1270000    1.0413035   -6.9044435     438.6183  0.028780728  0.028995424            4 
 1271000    1.0638528   -6.9131484    439.43602  0.028811698  0.028987411            4 
 1272000    1.0425156   -6.9184795    439.93838  0.028821959  0.028979326            6 
 1273000    1.0484215   -6.8975375    440.15938  0.028813785  0.028971223            2 
 1274000     1.036624   -6.8551183    440.83268  0.028835209  0.028963203            8 
 1275000    1.0683377   -6.9155357    439.86121  0.028749098  0.028955079            4 
 1276000    1.0275386   -6.9392146    439.49816  0.028702858  0.028946778            2 
 1277000    1.0589374   -6.8886087    441.05077    0.0287817  0.028938518            4 
 1278000    1.0469024   -6.9213721      440.735  0.028738589  0.028930348            2 
 1279000    1.0482184   -6.9098075    440.66574  0.028711607   0.02892209            2 
 1280000    1.0205765   -6.9200493    442.62594  0.028816793  0.028914001            8 
 1281000    1.0630227   -6.8726878    443.15229  0.028828538  0.028906011            5 
 1282000    1.0488771   -6.8901676     441.8561  0.028721795  0.028898149            5 
 1283000    1.0610377   -6.8664905    443.67185  0.028817345  0.028890317            2 
 1284000     1.062054   -6.9092818    442.08655  0.028692014  0.028882505            3 
 1285000    1.0465821   -6.9462018    441.42483  0.028626773   0.02887427            4 
 1286000    1.0586504   -6.9232377    442.86979  0.028698146  0.028866216            6 
 1287000    1.0595778   -6.9138959    442.85397  0.028674823  0.028858146            4 
 1288000    1.0432675   -6.9125537    443.85612  0.028717399  0.028850386            3 
 1289000    1.0150199   -6.8904073    444.11288   0.02871172   0.02884257            2 
 1290000    1.0654876    -6.891574    444.21707  0.028696193  0.028834721            2 
 1291000    1.0330512   -6.9324159    443.02689   0.02859714   0.02882678            4 
 1292000    1.0400736   -6.8823633    445.30079  0.028721671  0.028818514            3 
 1293000    1.0481307   -6.8759753      444.868  0.028671565  0.028810689            2 
 1294000    1.0316319   -6.8791447    443.83895  0.028583137  0.028802676            3 
 1295000    1.0528009   -6.8734846    446.23793  0.028715439  0.028794587            4 
 1296000    1.0213506   -6.9253724    444.57163  0.028586139  0.028786533            2 
 1297000    1.0353425   -6.8415208    445.32328  0.028612393  0.028778439            4 
 1298000    1.0305466   -6.9364187    444.82187  0.028558158  0.028770322            2 
 1299000    1.0317584   -6.8819377    444.79224  0.028534273  0.028762138            3 
 1300000    1.0545388   -6.9286239     444.8274  0.028514577  0.028754038            5 
 1301000    1.0717582   -6.9317381    444.60913  0.028478679  0.028745718            4 
 1302000    1.0234439    -6.903659     443.8917  0.028410887  0.028737456            5 
 1303000    1.0480086    -6.937284    444.37169  0.028419781  0.028729109            3 
 1304000     1.059674   -6.8986095    445.83977  0.028491805   0.02872085            2 
 1305000    1.0472179   -6.9373491    445.65968  0.028458473  0.028712647            2 
 1306000    1.0454614   -6.9147116    447.60535  0.028560832  0.028704203            4 
 1307000    1.0043343   -6.9210521    445.51038  0.028405405  0.028695868            4 
 1308000    1.0605694   -6.9095699    447.24038  0.028493908  0.028687589            4 
 1309000    1.0385946   -6.8973377    447.33501  0.028478164  0.028679336            4 
 1310000    1.0330879   -6.9096374    447.44597  0.028463484  0.028671202            4 
 1311000    1.0385916   -6.9530154     446.6234  0.028389486  0.028662955            5 
 1312000    1.0576762   -6.9120096    448.15927  0.028465401  0.028654751            3 
 1313000    1.0504641   -6.9425744    448.20533  0.028446645  0.028646555            2 
 1314000    1.0446979    -6.907691    447.71469  0.028393879  0.028638221            5 
 1315000    1.0168492   -6.9214237    448.97599  0.028452217  0.028630052            4 
 1316000    1.0221009   -6.9070597    449.56316  0.028467779  0.028621901           10 
 1317000    1.0538332   -6.9752419    445.70573  0.028202084  0.028613485            2 
 1318000    1.0556998   -6.9385206    449.70874  0.028433785  0.028604944            3 
 1319000    1.0390684   -6.9252836    447.64766  0.028282011  0.028596339            3 
 1320000    1.0339603   -6.9055396    449.24865  0.028361657  0.028587901            4 
 1321000    1.0323907   -6.9434892    448.85381   0.02831528   0.02857951            4 
 1322000    1.0504393   -6.9214055    449.75449  0.028350636  0.028570983            2 
 1323000    1.0430858   -6.9110144    449.81523  0.028333033  0.028562571            4 
 1324000    1.0545736    -6.966637    449.79761  0.028310524  0.028553978            4 
 1325000    1.0565448     -6.94591    449.39667  0.028263941  0.028545454            5 
 1326000    1.0185826   -6.9310812    450.27313  0.028297708  0.028536927            3 
 1327000     1.044223   -6.9353947    451.79904  0.028372208   0.02852853            4 
 1328000    1.0126485   -6.9479131    449.85946  0.028229133  0.028520179            5 
 1329000    1.0487578   -6.9053489    453.07113  0.028409276  0.028511825            4 
 1330000    1.0020998   -6.8984513    452.37092  0.028344043  0.028503608            6 
 1331000    1.0465467   -6.8981976    452.46077  0.028328373  0.028495257            3 
 1332000    1.0272544   -6.9692964    450.91181  0.028210198  0.028486999            4 
 1333000     1.062328   -6.9418858    451.10178  0.028200912  0.028478538            1 
 1334000    1.0482599   -6.9526567    449.43604  0.028075714   0.02846991            3 
 1335000    1.0560322   -6.9535137    450.51854  0.028122256  0.028461087            5 
 1336000    1.0266514   -6.9244291    453.38201  0.028279816  0.028452601            5 
 1337000    1.0398501   -6.9394748    452.45642  0.028200974  0.028444104            3 
 1338000    1.0269145    -6.913805    452.45422   0.02817976  0.028435571            4 
 1339000    1.0297613   -6.9460619    451.33675  0.028089168  0.028426975            3 
 1340000    1.0435939   -6.9281179    452.64221  0.028149391  0.028418559            3 
 1341000    1.0535614   -6.9037202    453.70115  0.028194205  0.028410225            2 
 1342000    1.0283636   -6.9683986    452.99542  0.028129373  0.028401977            3 
 1343000    1.0254405   -6.9359034    453.57123  0.028144156  0.028393489            2 
 1344000    1.0405811     -6.92055    454.40143  0.028174692  0.028385108            4 
 1345000    1.0279081   -6.9189551    454.97377  0.028189205  0.028376838            3 
 1346000    1.0321764    -6.938384    454.32832  0.028128301  0.028368436            7 
 1347000    1.0603841   -6.9602135    454.35719  0.028109205  0.028359992            7 
 1348000    1.0173146   -6.9130772    454.48612  0.028096323  0.028351649            4 
 1349000    1.0338202   -6.9406884    454.26299  0.028061712   0.02834325            5 
 1350000    1.0241914   -6.9215287    456.19096  0.028159936   0.02833492            6 
 1351000    1.0390876   -6.9538233    454.20763  0.028016755  0.028326553            2 
 1352000    1.0424823    -6.904103    456.06745  0.028110666  0.028318066            6 
 1353000    1.0285676   -6.9351224    456.47782  0.028115165  0.028309611            5 
 1354000    1.0374552   -6.9531935    456.10061  0.028071185  0.028301166            1 
 1355000    1.0499056   -6.9250564    458.18867  0.028178885  0.028292635            3 
 1356000    1.0185046   -6.9442644    456.09388  0.028029368  0.028284216            6 
 1357000    1.0502914   -6.9260626    455.90276  0.027996976  0.028275678            4 
 1358000    1.0117405   -6.9001387    456.69452  0.028024946  0.028267244            4 
 1359000    1.0217948   -6.9231669    456.05923  0.027965369  0.028258766            2 
 1360000    1.0401605   -6.9292013    456.26617  0.027957486  0.028250234            4 
 1361000    1.0319638   -6.9613938    456.28535  0.027938118  0.028241802            3 
 1362000    1.0283537   -6.9447732    457.37974  0.027984566  0.028233261            6 
 1363000    1.0402001   -6.9169611    458.93654  0.028059216  0.028224654            3 
 1364000    1.0449811   -6.9863396    456.03171  0.027861175  0.028216104            4 
 1365000    1.0294128   -6.9602567    457.79997  0.027948716  0.028207573            3 
 1366000   0.99842155   -6.9519805    459.09957  0.028007538  0.028199132            8 
 1367000    1.0306404   -6.9324282    458.88687  0.027974084    0.0281907            3 
 1368000    1.0201359   -6.9616624    459.19947  0.027972677  0.028182454            5 
 1369000    1.0240159   -6.9495918    458.37619   0.02790213   0.02817413            7 
 1370000    1.0524156   -6.9484622     459.7028  0.027962457  0.028165774            5 
 1371000    1.0100916   -6.9416772    459.49856  0.027929647  0.028157392            9 
 1372000     1.017167   -6.9549725    459.68171  0.027920415  0.028149029            5 
 1373000    1.0477857   -7.0026675    458.14986  0.027807105  0.028140463            3 
 1374000    1.0169281   -6.9750753     458.8021  0.027826425  0.028131902            6 
 1375000    1.0223584     -6.91549    461.13795  0.027947754  0.028123516            3 
 1376000    1.0267982   -6.9958468    458.84178  0.027788383  0.028114863            6 
 1377000    1.0286098    -6.921238    460.66424  0.027878494    0.0281062            3 
 1378000    1.0359169   -6.9492565    460.19985   0.02783018  0.028097711            3 
 1379000    1.0434289    -6.991151    459.87574  0.027790412  0.028089278            5 
 1380000    1.0154231   -6.9398509    461.07151  0.027842482    0.0280809            5 
 1381000    1.0105917   -6.9048664    462.39607  0.027902249  0.028072602            5 
 1382000    1.0187331   -6.9302691    461.72103  0.027841355  0.028064358            5 
 1383000    1.0274657   -6.9585853    461.90901  0.027832551  0.028056106            3 
 1384000    1.0205923   -6.9211548    463.44311  0.027904811  0.028047729            4 
 1385000    1.0186522   -6.9640924    460.98842  0.027736969  0.028039257            6 
 1386000    1.0048813   -6.9773372    461.65591  0.027757089  0.028030766            3 
 1387000   0.99762031   -6.9751787     462.9674  0.027815873  0.028022417           11 
 1388000    1.0460432   -6.9642879    463.66848  0.027837925   0.02801413            4 
 1389000    1.0629851   -6.9855209    462.50701  0.027748201  0.028005767            2 
 1390000    1.0252175   -6.9383844    464.93014   0.02787351  0.027997566            3 
 1391000    1.0279092   -6.9201638     465.3813  0.027880499  0.027989482            5 
 1392000    1.0281554   -6.9355803    463.28417  0.027734924  0.027981303            1 
 1393000    1.0390241     -6.96499    463.82696  0.027747485  0.027973158            8 
 1394000    1.0508009   -6.9654098     463.2778  0.027694751  0.027964923            7 
 1395000     1.046589   -6.9529367    465.58121  0.027812498  0.027956745            4 
 1396000    1.0407964   -6.9430607    465.77798  0.027804321  0.027948418            3 
 1397000    1.0235933   -6.9716036     464.7223  0.027721445  0.027940202            2 
 1398000     1.037371   -6.9477965    465.50611  0.027748338  0.027932005            3 
 1399000    1.0288228   -6.9459646    465.63337  0.027736083  0.027923822            4 
 1400000    1.0175374   -6.9815166    465.54858  0.027711225  0.027915677            3 
 1401000    1.0252375   -6.9535306    466.59862  0.027753903  0.027907484            3 
 1402000     1.020978   -6.9522381    466.08696  0.027703695  0.027899361            5 
 1403000    1.0208291   -6.9967324    465.68573  0.027660117  0.027891146            4 
 1404000    1.0361985   -6.9976681    466.03967  0.027661424  0.027883003            5 
 1405000    1.0136858   -6.9590035    466.74925  0.027683823  0.027874767            5 
 1406000    1.0293323   -6.9421826    466.49641  0.027649147  0.027866637            3 
 1407000    1.0104225   -6.9316499    468.59994  0.027754083  0.027858423            8 
 1408000    1.0014985   -6.9716882    466.95044  0.027636745  0.027850142            3 
 1409000    1.0187711   -6.9652904    468.09074  0.027684572   0.02784187            4 
 1410000    1.0013655   -6.9888946    465.74698  0.027526417  0.027833589            5 
 1411000    1.0271647   -6.9845116    467.64992  0.027619296   0.02782533           11 
 1412000    1.0291813   -6.9307901    468.17443  0.027630691  0.027817137            4 
 1413000    1.0338609   -6.9104596    470.37777  0.027741081  0.027809155            4 
 1414000    1.0341609   -6.9487876    470.04645  0.027701936  0.027801014            4 
 1415000    1.0299861   -6.9839577    469.08025  0.027625457  0.027792733            7 
 1416000    1.0076459   -6.9429312    468.65992   0.02758121  0.027784393            3 
 1417000    1.0298862   -6.9286991    469.39901  0.027605211  0.027776248            3 
 1418000    1.0247913   -6.9510857    469.51284  0.027592433  0.027767942            5 
 1419000    1.0356538   -6.9854881       470.12  0.027608645   0.02775963            5 
 1420000    1.0059221   -6.9962645    468.62395  0.027501405  0.027751236            4 
 1421000    1.0254295   -6.9820647    469.15967  0.027513469  0.027742971            4 
 1422000    1.0199115   -7.0177766    469.49836  0.027513968  0.027734568            5 
 1423000    1.0065361    -6.991204    470.45334  0.027550559  0.027726229            4 
 1424000    1.0251908   -6.9970539    469.29511  0.027463431  0.027717921            7 
 1425000    1.0419837   -6.9969943    470.57582  0.027519054  0.027709597            6 
 1426000    1.0229412   -6.9769252    470.12864  0.027473623  0.027701334            7 
 1427000    1.0237962   -6.9663192    471.28685  0.027522007  0.027692891            2 
 1428000    1.0341375   -6.9289731    471.68693  0.027526081  0.027684779            7 
 1429000    1.0339294   -6.9627123    471.63417  0.027503742  0.027676477            2 
 1430000    1.0234499   -6.9608907    473.53855  0.027595487   0.02766821            5 
 1431000    1.0205915   -6.9387141    473.40406  0.027568371  0.027659942            3 
 1432000    1.0133789   -7.0088992    471.69544  0.027449688  0.027651716            8 
 1433000    1.0204015   -6.9159212    474.70109  0.027605321  0.027643619            4 
 1434000    1.0184984   -7.0122505    472.01084  0.027429733  0.027635486            5 
 1435000    1.0124206   -6.9776812     472.7935  0.027456068  0.027627366            8 
 1436000    1.0477306   -6.9641224    473.37366  0.027470616  0.027619451            3 
 1437000    1.0255649    -6.965423    473.34831  0.027450029  0.027611328            2 
 1438000    1.0298819   -6.9799165    472.12107  0.027359821  0.027603004            5 
 1439000    1.0313548   -7.0129319    472.74191  0.027376761   0.02759454            6 
 1440000    1.0163137   -6.9450614    472.99109   0.02737217  0.027586252            6 
 1441000    1.0016742   -6.9867718    473.29584  0.027370798  0.027577996            4 
 1442000    1.0177411   -6.9798943    473.64957  0.027372259  0.027569618            7 
 1443000    1.0407564   -6.9957442     473.2595  0.027330763  0.027561459            4 
 1444000    1.0037261   -6.9767279    474.60584  0.027389534  0.027553183            6 
 1445000    1.0104427   -7.0098756    472.96613  0.027276017  0.027544697            4 
 1446000    1.0345733   -6.9740489    474.92226  0.027369886  0.027536311            4 
 1447000    1.0236146   -7.0002157    475.88914  0.027406654   0.02752799            2 
 1448000    1.0032534   -7.0042803    475.43238   0.02736144  0.027519604            2 
 1449000    1.0090075   -7.0204253    473.92215  0.027255702  0.027511159            6 
 1450000    1.0087321   -6.9552414    474.82417  0.027288745  0.027502796            3 
 1451000   0.97866962   -6.9700816    476.71454  0.027378505  0.027494672            2 
 1452000    1.0061165   -6.9687206    476.43818  0.027343789  0.027486396            8 
 1453000    1.0004371   -6.9536651    476.61529  0.027335128  0.027478185            5 
 1454000    1.0143503   -6.9942827    475.15359  0.027232553  0.027470093           11 
 1455000    1.0265038    -7.007892    476.76737  0.027306264  0.027461893            4 
 1456000    1.0282755   -6.9958043    476.10908  0.027249833  0.027453627            3 
 1457000    1.0036944   -7.0372395    474.92365  0.027163329  0.027445537            4 
 1458000     1.040323   -7.0165898    475.02812   0.02715067  0.027437255            5 
 1459000    1.0318095   -7.0205773    477.74715  0.027287363  0.027428999            3 
 1460000    1.0029437   -6.9674629    477.45476  0.027251984  0.027420805            5 
 1461000    1.0173354   -6.9984393    477.86724  0.027256859  0.027412721            3 
 1462000    1.0309343   -7.0288012    476.87234  0.027181506  0.027404462            7 
 1463000    1.0076557   -7.0252202    475.93889  0.027109757  0.027396309            8 
 1464000    1.0226996   -6.9863848    478.11682  0.027215211  0.027388108            3 
 1465000    1.0377596   -7.0106177    475.85978  0.027068247  0.027379901            6 
 1466000    1.0074969    -7.024048    478.12179  0.027178364  0.027371838            4 
 1467000    1.0118432   -6.9815833    480.68302  0.027305329  0.027363688            2 
 1468000    1.0112672   -7.0123181    479.86815  0.027240471  0.027355669            2 
 1469000   0.99547408   -6.9903033    480.15036  0.027237938  0.027347514            4 
 1470000    1.0222587   -6.9987812     479.0131  0.027154937  0.027339418            5 
 1471000     1.028444   -6.9841543    479.99096  0.027191874  0.027331391            6 
 1472000    1.0212141   -7.0146919    479.94773  0.027170954  0.027323396            4 
 1473000     1.024423   -6.9548794    481.20071  0.027223394  0.027315432            4 
 1474000    1.0039331   -7.0146789    480.99476  0.027193281  0.027307549            6 
 1475000    1.0122023   -6.9955597    481.10682  0.027181176  0.027299487            5 
 1476000    1.0203802   -7.0078922    480.42535  0.027124286  0.027291206            5 
 1477000    1.0316284   -6.9822773    480.96872  0.027136579  0.027283134            2 
 1478000    1.0158185   -7.0210022    480.45241  0.027089107  0.027274961            5 
 1479000    1.0145989   -6.9668123    482.14881  0.027166374  0.027266682            3 
 1480000    1.0443065   -6.9675512    481.71384  0.027123527  0.027258556            4 
 1481000    1.0126889   -6.9932878    482.54071  0.027151739  0.027250505            6 
 1482000   0.99839684   -6.9565789    483.77591  0.027202874  0.027242534            4 
 1483000    1.0196723   -7.0009746    482.66984  0.027122378  0.027234645            3 
 1484000    1.0000029   -6.9827548    483.30713  0.027139888  0.027226499            4 
 1485000    1.0286279   -6.9896502    481.71931  0.027032509  0.027218382            3 
 1486000    1.0173714   -7.0154712    481.30469  0.026991066  0.027210311            4 
 1487000    1.0064981   -6.9802213    482.08242    0.0270165  0.027202258            2 
 1488000   0.98528773   -6.9847853    483.40028  0.027072149   0.02719426            7 
 1489000      1.00805   -6.9669761    484.28076  0.027103244  0.027186347            4 
 1490000    1.0064359   -6.9904715    484.86039  0.027117471  0.027178375            6 
 1491000    1.0106143    -6.992568    484.18375  0.027061466  0.027170431            3 
 1492000   0.99307931   -6.9611442    485.95556   0.02714229  0.027162687            4 
 1493000     1.000763   -6.9935642    485.04155  0.027073094  0.027154853            6 
 1494000    1.0158956    -7.027095    483.98109  0.026995822   0.02714696            2 
 1495000    1.0100184   -7.0232679    484.83457  0.027025338  0.027138809            3 
 1496000     1.011989    -7.043365    484.34238  0.026979856  0.027130544            3 
 1497000    1.0084429   -7.0169232    485.40709  0.027021103  0.027122382            4 
 1498000    1.0371899   -7.0052377    483.68558  0.026907298  0.027114138            5 
 1499000    1.0281445   -6.9860276    486.12487  0.027024954  0.027105952            1 
 1500000    1.0166564   -7.0127745    484.43402  0.026913001  0.027097797            3 
 1501000    1.0037297   -7.0069736     484.8183  0.026916406  0.027089626            4 
 1502000    1.0066406    -7.039598    483.94335  0.026849942   0.02708139            7 
 1503000    1.0147893   -6.9571878    485.93113  0.026942289  0.027073161            3 
 1504000    1.0100595   -7.0113268    485.53549  0.026902454  0.027064946            2 
 1505000    1.0232342   -7.0132404    484.18243  0.026809658  0.027056632            4 
 1506000    1.0069475   -7.0550145    483.08264  0.026731001  0.027048316            2 
 1507000     1.023979   -6.9970253    484.93682  0.026815794  0.027039865            3 
 1508000    1.0232582   -6.9469203    488.14947  0.026975546  0.027031591            4 
 1509000    1.0046425   -6.9812941     486.4289  0.026862652   0.02702338            6 
 1510000   0.99326067   -7.0165578    485.88389  0.026814784  0.027015086            3 
 1511000    1.0119987   -6.9940854    487.51984  0.026887262   0.02700675            5 
 1512000    1.0301574   -6.9966249    486.79223  0.026829378   0.02699848            3 
 1513000    1.0083362   -7.0048195    486.95707  0.026820724  0.026990173            4 
 1514000    1.0052999   -7.0108925      487.411  0.026827994  0.026981843            3 
 1515000    1.0221877   -7.0177549    486.87889  0.026781017  0.026973601            5 
 1516000    1.0003755   -7.0202601    487.06556  0.026773613  0.026965275            5 
 1517000   0.99775044   -7.0129587    485.98775  0.026696756  0.026956896            5 
 1518000   0.99078804   -7.0136298    487.27349  0.026749753  0.026948566           11 
 1519000    1.0285068   -7.0069959    488.87117  0.026819792  0.026940072            3 
 1520000    1.0043921    -7.003265    487.78527  0.026742614  0.026931715            4 
 1521000     1.035703   -7.0160082    488.11443  0.026743065  0.026923227            5 
 1522000    1.0212126   -7.0373595    487.92845  0.026715311  0.026914747            2 
 1523000   0.99423659    -6.995444    489.21566  0.026768202  0.026906541            3 
 1524000    1.0060081   -7.0467691    488.82516  0.026729285  0.026898384            3 
 1525000    1.0045087   -7.0340057    489.06786   0.02672502  0.026889983           13 
 1526000    1.0098806   -6.9879721    489.87692  0.026751689  0.026881661            3 
 1527000    1.0010336   -7.0197923    489.72785  0.026726034  0.026873387            7 
 1528000   0.99777224   -7.0207191    489.61998   0.02670266  0.026865205            4 
 1529000   0.99089871     -7.03156    489.69114  0.026689075  0.026856916            6 
 1530000    1.0038966   -7.0331017    489.92056  0.026684126  0.026848844            7 
 1531000    1.0221465   -7.0350971    489.67957   0.02665358  0.026840875            7 
 1532000    1.0215332   -7.0014859    490.54742  0.026683389  0.026832694            2 
 1533000    1.0069038   -7.0411597    491.21822  0.026702447  0.026824496            8 
 1534000    1.0261566   -7.0693109    489.60556  0.026597434  0.026816325            2 
 1535000    1.0178803   -6.9933373    491.16578  0.026664809  0.026808086            4 
 1536000    1.0115505   -7.0019576    491.08246  0.026642928   0.02679976           10 
 1537000    1.0140076   -7.0446566    491.76708  0.026662713  0.026791468            5 
 1538000   0.99463876   -7.0202643    491.31647  0.026620962   0.02678326            6 
 1539000    0.9837706   -6.9925097    492.40006  0.026662338  0.026775057            5 
 1540000    1.0110705   -7.0382423     490.8738  0.026562435  0.026766868            6 
 1541000    1.0268165   -7.0312811    491.30766   0.02656866    0.0267587            4 
 1542000    1.0000598    -7.016337     492.9703  0.026641283  0.026750406            7 
 1543000    1.0294563   -7.0116943    493.31801  0.026642796  0.026742348            3 
 1544000    1.0138277   -6.9868087     494.6495  0.026697404  0.026734253            4 
 1545000   0.99166986   -7.0187441     493.3487  0.026609962  0.026726189            2 
 1546000   0.98745928   -7.0277023    491.25179  0.026479721  0.026717905            6 
 1547000   0.98238525   -6.9980172     494.2721  0.026625302  0.026709756            6 
 1548000   0.99803917   -7.0065572    494.69583  0.026630912  0.026701502            7 
 1549000   0.99863991   -7.0101417     492.5372   0.02649759  0.026693231            2 
 1550000   0.99446614    -7.003725    494.11151  0.026565135  0.026685033            5 
 1551000    1.0193522   -7.0015269    493.78734   0.02653059  0.026676865            3 
 1552000   0.99995742   -6.9902125    494.00606  0.026525239  0.026668584            3 
 1553000    1.0055781   -7.0408071    493.72321  0.026492982  0.026660289            3 
 1554000    1.0001787   -6.9981783    493.80492  0.026480315  0.026652067            4 
 1555000    1.0221411   -7.0680008    492.52692  0.026394797  0.026643841            8 
 1556000    1.0120902   -7.0337206    493.92986   0.02645297  0.026635474            6 
 1557000   0.99383786   -7.0398203    493.62137  0.026419469  0.026627167           10 
 1558000   0.99858714   -7.0761164    493.14728  0.026377155  0.026618661            5 
 1559000    1.0225509   -7.0220284    494.40288  0.026427351  0.026610238            2 
 1560000    1.0084878   -7.0595016    494.00258  0.026389026  0.026601877            3 
 1561000    1.0034253   -7.0480918     494.8094  0.026415193  0.026593465            3 
 1562000    1.0212711   -7.0296637    494.75959  0.026395625  0.026585097            4 
 1563000   0.98900541   -7.0397715    495.93078   0.02644118  0.026576865            3 
 1564000   0.98800022   -7.0147631    494.94904  0.026371965  0.026568594           10 
 1565000    1.0079338    -7.030368    495.77384  0.026399033  0.026560209            7 
 1566000    1.0180188    -7.073546    494.28048  0.026302707  0.026551759            4 
 1567000    1.0065704   -6.9990876    496.79882  0.026419848  0.026543427            6 
 1568000    1.0015167   -7.0031424    498.75398  0.026506908  0.026535329            7 
 1569000    1.0077617   -7.0026401    497.61207  0.026429364  0.026527229            5 
 1570000   0.99038944   -7.0305263    496.42226  0.026349377   0.02651902            3 
 1571000    1.0123664    -7.017483    497.97191  0.026414806   0.02651078            4 
 1572000    1.0098816   -7.0499641    496.15803  0.026301846  0.026502562            3 
 1573000    0.9937413   -7.0223946    497.47582  0.026354939  0.026494197            2 
 1574000    1.0212795   -7.0318728    496.80985  0.026302936  0.026486169            3 
 1575000   0.98907752   -7.0252455     498.0417  0.026351413  0.026478088            3 
 1576000      1.01553   -7.0321976     497.6972  0.026316476  0.026469974            8 
 1577000   0.99068866   -7.0496372    498.14691  0.026323552   0.02646192            3 
 1578000   0.98620527   -7.0319414    499.38379   0.02637219  0.026453843            4 
 1579000   0.99981959   -7.0598643    499.10799  0.026340933   0.02644577            7 
 1580000   0.99665035     -7.08627    498.26037  0.026279555  0.026437603            4 
 1581000    1.0140362   -7.0764482       499.88  0.026348303  0.026429801            4 
 1582000    1.0013003   -7.0123446    499.71706  0.026323065  0.026421889            5 
 1583000   0.97155113   -7.0293553    501.73724  0.026412784  0.026414031            2 
 1584000   0.99288162   -7.0548824    499.89507  0.026299194  0.026406177            5 
 1585000    1.0005298   -7.0347124    500.97205  0.026339225  0.026398255            4 
 1586000    1.0058016   -7.0291427    501.40058  0.026345134   0.02639041            4 
 1587000   0.99369188   -7.0438157    499.86898  0.026248109  0.026382473            4 
 1588000   0.98779516   -7.0417724    501.26183  0.026304672  0.026374483            2 
 1589000     1.000282   -7.0177534    501.58775   0.02630521  0.026366544            5 
 1590000    1.0035612   -7.0898746    500.49212  0.026231243  0.026358295            3 
 1591000   0.97465069   -7.0529303    500.93643  0.026238028  0.026350218           17 
 1592000    1.0123487   -7.0512741       499.79  0.026161537  0.026342182            3 
 1593000   0.97119205   -7.0644546    501.15951  0.026216756  0.026334178            4 
 1594000   0.98022328   -7.0752421    501.76984  0.026232217  0.026326035            4 
 1595000    0.9903843   -7.0584111    500.72411  0.026161134  0.026317796            4 
 1596000    1.0156526   -7.0263748    502.63142   0.02624433   0.02630964            3 
 1597000    1.0051432   -7.0315929      500.984  0.026141933  0.026301593            5 
 1598000    1.0066792   -7.0169896    503.39493    0.0262513  0.026293593            7 
 1599000   0.98881628   -7.0510492     503.3202  0.026230988  0.026285575            5 
 1600000    1.0093655   -7.0509882    502.14832  0.026153558  0.026277473            4 
 1601000    1.0041876   -7.1016476    501.45818    0.0261013  0.026269355            4 
 1602000     1.010753   -7.0717716    503.05145  0.026167886  0.026261254            3 
 1603000    1.0128466   -7.0738248    501.94489  0.026094037  0.026253094            5 
 1604000    1.0134421   -7.0590731    503.91216  0.026179975  0.026245084            8 
 1605000   0.99521208   -7.0274752    503.49245  0.026141872  0.026237169           10 
 1606000   0.98631086   -7.0458218     503.9827  0.026151033  0.026229165            5 
 1607000   0.99211704   -7.0776578    504.10896  0.026141307  0.026221141            2 
 1608000    1.0043786   -7.0693313    503.38216  0.026087384  0.026213198            7 
 1609000   0.97882918   -7.0760649    505.11089  0.026160705  0.026205133            3 
 1610000   0.99872786   -7.0348428     504.9193   0.02613454  0.026197107            4 
 1611000   0.97926342   -7.0481011    504.42814   0.02609291  0.026188981            3 
 1612000   0.98796137   -7.0287611    506.01323  0.026158666  0.026181075            3 
 1613000   0.98157274   -7.0783872    503.36557  0.026005661  0.026173044            4 
 1614000   0.99568554   -7.0455888    506.18371  0.026135053   0.02616492            3 
 1615000   0.98936383   -7.0637117    504.96694  0.026056086  0.026156815            5 
 1616000     1.007578   -7.0607079    504.87669  0.026035308  0.026148761            2 
 1617000    1.0064335   -7.0767453     505.2455  0.026038214  0.026140882            5 
 1618000    1.0159848   -7.0472677    505.38812  0.026029466  0.026132936            5 
 1619000   0.99187664   -7.0782914    505.37521  0.026012724  0.026124995            3 
 1620000   0.99744594   -7.0791699    505.61295  0.026008896  0.026116958            1 
 1621000   0.97972002   -7.0232342    507.41006  0.026085238  0.026109121            7 
 1622000    1.0135478   -7.0799037    506.07819  0.026000729  0.026101269            6 
 1623000    0.9941337    -7.043427    507.46102  0.026055711  0.026093393            5 
 1624000    1.0121229   -7.0822233    506.39753  0.025985095  0.026085424            4 
 1625000   0.98722638   -7.0732364    507.68677  0.026035219  0.026077633            4 
 1626000   0.98331343   -7.0675312    507.23531  0.025996069  0.026069836            5 
 1627000   0.97670911   -7.1036754     506.8664  0.025961196  0.026061941            3 
 1628000   0.99155293   -7.0476095    507.60864  0.025983243   0.02605407            4 
 1629000   0.99657489   -7.0498047    507.20066  0.025946422  0.026046254            3 
 1630000    1.0071124   -7.0669625     508.6658  0.026005409  0.026038366            7 
 1631000   0.98756257   -7.0355845    508.47409   0.02597967  0.026030318            7 
 1632000   0.99860208   -7.0648625    508.25027  0.025952322  0.026022382            3 
 1633000   0.99153333   -7.1150115     507.5944   0.02590296  0.026014361            3 
 1634000   0.99444757   -7.0685705    508.02472  0.025909053  0.026006298            5 
 1635000    1.0076238    -7.057291      508.235  0.025903924  0.025998339            4 
 1636000   0.99120572   -7.0297647    508.09916  0.025881172  0.025990416            4 
 1637000   0.98706736   -7.0507509    509.99918  0.025962084  0.025982462            7 
 1638000    0.9836635   -7.0628081    509.50281  0.025920981  0.025974539            3 
 1639000   0.98929767   -7.0789967     509.7945  0.025919997  0.025966647            3 
 1640000   0.99800239   -7.0633466    510.27439  0.025928577  0.025958691           11 
 1641000   0.98487111   -7.0849778    510.43484  0.025920924  0.025950886            6 
 1642000   0.99900909     -7.05454    511.82089  0.025975481   0.02594311            6 
 1643000   0.98515903   -7.0331072    510.76774  0.025906256  0.025935352            5 
 1644000   0.99246182    -7.062768     509.8546  0.025844211  0.025927533            5 
 1645000   0.98406274   -7.0331578    512.00621  0.025937498  0.025919868            3 
 1646000    1.0001606   -7.0350742    511.09992  0.025875857  0.025912107            6 
 1647000   0.99610678   -7.0401772    511.16418  0.025863397  0.025904161            3 
 1648000   0.96783807   -7.0890734     510.0164  0.025789664  0.025896155            5 
 1649000     1.016355   -7.0460794     512.3505   0.02589198  0.025888319            5 
 1650000   0.98871595   -7.0745425    512.81504   0.02589975  0.025880481            4 
 1651000   0.99437901   -7.0735111    512.67551  0.025877019  0.025872706            4 
 1652000   0.98210137   -7.0767542    511.79391  0.025816884  0.025864956            7 
 1653000   0.96562527   -7.0650107    512.58069   0.02584093  0.025857308            5 
 1654000    1.0117165   -7.0847419    512.08232  0.025800197  0.025849459            3 
 1655000   0.99349079   -7.0639755    511.79557   0.02577017  0.025841604            2 
 1656000   0.99559914   -7.0686453    511.01553  0.025715355  0.025833765            3 
 1657000    0.9771476   -7.0793026    513.32664  0.025816065  0.025825978            3 
 1658000    1.0005715   -7.0644497    513.26818  0.025797556  0.025818255            8 
 1659000   0.98341102   -7.0961825    512.73962  0.025755456  0.025810471            4 
 1660000    1.0001468   -7.0772186    513.41306  0.025773748  0.025802702            4 
 1661000    1.0119224   -7.1003076    513.45643  0.025760407  0.025794871            3 
 1662000    1.0008218    -7.072431    514.47524  0.025795991  0.025787064            5 
 1663000   0.99686622    -7.086908    513.46095  0.025729653  0.025779312            5 
 1664000   0.97080461   -7.0754359    513.09202  0.025695714  0.025771505            3 
 1665000   0.99485625   -7.0837029    513.35465  0.025693426  0.025763611            3 
 1666000   0.99663951   -7.0486723    514.27513  0.025724046  0.025755781            4 
 1667000   0.98586998   -7.0547968    514.84992  0.025737348   0.02574798            5 
 1668000   0.97378604   -7.1134816    514.53669  0.025706269  0.025740093           14 
 1669000    1.0047268   -7.0936001    514.27234  0.025677668  0.025732059            5 
 1670000   0.99964061   -7.0977172    513.46518  0.025622015  0.025724167            5 
 1671000    1.0021454   -7.0891952    513.70472  0.025618628   0.02571613            4 
 1672000   0.97068828   -7.0749149    515.13991  0.025674836    0.0257082            6 
 1673000    1.0009059   -7.1157004    512.57417  0.025531688  0.025700245           10 
 1674000   0.96335222   -7.1249008    513.94292  0.025584574  0.025692229            3 
 1675000   0.97617883   -7.1084323    515.39679  0.025641631  0.025684247           11 
 1676000   0.98129585   -7.1226236    513.33961  0.025524046  0.025676229            1 
 1677000   0.95779115   -7.1184839    513.21435  0.025502601  0.025668177            8 
 1678000   0.97151775    -7.091269    515.71518    0.0256116  0.025660147            4 
 1679000   0.97774431   -7.0991829    516.06676  0.025613796   0.02565229            4 
 1680000   0.98962474   -7.0829924    515.84877  0.025587736  0.025644462            4 
 1681000   0.97956787    -7.087202    516.50724  0.025605158  0.025636667           10 
 1682000    0.9639512   -7.1047785    516.22891  0.025576145  0.025628732            3 
 1683000   0.97891452   -7.0892762    515.73782  0.025536632  0.025620718            6 
 1684000   0.99671493   -7.1177685    515.90698  0.025529838  0.025612714            7 
 1685000   0.99792038   -7.0860673    517.12187  0.025574771  0.025604738            7 
 1686000   0.98708618    -7.084782    516.15092  0.025511611  0.025596804            4 
 1687000   0.99204079   -7.1139083    517.11199  0.025543963  0.025588954           10 
 1688000   0.99480242   -7.0961463    516.29302  0.025488399  0.025581053            4 
 1689000   0.97649352   -7.0751817    517.34571  0.025525247  0.025573141            4 
 1690000   0.99507195    -7.051583    519.64438   0.02562349  0.025565424            5 
 1691000   0.98716325   -7.0980272    518.75176  0.025564349  0.025557733            5 
 1692000   0.99765469   -7.0790195    518.45511  0.025534629   0.02554989            4 
 1693000   0.98089658   -7.1432151    517.77305  0.025485974  0.025542064            4 
 1694000   0.98328576   -7.1004843    518.07932  0.025485995  0.025534243            7 
 1695000    1.0048229   -7.0909657    520.68563  0.025599097  0.025526353            7 
 1696000   0.97969056   -7.0752283    519.16157  0.025509118  0.025518547            5 
 1697000   0.97125823   -7.0674241    520.40948  0.025555367  0.025510831            6 
 1698000   0.96891454   -7.0530669    519.79733  0.025510273  0.025503008            8 
 1699000   0.97188396   -7.0875086    518.04343  0.025409232  0.025495187            5 
 1700000   0.98508578   -7.0787702    518.91189  0.025436857   0.02548747            4 
 1701000   0.98328321   -7.0979624    519.67749  0.025459411  0.025479725            4 
 1702000   0.96868499   -7.1112543    519.60199  0.025440755  0.025471905            7 
 1703000   0.98696037   -7.0382895    520.92011  0.025490317  0.025464189            6 
 1704000   0.96990655   -7.1052531    520.40378  0.025450107  0.025456476            6 
 1705000   0.96406685   -7.0845456    520.73977  0.025451602  0.025448654           12 
 1706000   0.97644939   -7.1190294    520.53728  0.025426792  0.025440963            2 
 1707000   0.98060568   -7.1200827    518.72074  0.025323215   0.02543331            6 
 1708000   0.97746334   -7.0758272    521.65715  0.025451657  0.025425672            4 
 1709000    1.0053526    -7.094639    521.14944  0.025412007  0.025417995            2 
 1710000   0.97850642   -7.1028562     521.4635  0.025412451  0.025410227            2 
 1711000   0.97400196   -7.1493878    520.41088  0.025346332  0.025402526            5 
 1712000   0.95091087   -7.1215221    522.21989  0.025419582   0.02539472            5 
 1713000    0.9940877   -7.0798153    521.65231  0.025377131  0.025387016            3 
 1714000   0.98854452   -7.1254311    522.01837  0.025380123  0.025379276            5 
 1715000   0.99216209   -7.1304432    521.25106   0.02532804  0.025371558            3 
 1716000   0.99547087   -7.1012975    521.51693  0.025326191  0.025363826            7 
 1717000   0.97992562   -7.1260928     521.2228  0.025297166     0.025356            7 
 1718000   0.96354176   -7.1090385    521.92867   0.02531668  0.025348206            6 
 1719000   0.98176239   -7.1272797    521.62159  0.025287066  0.025340343            4 
 1720000   0.97763444   -7.1095192    522.31678  0.025306045  0.025332636            3 
 1721000   0.97326111   -7.0789518    523.02775  0.025325768  0.025324978            5 
 1722000   0.98393073   -7.0790021     524.3438  0.025374748  0.025317303            8 
 1723000   0.96689872   -7.0842051    522.29162  0.025260767  0.025309511            2 
 1724000   0.96613086   -7.0631243    524.16888  0.025336856    0.0253017            5 
 1725000   0.97460066   -7.0754872    523.75613  0.025302228   0.02529378            2 
 1726000   0.97485229   -7.0760531    523.89616   0.02529433  0.025286003            4 
 1727000    0.9709943   -7.0843526    524.24813  0.025296667  0.025278164            3 
 1728000   0.96294814   -7.0828368     523.7649  0.025258724  0.025270335            3 
 1729000   0.97834767   -7.0961526    523.65432  0.025238786  0.025262478            5 
 1730000   0.98553219   -7.1296512    523.75663  0.025229125  0.025254695            5 
 1731000   0.95009915   -7.1022248    524.27882  0.025239689  0.025247016            7 
 1732000   0.98569877   -7.0861125    524.54477  0.025237912  0.025239228            5 
 1733000    0.9675944   -7.1213672    523.85787  0.025190319  0.025231481            4 
 1734000   0.98080048   -7.1234976    522.82186  0.025126002  0.025223716            5 
 1735000   0.97145795   -7.1391681    523.01364  0.025120732  0.025215866            5 
 1736000   0.99214874   -7.1308429    524.61691  0.025183223  0.025207985            4 
 1737000   0.97019932   -7.0979608    524.98788  0.025186523   0.02520017            5 
 1738000   0.96959532   -7.1340541     524.6734  0.025156953  0.025192335            9 
 1739000   0.97885537   -7.1569625    523.74355  0.025097928   0.02518445            6 
 1740000   0.97661616   -7.1314548    525.23559  0.025154961  0.025176664            6 
 1741000   0.95748483   -7.1059298    525.68402  0.025161977  0.025168779            4 
 1742000   0.97712303   -7.1083003    524.44418  0.025088222   0.02516093            4 
 1743000   0.95194232   -7.1175039    525.70628  0.025134169   0.02515316            6 
 1744000   0.95170578   -7.1413253    526.59922  0.025162425  0.025145347            5 
 1745000   0.95268011   -7.1255612     525.8882  0.025114049  0.025137482            4 
 1746000   0.95397194   -7.0922579    525.76367  0.025093722  0.025129561            4 
 1747000   0.97208973   -7.1085426    526.07359  0.025094142  0.025121598            5 
 1748000   0.96482214   -7.1076205    525.72204  0.025063026  0.025113675           11 
 1749000   0.96388684   -7.1293237    524.53132  0.024991963  0.025105721            4 
 1750000   0.95434907    -7.131261    524.70675  0.024986036  0.025097839            5 
 1751000   0.96403079   -7.0740667    527.51242  0.025105293  0.025090059            3 
 1752000   0.97205017   -7.0771464    528.74356  0.025149523  0.025082349            4 
 1753000   0.95624701    -7.100567    527.38324  0.025070509   0.02507466            7 
 1754000   0.95550897   -7.0977186      528.433  0.025106091  0.025066969            5 
 1755000   0.99206546   -7.1149551    526.51059  0.025000503  0.025059168            8 
 1756000   0.96672924   -7.1269397    527.18638  0.025018336  0.025051362           10 
 1757000   0.94761096   -7.0731108    528.67754  0.025074822  0.025043543            5 
 1758000   0.97088865    -7.132522    527.01267   0.02498164  0.025035704            6 
 1759000    0.9754171    -7.135249    526.93879  0.024963937  0.025027783            5 
 1760000   0.98320159   -7.1994732    524.61629  0.024839787  0.025019824            4 
 1761000   0.98170389    -7.168935      526.613  0.024920169  0.025011879            2 
 1762000   0.96127011   -7.0944455    528.52886  0.024996635  0.025003961            6 
 1763000   0.99048475   -7.1403605    527.13559    0.0249166  0.024996089            7 
 1764000   0.97975775   -7.1172767    529.13744  0.024997044  0.024988195            2 
 1765000   0.96952202   -7.1094617    528.83965  0.024968822  0.024980325            5 
 1766000   0.95817164    -7.108676    528.43851  0.024935754  0.024972511            4 
 1767000   0.97866003   -7.1662103    527.21966   0.02486416   0.02496466            2 
 1768000   0.96298532   -7.1262239    529.59684  0.024962144  0.024956701            7 
 1769000   0.97249918   -7.1478628    528.29156  0.024886544  0.024948791            5 
 1770000   0.98522592   -7.1342094    528.23016  0.024869593  0.024940838           13 
 1771000   0.99054117   -7.1551435    527.99725  0.024844591  0.024932852            6 
 1772000   0.96032358   -7.1713363    527.54312  0.024809214  0.024924903            6 
 1773000   0.95488724   -7.0733791    531.66702  0.024989049  0.024917036            5 
 1774000   0.95675389   -7.1133181    530.03471  0.024898286  0.024909188            9 
 1775000   0.97998027   -7.1116268    530.33453  0.024898335  0.024901296           10 
 1776000   0.97763444    -7.102157    530.84648  0.024908337  0.024893426            4 
 1777000   0.95767745   -7.1108331    530.07014  0.024857913  0.024885669            5 
 1778000   0.96401517   -7.1441077    528.58621  0.024774382  0.024877749            8 
 1779000   0.98651737    -7.098201    530.82402  0.024865281  0.024869867            4 
 1780000   0.94863489   -7.1386553    530.27108  0.024825425  0.024861913            7 
 1781000   0.95085012   -7.1132943    530.21571  0.024808895  0.024854076            6 
 1782000   0.95986822   -7.1222901    531.13675  0.024838045  0.024846264            3 
 1783000   0.97793084   -7.1324744    531.57279  0.024844494  0.024838404            6 
 1784000   0.95015521   -7.1369779    530.98492  0.024803107  0.024830524            4 
 1785000    0.9858717   -7.1895721    528.96764  0.024695035  0.024822655            8 
 1786000   0.96707572   -7.2006603    529.83059  0.024721472  0.024814726            4 
 1787000   0.96554841   -7.1442791    531.32152  0.024777165  0.024806695            6 
 1788000   0.96862749   -7.1463247    531.37994   0.02476603  0.024798709            4 
 1789000   0.95013164   -7.1534698    531.14148  0.024741079  0.024790778            8 
 1790000   0.96896775   -7.1502981    531.53974  0.024745798  0.024782811            4 
 1791000   0.95993679   -7.1676854    531.56671  0.024733236  0.024774926            3 
 1792000   0.96861572   -7.1438984    532.73043   0.02477355  0.024767031            3 
 1793000   0.96741645   -7.0955823    533.44353  0.024792876  0.024759212            6 
 1794000   0.97249019   -7.1337746     533.7755  0.024794477  0.024751472            9 
 1795000   0.97275315   -7.0909095    534.71213  0.024824147  0.024743703            4 
 1796000   0.97094216   -7.1839853    531.09992  0.024642721  0.024735965            4 
 1797000   0.98549545   -7.1798536    532.73183  0.024704685  0.024728159            4 
 1798000   0.96150913   -7.1674792      533.606  0.024731461  0.024720295            5 
 1799000    0.9754503    -7.116281    532.80174  0.024680459  0.024712498            6 
 1800000   0.96547642   -7.1042393    534.67467  0.024753457   0.02470476            6 
 1801000   0.97537664   -7.1304078     534.9864  0.024754137  0.024697001            4 
 1802000   0.95765561   -7.1221932    534.16307  0.024702325  0.024689204            8 
 1803000   0.95147155   -7.1388143    533.60557  0.024662857  0.024681582            4 
 1804000   0.98691473   -7.1088665    535.97296  0.024758544  0.024673954            3 
 1805000   0.95588703     -7.13888    533.46495  0.024629038  0.024666269            3 
 1806000   0.96643199   -7.1049225      534.432  0.024660022  0.024658632            5 
 1807000   0.96468808   -7.1545412    534.04492  0.024628524  0.024651014            9 
 1808000   0.94874575   -7.1237897    537.69296  0.024783046  0.024643447            8 
 1809000   0.96010966   -7.1199186    535.75894  0.024680253  0.024635913            3 
 1810000    0.9667548   -7.1661763    534.53248  0.024610151  0.024628361            3 
 1811000   0.96405654   -7.1408582     535.2746  0.024630711  0.024620679            4 
 1812000   0.97001201   -7.1327653    535.96855  0.024649032  0.024613079            5 
 1813000   0.95020158   -7.1225863    536.93747  0.024679972  0.024605457            3 
 1814000   0.94810867    -7.164447    534.22273  0.024541654   0.02459781            4 
 1815000   0.95153839   -7.1936116    534.60249  0.024545569  0.024590101            2 
 1816000   0.95037254   -7.1715223    537.53327  0.024666541  0.024582418            3 
 1817000    0.9805807   -7.1753991    536.56369  0.024608498   0.02457482            5 
 1818000   0.96724651   -7.1394297    537.52011  0.024638802  0.024567285           11 
 1819000   0.96735357   -7.1482512    538.01703  0.024648022  0.024559766           10 
 1820000   0.95645847   -7.1276383    538.67405  0.024664563  0.024552295            6 
 1821000   0.94812282   -7.1433695    537.44353  0.024594707  0.024544821            7 
 1822000   0.96144782   -7.1249335    538.65818  0.024636763  0.024537326            5 
 1823000   0.95343619   -7.1474808    537.61264  0.024575454   0.02452971            4 
 1824000   0.95262522   -7.1199781    538.43284  0.024599454  0.024522097            5 
 1825000   0.93559861   -7.1327496    538.60739  0.024593945  0.024514534            4 
 1826000   0.95811188   -7.1709618    537.53742  0.024531646  0.024506881            5 
 1827000   0.95853672   -7.1598991    537.15603  0.024500822  0.024499161            4 
 1828000   0.96124939     -7.15994    538.41332  0.024544736  0.024491586            4 
 1829000   0.96471185   -7.1423734    539.92282  0.024600092  0.024484041            4 
 1830000   0.95695173   -7.1671413    538.26576  0.024511191   0.02447641            3 
 1831000   0.95532334   -7.1414042    538.93157  0.024528107  0.024468803            3 
 1832000   0.95346356   -7.1717641    538.48534  0.024494421  0.024461128            9 
 1833000   0.95042889   -7.1640128    540.26752   0.02456208  0.024453482            8 
 1834000   0.96690454    -7.132785    539.00553  0.024491345  0.024445831            3 
 1835000   0.96681385   -7.1711101    537.55193  0.024411986  0.024438252            6 
 1836000   0.97508723   -7.1756622    540.04771  0.024511969  0.024430649            5 
 1837000   0.93850328   -7.2049621    538.54245  0.024430341   0.02442293            4 
 1838000   0.95572348   -7.1579081    538.83865  0.024430479  0.024415194            5 
 1839000   0.93788886   -7.1926766    540.01774  0.024470624  0.024407425            6 
 1840000   0.98287233   -7.2070069    538.48346  0.024387838  0.024399676            4 
 1841000   0.95013825   -7.1999717    538.25452  0.024364228  0.024391876            3 
 1842000   0.95360129   -7.1810322    538.57064  0.024365302  0.024384152            5 
 1843000   0.94491006   -7.2025155    539.17586  0.024379448  0.024376454            4 
 1844000    0.9648129   -7.1943488    537.02753   0.02426914  0.024368647            4 
 1845000   0.97777919   -7.2152895    539.71147  0.024377212   0.02436084            6 
 1846000   0.94534499   -7.1571392    540.57613   0.02440304  0.024353071            5 
 1847000   0.94494487   -7.1717554    541.00819  0.024409321  0.024345468            6 
 1848000   0.94885456   -7.1918925    539.92627  0.024347325  0.024337812            8 
 1849000   0.94512092   -7.1093771    541.58052  0.024408713  0.024330202            6 
 1850000   0.94717786   -7.1686616    540.16201  0.024331622   0.02432262            8 
 1851000   0.95925385   -7.1876904    541.06024  0.024358916  0.024314969            6 
 1852000   0.93936886    -7.130289     542.2119  0.024397584  0.024307407            5 
 1853000   0.94797516    -7.142021    542.57773  0.024400869  0.024299944            3 
 1854000   0.98322558   -7.1052714    543.10807  0.024411546  0.024292506            3 
 1855000   0.96078389   -7.1516538    541.47186  0.024324882  0.024284958            5 
 1856000   0.95262845   -7.1638631    541.35978  0.024306743  0.024277362            3 
 1857000   0.96445561   -7.1754918     539.5461  0.024212265  0.024269715            3 
 1858000   0.92842501   -7.1661893     541.4378  0.024284078  0.024261942            6 
 1859000   0.94372465   -7.2141709    539.42994  0.024181009  0.024254182            3 
 1860000   0.94818539    -7.176327    540.93749   0.02423555  0.024246397            4 
 1861000   0.96510649   -7.1693396    540.88897  0.024220355  0.024238701            4 
 1862000   0.93802587   -7.1484726    542.12838  0.024262817   0.02423101            4 
 1863000   0.94278749   -7.1989069    542.21086  0.024253483  0.024223269            5 
 1864000   0.96228218   -7.2138341    540.73904  0.024174671   0.02421546            5 
 1865000   0.94614576   -7.2113468    540.01804  0.024129492  0.024207603            5 
 1866000   0.95480202   -7.1788757     541.4177  0.024179068  0.024199797            4 
 1867000    0.9835512   -7.1848631    541.40239  0.024165435  0.024191968            3 
 1868000   0.96663071   -7.1881119    540.51999  0.024113133  0.024184082            2 
 1869000   0.96661799   -7.2288363    539.18261  0.024040601  0.024176089            5 
 1870000   0.96018545   -7.1971129    541.49251  0.024130682  0.024168174            5 
 1871000   0.95736365   -7.1876817    540.47824   0.02407261  0.024160286            6 
 1872000   0.95410315   -7.1568864     542.2443  0.024138368  0.024152355            6 
 1873000   0.95440069   -7.1982771    540.85951  0.024063869  0.024144461           10 
 1874000   0.92600653   -7.1832324     541.5179  0.024080305   0.02413651            9 
 1875000    0.9539813   -7.1937974    541.15709  0.024051426  0.024128567            2 
 1876000   0.95669373   -7.1371053    541.57422  0.024057135  0.024120735           10 
 1877000   0.97136602   -7.1593673    542.51051  0.024085887  0.024112881            4 
 1878000    0.9476879   -7.1472423    543.15185   0.02410152  0.024104989            5 
 1879000   0.96730424   -7.1763857    541.25616  0.024004619  0.024097053            5 
 1880000   0.95551797   -7.2029583    541.22384  0.023990419  0.024089019           12 
 1881000   0.98557385   -7.2164104    541.26586  0.023979526  0.024081036            3 
 1882000   0.94018533   -7.1909153    542.81884  0.024035549  0.024073067           10 
 1883000   0.94673309   -7.1915201    541.83798  0.023979376  0.024065117            8 
 1884000   0.95233114   -7.1867748    540.56219  0.023910217  0.024057222            9 
 1885000   0.95922054   -7.1891046    542.37617  0.023977726  0.024049372            6 
 1886000   0.92290269   -7.2091483    542.93377  0.023989651  0.024041385            4 
 1887000   0.95782187   -7.2293823    540.89892  0.023887075  0.024033274            7 
 1888000   0.96196026   -7.2336999    539.73607  0.023823097  0.024025244           14 
 1889000   0.95336825   -7.2004426    542.43594   0.02392959  0.024017281            3 
 1890000   0.93817801   -7.1623657    542.56803  0.023922753  0.024009381           11 
 1891000   0.94374009   -7.1443624     545.1444  0.024023638  0.024001502            8 
 1892000   0.95780949   -7.1983109    542.49498  0.023894247  0.023993617            4 
 1893000   0.94183886   -7.2156793    543.54429  0.023927817  0.023985692            5 
 1894000   0.97508093   -7.1951221    543.67932  0.023921125  0.023977705            7 
 1895000   0.95943062   -7.1883015     543.6936  0.023909129  0.023969681            7 
 1896000   0.93605569    -7.192187    543.56327  0.023890791  0.023961733           13 
 1897000   0.94628373   -7.1576632    545.71319  0.023972641   0.02395399            5 
 1898000   0.92785054   -7.1629664    544.74214  0.023917375  0.023946218           10 
 1899000   0.94799242   -7.1881469    545.03985  0.023917845  0.023938393            4 
 1900000   0.93938656    -7.227247    543.23763  0.023826212  0.023930434           10 
 1901000   0.93692021   -7.2215681    544.41712  0.023865383  0.023922516            4 
 1902000   0.94604769   -7.1841566    545.80104   0.02391347  0.023914714            4 
 1903000   0.94650432   -7.1572264    545.76231  0.023899208  0.023906921            6 
 1904000   0.96904862   -7.2340148    544.60494     0.023836   0.02389907            4 
 1905000   0.93358478   -7.2391419     544.8846  0.023835722  0.023891202            4 
 1906000   0.93486572   -7.1701335    547.74135  0.023948118  0.023883321            5 
 1907000   0.93141469   -7.1948962    544.80777  0.023807366  0.023875423            5 
 1908000   0.94350565   -7.1950577    545.38783  0.023820223  0.023867534            7 
 1909000   0.93836117   -7.2008594    546.25517  0.023845607  0.023859709            4 
 1910000   0.96566125    -7.176992    547.15261  0.023872278  0.023851891            8 
 1911000   0.93561881   -7.1553791    546.23841   0.02381992  0.023844134            6 
 1912000   0.94709973   -7.1958138    546.09718  0.023801307   0.02383637            7 
 1913000   0.94723226   -7.2457329    545.90079   0.02378031  0.023828532            8 
 1914000   0.92880717   -7.2403856    546.05664  0.023774671  0.023820694            6 
 1915000   0.94385607   -7.2400809    546.91077  0.023799424   0.02381273            3 
 1916000   0.94330946   -7.2450338     545.4776  0.023724669    0.0238048            7 
 1917000   0.94081219    -7.179786    548.83661  0.023858312  0.023797032            6 
 1918000   0.94651693   -7.1809311    547.57115  0.023790891   0.02378933            6 
 1919000    0.9407119   -7.2006589    548.03518  0.023798644  0.023781665            5 
 1920000   0.93959784   -7.1874422    547.49792   0.02376293  0.023773905            7 
 1921000   0.93441576   -7.1721087    550.24412  0.023869691  0.023766232           27 
 1922000   0.95851015   -7.2116687     549.0346   0.02380483  0.023758643            4 
 1923000   0.93131071    -7.228992    547.16229  0.023711314  0.023750962            5 
 1924000   0.94600202   -7.1920736    548.42983  0.023753891  0.023743285            3 
 1925000   0.95876694   -7.1772566    547.94102   0.02372039  0.023735532            4 
 1926000   0.91841394   -7.2521711    547.28744  0.023679796  0.023727728            8 
 1927000   0.94326726   -7.2235699    547.37161  0.023671147  0.023719877            3 
 1928000   0.94460129   -7.2790904    546.18382   0.02360753  0.023711959           11 
 1929000   0.94437466   -7.2234484    548.40888  0.023691415  0.023704157            5 
 1930000   0.94403715   -7.2573555    546.63252  0.023602441   0.02369632            5 
 1931000   0.90622792   -7.2020698    549.60095  0.023718322  0.023688554            7 
 1932000   0.94983704   -7.2011133    548.91793  0.023676584  0.023680807           14 
 1933000   0.95025784   -7.2318282    547.03377  0.023583108  0.023673046            6 
 1934000   0.94148835   -7.1998865    550.51699  0.023721001  0.023665278            5 
 1935000   0.94284723   -7.1798439    550.75796   0.02371912  0.023657673            5 
 1936000   0.94130584   -7.1818211    550.44147  0.023693245  0.023650099           10 
 1937000   0.93738646   -7.2147181    550.38955   0.02367878  0.023642372            7 
 1938000   0.94725173   -7.2187044      550.531  0.023672644  0.023634655            8 
 1939000   0.93079878   -7.1962617    549.91281  0.023633867  0.023626989            6 
 1940000   0.92512616   -7.1891174    550.87112  0.023662849  0.023619398            6 
 1941000   0.95262476   -7.1882077    552.19446  0.023707473  0.023611824            5 
 1942000    0.9259166   -7.1962791    551.85122  0.023680536  0.023604293            4 
 1943000   0.94812607   -7.1522978    552.43292  0.023693297  0.023596811            3 
 1944000   0.93210099    -7.187769    552.55562  0.023686369  0.023589323            4 
 1945000   0.93253704   -7.1933047    552.80998  0.023685089  0.023581844            5 
 1946000   0.92849572   -7.2287673    550.68844  0.023582068  0.023574236           10 
 1947000   0.92931099   -7.2129025    551.57965    0.0236081  0.023566642           13 
 1948000   0.93428028   -7.1888648    552.57075  0.023638379  0.023559188            7 
 1949000   0.94198659   -7.2570075    551.66563   0.02358755  0.023551565            4 
 1950000   0.94861134   -7.2582763    552.30297  0.023602691  0.023543996            7 
 1951000   0.93859071   -7.2416549    551.38447  0.023551361  0.023536446            5 
 1952000   0.94286137   -7.2334965    551.23078  0.023532735  0.023528857            4 
 1953000   0.93895969   -7.2791378    551.38412  0.023527228  0.023521282            4 
 1954000   0.92933765   -7.2467386    553.22933  0.023593881   0.02351375            6 
 1955000    0.9466918   -7.2264494    552.98713  0.023571489  0.023506318            5 
 1956000   0.92980741   -7.2324015    553.68023  0.023588967  0.023498862            4 
 1957000   0.94289062   -7.1968652    555.84306  0.023669011  0.023491477           10 
 1958000   0.94559638   -7.2027056    555.39827  0.023637992  0.023484189            9 
 1959000   0.95072764   -7.2194829     553.7412  0.023555436  0.023476828            3 
 1960000   0.93537684   -7.2202414    555.28397  0.023609012  0.023469506            4 
 1961000    0.9328366   -7.2231196    555.47834  0.023605233  0.023462227           13 
 1962000   0.92261928   -7.2279044    555.30359  0.023585779  0.023454938            8 
 1963000   0.95073488   -7.2177362    555.88558  0.023598471   0.02344763            9 
 1964000    0.9380729   -7.2306667    554.84799   0.02354243    0.0234403            3 
 1965000   0.96116665     -7.24505    555.70921  0.023566972  0.023432913            6 
 1966000   0.94364753   -7.2524167    554.55317  0.023505984  0.023425502            6 
 1967000   0.94776888   -7.1997292    556.43718  0.023573851  0.023418208            4 
 1968000   0.95152877   -7.1773119    557.14583   0.02359188  0.023410945            4 
 1969000    0.9480655    -7.242829    556.80347  0.023565408  0.023403589            7 
 1970000   0.94531817   -7.2140572    556.44493   0.02353828    0.0233964            9 
 1971000    0.9287983   -7.1960168    558.19559  0.023600355  0.023389237           11 
 1972000    0.9493276   -7.2041709    556.94872  0.023535696  0.023382086           11 
 1973000   0.92643204   -7.2041117    558.04263  0.023569971  0.023374921            8 
 1974000   0.94843122   -7.2448148    557.28299  0.023525962   0.02336777            5 
 1975000    0.9433359   -7.2485532      556.474  0.023479916  0.023360571           11 
 1976000    0.9419491   -7.2107534    558.30862  0.023545404  0.023353396            5 
 1977000   0.93120331   -7.2560764    557.31678  0.023491687  0.023346186            8 
 1978000   0.93835421   -7.2533728    555.85917  0.023418401  0.023338959            3 
 1979000   0.93316352   -7.2249243    557.72881  0.023485296   0.02333163            5 
 1980000   0.93649665   -7.2174544    558.81958  0.023519342  0.023324396            7 
 1981000   0.94185595   -7.2667563    556.70498  0.023418517  0.023316982            3 
 1982000   0.92793422   -7.2753545    556.79758  0.023410595  0.023309722           10 
 1983000   0.95797441   -7.2390809    557.59573   0.02343233  0.023302419            8 
 1984000   0.90993151   -7.2299796    557.38663  0.023411737  0.023295149           10 
 1985000   0.94626062   -7.1453616    561.73454  0.023582474  0.023287949            4 
 1986000   0.94905959   -7.1654031    560.78138  0.023530605  0.023280822            5 
 1987000    0.9179846   -7.2357908    558.80499  0.023435874  0.023273673            6 
 1988000   0.93590409   -7.2178239    558.83847  0.023425489   0.02326646            9 
 1989000   0.92949011   -7.2323147    559.83354  0.023455402  0.023259218            4 
 1990000   0.94197646   -7.2769996    558.33859  0.023381013  0.023251968            5 
 1991000   0.92940239   -7.2360148    561.03132  0.023481974  0.023244717            6 
 1992000   0.93920929   -7.2461263    560.07705  0.023430265  0.023237522            7 
 1993000   0.95330099   -7.2462779    557.70562  0.023319352   0.02323028            6 
 1994000     0.936087   -7.2099297    561.70167   0.02347466  0.023223159            8 
 1995000   0.92919434    -7.227302    560.66278  0.023419498  0.023216048           10 
 1996000   0.94571494   -7.2193617    559.92388  0.023376916  0.023208932            7 
 1997000    0.9480189   -7.2029098    561.52233  0.023431911  0.023201792            7 
 1998000   0.93076686   -7.2413123    560.17716  0.023364079  0.023194646           12 
 1999000   0.92058177   -7.2617109    560.09447  0.023348944  0.023187434           10 
 2000000   0.94108725   -7.2026082    562.18884  0.023424535  0.023180248            5 
 2001000   0.94654935   -7.2176303    561.61139   0.02338878  0.023173101            5 
 2002000   0.94170495   -7.2145988    561.48253  0.023371734  0.023165954            4 
 2003000   0.94062969   -7.2703294     560.0575  0.023300778  0.023158803           10 
 2004000   0.93245319   -7.2502869    559.31704   0.02325836  0.023151581           14 
 2005000    0.9321283   -7.2360774    560.72772  0.023305392  0.023144397            4 
 2006000   0.93178953   -7.2171316    561.34953  0.023319605  0.023137275            4 
 2007000   0.91978712   -7.2569693    560.72452  0.023282035  0.023130097            7 
 2008000   0.93108145   -7.2542432    560.90587  0.023277966  0.023122894            7 
 2009000   0.96400854   -7.2050122    561.82102   0.02330434  0.023115751            4 
 2010000   0.91454363   -7.2094868    563.82018  0.023375629  0.023108702            6 
 2011000   0.94081118   -7.2373017    562.19177  0.023296526   0.02310159            3 
 2012000   0.92742279   -7.2364564     561.5449  0.023258155  0.023094399            4 
 2013000   0.91443116   -7.1916693     562.9567  0.023305046  0.023087342            7 
 2014000   0.92364859    -7.252093    561.59563  0.023237158  0.023080106           10 
 2015000   0.94488442   -7.2436679    561.80178  0.023234151  0.023072866            6 
 2016000    0.9249376   -7.2437265    561.04834  0.023191482  0.023065619           12 
 2017000   0.92347678    -7.241237    562.14305  0.023225213  0.023058402            6 
 2018000   0.91942434   -7.2223565    562.80409  0.023241002  0.023051142            3 
 2019000   0.93459204   -7.2695443    561.41651  0.023172218  0.023043888            5 
 2020000   0.92256829   -7.2633502      562.295  0.023196988  0.023036627            4 
 2021000   0.94181463   -7.2485009     561.7725  0.023163966  0.023029315            6 
 2022000   0.94044709   -7.2302174     563.7433  0.023233733  0.023022076            5 
 2023000   0.94420223   -7.2637981    562.60041  0.023175169  0.023014894            5 
 2024000   0.93548675   -7.2154272    564.58873  0.023245584  0.023007734            5 
 2025000   0.92581574   -7.2675828     563.0649  0.023171395  0.023000606            7 
 2026000   0.93389675   -7.2768248    563.36281  0.023172212  0.022993341            4 
 2027000    0.9281653   -7.2657262    562.08872    0.0231084  0.022986122            5 
 2028000   0.92144942   -7.2260566    563.57502  0.023158079  0.022978962            6 
 2029000   0.92130641   -7.2111708    564.27815  0.023175544  0.022971774           10 
 2030000    0.9594436   -7.2878317    562.47752   0.02309021  0.022964569            5 
 2031000   0.93652072   -7.2559637     564.2241  0.023150505  0.022957334            8 
 2032000    0.9388407   -7.2444099      564.594  0.023154282  0.022950095            9 
 2033000   0.92419291   -7.2634013    564.13404  0.023124039  0.022942848            2 
 2034000   0.92175819   -7.2405794    564.91492  0.023144663  0.022935656            4 
 2035000    0.9373416   -7.2546028    563.22547  0.023064106  0.022928524            5 
 2036000   0.92619874   -7.2644627    563.64654  0.023070012  0.022921312            5 
 2037000   0.92512579   -7.2876833    563.51693  0.023053385  0.022914058            5 
 2038000   0.94347044   -7.2398069    565.10127  0.023106856  0.022906829           12 
 2039000   0.94068399   -7.2441756    565.19917  0.023099525  0.022899641            8 
 2040000   0.94122981   -7.2958292    562.78892  0.022989743  0.022892406            5 
 2041000    0.9373293   -7.2536495    565.83183   0.02310272  0.022885119            1 
 2042000   0.90406846   -7.2425927    565.31013  0.023070116   0.02287796            6 
 2043000    0.9209364   -7.2476197    564.96292  0.023044661  0.022870776            6 
 2044000    0.9137216   -7.2483421     566.8933  0.023112088  0.022863569            6 
 2045000   0.91670972   -7.2458069    564.93085  0.023020817  0.022856309            6 
 2046000   0.91641517   -7.2864548    564.30487  0.022984069  0.022849129            4 
 2047000   0.91426092   -7.2623677    566.61712  0.023066973  0.022841961            4 
 2048000    0.9231091   -7.2654584    565.96268  0.023029081   0.02283478            5 
 2049000   0.91655859   -7.2937061    562.52111  0.022877872  0.022827523            7 
 2050000   0.93116238   -7.2639882     565.1198   0.02297235   0.02282032           11 
 2051000   0.92138054   -7.3029386    564.47281  0.022934862  0.022813043           12 
 2052000   0.92867858   -7.2696248    565.62379  0.022970427  0.022805852            5 
 2053000   0.92410012   -7.2421891    567.00134  0.023015154  0.022798689            9 
 2054000   0.91496276   -7.2685657    565.02756  0.022923871  0.022791437            8 
 2055000   0.93173186   -7.2924147    566.21409  0.022960831  0.022784146            7 
 2056000   0.92521066   -7.3166995    563.44874  0.022837579  0.022776843            6 
 2057000    0.9274101    -7.298679    566.60738  0.022954439  0.022769579           11 
 2058000   0.91860348   -7.2850038    565.96112  0.022917117  0.022762334           10 
 2059000   0.91070998   -7.2978901    565.65403  0.022893558  0.022755093            6 
 2060000   0.94732352   -7.2742183    566.28221  0.022907856  0.022747869           20 
 2061000   0.93597675   -7.2464128    568.17091  0.022973108  0.022740658           10 
 2062000   0.93097568   -7.2672773    567.24596  0.022924586  0.022733529           15 
 2063000   0.90827147   -7.2495808    565.88506  0.022858502  0.022726449           18 
 2064000   0.90610878   -7.2781357    567.31621  0.022905209  0.022719356            6 
 2065000   0.91170276   -7.2899419    564.95778  0.022798942   0.02271217            6 
 2066000   0.94079089   -7.2761633    566.84731  0.022864122  0.022704964           12 
 2067000   0.91714958   -7.2491873    568.34307  0.022913363  0.022697831            5 
 2068000   0.91468008   -7.2755241    569.32421   0.02294182  0.022690762            4 
 2069000   0.90506842    -7.256847    568.34376  0.022891242  0.022683688           12 
 2070000   0.92501119   -7.3113545    567.58169  0.022849504  0.022676517            3 
 2071000    0.9187929   -7.2636339    568.63862     0.022881  0.022669438            4 
 2072000    0.9301572   -7.2587281    569.87241  0.022919579  0.022662309            6 
 2073000   0.93156062   -7.2957973    568.25449  0.022843483   0.02265521            7 
 2074000   0.90768572   -7.3073033    566.62848  0.022767136   0.02264812            6 
 2075000   0.91929221   -7.2717757    568.98286  0.022850717  0.022641051            6 
 2076000   0.92891056    -7.316247    568.83067  0.022833601  0.022633951            4 
 2077000   0.90668202   -7.3130328    567.33698  0.022762678  0.022626871            3 
 2078000   0.92276812   -7.3053595    568.52267  0.022799273   0.02261976           10 
 2079000    0.9218516   -7.3056745     570.1421  0.022853219  0.022612674            4 
 2080000   0.93176092   -7.2841149    570.12589  0.022841582  0.022605556            9 
 2081000   0.91826408   -7.2854693     570.9527  0.022863715  0.022598526            7 
 2082000   0.90716363   -7.2322079    570.08889  0.022818159  0.022591511            6 
 2083000   0.91379747   -7.2945976    570.23739  0.022813146  0.022584532            6 
 2084000   0.91954331   -7.2687309    568.91135  0.022749174  0.022577482            6 
 2085000   0.91217827   -7.2860473    568.48322  0.022721152  0.022570448            8 
 2086000   0.91814006   -7.2761035    569.23236  0.022740187  0.022563343            5 
 2087000   0.93089512   -7.2959683    571.31023   0.02281226  0.022556216            4 
 2088000   0.93976347   -7.2751819    571.21299  0.022797453  0.022549114            5 
 2089000   0.92558624   -7.2419299    572.69657  0.022845722  0.022542032            6 
 2090000   0.93750001   -7.2966225    568.92053  0.022684232  0.022534907            7 
 2091000   0.90467739   -7.2687162    570.37097  0.022731188  0.022527713            3 
 2092000   0.93023077   -7.2747777    570.64389  0.022731194  0.022520581            5 
 2093000    0.8963882   -7.2880512    570.78949   0.02272613  0.022513535            8 
 2094000   0.91636323   -7.2969561    570.41204  0.022700256  0.022506422            2 
 2095000   0.90872696   -7.3203954    569.66068  0.022659534  0.022499287           10 
 2096000   0.92300795    -7.275921    569.61996  0.022647104  0.022492175            5 
 2097000   0.93307951   -7.2809882    571.51188  0.022711488  0.022485098            4 
 2098000   0.92958155   -7.2963891    570.77815  0.022671519  0.022477965            8 
 2099000   0.91475942   -7.2950674    570.32607  0.022642769  0.022470922            8 
 2100000     0.918986   -7.3059036    570.82985  0.022651978  0.022463841            6 
 2101000    0.9231318    -7.294658    570.12377  0.022613191  0.022456753            5 
 2102000   0.91173196   -7.2793077    571.99949  0.022676795  0.022449664            5 
 2103000   0.92511002   -7.3089045    572.17776  0.022673077  0.022442611            4 
 2104000   0.90783372   -7.2979159    571.54538  0.022637254    0.0224356            4 
 2105000   0.90653991   -7.2945488    572.75882  0.022674537  0.022428544            6 
 2106000   0.91863087   -7.2900103    572.00159  0.022633808  0.022421497            7 
 2107000   0.91945485   -7.3133027    571.76131  0.022613562  0.022414408           11 
 2108000   0.93442922   -7.3093275    572.94627  0.022649679  0.022407324            9 
 2109000   0.92123895   -7.3051817    570.99627  0.022561888  0.022400288            7 
 2110000   0.92875306   -7.3104085    573.69001  0.022657584  0.022393299            2 
 2111000   0.91410005   -7.2504886    574.01716  0.022659765  0.022386297            7 
 2112000   0.93236635   -7.2954412    574.16049  0.022654691  0.022379315           14 
 2113000   0.91117761   -7.3115703    572.88791  0.022593781  0.022372262            3 
 2114000   0.91815937   -7.3126894    572.33239  0.022561195  0.022365204            5 
 2115000   0.91830558   -7.3353897    570.58025  0.022481492  0.022358058            4 
 2116000   0.89205648   -7.2737144    572.76152  0.022556771  0.022350969            7 
 2117000   0.90928146   -7.2984904     573.6771  0.022582156  0.022343896           11 
 2118000   0.90644748   -7.3063508      571.155  0.022472262  0.022336783            5 
 2119000   0.90399672   -7.3282538    571.25892  0.022465743  0.022329599            7 
 2120000   0.89873641   -7.3306608    573.12965  0.022528681  0.022322418            7 
 2121000    0.9217753   -7.3078261    573.20582  0.022521052  0.022315314           11 
 2122000   0.89692625   -7.3091171    574.12125  0.022546389  0.022308184            4 
 2123000   0.93977328    -7.271665     574.5565  0.022552854  0.022300991           10 
 2124000    0.9071641   -7.2924131      573.829  0.022513693  0.022293834           11 
 2125000   0.93887104   -7.2932424    573.40191  0.022486349  0.022286657           10 
 2126000    0.9242454   -7.3020369    571.57988  0.022404354  0.022279523            5 
 2127000   0.93442759   -7.3286539    572.51148   0.02243032  0.022272373            7 
 2128000   0.91601284   -7.3178442    572.33336  0.022412804  0.022265196           18 
 2129000   0.91120011   -7.3527796     571.5691  0.022372362  0.022257972           19 
 2130000   0.91679569   -7.3174838     572.8216  0.022410861  0.022250715           16 
 2131000   0.92409959   -7.3196378    571.18416  0.022336311  0.022243511            6 
 2132000   0.91430076   -7.2935035    574.84301  0.022468848  0.022236282            8 
 2133000   0.93318237   -7.3337277    573.76484  0.022416192  0.022229087            6 
 2134000   0.90875657   -7.2999261    573.56371  0.022397833  0.022221941            7 
 2135000   0.88928668   -7.2861119    574.39983  0.022419978  0.022214759            5 
 2136000   0.91847905   -7.2815914    574.96464  0.022431517  0.022207577            7 
 2137000   0.90810171   -7.3114166     573.9905  0.022383033  0.022200392            8 
 2138000   0.90785902   -7.3401754    572.30539  0.022306883  0.022193234           11 
 2139000    0.8944939   -7.3006212    574.61507  0.022386437   0.02218612            4 
 2140000   0.90050567   -7.2840458    575.41022   0.02240694   0.02217902            5 
 2141000   0.90958375   -7.3110291    574.76327  0.022371293  0.022171869            8 
 2142000   0.89853193   -7.3110638    575.41958  0.022386383  0.022164694            7 
 2143000   0.88898008   -7.3115816    574.86776  0.022354478  0.022157579           13 
 2144000   0.90579086   -7.2908177    576.24496  0.022397581  0.022150528            6 
 2145000   0.90022995    -7.323459    573.52412  0.022281434  0.022143424            8 
 2146000   0.89507311   -7.3013839    574.73034  0.022317891  0.022136271           17 
 2147000   0.90870587   -7.3081952    573.44847  0.022257742  0.022129158            5 
 2148000   0.90491075   -7.2636568    577.16222  0.022391458  0.022122084            5 
 2149000   0.89918748   -7.3172459    575.17299  0.022303901  0.022114933           12 
 2150000   0.87917701   -7.2747982    574.93641  0.022284357  0.022107812            6 
 2151000   0.89908386   -7.3325664    575.66215  0.022302113  0.022100734            4 
 2152000   0.91485049   -7.2960167    574.85218  0.022260385  0.022093601            9 
 2153000   0.90283806   -7.3228982    574.06437  0.022219553  0.022086481            5 
 2154000   0.91074176   -7.2974916    575.56836  0.022267423  0.022079348            7 
 2155000   0.86690296   -7.2930164    575.53968  0.022255981  0.022072237            9 
 2156000   0.92474379   -7.3298735    576.21268  0.022271671  0.022065122            5 
 2157000   0.91054713   -7.2935202      576.441  0.022270167  0.022058026            5 
 2158000   0.89106759   -7.2773428    576.01925  0.022243561  0.022050896            9 
 2159000   0.90859351   -7.3178949    577.54842  0.022292281  0.022043789            6 
 2160000   0.92762571   -7.3210037    574.83754  0.022177374  0.022036668            4 
 2161000   0.89158395   -7.3520118    574.73922   0.02216332  0.022029479           11 
 2162000   0.89995626   -7.3082952    576.66858  0.022227435  0.022022316            6 
 2163000   0.90996283   -7.3694243    574.87918  0.022148219   0.02201514            4 
 2164000   0.91960499   -7.3036281    577.19901  0.022227318  0.022007968            6 
 2165000   0.91438815   -7.3032355    576.62737  0.022195049  0.022000961            4 
 2166000   0.90045379   -7.2988871    577.09372  0.022202744  0.021993971            5 
 2167000   0.88140004   -7.3034556    576.97983  0.022188118  0.021986913            6 
 2168000   0.91475714   -7.3293921    578.57749  0.022239295  0.021979826            5 
 2169000   0.90936513   -7.3067647    577.98531   0.02220629  0.021972751            4 
 2170000   0.88391278   -7.3308145    578.12877  0.022201566  0.021965642            4 
 2171000   0.90283798    -7.342473    576.82008  0.022141106  0.021958502           12 
 2172000   0.90368898   -7.3590046    576.63832  0.022123938  0.021951331            4 
 2173000   0.90215377    -7.347727     575.6575  0.022076143  0.021944129           31 
 2174000   0.89199582   -7.3398444    576.99007  0.022117068    0.0219369           15 
 2175000   0.89464673   -7.3581744    576.85269  0.022101636  0.021929666            9 
 2176000   0.90385457   -7.3461891    576.32618  0.022071315  0.021922458            3 
 2177000   0.90801509   -7.2934274    577.94688  0.022123215  0.021915315            9 
 2178000   0.90454379   -7.3200439    576.99987  0.022076824  0.021908208            4 
 2179000   0.91901792   -7.3108194    577.88745  0.022100637  0.021901102            7 
 2180000   0.90852969   -7.3084484    577.93702  0.022092394  0.021893942            7 
 2181000   0.90306711   -7.3291505    576.80659  0.022039072  0.021886803            7 
 2182000   0.90830434   -7.3123143    577.90726  0.022071007  0.021879715           19 
 2183000    0.9029522   -7.3194892     578.4004  0.022079722  0.021872575            5 
 2184000   0.91976538   -7.3110532     579.0786   0.02209549   0.02186548            3 
 2185000   0.90675251   -7.3255884    579.39194  0.022097328  0.021858318            4 
 2186000   0.90915207   -7.3100203    578.21151   0.02204222  0.021851162            4 
 2187000   0.88284494   -7.3072737    580.57909  0.022122355  0.021844077            4 
 2188000   0.90800537   -7.2819288    579.81886   0.02208329  0.021837002            6 
 2189000   0.90276331   -7.3169073    578.89527  0.022038041  0.021829931            9 
 2190000   0.91887491   -7.3515258    577.32103  0.021968076  0.021822768            6 
 2191000   0.89695547   -7.3865835    577.75879  0.021974699  0.021815566            8 
 2192000   0.89777246   -7.3361742    578.22601  0.021982437  0.021808407            6 
 2193000   0.88640858   -7.3085808    578.84963   0.02199611  0.021801322            8 
 2194000    0.9211068   -7.3017145    579.83794  0.022023623  0.021794176           10 
 2195000    0.8933659   -7.3113573    578.22897  0.021952504  0.021787043           11 
 2196000   0.88510283   -7.3172474    578.21566  0.021942003  0.021779862            6 
 2197000   0.90791068   -7.3585239    577.72255  0.021913312  0.021772665           11 
 2198000   0.86600479   -7.3841347    577.51405  0.021895437   0.02176542            7 
 2199000   0.89284352   -7.3628143    578.21168  0.021911917  0.021758204            4 
 2200000   0.89131122   -7.3228422    578.79306  0.021923979     0.021751            8 
 2201000   0.91380048    -7.318913    580.15343  0.021965524  0.021743889            5 
 2202000   0.91227251   -7.3591205    577.73718  0.021864108  0.021736765            6 
 2203000   0.87746977   -7.3387521    579.40001  0.021917083  0.021729608            7 
 2204000   0.90279903    -7.323724    580.17196  0.021936326  0.021722461            4 
 2205000   0.90088875   -7.3236777    580.08992  0.021923277  0.021715315            6 
 2206000   0.88395706   -7.3530277     578.5218  0.021854103  0.021708095            7 
 2207000   0.90571547   -7.3594367    578.50761  0.021843665  0.021700902            9 
 2208000   0.90272675   -7.3627693    579.97862   0.02188929  0.021693652            6 
 2209000   0.91270433   -7.3631724     578.2967  0.021815931  0.021686383            6 
 2210000   0.88842411   -7.3476924      579.191  0.021839781  0.021679204            4 
 2211000   0.89150618   -7.3294808    580.62625  0.021883999  0.021672107            5 
 2212000   0.88246277   -7.2894359    580.35497  0.021863885  0.021665002            5 
 2213000   0.90927368   -7.3472777    578.87734  0.021798363   0.02165789            7 
 2214000   0.92478504    -7.339664    579.81418   0.02182378  0.021650774            8 
 2215000   0.90567695   -7.3515244    580.55276  0.021841714  0.021643654            6 
 2216000   0.89342151   -7.3364357    579.84941  0.021805408  0.021636584           11 
 2217000   0.90793597   -7.3438348    580.48574  0.021819491  0.021629416            6 
 2218000    0.8848646     -7.35479    579.69775  0.021780048  0.021622208            8 
 2219000     0.889816     -7.32632    580.71363  0.021808383  0.021614988            7 
 2220000   0.90025918    -7.327464    579.38932  0.021748848  0.021607778            6 
 2221000   0.88683463   -7.3467801    580.41249  0.021777446  0.021600642            6 
 2222000   0.92663829   -7.3134818    581.88943  0.021823036  0.021593436            6 
 2223000   0.88590739   -7.3317582     580.3923  0.021757096  0.021586249           11 
 2224000   0.90536909    -7.330028    579.90949  0.021729223  0.021579067           11 
 2225000   0.90463788   -7.3690602    579.98687  0.021722355  0.021571857           20 
 2226000   0.89266414   -7.3415527    579.52892  0.021695452  0.021564691           10 
 2227000   0.90217152   -7.3418796    579.50988  0.021684998  0.021557459           15 
 2228000    0.9256822   -7.3431582    581.27795  0.021741395  0.021550238           12 
 2229000   0.88400029   -7.3389286    582.06754  0.021761161  0.021543047            4 
 2230000   0.90769339   -7.3227066    580.23878  0.021683064   0.02153585            3 
 2231000    0.9033925   -7.3136862    580.72659  0.021691565  0.021528681            7 
 2232000   0.88889444   -7.3860712    579.19362  0.021624612  0.021521444            4 
 2233000   0.86750774   -7.3268263    581.55757  0.021703149  0.021514211            6 
 2234000     0.880661   -7.3444107    581.68237  0.021698089  0.021507051            5 
 2235000   0.90268424   -7.3452715    581.38106  0.021677146  0.021499888            6 
 2236000   0.89077061   -7.3707546     580.9715  0.021652188  0.021492716            9 
 2237000   0.90779124   -7.3479399    582.68923  0.021706498  0.021485541            4 
 2238000   0.89666206   -7.3695946    580.81481  0.021627004  0.021478393           13 
 2239000   0.88963533   -7.3603365    581.43649  0.021640483  0.021471164           14 
 2240000   0.89146528   -7.3792773    581.56823  0.021635723   0.02146394           12 
 2241000   0.89567346     -7.37154    580.57706  0.021589211  0.021456764           14 
 2242000   0.89047436    -7.341261    582.38971  0.021646956  0.021449622            4 
 2243000   0.88453656   -7.3672649    582.29537    0.0216338  0.021442514            7 
 2244000   0.87989019   -7.3060203    584.61196  0.021710189  0.021435455            6 
 2245000   0.89353522   -7.3812355    581.81594  0.021596731  0.021428368           10 
 2246000   0.90020378   -7.3299906     583.9046  0.021664611  0.021421298            9 
 2247000   0.88470491   -7.3564701    583.62932   0.02164476  0.021414314           16 
 2248000   0.88727073    -7.335675    584.14575  0.021654276  0.021407284            7 
 2249000    0.8977242   -7.3446792    581.83567  0.021559051  0.021400244            4 
 2250000   0.90909754   -7.3647879    584.04161  0.021631171  0.021393174            9 
 2251000   0.88465418   -7.3620655    583.58701  0.021604732  0.021386078           11 
 2252000   0.89424327   -7.3587768    582.69734  0.021562216  0.021378893            6 
 2253000    0.9000431   -7.3609897    581.16288   0.02149589  0.021371767           14 
 2254000   0.89834507   -7.3260998    584.30221  0.021602418  0.021364601            9 
 2255000   0.90069617   -7.3128081    582.98978  0.021544338  0.021357492            7 
 2256000   0.89738048   -7.3729347    582.63253  0.021521592  0.021350404            8 
 2257000   0.89844288   -7.3417727    582.49248  0.021506885  0.021343251            5 
 2258000    0.8849127   -7.3768171    583.28579  0.021526638  0.021336077            6 
 2259000   0.88502617   -7.3438057    581.37163  0.021446496  0.021328897            5 
 2260000   0.89896833   -7.3677194    583.37687  0.021510947  0.021321721            4 
 2261000   0.87348902    -7.381712    582.80298  0.021480281  0.021314588            5 
 2262000   0.89212367   -7.3832301    582.90128  0.021474406   0.02130739            6 
 2263000   0.90111379     -7.36709    584.19688  0.021512626  0.021300293           11 
 2264000   0.89966135   -7.3356877    585.70067  0.021558476  0.021293243            6 
 2265000   0.87825317   -7.2930574    585.82362  0.021553481  0.021286245            6 
 2266000   0.88938993   -7.3686646    582.89623  0.021436313  0.021279191            5 
 2267000   0.89939068   -7.3457012    583.61625  0.021453325  0.021272096            5 
 2268000   0.88279598    -7.371758    584.40099  0.021472699  0.021264964            6 
 2269000   0.89367104   -7.3662391     584.4755  0.021465973  0.021257972           11 
 2270000   0.89812667    -7.388693    584.98145   0.02147509  0.021250967            9 
 2271000   0.86853849   -7.3591791    586.26375  0.021512687  0.021243984            7 
 2272000   0.87653182   -7.3498179    584.95818  0.021455332  0.021237026            7 
 2273000   0.87438883     -7.37994    585.63793  0.021470814  0.021230022            6 
 2274000   0.89708227   -7.3660751    584.49577  0.021419517  0.021223064           10 
 2275000   0.89306176   -7.3484954    585.49848  0.021446831  0.021216051            7 
 2276000   0.87564148   -7.3708271    585.97018  0.021454678  0.021209067            8 
 2277000   0.89038558   -7.3982911    584.31305  0.021384609  0.021201984            7 
 2278000   0.89818256   -7.4029869    583.92666  0.021361086  0.021194908            6 
 2279000   0.88609605   -7.3679731    585.08774  0.021394169  0.021187803            8 
 2280000   0.88123309   -7.3899149    584.27957  0.021355247  0.021180686            8 
 2281000   0.87178871   -7.3890631     585.0084  0.021372512  0.021173537            6 
 2282000   0.89494793   -7.3664353    584.72152   0.02135267  0.021166452            5 
 2283000   0.89166755   -7.3628249    586.02854  0.021391026  0.021159366            5 
 2284000   0.88383099   -7.3914089    586.86131  0.021412044  0.021152298            6 
 2285000   0.87680538   -7.3491998    587.01161  0.021408155   0.02114525            6 
 2286000   0.90440615   -7.3728869    585.49867  0.021343638  0.021138213           14 
 2287000   0.86870118   -7.3636216    585.99799  0.021352499  0.021131256            6 
 2288000   0.89461587   -7.3751992     586.8113  0.021372789  0.021124294            8 
 2289000   0.89815663   -7.3471828    589.09032  0.021446422  0.021117342           15 
 2290000   0.88378048   -7.3828709    587.97929  0.021396626  0.021110358           10 
 2291000   0.87639531   -7.3812193    586.59352  0.021336881   0.02110337            6 
 2292000   0.87825504   -7.3697476     587.3326  0.021354443  0.021096307           16 
 2293000   0.87506005   -7.4051367    585.54723  0.021280245  0.021089285           10 
 2294000    0.8703843   -7.3870263    586.77328  0.021315507  0.021082306            7 
 2295000   0.91796784   -7.3871117    587.67558  0.021338982  0.021075369            5 
 2296000   0.88372078   -7.3715861      586.501  0.021287057  0.021068366           13 
 2297000   0.86982567    -7.379163    586.99338  0.021295653  0.021061347            3 
 2298000   0.88401872   -7.4085138    587.52332  0.021305604  0.021054357            5 
 2299000   0.86662298   -7.3839241    588.23909  0.021322281    0.0210474            3 
 2300000   0.88382143   -7.4125052    586.98446  0.021267553  0.021040414           12 
 2301000   0.89267206   -7.4083298      586.487  0.021240294  0.021033394            5 
 2302000   0.88488296   -7.4392767    587.37339  0.021263155  0.021026369            8 
 2303000    0.8775259     -7.39752    587.38481  0.021254335  0.021019301            6 
 2304000   0.87352257   -7.3834775    586.95796  0.021229672   0.02101222            6 
 2305000   0.89956501   -7.4077383    586.52904  0.021204954  0.021005159            5 
 2306000   0.90297429   -7.3970386    586.46132  0.021193312  0.020998153            4 
 2307000   0.88497493    -7.389109    586.40844  0.021182215  0.020991092            5 
 2308000   0.88807807   -7.3657318    587.78421  0.021222711  0.020984109           14 
 2309000   0.88614886    -7.384759    588.95151  0.021255649  0.020977122            7 
 2310000   0.87237965   -7.4034876    586.88661  0.021171956  0.020970166            5 
 2311000   0.86907721   -7.4101798    587.95712  0.021201396  0.020963188            8 
 2312000   0.89905708   -7.4072144    587.59086  0.021179025   0.02095618            7 
 2313000   0.90262694   -7.4356332    587.51827  0.021167253  0.020949134            6 
 2314000   0.87134416   -7.4169859    587.69371  0.021164423  0.020942091            5 
 2315000   0.89310512   -7.4413116    587.66962  0.021154414  0.020935047            5 
 2316000   0.89732201   -7.4067485    589.13089  0.021197859  0.020928023            5 
 2317000   0.87622467   -7.3933639    589.21935  0.021191892  0.020921073           10 
 2318000   0.87846589   -7.3796226    588.79512  0.021167498  0.020914129           15 
 2319000   0.88064332   -7.3910772    588.72791  0.021155955  0.020907164           12 
 2320000   0.86728839    -7.411033    588.22327  0.021128709  0.020900257            9 
 2321000   0.87555813   -7.4172527    589.17087  0.021153629  0.020893346            8 
 2322000   0.86767546    -7.426018    589.14374  0.021143545  0.020886369           11 
 2323000   0.87230834   -7.3985437    588.80271  0.021122209  0.020879404            6 
 2324000   0.86447047   -7.4173072     588.2246  0.021092391  0.020872436            8 
 2325000   0.88611683    -7.416863    589.23204  0.021119428  0.020865491           11 
 2326000   0.88781227   -7.3890222    589.00012  0.021102039  0.020858588           14 
 2327000   0.87953388   -7.4238459    589.93355  0.021126399  0.020851641           11 
 2328000    0.8955779    -7.368326    591.50341  0.021173518  0.020844708            4 
 2329000   0.88286158   -7.3895127    589.59231  0.021096046  0.020837846            4 
 2330000   0.89608783   -7.4225888    589.11187  0.021069809   0.02083098           13 
 2331000   0.88090081   -7.3838502     590.6446  0.021115565  0.020824105            7 
 2332000   0.87355241   -7.3826098    589.56004  0.021067754  0.020817228            9 
 2333000   0.88557369   -7.4022611    589.99696  0.021074331  0.020810355            5 
 2334000   0.89871838    -7.456832     589.4738  0.021046622  0.020803441            3 
 2335000   0.88097063   -7.4016699    589.74447  0.021047269  0.020796497           10 
 2336000   0.87733816   -7.3858867    589.99362  0.021047147   0.02078956            6 
 2337000   0.86718945   -7.3774149     590.2826  0.021048445  0.020782667            7 
 2338000   0.84838002   -7.3850527    590.95028  0.021063241  0.020775803            4 
 2339000    0.8723674   -7.4083834    591.66276  0.021079619    0.0207689            6 
 2340000   0.87074668   -7.3785107    589.83681  0.021005584  0.020761983            5 
 2341000   0.88241057   -7.3572276    591.87863  0.021069295  0.020755086            8 
 2342000   0.86659392   -7.4046403    590.22713  0.021001534  0.020748218            6 
 2343000   0.88342365   -7.3849053    591.34761  0.021032423  0.020741331           12 
 2344000   0.87728886   -7.4417918    590.61009   0.02099723  0.020734402            8 
 2345000   0.87737158   -7.4307147    590.05359    0.0209685  0.020727443            8 
 2346000   0.88956309   -7.4011987    591.52777  0.021011927  0.020720487           15 
 2347000   0.85944326   -7.4227071     588.1736   0.02088388   0.02071349            7 
 2348000    0.8947083   -7.3890179    589.68607  0.020928665  0.020706549            7 
 2349000   0.88127569   -7.3967271    591.50438  0.020984262  0.020699626            6 
 2350000   0.89536029   -7.4089447    591.26006  0.020966669  0.020692732            7 
 2351000   0.89830456   -7.4416559     589.9524  0.020911399  0.020685794            7 
 2352000   0.87317981   -7.4005756    590.77044  0.020931492  0.020678805            7 
 2353000   0.87579322   -7.4209325    591.76253  0.020957732  0.020671779            6 
 2354000   0.88430781   -7.4106774    589.89802  0.020882824  0.020664795            6 
 2355000   0.87412981   -7.3929595    591.52738  0.020931613  0.020657825            8 
 2356000   0.87144724   -7.3590969    592.07554  0.020942117  0.020650823            9 
 2357000     0.875561   -7.4091939     591.0209  0.020895945  0.020643889            6 
 2358000   0.86455345   -7.3996874     591.5619  0.020906202  0.020636962           20 
 2359000   0.87114768   -7.4007552    591.68667  0.020901748  0.020630052            6 
 2360000   0.86316497   -7.3941767    591.13163  0.020873292  0.020623107           25 
 2361000   0.86322191   -7.4339808    589.30313  0.020799913  0.020616092           19 
 2362000   0.88329912   -7.4278551    591.04687  0.020852627  0.020609112           11 
 2363000   0.90363993   -7.4115074    589.83399  0.020801029  0.020602104           13 
 2364000   0.87781123   -7.4273739     588.6658  0.020751051  0.020595086           10 
 2365000   0.87703254    -7.437656    590.69681  0.020813841   0.02058815           14 
 2366000   0.86966958   -7.4067773    591.23915  0.020824146   0.02058116           20 
 2367000   0.85282046   -7.4427795    591.32317  0.020818306  0.020574209           10 
 2368000   0.88205647   -7.3912381    590.81342  0.020791576  0.020567211            5 
 2369000   0.88068716   -7.4173035    591.35253  0.020801763  0.020560253           25 
 2370000   0.88088814   -7.4505838    591.35495  0.020793071  0.020553232            3 
 2371000   0.84011958   -7.4230195    592.32194  0.020818288  0.020546206            5 
 2372000    0.8813273    -7.421576     592.4843  0.020815216  0.020539259           10 
 2373000   0.86660526   -7.4303062    591.00913   0.02075464  0.020532333            8 
 2374000   0.86049729   -7.3837413     593.6303  0.020837907  0.020525448            7 
 2375000   0.87516254   -7.4280657    593.23012  0.020815092   0.02051855            4 
 2376000   0.86841184   -7.4112864    593.32151  0.020809537  0.020511645           10 
 2377000   0.87226596    -7.443999    591.59954  0.020740413  0.020504681           17 
 2378000   0.88267068    -7.437238    590.59665  0.020696547  0.020497717            7 
 2379000   0.85909233   -7.4154934    592.59363  0.020757799  0.020490746           11 
 2380000   0.87923846   -7.4588359    591.55219  0.020712612  0.020483758           17 
 2381000   0.87627683   -7.4555211    590.81035  0.020677949   0.02047675            8 
 2382000   0.85763497   -7.4227431    592.17252  0.020716923  0.020469809            5 
 2383000   0.86022781   -7.4496994    590.38196  0.020645613  0.020462854           11 
 2384000   0.87124215   -7.4204345     592.6922  0.020717708  0.020455856            6 
 2385000   0.88016968   -7.4328979    590.88036  0.020645715  0.020448896            6 
 2386000   0.87695768   -7.4834289    589.75164  0.020597641  0.020441852           12 
 2387000   0.86435148   -7.4347408    591.58602  0.020653052  0.020434756           10 
 2388000   0.87372739   -7.4363564     591.8274  0.020652827  0.020427666           11 
 2389000   0.87570508   -7.4511592    591.41321  0.020629734  0.020420605           12 
 2390000   0.87019473   -7.4450105    590.88334  0.020602627  0.020413543           11 
 2391000   0.86119555   -7.4096407    591.73074  0.020623545  0.020406425           10 
 2392000   0.85887144   -7.4523726    592.27724  0.020633962  0.020399397           23 
 2393000   0.87913704   -7.4117138     592.4925  0.020632835    0.0203924           14 
 2394000   0.86134121   -7.4334516    591.59012  0.020592806  0.020385406           13 
 2395000   0.86106959   -7.3943763    593.32414  0.020644542  0.020378409            5 
 2396000   0.86931604   -7.4395538    590.60989  0.020541524  0.020371428            5 
 2397000   0.84636076    -7.423426    591.54114   0.02056533   0.02036437           18 
 2398000    0.8773125   -7.4265397    591.50701  0.020555567  0.020357358            4 
 2399000   0.86297167   -7.4115946      592.077  0.020566799  0.020350335            6 
 2400000   0.89117602   -7.4516519    591.57584  0.020540828  0.020343298            9 
 2401000   0.87168384   -7.4473862    592.20428  0.020554084  0.020336234            7 
 2402000   0.87746444   -7.4519922    592.29207  0.020548573  0.020329163           12 
 2403000   0.86614319   -7.4146716    592.10247  0.020533447  0.020322102           13 
 2404000   0.85504038   -7.4299883    592.27163  0.020530769  0.020315041            9 
 2405000   0.88683451   -7.4581509    591.44065  0.020493439  0.020307954            5 
 2406000    0.8566663    -7.411936     591.5711   0.02048944  0.020300801           11 
 2407000   0.85748516   -7.4542173    591.34491  0.020473096  0.020293713           11 
 2408000   0.89329552   -7.4384597    591.04893  0.020454351  0.020286593            6 
 2409000   0.84611377   -7.4523617    591.49686  0.020461355  0.020279498           12 
 2410000   0.84224774    -7.427022    593.19654  0.020511637  0.020272422           10 
 2411000   0.86514322   -7.4591237    590.76233  0.020418994  0.020265309           10 
 2412000   0.89247554   -7.5012552    590.14948  0.020389354  0.020258144            6 
 2413000   0.86612518   -7.4316281    592.46696  0.020460939   0.02025098           11 
 2414000   0.86590661   -7.4804264    590.80538  0.020395104  0.020243863           11 
 2415000   0.86082985   -7.4649617    590.76254  0.020385181  0.020236728            9 
 2416000   0.86069041   -7.4501824    592.36535  0.020432028  0.020229609           14 
 2417000   0.88171254   -7.4573204    591.68095  0.020399978  0.020222548           18 
 2418000    0.8722011   -7.4571442    592.56814  0.020422117  0.020215416           12 
 2419000   0.83650848   -7.4903497    591.88644   0.02039019  0.020208321           13 
 2420000   0.86770308    -7.433758    590.07049  0.020319232  0.020201198           10 
 2421000   0.86736236   -7.4635645     591.8323  0.020371482  0.020194098            6 
 2422000   0.88385085   -7.4807963    590.77655  0.020326746  0.020186938            8 
 2423000   0.86241181    -7.439737    593.28724  0.020404706  0.020179823            4 
 2424000   0.87019239   -7.4668973    590.83025  0.020311821  0.020172744           12 
 2425000   0.86562331    -7.459184    592.99734  0.020377916  0.020165657            8 
 2426000    0.8562278   -7.4726638    592.38105  0.020348346  0.020158523            5 
 2427000   0.85726181   -7.4642083    592.46504  0.020342846  0.020151375            8 
 2428000   0.84150153   -7.4682839    592.00763  0.020318768  0.020144213           12 
 2429000   0.86771757   -7.4704594    593.39462  0.020357988  0.020137068            7 
 2430000   0.87038733   -7.4252293    594.03477  0.020371563  0.020129981            5 
 2431000    0.8546989   -7.5052571    590.10022  0.020228309  0.020122879            4 
 2432000   0.85309409   -7.4584964    591.71463  0.020275309  0.020115812            6 
 2433000   0.86591377   -7.4473196    593.87359  0.020340923  0.020108758            6 
 2434000   0.86624436   -7.4393357    592.66537    0.0202912  0.020101693            9 
 2435000   0.85542648   -7.4648289    592.72673  0.020284967  0.020094617            9 
 2436000   0.87505256   -7.4604559    591.84108  0.020246342  0.020087483           13 
 2437000   0.85737524   -7.4502689    592.93564  0.020275463  0.020080392           16 
 2438000   0.86823902   -7.4483724    593.34447  0.020281121  0.020073278            5 
 2439000   0.86032296    -7.488431     590.7993  0.020185845  0.020066233            8 
 2440000   0.84829808   -7.4409796    593.32134  0.020263707  0.020059125           12 
 2441000   0.87996992   -7.4395758    593.18261  0.020250669  0.020052073            9 
 2442000   0.86544122   -7.4874214     591.5565  0.020186886  0.020044993            5 
 2443000   0.85069808   -7.4770722    592.69027  0.020217297  0.020037897            9 
 2444000   0.86871061   -7.4870026    592.44822  0.020200771  0.020030774            9 
 2445000   0.85606361   -7.4898079    592.58202  0.020197069  0.020023614            7 
 2446000   0.86154482   -7.5078242    590.43613  0.020115704  0.020016432           15 
 2447000   0.85303455   -7.4872439     591.9707  0.020159743  0.020009258           12 
 2448000   0.85957903    -7.468849    592.73192  0.020177421  0.020002127            8 
 2449000   0.85767066   -7.4512598    594.49904  0.020229313  0.019995051            8 
 2450000   0.87721603   -7.4573873    593.41596  0.020184216  0.019987943           16 
 2451000   0.86160731   -7.4551925    591.73753  0.020118915  0.019980849           41 
 2452000   0.83388187    -7.456654    593.18478  0.020159896  0.019973747           14 
 2453000   0.86428316   -7.4611011    593.19654  0.020152077    0.0199667            8 
 2454000   0.85108954   -7.4333735    594.81464  0.020198813  0.019959683            7 
 2455000   0.88418954   -7.4786434    593.58678  0.020148906  0.019952647           24 
 2456000   0.85440126   -7.4918026    592.74711  0.020112212  0.019945586            6 
 2457000   0.86524608   -7.4960844    594.20491   0.02015347   0.01993855           13 
 2458000   0.85857967   -7.4833966    592.88689  0.020100586  0.019931484            7 
 2459000   0.85315905   -7.4908152    592.35687   0.02007445   0.01992442           10 
 2460000    0.8440975   -7.4608334    595.09806  0.020159148  0.019917409           22 
 2461000   0.84714732   -7.4372587    594.03078  0.020114817  0.019910386           18 
 2462000   0.86976836   -7.4789155    594.74521  0.020130829  0.019903329           11 
 2463000   0.85232747   -7.4814423    595.18241  0.020137448    0.0198963           16 
 2464000   0.84992453    -7.481275    594.27455  0.020098571  0.019889252            8 
 2465000   0.86409325   -7.5110439    593.92899  0.020078735  0.019882207           12 
 2466000   0.85533734   -7.4837132    594.12931  0.020077362  0.019875172            9 
 2467000   0.86134923   -7.5095611    593.04708  0.020032667  0.019868123           20 
 2468000   0.86425098   -7.4879488    594.89826  0.020087056  0.019861114           15 
 2469000   0.85318236   -7.4659592    593.54287  0.020033174  0.019854167           11 
 2470000      0.84371   -7.4566069    595.80605  0.020101419  0.019847189           11 
 2471000   0.86552953   -7.4604186    595.37597   0.02007878  0.019840216            5 
 2472000   0.83785529   -7.4331313    595.65384  0.020080024  0.019833252            8 
 2473000   0.82794221   -7.4658654    596.35472  0.020095522  0.019826333            5 
 2474000   0.85273361   -7.4440595    596.29573  0.020085413  0.019819412           12 
 2475000   0.85330357   -7.4608971    597.19317  0.020107514  0.019812451            9 
 2476000   0.85876898    -7.481114    596.09619  0.020062473  0.019805487            7 
 2477000   0.84569583   -7.4634208    595.46546  0.020033154  0.019798554           14 
 2478000   0.84211826   -7.4565036    595.04372  0.020010887  0.019791561            4 
 2479000   0.84038605   -7.4878938    596.15772  0.020040262  0.019784585            9 
 2480000   0.85335765   -7.4646633    595.82247  0.020020916  0.019777567            6 
 2481000    0.8405416   -7.4684912    595.07673  0.019987798  0.019770591            9 
 2482000   0.85606664   -7.4897028    594.66951  0.019966073  0.019763587           20 
 2483000   0.87138619   -7.4460956    595.93377  0.020000462  0.019756597           10 
 2484000   0.84719634   -7.5183274    594.05636  0.019929427  0.019749563            6 
 2485000   0.84997512    -7.456984    596.11874  0.019990568  0.019742538            8 
 2486000   0.83669936    -7.484488    597.27272  0.020021209  0.019735549            4 
 2487000    0.8454582   -7.4953352    595.36748  0.019949319  0.019728561            6 
 2488000   0.85653928   -7.4905694    594.45508  0.019910741  0.019721554            4 
 2489000   0.84924736   -7.4814177    594.65666   0.01990949  0.019714533           12 
 2490000    0.8742729   -7.4717244    595.99645  0.019946334  0.019707567           14 
 2491000   0.86138968   -7.5074621    596.44217  0.019953237  0.019700607           15 
 2492000   0.85563109   -7.5135971    594.29156  0.019873313  0.019693618           11 
 2493000   0.85940374   -7.5228606    595.52747  0.019906654  0.019686641           14 
 2494000   0.86558868   -7.5220442    594.19727  0.019854226  0.019679629            5 
 2495000   0.85100727   -7.4815794    595.80994  0.019900132  0.019672647            6 
 2496000   0.83946002    -7.475874    596.39372  0.019911649  0.019665646           11 
 2497000   0.83277931   -7.5171092    594.13214  0.019828198  0.019658657            5 
 2498000   0.83754257   -7.5144471    595.29341  0.019859001  0.019651675           14 
 2499000   0.86156948   -7.4953306    596.21998  0.019881952  0.019644699           48 
 2500000   0.84619674   -7.4850601    596.01874  0.019867291  0.019637719            8 
 2501000   0.85644999   -7.4928146    595.60323  0.019845503  0.019630745            7 
 2502000   0.85146959   -7.4972555     595.4341  0.019831938  0.019623737            7 
 2503000   0.84080952   -7.4989374    596.47271  0.019858593  0.019616696            8 
 2504000   0.83760949   -7.5372638    594.51981   0.01978567  0.019609648           17 
 2505000    0.8502318   -7.5120532    595.88689   0.01982325  0.019602604           12 
 2506000   0.85340669   -7.4964979    596.12698  0.019823323  0.019595576            7 
 2507000   0.84617564   -7.5003945    596.70507  0.019834632  0.019588548           16 
 2508000   0.83160478   -7.4924667    595.34441  0.019781513  0.019581559            5 
 2509000   0.86053118    -7.531059    595.91272  0.019792504  0.019574502           12 
 2510000   0.84411541   -7.4924786    594.89453  0.019750814  0.019567422           10 
 2511000   0.84775855   -7.4831957    595.08058  0.019749123  0.019560351            8 
 2512000   0.85264171   -7.5042465    595.08062  0.019741263  0.019553326           15 
 2513000   0.84827361   -7.5223344    595.65511  0.019752458  0.019546261           15 
 2514000   0.85588816   -7.5256048    594.49999  0.019706311  0.019539224            5 
 2515000   0.86795769   -7.5064541    596.47837  0.019764028  0.019532181            9 
 2516000   0.84192978   -7.5253013    595.14762  0.019712097  0.019525121            9 
 2517000   0.84924102   -7.5096963     594.5154  0.019683333  0.019518051           18 
 2518000   0.84460794   -7.5093712    595.80134  0.019718074  0.019511007            7 
 2519000    0.8367182   -7.5225886    596.52563  0.019734208  0.019503916            6 
 2520000   0.84125173   -7.5407323    594.12127  0.019646867  0.019496903           10 
 2521000   0.84359352   -7.5041258    596.28796  0.019710696  0.019489886            9 
 2522000   0.87109057   -7.5159292    595.93185  0.019691113  0.019482908           19 
 2523000   0.83392632   -7.5202874     596.2631   0.01969425  0.019475901           14 
 2524000   0.85741362   -7.5102743    595.25023  0.019653006   0.01946888            5 
 2525000   0.83954083   -7.5138512     595.9612  0.019668686  0.019461862            8 
 2526000   0.84200993   -7.4991833    597.38145  0.019707754   0.01945486            6 
 2527000   0.85178959   -7.4858475    597.50813  0.019704133  0.019447835           13 
 2528000    0.8452059   -7.5267962    594.70041  0.019603784  0.019440793           21 
 2529000   0.84693021   -7.5146783    595.76876  0.019631236  0.019433755            7 
 2530000   0.83620616   -7.5227905    597.57262  0.019682893  0.019426687           17 
 2531000   0.85739541   -7.5038814     597.1969  0.019662745  0.019419657            8 
 2532000   0.84632709   -7.5214409    596.19738  0.019622083  0.019412621           12 
 2533000   0.83946126   -7.4875488     598.1817  0.019679619  0.019405584           24 
 2534000   0.85022671   -7.4799821    598.20863  0.019672739  0.019398631           10 
 2535000   0.84947193   -7.5232828    596.31973  0.019602884  0.019391743            6 
 2536000   0.84311993   -7.5078448    597.11121  0.019621162  0.019384817           11 
 2537000   0.84825902   -7.4932008    598.09969  0.019645897  0.019377901           12 
 2538000   0.82635112   -7.4968566    596.82432   0.01959628   0.01937096           13 
 2539000   0.86162447   -7.4967123    598.59402  0.019646646  0.019363983            8 
 2540000   0.86040575   -7.5120562    598.56411   0.01963793  0.019357046           10 
 2541000   0.85895108   -7.4901758    597.82765  0.019606049  0.019350084            6 
 2542000   0.85306057   -7.5016514     595.8286  0.019532802  0.019343174            7 
 2543000   0.84728801   -7.4970833    598.19075  0.019602528  0.019336257           10 
 2544000   0.84781599   -7.5013958    596.68138  0.019545381  0.019329289           17 
 2545000    0.8382136   -7.4796658    598.05243  0.019582594  0.019322313            7 
 2546000   0.83293374   -7.5023497     597.7201  0.019564025  0.019315334            8 
 2547000   0.84154603   -7.5261643    597.65339  0.019554161  0.019308419            7 
 2548000    0.8568502   -7.5015632    597.87112  0.019553608  0.019301503            9 
 2549000   0.82871888   -7.5105454     597.9857  0.019549683  0.019294614           10 
 2550000   0.82639983   -7.5246319    596.53282  0.019494536  0.019287675            6 
 2551000   0.84040487   -7.5084424    597.29674   0.01951185  0.019280681           11 
 2552000   0.83119728   -7.4934165    597.01565  0.019495025  0.019273719           21 
 2553000   0.84866739   -7.4924156    599.17699  0.019557938  0.019266797            5 
 2554000    0.8433239   -7.4911912     598.6494  0.019533066  0.019259891            5 
 2555000   0.82209821   -7.4897071    597.84342  0.019499133  0.019252969            6 
 2556000   0.85696937   -7.4630996    598.95481  0.019527739  0.019246052            9 
 2557000   0.83983362   -7.5329709    598.28852  0.019498387   0.01923912            8 
 2558000   0.84759909   -7.5378395    597.13314  0.019453126  0.019232178            8 
 2559000   0.83512677   -7.5368987    596.34821  0.019419963  0.019225179           14 
 2560000   0.84940193   -7.5557609    596.66401  0.019422656  0.019218202           10 
 2561000   0.84905376   -7.5113503     598.5771  0.019477323  0.019211212           10 
 2562000    0.8488207   -7.5209692    597.01271  0.019418836  0.019204284           12 
 2563000   0.85236096    -7.539974    598.00357  0.019443477   0.01919733            7 
 2564000   0.85231376    -7.501104    598.26526  0.019444399  0.019190367           10 
 2565000   0.84592475   -7.5177463    597.12395  0.019399739  0.019183429            4 
 2566000   0.85300121   -7.5193092    599.34318   0.01946425   0.01917649            5 
 2567000   0.84856557   -7.4925978    599.62978  0.019465971  0.019169572           11 
 2568000   0.85290954    -7.463552    598.43958  0.019419768  0.019162695           15 
 2569000   0.83485252   -7.5391336    597.55091  0.019383382   0.01915577            9 
 2570000    0.8368877    -7.533334    599.04053  0.019424142  0.019148835           11 
 2571000   0.84944561   -7.4895945    597.57286  0.019369015  0.019141875            4 
 2572000    0.8542723   -7.5297828    598.61479  0.019395243  0.019134946            8 
 2573000   0.84674476   -7.5030219    597.01523  0.019335899  0.019128019            4 
 2574000   0.83549204   -7.5318344    598.42405  0.019373998  0.019121083            6 
 2575000   0.84434906   -7.4633899    599.99926  0.019417452  0.019114148           11 
 2576000   0.85077204   -7.5324624    598.40772  0.019358428  0.019107193            8 
 2577000   0.83627472   -7.5291831    598.34203  0.019348792  0.019100237           17 
 2578000   0.85988457   -7.5254963    598.77255  0.019355203  0.019093342            8 
 2579000   0.83670389   -7.4998977    600.85258  0.019414908  0.019086455           14 
 2580000   0.84843341   -7.5362828    597.70568  0.019305739  0.019079563           11 
 2581000   0.84487492   -7.5329803    598.01595  0.019308277  0.019072628           10 
 2582000   0.85798299   -7.5749542    596.91959  0.019265414  0.019065707           11 
 2583000   0.83149419   -7.5255314    597.70354  0.019283248  0.019058762            8 
 2584000   0.83642873    -7.530412    599.53693  0.019334911  0.019051871           13 
 2585000   0.85181131   -7.5579752    599.34773  0.019321332  0.019044955           10 
 2586000   0.81982633   -7.5501213    598.91619  0.019299954  0.019038045            7 
 2587000   0.83426072   -7.5285806    598.61664  0.019282845  0.019031152           12 
 2588000   0.85883529   -7.5304136    600.23667  0.019327559  0.019024279           10 
 2589000   0.85226051   -7.5459401    598.87979  0.019276419  0.019017422            8 
 2590000   0.82908053   -7.5331676    599.09331  0.019275847  0.019010534           11 
 2591000   0.81516567   -7.5655855    597.42346    0.0192147  0.019003571           14 
 2592000   0.84615929   -7.5320695    600.32861  0.019300688  0.018996634           15 
 2593000   0.82499089    -7.548067    599.63522  0.019270961  0.018989668            8 
 2594000   0.82975011   -7.5341437    598.01962   0.01921163  0.018982715           10 
 2595000   0.83075427   -7.5629143    598.88661  0.019232068  0.018975789           15 
 2596000   0.84080306   -7.5875686    597.49371  0.019179947  0.018968846           18 
 2597000   0.83276394   -7.5524523    597.90364  0.019185716  0.018961924            7 
 2598000   0.83318784   -7.5823682    597.63104  0.019169587  0.018955002            6 
 2599000   0.84275029   -7.5451113    597.56581   0.01916012  0.018948057            7 
 2600000   0.83504808   -7.5411423    599.75005  0.019222758   0.01894113           17 
 2601000   0.83321247   -7.5546664    599.07439   0.01919372  0.018934226            9 
 2602000   0.82888356   -7.5681625    599.02746   0.01918484  0.018927247           11 
 2603000   0.83618511   -7.5659097    598.53884  0.019161827  0.018920288           10 
 2604000   0.84005475    -7.555882    598.56782  0.019155396  0.018913316           10 
 2605000   0.82059401   -7.5565638    597.97854  0.019129192  0.018906392            8 
 2606000   0.84589281   -7.5494961    599.23325  0.019161974  0.018899464           11 
 2607000   0.82627706   -7.5442783    598.54286  0.019132555  0.018892532           20 
 2608000   0.82604813   -7.5815502    598.90415  0.019136763  0.018885613            6 
 2609000   0.81714838   -7.5666152    597.42176   0.01908208  0.018878678           13 
 2610000   0.83223178   -7.5479855    599.89501  0.019153736  0.018871792           14 
 2611000   0.82738363    -7.550742    599.88971  0.019146231  0.018864889            8 
 2612000   0.82487311   -7.5617942    597.90144  0.019075467  0.018857969           20 
 2613000   0.84038875   -7.5514045    597.65882  0.019060429  0.018851036            8 
 2614000   0.84605524   -7.5541378    599.51811  0.019112411  0.018844122           17 
 2615000   0.83532965   -7.5276199    599.83333  0.019115148  0.018837203            7 
 2616000   0.82616478   -7.5444573    598.74989  0.019073327  0.018830311           11 
 2617000   0.84510828   -7.4949681    600.55404  0.019123489  0.018823422           16 
 2618000    0.8500253   -7.5356108    599.56766  0.019084787  0.018816559           47 
 2619000   0.83422066   -7.5400931    600.46841   0.01910616  0.018809696           13 
 2620000   0.83848636    -7.545088    598.88866  0.019048621  0.018802824           27 
 2621000   0.82064501   -7.5236027    599.11743  0.019048627  0.018795955           19 
 2622000   0.83366112   -7.5008885    600.21789  0.019076338  0.018789113           14 
 2623000   0.84320519   -7.5090869     599.9576  0.019060795  0.018782277           16 
 2624000     0.825432   -7.5347369    600.34343  0.019065785  0.018775435           16 
 2625000   0.84525084   -7.5482539    599.24643  0.019023696  0.018768578            7 
 2626000   0.80624282   -7.5312649    601.33631  0.019082772  0.018761731           22 
 2627000   0.83546663   -7.5388389    601.22654  0.019072026  0.018754885            8 
 2628000    0.8320933   -7.5136605    600.11306   0.01902946  0.018748025            4 
 2629000   0.82610242   -7.5134751    601.59003  0.019069039  0.018741164            9 
 2630000   0.82691676   -7.5423877    599.82907  0.019005991   0.01873431           10 
 2631000   0.83970996   -7.5571229    599.48997  0.018988026  0.018727466           19 
 2632000   0.82375561   -7.5357927    600.86325  0.019024292  0.018720608           10 
 2633000   0.83399804   -7.5711026    599.89886  0.018986544   0.01871374            9 
 2634000   0.82349738   -7.5715522    598.09339  0.018922216  0.018706811            9 
 2635000   0.83480636   -7.5516974    599.15724  0.018948679  0.018699902           19 
 2636000   0.82228296   -7.5535538    600.58003   0.01898647  0.018693014            9 
 2637000   0.83696514   -7.5417894     601.1826  0.018998312  0.018686128           21 
 2638000   0.82798552   -7.5553385    599.82084  0.018948093  0.018679302           11 
 2639000   0.82330911   -7.5526414    598.41168  0.018896415   0.01867244            9 
 2640000   0.82229443   -7.5537972    599.13087  0.018911959  0.018665613           18 
 2641000   0.81928045    -7.562767    599.94359  0.018930443  0.018658742           12 
 2642000   0.81876239   -7.5390212    600.88395  0.018952938  0.018651862           15 
 2643000   0.84533264   -7.5243724    599.67384  0.018907613  0.018645002            5 
 2644000   0.84354709   -7.5564706     598.8445  0.018874322   0.01863814            9 
 2645000   0.81433497   -7.5521095    600.43681  0.018917354  0.018631267           19 
 2646000   0.82669014   -7.5444476    597.90292  0.018830402  0.018624355           16 
 2647000   0.82562601   -7.5744266    599.58165  0.018876138  0.018617477           13 
 2648000   0.85873913   -7.5616617    598.81416  0.018844857  0.018610559            9 
 2649000   0.84397033   -7.5773371    599.93877  0.018873121  0.018603665           12 
 2650000   0.83087833   -7.5411711     601.5335  0.018916148    0.0185968           19 
 2651000   0.82869296   -7.5330099    600.84968  0.018887517  0.018589956           17 
 2652000   0.81383205   -7.5544719    600.27952  0.018862479  0.018583101           11 
 2653000   0.82703401   -7.5762008    598.81974  0.018809516  0.018576265           11 
 2654000   0.82370907   -7.5625383    599.50419   0.01882392  0.018569383           13 
 2655000   0.80574206   -7.5658891    600.05854  0.018834229  0.018562519            4 
 2656000   0.83400202   -7.5719154    599.45841  0.018808309  0.018555629           14 
 2657000   0.82967129   -7.5652746    600.17605  0.018823738  0.018548769           17 
 2658000   0.82925616   -7.5548088    600.38958   0.01882335  0.018541949            9 
 2659000   0.82154211   -7.5400442    600.10197  0.018807258  0.018535064           19 
 2660000   0.84428554    -7.519127    600.44666  0.018810986   0.01852822           40 
 2661000   0.81768432    -7.571182      599.542  0.018775586  0.018521369           16 
 2662000    0.8338748   -7.5798558    599.89565  0.018779603   0.01851448            8 
 2663000   0.82527683   -7.6170295     597.6235  0.018701449  0.018507567           19 
 2664000   0.83200893   -7.5731636    600.58223  0.018786982  0.018500679           10 
 2665000   0.81521642   -7.5787789    600.21335  0.018768397  0.018493806           16 
 2666000   0.79884352   -7.5827731    599.99701  0.018754595  0.018486937           13 
 2667000   0.81939675   -7.5757471     599.4347  0.018729993  0.018480078           10 
 2668000   0.82157389   -7.5718692    598.33328  0.018688571  0.018473253            8 
 2669000   0.80957997   -7.5734872    599.48433  0.018717507  0.018466421           13 
 2670000   0.84913925   -7.5453606    600.89867   0.01875464  0.018459597            7 
 2671000   0.82207607   -7.5646975    599.88291  0.018715928  0.018452766            9 
 2672000   0.83756126   -7.5575194    599.66024  0.018701979  0.018445917           15 
 2673000   0.83250396   -7.5816213    599.94577  0.018703884  0.018439054           16 
 2674000   0.81825933   -7.5786484    599.76431  0.018691234  0.018432197           52 
 2675000   0.82516976   -7.5790391    600.54185  0.018708469   0.01842533           11 
 2676000   0.84393545    -7.621573    599.60594  0.018672333  0.018418435           28 
 2677000   0.82127086   -7.5845252    599.44009  0.018660194  0.018411559           33 
 2678000    0.8214525   -7.6169225    600.23616  0.018677998  0.018404673           38 
 2679000   0.82816053   -7.5881452    599.29866  0.018641865  0.018397825           17 
 2680000   0.83835676   -7.6232291    599.12777  0.018629595  0.018390951           18 
 2681000    0.8272956   -7.5649287    601.30329  0.018690268  0.018384086           13 
 2682000   0.82823393    -7.612648    600.47905  0.018657689  0.018377253           19 
 2683000   0.82580762   -7.5847337    600.84681  0.018662157  0.018370375           13 
 2684000   0.81837236   -7.6147397    600.20781  0.018635364  0.018363479           10 
 2685000   0.83231244   -7.6143779    599.63754  0.018610724  0.018356568            5 
 2686000   0.83306181   -7.5829348     600.6898  0.018636442  0.018349704           15 
 2687000   0.81710399   -7.6198245    599.18801   0.01858293   0.01834282           12 
 2688000   0.80624595   -7.5734904    600.56084  0.018618578  0.018335962           10 
 2689000   0.81181235   -7.6419584    599.54087  0.018580044  0.018329133           26 
 2690000   0.82971489   -7.6307996    601.09642  0.018621327  0.018322283            6 
 2691000   0.79984624   -7.6350137    599.72263  0.018571864  0.018315427            7 
 2692000   0.81995677   -7.5658196    600.38004  0.018585316  0.018308592           11 
 2693000   0.82458114    -7.582948    599.82931  0.018561372  0.018301795            4 
 2694000   0.82301855   -7.6076025    600.43895   0.01857334  0.018294984            8 
 2695000     0.830554   -7.6060374    599.32173  0.018531903  0.018288141            9 
 2696000   0.84511198   -7.6120054    599.92264  0.018543603  0.018281315            8 
 2697000   0.80972303   -7.6049157    602.03512     0.018602  0.018274469            4 
 2698000   0.82868288   -7.5508678    599.11414  0.018504884   0.01826766           13 
 2699000   0.83850087   -7.6044496    601.38846  0.018568249  0.018260829           11 
 2700000   0.82296538   -7.5841522    600.24736  0.018526153  0.018253991           13 
 2701000   0.82403855     -7.62816    599.12005  0.018484513  0.018247114            8 
 2702000   0.83626648   -7.5892447    602.08467  0.018569105  0.018240271            8 
 2703000   0.83180937   -7.5922533    600.26945  0.018506272  0.018233472            5 
 2704000   0.81579869   -7.5909865    601.69713  0.018543427   0.01822667           23 
 2705000   0.82645244   -7.6310372    599.94791  0.018482684  0.018219839            7 
 2706000   0.81304517   -7.6234172    601.38174  0.018520009  0.018212989            7 
 2707000    0.8068831   -7.6200356    600.67777  0.018491496  0.018206144           13 
 2708000   0.81224125   -7.6181049    600.39593  0.018475995  0.018199278           12 
 2709000   0.80670703   -7.5872032    601.10472  0.018490978  0.018192387           11 
 2710000   0.82759105   -7.6001435    600.66737  0.018470706  0.018185539           32 
 2711000   0.81783185   -7.6189395    600.41946  0.018456272  0.018178695            9 
 2712000   0.80751601   -7.6178752    599.26929  0.018414125   0.01817188           15 
 2713000   0.80852921   -7.6033956    600.34236  0.018440298  0.018165054           12 
 2714000   0.82427927   -7.6005542    601.57231   0.01847127   0.01815824           39 
 2715000   0.79530316   -7.6082343    600.41465  0.018428933   0.01815141           18 
 2716000   0.81218822   -7.6072156    600.55506  0.018426456  0.018144568           24 
 2717000   0.82095062   -7.5929116    601.91299  0.018461324  0.018137754            8 
 2718000   0.80635467   -7.6204457    599.22184  0.018372021  0.018130933           13 
 2719000   0.81939721   -7.5766486    600.72328  0.018411281  0.018124095           18 
 2720000   0.80973809   -7.5943971    600.21236  0.018388859  0.018117271           20 
 2721000    0.8128738      -7.6011    600.28385   0.01838429  0.018110471           10 
 2722000   0.81936367   -7.6215567    600.92677  0.018397219  0.018103651           12 
 2723000    0.8032575   -7.6250403    600.65205  0.018382056  0.018096807           14 
 2724000   0.81667942   -7.6162371     601.1941   0.01839189  0.018090001            9 
 2725000   0.82283623    -7.614338    601.03119  0.018380159  0.018083186           18 
 2726000   0.81401501   -7.5772147    600.21975  0.018348611  0.018076366           25 
 2727000   0.81954233    -7.600466     601.6529  0.018385677  0.018069572           14 
 2728000   0.81119129   -7.5722813    601.37516  0.018370453  0.018062808           21 
 2729000   0.80434356   -7.5805026    601.17121  0.018357494  0.018056026            7 
 2730000   0.83301685   -7.6215441    601.90931    0.0183733  0.018049253            7 
 2731000   0.82108482   -7.6030021    601.67138  0.018359312  0.018042448           17 
 2732000   0.81017967   -7.6169465    600.43721  0.018314947  0.018035651            7 
 2733000   0.81128299   -7.5679788    601.96778  0.018354915  0.018028874           16 
 2734000   0.81282053   -7.5808417    602.65359  0.018369105  0.018022128           15 
 2735000   0.82644239   -7.5561692    601.00578  0.018312181  0.018015371           20 
 2736000   0.82597251    -7.591458    601.65207  0.018325173  0.018008631           15 
 2737000   0.80229519   -7.5938463    602.27962  0.018337584  0.018001873            6 
 2738000   0.81256311   -7.5985313    602.35559  0.018333199    0.0179951           10 
 2739000   0.81984421   -7.6188312    600.94848  0.018283695  0.017988344           11 
 2740000   0.81922115   -7.6106928    603.45516  0.018353259  0.017981552            5 
 2741000   0.79654126   -7.5982637    602.00676  0.018302528  0.017974794           16 
 2742000   0.82590931   -7.6194616    602.08595   0.01829826  0.017968028           15 
 2743000   0.81522351   -7.6037725    601.53314  0.018274795  0.017961293            9 
 2744000   0.82889885   -7.6262976    601.59336  0.018269963  0.017954523           14 
 2745000   0.80359816   -7.5903985    601.51853  0.018261036  0.017947798           10 
 2746000   0.80910205   -7.5852062    602.83078  0.018294209  0.017941097            8 
 2747000   0.82783375   -7.6058933    601.66858  0.018252293  0.017934372            9 
 2748000     0.792053   -7.6106992    602.52145  0.018271514  0.017927699           14 
 2749000   0.81776697   -7.6194976    602.04732  0.018250495  0.017921038           11 
 2750000   0.80356648   -7.6000625    603.14786  0.018277208  0.017914352           19 
 2751000   0.79213397   -7.5870701    603.51093  0.018281562  0.017907723           11 
 2752000    0.8036727   -7.5905401    604.22915  0.018296667  0.017901077            8 
 2753000   0.79402359   -7.5895378    603.12765  0.018256679  0.017894421           10 
 2754000    0.8285363   -7.6040243    602.02493  0.018216683  0.017887764           18 
 2755000   0.83187461   -7.6093728    602.56613  0.018226441  0.017881088            8 
 2756000   0.78680452   -7.6101698    603.45469  0.018246695   0.01787439           10 
 2757000    0.8260977   -7.6105243     603.3031  0.018235494  0.017867697           11 
 2758000   0.80940325   -7.6321964    602.78514  0.018213233  0.017860987           10 
 2759000   0.80332788   -7.5982103    602.48308  0.018197508  0.017854315           21 
 2760000   0.82293939   -7.6075529    604.42349  0.018249501  0.017847633            4 
 2761000   0.80904958   -7.6248356    601.42083  0.018152265  0.017840947           13 
 2762000   0.81319802   -7.6323784    601.92102  0.018160784  0.017834277            6 
 2763000   0.79407268   -7.6479797    602.29655  0.018165537  0.017827607            9 
 2764000   0.81473091   -7.6174564    602.19564  0.018155922  0.017820911           18 
 2765000   0.80377175   -7.6399974    601.93577  0.018141524  0.017814187           25 
 2766000   0.81307259   -7.6493832    602.70885  0.018158256  0.017807448           13 
 2767000   0.81299657    -7.623357    602.63424  0.018149447  0.017800746           11 
 2768000    0.8130283   -7.6160118    603.65796   0.01817371  0.017794089           19 
 2769000   0.79004774   -7.6655143    602.38827  0.018128935  0.017787402           15 
 2770000   0.79285584   -7.6553254    602.35054  0.018121256   0.01778074           14 
 2771000   0.79591354   -7.6550087    601.55248  0.018090716  0.017774033           12 
 2772000   0.78785634   -7.6414814    602.11155  0.018100997  0.017767318           19 
 2773000    0.8183126   -7.6560269    603.47467  0.018135433  0.017760636           11 
 2774000   0.80585919   -7.6391836    602.87389  0.018110847  0.017753956            7 
 2775000   0.81490099    -7.647874    601.73423  0.018070097  0.017747251            9 
 2776000   0.82013707   -7.6442183    602.02004  0.018072168  0.017740583            9 
 2777000   0.81388898   -7.6318763    602.35435  0.018075692  0.017733933            9 
 2778000   0.80529976   -7.5967293    601.67141  0.018048698  0.017727282            7 
 2779000   0.81260072   -7.6210335    603.47344  0.018096241   0.01772065           13 
 2780000    0.8039604   -7.6317961    602.43927  0.018058731  0.017713975            8 
 2781000   0.80331859   -7.6260002    602.09369  0.018041882  0.017707277           12 
 2782000   0.81875195   -7.6533457    600.98207  0.018002099  0.017700584           12 
 2783000   0.79998458     -7.63124    602.51658  0.018041579  0.017693871            8 
 2784000    0.8186434   -7.6420144    604.11082  0.018082819  0.017687206           12 
 2785000   0.80576244    -7.636286    602.80378  0.018037217  0.017680554           13 
 2786000   0.80663591   -7.6354035    603.06169  0.018038457  0.017673898           11 
 2787000   0.81889636   -7.6359751    600.66407  0.017960294   0.01766723            6 
 2788000   0.81657558   -7.6392591    602.49896  0.018008697  0.017660583           15 
 2789000   0.80184806   -7.6142899    602.90612  0.018014405  0.017653926           18 
 2790000   0.79924805   -7.6568477    602.53918  0.017996989  0.017647288           36 
 2791000   0.79168957   -7.6547907    601.44663  0.017957919  0.017640634           16 
 2792000   0.81455336   -7.6418188    603.20544  0.018003983  0.017634025           18 
 2793000   0.81214699   -7.6284406    601.77722  0.017954924  0.017627386           30 
 2794000   0.79754821   -7.6418987     604.7757  0.018037929  0.017620722           12 
 2795000   0.81158108   -7.6452416    604.00621  0.018008533  0.017614098           28 
 2796000   0.79504347   -7.6498899    601.87006  0.017938426  0.017607499           21 
 2797000   0.78996528   -7.6524777    604.02928  0.017996344  0.017600888           36 
 2798000   0.80027667   -7.6713892    602.86821  0.017955331  0.017594275           41 
 2799000    0.8083049    -7.650299    602.74892  0.017945365  0.017587652           18 
 2800000   0.82469496   -7.6754249    603.43274  0.017959308  0.017581038           35 
 2801000   0.81278943   -7.6451158    604.56808  0.017986674  0.017574419           20 
 2802000   0.80805495   -7.6589612    603.85476   0.01795904   0.01756778           41 
 2803000   0.79696927   -7.6419832    604.12271  0.017960599  0.017561133           13 
 2804000   0.80864378   -7.6743614    602.52017  0.017906567  0.017554508           28 
 2805000   0.80889105   -7.6182982    604.03447  0.017945171  0.017547917           57 
 2806000   0.79250698   -7.6791621    601.32876  0.017858421  0.017541298           23 
 2807000   0.78430762   -7.6522276    603.59598  0.017919368  0.017534684           15 
 2808000   0.79702849   -7.6475378    602.68333  0.017885901  0.017528082           24 
 2809000   0.81302697   -7.6460121    602.75122  0.017881548  0.017521469           64 
 2810000   0.80171686   -7.6317109    603.90758  0.017909478  0.017514849           51 
 2811000   0.80189205   -7.6508093    602.05656  0.017848232  0.017508208           27 
 2812000   0.79165252    -7.686117     602.2335  0.017847128  0.017501563           32 
 2813000   0.79358008   -7.6915908    602.06964   0.01783593  0.017494889           37 
 2814000   0.81596805   -7.6938889    601.77378   0.01782083  0.017488195           32 
 2815000   0.82276583   -7.7021037     601.2225   0.01779818  0.017481505           35 
 2816000   0.79208163    -7.699528    602.61289  0.017833004  0.017474842           37 
 2817000   0.79946593   -7.7139996    601.60298  0.017796798  0.017468162           36 
 2818000   0.80509243   -7.7071707     601.4411  0.017785696  0.017461512           23 
 2819000   0.82345546   -7.7206811    601.78032  0.017789415  0.017454833           31 
 2820000   0.80497183   -7.7051777    603.46254  0.017832817  0.017448183           39 
 2821000   0.79405346   -7.6993044    601.71717  0.017774937  0.017441497           25 
 2822000   0.81819126   -7.6818586    601.98147  0.017776443  0.017434826           31 
 2823000   0.79632828   -7.6715543    601.81257   0.01776516  0.017428124           18 
 2824000   0.81271394    -7.692141    602.35311   0.01777482  0.017421464           21 
 2825000   0.80271778   -7.6954863    602.05842  0.017759835  0.017414842           16 
 2826000   0.80384024   -7.6954808    602.85547  0.017777054  0.017408188           20 
 2827000   0.79173853   -7.6610811    602.75453  0.017767791  0.017401512            9 
 2828000   0.81300802   -7.6881348    602.20272  0.017745248  0.017394849           26 
 2829000   0.78193974   -7.7210377    599.98215  0.017673564  0.017388176           46 
 2830000   0.78952544   -7.6717728    603.14146  0.017760349  0.017381518           37 
 2831000   0.79484163   -7.6973154     601.2919  0.017699632  0.017374871           48 
 2832000   0.80041247    -7.693232    603.05994  0.017745408  0.017368221           43 
 2833000   0.80044262   -7.6605445    604.35134  0.017777131  0.017361589           24 
 2834000   0.79305415   -7.6747598    602.76607  0.017724243  0.017354975           34 
 2835000   0.78910122   -7.6713553    603.00432  0.017724995  0.017348357           43 
 2836000   0.79955609   -7.6817429    601.48764  0.017674178   0.01734174           11 
 2837000    0.7985496   -7.6751158    602.60038  0.017700634  0.017335128           20 
 2838000   0.80512978   -7.6982317    601.67199  0.017667136  0.017328518           37 
 2839000   0.79763665   -7.6994983    602.13655  0.017674549  0.017321867           15 
 2840000   0.80127436   -7.7070861    601.95514  0.017663003   0.01731523           33 
 2841000   0.77844907   -7.6613466     603.0895  0.017690059  0.017308611           42 
 2842000   0.80382376   -7.6859061    602.27633  0.017659991  0.017302017           56 
 2843000   0.81235345   -7.6775714    602.19881  0.017651507  0.017295419           29 
 2844000   0.80881791   -7.6626664     603.8295  0.017693082  0.017288837           47 
 2845000   0.77899625   -7.6619401    602.56193  0.017649734  0.017282242           35 
 2846000    0.7860512   -7.7092665    602.10037  0.017630018  0.017275622           44 
 2847000   0.79576437   -7.7098383    602.58669   0.01763806  0.017269022           38 
 2848000   0.80850558   -7.6914874    602.53295  0.017630295   0.01726243           48 
 2849000    0.8023176   -7.6657361    604.13655  0.017671012  0.017255852           31 
 2850000   0.79129423   -7.7060352    603.51653  0.017646682  0.017249288           31 
 2851000   0.80297522   -7.6769629    603.93039  0.017652589  0.017242695           34 
 2852000      0.80836   -7.6834859     603.1761   0.01762436  0.017236112           36 
 2853000   0.78755162   -7.6893538    603.52936  0.017628501  0.017229529           45 
 2854000   0.80044214   -7.7310238    602.03906  0.017578809  0.017222943           47 
 2855000   0.77353753   -7.6623494    603.10083  0.017603644  0.017216341           28 
 2856000   0.79407175   -7.7028808    603.78784  0.017617526  0.017209743           17 
 2857000   0.79904384    -7.710602    602.82953  0.017583407  0.017203157           31 
 2858000   0.79701911   -7.6772033    603.96379  0.017610327  0.017196583           15 
 2859000   0.79113856   -7.6976012    603.38375  0.017587261  0.017190015           15 
 2860000   0.81253894   -7.6668617    603.68531  0.017589898  0.017183465           15 
 2861000   0.79820738   -7.6809043    604.22374  0.017599433  0.017176913           15 
 2862000   0.80874443   -7.6875903    603.86224  0.017582758  0.017170355           18 
 2863000   0.78963704   -7.7149471    601.37414  0.017504196  0.017163767           19 
 2864000   0.78051572   -7.7102888    603.25632  0.017552849  0.017157182           19 
 2865000   0.78572563   -7.7150564    602.41341  0.017522205  0.017150575           58 
 2866000   0.80003872    -7.715949    601.96204  0.017502967  0.017143945           15 
 2867000   0.78165633   -7.7020231    602.92581  0.017524875  0.017137308           54 
 2868000    0.7955783   -7.7163945    603.26009  0.017528478  0.017130676            5 
 2869000    0.7972162   -7.7413547    601.67746  0.017476399  0.017124033           12 
 2870000   0.79424038    -7.746694    600.67295  0.017441143  0.017117408           25 
 2871000   0.79516715   -7.7379782    600.81461   0.01743918  0.017110792           10 
 2872000   0.79481031    -7.751163    601.32663  0.017447964  0.017104153           12 
 2873000   0.80132294   -7.7245855    603.21572  0.017496685  0.017097551           22 
 2874000   0.78839254   -7.7514959    600.90333  0.017423548  0.017090943           14 
 2875000   0.78509404   -7.7181451      601.673  0.017439797  0.017084342           20 
 2876000   0.79503914   -7.7046341    601.76991  0.017436541  0.017077756           15 
 2877000   0.78311262   -7.6814837    604.11745  0.017498478    0.0170712           13 
 2878000     0.788674   -7.6933893    603.31057  0.017469034   0.01706464           31 
 2879000   0.80493163   -7.6944521    602.58011  0.017441823  0.017058077           23 
 2880000   0.79450081   -7.7019838    601.79812   0.01741314  0.017051504           11 
 2881000   0.77586191   -7.6589858    604.37854  0.017481735   0.01704495           13 
 2882000   0.79303281   -7.7092616    601.92757  0.017404799  0.017038411           28 
 2883000   0.81178198   -7.6861938    602.98552  0.017429342  0.017031839           24 
 2884000   0.78968366   -7.6991154    603.31446  0.017432803   0.01702528           18 
 2885000    0.7841531   -7.7092557    602.35095   0.01739893  0.017018718           34 
 2886000   0.77893282   -7.6841843    601.32809  0.017363366  0.017012137           24 
 2887000   0.78703172   -7.7342589    602.42386  0.017388981   0.01700556           31 
 2888000   0.78677534   -7.7023847    602.33305   0.01738034  0.016998974           16 
 2889000   0.79417862   -7.7181922    601.24414  0.017342914  0.016992428           44 
 2890000   0.79007736   -7.7026557    602.11882  0.017362134   0.01698588           26 
 2891000   0.78422217    -7.713569    603.31103  0.017390494  0.016979332           26 
 2892000   0.78244596   -7.7150704    602.30629  0.017355529  0.016972759           36 
 2893000   0.79785359   -7.7376629     602.1129  0.017343959  0.016966175           27 
 2894000   0.77804156    -7.720631    602.10227   0.01733766  0.016959586           33 
 2895000   0.79681252   -7.7432082    601.88898  0.017325532  0.016953019           35 
 2896000   0.77244122   -7.6987154     602.4678  0.017336205  0.016946428           34 
 2897000    0.7872056   -7.7212194    602.18363  0.017322047  0.016939849           57 
 2898000   0.79184609   -7.7216239    599.83011  0.017248393  0.016933236           59 
 2899000   0.77761406   -7.7385139    601.00712  0.017276277  0.016926631           25 
 2900000   0.80007024   -7.7330159    601.72785   0.01729103  0.016920064           52 
 2901000   0.76161052   -7.6930761    602.65751  0.017311775   0.01691351           39 
 2902000   0.78333824   -7.7083141    602.45347   0.01729995  0.016906958           21 
 2903000   0.77345517    -7.714919    602.81349  0.017304326  0.016900396           28 
 2904000   0.78277017   -7.6851872     603.3154   0.01731277  0.016893843           18 
 2905000   0.77069683   -7.7028244     602.7702   0.01729117  0.016887322           14 
 2906000   0.78637894   -7.6957025    603.74135  0.017313069  0.016880811           18 
 2907000    0.7991079   -7.6905486    602.38989  0.017268372  0.016874308           11 
 2908000   0.78968802   -7.6986874    603.53912  0.017295367  0.016867803           19 
 2909000   0.77860961   -7.7116149    603.98523  0.017302201  0.016861305           40 
 2910000   0.79529505   -7.7173709    601.96959  0.017238533  0.016854821           12 
 2911000   0.76485855   -7.7181734    602.82996  0.017257241  0.016848336           11 
 2912000   0.77200066   -7.7122383    603.57474  0.017272629  0.016841803           20 
 2913000   0.78561943   -7.6994867    602.82253   0.01724518  0.016835289           17 
 2914000   0.78194289   -7.6764185    602.96566  0.017243356  0.016828729           14 
 2915000   0.80827007   -7.7087163    603.87318  0.017263384  0.016822191           23 
 2916000   0.78666001   -7.7354595    601.80994  0.017198501  0.016815672           37 
 2917000   0.79382431   -7.7474177    601.05706  0.017171097  0.016809113           25 
 2918000   0.76844613   -7.7421676    601.87049  0.017188442  0.016802553           32 
 2919000     0.785286   -7.7310672    602.88626  0.017211552  0.016796029           15 
 2920000   0.76994145   -7.7179993    603.86255   0.01723352  0.016789509           29 
 2921000   0.79060647   -7.7411935    602.71661  0.017194928  0.016782977           28 
 2922000   0.80062216    -7.706519    601.40708  0.017151696  0.016776472           27 
 2923000    0.7768117    -7.746824    601.80021  0.017157037  0.016769953           36 
 2924000   0.79604898   -7.7143557    602.87986  0.017181939  0.016763413           47 
 2925000   0.77986775   -7.7489651    601.07469  0.017124635   0.01675688           74 
 2926000   0.77410707   -7.7587401    601.86221  0.017141211  0.016750344           63 
 2927000   0.78531661   -7.7654839    601.24661  0.017117829  0.016743765           21 
 2928000   0.78233144   -7.7675006     602.0462  0.017134739  0.016737196           28 
 2929000   0.80776689   -7.7530771    600.95675  0.017097893  0.016730645           36 
 2930000   0.79617441   -7.7517011    601.77521  0.017115336  0.016724078           67 
 2931000   0.78531447   -7.7575856    601.64761  0.017105868  0.016717538           47 
 2932000   0.77702995   -7.7710024    600.31871  0.017062264  0.016710981           69 
 2933000   0.78198511   -7.7656766    600.88985  0.017072674  0.016704424           92 
 2934000   0.77275778   -7.7861722    600.33172  0.017051003  0.016697849           71 
 2935000    0.7720433   -7.7640835     600.4141  0.017047533  0.016691311           84 
 2936000   0.77865003   -7.7633321     601.1854  0.017063618  0.016684774           27 
 2937000   0.76435128   -7.7713408     602.1587  0.017085424  0.016678255           63 
 2938000   0.76651177   -7.7372684    603.41153  0.017115144  0.016671738           72 
 2939000   0.77185736   -7.7412948    602.28549  0.017077393  0.016665227           51 
 2940000   0.77953801   -7.7258193    601.61801  0.017052665  0.016658713           35 
 2941000   0.77936931   -7.7686309    602.39351   0.01706884  0.016652174           27 
 2942000   0.78760704   -7.7556848    601.68941  0.017043095  0.016645667           97 
 2943000   0.78608094   -7.7784626    600.56903  0.017005579  0.016639143           26 
 2944000   0.77934079   -7.7871207    601.37941  0.017022741  0.016632596           37 
 2945000   0.78745949   -7.7798207    601.52893  0.017021192  0.016626061           63 
 2946000    0.7851352    -7.778816     600.5164  0.016986773  0.016619525           87 
 2947000    0.7665527   -7.7657037    601.05624  0.016996274  0.016612989           62 
 2948000   0.76523061   -7.7924401    601.82441  0.017012223  0.016606471           31 
 2949000   0.77208103    -7.785849    601.05118  0.016984604  0.016599957           52 
 2950000   0.77029358   -7.7423459    603.69378  0.017053497  0.016593444           21 
 2951000   0.78071769   -7.7539774    602.17234  0.017004754  0.016586958           12 
 2952000   0.76631601   -7.7606063    601.68721  0.016985298  0.016580469           17 
 2953000   0.79551921   -7.7501252    603.30865  0.017025303     0.016574           22 
 2954000   0.77933533   -7.7689746    602.09426  0.016985282  0.016567546           43 
 2955000   0.78462173   -7.7711676    601.99008  0.016976595   0.01656105           20 
 2956000    0.7910289   -7.7821071    602.53125  0.016986109  0.016554559           32 
 2957000   0.78049552   -7.7743161    602.69967  0.016985111  0.016548064           28 
 2958000   0.76941264   -7.7938019    602.23153   0.01696618  0.016541576           26 
 2959000   0.78640804    -7.783899    599.68896  0.016888841  0.016535077           55 
 2960000   0.77122066   -7.7898937    602.29866  0.016956606   0.01652858           14 
 2961000   0.77073765   -7.7884065     601.8591  0.016938509  0.016522097           22 
 2962000   0.79416008   -7.7709203    603.20968  0.016970788  0.016515634           21 
 2963000   0.79094021    -7.770014    600.46676  0.016887917  0.016509155           19 
 2964000   0.78767423   -7.7867288      601.351  0.016907079  0.016502676           14 
 2965000   0.77599246   -7.7970711    601.13567  0.016895325  0.016496187           40 
 2966000   0.78202688   -7.7884555    601.42859  0.016897859  0.016489709           32 
 2967000   0.78321438   -7.7571357    601.77215  0.016901813   0.01648324           20 
 2968000   0.76915041   -7.7601868    601.85447   0.01689843  0.016476793           25 
 2969000   0.75849973    -7.726457    603.15457  0.016929229  0.016470338           14 
 2970000   0.79294335   -7.7547641    602.05717  0.016892738  0.016463896           51 
 2971000   0.79017726   -7.7325479    602.45888  0.016898319  0.016457461           45 
 2972000   0.76986281   -7.7334164    603.10113  0.016910642  0.016451044           47 
 2973000   0.78042505   -7.7492923    602.06022  0.016875777  0.016444631           18 
 2974000   0.77810057   -7.7351776    604.11328  0.016927631  0.016438184           41 
 2975000   0.76684402   -7.7617371    602.96503  0.016889777  0.016431745           31 
 2976000   0.77582142   -7.7343813    603.62539  0.016902593  0.016425341           35 
 2977000   0.78737064   -7.7643052    602.20248  0.016857084   0.01641893           76 
 2978000   0.76996652   -7.7599038    601.22714  0.016824131  0.016412513           44 
 2979000    0.7658462   -7.7884917    600.89571  0.016809212  0.016406098           23 
 2980000   0.78447141   -7.7439164    601.82851  0.016829656   0.01639967           44 
 2981000   0.74968521   -7.7824118    603.29546  0.016865019  0.016393253           50 
 2982000   0.75630078   -7.7647057    601.97833  0.016822556  0.016386825           37 
 2983000   0.77257898   -7.7810761    602.55978   0.01683316  0.016380385           18 
 2984000   0.78999138   -7.7946555    601.76593  0.016805349  0.016373972           11 
 2985000   0.77123826   -7.7532777    601.34101  0.016787856  0.016367535           43 
 2986000    0.7732891   -7.7669217    602.25779  0.016807819  0.016361104           25 
 2987000   0.78615621   -7.8105026    601.58756  0.016783494  0.016354666           31 
 2988000    0.7738521   -7.7831051    601.26327  0.016768833  0.016348235           32 
 2989000   0.76105548   -7.7610938    602.41412  0.016795308  0.016341848           44 
 2990000   0.76869368   -7.7766436    601.82967  0.016773402  0.016335471           61 
 2991000   0.78963862   -7.7915231    601.73525  0.016765164  0.016329098           39 
 2992000   0.77368794   -7.7811394    602.31548  0.016775721  0.016322716           39 
 2993000   0.76757232   -7.7640357    602.69683  0.016780734  0.016316313           71 
 2994000   0.77540478   -7.7628087    602.92126  0.016781376   0.01630992           41 
 2995000   0.79138949   -7.7800132     602.1597  0.016754583  0.016303554           39 
 2996000   0.76841065   -7.8071601    601.93012  0.016742605  0.016297179           53 
 2997000   0.77296273   -7.8076032    602.08186  0.016741237  0.016290807           47 
 2998000   0.77689657   -7.7875897    602.13829  0.016737222  0.016284447           32 
 2999000   0.78483613   -7.7719068    601.56496   0.01671571  0.016278101           61 
 3000000    0.7743243   -7.7841925     603.5696  0.016765822  0.016271739           56 
 3001000   0.76866298   -7.7790375    601.83315  0.016712017  0.016265366           28 
 3002000   0.77636073   -7.7876759    601.84805  0.016706864  0.016259009           42 
 3003000   0.76713939   -7.7890361    602.97007  0.016732436  0.016252658           39 
 3004000   0.76119789   -7.7576798    602.14253   0.01670391  0.016246319           66 
 3005000   0.77954347   -7.7820693    603.19958  0.016727665  0.016239972           61 
 3006000   0.75122555   -7.7626642    603.83022  0.016739583  0.016233626           42 
 3007000   0.77657257   -7.7817341    602.23109  0.016689699   0.01622727           70 
 3008000   0.77307529   -7.8118066    602.97834  0.016704852  0.016220895           93 
 3009000   0.76278124   -7.7946358    603.22469  0.016706123  0.016214525           76 
 3010000   0.76585739   -7.8081136    602.10939  0.016669695  0.016208157           94 
 3011000   0.76375647   -7.7968202    601.44381  0.016645738  0.016201777           68 
 3012000    0.7560248   -7.8464919     600.8879  0.016624831  0.016195401           84 
 3013000    0.7717965   -7.8249153    601.56634  0.016638078  0.016189002           53 
 3014000   0.76999585   -7.8091764    603.24718  0.016679031  0.016182609           57 
 3015000    0.7508362   -7.8256538    602.81088  0.016661439  0.016176218           71 
 3016000   0.78682363   -7.8201821    603.39692  0.016672108  0.016169841           78 
 3017000   0.76882501   -7.8398267    601.36782  0.016610535  0.016163452           59 
 3018000   0.76575066   -7.8482736    602.23014  0.016628842  0.016157049          110 
 3019000   0.75249981   -7.8423846    600.96016  0.016588279  0.016150643          110 
 3020000    0.7546407   -7.8269549    601.50216  0.016597742  0.016144239           75 
 3021000   0.75925304   -7.8197107    601.45289  0.016590889  0.016137839          101 
 3022000   0.75373036   -7.8435445    600.54236   0.01656029  0.016131427          104 
 3023000   0.76964348   -7.8252755     601.1821  0.016572447  0.016125031           53 
 3024000   0.77810632   -7.8152849    601.29451  0.016570065  0.016118639           55 
 3025000   0.76136873   -7.8306381    601.93646  0.016582272  0.016112239           66 
 3026000   0.75169767    -7.824788    601.70241  0.016570346  0.016105858           54 
 3027000   0.76750335   -7.8360337    600.90441  0.016542903   0.01609949           45 
 3028000   0.76224034   -7.7948654    603.53189   0.01660975  0.016093131           45 
 3029000   0.76709804   -7.8278043    601.76523  0.016555663  0.016086798           53 
 3030000    0.7602963   -7.8234978    601.20766  0.016534864  0.016080457           56 
 3031000   0.75556355   -7.8073659    602.42733  0.016562942  0.016074098           38 
 3032000   0.76848586   -7.8548917    601.13036  0.016521833  0.016067746           57 
 3033000   0.76563835   -7.8440539    601.06999  0.016514727  0.016061371           49 
 3034000   0.77050661   -7.8221777    601.43458  0.016519297  0.016054973           52 
 3035000   0.74828715   -7.8352355     601.2129  0.016507768  0.016048597           91 
 3036000   0.74960842   -7.8260163    601.55407  0.016511695  0.016042245           64 
 3037000   0.75678336   -7.8447193    601.48162   0.01650427  0.016035884           39 
 3038000   0.76588901   -7.8292493    601.85688  0.016509131  0.016029532          140 
 3039000   0.75773091   -7.8239523    602.64556  0.016525325  0.016023194          107 
 3040000    0.7760433   -7.8354167    601.33681  0.016484014  0.016016845          108 
 3041000   0.76691827   -7.8065442    600.94121  0.016467752   0.01601051           45 
 3042000   0.76319646   -7.7955552    602.53418  0.016505977  0.016004186           57 
 3043000   0.75855472   -7.8225787     601.2162  0.016464459   0.01599784           55 
 3044000   0.76409679   -7.8348347    600.06536  0.016427545  0.015991504           65 
 3045000   0.76222348   -7.8515216    600.51925  0.016434572   0.01598517          135 
 3046000    0.7625016   -7.8180468    601.31046  0.016450822  0.015978827           57 
 3047000   0.77338496   -7.8036457    602.11506  0.016467429  0.015972512           52 
 3048000   0.77228718    -7.805627    603.30122  0.016494456  0.015966191           61 
 3049000   0.77450993    -7.802007    603.16205  0.016485242  0.015959878           57 
 3050000   0.76988233   -7.8145601    601.50607  0.016434592  0.015953562           62 
 3051000   0.76812132     -7.77959    602.41408  0.016454006  0.015947259           88 
 3052000   0.74920355   -7.8170443    603.06372  0.016466353  0.015940958           40 
 3053000   0.75715486   -7.8212015    601.37558  0.016414881  0.015934676           81 
 3054000   0.75333573   -7.8011395    601.86305  0.016422808  0.015928375           45 
 3055000    0.7743744   -7.8298823      601.729  0.016413775  0.015922093          118 
 3056000   0.76546254   -7.7906614    602.13636  0.016419512  0.015915804           48 
 3057000   0.74378975   -7.7986471    600.80495  0.016377847  0.015909526          126 
 3058000   0.75818568    -7.782905     602.4881  0.016418359  0.015903256          104 
 3059000   0.75424213   -7.8246462    601.92289  0.016397594  0.015897005           76 
 3060000   0.74878735   -7.8239726    602.40262    0.0164053  0.015890748           45 
 3061000   0.75506692   -7.8310329    602.61946  0.016405844  0.015884482          119 
 3062000   0.76423798   -7.8223708    601.66454  0.016374498  0.015878216          135 
 3063000   0.76838721   -7.8203009    602.38489   0.01638875  0.015871937           87 
 3064000   0.74480948   -7.8322692    601.19316  0.016350989  0.015865683           77 
 3065000   0.75757269   -7.7959324    603.85338  0.016417982  0.015859419           95 
 3066000   0.77380687   -7.8431277     600.8061  0.016329803  0.015853152           52 
 3067000   0.76269098   -7.8204456    601.91773  0.016354682  0.015846879          138 
 3068000    0.7602141   -7.7929032    602.41508  0.016362861  0.015840628           85 
 3069000   0.77175108   -7.8248484    601.14114  0.016322937  0.015834374           97 
 3070000    0.7677505   -7.8484469    602.17993  0.016345818  0.015828124          131 
 3071000   0.76085047   -7.8342361     601.9712  0.016334831  0.015821868          135 
 3072000   0.75397556   -7.8416261    601.35105  0.016312691  0.015815605          164 
 3073000   0.77426589   -7.8255676    602.65764  0.016342815  0.015809366          106 
 3074000   0.76934349   -7.8207313     602.4957  0.016333108  0.015803116           73 
 3075000    0.7598801   -7.8402596    601.38752  0.016297765  0.015796866          107 
 3076000   0.76570116   -7.8078755    602.87071  0.016332648  0.015790647           88 
 3077000   0.75317703    -7.816737    603.09995  0.016333549  0.015784437          111 
 3078000   0.76710967   -7.8273982    602.02148  0.016299044  0.015778216          106 
 3079000   0.76252234   -7.8468249      601.316  0.016274656     0.015772           76 
 3080000   0.75282079    -7.817398    602.90684  0.016312415  0.015765785          204 
 3081000   0.75873483   -7.8368713    601.67795  0.016273882  0.015759569           95 
 3082000   0.77139773   -7.8305005    601.48219  0.016263308  0.015753352          106 
 3083000   0.74914296   -7.8144539    604.16474  0.016330542  0.015747166           89 
 3084000   0.73558677   -7.8063172    603.09816  0.016296427  0.015740993           92 
 3085000   0.77402183    -7.814542    603.76112  0.016309052  0.015734829          107 
 3086000   0.75790124    -7.837681    603.12342  0.016286547  0.015728679          104 
 3087000   0.76202128   -7.8260121    603.49302  0.016291249  0.015722512           95 
 3088000   0.75300031   -7.8343936    603.47744  0.016285553   0.01571632          162 
 3089000   0.75028583   -7.8347223    602.12009  0.016243663  0.015710144          183 
 3090000   0.75142732   -7.8021794    603.13305  0.016265724  0.015703965          178 
 3091000   0.75716579   -7.8331386    601.22082  0.016208908  0.015697781          160 
 3092000   0.75866574   -7.8468475    602.22563  0.016230747  0.015691595           99 
 3093000   0.74425649   -7.8337407    601.64849   0.01620995  0.015685416          137 
 3094000   0.76104171   -7.8338686    602.63865  0.016231379  0.015679244          122 
 3095000   0.76089721    -7.839962    603.73917  0.016255767  0.015673067          134 
 3096000   0.75072233   -7.8259391    602.77288  0.016224507  0.015666878          127 
 3097000   0.74522903   -7.8058986    601.26517  0.016178699  0.015660684          130 
 3098000   0.75826159   -7.8190179    602.94525  0.016218669  0.015654504          109 
 3099000   0.75392332   -7.8054218     603.0441  0.016216094  0.015648318          128 
 3100000   0.76145125   -7.8182791    603.07035  0.016211568  0.015642152          131 
 3101000   0.76245037   -7.8385923     603.3501  0.016213858  0.015636009          129 
 3102000   0.76222861   -7.8547869    602.23751  0.016178743  0.015629846          143 
 3103000   0.76303808   -7.8545792    602.60773  0.016183471  0.015623682          137 
 3104000   0.77712002   -7.8522646    601.98145  0.016161444  0.015617518          140 
 3105000   0.75143532   -7.8696224    602.32483  0.016165454  0.015611335          106 
 3106000   0.73966999    -7.878112    602.81274   0.01617334  0.015605171          273 
 3107000   0.77272547    -7.863895     601.7952  0.016140843  0.015599007          161 
 3108000   0.74058129   -7.8561756    602.36977  0.016151056  0.015592831          157 
 3109000   0.76445994   -7.8478301    603.37584  0.016172827   0.01558667          300 
 3110000   0.74314458   -7.8572788    602.25164  0.016137504  0.015580503          153 
 3111000   0.73673851   -7.8473356    603.70211   0.01617117  0.015574342          170 
 3112000   0.74971247   -7.8368251    602.89279  0.016144301    0.0155682          191 
 3113000   0.75213291    -7.857565    602.47754  0.016127999   0.01556205          194 
 3114000   0.74559192    -7.856034    603.02099  0.016137363   0.01555591          191 
 3115000   0.75713085   -7.8581201    603.07055  0.016133508  0.015549783          222 
 3116000   0.75861889   -7.8679595    603.76746  0.016146969   0.01554364          196 
 3117000   0.76795209   -7.8789518    602.49818  0.016107854  0.015537495          216 
 3118000   0.75927425     -7.87139    602.70126  0.016108116  0.015531352          219 
 3119000   0.75732627   -7.8508699     602.7431  0.016104069  0.015525206          235 
 3120000   0.73307516   -7.8631526    602.99923  0.016105749  0.015519077          159 
 3121000   0.75163524   -7.8784326    602.65587   0.01609142  0.015512916          160 
 3122000   0.76616796   -7.8632006     601.2945  0.016049928  0.015506757          145 
 3123000   0.76122712   -7.9107626    601.50423  0.016050385   0.01550061          185 
 3124000   0.75074127   -7.8987166    602.24923   0.01606512   0.01549447          367 
 3125000    0.7544087   -7.8871798     602.3332  0.016062219  0.015488329          339 
 3126000     0.761362   -7.8717792    602.02675  0.016048911  0.015482191          179 
 3127000   0.74336411   -7.9036341    601.14374  0.016020247  0.015476054          319 
 3128000   0.74866932   -7.8883004    601.26028   0.01601823  0.015469932          145 
 3129000   0.74649204   -7.9007329    601.29847  0.016014128  0.015463793          160 
 3130000   0.75012059    -7.907035    602.35313  0.016037091  0.015457677          238 
 3131000   0.74991086    -7.877193    602.09291  0.016025043  0.015451557          235 
 3132000   0.75458901   -7.9251487    600.55369  0.015978972  0.015445437          224 
 3133000    0.7262125   -7.8873808    602.23667  0.016018637  0.015439324          238 
 3134000   0.75687588   -7.8816035    602.19398   0.01601239  0.015433243          228 
 3135000     0.742539   -7.8778483    602.68645  0.016020373  0.015427163          216 
 3136000   0.75629816   -7.9074325    602.35302  0.016006405  0.015421068          270 
 3137000   0.74661331   -7.9009616    602.52733  0.016005933   0.01541497          362 
 3138000   0.75887584   -7.8498367    602.77132  0.016007312  0.015408884          253 
 3139000   0.74397244   -7.9161478    601.48846  0.015968155  0.015402776          263 
 3140000   0.75376928   -7.9053094    601.62764  0.015966763  0.015396666          237 
 3141000   0.76752008   -7.8985197    601.97816  0.015970979  0.015390562          357 
 3142000   0.74114244   -7.8736629    602.14756  0.015970389  0.015384457          268 
 3143000   0.75385924   -7.8979111    602.54255  0.015975781  0.015378383          259 
 3144000   0.76629517   -7.9042447    603.49902  0.015996051   0.01537231          240 
 3145000   0.73049293   -7.8893813    603.55016   0.01599232  0.015366234          276 
 3146000   0.76261346   -7.9149403    601.71108  0.015938522  0.015360179          333 
 3147000   0.75126144   -7.8907208    603.87291  0.015990703  0.015354105          263 
 3148000    0.7614276   -7.8742865    603.16849  0.015966976   0.01534806          300 
 3149000   0.74516427   -7.8881858    602.89559  0.015954684  0.015342005          289 
 3150000   0.74599589   -7.8992737    602.40727    0.0159367  0.015335953          258 
 3151000    0.7315247   -7.8916402    602.80726  0.015942221  0.015329909          278 
 3152000    0.7540759   -7.9209358    601.78087  0.015910027  0.015323829          416 
 3153000   0.75324658   -7.9119492    601.98358  0.015910339  0.015317766          344 
 3154000    0.7559035   -7.8850627    603.25135  0.015938791  0.015311711          303 
 3155000   0.75740803   -7.8952733    601.22141  0.015880122   0.01530564          244 
 3156000    0.7414096   -7.9003164    603.77737   0.01594258  0.015299588          271 
 3157000   0.75185807   -7.9040499    602.52298  0.015904418  0.015293533          254 
 3158000    0.7488193   -7.9203366    602.60058   0.01590143  0.015287484          311 
 3159000   0.73673298   -7.9095624    601.33438  0.015862994   0.01528145          358 
 3160000   0.75516161    -7.901855    602.53383  0.015889605  0.015275414          311 
 3161000   0.73244371   -7.8881132     602.4581  0.015882582  0.015269379          309 
 3162000   0.73410529   -7.9154949    600.20303  0.015818127  0.015263357          309 
 3163000   0.73930473   -7.9102346    603.32014  0.015895251  0.015257323          340 
 3164000   0.74496159   -7.8700359    603.63669  0.015898564  0.015251298          318 
 3165000   0.75937132   -7.8923233    602.23566  0.015856652  0.015245277          305 
 3166000   0.76062663   -7.9115963    601.99642  0.015845347  0.015239239          359 
 3167000   0.73548473   -7.9309422    602.00565  0.015840586  0.015233208          339 
 3168000   0.75372745    -7.894938    601.76085  0.015829147  0.015227199          491 
 3169000   0.74433928   -7.9149474    602.70605  0.015849007  0.015221178          311 
 3170000   0.74504864   -7.8865907    603.40914   0.01586249  0.015215173          322 
 3171000   0.76351672   -7.9094676     603.6291  0.015863269    0.0152092          515 
 3172000    0.7393489   -7.8933464    603.31209  0.015849939  0.015203196          374 
 3173000   0.75044169   -7.9010743    602.74676  0.015830097  0.015197187          333 
 3174000   0.75074452   -7.9313601    600.86459  0.015775693  0.015191164          344 
 3175000   0.75329546   -7.9045408    602.71957  0.015819411  0.015185136          485 
 3176000   0.75036503   -7.9092869    601.65225  0.015786425  0.015179098          555 
 3177000   0.75864255    -7.915116    602.45004  0.015802383  0.015173093          579 
 3178000   0.75968482   -7.9213732    601.78404  0.015779947  0.015167102          584 
 3179000   0.75704519   -7.9038944    602.76879  0.015800797  0.015161096          372 
 3180000   0.72915736   -7.9219158    600.98022  0.015748958  0.015155094          619 
 3181000   0.74023216   -7.9166941     602.5578  0.015785335  0.015149099          635 
 3182000    0.7413427   -7.9201341    602.95124  0.015790678  0.015143093          639 
 3183000   0.73333984   -7.9272818    602.33052  0.015769466  0.015137083          647 
 3184000   0.75037459    -7.933429    601.05131  0.015731033  0.015131087          601 
 3185000   0.73156473   -7.9233175    601.82005  0.015746208  0.015125092          671 
 3186000   0.75448363   -7.9435714    601.05295  0.015721201  0.015119085          650 
 3187000   0.74160888    -7.941966    601.78634  0.015735445  0.015113074          520 
 3188000   0.74598278   -7.9227586    603.66281  0.015779559  0.015107059          675 
 3189000   0.74303001   -7.9434616    601.89546  0.015728427  0.015101052          730 
 3190000   0.74185329   -7.9220998     602.6637  0.015743566  0.015095068          679 
 3191000   0.73959441   -7.9359137    601.27282  0.015702309  0.015089102          646 
 3192000   0.73330703   -7.9533238    601.87529  0.015713118  0.015083129          699 
 3193000   0.74333989   -7.9402208    601.72826   0.01570436  0.015077147          799 
 3194000   0.75385135   -7.9508621    601.30284  0.015688344  0.015071163          446 
 3195000   0.73019068   -7.9058621    603.58299  0.015742905  0.015065176          678 
 3196000   0.75590551   -7.9150597    602.07189  0.015698579  0.015059196          464 
 3197000   0.74409074   -7.9337821    603.51045  0.015731166  0.015053231          735 
 3198000   0.74035136   -7.9291426    602.41933  0.015697815  0.015047259          783 
 3199000   0.74359074   -7.9155869    603.68614  0.015725908  0.015041294          721 
 3200000   0.72380411   -7.9634597    601.52644  0.015664751  0.015035328          537 
 3201000   0.74913186   -7.9444945    602.20082  0.015677414  0.015029362          820 
 3202000   0.74216196   -7.9541298    602.50985   0.01568056  0.015023404          804 
 3203000    0.7501718   -7.9498805    601.57236  0.015651274  0.015017432          588 
 3204000   0.72252691   -7.9365571    602.28623  0.015664956  0.015011476          766 
 3205000    0.7455837   -7.9607416    601.50263  0.015639694   0.01500552          606 
 3206000   0.72894581   -7.9440188    601.03319  0.015622614  0.014999548          596 
 3207000   0.73209086   -7.9518507    602.22385  0.015648681  0.014993582          520 
 3208000   0.73343897   -7.9523693    601.30733  0.015619995  0.014987608          876 
 3209000   0.73536442    -7.947873    601.09912   0.01560972  0.014981639          902 
 3210000   0.73317717   -7.9317465    602.25189  0.015634784   0.01497567          862 
 3211000   0.72941731   -7.9559929    601.66847  0.015614774  0.014969712          905 
 3212000   0.74332251   -7.9913456    600.75521  0.015586219  0.014963752          860 
 3213000   0.73183725   -7.9751128     601.2637  0.015594556  0.014957794          872 
 3214000   0.72789665   -7.9573923    601.25093  0.015589373  0.014951844          821 
 3215000   0.74554829   -7.9716474    601.64006   0.01559461  0.014945903          706 
 3216000   0.73187862   -7.9686751    602.39685  0.015609371  0.014939946          662 
 3217000   0.75274759   -8.0021607    600.67708   0.01555997  0.014933977          926 
 3218000    0.7294127   -7.9943415    601.72649   0.01558231  0.014928007          915 
 3219000   0.72275977   -7.9782272    601.07153  0.015560514  0.014922069          950 
 3220000    0.7483039   -7.9549809    601.12025  0.015556942   0.01491612          914 
 3221000   0.73500485   -7.9810348    601.42837  0.015560084  0.014910163          887 
 3222000   0.74719382   -7.9966518    601.35871  0.015553453  0.014904233          953 
 3223000   0.73712397   -8.0082046     601.2319  0.015545348  0.014898282         1012 
 3224000   0.73005734   -7.9735843     601.4876  0.015547136  0.014892321          875 
 3225000   0.74910594    -7.968434    601.08932  0.015532024  0.014886368          919 
 3226000    0.7405647   -7.9615516    600.53895  0.015512992  0.014880416          903 
 3227000   0.72599791   -7.9992587    600.07764  0.015496272  0.014874465          966 
 3228000   0.73095166    -7.964955      601.386  0.015525248  0.014868508          886 
 3229000   0.74460197   -8.0125005    599.56453  0.015473432  0.014862553         1029 
 3230000   0.72407086   -7.9862141     600.9446  0.015504247  0.014856592          992 
 3231000   0.73968257   -7.9622251    601.26025  0.015507589  0.014850644          948 
 3232000   0.74207774   -7.9847592    600.66885  0.015487543  0.014844693         1011 
 3233000   0.72460434   -8.0014182    600.34359  0.015474368  0.014838754         1035 
 3234000   0.74159475   -7.9877731    601.04038  0.015487538   0.01483281          971 
 3235000   0.75424288   -7.9836662    600.18823  0.015460799  0.014826869         1002 
 3236000   0.73521238   -7.9950673     600.1198  0.015454259  0.014820938         1039 
 3237000   0.73505607   -8.0258978    599.45238  0.015432303  0.014814998          744 
 3238000   0.73677531   -7.9829845    600.04506   0.01544279  0.014809065         1076 
 3239000   0.74048661   -7.9627853    600.24884  0.015443265  0.014803129          992 
 3240000   0.72928782   -7.9790263    600.08308  0.015434236  0.014797201         1020 
 3241000   0.72706277     -7.99961    600.72902  0.015446082  0.014791289         1076 
 3242000   0.72286527   -8.0152454     601.0429  0.015449386  0.014785365         1041 
 3243000   0.71945367   -7.9893713    601.33046  0.015452011  0.014779453         1111 
 3244000     0.723585   -7.9999744    600.38142  0.015422868  0.014773544         1060 
 3245000   0.73460188   -7.9936867    601.73514   0.01545288  0.014767628         1066 
 3246000   0.70909059   -7.9946443    600.07436  0.015405483   0.01476171         1162 
 3247000   0.73159319   -7.9824093    601.21951  0.015430128  0.014755796         1113 
 3248000    0.7236818    -7.984596    600.50911  0.015407151   0.01474987         1124 
 3249000   0.72853426   -8.0066528    600.44663  0.015400806  0.014743945         1159 
 3250000   0.71475035   -7.9752722    600.87465  0.015407042  0.014738029         1100 
 3251000   0.72830261   -7.9890753    601.40902  0.015416001  0.014732119         1180 
 3252000   0.71914549   -7.9991328    601.16798  0.015405084  0.014726204         1195 
 3253000   0.71920222    -7.968314    602.10925  0.015424461  0.014720283         1088 
 3254000   0.73968595   -7.9859463    599.82062   0.01536111  0.014714352         1105 
 3255000   0.73056803   -7.9920032     599.6234  0.015351342  0.014708416         1153 
 3256000   0.72401864   -7.9869647    601.03187  0.015382675  0.014702497         1182 
 3257000   0.73719822    -8.017765    600.73638  0.015370392   0.01469657         1288 
 3258000    0.7375437   -7.9965535    600.32812  0.015355231  0.014690645          919 
 3259000   0.72309518   -7.9954233    599.18218  0.015321218   0.01468472          914 
 3260000   0.74622882    -8.026307    599.72616  0.015330423  0.014678799         1155 
 3261000   0.71564452    -8.000598    600.67016  0.015349846  0.014672877         1191 
 3262000   0.73076223   -8.0108401    599.22673  0.015308265  0.014666965         1264 
 3263000   0.74202569    -8.006269    600.46395  0.015335171  0.014661044         1289 
 3264000   0.71298962   -8.0181753    599.15652  0.015297093  0.014655127         1285 
 3265000    0.7240541   -8.0285225    600.01061  0.015314206  0.014649215         1262 
 3266000   0.73687124   -8.0293684    599.89865  0.015306661  0.014643304         1243 
 3267000   0.71657107   -8.0566008    598.59685   0.01526877  0.014637387         1247 
 3268000   0.72465854   -8.0269163    599.42858  0.015285306  0.014631465         1336 
 3269000   0.71609602   -8.0199418    600.97939  0.015320164  0.014625547         1372 
 3270000   0.71972484   -8.0243925    602.01467  0.015341862  0.014619643         1303 
 3271000   0.73306286   -8.0190467    598.93998   0.01525884  0.014613741         1281 
 3272000   0.70163787   -8.0692312    598.24752   0.01523654  0.014607814         1315 
 3273000   0.73181558   -8.0289978    599.16995  0.015255371  0.014601889         1314 
 3274000    0.7301983   -8.0523005    598.41142  0.015231405  0.014595971         1406 
 3275000   0.73098839   -8.0457603    599.75519  0.015260946  0.014590057         1373 
 3276000   0.72372368   -8.0505657    599.88475  0.015259583  0.014584139         1386 
 3277000   0.72125685    -8.015038    599.44235  0.015243677  0.014578223         1472 
 3278000   0.74779049   -8.0226974    599.60317  0.015243115  0.014572328         1339 
 3279000   0.73242846   -8.0314282    599.55674  0.015237286  0.014566426         1358 
 3280000   0.73386015   -8.0470713    598.69883  0.015210844  0.014560527         1399 
 3281000   0.72762595   -8.0224328    600.41722  0.015249853  0.014554625         1465 
 3282000   0.71396916   -8.0385609    598.14991  0.015187637  0.014548717         1402 
 3283000   0.72214074    -8.045976    598.33424   0.01518769  0.014542826         1384 
 3284000   0.73098071   -8.0384771    598.99827  0.015199916   0.01453693         1376 
 3285000   0.72443108   -8.0234233    599.78863  0.015215338  0.014531025         1413 
 3286000    0.7327843   -8.0452121    598.08822  0.015167585  0.014525124         1440 
 3287000     0.715386   -8.0377317    599.96757  0.015210617  0.014519213         1451 
 3288000   0.71516612   -8.0514066    598.20012  0.015161195  0.014513315         1527 
 3289000   0.71590227   -8.0419346    598.67764  0.015168684  0.014507407         1470 
 3290000    0.7372138   -8.0371671    599.87623  0.015194433  0.014501496         1461 
 3291000   0.72416968   -8.0662506    597.95174  0.015141085  0.014495593         1475 
 3292000   0.72100322   -8.0462814    599.57147  0.015177488  0.014489687         1479 
 3293000    0.7188031   -8.0239734    598.77413  0.015152701   0.01448379         1505 
 3294000   0.71725147   -8.0368134    599.11792  0.015156798  0.014477895         1477 
 3295000   0.71222474   -8.0724083    598.19104  0.015128757  0.014471988         1581 
 3296000   0.73359472   -8.0726379    598.80281  0.015139634  0.014466079         1558 
 3297000   0.71995288   -8.0567649    597.90722  0.015112406  0.014460168         1608 
 3298000   0.71958412   -8.0551684    599.08327   0.01513754  0.014454262         1566 
 3299000   0.71883903   -8.0994108    598.02311  0.015106171  0.014448335         1565 
 3300000   0.73659768   -8.0539071    597.90463  0.015098602  0.014442425         1581 
 3301000     0.726449   -8.0652395    598.66779  0.015113294  0.014436515         1599 
 3302000   0.73046348   -8.0828555    597.99773  0.015091806    0.0144306         1630 
 3303000    0.7191843   -8.0838174    596.00115  0.015036864  0.014424673         1593 
 3304000    0.7142443   -8.0480522    598.44091  0.015093849  0.014418745         1576 
 3305000    0.7369946   -8.0756992    599.29806  0.015110894  0.014412821         1671 
 3306000   0.73017468   -8.0820112    596.77649  0.015042763  0.014406904         1551 
 3307000   0.72879408   -8.0774776    596.98874  0.015043563   0.01440099         1530 
 3308000   0.70671577   -8.0768674    596.98865  0.015039013  0.014395072         1553 
 3309000   0.72552355   -8.0711805    597.98907  0.015059662  0.014389157         1710 
 3310000   0.70385912   -8.0999909     596.8116  0.015025468  0.014383233         1638 
 3311000   0.73812124   -8.0828262    597.04448  0.015026791  0.014377321         1566 
 3312000   0.72321636   -8.0806988    597.59608  0.015036133  0.014371408         1739 
 3313000   0.73300663   -8.0739561    597.49801  0.015029128  0.014365496         1720 
 3314000   0.71076595   -8.0990634    596.60998  0.015002263  0.014359576         1697 
 3315000   0.72453182   -8.0987848    596.60318  0.014997566  0.014353654         1751 
 3316000   0.73051974   -8.0826892    597.69478  0.015020476   0.01434773         1733 
 3317000   0.72244448   -8.0825573     597.4929  0.015010876  0.014341809         1699 
 3318000   0.72068001   -8.0799365    599.00533  0.015044337   0.01433591         1663 
 3319000   0.72167444   -8.1055067    596.11484   0.01496723  0.014329997         1771 
 3320000   0.73929599   -8.1105297    596.17106  0.014964133  0.014324096         1727 
 3321000   0.70058123   -8.0968943    597.21689   0.01498587   0.01431819         1720 
 3322000   0.71446166   -8.0834177    597.17872  0.014980401  0.014312297         1727 
 3323000   0.73030195   -8.0929442    596.61725  0.014961813  0.014306397         1800 
 3324000   0.71114353   -8.0675415    597.09469  0.014969281  0.014300501         1758 
 3325000   0.72278151   -8.1057087    595.71248  0.014930137  0.014294599         1719 
 3326000   0.71619518   -8.1421507    595.30297  0.014915388  0.014288695         1680 
 3327000   0.72976413     -8.10029    596.60717  0.014943572  0.014282802         1714 
 3328000   0.72740018   -8.1163244    596.36494  0.014933016  0.014276909         1726 
 3329000   0.71716292   -8.0906762    596.44127  0.014930441  0.014271017         1684 
 3330000   0.72142265   -8.0990508    596.79538  0.014934819  0.014265122         1744 
 3331000   0.70452009   -8.0987298    596.26915  0.014917171  0.014259243         1707 
 3332000   0.71979397   -8.1228571    597.08156  0.014933012  0.014253359         1737 
 3333000   0.72354444   -8.1063083    595.54113  0.014890017  0.014247484         1748 
 3334000   0.71943703   -8.1112432    596.21894  0.014902493    0.0142416         1702 
 3335000    0.7054616   -8.1087765    596.55382  0.014906392  0.014235716         1710 
 3336000   0.71847563   -8.1125807    596.03189  0.014888886  0.014229828         1735 
 3337000    0.7163395   -8.1112546     595.4683   0.01487035  0.014223947         1897 
 3338000   0.71792879   -8.1062701      596.153  0.014882989  0.014218071         1833 
 3339000   0.70462017   -8.1181848    596.28389  0.014881798  0.014212194         1867 
 3340000    0.7238199   -8.1228549    596.03362  0.014871098  0.014206322         1823 
 3341000   0.71007526   -8.1293187    596.70594  0.014883417  0.014200452         1792 
 3342000   0.71933344   -8.1055676    596.51295  0.014874151  0.014194582         1825 
 3343000    0.7209206   -8.1351905    595.11494  0.014834852  0.014188705         1797 
 3344000   0.72031654   -8.1193706    597.29132  0.014884652  0.014182832         1810 
 3345000   0.69609848   -8.1266127    595.20173  0.014828145  0.014176976         1940 
 3346000   0.71565097   -8.1337046    596.25157   0.01484986  0.014171108         1880 
 3347000   0.73048286   -8.1432842    596.28933  0.014846363   0.01416524         1834 
 3348000    0.7237017   -8.1480094     595.1606  0.014813834   0.01415938         1901 
 3349000   0.72944057   -8.1467113    595.18147   0.01480993  0.014153504         1914 
 3350000   0.71845241   -8.1397996    594.92749  0.014799191  0.014147652         1932 
 3351000   0.71325496   -8.1093611    596.99154  0.014846104  0.014141792         1843 
 3352000   0.71296735   -8.1460406    595.35026  0.014800872  0.014135928         1857 
 3353000   0.72442882   -8.1460289     594.5845  0.014777426  0.014130078         1729 
 3354000   0.72305725   -8.1306822    596.81401  0.014828414  0.014124247         1829 
 3355000   0.71793361   -8.1634458    595.70308    0.0147964  0.014118407         1899 
 3356000   0.72100355   -8.1452666     595.8271  0.014795071  0.014112567         1866 
 3357000   0.71358121   -8.1294418    595.81067  0.014790256  0.014106721         1908 
 3358000   0.70771293   -8.1331387    595.87249  0.014787386   0.01410089         1890 
 3359000   0.71498701   -8.1308514    595.03095  0.014762106  0.014095045         1967 
 3360000   0.70809266   -8.1555579     595.3941  0.014766719  0.014089199         1929 
 3361000   0.70608534   -8.1403954    596.16029  0.014781322  0.014083356         2116 
 3362000   0.71781206   -8.1358618    595.45094  0.014759343  0.014077509         2037 
 3363000   0.72599717   -8.1610593     595.5267  0.014756832  0.014071665         1924 
 3364000   0.70818195    -8.125638    596.58837  0.014778745  0.014065827         2014 
 3365000   0.72127372   -8.1654421    594.71345  0.014727921  0.014059991         1914 
 3366000   0.73026304   -8.1698599    594.74999   0.01472445   0.01405415         2069 
 3367000   0.70356048    -8.143961    595.92251  0.014749097  0.014048325         2010 
 3368000   0.70905821   -8.1452226    595.06907  0.014723601  0.014042494         1961 
 3369000   0.70136628    -8.167934    594.94017  0.014716043  0.014036658         2069 
 3370000   0.72087894   -8.1582034    595.65562  0.014729367  0.014030826         2123 
 3371000   0.72019421   -8.1473698    593.51047  0.014671969  0.014024992         2123 
 3372000    0.7018965   -8.1741834    594.45003  0.014690837  0.014019166         2109 
 3373000   0.71276773   -8.1513313    594.70899   0.01469288  0.014013335         2065 
 3374000     0.710145    -8.156279    594.45116  0.014682157  0.014007505         2074 
 3375000   0.69153858   -8.1430332    596.06333  0.014717613  0.014001688         2048 
 3376000   0.70162246   -8.1273854    595.38561  0.014696525  0.013995866         2110 
 3377000   0.71517722   -8.1616035    595.49843  0.014694957  0.013990057         2145 
 3378000   0.70808577   -8.1378745    596.65851  0.014719225  0.013984242         2098 
 3379000   0.71573007   -8.1385904    595.29202  0.014681168  0.013978436         2184 
 3380000   0.72043011   -8.1493585    595.27263  0.014676347  0.013972633         2122 
 3381000    0.7233204   -8.1437596    594.60391  0.014655524  0.013966841         2109 
 3382000   0.71067115   -8.1635284    595.33871  0.014669296  0.013961044         2176 
 3383000   0.71243213   -8.1452162    595.21198  0.014661838  0.013955251         2124 
 3384000   0.70456959   -8.1695825    595.85288  0.014673288  0.013949467         2222 
 3385000   0.70001659   -8.1495933    595.54686  0.014661419   0.01394368         2100 
 3386000   0.70428016   -8.1393812    596.35654  0.014677017  0.013937892         2158 
 3387000   0.71039834   -8.1419724    594.16296  0.014618713  0.013932104         2131 
 3388000   0.73276087   -8.1545781    594.90523  0.014632655  0.013926321         2194 
 3389000   0.71861911   -8.1555807    595.33437   0.01463889  0.013920534         2131 
 3390000    0.7157649   -8.1304021    595.43089  0.014636944  0.013914751         2179 
 3391000   0.72008062   -8.1468003    594.94866  0.014620777   0.01390897         2221 
 3392000   0.70039382   -8.1834631    595.31755  0.014625529  0.013903195         2190 
 3393000   0.70885547   -8.1733607    595.07164  0.014615179  0.013897414         2191 
 3394000   0.70521446   -8.1794266    593.44141  0.014570846   0.01389164         2221 
 3395000   0.70979813   -8.1654136    594.28444  0.014587247  0.013885873         2198 
 3396000   0.72537377   -8.1823875    595.29159  0.014607666  0.013880097         2178 
 3397000   0.69242027   -8.1821143    593.71308  0.014564642  0.013874318         2289 
 3398000   0.71979089   -8.1351638    594.71746  0.014584988  0.013868549         2156 
 3399000   0.70967457   -8.1992935    594.57588  0.014577226  0.013862775         2220 
 3400000   0.71698391    -8.179889    594.87916  0.014580372  0.013857005         2219 
 3401000   0.71173833   -8.1733232    595.44025  0.014589833  0.013851233         2203 
 3402000    0.7040701   -8.1847465    594.32247  0.014558164  0.013845473         2227 
 3403000   0.70251628   -8.1657884    596.58541  0.014609301  0.013839714         2169 
 3404000   0.70414596     -8.17524    594.69735  0.014558787  0.013833965         2281 
 3405000   0.70206107    -8.182065    593.06505  0.014514563  0.013828212         2250 
 3406000   0.70788802   -8.1735751    594.76966  0.014552008  0.013822457         2205 
 3407000   0.70664391   -8.1513328    594.13241   0.01453215  0.013816717         2238 
 3408000   0.69964281   -8.1444394    594.39057  0.014534198  0.013810971         2192 
 3409000   0.69983474   -8.1918207    594.24068  0.014526271  0.013805225         2265 
 3410000   0.69321878   -8.1647551    596.25951  0.014571347  0.013799474         2225 
 3411000   0.72701209   -8.1748661    594.92434  0.014534456  0.013793736         2285 
 3412000    0.7181891   -8.1609058    594.13116  0.014510824  0.013787996         2259 
 3413000    0.7092836   -8.1839601    595.53194  0.014540774  0.013782252         2281 
 3414000   0.70128838   -8.2047655    593.84162  0.014495255  0.013776505         2205 
 3415000   0.71231714   -8.1691285    594.82065  0.014514901  0.013770764         2233 
 3416000   0.70707392   -8.1811014    594.18738  0.014495203  0.013765026         2261 
 3417000   0.70257948   -8.1860319    594.90574  0.014508481   0.01375929         2369 
 3418000   0.70991501   -8.1992245    593.52908  0.014470672  0.013753555         2367 
 3419000   0.69110174   -8.1944809    593.80292  0.014473114  0.013747808         2422 
 3420000   0.69646629   -8.1859863    593.64321  0.014464991  0.013742067         2421 
 3421000   0.70001081   -8.1883925    594.44808  0.014480368   0.01373632         2372 
 3422000   0.71316717   -8.1780178     594.0583  0.014466645   0.01373058         2330 
 3423000   0.69411889   -8.1814165    593.87516   0.01445796  0.013724846         2323 
 3424000   0.69726279   -8.1983135    594.09467   0.01445908  0.013719116         2367 
 3425000   0.70405482   -8.2118755    593.68976  0.014445006  0.013713382         2456 
 3426000   0.69218739    -8.213918    593.46279  0.014435269  0.013707654         2434 
 3427000   0.68835449   -8.2046478    594.32489   0.01445202  0.013701927         2448 
 3428000   0.70441945   -8.1907933    594.70558  0.014457059  0.013696205         2440 
 3429000   0.71064079   -8.1901158    593.82458  0.014431432  0.013690494         2454 
 3430000   0.71321475   -8.1961811    593.43144  0.014417674  0.013684775         2449 
 3431000   0.69124327   -8.1804094    593.91412  0.014425195  0.013679063         2484 
 3432000   0.70557593   -8.2016102    593.62166   0.01441389  0.013673353         2492 
 3433000   0.70750268   -8.2086506    592.43713  0.014380938   0.01366764         2505 
 3434000   0.70758748   -8.2070893    592.83244  0.014386343  0.013661927         2463 
 3435000   0.69778626   -8.2128073    593.24741  0.014392222  0.013656225         2551 
 3436000   0.72121441   -8.1957556    593.48283  0.014393744  0.013650518         2587 
 3437000    0.7102405   -8.2030792    593.78038   0.01439677  0.013644825         2522 
 3438000    0.7003753   -8.2104112    593.45983  0.014384813  0.013639126         2497 
 3439000   0.70334949   -8.2162609    592.64234   0.01436082   0.01363342         2546 
 3440000   0.70223739   -8.1728998     594.2004   0.01439439  0.013627724         2462 
 3441000   0.69523926    -8.200453    593.37706  0.014370267  0.013622033         2546 
 3442000   0.69331704   -8.1945715    593.63065  0.014372232  0.013616344         2488 
 3443000   0.71603606   -8.2049991    593.02042  0.014353287  0.013610654         2489 
 3444000   0.69813404   -8.2038997    593.06724  0.014350253   0.01360497         2523 
 3445000   0.70883297   -8.2068884     594.1446  0.014372148  0.013599284         2505 
 3446000   0.71310077   -8.2039018    592.77579  0.014334876  0.013593598         2507 
 3447000   0.71722012   -8.2110495    593.71266  0.014353367  0.013587919         2527 
 3448000   0.70523067   -8.1819886    594.54823  0.014369398  0.013582247         2406 
 3449000    0.7018588   -8.2114828    593.47948  0.014339409  0.013576584         2589 
 3450000   0.70595924   -8.2071092    593.34783  0.014332073  0.013570904         2554 
 3451000   0.69603658   -8.2201593    593.76584  0.014338014   0.01356523         2514 
 3452000   0.69483483   -8.2095414    593.76244  0.014333778  0.013559562         2394 
 3453000   0.68820222   -8.2415866    592.31057  0.014294589  0.013553892         2604 
 3454000    0.7020333   -8.2171702    593.83661  0.014327268  0.013548222         2440 
 3455000   0.69595375   -8.2123116     594.7798  0.014345871  0.013542565         2566 
 3456000   0.70238629   -8.2334709    594.09763  0.014325271    0.0135369         2544 
 3457000   0.70804355   -8.2075849    593.20269  0.014299554  0.013531237         2546 
 3458000   0.70286783   -8.2377137    592.87081  0.014287421  0.013525583         2602 
 3459000    0.6992085   -8.2502232    593.16496  0.014290377  0.013519922         2574 
 3460000   0.69485803   -8.2140185    592.05746  0.014259573  0.013514259         2543 
 3461000   0.70737329     -8.22348    593.21203  0.014283252  0.013508602         2566 
 3462000   0.69207115   -8.2326621    593.79235  0.014293095  0.013502959         2576 
 3463000   0.71577296   -8.2108637    594.37683  0.014303033  0.013497313         2584 
 3464000    0.6933584   -8.2265082    594.13748  0.014293146  0.013491669         2540 
 3465000   0.68825184   -8.2413327    593.41084  0.014271545  0.013486022         2614 
 3466000   0.70669224   -8.2304357    592.80489  0.014252859  0.013480387         2533 
 3467000   0.69237058   -8.1955834    593.75402  0.014271561  0.013474755         2555 
 3468000   0.69495017   -8.2342085    592.91543  0.014247295  0.013469123         2571 
 3469000   0.69800943   -8.2274708    592.91832  0.014243258  0.013463496         2510 
 3470000   0.70057188   -8.1988972    593.18472   0.01424555  0.013457871         2546 
 3471000   0.69755488   -8.2331823    593.13498  0.014240252  0.013452255         2555 
 3472000   0.70706814   -8.2170188    594.56061  0.014270368  0.013446635         2557 
 3473000   0.70178816   -8.2443123    591.84554  0.014201112  0.013441015         2578 
 3474000   0.70034519   -8.2420018    593.26609    0.0142311  0.013435399         2592 
 3475000   0.69997308   -8.2258204    593.68732  0.014237106  0.013429793         2638 
 3476000   0.71039815   -8.2125767    592.62456  0.014207532  0.013424178         2584 
 3477000   0.68276549    -8.212714    593.02816  0.014213119  0.013418577         2598 
 3478000   0.68431822   -8.2266003    592.45679  0.014195342  0.013412975         2522 
 3479000   0.69488546   -8.2270159    591.79006  0.014175291  0.013407366         2493 
 3480000   0.70679983   -8.2655592    591.63653  0.014167541   0.01340176         2669 
 3481000   0.69489109   -8.2640724    592.78464  0.014190957  0.013396143         2711 
 3482000   0.68194603   -8.2110695    593.60937  0.014206619  0.013390531         2585 
 3483000   0.69936386   -8.2301084    592.12602   0.01416705  0.013384925         2571 
 3484000   0.68834483   -8.2405017    592.29705  0.014167074   0.01337932         2606 
 3485000   0.70027687   -8.2563082     591.8302  0.014151846  0.013373713         2590 
 3486000   0.69371349   -8.2464455    592.80098  0.014170993  0.013368115         2551 
 3487000   0.68445013   -8.2304443    592.36805  0.014156583  0.013362524         2596 
 3488000   0.68045386   -8.2399008    591.87916  0.014140844  0.013356929         2654 
 3489000   0.69247483   -8.2418325    591.74746  0.014133645  0.013351332         2719 
 3490000   0.69265827   -8.2157572     593.5293  0.014172142  0.013345734         2631 
 3491000   0.67820661   -8.2311011    591.95292  0.014130453  0.013340151         2735 
 3492000   0.69669948   -8.2424411    591.94128  0.014126128  0.013334569         2713 
 3493000   0.68287215    -8.249605    592.31108  0.014130906  0.013328985         2649 
 3494000   0.68768527   -8.2548272     592.2236  0.014124776  0.013323403         2624 
 3495000   0.68804035   -8.2438494    591.90397  0.014113113  0.013317818         2637 
 3496000   0.69060861   -8.2287332    592.94107  0.014133797  0.013312238         2714 
 3497000   0.70670555   -8.2234148    591.37748  0.014092496  0.013306666         2654 
 3498000   0.67850816   -8.2595242    592.94548  0.014125821  0.013301095         2648 
 3499000   0.68501818   -8.2765003    591.55597  0.014088691  0.013295526         2686 
 3500000   0.69083884   -8.2711209    592.32759  0.014103038  0.013289962         2742 
 3501000   0.71676035   -8.2601269    592.06508  0.014092761  0.013284399         2681 
 3502000   0.69106072   -8.2531965    592.43583  0.014097559  0.013278842         2739 
 3503000   0.71502986   -8.2294159    592.99748  0.014106896  0.013273282         2723 
 3504000   0.67456367    -8.264712    592.54057  0.014092004   0.01326772         2739 
 3505000   0.68703258   -8.2496277    592.11306  0.014077819  0.013262165         2713 
 3506000   0.69515757   -8.2485392     591.8592   0.01406777  0.013256604         2724 
 3507000   0.68424041   -8.2431086    592.41837  0.014077045  0.013251051         2741 
 3508000    0.6819334   -8.2617872    591.16298   0.01404321  0.013245495         2804 
 3509000   0.69518667   -8.2603355    592.74625  0.014076808  0.013239948         2827 
 3510000   0.70194936   -8.2455517    591.70315  0.014048033  0.013234398         2693 
 3511000   0.67727416   -8.2554192    591.94778  0.014049838  0.013228854         2840 
 3512000    0.6882159   -8.2618221    591.39595  0.014032744  0.013223317         2815 
 3513000   0.70316022   -8.2673019    591.60621  0.014033737  0.013217777         2767 
 3514000   0.69687794   -8.2513202    592.32291  0.014046739  0.013212242         2717 
 3515000   0.69398203   -8.2626442    592.36197  0.014043669  0.013206706         2835 
 3516000   0.69159538    -8.275788    592.29164  0.014038008  0.013201174         2732 
 3517000   0.68895409   -8.2726245    592.40955  0.014036811  0.013195651         2739 
 3518000   0.68797424   -8.2501008    591.89043  0.014020524  0.013190124         2724 
 3519000   0.68354554   -8.2583699    593.33415  0.014050728    0.0131846         2695 
 3520000   0.68718772   -8.2781065    592.49966  0.014026981  0.013179077         2680 
 3521000    0.6778338   -8.2515289    591.78824  0.014006159  0.013173555         2687 
 3522000    0.6940555   -8.2396379    592.36597  0.014015852  0.013168037         2705 
 3523000   0.67464564   -8.2720991    591.63692  0.013994629  0.013162523         2794 
 3524000   0.68547212   -8.2715896    591.70812  0.013992341  0.013157003         2784 
 3525000   0.67903564   -8.2759572    591.49827  0.013983411  0.013151495         2807 
 3526000   0.69769672   -8.2520909    592.02099  0.013991799  0.013145989         2677 
 3527000   0.70000561   -8.2791582    590.62836  0.013954928  0.013140485         2774 
 3528000   0.69182515   -8.2592915     592.1015  0.013985769  0.013134981         2702 
 3529000   0.67846631   -8.2693607    590.36332   0.01394076  0.013129475         2789 
 3530000   0.69771088   -8.2660623     590.7277  0.013945413  0.013123966         2633 
 3531000   0.67487685    -8.257494    592.54073  0.013984252  0.013118467         2737 
 3532000   0.67582038   -8.2504591    591.96425  0.013966691  0.013112984         2722 
 3533000   0.67322784   -8.2799795    591.23206  0.013945468  0.013107493         2790 
 3534000   0.66615341   -8.2734223    590.01189   0.01391275  0.013101995         2848 
 3535000   0.70335195   -8.2574396    592.06432  0.013957197  0.013096508         2822 
 3536000   0.68018175   -8.2636126    592.71781  0.013968651  0.013091027         2755 
 3537000   0.69224739   -8.2927738      590.938  0.013922769  0.013085546         2774 
 3538000   0.68034534   -8.2522579    592.02265  0.013944381  0.013080077         2782 
 3539000   0.68243012   -8.2708851    592.80021   0.01395875  0.013074606         2759 
 3540000   0.69247791   -8.2717355    590.74799  0.013906497  0.013069134         2833 
 3541000    0.6897273   -8.2868706    592.34207  0.013940084  0.013063661         2768 
 3542000   0.67271057    -8.290476    590.63975  0.013896098  0.013058189         2779 
 3543000   0.69884186   -8.2840147    591.03264  0.013901417  0.013052721         2779 
 3544000   0.67347228   -8.2704475    591.19576   0.01390133  0.013047258         2768 
 3545000   0.69043884   -8.2739133     591.2603  0.013898926  0.013041787         2800 
 3546000   0.68615525   -8.2631866    592.91506  0.013933894  0.013036333         2789 
 3547000    0.6903082   -8.2729699    592.25541  0.013914468  0.013030875         2884 
 3548000   0.67936484   -8.2906802    591.48254  0.013892393  0.013025413         2803 
 3549000   0.69287461   -8.2732269    592.54847  0.013913508  0.013019964         2783 
 3550000   0.69162098   -8.2848423    591.46088  0.013884058  0.013014516         2773 
 3551000   0.68998152   -8.2802089    591.06139  0.013870773  0.013009075         2837 
 3552000   0.68851698   -8.2817555    591.00715  0.013865596  0.013003625         2829 
 3553000   0.68965274    -8.270776    591.48898  0.013872994  0.012998177         2806 
 3554000   0.69638448   -8.2891216    590.55991  0.013847306  0.012992742         2803 
 3555000   0.68906465   -8.2642392    592.08564  0.013879176  0.012987307         2852 
 3556000   0.68422392   -8.2841636    592.18931  0.013877702  0.012981876         2824 
 3557000   0.69116406   -8.2646778    591.46041  0.013856724  0.012976447         2807 
 3558000   0.67813765   -8.2634812     591.2936  0.013848923  0.012971015         2844 
 3559000   0.68330391   -8.2602129    592.66269  0.013877088  0.012965585         2814 
 3560000   0.68472816   -8.2759661     591.4391  0.013844548  0.012960159         2838 
 3561000   0.67883293   -8.3048438    591.01252  0.013830678  0.012954735         2800 
 3562000   0.67135211   -8.2886221     591.7633  0.013844359  0.012949319         2773 
 3563000   0.67734143   -8.2827511    592.14528  0.013849408  0.012943898         2782 
 3564000   0.68218711   -8.2772937    591.12369  0.013821635  0.012938486         2839 
 3565000   0.70188951   -8.2832861    590.65958  0.013806909   0.01293308         2810 
 3566000   0.67345569   -8.3012287    590.59017  0.013801415  0.012927666         2881 
 3567000   0.66241765   -8.2934086    592.50551  0.013842293   0.01292226         2871 
 3568000   0.68084392    -8.295233     590.5642  0.013793073  0.012916853         2781 
 3569000   0.67105157   -8.2926132    592.43849  0.013832971  0.012911449         2816 
 3570000   0.69322142   -8.2967729    592.01199  0.013819141  0.012906054         2881 
 3571000   0.69307691   -8.2993031    591.35198  0.013799869  0.012900656         2840 
 3572000   0.69490612   -8.2754869    592.64431  0.013826155   0.01289526         2790 
 3573000   0.66719797   -8.2622396    591.31966  0.013791391  0.012889865         2821 
 3574000   0.68041424   -8.2830237    591.07169   0.01378175   0.01288447         2827 
 3575000   0.67651972   -8.2718406    590.99673  0.013776148  0.012879086         2839 
 3576000   0.67894176   -8.2667452    591.22541  0.013777624  0.012873696         2820 
 3577000   0.67525687   -8.2742456    591.22683  0.013773805  0.012868319         2766 
 3578000   0.68717083    -8.309337    591.56303  0.013777786  0.012862945         2835 
 3579000   0.67316785   -8.3060605    590.68878  0.013753581  0.012857565         2839 
 3580000   0.67247646   -8.3065826    591.44342  0.013767305  0.012852186         2819 
 3581000   0.69686104   -8.3123429    591.07947  0.013754991   0.01284681         2825 
 3582000   0.68445565    -8.287988    591.18259   0.01375355  0.012841438         2988 
 3583000   0.69302688   -8.3160374    592.05664   0.01377004  0.012836068         2815 
 3584000   0.67757525   -8.2931129    591.32746  0.013749243  0.012830697         2882 
 3585000   0.68124498   -8.3152413    590.13198  0.013717619  0.012825328         2873 
 3586000   0.68314525   -8.2878181    591.70383  0.013750321  0.012819967         2875 
 3587000   0.68903252   -8.2860379    591.81816  0.013749144  0.012814618         2830 
 3588000   0.67008969   -8.2960169    591.18584  0.013730626  0.012809261         2893 
 3589000   0.67951791   -8.3014432    589.95097  0.013698128    0.0128039         2838 
 3590000   0.68684282   -8.3146733    589.78069   0.01369036   0.01279855         2893 
 3591000   0.66484133   -8.3023319    590.92947  0.013713206  0.012793212         2827 
 3592000   0.66036994   -8.2925668    591.59784  0.013724894  0.012787859         2862 
 3593000   0.69024177   -8.3124676    590.59079  0.013697717  0.012782517         2856 
 3594000   0.68818979   -8.2814975    591.48688  0.013714684  0.012777173         2809 
 3595000   0.66940151    -8.283784    592.07593  0.013724523   0.01277183         2797 
 3596000   0.66029295   -8.2967434    590.14605  0.013675984  0.012766494         2820 
 3597000   0.67409127   -8.3029834    590.16563  0.013672635  0.012761161         2918 
 3598000   0.67185681   -8.3155112    591.76801  0.013705948  0.012755825         2874 
 3599000   0.67712537   -8.3053324    590.42455  0.013671033  0.012750496         2820 
 3600000   0.69653748   -8.3258763    590.60103   0.01367132  0.012745164         2860 
 3601000   0.67136679   -8.3233949    589.30873  0.013637618  0.012739838         2855 
 3602000   0.68476521   -8.3028888    590.35828  0.013658113  0.012734519         2846 
 3603000   0.68227045   -8.3044368    590.37779  0.013654774  0.012729201         2869 
 3604000   0.68217785   -8.3334579     590.8658  0.013662269  0.012723882         2910 
 3605000   0.67866984   -8.3040972    589.82398  0.013634396  0.012718571         2897 
 3606000   0.66384088   -8.3065999    590.49894  0.013646213   0.01271326         2934 
 3607000   0.68983294   -8.3240292      590.903  0.013651765  0.012707949         2915 
 3608000   0.66669742   -8.3056906    589.47876  0.013615086  0.012702629         2821 
 3609000   0.66947319    -8.271059    591.80764  0.013665088  0.012697328         2800 
 3610000   0.67505147   -8.3016683    588.76745  0.013591123  0.012692024         2816 
 3611000   0.69260772   -8.2981228    591.88189  0.013659233  0.012686725         2862 
 3612000   0.66499252   -8.3055697    589.89706  0.013609659  0.012681433         2924 
 3613000   0.69821215   -8.3073347     592.3324  0.013662063  0.012676141         2878 
 3614000   0.66248886   -8.3371979    592.22249  0.013655748  0.012670853         2912 
 3615000   0.67502533   -8.3118904    590.79699   0.01361911  0.012665566         2895 
 3616000   0.67033785   -8.2859962     591.4429  0.013630229  0.012660286         2822 
 3617000   0.65902671   -8.3061836    591.82987  0.013635376  0.012655007         2856 
 3618000   0.68432776   -8.3340461    590.73259  0.013606334  0.012649719         2943 
 3619000   0.66264467   -8.3047003    590.12164  0.013588506   0.01264444         2917 
 3620000   0.66283103   -8.3144569    589.75742  0.013576368  0.012639158         2904 
 3621000   0.66487171   -8.3100767    590.17018  0.013582118  0.012633885         2935 
 3622000    0.6715931   -8.3219576    590.95985  0.013596536   0.01262861         2826 
 3623000   0.67472242   -8.3065285    589.92588  0.013569001  0.012623343         2890 
 3624000   0.66193561   -8.3201207    590.65261  0.013581968  0.012618083         2886 
 3625000   0.66702366   -8.3009687    590.42594   0.01357301  0.012612819         2839 
 3626000   0.66629285    -8.315304    590.91795  0.013580574  0.012607557         2890 
 3627000   0.66637395   -8.2974974    590.69237  0.013571647  0.012602298         2864 
 3628000   0.67451057   -8.3034942    591.15842  0.013578611   0.01259704         2926 
 3629000    0.6733974   -8.3094269    590.78094  0.013566201  0.012591782         2857 
 3630000   0.66160426   -8.2951966    590.04502   0.01354557  0.012586524         2858 
 3631000   0.68519562   -8.3204664    590.68625  0.013556556  0.012581282         2849 
 3632000   0.66402552    -8.324364    589.74791  0.013531294  0.012576039         2882 
 3633000   0.65189886   -8.2912119    591.10327  0.013558658  0.012570793         2830 
 3634000   0.66413378   -8.3041524    591.55684  0.013565328  0.012565554         2860 
 3635000     0.678875   -8.2874745     590.2407  0.013531424  0.012560316         2851 
 3636000   0.67835289   -8.3069134    591.16057  0.013548785  0.012555084         2910 
 3637000   0.66835721   -8.3020564    590.93216  0.013539826  0.012549844         2805 
 3638000   0.67088056   -8.3131726     590.7183  0.013531205  0.012544613         2860 
 3639000   0.67954889   -8.3105177    589.87688  0.013508218  0.012539388         2876 
 3640000   0.66751714   -8.3226249    589.89982  0.013505033  0.012534171         2905 
 3641000   0.66848383   -8.3269357    589.67286  0.013496129  0.012528957         2903 
 3642000   0.67149012   -8.3266735    589.95685  0.013498921   0.01252374         2864 
 3643000   0.66122775   -8.3138687    590.62403  0.013510477  0.012518532         2884 
 3644000   0.67152387   -8.3037108     590.4547  0.013502898  0.012513323         2958 
 3645000   0.68196589   -8.3250791     589.1817  0.013470089  0.012508123         2926 
 3646000   0.67834599   -8.3070218    590.64092  0.013499747  0.012502923         2923 
 3647000   0.67003094   -8.3322005    590.24806  0.013487068  0.012497721         2980 
 3648000   0.67697451   -8.3037237     590.4875  0.013488841  0.012492523         2852 
 3649000   0.67979955   -8.3415636    590.00979  0.013474235  0.012487332         2888 
 3650000   0.67595308    -8.325158    590.55074  0.013482894  0.012482137         2945 
 3651000   0.67088974   -8.3255765    590.57945  0.013479856  0.012476941         2892 
 3652000   0.68183662   -8.3226149    589.95417  0.013461897  0.012471751         2845 
 3653000   0.66515549   -8.3047918     590.6237  0.013473485  0.012466567         2957 
 3654000   0.66682616   -8.3562144     590.4487  0.013465807   0.01246138         2879 
 3655000   0.66895132   -8.3254086    589.70524  0.013445172  0.012456195         2916 
 3656000   0.67682408   -8.3130961    591.23372  0.013476334  0.012451017         2926 
 3657000   0.65628141    -8.328995    588.93624  0.013420295  0.012445837         3005 
 3658000   0.66108275   -8.3201126    590.34698  0.013448765  0.012440658         2927 
 3659000   0.68149038   -8.3074297    590.27774  0.013443512  0.012435491         2910 
 3660000   0.66923012   -8.3590916    589.38569  0.013419529  0.012430324         2853 
 3661000   0.68046647   -8.3198001    590.71083  0.013446026  0.012425157         2961 
 3662000   0.66885633   -8.3341819    590.23617  0.013431553  0.012419993         2875 
 3663000   0.65495884    -8.324315    590.60969  0.013436384  0.012414837         2884 
 3664000   0.65373868   -8.3323257    591.12901  0.013444528  0.012409682         2836 
 3665000    0.6781857   -8.3286586    589.62734  0.013406715   0.01240453         2843 
 3666000   0.67632999   -8.3174397    591.36187  0.013442487  0.012399382         2852 
 3667000   0.68054784   -8.3216421    589.81458  0.013403658  0.012394237         2848 
 3668000   0.65236544   -8.3184618    590.93875  0.013425544  0.012389091         2871 
 3669000    0.6604537   -8.3082632    590.08906  0.013402586  0.012383944         2873 
 3670000   0.66874221   -8.3174371    589.07153  0.013375829  0.012378804         2908 
 3671000   0.65605122   -8.3204697       589.92  0.013391446  0.012373672         2874 
 3672000   0.67893189   -8.3365031    589.32565  0.013374311   0.01236853         2872 
 3673000   0.66972912   -8.3158169    589.47667  0.013374096  0.012363402         2881 
 3674000   0.67841735   -8.3285534    589.47048  0.013370316  0.012358276         2875 
 3675000   0.65857902   -8.3268011    590.20569  0.013383349   0.01235315         2861 
 3676000   0.65671545   -8.3231161    591.11569  0.013400338  0.012348023         2891 
 3677000   0.67622064   -8.3349195    589.33458  0.013356327  0.012342897         2889 
 3678000   0.67319581    -8.302664    590.73222  0.013384362  0.012337771         2847 
 3679000   0.65434976   -8.3324239    590.86793  0.013383798  0.012332653         2835 
 3680000   0.66955531   -8.3134886    591.27093  0.013389287   0.01232754         2884 
 3681000   0.67111197   -8.3251656     589.3867  0.013342993  0.012322426         2947 
 3682000   0.66156437   -8.3348805    590.03393  0.013354018  0.012317319         2891 
 3683000   0.65882808   -8.3272848    590.21863  0.013354571    0.0123122         2888 
 3684000   0.65825126   -8.3405222    590.04759  0.013347077  0.012307089         2895 
 3685000   0.65598499   -8.3378665    590.14556  0.013345671  0.012301987         2892 
 3686000   0.65500725   -8.3231232    590.57827  0.013351833  0.012296882         2865 
 3687000   0.67153147   -8.3126288    589.56369   0.01332528  0.012291781         2889 
 3688000   0.64561457   -8.3330817    589.78988  0.013326778  0.012286678         2908 
 3689000   0.66316364   -8.3431564     590.4273  0.013337564  0.012281581         2911 
 3690000   0.65371752    -8.330628    590.61229  0.013338128  0.012276486         2913 
 3691000    0.6542679   -8.3225892    589.69981  0.013313912  0.012271398         2934 
 3692000   0.65947236   -8.3223517    589.50992   0.01330602  0.012266305         2897 
 3693000   0.66450508   -8.3449487    590.51184  0.013325026  0.012261215         2879 
 3694000   0.65950857   -8.3171247    591.05132  0.013333589  0.012256128         2898 
 3695000   0.66413066   -8.3314236    589.84973  0.013302881  0.012251041         2960 
 3696000   0.67336038   -8.3350975    590.00524  0.013302788  0.012245967         2931 
 3697000   0.67403295   -8.3223957    589.14204  0.013279732  0.012240892         2883 
 3698000   0.65816527   -8.3375191    590.37974  0.013304032  0.012235814         2984 
 3699000   0.65626835   -8.3211729    590.12177  0.013294624  0.012230743         2841 
 3700000   0.65249504   -8.3367602    590.04436  0.013289287  0.012225675         2909 
 3701000   0.65083205   -8.3347579    589.50913  0.013273645  0.012220603         2943 
 3702000   0.66631981   -8.3328194     589.0967  0.013260776  0.012215535         2924 
 3703000   0.65511256   -8.3284289    589.10584    0.0132574  0.012210465         2907 
 3704000   0.66781318    -8.350908    589.61101  0.013265186  0.012205404         2935 
 3705000      0.66567   -8.3455323    587.78321  0.013220495  0.012200338         2869 
 3706000   0.65667041   -8.3034666    590.02557  0.013267349  0.012195277         2826 
 3707000   0.65406312   -8.3297957    591.08888  0.013287674   0.01219022         2916 
 3708000   0.67618385   -8.3302558    589.44532  0.013247153  0.012185168         2882 
 3709000    0.6548212   -8.3350579    590.16321  0.013259711  0.012180118         2895 
 3710000   0.64704991   -8.3462302    588.46012  0.013217882  0.012175063         2914 
 3711000   0.63460743   -8.3263098    590.09585  0.013251052  0.012170015         2894 
 3712000   0.66397229   -8.3410272    589.25788   0.01322867  0.012164969         2831 
 3713000   0.66207121   -8.3347951    589.80751  0.013237443  0.012159924         2971 
 3714000   0.67210505    -8.339686    589.36109  0.013223862  0.012154883         2884 
 3715000   0.65524378   -8.3495618    590.18765  0.013238844  0.012149846         2872 
 3716000   0.65101717   -8.3461436    589.36195  0.013216764   0.01214481         2932 
 3717000   0.65176353    -8.339493    588.60302  0.013196194  0.012139775         2886 
 3718000   0.64673263   -8.3528016    589.04176  0.013202478  0.012134745         2926 
 3719000   0.65393951   -8.3375067    590.66921  0.013235395   0.01212972         2910 
 3720000   0.66959659   -8.3491659    590.44844  0.013226891  0.012124702         2860 
 3721000   0.66648218   -8.3384232     589.5572  0.013203377   0.01211968         2825 
 3722000   0.64044095    -8.338076    589.75147  0.013204179  0.012114666         2883 
 3723000   0.66522627   -8.3364279    590.51675  0.013217762  0.012109649         2943 
 3724000   0.64984528   -8.3528432    589.03062  0.013180957   0.01210463         2936 
 3725000   0.66072506   -8.3532417    589.97673  0.013198585  0.012099618         2944 
 3726000   0.63726949   -8.3233358    590.14535  0.013198813  0.012094613         2871 
 3727000    0.6630419   -8.3376613    589.72458  0.013185864  0.012089602         2935 
 3728000   0.65404784   -8.3448466    588.43222  0.013153438  0.012084598         2965 
 3729000    0.6610079   -8.3464285    588.65238  0.013154831  0.012079597         2872 
 3730000   0.65029068    -8.337228    589.69137  0.013174517  0.012074603         2827 
 3731000    0.6654799    -8.330261    589.78638  0.013173108  0.012069607         2877 
 3732000   0.65556134   -8.3371667    590.31378  0.013181354  0.012064614         2901 
 3733000    0.6681195    -8.326076     589.8701  0.013167919  0.012059627         2817 
 3734000   0.65897144   -8.3476072     589.2092  0.013149643  0.012054652         2841 
 3735000   0.66890254   -8.3274845     590.0133  0.013164063  0.012049666         2819 
 3736000   0.64505709   -8.3536749    589.15727  0.013141445  0.012044682         2959 
 3737000   0.65811675    -8.356469    589.93135   0.01315519  0.012039708         2940 
 3738000   0.65291598   -8.3387364    589.86755  0.013150249  0.012034731         2849 
 3739000   0.64999768   -8.3601851    588.90819   0.01312535  0.012029754         2960 
 3740000   0.66774102   -8.3241723    590.24448  0.013151615  0.012024784         2932 
 3741000   0.65104273    -8.329767     588.7905  0.013115711  0.012019814         2908 
 3742000   0.65302694   -8.3413553    588.81539   0.01311276  0.012014847         2869 
 3743000   0.64700864   -8.3424597    589.57051  0.013126069  0.012009879         2903 
 3744000   0.66382425   -8.3595259    589.74774  0.013126508  0.012004917         2856 
 3745000   0.66284668    -8.343545    590.34139  0.013136212  0.011999958         2896 
 3746000   0.66187679   -8.3333059    589.07777  0.013104595  0.011994998         2894 
 3747000   0.65612291   -8.3555693     589.8507  0.013118288  0.011990043         2927 
 3748000   0.66400043   -8.3433452     589.0747  0.013097534  0.011985087         2874 
 3749000   0.64436019   -8.3814606    588.22679  0.013075193   0.01198013         2962 
 3750000   0.65732534   -8.3598781    589.52028  0.013100451  0.011975176         2927 
 3751000   0.66408776   -8.3517457    588.18052  0.013067194  0.011970226         2925 
 3752000      0.63875   -8.3694964    589.72568   0.01309803  0.011965273         2877 
 3753000   0.65745362   -8.3313474    588.17094  0.013060017  0.011960334         2914 
 3754000   0.63852121    -8.339191    588.34714   0.01306045   0.01195539         2894 
 3755000   0.64790616   -8.3531196    588.84294  0.013067975  0.011950443         2840 
 3756000   0.64394206   -8.3570253    588.93728  0.013066589  0.011945509         2928 
 3757000   0.64072969   -8.3438983    589.43004   0.01307404   0.01194057         2911 
 3758000   0.66048991   -8.3560987    589.49737  0.013072055   0.01193564         2955 
 3759000   0.66195019   -8.3240463    590.28035  0.013085935  0.011930715         2926 
 3760000   0.63586801   -8.3518451    590.15254  0.013079622  0.011925785         2962 
 3761000    0.6466753   -8.3336552    588.69291  0.013043803  0.011920856         2877 
 3762000   0.64313955   -8.3647989    587.28811  0.013009217  0.011915931         2851 
 3763000   0.64913481   -8.3437677    589.28887  0.013050068  0.011911004         2844 
 3764000   0.65875487   -8.3528196    588.49683  0.013029065   0.01190608         2904 
 3765000   0.65541129   -8.3514274    590.28836  0.013065258  0.011901162         2781 
 3766000    0.6425954   -8.3494501    589.86605  0.013052444  0.011896251         2926 
 3767000   0.65715439   -8.3633669    589.52963  0.013041537  0.011891347         2855 
 3768000   0.67538049   -8.3630484    588.61756  0.013017904  0.011886439         2864 
 3769000   0.65899893   -8.3533668    589.46746  0.013033242  0.011881536         2936 
 3770000   0.64096698   -8.3568394    588.91583  0.013017591  0.011876634         2997 
 3771000   0.65118287   -8.3617835    590.05546  0.013039323  0.011871736         2886 
 3772000   0.65038045   -8.3569392     588.8109  0.013008371  0.011866842         2935 
 3773000   0.66021297   -8.3492427    589.77112  0.013026131  0.011861954         2962 
 3774000   0.66227982   -8.3535494    589.87476  0.013024968  0.011857065         2890 
 3775000   0.65265414   -8.3472631    588.78253  0.012997407   0.01185218         2930 
 3776000   0.65456429   -8.3321698    589.11647  0.013001334  0.011847298         2885 
 3777000   0.65085464   -8.3455177    589.67727  0.013010266  0.011842422         2870 
 3778000   0.65248458   -8.3478461    589.52573  0.013003479  0.011837543         2900 
 3779000    0.6559788   -8.3650826    589.75332  0.013005057   0.01183267         2891 
 3780000   0.63368537   -8.3603507    589.17933  0.012988962  0.011827804         2924 
 3781000   0.66034916   -8.3425684    588.94013  0.012980255  0.011822943         2945 
 3782000   0.65670669   -8.3555652    588.82757  0.012974343  0.011818078         2950 
 3783000   0.64032525   -8.3681505    588.90272  0.012972569  0.011813215         2890 
 3784000   0.66065346   -8.3589594    589.74849  0.012987766  0.011808357         2932 
 3785000   0.65546385   -8.3445991    589.22439  0.012972796  0.011803497         2872 
 3786000   0.65818683   -8.3584736    589.01493  0.012964759  0.011798636         2878 
 3787000   0.64667472   -8.3697961    587.79169  0.012934418   0.01179378         2899 
 3788000   0.65004554   -8.3731863    589.63429  0.012971539   0.01178892         2909 
 3789000   0.65477244   -8.3684223    588.81994  0.012950205  0.011784071         2847 
 3790000   0.65331636   -8.3497958    590.54999  0.012984828   0.01177922         2907 
 3791000   0.65588125   -8.3621319    589.07949  0.012949079  0.011774378         2960 
 3792000   0.63852413   -8.3731787    588.88928  0.012941484  0.011769537         2955 
 3793000   0.63858492   -8.3544976        588.6  0.012931716  0.011764697         2998 
 3794000   0.64674513   -8.3605804    588.69054  0.012930296  0.011759852         2946 
 3795000   0.66165353   -8.3578849     589.9267  0.012954034  0.011755017         2912 
 3796000     0.629912   -8.3710217    587.72359  0.012902256  0.011750182         2947 
 3797000    0.6592196   -8.3622601    589.07004  0.012928409  0.011745352         2910 
 3798000   0.64242043   -8.3710839    589.58976  0.012936409   0.01174052         2945 
 3799000   0.64740355   -8.3649879     587.6311  0.012890039  0.011735692         2956 
 3800000   0.64733552   -8.3732024    588.75553  0.012911305  0.011730874         2913 
 3801000   0.63281612   -8.3536358      588.432  0.012900816  0.011726052         2979 
 3802000   0.64371235   -8.3641258    589.27202  0.012915834  0.011721233         2900 
 3803000   0.64039816   -8.3693884    589.61623   0.01291998  0.011716415         2908 
 3804000   0.63933373   -8.3744751    589.80811  0.012920788  0.011711605         2871 
 3805000   0.65439788   -8.3752588    588.36512  0.012885789   0.01170679         2956 
 3806000   0.63112945   -8.3833438    588.92646  0.012894694   0.01170198         2966 
 3807000   0.66104613   -8.3595674    588.76887  0.012887857  0.011697174         2872 
 3808000   0.63685548   -8.3714312     588.9829  0.012889157  0.011692373         2921 
 3809000    0.6479762   -8.3880673    588.91832   0.01288436  0.011687573         2908 
 3810000   0.63693301   -8.3470187    589.59766  0.012895837  0.011682774         2845 
 3811000     0.650972   -8.3638355    587.91164  0.012855586  0.011677976         2858 
 3812000   0.64810214   -8.3427603    589.13464  0.012878949  0.011673177         2887 
 3813000   0.64627755   -8.3498037    589.46101  0.012882704  0.011668384         2906 
 3814000   0.63354489   -8.3674931    589.59612  0.012882278  0.011663591         2927 
 3815000   0.63513482   -8.3592074    588.08331  0.012845857  0.011658805         2961 
 3816000   0.65778109   -8.3539636    589.42837  0.012871863  0.011654016         2892 
 3817000   0.63924139   -8.3709133    589.35977  0.012866994  0.011649233         2941 
 3818000   0.63194019   -8.3848548    588.01546  0.012834282  0.011644452         2970 
 3819000    0.6394812   -8.3842531    588.05085  0.012831694  0.011639665         2996 
 3820000   0.64194923   -8.3532779    589.31448  0.012855901  0.011634884         2904 
 3821000   0.63845407   -8.3652707    587.79626  0.012819425  0.011630103         2954 
 3822000   0.63458835    -8.373232    588.61191  0.012833855  0.011625331         2910 
 3823000   0.64722411   -8.3902571    588.67847  0.012831949   0.01162056         2916 
 3824000   0.62315043   -8.3767733    588.78964  0.012831015  0.011615784         2906 
 3825000   0.63753556   -8.3583505    588.76155  0.012827049   0.01161102         2882 
 3826000   0.64425995   -8.3508562    588.71515  0.012822686  0.011606256         2887 
 3827000   0.64945364   -8.3656859    589.11047  0.012827943  0.011601493         2853 
 3828000   0.65524348   -8.3761183     588.2449  0.012805749  0.011596732         2932 
 3829000   0.63478874   -8.3763708    589.02732  0.012819433  0.011591979         2859 
 3830000   0.64104011   -8.3722894    588.48746   0.01280434  0.011587226         2918 
 3831000   0.63144345   -8.3697855    588.11443  0.012792883  0.011582472         2975 
 3832000   0.63341863    -8.386389    587.69304  0.012780381   0.01157772         2902 
 3833000    0.6416583   -8.3786782    588.15565  0.012787104  0.011572968         2978 
 3834000   0.63179033   -8.3974267    588.57285  0.012792837  0.011568225         2947 
 3835000   0.64516458   -8.3716012    588.42985  0.012786394  0.011563476         2933 
 3836000    0.6411932   -8.3764121    588.20575  0.012778192  0.011558743         2866 
 3837000   0.62502618   -8.3825975    588.55047  0.012782349     0.011554         2918 
 3838000   0.62778456   -8.3694816    587.92737  0.012765489  0.011549264         2959 
 3839000   0.64055005   -8.3755578    588.46355  0.012773803  0.011544528         2948 
 3840000   0.63914942     -8.36243    588.53989  0.012772133  0.011539794         2938 
 3841000   0.64146789    -8.368954    588.56426  0.012769337  0.011535065         2848 
 3842000    0.6210136    -8.360113    589.14513  0.012778612  0.011530338         2907 
 3843000   0.64635175   -8.3806655    587.91784  0.012748674  0.011525617         2943 
 3844000   0.63035391   -8.3579931    587.98863  0.012746892   0.01152089         2944 
 3845000   0.64289804   -8.3633502     588.6867  0.012758706  0.011516166         2921 
 3846000   0.63530768   -8.3626459    589.50857  0.012773197  0.011511453         2947 
 3847000   0.62935064   -8.3788044    589.50064  0.012769704  0.011506735         2898 
 3848000   0.65054185   -8.3742218    589.28086  0.012761626  0.011502027         2924 
 3849000   0.64351392   -8.3622524    587.79334  0.012726105  0.011497316         2898 
 3850000   0.64829546   -8.3678384    588.07526  0.012728902  0.011492613         2947 
 3851000   0.63654573   -8.3743767    587.86398  0.012721024  0.011487907         2897 
 3852000   0.62427698   -8.4041962     588.2971  0.012727092  0.011483204         2929 
 3853000   0.64618919   -8.3702943    587.03996  0.012696599    0.0114785         2957 
 3854000   0.64259607   -8.3839472    588.41004  0.012722929  0.011473803         2872 
 3855000    0.6255657   -8.3893291    587.33954  0.012696488  0.011469106         2921 
 3856000   0.62377124   -8.3758638    588.54214  0.012719185  0.011464408         2905 
 3857000   0.62791006   -8.3873036    587.76727  0.012699146  0.011459713         2902 
 3858000   0.63846377   -8.3892034    588.53536  0.012712445  0.011455022         2940 
 3859000   0.62877112   -8.3699168    588.56405   0.01270977  0.011450336         2890 
 3860000   0.63257457    -8.364504     589.0609  0.012717204  0.011445646         2912 
 3861000   0.63687411   -8.3791793    588.82542  0.012708828  0.011440961         2951 
 3862000   0.64225919   -8.3941665    588.02689  0.012688307  0.011436286         2838 
 3863000   0.62622391   -8.3888577    587.50989  0.012673869  0.011431608         2916 
 3864000   0.63489419   -8.3912766    588.01036  0.012681383  0.011426933         2971 
 3865000   0.63754315   -8.3779613    588.46143  0.012687827  0.011422259         2932 
 3866000   0.62887939   -8.3930125    587.11077  0.012655431   0.01141759         2934 
 3867000   0.62583783   -8.3972793    588.34427   0.01267874  0.011412918         2860 
 3868000   0.63806824   -8.3726913    588.59048  0.012680767  0.011408253         2921 
 3869000   0.63915482   -8.3897163    588.23057  0.012669738  0.011403594         2892 
 3870000   0.63548169   -8.3688498    588.15247  0.012664782  0.011398932         2877 
 3871000   0.62912487   -8.3672601    588.19712  0.012662471  0.011394277         2920 
 3872000   0.61676772   -8.3628544    588.65045  0.012668958  0.011389616         2976 
 3873000   0.63920056   -8.3988302    587.11986  0.012632754  0.011384965         2976 
 3874000   0.63276234    -8.381651    587.25545  0.012632409  0.011380307         2959 
 3875000   0.63456439   -8.3920137    588.47943  0.012655472  0.011375651         2867 
 3876000   0.62421882   -8.3839276    587.90065  0.012639763  0.011370997         2963 
 3877000   0.64128283   -8.3692336    587.31521  0.012623919  0.011366347         2888 
 3878000   0.63968219   -8.3770622    587.56313  0.012625991  0.011361696         2928 
 3879000   0.63993815   -8.4006384    587.37302  0.012618652  0.011357055         2908 
 3880000   0.63387154   -8.3788043    587.28421  0.012613492  0.011352415         2988 
 3881000   0.64018918   -8.3723938    586.69924  0.012597682  0.011347772         2948 
 3882000   0.64919324   -8.3791843    588.85571  0.012640729  0.011343144         2955 
 3883000    0.6186936   -8.3845303    588.38277  0.012627324   0.01133851         2875 
 3884000   0.62886176   -8.3981593    587.87357  0.012613147  0.011333882         2929 
 3885000   0.62157663   -8.4062009    586.74229  0.012585635  0.011329249         2970 
 3886000   0.63010015   -8.3894878    586.46776  0.012576509  0.011324619         2972 
 3887000   0.62430986   -8.3710016     588.4651  0.012616094  0.011319992         2959 
 3888000    0.6315905   -8.3885228    587.77551  0.012598069  0.011315369         2912 
 3889000   0.64941299   -8.3907495     587.6853  0.012592897  0.011310748         2938 
 3890000   0.63025259   -8.3694075    587.78573  0.012591811  0.011306128         2963 
 3891000   0.63665324   -8.3855474    587.69147  0.012586556  0.011301518         2994 
 3892000   0.63268504   -8.3883101    588.17663   0.01259371  0.011296903         2976 
 3893000   0.63045978   -8.3921021    587.80169  0.012582449  0.011292293         2956 
 3894000   0.62328506   -8.3843737    588.22178  0.012588208  0.011287689         2895 
 3895000   0.63020947   -8.3916165    586.61027  0.012550498  0.011283088         2817 
 3896000   0.64063855   -8.4009859    586.98456  0.012555282  0.011278482         2933 
 3897000   0.63048722   -8.3802438    587.48671  0.012562798  0.011273889         2951 
 3898000   0.62198003    -8.391789    587.96169   0.01256973   0.01126929         2878 
 3899000   0.61875014   -8.3980762    587.35457   0.01255353  0.011264687         3010 
 3900000   0.63495217    -8.400416    587.97008  0.012563463  0.011260094         2924 
 3901000   0.63989966   -8.3805012    588.21638  0.012565504  0.011255502         2907 
 3902000   0.62008496     -8.37823     587.6608  0.012550419  0.011250913         2895 
 3903000   0.63147232   -8.3857073     587.9302  0.012552955  0.011246329         2943 
 3904000   0.61672596   -8.3769518    587.67727  0.012544341  0.011241746         2948 
 3905000   0.62502463   -8.4013053    587.83431  0.012544479  0.011237162         2931 
 3906000   0.61522535   -8.3841371    588.16521  0.012548328  0.011232583         2991 
 3907000   0.62353047   -8.3959885    587.56686  0.012532354  0.011228008         2962 
 3908000   0.61582347   -8.3848181    586.81661  0.012513149  0.011223433         2906 
 3909000   0.61785294   -8.3985692    587.05194  0.012514964  0.011218865         2920 
 3910000   0.62102548   -8.3831082    587.55911  0.012522573  0.011214298         2849 
 3911000   0.64198142   -8.4014491    588.24379   0.01253396  0.011209729         2933 
 3912000   0.62701016    -8.407311    587.09391  0.012506261  0.011205161         2963 
 3913000   0.62710879   -8.4121104     587.0168  0.012501423  0.011200597         2975 
 3914000   0.61944404    -8.387267    588.00143  0.012519192  0.011196033         2958 
 3915000   0.62590358   -8.3818215    587.80866  0.012511891  0.011191464         2935 
 3916000    0.6198193   -8.3971794    587.20215   0.01249579    0.0111869         2992 
 3917000   0.61826373   -8.4054833    587.43559  0.012497566  0.011182339         2997 
 3918000   0.62628832   -8.3882827    587.68559  0.012499694  0.011177783         2959 
 3919000   0.62977117   -8.3932323    587.91558  0.012501394  0.011173229         3028 
 3920000   0.63008064   -8.3962936    587.58679  0.012491216   0.01116868         2896 
 3921000   0.64564374   -8.4032886    588.01711  0.012497176  0.011164135         2947 
 3922000   0.63380019   -8.3983385    587.98456  0.012493298  0.011159592         2944 
 3923000    0.6226225   -8.3948543     587.7139  0.012484364  0.011155049         2991 
 3924000    0.6255535   -8.4097841    586.88804  0.012463643  0.011150504         2925 
 3925000   0.62514417   -8.4076988    588.63608  0.012497581  0.011145968         2921 
 3926000   0.61882022   -8.3904127    587.03479  0.012460409  0.011141434         2988 
 3927000   0.61723392   -8.3950712     587.4285  0.012465591  0.011136903         3005 
 3928000   0.62514379   -8.3947773    587.86949  0.012471773  0.011132382         2901 
 3929000   0.61734715   -8.3713432    589.39539  0.012500963  0.011127853         2864 
 3930000   0.62031563   -8.4190724    587.41469  0.012455782  0.011123335         2988 
 3931000   0.61427274   -8.4055546    588.13717  0.012467929  0.011118811         2933 
 3932000   0.60318301   -8.4036823    587.87646  0.012459233  0.011114289         2979 
 3933000   0.62710246   -8.4084455    587.52183  0.012448551  0.011109769         2975 
 3934000   0.62570547   -8.4011252    588.48164  0.012465719  0.011105253         2970 
 3935000   0.62314465   -8.3809889    588.51112  0.012463175  0.011100741         2956 
 3936000   0.61498751   -8.3993076    588.01459  0.012449496  0.011096228         3008 
 3937000   0.63118336   -8.3827287    587.38441  0.012432995  0.011091719         2947 
 3938000   0.61503749   -8.3906722    588.51504  0.012453763  0.011087215         2877 
 3939000    0.6277042   -8.4123169    586.93251  0.012417122  0.011082713         2899 
 3940000   0.62194084   -8.3918646    588.40925  0.012445204  0.011078215         2901 
 3941000   0.60663477   -8.4100427    586.96995  0.012411612  0.011073716         2998 
 3942000   0.62826424   -8.3794236    588.14713  0.012433349  0.011069222         2929 
 3943000   0.63123738   -8.4216338    587.51337  0.012416801  0.011064728         2964 
 3944000   0.62254337    -8.386907     587.4499  0.012412312  0.011060237         2948 
 3945000   0.62433835    -8.390835       587.28  0.012405577  0.011055748         2915 
 3946000   0.62535041   -8.4074189    587.79442  0.012413297  0.011051264         2982 
 3947000   0.62028087   -8.3992114     588.0613  0.012415786   0.01104678         2937 
 3948000   0.62747717   -8.3856783    588.37976  0.012419363  0.011042296         2915 
 3949000   0.61088254   -8.4007533    587.29221  0.012393269  0.011037812         2971 
 3950000   0.61747842   -8.3923095    588.16731  0.012408593  0.011033338         2930 
 3951000   0.60577089   -8.4069589    587.75948  0.012396851  0.011028863         2906 
 3952000   0.61837535   -8.3975601    588.48708  0.012409056  0.011024394         2995 
 3953000   0.62623419   -8.4011816    587.86375  0.012392777   0.01101992         3009 
 3954000   0.62927764   -8.4205187    586.93515  0.012370071  0.011015448         2968 
 3955000   0.61692124    -8.418113    586.88585  0.012365905  0.011010974         2994 
 3956000   0.62635305    -8.420453    587.64782   0.01237883  0.011006502         2992 
 3957000   0.60467488   -8.4142073    587.46969   0.01237195  0.011002033         2979 
 3958000    0.6126466   -8.4210222    588.11605  0.012382433  0.010997566         2980 
 3959000    0.6163231   -8.4215103    585.91419  0.012332959    0.0109931         2963 
 3960000   0.62711147   -8.4200077    588.05038  0.012374798  0.010988638         2978 
 3961000   0.62642557   -8.3996434    586.67625  0.012342764  0.010984183         2970 
 3962000   0.62446551   -8.4208038    586.16466  0.012328888  0.010979724         2965 
 3963000   0.61926729   -8.3977703    587.50206    0.0123539  0.010975273         2940 
 3964000   0.62361577   -8.3965635     587.6055  0.012352958  0.010970824         3030 
 3965000   0.61862077   -8.4290044    586.25606  0.012321481  0.010966374         2953 
 3966000   0.62560683   -8.4269427     587.7771  0.012350334  0.010961928         3059 
 3967000   0.61024307   -8.3997859    587.68557  0.012345298  0.010957487         2946 
 3968000   0.61479151   -8.4088246    587.68333   0.01234214  0.010953044         2938 
 3969000   0.61259952   -8.4082235     587.2909  0.012330791  0.010948602         3000 
 3970000   0.62585858   -8.3947403    587.13569  0.012324427  0.010944169         2919 
 3971000   0.61562752   -8.4205435    585.88835  0.012295147  0.010939736         3034 
 3972000   0.60420247   -8.4307483    586.66905  0.012308431  0.010935301         2960 
 3973000   0.61074745   -8.4142424    585.90663  0.012289341  0.010930871         3029 
 3974000   0.62212317   -8.4122893    586.70563  0.012303003  0.010926442         3002 
 3975000   0.61257454   -8.4309661    587.05975  0.012307332  0.010922018         2997 
 3976000   0.61438879   -8.4171713    586.51366  0.012292791  0.010917593         3029 
 3977000   0.61830044   -8.4101852    587.73349   0.01231526  0.010913171         2984 
 3978000   0.61316109   -8.4072331    587.01333  0.012297078  0.010908748         2946 
 3979000   0.61646891   -8.4227302    587.25803  0.012299113  0.010904328         2960 
 3980000   0.60704206   -8.4036497    587.63963  0.012304012  0.010899915         2983 
 3981000   0.60924244   -8.3985568    586.78049  0.012282937    0.0108955         3008 
 3982000   0.60953437   -8.4146962    586.82382   0.01228076  0.010891087         2975 
 3983000   0.60083153    -8.409275    586.78451  0.012276854  0.010886678         3001 
 3984000    0.6303676   -8.4183061    586.33552  0.012264381  0.010882271         2999 
 3985000   0.61228713   -8.4042583    587.41246  0.012283824  0.010877867         2884 
 3986000   0.61356247   -8.3985387    586.75869  0.012267074  0.010873466         2937 
 3987000   0.61504261   -8.4217533    586.60348  0.012260753  0.010869069         3022 
 3988000   0.60594706   -8.4056313    588.19115  0.012290855  0.010864668         2989 
 3989000   0.62215123   -8.4389135    587.31986  0.012269572  0.010860273         3022 
 3990000   0.61423316   -8.4354404    586.84305  0.012256538  0.010855882         3024 
 3991000   0.60858929   -8.4044512     587.1547  0.012259974  0.010851488         2996 
 3992000   0.61859349   -8.4053734    587.01579  0.012254004  0.010847103         2964 
 3993000   0.62985508   -8.4372447    586.88231  0.012248149  0.010842719         2953 
 3994000   0.60847719   -8.4109548     588.0437  0.012269314  0.010838328         3016 
 3995000   0.62524386   -8.4266071    587.64447  0.012257916  0.010833944         3049 
 3996000   0.60690803   -8.4165857    587.09041  0.012243294  0.010829564         3035 
 3997000   0.61839371   -8.4085627    587.36755  0.012246008  0.010825186         2983 
 3998000   0.60682343   -8.4350277    586.36094  0.012221964   0.01082081         2986 
 3999000   0.61752583   -8.4169725    587.82005  0.012249313  0.010816435         2963 
 4000000   0.60342134   -8.4125663    586.27584   0.01221408  0.010812067         2991 
 4001000   0.60199039   -8.4256689    586.75362  0.012220978  0.010807696         3005 
 4002000   0.61820632   -8.4250493    587.12207  0.012225597  0.010803329         3001 
 4003000   0.60653585   -8.4450809    587.12074  0.012222515  0.010798963         2997 
 4004000    0.6242689   -8.4154983     587.3784  0.012224825  0.010794596         3008 
 4005000   0.60807938   -8.4047481    587.96234  0.012233923  0.010790235         2994 
 4006000   0.61116652   -8.4367232    587.45038  0.012220219  0.010785874         2908 
 4007000   0.60830599   -8.4184885    586.48069  0.012197003  0.010781522         2982 
 4008000   0.61693319   -8.4295473    586.64732  0.012197424  0.010777163         2953 
 4009000   0.61336477   -8.4276839    586.42414  0.012189743  0.010772806         3032 
 4010000   0.59732365   -8.4334593    586.69243  0.012192278  0.010768456         3027 
 4011000   0.60428059   -8.4252798    585.70062  0.012168632  0.010764111         2966 
 4012000   0.61495356   -8.4336576    587.27889  0.012198382  0.010759769         3024 
 4013000   0.60820306   -8.4206959    586.31193  0.012175262  0.010755426         3044 
 4014000   0.61800631   -8.4079963    587.00855  0.012186691  0.010751084         3026 
 4015000   0.59965806   -8.4265816    587.75129  0.012199072  0.010746747         2988 
 4016000   0.61688136   -8.4106195    587.26967  0.012186041  0.010742414         2910 
 4017000   0.61775107   -8.4045821    586.99589  0.012177327  0.010738086         2994 
 4018000   0.59957145   -8.3950457     586.3069  0.012160007   0.01073376         2980 
 4019000   0.60586365   -8.3963856    587.13858  0.012174226  0.010729433         3031 
 4020000   0.60832935   -8.4264871    585.67168  0.012140789  0.010725106         2955 
 4021000     0.608921    -8.431642    585.59576  0.012136197  0.010720781         2974 
 4022000    0.6105243   -8.4297496    586.90966  0.012160402  0.010716465         2987 
 4023000   0.61381433   -8.4391531    586.37158  0.012146234  0.010712141         3013 
 4024000   0.60039294   -8.4150434    586.61597  0.012148276  0.010707826         2975 
 4025000   0.60221915   -8.4142308    586.99627  0.012153132  0.010703514         2977 
 4026000   0.61071999   -8.4137569    586.89434  0.012148003  0.010699202         3025 
 4027000   0.59684307   -8.3952097    586.22748  0.012131187  0.010694895         3008 
 4028000   0.61747753   -8.4230442    586.89412  0.012141967  0.010690587         3026 
 4029000   0.60859156   -8.4240576    586.65709  0.012134051   0.01068628         3005 
 4030000   0.61391436   -8.4119805    585.71107  0.012111478  0.010681977         3024 
 4031000   0.61396739   -8.4135071    585.09722  0.012095783  0.010677675         2979 
 4032000   0.60569916   -8.4285477    586.54293  0.012122663  0.010673377         3026 
 4033000   0.60876252   -8.4352529    585.01437  0.012088073   0.01066908         2968 
 4034000   0.60995243   -8.4274255    586.33237  0.012112303  0.010664784         2985 
 4035000   0.61888875   -8.4353952    585.89653    0.0121003  0.010660487         2955 
 4036000   0.61961047   -8.4221639    587.45743  0.012129531  0.010656197         3029 
 4037000   0.60252945    -8.430349    586.52754  0.012107331  0.010651909         2974 
 4038000   0.60901841    -8.403716    587.91359  0.012132937  0.010647626         2929 
 4039000   0.60276152   -8.4177557    585.85104  0.012087378  0.010643348         2971 
 4040000   0.60822114   -8.4350612    585.90668  0.012085534  0.010639069         2981 
 4041000   0.59926286   -8.4177475    587.45642  0.012114502  0.010634794         3005 
 4042000   0.60322727   -8.4288436    585.49703  0.012071108  0.010630512         2952 
 4043000    0.6114685   -8.4213516    586.94418  0.012097951  0.010626237         2964 
 4044000   0.61725715   -8.4310242    585.85868  0.012072591  0.010621964         2994 
 4045000   0.58901482   -8.4287098    586.69508  0.012086837  0.010617695         2991 
 4046000   0.61002102   -8.4418643    586.43104  0.012078412  0.010613422         2912 
 4047000   0.60460902   -8.4357818    585.65471  0.012059441  0.010609155         2973 
 4048000   0.60815808   -8.4270233     587.0822  0.012085849  0.010604894         2989 
 4049000   0.58787488   -8.4431977    586.43853  0.012069617  0.010600632         3016 
 4050000   0.59972235   -8.4146445    587.20957  0.012082501  0.010596369         2965 
 4051000   0.60170378   -8.4323016    586.81304  0.012071362  0.010592114         2993 
 4052000   0.60712194   -8.4260454     586.4468  0.012060851  0.010587858         3038 
 4053000   0.60339507   -8.4196858    587.72168  0.012084088  0.010583607         3062 
 4054000   0.60342165   -8.4424789    586.55387  0.012057101  0.010579356         3084 
 4055000    0.6001671   -8.4366805    587.20376  0.012067484  0.010575109         3014 
 4056000   0.60836782    -8.446083    586.19422  0.012043767  0.010570862         3038 
 4057000   0.58996205   -8.4334864    587.26635   0.01206282  0.010566617         3036 
 4058000   0.60283198   -8.4314569     587.1605  0.012057674  0.010562375         3011 
 4059000   0.59550088    -8.404212    587.05923  0.012052625  0.010558137         3035 
 4060000   0.60279334   -8.4328073     585.7483  0.012022748  0.010553901         2998 
 4061000   0.60752769   -8.4410054    587.39554   0.01205359  0.010549667         3078 
 4062000   0.60672234   -8.4386105    586.86008  0.012039637  0.010545433         3008 
 4063000   0.60415522   -8.4228983     586.6106  0.012031557  0.010541202         3034 
 4064000   0.59945851   -8.4186215    586.58536  0.012028079  0.010536975         3040 
 4065000    0.5980373   -8.4535382    584.76943  0.011987893  0.010532747         3050 
 4066000   0.59048946   -8.4115038    586.63703  0.012023222   0.01052852         3000 
 4067000   0.61079036   -8.4366839    586.22546  0.012011832  0.010524294         3068 
 4068000   0.59680816    -8.442835    585.58713  0.011995803  0.010520074         3025 
 4069000    0.5930736   -8.4235738    587.07004  0.012023225  0.010515857         3004 
 4070000   0.61443021   -8.4270153    586.23776   0.01200323  0.010511642         3046 
 4071000   0.60970294   -8.4373675    585.50244   0.01198523  0.010507431         3026 
 4072000   0.61125375   -8.4367647    586.34399  0.011999509  0.010503219         3037 
 4073000   0.60988361   -8.4317088      586.264  0.011994926  0.010499011         3100 
 4074000   0.60126731   -8.4424465    585.89733  0.011984481  0.010494807         3051 
 4075000   0.59121542   -8.4272314    586.28304  0.011989428  0.010490602         2950 
 4076000    0.6149357   -8.4317807    587.22675  0.012005781  0.010486399         3030 
 4077000   0.60236219   -8.4339415    587.03456  0.011998908    0.0104822         3025 
 4078000    0.5974892   -8.4381648    584.78887  0.011950075  0.010477999         3070 
 4079000   0.59744985   -8.4358288     586.7278  0.011986757  0.010473801         3043 
 4080000   0.60219487   -8.4489739    586.74026  0.011984074  0.010469608         3083 
 4081000   0.61422976    -8.455572    585.34075   0.01195256  0.010465417         3101 
 4082000   0.60104479   -8.4343744    585.89375  0.011960921  0.010461223         2995 
 4083000   0.60202642   -8.4267482    586.30258  0.011966336  0.010457035         2970 
 4084000   0.60935323   -8.4333946    585.58846  0.011948834   0.01045285         3073 
 4085000   0.59549371   -8.4517067    585.85027   0.01195125   0.01044866         3032 
 4086000   0.59539398   -8.4448609    585.87129  0.011948754  0.010444476         3055 
 4087000   0.59262877   -8.4077096    586.69056  0.011962535    0.0104403         3049 
 4088000   0.60058364   -8.4482847    585.75481  0.011940533  0.010436129         3089 
 4089000   0.60318588     -8.45445    586.71719  0.011957226  0.010431958         3011 
 4090000   0.59071192   -8.4462981    585.54067  0.011930331  0.010427791         3043 
 4091000   0.59356986    -8.443366    585.89271  0.011934586   0.01042362         3061 
 4092000   0.60151115   -8.4373974    586.67607  0.011947623  0.010419452         2993 
 4093000   0.60032381    -8.427928    586.21154  0.011935246  0.010415286         3054 
 4094000   0.60049204   -8.4391092    586.09753   0.01193001  0.010411122         3023 
 4095000   0.60116852   -8.4570532    586.68303  0.011939012   0.01040696         3024 
 4096000   0.59134629   -8.4636198    585.67345  0.011915557  0.010402799         3050 
 4097000   0.59393261   -8.4429707    586.45665  0.011928579  0.010398636         2999 
 4098000   0.59085598   -8.4308271     587.5307  0.011947509  0.010394479         3023 
 4099000   0.59175285     -8.44933    585.85492  0.011910525  0.010390324         3049 
 4100000   0.60363404    -8.451458    585.85137  0.011907548  0.010386169         3007 
 4101000   0.59680224   -8.4594154    584.85224  0.011884342  0.010382014         3096 
 4102000   0.58997319   -8.4345682    585.82764   0.01190126  0.010377862         3022 
 4103000   0.60798913   -8.4438594     586.1115  0.011904125  0.010373714         2973 
 4104000   0.59329609   -8.4391795     586.0343  0.011899657  0.010369566         3038 
 4105000   0.59490206   -8.4371819    586.00827   0.01189623  0.010365424         3026 
 4106000   0.58929943   -8.4314724    586.47716  0.011902849  0.010361281         3032 
 4107000   0.60035216   -8.4410202    586.30346  0.011896426  0.010357144         3066 
 4108000   0.58959235   -8.4173773    584.79612  0.011862953  0.010353009         2950 
 4109000   0.58720632   -8.4560911    587.97856  0.011924608  0.010348876         3010 
 4110000    0.5838419   -8.4460657    586.13488  0.011884324  0.010344746         3074 
 4111000   0.60536232   -8.4349243    586.34464  0.011885686  0.010340616         2979 
 4112000   0.58276987   -8.4432397    585.81529  0.011872067  0.010336489         2980 
 4113000     0.591384   -8.4589213    586.15183  0.011875999  0.010332362         3064 
 4114000   0.60313014   -8.4650221    584.95733  0.011848917   0.01032824         3056 
 4115000   0.59916047   -8.4477961    585.76376  0.011862369  0.010324117         3123 
 4116000   0.58865207   -8.4617686    586.01155  0.011864503  0.010319995         3058 
 4117000    0.5839935   -8.4449878    586.12056  0.011863828  0.010315882         3134 
 4118000   0.59480989    -8.437741    585.48725  0.011848131  0.010311769         3014 
 4119000   0.58170047   -8.4549695    584.81695  0.011831694  0.010307657         3089 
 4120000    0.6009314   -8.4686021    585.16344   0.01183583  0.010303544         3044 
 4121000   0.58671774   -8.4585357    586.04338  0.011850752  0.010299437         3070 
 4122000   0.58498129   -8.4602994    586.44276  0.011855951  0.010295332         3032 
 4123000   0.59971216   -8.4501797    585.26731  0.011829317  0.010291227         3116 
 4124000   0.59377279   -8.4472909    586.73008  0.011856007  0.010287124         3064 
 4125000   0.60629812   -8.4457787    585.76835  0.011833704  0.010283022         3050 
 4126000    0.5836693   -8.4421004    585.81805   0.01183184  0.010278924         3082 
 4127000    0.5879752   -8.4599736    585.29801  0.011818472  0.010274828         3148 
 4128000   0.59188198   -8.4582428    586.91692   0.01184829  0.010270731         3103 
 4129000   0.58029937   -8.4509962    584.84391  0.011803583  0.010266636         3079 
 4130000   0.59112827   -8.4608019    585.75721  0.011819153  0.010262549         3081 
 4131000   0.58765963   -8.4680277    586.23574  0.011825945  0.010258459         3043 
 4132000   0.59664076   -8.4477205    586.37342   0.01182586  0.010254376         3088 
 4133000   0.59190508   -8.4560518    586.16753  0.011818847  0.010250296         3056 
 4134000   0.58176763   -8.4518245     585.7364  0.011807297  0.010246216         3004 
 4135000   0.59920092   -8.4541351    584.66819  0.011782914  0.010242135         3086 
 4136000   0.60201565   -8.4556963    585.78191  0.011802505  0.010238056         2997 
 4137000   0.59806455   -8.4658765    585.65529  0.011797101  0.010233976         3115 
 4138000   0.59761072    -8.482165    585.51837  0.011791493  0.010229901         3082 
 4139000   0.59496368   -8.4736937    585.58876  0.011790061  0.010225832         3031 
 4140000   0.57443878   -8.4691208    584.61967  0.011767707   0.01022176         3080 
 4141000   0.59944099   -8.4802147    584.82438  0.011768985  0.010217686         3071 
 4142000   0.57578633   -8.4440254    585.24579  0.011774622  0.010213623         3032 
 4143000   0.59264325   -8.4623667    585.61762  0.011779259  0.010209554         3094 
 4144000   0.60163412   -8.4647736     585.6904   0.01177788  0.010205491         3072 
 4145000   0.59048215    -8.471262     585.3085   0.01176736  0.010201425         3000 
 4146000   0.59715434   -8.4768551    585.99395  0.011778299  0.010197363         3065 
 4147000   0.57013323   -8.4572808    585.65576  0.011768663  0.010193305         3067 
 4148000   0.59498595   -8.4556742    586.27894  0.011778346  0.010189249         3085 
 4149000   0.59131708   -8.4591893      586.198  0.011773881  0.010185199         3050 
 4150000   0.59041761   -8.4649282    586.30137   0.01177312   0.01018115         3067 
 4151000   0.59264529   -8.4676084    585.43937  0.011752979  0.010177099         3084 
 4152000   0.59910592   -8.4594535     585.7461  0.011756304  0.010173054         3002 
 4153000   0.60407746   -8.4590467    586.23171  0.011763218  0.010169009         3041 
 4154000   0.58662903   -8.4538101    585.14557  0.011738597  0.010164965         3069 
 4155000   0.58932514   -8.4420914    586.35831  0.011760094  0.010160923         3056 
 4156000   0.58289557   -8.4591134    585.53858  0.011740828   0.01015688         3039 
 4157000   0.57969524   -8.4650475     585.8959  0.011745167  0.010152842         3066 
 4158000    0.5855399   -8.4682933    585.02307  0.011724849   0.01014881         3036 
 4159000   0.58439903   -8.4874288    585.23213  0.011726219  0.010144774         3082 
 4160000   0.58937147    -8.467327    584.87044  0.011716155  0.010140744         3043 
 4161000   0.59271289    -8.480609     585.6488  0.011728927  0.010136717         3078 
 4162000   0.58868874   -8.4783172    585.17742  0.011716671  0.010132696         3048 
 4163000   0.57950517   -8.4423002     585.8932  0.011728185  0.010128668         3093 
 4164000   0.58007796   -8.4677916    585.12802  0.011710055  0.010124646         3060 
 4165000   0.58080698    -8.468859    585.11497  0.011706982  0.010120621         3103 
 4166000   0.58545963   -8.4531475    586.43237  0.011730524  0.010116601         3104 
 4167000   0.58011869   -8.4797096    585.04995  0.011700063  0.010112587         3091 
 4168000   0.59040439   -8.4742204      585.142  0.011699096  0.010108572         3031 
 4169000   0.59144976   -8.4591614    586.41963  0.011721828  0.010104559         3067 
 4170000   0.60635252    -8.476009    586.02187  0.011711068  0.010100552         3056 
 4171000   0.58253105   -8.4605552    585.44861  0.011696808  0.010096545         3093 
 4172000   0.57166463   -8.4708449    584.30005  0.011671062  0.010092538         3072 
 4173000   0.59565831   -8.4612457    586.65728  0.011715338  0.010088533         3054 
 4174000   0.58734261   -8.4666277    585.93818  0.011698175  0.010084534         3036 
 4175000   0.58485594   -8.4789831    584.88743    0.0116744  0.010080532         3084 
 4176000   0.56505857   -8.4579581    585.52639  0.011684355  0.010076534         3036 
 4177000   0.57353264   -8.4709324    585.03768  0.011671808  0.010072537         3034 
 4178000     0.588462   -8.4708305    584.93586  0.011666983   0.01006854         3025 
 4179000   0.58642608    -8.463018    585.80448  0.011681512   0.01006455         3010 
 4180000   0.58980409   -8.4561886    585.49331  0.011672514   0.01006056         3028 
 4181000    0.5775482   -8.4706128    584.71891  0.011654287  0.010056571         3053 
 4182000   0.58889485   -8.4761288    584.47883  0.011646717  0.010052585         3068 
 4183000     0.576476   -8.4463281    585.26998  0.011659694  0.010048602         3042 
 4184000   0.57552747   -8.4774254    584.78323  0.011647212  0.010044622         3093 
 4185000   0.59029789   -8.4584475    585.06283  0.011649997  0.010040638         3064 
 4186000   0.58980572   -8.4740885    585.46234  0.011655167  0.010036658         3064 
 4187000   0.59427176   -8.4648386    585.11367  0.011645444  0.010032682         3028 
 4188000   0.58494835   -8.4681809     585.0337  0.011641072  0.010028709         3015 
 4189000   0.59235494    -8.476364    585.29825  0.011643556  0.010024734         2978 
 4190000   0.59490825   -8.4764234    586.46214  0.011663925  0.010020762         3049 
 4191000   0.57434562   -8.4822358     585.1487  0.011635025  0.010016795         3090 
 4192000   0.59453413    -8.480948    585.64448  0.011642106   0.01001283         3037 
 4193000   0.57150722   -8.4909469    585.03213  0.011627159  0.010008867         3115 
 4194000   0.57727046   -8.4722241    585.46448  0.011632977    0.0100049         3074 
 4195000   0.57624254   -8.4649425       584.88  0.011618594  0.010000941         3071 
 4196000   0.58288212    -8.468443    585.86817   0.01163545 0.0099969782         3065 
 4197000   0.57405478   -8.4497422    585.96375  0.011634575 0.0099930201         3030 
 4198000   0.57453697   -8.4837897    585.06834  0.011614029 0.0099890637         3065 
 4199000   0.57528655   -8.4731933     584.3914  0.011597829 0.0099851151         3026 
 4200000   0.59129156   -8.4699669    585.08911  0.011608911 0.0099811628         3020 
 4201000   0.57888372   -8.4707771    585.65774  0.011617427 0.0099772084         2986 
 4202000   0.58819453   -8.4694766     585.5301  0.011612131 0.0099732637         3071 
 4203000   0.58598218   -8.4728653    585.66126  0.011611969 0.0099693182         3040 
 4204000   0.58641187   -8.4611152    584.33911  0.011582999  0.009965374         3050 
 4205000   0.57486804   -8.4798469     584.6645  0.011586692 0.0099614295         3112 
 4206000    0.5741393   -8.4952367    585.37242  0.011597964 0.0099574935         3017 
 4207000   0.57283737   -8.4753175    584.96183  0.011587074 0.0099535612         3038 
 4208000   0.58670341   -8.4576135    585.05891  0.011586243 0.0099496287         3073 
 4209000   0.56524032   -8.5021432     584.8611  0.011579573 0.0099456934         3053 
 4210000   0.57212658   -8.4744455    585.36858  0.011586868 0.0099417638         3032 
 4211000   0.56974699   -8.4816961    585.24885  0.011581747 0.0099378347         3064 
 4212000   0.57862578   -8.4759787    584.90726  0.011572239 0.0099339109         3061 
 4213000    0.5824366   -8.4868759    584.65544  0.011564511 0.0099299872         2987 
 4214000   0.57048501   -8.4601418    585.69354  0.011582296 0.0099260709         3014 
 4215000    0.5839791   -8.4786766    585.03804  0.011566588 0.0099221524         3024 
 4216000   0.58107187   -8.4533094    585.71205  0.011577167 0.0099182335         3043 
 4217000    0.5754482   -8.4809833    585.26674  0.011565622 0.0099143191         3019 
 4218000   0.57905454   -8.4767688    584.15806  0.011540976 0.0099104071         3065 
 4219000   0.56373343   -8.4836302     585.2711  0.011560226 0.0099064965         3001 
 4220000   0.58362616   -8.4726018    584.58699  0.011543977 0.0099025853         3043 
 4221000   0.58332888   -8.5030269    585.05619  0.011550505 0.0098986788         3047 
 4222000   0.57987583   -8.4718364     585.7673  0.011561805  0.009894771         3019 
 4223000   0.57801569   -8.4828329    585.67753  0.011557296 0.0098908604         3089 
 4224000   0.57766942   -8.4716846    585.25723  0.011546268 0.0098869566         3004 
 4225000   0.57698958   -8.4981242    584.76164   0.01153376 0.0098830548         3023 
 4226000   0.57238423   -8.4756997    585.75055  0.011550531 0.0098791529         3018 
 4227000   0.57577546   -8.4899173    585.50531  0.011542964 0.0098752607         3092 
 4228000   0.58562525   -8.4793399    584.84984  0.011527315 0.0098713623         3070 
 4229000   0.57915874    -8.501848    585.57962  0.011538969 0.0098674682         3098 
 4230000   0.57795519   -8.4775972    584.05727   0.01150625 0.0098635742         3061 
 4231000   0.58418169   -8.4888116    584.14316  0.011505223   0.00985968         3052 
 4232000   0.56626143   -8.5104343    584.33787  0.011506338 0.0098557883         3044 
 4233000   0.57293194   -8.4734665    583.42873  0.011485722 0.0098519003         3044 
 4234000   0.56713735   -8.4988147    584.20008  0.011498191  0.009848011         3103 
 4235000   0.57315378    -8.495814    585.27895  0.011516705 0.0098441248         3059 
 4236000   0.57783429   -8.4853956    584.52746  0.011499203 0.0098402442         3044 
 4237000   0.57190365   -8.4933234    584.01609  0.011486431 0.0098363632         3067 
 4238000   0.57118291   -8.4877238    585.44171  0.011511753 0.0098324873         3079 
 4239000   0.57435861   -8.4737867    585.44316  0.011509066 0.0098286144         3058 
 4240000   0.57775267   -8.4882848    585.27945  0.011503134 0.0098247433         3060 
 4241000   0.56582983   -8.4951502    584.09264  0.011477101 0.0098208707         3081 
 4242000    0.5690373   -8.4877633    584.34738    0.0114794 0.0098169989         3044 
 4243000   0.57878989   -8.4895835     584.5803  0.011481269 0.0098131301         3100 
 4244000   0.59257385   -8.4919659    583.93178   0.01146583 0.0098092654         3051 
 4245000   0.57134695   -8.4725707     584.5086  0.011474452 0.0098054006         3036 
 4246000   0.58269087   -8.5022346    584.25256  0.011466725 0.0098015377         3061 
 4247000   0.55652555   -8.4984244    584.10277  0.011461086 0.0097976746         3092 
 4248000   0.58220357   -8.4819293    585.88281  0.011493307 0.0097938154         3108 
 4249000   0.58436525   -8.4705795    585.46481  0.011482404 0.0097899581         3082 
 4250000   0.58963937   -8.4812424    585.80788  0.011486429 0.0097861063         3016 
 4251000   0.57565744   -8.4954897    584.58482  0.011459751 0.0097822529         3030 
 4252000    0.5793941   -8.4649464    584.67026   0.01145873 0.0097784033         3086 
 4253000   0.55815631   -8.4943179    584.81272  0.011458828 0.0097745569         3008 
 4254000   0.57297708   -8.5001443    584.50254  0.011450058 0.0097707084         3083 
 4255000   0.57419557   -8.4939685    585.66762  0.011470185 0.0097668605         3099 
 4256000   0.55812903   -8.4829634    583.90355  0.011432949 0.0097630173         3032 
 4257000   0.57332617   -8.5061742    584.94956  0.011450739 0.0097591774         3083 
 4258000   0.57712852   -8.5067918     584.0487  0.011430419 0.0097553333         3184 
 4259000   0.56931214   -8.4860111    584.73496  0.011441163  0.009751495         3084 
 4260000   0.56663676   -8.4731432    584.64365  0.011436691 0.0097476612         3094 
 4261000   0.56734231   -8.4826379    584.37084  0.011428672 0.0097438304         3086 
 4262000   0.56337015   -8.4995236    584.82169  0.011434806 0.0097400002         3073 
 4263000   0.56941249   -8.4994375    584.35629  0.011423025 0.0097361718         3107 
 4264000   0.57366082   -8.4907416    585.33326   0.01143944 0.0097323464         3073 
 4265000   0.56850677   -8.5205429     584.5419  0.011421295 0.0097285203         3063 
 4266000   0.58142549   -8.5072045    583.97937   0.01140763 0.0097246961         3111 
 4267000   0.57126434   -8.5032392    583.62416  0.011398019 0.0097208733         3072 
 4268000    0.5713492    -8.488467     583.8214    0.0113992 0.0097170528         3024 
 4269000   0.58717151   -8.4846246    584.75824  0.011414817  0.009713234         3060 
 4270000   0.57632075   -8.5015624    584.66417  0.011410308 0.0097094172         3100 
 4271000    0.5645798    -8.495455    584.41198  0.011402716 0.0097056029         3054 
 4272000   0.57904458   -8.4834487    583.87915  0.011389653 0.0097017907         3083 
 4273000   0.56233029   -8.4898857    583.85291  0.011386475 0.0096979802         3006 
 4274000   0.55963296   -8.4907521      584.001  0.011386699 0.0096941705         3064 
 4275000   0.56668014    -8.501318     584.1906  0.011387731  0.009690366         3053 
 4276000   0.56228231   -8.4990925    584.51023  0.011391297 0.0096865643         3021 
 4277000   0.57206746   -8.4872939    584.21139  0.011382811  0.009682763         3054 
 4278000   0.56545705   -8.5077018    583.79433  0.011372026 0.0096789593         3113 
 4279000   0.56181097   -8.4929553    583.53693  0.011364356 0.0096751578         3112 
 4280000   0.57012056   -8.5090003    584.27183  0.011376009 0.0096713598         3033 
 4281000   0.57169036   -8.5101675    584.49838  0.011377762 0.0096675629         3062 
 4282000    0.5626059   -8.4937694    584.64095  0.011377879 0.0096637702         3084 
 4283000    0.5748551   -8.4978769    585.03623  0.011382914 0.0096599802         3113 
 4284000    0.5674114   -8.4905962    584.87385  0.011377098 0.0096561923         3129 
 4285000   0.56294629   -8.5024719    582.91147  0.011336279 0.0096524061         3085 
 4286000   0.56634654   -8.5273641    582.65355  0.011328619 0.0096486214         3112 
 4287000   0.56651019   -8.5008669    584.17776  0.011355605  0.009644838         3051 
 4288000   0.56558452   -8.5051956    584.40092  0.011357294 0.0096410548         3067 
 4289000   0.57774085   -8.5145523    584.36503  0.011353949 0.0096372746         3118 
 4290000   0.56273109   -8.5051655    584.33003  0.011350622 0.0096334958         3163 
 4291000   0.57160046   -8.5211535    584.17859  0.011345036 0.0096297198         3088 
 4292000   0.55451028   -8.4950935    584.88274  0.011356064 0.0096259461         3049 
 4293000   0.56625641   -8.5096669    583.41715   0.01132497  0.009622173         3068 
 4294000   0.57184918   -8.5046914    584.68895  0.011347014  0.009618402         3063 
 4295000   0.57494218   -8.5011308     584.6998  0.011344583 0.0096146353         3115 
 4296000   0.55810244   -8.4916789    584.52483  0.011338548 0.0096108696         3131 
 4297000   0.57355651   -8.5060621    583.45383  0.011315139 0.0096071047         3084 
 4298000   0.56609496   -8.5031324    585.77231  0.011357459 0.0096033442         3125 
 4299000   0.56938522   -8.5145136    583.20492   0.01130505 0.0095995846         3128 
 4300000   0.55049841   -8.5262945    584.14785  0.011320695 0.0095958298         3165 
 4301000   0.56406875   -8.5008583    584.34553  0.011321893 0.0095920694         3071 
 4302000   0.55734554   -8.5017141    584.17528  0.011315963 0.0095883155         3131 
 4303000   0.55884191   -8.5134384    584.29118  0.011315578 0.0095845599         3118 
 4304000   0.55861497   -8.4992796    584.26593   0.01131246 0.0095808049         3062 
 4305000   0.56787061   -8.5143299    583.24384  0.011290047 0.0095770531         3124 
 4306000   0.55646282   -8.5201127    584.57728  0.011313231 0.0095733059         3063 
 4307000   0.57307091   -8.5065368    582.88286   0.01127782 0.0095695562         3103 
 4308000   0.56690719   -8.5053623     584.3059  0.011302729 0.0095658115         3053 
 4309000   0.56325295   -8.4947999    585.25606  0.011318482 0.0095620712         3039 
 4310000   0.55448043    -8.518243    583.93933  0.011290397 0.0095583286         3079 
 4311000   0.56493382   -8.4924961     585.0311  0.011308882 0.0095545863         3042 
 4312000   0.57437539   -8.4961382    584.94863  0.011304666 0.0095508524         3055 
 4313000   0.55798196   -8.5033787    584.50186  0.011293413 0.0095471171         3020 
 4314000   0.56837817   -8.5135938    584.38124  0.011288465 0.0095433834         3015 
 4315000   0.55263868   -8.5151725    584.10275   0.01128047 0.0095396491         3071 
 4316000   0.57229753     -8.50632     584.2536  0.011280769 0.0095359212         3047 
 4317000   0.56634542   -8.5120011    583.10131  0.011255913 0.0095321945         3104 
 4318000   0.55697555   -8.5096291    583.88424  0.011268416 0.0095284676         3023 
 4319000   0.55655191   -8.5002946    583.69593  0.011262174 0.0095247426         3013 
 4320000    0.5649592   -8.5139284     583.2071  0.011250137 0.0095210169         3039 
 4321000   0.55834263   -8.5017459    584.10957  0.011264938 0.0095172944         3000 
 4322000   0.56572447   -8.5131168    584.32283  0.011266444 0.0095135759         3114 
 4323000   0.57045432   -8.5088948    584.11385  0.011259809  0.009509861         3080 
 4324000   0.55504215   -8.5246884    582.79093  0.011231709 0.0095061443         3107 
 4325000   0.55171055   -8.5166706    584.33302  0.011258825 0.0095024312         3101 
 4326000   0.54532117   -8.5059121    584.95806  0.011268263 0.0094987191         3096 
 4327000   0.55251806    -8.511546    583.69041  0.011241245 0.0094950139         3098 
 4328000   0.56439604   -8.5133491    584.41308  0.011252562 0.0094913065         3045 
 4329000   0.56395536   -8.5097902     584.2245  0.011246333 0.0094876022         3038 
 4330000   0.56218296   -8.4961476    584.07111  0.011240784 0.0094839042         3097 
 4331000   0.55560587   -8.5119898    583.59182  0.011228966 0.0094802026         3066 
 4332000   0.55856784   -8.5262019    584.28291  0.011239668 0.0094765068         3096 
 4333000   0.55662844   -8.5175371    583.66379  0.011225167 0.0094728096         2989 
 4334000   0.55039663   -8.5066536      585.072  0.011249654  0.009469114         3084 
 4335000   0.55570209   -8.5250414    583.51007  0.011217033 0.0094654221         3079 
 4336000   0.56723078   -8.5200108    584.28306  0.011229302 0.0094617335         3063 
 4337000     0.564913   -8.5065996    584.91699  0.011238894  0.009458044         3126 
 4338000   0.56684376   -8.5144322    584.27978  0.011224062 0.0094543561         3055 
 4339000   0.54627644   -8.5270313    584.65167  0.011228618 0.0094506701         3091 
 4340000   0.54756943   -8.5153642    584.08252  0.011215102  0.009446979         3057 
 4341000   0.55280716   -8.5045121     584.4752  0.011220057  0.009443297         3005 
 4342000   0.55539534   -8.5178221    583.30981  0.011195106 0.0094396161         3086 
 4343000    0.5588182   -8.4977991    584.46196  0.011214636 0.0094359396         3038 
 4344000   0.56263908    -8.522019    583.85015  0.011200317  0.009432262         3090 
 4345000   0.56726244   -8.5244476    583.57465  0.011192456 0.0094285874         3090 
 4346000   0.55821978   -8.5086867    583.79778  0.011194159 0.0094249138         3096 
 4347000   0.56316403   -8.5441813    584.24601  0.011200177 0.0094212444         3099 
 4348000   0.55668412   -8.5159896    583.40342  0.011181452 0.0094175739         3051 
 4349000    0.5583014   -8.5110183    584.43574  0.011198661  0.009413907         3035 
 4350000   0.56198141   -8.5239523    583.20089  0.011172431 0.0094102443         3125 
 4351000   0.54659818   -8.5194323     583.0137  0.011166278 0.0094065825         3080 
 4352000    0.5601422    -8.537622    583.32336  0.011169642 0.0094029188         3157 
 4353000   0.56777795   -8.5133416     585.1306  0.011201673 0.0093992592         3047 
 4354000   0.55017164   -8.5240469     582.9259  0.011156904 0.0093956022         3111 
 4355000   0.55256874   -8.5314698     583.8502  0.011172028 0.0093919456         3161 
 4356000   0.54957617    -8.527401    583.15366  0.011156138   0.00938829         3121 
 4357000   0.54723141   -8.5192594    583.51573  0.011160503 0.0093846379         3047 
 4358000   0.54332755   -8.5235042    584.00388  0.011167276 0.0093809896         3068 
 4359000   0.55099266   -8.5136723    583.26884  0.011150662   0.00937734         3143 
 4360000   0.54686434   -8.5129542    584.13158  0.011164594 0.0093736932         3054 
 4361000   0.56051072   -8.5229855    584.31292    0.0111655  0.009370048         3082 
 4362000   0.54884022   -8.5236488    582.56516   0.01112955 0.0093664022         3075 
 4363000     0.545787   -8.5258947    584.49311  0.011163823 0.0093627605         3104 
 4364000   0.56487035   -8.5096325    584.50426  0.011161478 0.0093591218         3085 
 4365000   0.55799615   -8.5440296    582.64919  0.011123505 0.0093554852         3089 
 4366000   0.55090111   -8.5264621    583.40245  0.011135335 0.0093518486         3103 
 4367000    0.5592575   -8.5236832     583.9332  0.011142913 0.0093482171         3074 
 4368000   0.55270191   -8.5164269    582.74046  0.011117606 0.0093445886         3167 
 4369000   0.55211016   -8.5110751    584.26706   0.01114418 0.0093409601         3086 
 4370000   0.53690279   -8.5097244    583.88719  0.011134386 0.0093373352         3084 
 4371000   0.54997868   -8.5256778    583.63204  0.011126974 0.0093337076         3119 
 4372000   0.54901543   -8.5425295    584.04212  0.011132245 0.0093300829         3090 
 4373000   0.56308993   -8.5284606    583.71442  0.011123455 0.0093264587         3085 
 4374000   0.55663635     -8.51777    583.63589  0.011119416  0.009322836         3022 
 4375000    0.5462359   -8.5255981    583.41957  0.011112754 0.0093192165         3093 
 4376000   0.54897702   -8.5469254    583.48414  0.011111444 0.0093156007         3093 
 4377000   0.55386705   -8.5191372     584.1078  0.011120779 0.0093119842         3102 
 4378000    0.5495004   -8.5073496    583.25597  0.011102025 0.0093083718         3107 
 4379000   0.55157839   -8.5359148    583.08467   0.01109623 0.0093047635         3100 
 4380000   0.54351808   -8.5215672    584.72043  0.011124818 0.0093011537         3141 
 4381000   0.56172592   -8.5242414    584.02034  0.011108962 0.0092975507         3124 
 4382000   0.55010719   -8.5249814    583.31733  0.011093057 0.0092939467         3115 
 4383000   0.55533851   -8.5266936    583.15912  0.011087518 0.0092903413         3056 
 4384000   0.56939855   -8.5407961    583.39839  0.011089538 0.0092867389         3119 
 4385000   0.54271296   -8.5244302    583.76684  0.011094011 0.0092831364         3063 
 4386000    0.5496686   -8.5224162    584.01483  0.011096193 0.0092795364         3026 
 4387000   0.55105004   -8.5351468     584.2481  0.011098095 0.0092759372         3106 
 4388000    0.5415262   -8.5351884    582.95687  0.011071044 0.0092723402         3087 
 4389000    0.5472005    -8.536873    582.93237  0.011068056 0.0092687428         3061 
 4390000   0.54983239   -8.5312993    582.95429  0.011065951 0.0092651517         3025 
 4391000    0.5396887    -8.528747     583.3868  0.011071639 0.0092615608         3117 
 4392000    0.5498535   -8.5437593    583.22394  0.011066028  0.009257975         3166 
 4393000   0.54805153   -8.5053823    582.89353  0.011057241  0.009254391         3072 
 4394000   0.55661833   -8.5365376    583.50204  0.011066265 0.0092508084         3113 
 4395000   0.56108123   -8.5353967    582.58701  0.011046398 0.0092472259         3092 
 4396000   0.55178341   -8.5431599    583.21426  0.011055775 0.0092436447         3179 
 4397000   0.55122635   -8.5317341    584.46594  0.011076983 0.0092400663         3109 
 4398000   0.55893824   -8.5398176    583.52571  0.011056649 0.0092364869         3135 
 4399000   0.54827897   -8.5296421     583.5756  0.011055081  0.009232909         3137 
 4400000   0.56393939   -8.5359894    583.58439  0.011052735 0.0092293354         3129 
 4401000   0.54242519   -8.5363094    583.32824  0.011045373 0.0092257644         3067 
 4402000   0.55790057   -8.5266318    583.57047  0.011047449 0.0092221914         3119 
 4403000   0.54587478   -8.5255497    582.90653  0.011032374 0.0092186256         3175 
 4404000   0.56517633   -8.5290316    583.64454  0.011043834 0.0092150607         3151 
 4405000   0.54346584   -8.5228757    583.16205  0.011032199 0.0092114981         3141 
 4406000   0.55861515   -8.5192604    584.34017  0.011051978 0.0092079398         3084 
 4407000   0.55102429   -8.5344989    584.10481  0.011045019 0.0092043818         3106 
 4408000   0.55015915    -8.548351    582.95631  0.011020801  0.009200828         3061 
 4409000   0.54933744   -8.5200553    581.98431   0.01099993 0.0091972755         3061 
 4410000   0.55429567   -8.5341156    582.94135  0.011015521 0.0091937235         3054 
 4411000   0.54208198   -8.5328058    582.96206  0.011013415 0.0091901711         3128 
 4412000   0.53841553   -8.5243226     582.4253   0.01100078 0.0091866242         3147 
 4413000   0.53643796   -8.5382179    583.22963  0.011013476 0.0091830762         3124 
 4414000    0.5441974   -8.5494066    582.93752  0.011005466 0.0091795314         3159 
 4415000    0.5457862   -8.5470034    582.64317  0.010997417  0.009175987         3164 
 4416000   0.54501454   -8.5384582    582.67325  0.010995495  0.009172444         3156 
 4417000   0.55227908   -8.5335389    584.48847  0.011027252 0.0091689058         3152 
 4418000   0.54773331   -8.5184384    583.16032  0.010999704 0.0091653652         3063 
 4419000    0.5349158   -8.5326138    582.81537   0.01099071 0.0091618253         3141 
 4420000   0.52544109    -8.530323    584.11404  0.011012708 0.0091582901         3118 
 4421000   0.54464556   -8.5553289    582.16958  0.010973565 0.0091547561         3143 
 4422000   0.53607516   -8.5481901    583.07808  0.010988204 0.0091512229         3159 
 4423000   0.53301711    -8.536071    583.01432  0.010984519  0.009147691         3159 
 4424000   0.54599169    -8.524276    583.80802  0.010996986 0.0091441629         3123 
 4425000   0.56039082   -8.5332282    584.20404  0.011001959 0.0091406405         3123 
 4426000   0.53536974   -8.5466128    583.27555  0.010981992 0.0091371165         3102 
 4427000   0.54619293    -8.537803    583.65342  0.010986624 0.0091335954         3196 
 4428000   0.53999048   -8.5338489    584.51535  0.011000364 0.0091300752         3112 
 4429000   0.54151302   -8.5300505    582.97492  0.010968897 0.0091265553         3119 
 4430000   0.54582341   -8.5234907    583.53198    0.0109769 0.0091230398         3106 
 4431000   0.54349872   -8.5357812    582.51192  0.010955238 0.0091195296         3128 
 4432000   0.54024039   -8.5125962    583.34079  0.010968351 0.0091160171         3094 
 4433000   0.53846394   -8.5395974    583.62136  0.010971151 0.0091125054         3139 
 4434000   0.53545122   -8.5452068    582.42271  0.010946149  0.009108996         3130 
 4435000   0.53040928   -8.5237521    583.11824   0.01095675 0.0091054905         3140 
 4436000   0.54555057   -8.5223238    584.37633  0.010977914 0.0091019838         3078 
 4437000   0.54374456   -8.5360701    583.80903  0.010964785 0.0090984816         3095 
 4438000   0.54173655    -8.540897    582.60129  0.010939637 0.0090949791         3169 
 4439000     0.534552   -8.5358255    583.94313  0.010962362 0.0090914793         3088 
 4440000   0.54643121     -8.52129    583.11522  0.010944355 0.0090879795         3082 
 4441000   0.53741364   -8.5312062     583.9406  0.010957378 0.0090844812         3094 
 4442000   0.53411968   -8.5419401    583.24154  0.010941797 0.0090809881         3148 
 4443000   0.54079802   -8.5280466    584.03557  0.010954227 0.0090774922         3088 
 4444000   0.54632282   -8.5306838    583.08313  0.010933902 0.0090740033         3105 
 4445000   0.54184637   -8.5410824    583.51854  0.010939605 0.0090705129         3104 
 4446000    0.5372697   -8.5362424    582.94179  0.010926334 0.0090670223         3132 
 4447000   0.54083298   -8.5430848    581.98713  0.010905988 0.0090635351         3166 
 4448000   0.53347699   -8.5375733    584.40354  0.010948807 0.0090600495         3109 
 4449000   0.54057404   -8.5421826    582.48784  0.010910464 0.0090565643         3083 
 4450000   0.53068768   -8.5628198    583.08036  0.010919108 0.0090530769         3102 
 4451000   0.54876437   -8.5520757    582.72791  0.010910056 0.0090495975         3094 
 4452000   0.53842412   -8.5440585    583.49372   0.01092194 0.0090461181         3101 
 4453000    0.5450671   -8.5380039    582.65439   0.01090378 0.0090426414         3136 
 4454000   0.54283166   -8.5450693    582.97604   0.01090735 0.0090391665         3124 
 4455000   0.53377687   -8.5410483      583.875  0.010921717 0.0090356893         3088 
 4456000   0.53804201   -8.5394635    583.65301  0.010915115 0.0090322168         3108 
 4457000   0.55033179   -8.5305153     583.1223  0.010902743 0.0090287483         3177 
 4458000   0.53740561   -8.5322338     583.1932  0.010901622 0.0090252842         3131 
 4459000   0.54576261   -8.5346246    583.29535  0.010901087 0.0090218212         3139 
 4460000   0.53770601   -8.5409409     583.2447  0.010897696 0.0090183573         3162 
 4461000   0.53316491   -8.5478655    582.41307  0.010879718  0.009014898         3143 
 4462000   0.53930126   -8.5306093    583.99172  0.010906763 0.0090114382         3105 
 4463000   0.53066456   -8.5513866    583.50825  0.010895292 0.0090079813         3106 
 4464000   0.53455741   -8.5479683    582.67412   0.01087728 0.0090045267         3195 
 4465000   0.53226835    -8.552274    582.99716  0.010880873 0.0090010708         3107 
 4466000   0.53604261   -8.5397957    582.35991  0.010866546 0.0089976171         3124 
 4467000   0.53502801   -8.5423537     582.9497  0.010875116 0.0089941634         3169 
 4468000   0.52570643   -8.5453218     583.4347  0.010881727 0.0089907151         3195 
 4469000    0.5399723   -8.5418226    583.11409  0.010873314 0.0089872688         3176 
 4470000    0.5384488   -8.5248421    582.78835  0.010864809 0.0089838252         3141 
 4471000   0.53864553   -8.5605051    582.05404  0.010848692 0.0089803798         3189 
 4472000   0.54328733   -8.5254996    583.42599  0.010871832  0.008976938         3123 
 4473000   0.53134432    -8.561909    582.62099  0.010854404 0.0089734967         3170 
 4474000   0.54434241   -8.5480971    583.00031  0.010859043 0.0089700568         3141 
 4475000    0.5193966   -8.5440666    583.36523  0.010863412  0.008966621         3178 
 4476000   0.54283383    -8.533139    582.92221  0.010852737 0.0089631851         3106 
 4477000   0.54381914   -8.5455144    583.36782  0.010858607  0.008959753         3152 
 4478000   0.53828941    -8.543795    583.54865  0.010859548  0.008956324         3151 
 4479000   0.52867353   -8.5490785     582.6579   0.01084055 0.0089528927         3136 
 4480000   0.53087934    -8.558524    582.65278  0.010838035 0.0089494643         3158 
 4481000   0.54020042   -8.5411601    582.35789  0.010830133 0.0089460352         3224 
 4482000    0.5279086   -8.5443468    582.46105  0.010829634 0.0089426098         3120 
 4483000   0.54192487   -8.5480911    583.30037   0.01084282 0.0089391875         3185 
 4484000   0.52691187   -8.5435093     583.2565  0.010839587 0.0089357647         3167 
 4485000    0.5280198   -8.5454514    582.68541  0.010826559 0.0089323457         3151 
 4486000   0.52858026     -8.57054    583.80741  0.010844988 0.0089289277         3148 
 4487000   0.52846575   -8.5465628     584.2596  0.010850969 0.0089255093         3129 
 4488000   0.53400466   -8.5640322    581.75476  0.010802042 0.0089220955         3152 
 4489000   0.53532229   -8.5257621    582.94157  0.010821667 0.0089186803         3161 
 4490000   0.52755426   -8.5469578    582.91352  0.010818737 0.0089152662         3170 
 4491000   0.53456674   -8.5396008     582.6607  0.010811636 0.0089118559         3176 
 4492000   0.52906129   -8.5630898    582.93466  0.010814312 0.0089084501         3173 
 4493000   0.52571787   -8.5398051    581.20003  0.010779732 0.0089050413         3146 
 4494000   0.51961946   -8.5351884    582.92169  0.010809258 0.0089016397         3110 
 4495000   0.53552027   -8.5542931    583.47623  0.010817134   0.00889824         3124 
 4496000   0.52140356   -8.5610512    582.45467  0.010795794  0.008894837         3204 
 4497000     0.531227   -8.5592212    582.60841  0.010796242 0.0088914357         3162 
 4498000   0.53922148   -8.5653928    582.01563   0.01078286 0.0088880395         3154 
 4499000     0.536538   -8.5437719    582.53962  0.010790169 0.0088846438         3167 
 4500000   0.53009178   -8.5563364    582.42633  0.010785673 0.0088812522         3117 
 4501000   0.52424555   -8.5542046    583.08092  0.010795396 0.0088778607         3110 
 4502000   0.54438809   -8.5482189      582.966  0.010790871 0.0088744708         3133 
 4503000   0.52679018   -8.5555088    582.17684   0.01077387 0.0088710816         3166 
 4504000   0.52159408   -8.5708653     582.6282  0.010779829 0.0088676936         3161 
 4505000   0.51941663   -8.5617636    582.72638  0.010779252 0.0088643083         3173 
 4506000   0.53082531   -8.5432075    583.74029  0.010795611 0.0088609235         3188 
 4507000   0.53140334   -8.5649673    582.24425  0.010765554 0.0088575438         3134 
 4508000   0.52657654   -8.5677256    582.52935  0.010768437 0.0088541648         3225 
 4509000   0.53627236   -8.5445016    583.05171  0.010775702 0.0088507852         3193 
 4510000   0.53203236   -8.5396163    582.41353  0.010761521 0.0088474061         3168 
 4511000   0.54474538   -8.5439844     582.2141  0.010755451 0.0088440302         3238 
 4512000   0.53346211   -8.5453958    582.51223  0.010758574 0.0088406604         3187 
 4513000   0.53564035   -8.5423769    582.52585  0.010756442 0.0088372906         3225 
 4514000   0.53211025   -8.5504483    582.76204  0.010758419 0.0088339209         3160 
 4515000   0.51550934   -8.5649125    582.37102  0.010748819 0.0088305533         3146 
 4516000   0.52975496   -8.5713962    582.71933  0.010752866 0.0088271844         3168 
 4517000   0.53284617   -8.5569434    582.63124  0.010748861 0.0088238187         3193 
 4518000   0.52955241   -8.5478568     582.8802  0.010751074 0.0088204558         3203 
 4519000   0.53798832   -8.5621042     582.6087  0.010743688  0.008817092         3161 
 4520000   0.53599834   -8.5649415    582.29046  0.010735444 0.0088137291         3192 
 4521000   0.52490638    -8.564307     582.9264  0.010744791 0.0088103714         3181 
 4522000    0.5266074   -8.5641687    582.99162  0.010743617  0.008807011         3190 
 4523000    0.5210677   -8.5530379    582.29558  0.010728417 0.0088036503         3261 
 4524000   0.53176022   -8.5703656    582.04359  0.010721404 0.0088002938         3241 
 4525000   0.52651686   -8.5558248    581.81646  0.010714852 0.0087969391         3201 
 4526000   0.51756833   -8.5845258     582.8685  0.010731855 0.0087935852         3174 
 4527000   0.52806407   -8.5614345    582.83597  0.010728885 0.0087902344         3228 
 4528000   0.53185966   -8.5668418     582.4417   0.01071926  0.008786885         3219 
 4529000    0.5224359   -8.5535104    582.03166  0.010709348 0.0087835342         3160 
 4530000   0.52073878   -8.5574625    582.60694  0.010717567 0.0087801896         3218 
 4531000   0.53767446   -8.5546397    582.85065  0.010719684 0.0087768481         3187 
 4532000   0.53778416   -8.5677611     582.8752   0.01071777  0.008773507         3152 
 4533000   0.51626167   -8.5662764    582.82326  0.010714451 0.0087701641         3188 
 4534000   0.51681901   -8.5686578    581.83036  0.010693838 0.0087668249         3225 
 4535000   0.52383549    -8.550931    582.64704  0.010706487 0.0087634851         3208 
 4536000   0.54108957   -8.5717202     582.4003  0.010699594 0.0087601493         3213 
 4537000     0.513681    -8.580183    581.63612    0.0106832 0.0087568155         3191 
 4538000   0.51963824   -8.5730923    582.68771  0.010700156  0.008753484         3200 
 4539000   0.51505244   -8.5626921    583.11179  0.010705585 0.0087501519         3191 
 4540000   0.52956651   -8.5675411    581.89465  0.010680886 0.0087468221         3250 
 4541000   0.52144981   -8.5677889     582.4121  0.010688029 0.0087434951         3227 
 4542000   0.51192961   -8.5622667    582.40576   0.01068556 0.0087401718         3174 
 4543000   0.50821916   -8.5649003    582.25249  0.010680396 0.0087368494         3163 
 4544000   0.54050416   -8.5654508    581.58319  0.010665772 0.0087335272         3230 
 4545000   0.52598333   -8.5488025    581.60111  0.010663753 0.0087302054         3184 
 4546000   0.51468553   -8.5665174     581.7783  0.010664656 0.0087268876         3177 
 4547000   0.53229196   -8.5671105     581.7159  0.010661167 0.0087235701         3205 
 4548000   0.51909544   -8.5563913    582.33197  0.010670111 0.0087202539         3197 
 4549000   0.52289702   -8.5732625    581.91703  0.010660164 0.0087169402         3201 
 4550000   0.53286946   -8.5846159    581.62033  0.010652387  0.008713629         3226 
 4551000   0.50984111    -8.557919    581.86351  0.010654499 0.0087103173         3239 
 4552000   0.52362596   -8.5647383    581.48105  0.010645157 0.0087070071         3202 
 4553000   0.51871602   -8.5690183    583.35424  0.010677104    0.0087037         3250 
 4554000   0.52013248   -8.5480693    582.16227  0.010652947 0.0087003891         3148 
 4555000   0.52223637   -8.5705595    581.08489  0.010630898 0.0086970851         3221 
 4556000   0.52233541   -8.5576293    582.54448  0.010655262 0.0086937789         3198 
 4557000   0.53432261   -8.5726519    581.79361  0.010639193 0.0086904755         3169 
 4558000   0.51966451   -8.5920944    581.79263  0.010636841 0.0086871734         3239 
 4559000   0.52595602   -8.5695969    582.48427   0.01064715 0.0086838691         3221 
 4560000   0.51755312   -8.5794522    582.24641  0.010640468 0.0086805686         3237 
 4561000   0.52261575   -8.5763031    581.70589  0.010628259   0.00867727         3212 
 4562000   0.53443875   -8.5806318    582.94617  0.010648586 0.0086739742         3214 
 4563000   0.52754463   -8.5754773    582.01532  0.010629252 0.0086706808         3239 
 4564000   0.52992166   -8.5921642    581.78816  0.010622775  0.008667388         3232 
 4565000   0.51966011   -8.5805015    581.87874  0.010622102 0.0086640978         3221 
 4566000   0.51571712   -8.5931478    582.50292  0.010631167 0.0086608088         3212 
 4567000   0.51560773   -8.5573192    582.36145  0.010626258 0.0086575198         3183 
 4568000   0.50843212   -8.5899133    582.13971  0.010619887 0.0086542323         3234 
 4569000   0.52174699   -8.5674652    582.53376  0.010624749 0.0086509483         3232 
 4570000   0.51007135   -8.5766946    581.47877  0.010603187 0.0086476666         3242 
 4571000   0.52206692   -8.5740192    581.34089  0.010598353 0.0086443865         3201 
 4572000   0.52216546   -8.5764893    581.26932  0.010594731 0.0086411069         3186 
 4573000    0.5198615   -8.5688995    581.84247  0.010602859 0.0086378319         3186 
 4574000   0.51096282   -8.5844125    581.44767  0.010593348 0.0086345539         3178 
 4575000   0.52588129   -8.5913498    581.32372  0.010588775 0.0086312784         3179 
 4576000   0.52343632   -8.5723272    581.78381  0.010594839 0.0086280018         3263 
 4577000   0.51347685   -8.5737041    582.77972  0.010610657 0.0086247305         3216 
 4578000   0.51428263   -8.5723612    582.82067  0.010609085 0.0086214615         3227 
 4579000    0.5209335   -8.5766682    581.96212  0.010591143 0.0086181954         3139 
 4580000    0.5129884   -8.5693728    581.63785   0.01058293 0.0086149289         3219 
 4581000   0.51462625   -8.5798611     582.0185  0.010587545 0.0086116676         3199 
 4582000   0.52169469   -8.5796721     581.9841  0.010584608 0.0086084058         3239 
 4583000   0.51858177   -8.5948684    581.41725  0.010571992 0.0086051433         3249 
 4584000   0.52227157   -8.5842713    581.94721   0.01057932 0.0086018848         3241 
 4585000   0.51711984   -8.5740827    581.46524  0.010568252 0.0085986233         3239 
 4586000   0.51485907   -8.5682198    582.08352  0.010577183 0.0085953682         3195 
 4587000     0.513429   -8.5765673    582.22273  0.010577406 0.0085921123         3277 
 4588000    0.5225095   -8.5750213    581.95469  0.010570232 0.0085888581         3234 
 4589000   0.51219574   -8.6084692    581.49413  0.010559565 0.0085856068         3181 
 4590000   0.50907336   -8.5762026    581.88719  0.010564401 0.0085823539         3256 
 4591000   0.51068781   -8.5924851    581.16897  0.010549063 0.0085791032         3211 
 4592000   0.51157645   -8.5730574    581.92017  0.010560398 0.0085758572         3291 
 4593000   0.50605455   -8.5842026    581.40848  0.010548815 0.0085726107         3234 
 4594000   0.51403703   -8.5780264    582.28435  0.010562407 0.0085693691         3265 
 4595000   0.51429512   -8.5713099    581.82399  0.010551759 0.0085661262         3240 
 4596000   0.52319739   -8.5897902    581.42819  0.010542287 0.0085628843         3242 
 4597000   0.51216445   -8.5807155    581.59351   0.01054299 0.0085596472         3190 
 4598000   0.51903481   -8.5980425    580.88898  0.010527928  0.008556409         3213 
 4599000   0.50819679   -8.5703753    581.13095  0.010530024 0.0085531742         3186 
 4600000    0.5195784   -8.5651033    580.98047  0.010525009 0.0085499371         3210 
 4601000   0.51106348   -8.5852198    581.42249  0.010530727 0.0085467024         3237 
 4602000   0.51302812   -8.5894877      582.639  0.010550467   0.00854347         3240 
 4603000   0.51952435   -8.5944631    581.91564  0.010535079 0.0085402435         3221 
 4604000   0.51694471   -8.5828315    582.00833  0.010534469 0.0085370156         3213 
 4605000   0.53526317   -8.5717442    580.98292  0.010513625 0.0085337888         3274 
 4606000   0.50827975   -8.6035655    580.70693  0.010506349 0.0085305653         3266 
 4607000   0.51547701   -8.5801052    581.95879  0.010526713 0.0085273402         3210 
 4608000   0.52895303   -8.5789541    581.28988  0.010512331 0.0085241165         3264 
 4609000   0.50917148   -8.6061834    581.40299  0.010512096 0.0085208996         3239 
 4610000   0.50601696   -8.5747087     580.8631  0.010500056 0.0085176809         3211 
 4611000   0.51419012   -8.6007457    581.23831   0.01050456 0.0085144649         3222 
 4612000   0.50822362    -8.584344    581.62728  0.010509311 0.0085112505         3221 
 4613000   0.51292038   -8.5828518    582.19218  0.010517237  0.008508037         3224 
 4614000   0.51251677   -8.5841157    581.51321  0.010502695 0.0085048247         3212 
 4615000   0.51401923   -8.5903955    581.71734  0.010504105 0.0085016169         3308 
 4616000   0.51073165   -8.5953177    581.29727  0.010494246 0.0084984066         3256 
 4617000   0.50724298   -8.5738695     582.1796  0.010507898 0.0084951998         3235 
 4618000   0.51163021   -8.5850071    581.90277  0.010500627 0.0084919962         3255 
 4619000   0.52464884   -8.5873377    581.55252  0.010492035 0.0084887923         3262 
 4620000   0.52495131   -8.5855176    581.65401  0.010491595 0.0084855933         3271 
 4621000   0.50081017   -8.5806335     580.9693  0.010476977 0.0084823949         3227 
 4622000   0.51296376   -8.5899684    581.40689  0.010482599 0.0084791981         3253 
 4623000   0.51466266   -8.5720385    582.06779  0.010492245  0.008476004         3244 
 4624000    0.5222627   -8.5778265    581.79442  0.010485049 0.0084728109         3249 
 4625000   0.51335299   -8.5775892     581.7203  0.010481447  0.008469618         3209 
 4626000   0.51676555   -8.5840473    581.14785  0.010468869 0.0084664291         3233 
 4627000   0.51599265   -8.6088793    581.22745   0.01046804 0.0084632366         3233 
 4628000   0.50549702   -8.5889035    581.76026  0.010475372   0.00846005         3240 
 4629000   0.52041272   -8.6103937    581.13729  0.010461894 0.0084568642         3239 
 4630000   0.51111248   -8.5792862    581.79066  0.010471394 0.0084536783         3235 
 4631000   0.50227176   -8.5913056    581.25073  0.010459417 0.0084504945         3219 
 4632000   0.51511431   -8.5840921    581.58437  0.010463162 0.0084473129         3205 
 4633000   0.51665874   -8.5964117    580.15478  0.010435189 0.0084441326         3235 
 4634000   0.51896125   -8.5905709     581.4485  0.010456202 0.0084409538         3256 
 4635000   0.50555878   -8.6033491    581.89881  0.010462043 0.0084377746         3269 
 4636000   0.50443236   -8.5901825    580.95382    0.0104428 0.0084345984         3222 
 4637000   0.49761971   -8.6000922    581.03277  0.010441966 0.0084314274         3224 
 4638000   0.51534925   -8.6075932     580.9553  0.010438323 0.0084282566         3276 
 4639000   0.50355758   -8.6003058    581.12107  0.010439051 0.0084250874         3262 
 4640000   0.50824383   -8.5897435    582.24637  0.010457011 0.0084219168         3246 
 4641000   0.50720553   -8.5944041    582.18483  0.010453653 0.0084187506         3185 
 4642000   0.49850278   -8.5944813    581.32613  0.010435985 0.0084155843         3265 
 4643000   0.51813871   -8.6040027    581.98228  0.010445514 0.0084124205         3207 
 4644000   0.51370731   -8.5914199    581.04138  0.010426381  0.008409256         3199 
 4645000   0.50874204   -8.5992685    582.18562  0.010444665 0.0084060929         3221 
 4646000    0.5124623   -8.5987658    581.47681  0.010429703 0.0084029305         3224 
 4647000   0.50622257   -8.5799129    582.46064  0.010445102  0.008399773         3231 
 4648000   0.51219451   -8.5852136    582.34094  0.010440708 0.0083966147         3171 
 4649000   0.49645695   -8.5956612    581.94005  0.010431276 0.0083934576         3203 
 4650000   0.50687389   -8.6094941    581.27589  0.010417131  0.008390304         3231 
 4651000   0.51332895   -8.5732781    581.37415  0.010416651  0.008387152         3169 
 4652000   0.49390282   -8.5831042    580.83504  0.010404755 0.0083840003         3220 
 4653000   0.50226654   -8.6061419    581.24955  0.010409943  0.008380851         3196 
 4654000   0.50054344   -8.5833886    582.03643  0.010421795  0.008377701         3225 
 4655000   0.50322397   -8.5882319    582.74061  0.010432163 0.0083745554         3180 
 4656000   0.50954089   -8.5843658     581.2758  0.010403705 0.0083714122         3199 
 4657000    0.5125604   -8.6069512    582.17684  0.010417594 0.0083682705         3159 
 4658000   0.50722195   -8.5840893    581.31592  0.010399956 0.0083651304         3207 
 4659000   0.49876716   -8.5983984    580.85063  0.010389401 0.0083619925         3212 
 4660000   0.49712184   -8.6168108    581.13539  0.010392264 0.0083588554         3225 
 4661000   0.50535352   -8.6057242    582.17447  0.010408612 0.0083557182         3192 
 4662000   0.51269362   -8.5990243    581.08626  0.010386927 0.0083525816         3182 
 4663000   0.51502456   -8.6027571     580.8518   0.01038051 0.0083494454         3185 
 4664000    0.5065608   -8.6031562    581.90103  0.010397031 0.0083463105         3231 
 4665000   0.50071918    -8.607465    581.05662  0.010379718 0.0083431768         3219 
 4666000   0.50865927   -8.6092064    581.13871   0.01037896 0.0083400462         3202 
 4667000   0.50668177   -8.5936867    581.64662  0.010385805 0.0083369188         3213 
 4668000   0.51601564   -8.5869642    580.71459  0.010366941  0.008333792         3239 
 4669000   0.50461881   -8.5952812    581.10576  0.010371703 0.0083306659         3227 
 4670000   0.50689029   -8.5834417    580.32765  0.010355597 0.0083275446         3160 
 4671000   0.50986183   -8.5942113    581.48399   0.01037401 0.0083244232         3235 
 4672000   0.50913996   -8.5963154    581.56232  0.010373186 0.0083213034         3236 
 4673000   0.50904565    -8.602149    581.53079  0.010370404 0.0083181836         3186 
 4674000   0.49629027    -8.595576    581.40892  0.010366013 0.0083150665         3197 
 4675000   0.50810494   -8.6150349    582.04796  0.010375186 0.0083119548         3211 
 4676000   0.50067562   -8.5966812    581.98055  0.010371766 0.0083088429         3157 
 4677000   0.49729082   -8.5970719    582.17076  0.010372938  0.008305731         3211 
 4678000    0.5190675   -8.6071537    580.59859  0.010342714 0.0083026194         3187 
 4679000   0.50330655    -8.601502    580.99688  0.010347597 0.0082995118         3168 
 4680000   0.50460808   -8.6082334    582.24573  0.010367623 0.0082964053         3214 
 4681000   0.50026555   -8.6088341     580.7353  0.010338519 0.0082932968         3264 
 4682000   0.50144533   -8.6022395    581.61936  0.010352046 0.0082901926         3244 
 4683000   0.50179022   -8.5914277    580.77235  0.010334763 0.0082870879         3222 
 4684000   0.50329598   -8.5887678    581.19084  0.010340002 0.0082839875         3181 
 4685000   0.50705069   -8.6064589    581.11777  0.010336495  0.008280888         3228 
 4686000   0.49736945   -8.5919313    582.21084  0.010353728 0.0082777885         3228 
 4687000    0.4975082   -8.6075427     581.5269  0.010339359 0.0082746946         3184 
 4688000   0.50076416   -8.6096373    580.76968  0.010323693  0.008271599         3245 
 4689000   0.49775882   -8.6136626    580.86904  0.010323257 0.0082685072         3226 
 4690000   0.50584889   -8.5992754    580.00137  0.010305639 0.0082654158         3206 
 4691000   0.49920226   -8.6082646    581.53396  0.010330668 0.0082623245         3225 
 4692000   0.50210746   -8.5931987    580.85621  0.010316429 0.0082592359         3258 
 4693000   0.49535326   -8.6141452    581.28055  0.010321766 0.0082561485         3283 
 4694000   0.49832198   -8.6114972    581.54012  0.010324175  0.008253066         3252 
 4695000   0.49439155   -8.5958062    581.22821   0.01031644 0.0082499814         3186 
 4696000   0.49206142    -8.611619    580.88515  0.010308155 0.0082468978         3243 
 4697000   0.49346498   -8.6071261    581.72069  0.010320784 0.0082438154         3248 
 4698000   0.50581041   -8.5935598    581.88231  0.010321454 0.0082407345         3236 
 4699000   0.50740581   -8.5971274    580.44865  0.010293833 0.0082376532         3228 
 4700000   0.50422969    -8.605021    580.57422  0.010293869 0.0082345743         3263 
 4701000   0.49192531   -8.6080688    580.50702  0.010290488 0.0082314979         3251 
 4702000   0.49996004   -8.6101034    580.91453  0.010295522 0.0082284218         3180 
 4703000   0.50449735   -8.6146772    580.23342  0.010281264 0.0082253471         3223 
 4704000   0.50632572   -8.6003758    580.15231  0.010277641 0.0082222758         3238 
 4705000   0.50268648    -8.604495    580.76628  0.010286332 0.0082192042         3219 
 4706000   0.49698883   -8.6066065    581.20484  0.010291912  0.008216136         3227 
 4707000   0.49469931   -8.5956711    581.51107  0.010295147 0.0082130682         3230 
 4708000   0.48909501   -8.6080998    582.63351  0.010312828  0.008210003         3246 
 4709000   0.48846111   -8.6230558    580.87452  0.010279509  0.008206938         3254 
 4710000   0.49350849   -8.6090072     580.6055  0.010272567 0.0082038788         3210 
 4711000   0.50334062   -8.6094348    579.79194  0.010255995 0.0082008188         3233 
 4712000   0.49984199   -8.6181367    580.53199  0.010266907 0.0081977595         3194 
 4713000     0.508391   -8.5999577    580.23897  0.010259547 0.0081947017         3216 
 4714000   0.49878913   -8.6060902    580.58958  0.010263569 0.0081916453         3258 
 4715000   0.50915109   -8.6091191    580.06868  0.010252186 0.0081885913         3245 
 4716000   0.50928733    -8.609783    581.21532  0.010270274 0.0081855396         3252 
 4717000   0.49705464   -8.6039732    580.25896  0.010251201 0.0081824882         3169 
 4718000   0.49748334   -8.6121316    580.11929  0.010246561 0.0081794387         3216 
 4719000   0.49592995   -8.6243192    580.20136  0.010245839  0.008176389         3260 
 4720000    0.5037451   -8.6097803    580.28327  0.010245114 0.0081733446         3247 
 4721000   0.50158134   -8.5939822    580.53367  0.010247364 0.0081702999         3233 
 4722000   0.49839309   -8.6151925    581.17982  0.010256597  0.008167254         3213 
 4723000   0.48732963   -8.6246851    580.81313  0.010247956 0.0081642082         3245 
 4724000   0.50060674   -8.6133385    581.66554  0.010260823 0.0081611685         3251 
 4725000   0.49228476   -8.6005749    580.34351  0.010235335 0.0081581282         3194 
 4726000   0.49158168   -8.6205797    580.00338  0.010227172 0.0081550872         3229 
 4727000   0.49147225   -8.5940735    580.83363  0.010239645 0.0081520495         3244 
 4728000   0.49813798   -8.6336558    580.23958  0.010227009 0.0081490136         3232 
 4729000   0.48678266   -8.6190163    579.78323  0.010216805 0.0081459791         3212 
 4730000   0.48480835   -8.6169397    580.98484  0.010235815 0.0081429469         3274 
 4731000   0.50959207   -8.6226798    580.98234  0.010233607 0.0081399177         3249 
 4732000   0.49912618   -8.6174869    581.07011   0.01023299 0.0081368893         3213 
 4733000   0.49588535   -8.6235981     580.6543  0.010223507 0.0081338601         3202 
 4734000   0.50680938   -8.5988613    580.93235  0.010226242 0.0081308352         3251 
 4735000   0.49606299   -8.6144525    581.17265  0.010228311 0.0081278113         3256 
 4736000   0.49053253   -8.6087534    581.01399   0.01022336 0.0081247874         3238 
 4737000   0.49646432   -8.6233295    581.20977  0.010224646 0.0081217659         3272 
 4738000   0.50500587   -8.6221757    580.29296  0.010206363 0.0081187452         3240 
 4739000   0.49913001   -8.6154368    580.36105  0.010205406 0.0081157242         3282 
 4740000   0.48599521   -8.6130265    580.49752  0.010205653 0.0081127056         3241 
 4741000   0.49388547   -8.6131024    579.90033  0.010193003  0.008109688         3272 
 4742000   0.48832405    -8.602084    580.63741  0.010203807 0.0081066756         3208 
 4743000    0.4953382   -8.6158598    580.69206  0.010202615  0.008103661         3221 
 4744000   0.49374075   -8.6186076    580.31771  0.010193889 0.0081006486         3234 
 4745000   0.48453251   -8.6190524    580.67292  0.010197979 0.0080976375         3193 
 4746000   0.49270244   -8.6160898    580.98321  0.010201278 0.0080946308         3287 
 4747000   0.49906426   -8.6126036    580.60521  0.010192494 0.0080916229         3232 
 4748000   0.50985281   -8.6206226    580.18654  0.010182999 0.0080886186         3236 
 4749000   0.50007922   -8.6178306    580.26369  0.010182208 0.0080856143         3236 
 4750000   0.48073669   -8.6285965    580.34497  0.010181491 0.0080826126         3275 
 4751000   0.50332897   -8.6244766    580.00625  0.010173406 0.0080796107         3224 
 4752000   0.49667478   -8.6322986    579.98727  0.010170933 0.0080766114         3222 
 4753000   0.48945212   -8.6349623    580.22793  0.010173012 0.0080736112         3249 
 4754000   0.48120485   -8.6346514    579.51168  0.010158317 0.0080706139         3246 
 4755000   0.49027628   -8.6163885    580.63319  0.010175836 0.0080676159         3223 
 4756000   0.48753675     -8.62127    579.35603  0.010151318 0.0080646214         3260 
 4757000   0.49925865   -8.6350659    580.39181  0.010167329 0.0080616295         3235 
 4758000   0.49259841   -8.6191151    581.31473  0.010181356 0.0080586374         3211 
 4759000    0.4892141   -8.6297402    580.71279  0.010168677 0.0080556484         3201 
 4760000     0.494511    -8.629509    581.26113   0.01017614 0.0080526608         3228 
 4761000   0.48892271    -8.618351    579.91259  0.010150399 0.0080496725         3228 
 4762000   0.48993389   -8.6464542       580.18  0.010152947  0.008046687         3211 
 4763000   0.49041991   -8.6239843    580.24555  0.010151962 0.0080437006         3186 
 4764000   0.48675012   -8.6306622    579.18881  0.010131346 0.0080407178         3229 
 4765000   0.48219943   -8.6146605    580.51401  0.010152396 0.0080377371         3188 
 4766000   0.49191031   -8.6298424    579.08558   0.01012529 0.0080347551         3211 
 4767000   0.49371161   -8.6251274    580.66235   0.01015073 0.0080317743         3220 
 4768000   0.50031073   -8.6286625    579.94299  0.010136028 0.0080287964         3228 
 4769000   0.48877378   -8.6040544    580.81723  0.010149179 0.0080258224         3179 
 4770000   0.48890165   -8.6380523    579.99774  0.010132735 0.0080228489         3230 
 4771000   0.49994726   -8.6352465    580.46921  0.010138846 0.0080198748         3273 
 4772000   0.48837881   -8.6347385    580.67255  0.010140272 0.0080169051         3229 
 4773000   0.48834411   -8.6152781    580.69071  0.010138465 0.0080139358         3215 
 4774000   0.48886348   -8.6174847    580.82848  0.010138746 0.0080109693         3255 
 4775000   0.48366912   -8.6238073    580.68489  0.010134117 0.0080080035         3257 
 4776000   0.49225329   -8.6323495    580.72006  0.010132609 0.0080050389         3247 
 4777000   0.49172475   -8.5995601    580.88379  0.010133344 0.0080020756         3194 
 4778000   0.48524518   -8.6140482    580.00868   0.01011596 0.0079991139         3217 
 4779000   0.48893887   -8.6308932    580.75625  0.010126879 0.0079961518         3200 
 4780000   0.48776826    -8.630756    579.96723  0.010111005  0.007993192         3214 
 4781000   0.48365263   -8.6337294     580.6805  0.010121322 0.0079902328         3227 
 4782000   0.49467585   -8.6267215    580.72964  0.010120062 0.0079872791         3152 
 4783000   0.48654225   -8.6363761    579.86888  0.010102949 0.0079843239         3218 
 4784000   0.47583887   -8.6291221    579.87804  0.010100997 0.0079813686         3178 
 4785000   0.49387525   -8.6255389    580.10291  0.010102802 0.0079784167         3227 
 4786000    0.4901319   -8.6236782    579.75917  0.010094706 0.0079754622         3247 
 4787000   0.47745289    -8.626306    581.10151  0.010115965 0.0079725129         3237 
 4788000   0.49805595   -8.6240355    580.22661  0.010098625  0.007969565         3189 
 4789000   0.48294063   -8.6283925    579.32476  0.010080823 0.0079666183         3244 
 4790000   0.48902591   -8.6030923    580.26114  0.010095009 0.0079636733         3197 
 4791000   0.48783258   -8.6305002    580.25887  0.010092863   0.00796073         3227 
 4792000   0.47834328   -8.6340016    580.45807  0.010094221 0.0079577897         3216 
 4793000    0.4744266    -8.654332    579.47732  0.010075063 0.0079548482         3277 
 4794000   0.47946858   -8.6339679    580.34505  0.010088045 0.0079519104         3282 
 4795000   0.48469153   -8.6349268    579.69218  0.010074595 0.0079489729         3257 
 4796000   0.48458568   -8.6400782    580.79938  0.010091732 0.0079460391         3221 
 4797000   0.48710954   -8.6311182    581.27917  0.010097964 0.0079431066         3247 
 4798000   0.48919884   -8.6147723    580.53432  0.010082922 0.0079401751         3225 
 4799000   0.49037512   -8.6209842    580.76152  0.010084766 0.0079372422         3208 
 4800000   0.47710139   -8.6385405    580.74685  0.010082411 0.0079343129         3193 
 4801000   0.47992413   -8.6254845    579.27926  0.010054837 0.0079313821         3270 
 4802000   0.47756978   -8.6323378    580.34642  0.010071262 0.0079284535         3209 
 4803000   0.48208275   -8.6323621     580.9761  0.010080091 0.0079255277         3227 
 4804000   0.47853105   -8.6313721    580.40129  0.010068021 0.0079226009         3228 
 4805000   0.47855332   -8.6221125     580.7857  0.010072593 0.0079196754         3276 
 4806000   0.48358671   -8.6047051    580.65697  0.010068265 0.0079167552         3229 
 4807000   0.47535624   -8.6286696    579.69914  0.010049566 0.0079138355         3227 
 4808000   0.48630013   -8.6246904     580.2142  0.010056402 0.0079109178         3246 
 4809000   0.48459542   -8.6398341    579.48945  0.010041753 0.0079079988         3227 
 4810000   0.48210771   -8.6479789    579.17127  0.010034152 0.0079050853         3267 
 4811000   0.48023894   -8.6281398    579.86389  0.010044064 0.0079021695         3295 
 4812000   0.46866593   -8.6328112    579.47244  0.010035197 0.0078992569         3265 
 4813000   0.47574736   -8.6380174    579.16714  0.010027826 0.0078963448         3237 
 4814000   0.49594834   -8.6357111    579.73358  0.010035549 0.0078934343         3229 
 4815000   0.47874197   -8.6260517    580.11393  0.010040047 0.0078905248         3245 
 4816000   0.46145609   -8.6057317    579.97619  0.010035579 0.0078876178         3269 
 4817000   0.48169232   -8.6517137    580.28028  0.010038756 0.0078847105         3254 
 4818000   0.47854949   -8.6452132    580.15289  0.010034469 0.0078818057         3240 
 4819000   0.48323035   -8.6358564    579.91836  0.010028332 0.0078789044         3236 
 4820000   0.47365423   -8.6277712    580.36901  0.010034042 0.0078760031         3226 
 4821000   0.48336285     -8.63167    580.04452  0.010026352 0.0078731018         3239 
 4822000   0.48275324   -8.6376891    579.70246  0.010018361 0.0078702031         3252 
 4823000   0.48820653   -8.6344334    580.05175  0.010022319 0.0078673055         3183 
 4824000   0.46937597    -8.641553    579.15972  0.010004832 0.0078644086         3229 
 4825000   0.48217105   -8.6362975    580.52077  0.010026266 0.0078615116         3243 
 4826000   0.48689664   -8.6281897    579.98994  0.010015022  0.007858617         3264 
 4827000   0.47900978   -8.6428949     580.3581  0.010019303 0.0078557249         3262 
 4828000   0.47316003   -8.6513637    579.61912  0.010004472 0.0078528357         3216 
 4829000   0.48013895   -8.6366885    579.47735 0.0099999542 0.0078499472         3253 
 4830000   0.48151102    -8.639095    579.50889 0.0099984281 0.0078470603         3197 
 4831000   0.48507405   -8.6502519    579.45091 0.0099953582 0.0078441733         3317 
 4832000   0.48119008   -8.6376848    579.69158 0.0099974403 0.0078412901         3256 
 4833000   0.47731619   -8.6367842    580.84693  0.010015293 0.0078384071         3242 
 4834000   0.47096177   -8.6311998    580.05159 0.0099995102 0.0078355245         3224 
 4835000   0.47023169   -8.6336057    579.54216 0.0099886619 0.0078326459         3232 
 4836000   0.48242467   -8.6568339    579.67394 0.0099888671  0.007829767         3239 
 4837000   0.47165299   -8.6337059    580.18978 0.0099956892 0.0078268896         3207 
 4838000   0.48218178   -8.6484245    579.98665 0.0099901243 0.0078240142         3201 
 4839000   0.48409546   -8.6234443    580.16539 0.0099911377 0.0078211393         3256 
 4840000   0.46601825   -8.6369921      579.838 0.0099834367 0.0078182657         3223 
 4841000   0.46868552   -8.6268541    580.21953 0.0099879421 0.0078153951         3238 
 4842000   0.47408914   -8.6450031    580.72405 0.0099945624  0.007812527         3211 
 4843000    0.4845801   -8.6420259    579.95827 0.0099793219 0.0078096569         3203 
 4844000   0.48547513   -8.6383944    578.78289 0.0099570413 0.0078067901         3245 
 4845000   0.46784884   -8.6353545    579.43033 0.0099661219 0.0078039231         3261 
 4846000   0.47235601   -8.6504984    580.20747 0.0099774294 0.0078010588         3247 
 4847000   0.47143592   -8.6476054    579.13733 0.0099569722 0.0077981966         3257 
 4848000   0.47667589   -8.6499442    579.82815  0.009966793 0.0077953326         3283 
 4849000   0.47677265   -8.6241426    579.74613  0.009963328 0.0077924707         3256 
 4850000   0.47860804   -8.6508105    579.05267 0.0099493586 0.0077896118         3215 
 4851000   0.47679357   -8.6389512    579.57204 0.0099562296 0.0077867544         3199 
 4852000    0.4715476   -8.6539442    579.59777 0.0099546196 0.0077838959         3281 
 4853000   0.47489592   -8.6436082     579.7701 0.0099555275 0.0077810399         3282 
 4854000    0.4733423   -8.6318666    579.99235 0.0099572921 0.0077781869         3256 
 4855000   0.47401059   -8.6538069    582.05687 0.0099906775 0.0077753344         3204 
 4856000   0.48438266   -8.6568543    580.88948 0.0099685866 0.0077724834         3253 
 4857000   0.48013765   -8.6387563    579.20729 0.0099376723 0.0077696345         3219 
 4858000   0.47409817   -8.6383688    579.73628 0.0099447008 0.0077667862         3235 
 4859000   0.47739446   -8.6575236    579.12585 0.0099321851 0.0077639389         3250 
 4860000   0.47702401   -8.6556036    579.03138 0.0099285216  0.007761094         3253 
 4861000   0.47970876   -8.6442284    579.45512 0.0099337435 0.0077582498         3233 
 4862000   0.47945276   -8.6348704    579.62695 0.0099346454 0.0077554067         3247 
 4863000     0.471719   -8.6402843    579.56176 0.0099314854 0.0077525653         3204 
 4864000    0.4634275   -8.6481179    578.80706 0.0099165134 0.0077497261         3237 
 4865000   0.47422286   -8.6223789    579.80695 0.0099316025 0.0077468866         3221 
 4866000   0.47547377    -8.650884     579.7927 0.0099293174 0.0077440506         3221 
 4867000   0.46529108   -8.6594818    579.05402 0.0099146295 0.0077412153         3195 
 4868000   0.46456119   -8.6616495    579.44709 0.0099193215 0.0077383796         3265 
 4869000   0.46214096   -8.6505165    578.81275 0.0099064276  0.007735545         3267 
 4870000   0.47678991   -8.6520538    580.06049 0.0099257442 0.0077327117         3221 
 4871000   0.46634645   -8.6597666    579.49984 0.0099141149 0.0077298783         3259 
 4872000    0.4623151   -8.6500459    579.89281 0.0099188015 0.0077270511         3262 
 4873000   0.47048397   -8.6506679    579.91017 0.0099170628 0.0077242229         3280 
 4874000    0.4703144    -8.651102    580.06182  0.009917621 0.0077213951         3228 
 4875000   0.47561827   -8.6567135      580.637 0.0099254189 0.0077185702         3209 
 4876000    0.4744568   -8.6388169     579.3319 0.0099010784 0.0077157462         3227 
 4877000   0.47453975   -8.6310647    580.10867  0.009912321 0.0077129246         3205 
 4878000   0.47956948   -8.6623924    579.27808 0.0098960995 0.0077101057         3265 
 4879000   0.47521982   -8.6493367    579.77553 0.0099025676 0.0077072864         3220 
 4880000   0.47746094    -8.660886     579.4669  0.009895268 0.0077044684         3320 
 4881000   0.45988341   -8.6482155     580.1953 0.0099056768 0.0077016518         3228 
 4882000   0.47080662   -8.6499637    579.35573 0.0098893167 0.0076988353         3259 
 4883000    0.4760549   -8.6462947      580.277 0.0099030138  0.007696022         3223 
 4884000   0.46676414   -8.6351472    579.42386 0.0098864295 0.0076932101         3216 
 4885000   0.46364305   -8.6497666    579.04074 0.0098778701 0.0076903978         3233 
 4886000   0.46744525   -8.6480545    579.68723 0.0098868746 0.0076875882         3223 
 4887000   0.46263174   -8.6531129    579.70101 0.0098850864 0.0076847807         3221 
 4888000   0.47233062     -8.65138    579.49572 0.0098795642 0.0076819752         3281 
 4889000   0.47459659   -8.6539727    579.49513 0.0098775334  0.007679168         3256 
 4890000   0.48150459   -8.6649682    579.83796 0.0098813558 0.0076763607         3217 
 4891000   0.48303373   -8.6533333    579.29554 0.0098700937 0.0076735573         3241 
 4892000   0.47420929    -8.646623    579.02339 0.0098634402  0.007670756         3259 
 4893000   0.46834782   -8.6572299    579.26494 0.0098655382  0.007667957         3238 
 4894000   0.45685624   -8.6612128    579.34537 0.0098648919 0.0076651576         3256 
 4895000   0.46944616   -8.6526659    579.29771 0.0098620652 0.0076623594         3233 
 4896000   0.47375031   -8.6476266    580.12411 0.0098741167 0.0076595634         3229 
 4897000   0.45922816   -8.6536316    579.81307 0.0098668074 0.0076567682         3236 
 4898000   0.47462912   -8.6584223    579.22247 0.0098547447 0.0076539746         3286 
 4899000   0.46994343   -8.6532694    580.05346 0.0098668685 0.0076511834         3215 
 4900000   0.47744194   -8.6544907    579.74306 0.0098595758 0.0076483924         3266 
 4901000   0.46851808   -8.6506966    580.48235 0.0098701345 0.0076456036         3235 
 4902000   0.47095394   -8.6613186    579.36974 0.0098492068 0.0076428142         3289 
 4903000   0.46812429   -8.6355658    578.63628 0.0098347318 0.0076400283         3257 
 4904000    0.4637579   -8.6476171    579.00537 0.0098389983 0.0076372435         3283 
 4905000   0.45422334   -8.6550506    580.35527 0.0098599264 0.0076344574         3229 
 4906000   0.47459735   -8.6544138    579.27275  0.009839529 0.0076316758         3238 
 4907000   0.46315989   -8.6536386    579.12033 0.0098349354 0.0076288945         3198 
 4908000   0.45944303   -8.6554694    579.07963 0.0098322404 0.0076261152         3231 
 4909000   0.46861674   -8.6619179    579.42817 0.0098361541 0.0076233386         3227 
 4910000   0.45699185   -8.6592874    579.93707 0.0098427879 0.0076205593         3258 
 4911000   0.45939659   -8.6557104    579.65988 0.0098360803 0.0076177837         3254 
 4912000   0.46020238   -8.6519558    579.17049 0.0098257752 0.0076150089         3266 
 4913000    0.4529166   -8.6650452    579.83449 0.0098350378 0.0076122358         3232 
 4914000   0.46334492   -8.6502746    579.15986 0.0098215958 0.0076094645         3231 
 4915000    0.4740877   -8.6630622    578.38956 0.0098065371 0.0076066949         3222 
 4916000   0.48197902   -8.6589171    579.49076 0.0098232092 0.0076039272         3272 
 4917000   0.46069557   -8.6493913    579.59317 0.0098229471 0.0076011595         3223 
 4918000   0.46647888   -8.6559301    579.76117 0.0098237964 0.0075983937         3212 
 4919000   0.46397033   -8.6542353    579.90548 0.0098242441  0.007595631         3238 
 4920000   0.46867193   -8.6633161    580.03032 0.0098243617 0.0075928688         3233 
 4921000    0.4606543   -8.6486636    578.57902 0.0097977887 0.0075901058         3286 
 4922000   0.46707597   -8.6653022    579.49688 0.0098113383 0.0075873437         3238 
 4923000   0.47104008   -8.6667326    579.30513 0.0098060994 0.0075845833         3274 
 4924000   0.46763082   -8.6599149     579.2867  0.009803796 0.0075818278         3252 
 4925000   0.46478553   -8.6738158    579.02666 0.0097974054 0.0075790715         3260 
 4926000   0.46663991   -8.6722548    579.44079 0.0098024223  0.007576317         3271 
 4927000   0.46994901   -8.6628099    578.41797 0.0097831332 0.0075735631         3305 
 4928000   0.46706927    -8.651807    579.74078  0.009803517   0.00757081         3222 
 4929000    0.4691455   -8.6613148    579.39288 0.0097956462 0.0075680603         3233 
 4930000   0.46077817   -8.6609907    579.54657 0.0097962571 0.0075653103         3252 
 4931000   0.45504067    -8.656392    579.68518 0.0097966129 0.0075625601         3256 
 4932000   0.46617117   -8.6755631       580.21 0.0098034942 0.0075598141         3249 
 4933000   0.46579483   -8.6682314    579.93259 0.0097968205 0.0075570707         3177 
 4934000   0.45993475   -8.6538984    579.52708  0.009787986 0.0075543233         3225 
 4935000   0.47584092   -8.6594379    578.74657 0.0097728228 0.0075515801         3191 
 4936000   0.46307904    -8.677119    579.10292 0.0097768591 0.0075488388         3200 
 4937000   0.45673566    -8.670872    579.98247  0.009789725 0.0075460985         3290 
 4938000   0.45848821   -8.6436103    579.05449  0.009772082 0.0075433593         3237 
 4939000   0.46036557   -8.6672449    577.93114 0.0097511497 0.0075406221         3246 
 4940000   0.46227491    -8.674615    579.90411 0.0097824579 0.0075378846         3218 
 4941000   0.45903238   -8.6686305    579.56054 0.0097746836 0.0075351497         3277 
 4942000   0.47256259   -8.6596369    580.17625  0.009783088 0.0075324178         3244 
 4943000   0.46540204   -8.6696498    579.59565 0.0097713205 0.0075296856         3236 
 4944000    0.4644754   -8.6580541    579.94398 0.0097752154 0.0075269561         3236 
 4945000   0.45756113   -8.6669742     579.3815 0.0097637598 0.0075242272         3258 
 4946000   0.45401163   -8.6528559    579.62683  0.009765919 0.0075214971         3243 
 4947000   0.45803574   -8.6687838    579.23622  0.009757365 0.0075187687         3222 
 4948000   0.46314164   -8.6664657    578.50532 0.0097430833 0.0075160402         3243 
 4949000   0.45605067   -8.6574056    579.05308 0.0097503381 0.0075133152         3271 
 4950000   0.46863011   -8.6592328    578.93347 0.0097463548 0.0075105895         3238 
 4951000   0.46528493   -8.6677725    578.93027 0.0097443322 0.0075078672         3302 
 4952000   0.45639732   -8.6715127    579.20953 0.0097470641 0.0075051464         3288 
 4953000   0.45864153   -8.6635413     579.6649 0.0097527576 0.0075024272         3221 
 4954000   0.46284183   -8.6700342    578.04138 0.0097234791 0.0074997103         3227 
 4955000   0.46448825   -8.6750356     579.6329 0.0097482829 0.0074969917         3272 
 4956000   0.44994757   -8.6591217      579.852      0.00975 0.0074942755         3208 
 4957000   0.47152812   -8.6723979    578.69632 0.0097286047 0.0074915607         3248 
 4958000   0.45820277   -8.6547156    580.27217 0.0097531291  0.007488848         3213 
 4959000   0.45390644   -8.6607586    578.97446  0.009729355 0.0074861375         3262 
 4960000   0.44758963   -8.6677785    579.07156 0.0097290248 0.0074834275         3249 
 4961000   0.46121051   -8.6774746    578.82103 0.0097228554 0.0074807176         3272 
 4962000   0.45572892   -8.6593187    578.64674  0.009717969   0.00747801         3245 
 4963000   0.46352659   -8.6669254    578.94868 0.0097210807 0.0074753021         3233 
 4964000   0.46657658   -8.6787487    579.00126  0.009720005 0.0074725948         3239 
 4965000   0.45827442   -8.6774298    578.53492 0.0097102203 0.0074698894         3214 
 4966000   0.46059732   -8.6699482    578.51907 0.0097079989 0.0074671849         3262 
 4967000   0.45628393   -8.6865093    578.86181 0.0097117948  0.007464484         3255 
 4968000   0.45153255   -8.6555687    578.82468  0.009709217  0.007461782         3282 
 4969000   0.45060085   -8.6769572    578.35527 0.0096993907 0.0074590816         3265 
 4970000   0.46096661   -8.6620971    579.23982 0.0097122706 0.0074563829         3220 
 4971000   0.45208834   -8.6654807    579.18914 0.0097094672 0.0074536851         3169 
 4972000   0.46298162   -8.6749405    579.34125 0.0097100638 0.0074509906         3267 
 4973000   0.45300187   -8.6752281    578.98146 0.0097020822 0.0074482958         3260 
 4974000   0.45750685    -8.678927    579.09938 0.0097021073 0.0074456029         3255 
 4975000   0.46286934   -8.6830572    578.63493 0.0096923774 0.0074429116         3243 
 4976000    0.4569284   -8.6795186    578.90369 0.0096949305 0.0074402232         3241 
 4977000   0.45653184   -8.6751187    579.88786 0.0097094613 0.0074375358         3242 
 4978000   0.46523306   -8.6674948    578.71079 0.0096878062 0.0074348495         3211 
 4979000   0.45294637   -8.6631608    578.61056 0.0096841829  0.007432163         3317 
 4980000   0.45714944   -8.6675719    579.30777 0.0096939052 0.0074294776         3234 
 4981000   0.46172441   -8.6553953    578.22247 0.0096738016 0.0074267945         3246 
 4982000   0.45516939   -8.6722477    579.03426 0.0096854385 0.0074241126         3252 
 4983000   0.47250459   -8.6828161    578.42939 0.0096733793 0.0074214318         3284 
 4984000   0.45338865   -8.6815855    579.37106 0.0096871834 0.0074187531         3253 
 4985000   0.45588805   -8.6691303    579.73438 0.0096913136 0.0074160744         3259 
 4986000    0.4482328   -8.6809182    579.28695 0.0096818918 0.0074133988         3251 
 4987000    0.4512658   -8.6730961    579.32041 0.0096805094 0.0074107222         3299 
 4988000   0.47013772   -8.6839389    579.36095  0.009679246 0.0074080503         3219 
 4989000   0.44980476   -8.6759134    579.13097 0.0096734644 0.0074053779         3219 
 4990000   0.45568964   -8.6694259    578.56089 0.0096620055 0.0074027049         3297 
 4991000   0.45237329   -8.6759315    578.75394 0.0096632929 0.0074000355         3295 
 4992000   0.44891693   -8.6800206     578.7936 0.0096620193 0.0073973679         3206 
 4993000    0.4580707   -8.6722519    579.12615 0.0096656345 0.0073946986         3277 
 4994000   0.45779387   -8.6749721    578.61713 0.0096552051 0.0073920293         3245 
 4995000   0.44943572   -8.6579326    579.09642 0.0096612683 0.0073893644         3290 
 4996000   0.45079013   -8.6761875    580.20181 0.0096777724 0.0073867001         3276 
 4997000   0.44417627   -8.6697245    578.86856 0.0096536016 0.0073840369         3261 
 4998000     0.460979   -8.6768694    579.33191 0.0096593955 0.0073813759         3252 
 4999000   0.45320013   -8.6746834    578.86127 0.0096496178 0.0073787146         3288 
 5000000   0.45234266   -8.6825543    578.31597 0.0096385994  0.007376055         3283 
 5001000   0.45463154   -8.6947077    578.91367 0.0096466318  0.007373396         3238 
 5002000   0.45846947   -8.6644892    579.20002 0.0096494738 0.0073707398         3238 
 5003000   0.45985116   -8.6924452    578.50552 0.0096359771 0.0073680829         3261 
 5004000   0.44802531   -8.6712008    579.63463 0.0096528549 0.0073654282         3251 
 5005000    0.4431594   -8.6802539    578.32528 0.0096291256 0.0073627739         3307 
 5006000    0.4553204   -8.6907313    578.97985 0.0096380984 0.0073601213         3228 
 5007000   0.45052081   -8.6816692    578.82946 0.0096336705 0.0073574724         3271 
 5008000   0.45269708   -8.6773148    578.24679 0.0096220512 0.0073548247         3198 
 5009000   0.45709277   -8.6885479    578.84311 0.0096300511 0.0073521768         3262 
 5010000      0.45318   -8.6815576    579.14452 0.0096331423 0.0073495289         3250 
 5011000   0.45187072   -8.6769555    578.67987 0.0096234929 0.0073468838         3211 
 5012000   0.45485417   -8.6924177    578.77404 0.0096231385 0.0073442405         3229 
Loop time of 13464.8 on 48 procs for 5000000 steps with 4000 atoms

Performance: 64167.384 tau/day, 371.339 timesteps/s
99.4% CPU use with 48 MPI tasks x no OpenMP threads

MPI task timing breakdown:
Section |  min time  |  avg time  |  max time  |%varavg| %total
---------------------------------------------------------------
Pair    | 974.42     | 1103.4     | 1220.5     | 168.0 |  8.19
Neigh   | 93.122     | 97.339     | 102.78     |  23.9 |  0.72
Comm    | 793.59     | 939.61     | 1051.6     | 202.4 |  6.98
Output  | 18.23      | 18.235     | 18.341     |   0.4 |  0.14
Modify  | 11100      | 11174      | 11233      |  35.6 | 82.98
Other   |            | 132.6      |            |       |  0.98

Nlocal:        83.3333 ave          90 max          76 min
Histogram: 1 1 5 5 4 18 5 5 0 4
Nghost:        2461.52 ave        2478 max        2439 min
Histogram: 1 0 4 7 3 7 15 6 3 2
Neighs:        17071.3 ave       19731 max       14430 min
Histogram: 3 1 5 7 9 5 8 7 1 2
FullNghs:      34141.6 ave       37389 max       31080 min
Histogram: 2 1 6 5 13 8 7 1 3 2

Total # of neighbors = 1638795
Ave neighs/atom = 409.69875
Neighbor list builds = 266286
Dangerous builds = 0

#clear
#
#next RN
#
#jump SELF
Total wall time: 3:44:28
