
units lj                  # Use reduced LJ style units
atom_style atomic         # Uncharged point particles
atom_modify map hash      # Needed for indexing of clusters etc
                          # Used to be able to find where atoms are in relation to each other.

lattice fcc 1.0 spacing 1 1 1
Lattice spacing in x,y,z = 1.5874011 1.5874011 1.5874011
region box block 0 10 0 10 0 10 units lattice
create_box 2 box
Created orthogonal box = (0.0000000 0.0000000 0.0000000) to (15.874011 15.874011 15.874011)
  3 by 4 by 4 MPI processor grid
create_atoms 1 box
Created 4000 atoms
  using lattice units in orthogonal box = (0.0000000 0.0000000 0.0000000) to (15.874011 15.874011 15.874011)
  create_atoms CPU = 0.002 seconds
set type 1 type/fraction 2 0.74 78393
Setting atom values ...
  2966 settings made for type/fraction
mass 1 1.0
mass 2 1.0
pair_style lj/cut  3.5
pair_modify tail  yes
pair_coeff 1  1  1.0  1.0   # Intearaction between 1 and 1 set with epsilon = 1 and sigma = 1
pair_coeff 1  2  1.5  0.8
pair_coeff 2  2  0.5  0.88

write_data data.0
System init for write_data ...
Neighbor list info ...
  update every 1 steps, delay 10 steps, check yes
  max neighbors/atom: 2000, page size: 100000
  master list distance cutoff = 3.8
  ghost atom cutoff = 3.8
  binsize = 1.9, bins = 9 9 9
  1 neighbor lists, perpetual/occasional/extra = 1 0 0
  (1) pair lj/cut, perpetual
      attributes: half, newton on
      pair build: half/bin/atomonly/newton
      stencil: half/bin/3d
      bin: standard
WARNING: Not all mixed pair coeffs generated from mixing. Use write_data with 'pair ij' option to store all pair coeffs. (../write_data.cpp:312)


#############################
#   M E L T   S Y S T E M   #
#############################

velocity all create 2.4 9580093 mom yes dist gaussian # Assign velocities
                                                    # Temperature 2.4, random number seed, zero linear momentum
                                                                                # Gaussian distribution

timestep 0.002   # simulation timestep
thermo 1000       # output thermodynamic data every 1000 steps bf 100

# Define a fix  in this case with index 1 applied to all
# particles in the simulation. This fix is for simulations
# in the anisotropic NPT ensemble. Note that we use the MTK
# correction.
fix 1 all npt temp 2.4 2.4 0.1 iso 5.68 5.68 0.5 mtk yes tchain 5 pchain 5 # Use NPT ensemble
                                                                         # Set temperature and pressure and damping
                                                                         # Numbers of thermostats in chain and in barostat
run 10000          # run for 10000 steps
Per MPI rank memory allocation (min/avg/max) = 3.642 | 3.644 | 3.648 Mbytes
Step Temp E_pair E_mol TotEng Press Volume 
       0          2.4   -3.9840525            0  -0.38495247   -3.5781436         4000 
    1000    2.4133019   -3.5138352            0   0.10521273    5.7087109    3700.2962 
    2000    2.4014861   -3.5090414            0   0.09228727    5.6768067    3703.4352 
    3000    2.4250471   -3.5293457            0   0.10731561    5.6666896    3689.8366 
    4000    2.3925769   -3.5548008            0   0.03316731    5.4530704     3692.671 
    5000    2.4345411   -3.4713494            0   0.17954937    5.9026941    3708.5041 
    6000    2.3425268   -3.5174795            0 -0.0045677393    5.8365163    3662.3141 
    7000    2.3612635   -3.4892313            0  0.051778423     5.989598    3687.0825 
    8000    2.3762407   -3.5026547            0  0.060815254    5.3382016    3744.7815 
    9000    2.4232626   -3.4886167            0   0.14536849    5.7239865    3713.1806 
   10000    2.3822396   -3.4660519            0   0.10641422    5.8656184    3707.7477 
Loop time of 2.65982 on 48 procs for 10000 steps with 4000 atoms

Performance: 649668.595 tau/day, 3759.656 timesteps/s
99.6% CPU use with 48 MPI tasks x no OpenMP threads

MPI task timing breakdown:
Section |  min time  |  avg time  |  max time  |%varavg| %total
---------------------------------------------------------------
Pair    | 1.1905     | 1.2525     | 1.399      |   3.5 | 47.09
Neigh   | 0.21359    | 0.22211    | 0.24932    |   1.4 |  8.35
Comm    | 0.77765    | 0.90554    | 0.97117    |   4.1 | 34.05
Output  | 0.00025872 | 0.00026403 | 0.00033027 |   0.0 |  0.01
Modify  | 0.21119    | 0.26351    | 0.29783    |   5.2 |  9.91
Other   |            | 0.01586    |            |       |  0.60

Nlocal:        83.3333 ave          94 max          76 min
Histogram: 4 8 7 6 3 9 6 1 3 1
Nghost:        1726.35 ave        1756 max        1689 min
Histogram: 1 3 5 3 8 4 11 5 3 5
Neighs:        10292.5 ave       12377 max        9021 min
Histogram: 4 8 6 9 5 9 4 1 1 1

Total # of neighbors = 494042
Ave neighs/atom = 123.51050
Neighbor list builds = 902
Dangerous builds = 180

# Equilibrate just above the melting temperature to avoid step fn in T

fix 1 all npt temp 1.25 1.25 0.1 iso 5.68 5.68 0.5 mtk yes tchain 5 pchain 5
run 2000
Per MPI rank memory allocation (min/avg/max) = 3.644 | 3.646 | 3.649 Mbytes
Step Temp E_pair E_mol TotEng Press Volume 
   10000    2.3822396   -3.4660519            0   0.10641422    5.8656184    3707.7477 
   11000    1.2411624   -5.1746132            0   -3.3133349    5.5944593    2834.4783 
   12000    1.2593312   -5.2123864            0   -3.3238618    5.7376355    2811.4024 
Loop time of 0.652351 on 48 procs for 2000 steps with 4000 atoms

Performance: 529776.323 tau/day, 3065.835 timesteps/s
99.7% CPU use with 48 MPI tasks x no OpenMP threads

MPI task timing breakdown:
Section |  min time  |  avg time  |  max time  |%varavg| %total
---------------------------------------------------------------
Pair    | 0.29894    | 0.32066    | 0.34494    |   2.1 | 49.15
Neigh   | 0.041755   | 0.043562   | 0.047687   |   0.6 |  6.68
Comm    | 0.21353    | 0.23742    | 0.26644    |   2.7 | 36.39
Output  | 5.1456e-05 | 5.2726e-05 | 7.1024e-05 |   0.0 |  0.01
Modify  | 0.039432   | 0.045681   | 0.050976   |   1.7 |  7.00
Other   |            | 0.004982   |            |       |  0.76

Nlocal:        83.3333 ave          91 max          77 min
Histogram: 2 2 8 6 11 9 3 4 1 2
Nghost:        2081.75 ave        2108 max        2060 min
Histogram: 1 6 6 9 7 8 4 5 0 2
Neighs:        13570.6 ave       15092 max       12237 min
Histogram: 3 4 3 10 10 4 7 2 3 2

Total # of neighbors = 651391
Ave neighs/atom = 162.84775
Neighbor list builds = 143
Dangerous builds = 11

#############################
# L I N E A R  Q U E N C H  #
#############################

# Define solid atoms. This closely follows ten Wolde  Ruiz-Montero and Frenkel  Faraday Discuss  1996  104  93-110
# Compute components of the per-atom q6 vector
compute q6 all orientorder/atom degrees 1 6 components 6 nnn NULL cutoff 1.3 # compute the Q6 parameter.
                                                                             # Use all neighbours within 1.3 unit cell.

# get number of connections
compute coord_number all coord/atom orientorder q6 0.5

# An atom is solid if it has 8 or more connections (of a possible 14)
variable is_solid atom c_coord_number>=8
group solid dynamic all var is_solid    # Must be dynamic to update
dynamic group solid defined

# do clustering
compute cluster solid cluster/atom 1.3 # Create a cluster where all atoms within are solid and max 1.3 units from another member

# define chunks one chunk per cluster
compute clus_chunks solid chunk/atom c_cluster nchunk every compress yes  # Says which atoms are in which chunk

# count the size of each chunk
compute size_chunks solid property/chunk clus_chunks count


# Find the maximum entry in the vector of chunk sizes
variable max_n equal max(c_size_chunks)


# Thermo style which includes this variable
# thermo_style custom step temp pe vol v_max_n

thermo ${N}  # Print the thermo information every 100 steps
thermo 1000  

# Reset the npt fix at a lower temperature (below freezing)
fix 1  all npt temp  ${temp} ${temp}  0.1  iso  5.68  5.68  0.5  mtk yes tchain  5  pchain  5
fix 1  all npt temp  0.45 ${temp}  0.1  iso  5.68  5.68  0.5  mtk yes tchain  5  pchain  5
fix 1  all npt temp  0.45 0.45  0.1  iso  5.68  5.68  0.5  mtk yes tchain  5  pchain  5

dump dmp2 all dcd ${N} traj.dcd
dump dmp2 all dcd 1000 traj.dcd


compute msd all msd com yes
variable twopoint equal c_msd[4]/6/(step*dt+1.0e-6)
fix 9 all vector 10 c_msd[4]
variable fit equal slope(f_9)/6/(10*dt)
thermo_style custom step temp pe c_msd[4] v_twopoint v_fit v_max_n

fix 1 all npt temp 1.25 ${temp} 0.1 iso 5.68 5.68 0.5 mtk yes tchain 5 pchain 5
fix 1 all npt temp 1.25 0.45 0.1 iso 5.68 5.68 0.5 mtk yes tchain 5 pchain 5
run 2000000 # 5000000  # Run for this many steps
Neighbor list info ...
  update every 1 steps, delay 10 steps, check yes
  max neighbors/atom: 2000, page size: 100000
  master list distance cutoff = 3.8
  ghost atom cutoff = 3.8
  binsize = 1.9, bins = 8 8 8
  4 neighbor lists, perpetual/occasional/extra = 1 3 0
  (1) pair lj/cut, perpetual
      attributes: half, newton on
      pair build: half/bin/atomonly/newton
      stencil: half/bin/3d
      bin: standard
  (2) compute orientorder/atom, occasional
      attributes: full, newton on
      pair build: full/bin/atomonly
      stencil: full/bin/3d
      bin: standard
  (3) compute coord/atom, occasional
      attributes: full, newton on
      pair build: full/bin/atomonly
      stencil: full/bin/3d
      bin: standard
  (4) compute cluster/atom, occasional
      attributes: full, newton on
      pair build: full/bin/atomonly
      stencil: full/bin/3d
      bin: standard
Per MPI rank memory allocation (min/avg/max) = 9.841 | 9.847 | 9.852 Mbytes
Step Temp PotEng c_msd[4] v_twopoint v_fit v_max_n 
   12000    1.2593312   -5.2123864 1.504555e-30 1.0448298e-32 8.3333333e+20            2 
   13000    1.2334773    -5.185573   0.71147012 0.0045607057  0.059623126            3 
   14000    1.2304511    -5.257966    1.4180844  0.008440978  0.060116381            2 
   15000    1.2565142   -5.2265629     2.088677  0.011603761  0.057973934            3 
   16000    1.2275742    -5.221468    2.7200936  0.014167153  0.057258468            3 
   17000    1.2652289    -5.218884    3.4072428   0.01670217  0.056212598            4 
   18000     1.219455   -5.2242737    4.1472283   0.01920013  0.056703219            4 
   19000    1.2414945   -5.1925256     4.825276  0.021163491  0.056721815            2 
   20000    1.2534035    -5.196762    5.5583848  0.023159936  0.057113149            2 
   21000    1.2115776   -5.2099555    6.3089236  0.025035411  0.057772315            6 
   22000    1.2271844   -5.1998379      6.99517  0.026496856  0.058168456            2 
   23000    1.2101808   -5.2041607    7.7073857   0.02792531   0.05834928            2 
   24000    1.2440679   -5.1705102    8.3370084  0.028947945  0.058284251            1 
   25000    1.2346375   -5.1986018    8.9847789  0.029949263  0.058157163            2 
   26000    1.2637943   -5.2092241    9.6967853  0.031079439  0.058012067            3 
   27000     1.257327   -5.2142157    10.325091  0.031867563  0.057801034            3 
   28000    1.2527695     -5.22506     10.94397  0.032571338  0.057606079            4 
   29000    1.2527444   -5.2183575     11.67471  0.033548016  0.057404415            1 
   30000    1.2330945   -5.2289499    12.342858  0.034285716  0.057313774            2 
   31000    1.2257766   -5.1896052    13.105785  0.035230605  0.057241196            2 
   32000    1.2218142   -5.2662288     13.69427  0.035662162  0.057170145            2 
   33000     1.205349   -5.2747424    14.497999  0.036611107  0.057152975            2 
   34000    1.2476257   -5.2341184    15.223483  0.037312458  0.057256467            1 
   35000    1.2331616   -5.1810721    15.919942  0.037904623  0.057334624            4 
   36000     1.249948   -5.2077164    16.516546  0.038232746  0.057311008            2 
   37000    1.2530275   -5.1696926    17.279275  0.038917286  0.057262725            3 
   38000    1.2391497   -5.2299986    17.959342  0.039384522  0.057283422            2 
   39000    1.2427375   -5.2330214    18.535842    0.0396065  0.057278958            1 
   40000    1.2361753    -5.202191    19.153174  0.039902444   0.05724917            3 
   41000    1.2170178   -5.2299224    19.864192  0.040374373  0.057186454            2 
   42000    1.2409072   -5.2272121      20.3844  0.040445238  0.057091989            3 
   43000    1.2278779   -5.2287672    20.936765  0.040575125  0.056936304            2 
   44000     1.276392   -5.2345098    21.643447  0.040991377   0.05678308            1 
   45000     1.234048   -5.2567409    22.173242  0.041061559  0.056624195            3 
   46000    1.2539466    -5.239792    22.833461  0.041364966  0.056500879            2 
   47000    1.2349948   -5.2203452    23.396087  0.041482423  0.056355983            2 
   48000     1.242142   -5.2493613    24.249381  0.042099619   0.05620466            1 
   49000    1.2594438   -5.2261253    24.625128  0.041879468  0.056071186            3 
   50000    1.2448568   -5.2561766    25.326023  0.042210037  0.055921832            2 
   51000    1.2427166   -5.2112875    25.975515  0.042443651  0.055796754            2 
   52000    1.2319726   -5.2879992    26.683759  0.042762434  0.055682105            5 
   53000    1.2450447   -5.2089829    27.605416  0.043404742   0.05561765            2 
   54000     1.210526   -5.2541758    28.302561  0.043676791  0.055619423            2 
   55000    1.2564822   -5.2523176    29.001394  0.043941506   0.05562695            2 
   56000    1.2557109   -5.2452228    29.590719  0.044033808  0.055622561            4 
   57000    1.2460985   -5.2497975    30.193645  0.044142756  0.055586988            2 
   58000    1.2476958   -5.2757325    30.827618  0.044292554  0.055571845            1 
   59000    1.2248966   -5.2464333    31.392815  0.044340134  0.055546383            3 
   60000    1.2448243   -5.2083418    32.212843   0.04474006  0.055513898            2 
   61000    1.2231285   -5.2700141    32.772225  0.044770798  0.055481529            3 
   62000    1.2131061   -5.2718976    33.261382  0.044706158   0.05544259            3 
   63000    1.2068611   -5.2679402    33.895312  0.044835068  0.055381364            6 
   64000    1.2369959   -5.2408004     34.67997   0.04515621  0.055347717            2 
   65000    1.2352378   -5.2526562     35.29849  0.045254474  0.055329838            2 
   66000    1.2162444   -5.2554305    35.936046  0.045373795  0.055308148            3 
   67000    1.2486162   -5.2764216    36.586468  0.045505557  0.055283462            3 
   68000    1.2370649    -5.220896    37.279582  0.045685762  0.055240081            9 
   69000     1.221088   -5.2490437    37.920744     0.045798  0.055209875            3 
   70000    1.2110531   -5.2290492    38.650552  0.046012561  0.055182537            1 
   71000    1.2060369   -5.2575669    38.954662  0.045721434  0.055131546            1 
   72000    1.2279362   -5.2929587    39.626643   0.04586417  0.055069904            4 
   73000     1.197642   -5.2608579     40.43584  0.046159635  0.055027629            2 
   74000     1.207091   -5.2383918    41.009583  0.046181963  0.054986185            3 
   75000    1.2326897   -5.2406965    41.496288  0.046106986  0.054934618            3 
   76000    1.2184192     -5.29677    42.095985  0.046157878  0.054884718            3 
   77000    1.2463541   -5.2731481    42.966486  0.046500526  0.054857607            2 
   78000    1.2300152   -5.2374642    43.583615  0.046563691  0.054831584            2 
   79000    1.2013442   -5.2671637    44.157061  0.046579178  0.054804839            3 
   80000    1.2215999   -5.2523399    44.682906  0.046544693  0.054762202            2 
   81000    1.1849481   -5.2605175    45.143908  0.046444349  0.054695329            2 
   82000    1.2402563   -5.2812898    45.978538  0.046726156  0.054636852            2 
   83000    1.2371838   -5.2643972    46.268226  0.046454042  0.054575479            2 
   84000    1.2075209   -5.2223526    46.625598  0.046255553  0.054494385            3 
   85000    1.2009057   -5.2655698    47.085594  0.046162347  0.054395282            2 
   86000    1.2189856   -5.3003018    47.539801  0.046065699  0.054299346            2 
   87000    1.1840586   -5.2703182    48.371577  0.046332928  0.054205211            4 
   88000    1.2199959    -5.252558    49.107926  0.046503718  0.054115731            2 
   89000     1.200476   -5.2327397    49.688427  0.046524745  0.054028757            2 
   90000    1.2092954   -5.2536685    50.472015  0.046733347  0.053955557            2 
   91000    1.2176307   -5.2451198    51.143905  0.046835078   0.05389262            3 
   92000     1.231171   -5.3125911    51.629869  0.046766185  0.053841453            4 
   93000    1.2180371   -5.2598755    52.252881  0.046821578  0.053776511            4 
   94000    1.2151112   -5.2526261    53.118549  0.047090912  0.053725852            3 
   95000     1.212926   -5.3487203    53.566205  0.046987899  0.053673342            2 
   96000    1.2033636   -5.2866902     54.33162  0.047162864  0.053632827            3 
   97000    1.2031859   -5.2770654     54.95774  0.047214553   0.05360176            2 
   98000    1.2237876   -5.2854306    55.684322  0.047350614  0.053570628            4 
   99000    1.2194726   -5.2931376    56.364117  0.047444543  0.053541648            3 
  100000     1.206523   -5.2589754    57.255314  0.047712761  0.053523111            1 
  101000    1.2232741   -5.3053729    57.500922  0.047443005  0.053499501            4 
  102000    1.2036562   -5.2422393    58.178471  0.047531431   0.05347869            2 
  103000    1.2210995   -5.3052513    58.706894  0.047497487  0.053444069            1 
  104000    1.2174693   -5.2926028    59.114857  0.047367674  0.053410066            1 
  105000    1.1835142     -5.27596    59.972395  0.047597139  0.053376321            2 
  106000     1.217723   -5.2854863    60.392327  0.047478244  0.053347592            5 
  107000    1.2209567   -5.2764899    61.082109  0.047571736  0.053317384            3 
  108000    1.1940469   -5.2858524    61.606236  0.047535676  0.053277843            2 
  109000    1.2079432   -5.2678215    62.351788  0.047669562  0.053251258            6 
  110000    1.1881017   -5.3408714    62.744488  0.047533703  0.053220145            2 
  111000    1.2169951   -5.2755697    63.758747  0.047866927  0.053193469            1 
  112000    1.1900696   -5.2715127    64.184406  0.047756255  0.053170858            3 
  113000    1.1846666   -5.3072253    64.649235  0.047676426  0.053134518            3 
  114000    1.2050624   -5.2876737    65.343781  0.047765922  0.053096109            2 
  115000    1.1957784   -5.2859302    65.733433  0.047632922  0.053057346            2 
  116000    1.2080373   -5.3023113    66.167985  0.047534472  0.053023231            2 
  117000    1.2141882   -5.3147303    67.190549  0.047856516  0.052985693            4 
  118000    1.2090658   -5.3059879    67.678586  0.047795611  0.052954155            3 
  119000    1.2086012   -5.2654371    68.073432   0.04767047  0.052911905            5 
  120000    1.2095117   -5.2967396    68.441658  0.047528929  0.052866118            2 
  121000     1.210181   -5.3138907    69.074169  0.047571742  0.052814041            2 
  122000     1.233783   -5.2875336    69.509924  0.047479456    0.0527699            2 
  123000    1.1938199   -5.2848318     70.39389  0.047692337  0.052731012            2 
  124000    1.2119236   -5.2673948    71.355245  0.047953793  0.052699292            2 
  125000    1.1899323   -5.2933191    71.823521  0.047882347  0.052672714            2 
  126000    1.1826318   -5.3096646    72.427372  0.047901701  0.052646493            4 
  127000    1.2130168   -5.3044907     72.78356  0.047758241  0.052617752            1 
  128000    1.1925018   -5.3139675    73.495878  0.047848879   0.05258392            2 
  129000    1.1823597   -5.2803992    74.199363  0.047932405  0.052552906            1 
  130000    1.2126611   -5.2598265    74.670973  0.047866008  0.052524265            2 
  131000    1.2012618   -5.2551387    75.595971   0.04808904  0.052496057            2 
  132000    1.1993997   -5.3350309    75.840414  0.047879049  0.052465262            3 
  133000    1.2092708   -5.2810879    76.750668  0.048089391  0.052433135            2 
  134000    1.1992959    -5.320797    77.399961  0.048134304  0.052403902            3 
  135000    1.2199994   -5.3220671    77.944204  0.048113706  0.052379379            3 
  136000    1.1734464   -5.3034756    78.745683  0.048251031  0.052357341            3 
  137000     1.200223   -5.3146077    79.146394  0.048142575  0.052335547            3 
  138000    1.2122625   -5.3460034    79.781247  0.048177082  0.052313644            2 
  139000    1.2318671   -5.3741926    79.904303  0.047904258  0.052291372            3 
  140000    1.2018666   -5.2759214    81.278867  0.048380278  0.052272332            2 
  141000    1.1934033   -5.2966041    81.769365  0.048327048  0.052256229            5 
  142000    1.1999817   -5.3104209    82.017119  0.048132112  0.052234684            2 
  143000    1.1778506   -5.2802235    82.765869  0.048231858  0.052205991            3 
  144000    1.2211747   -5.2852496    83.429054  0.048280702  0.052176283            1 
  145000     1.212243   -5.2725889    83.862828  0.048197028  0.052150484            4 
  146000    1.1977475   -5.3318707    83.972141  0.047929304  0.052126399            1 
  147000    1.1862137   -5.3150649    84.979902  0.048174548  0.052099644            2 
  148000    1.1977717   -5.3020235    84.976903  0.047847355  0.052067165            5 
  149000    1.2046089   -5.3269631    85.477422  0.047806164  0.052034611            4 
  150000    1.1753777   -5.3019058    86.335031  0.047963906  0.052000196            1 
  151000    1.1478264    -5.339192    87.158502  0.048100719  0.051963388            2 
  152000    1.2158928   -5.3700738    87.450581  0.047944398  0.051931381            3 
  153000    1.2167672   -5.3228517    88.283334  0.048084604  0.051902559            3 
  154000    1.2028253   -5.3463627    88.771848  0.048036714  0.051877572            4 
  155000    1.2026111   -5.3407718    89.809784   0.04828483  0.051850093            4 
  156000    1.1855734   -5.2743145     90.31666  0.048246079  0.051827632            3 
  157000    1.1815862   -5.3245899    90.641869  0.048111395   0.05180557            2 
  158000    1.1519048    -5.378764    91.509645  0.048264581  0.051784551            3 
  159000    1.2022156   -5.3139038    91.954088  0.048193966  0.051763649            2 
  160000    1.1950446    -5.261419    93.146174  0.048513632  0.051744065            5 
  161000    1.2072636   -5.3398093    93.017798  0.048145858  0.051723275            2 
  162000    1.1958361   -5.3310844     93.74619  0.048223349  0.051698501            1 
  163000    1.2139766   -5.2825866    94.754376  0.048442932  0.051680448            3 
  164000    1.1820947   -5.2910274    95.409641  0.048480509  0.051663223            1 
  165000    1.1881212   -5.3074098    95.494514  0.048229552  0.051642812            3 
  166000    1.1994551    -5.308457    96.314001  0.048350402  0.051621379            3 
  167000    1.2004291   -5.3171809    97.060146  0.048433207  0.051606285            4 
  168000    1.1803779   -5.3319132    97.751843  0.048488017  0.051587427            2 
  169000     1.177925   -5.3345418    97.760821  0.048205533  0.051567071            2 
  170000    1.1680309   -5.3174426    98.866574  0.048464007  0.051546132            1 
  171000    1.2048417   -5.3327034    99.151272  0.048319333  0.051527304            5 
  172000    1.1801745   -5.3293542    99.686263  0.048297608  0.051505811            2 
  173000    1.2216719   -5.3548355    100.23618  0.048283323  0.051482408            2 
  174000     1.213029   -5.3291356    100.69652  0.048226305  0.051462432            3 
  175000    1.1925899   -5.3256171    101.87086  0.048509933   0.05144422            1 
  176000    1.1915757   -5.3394602    102.07811  0.048332439  0.051429533            7 
  177000    1.1815195   -5.3678542    102.87853  0.048436217  0.051417283            2 
  178000    1.1717052   -5.3116552    103.32844  0.048374736  0.051406265            2 
  179000    1.1747083   -5.3625351    103.95622  0.048396751   0.05139311            3 
  180000    1.1789371   -5.3907663    104.74875  0.048494794  0.051384048            3 
  181000    1.1992374   -5.3199449    105.54031  0.048591303  0.051377764            2 
  182000    1.1751851   -5.3046262    106.52929  0.048777148  0.051371563            1 
  183000    1.1834613   -5.3024921    107.01373  0.048731205  0.051365241            3 
  184000     1.174145   -5.3118693    106.94809  0.048436634  0.051352996            5 
  185000    1.1543772   -5.3434767     107.0829  0.048235539  0.051336961            5 
  186000    1.1654381   -5.3322294    108.48554   0.04860463  0.051319803            2 
  187000    1.1653117   -5.3382145    108.90509  0.048531681  0.051304486            3 
  188000    1.1621633   -5.3234853    109.09658  0.048358415  0.051287002            3 
  189000    1.1323574   -5.3523649    109.83732  0.048429154  0.051268841            3 
  190000    1.1830656   -5.3601165    110.55208  0.048487756  0.051247288            2 
  191000    1.1799545   -5.3587013     110.5655  0.048239746  0.051226822            3 
  192000    1.1815024   -5.3159948    111.29167  0.048303674  0.051205236            2 
  193000    1.1699639   -5.3496777    112.11993  0.048411022  0.051185721            3 
  194000    1.1848388   -5.3815846    112.10733   0.04815607  0.051163295            4 
  195000    1.1822201   -5.3269867    112.95184  0.048270016   0.05114198            2 
  196000    1.1949348   -5.3343275    113.40699  0.048217256  0.051116386            2 
  197000    1.1559055   -5.3843056    113.55566  0.048035391  0.051095084            2 
  198000    1.1562261   -5.3305703    114.63614  0.048247532  0.051073316            3 
  199000    1.1643224   -5.3591403    115.30487   0.04828512  0.051051845            5 
  200000    1.1412781   -5.3509578    115.86908  0.048278784  0.051032114            5 
  201000    1.1734776    -5.349151    116.28384  0.048210547  0.051011612            3 
  202000    1.1648764   -5.3232157    117.59948  0.048514635  0.050993893            2 
  203000    1.1752447   -5.3668427    118.06119  0.048465185  0.050978708            2 
  204000    1.1671832   -5.3872995    118.37633  0.048356345  0.050960585            4 
  205000    1.1620187   -5.3457941    118.87442  0.048322934  0.050943591            2 
  206000    1.1758052   -5.3235079    119.15387  0.048201405  0.050924945            2 
  207000      1.18485   -5.3617766    119.55346  0.048129411  0.050905373            1 
  208000    1.1562055   -5.3857936    120.26388  0.048182643  0.050884815            3 
  209000    1.1805532   -5.3536973    121.02827  0.048256885  0.050862244            2 
  210000    1.1583465   -5.3641748    121.10434  0.048057279  0.050841609            6 
  211000    1.1935068   -5.3322133    122.10971  0.048226585  0.050819986            3 
  212000    1.1665223   -5.3965443    122.34118  0.048090086  0.050798859            2 
  213000    1.1843832   -5.3585865    123.45661  0.048300707  0.050779291            4 
  214000    1.1825677   -5.3733263    123.38627  0.048047611  0.050756532            3 
  215000    1.1490976   -5.3157951    123.92384  0.048032496  0.050730956            3 
  216000    1.1899587   -5.3452624    123.86578  0.047787723  0.050703384            2 
  217000    1.1664797   -5.3900226    123.97252  0.047608495  0.050669414            2 
  218000    1.1596828   -5.3852445    124.72487  0.047677701  0.050635317            3 
  219000    1.1628242   -5.3793728    126.07783  0.047974821  0.050608012            2 
  220000    1.1943108   -5.3947773    126.56545  0.047941457  0.050581811            4 
  221000    1.1654737   -5.3874441    125.95895  0.047495833  0.050553193            1 
  222000    1.1714243   -5.3820555    128.04213  0.048063863  0.050528281            2 
  223000    1.1893806   -5.3874679    128.64907  0.048075137  0.050506389            2 
  224000    1.1748928   -5.3863437    129.60891  0.048217601  0.050485489            4 
  225000    1.1595911   -5.3616084    129.65254  0.048019461  0.050466564            3 
  226000    1.1785769   -5.3800833     130.4972  0.048118438   0.05044534            6 
  227000      1.19404   -5.3863619    131.32221  0.048209328  0.050425432            3 
  228000    1.1550089   -5.3670272    131.43421  0.048038819  0.050407104            2 
  229000    1.1688134   -5.3796388    131.91338  0.048003414  0.050388718            1 
  230000    1.1897156   -5.4047749    132.12748  0.047872277  0.050366408            1 
  231000    1.1842086   -5.3788815    132.53218  0.047811032  0.050339812            2 
  232000    1.1449986    -5.380219    133.19478  0.047842953  0.050312121            3 
  233000     1.147161   -5.3795108    133.03758  0.047581395  0.050283456            2 
  234000    1.1469611   -5.4111398    133.67572  0.047605315  0.050254499            4 
  235000    1.1616146   -5.3707746    134.60647   0.04773279  0.050226236            3 
  236000    1.1242726   -5.3856758    135.03753  0.047682742  0.050198293            3 
  237000    1.1617396   -5.4018224    135.30277  0.047574812  0.050168871            4 
  238000    1.1714186   -5.4196768    135.89977  0.047583952  0.050141521            3 
  239000    1.1504893   -5.3746303    137.04931  0.047785673  0.050116344            4 
  240000    1.1406757   -5.3956515    137.76906   0.04783648  0.050093234            2 
  241000    1.1538757   -5.3615788    137.82481  0.047657266  0.050070132            2 
  242000    1.1537607   -5.3921501    138.53109  0.047703544  0.050043893            4 
  243000    1.1518086   -5.3970468    139.03041  0.047678467   0.05001582            5 
  244000    1.1565477   -5.3948649    138.78354   0.04739875  0.049987784            1 
  245000    1.1162446   -5.3982016    139.25825  0.047366752  0.049958272            2 
  246000    1.1631444   -5.4200028    139.91625  0.047397102  0.049931603            1 
  247000    1.1357907    -5.375705    140.88931  0.047533506  0.049904948            8 
  248000    1.1796124   -5.3712338    141.04817  0.047395218  0.049875824            2 
  249000    1.1634112   -5.4016848    141.84405  0.047471234  0.049846417            4 
  250000    1.1492926   -5.3646867    142.62155  0.047540516  0.049817543            2 
  251000    1.1455366   -5.4388801    142.44996  0.047294143  0.049791832            3 
  252000    1.1692535   -5.3627613    144.03609  0.047630983  0.049765892            4 
  253000    1.1495084   -5.3764415    143.91674  0.047403404  0.049740778            4 
  254000     1.173317   -5.4241138    144.88934  0.047535872  0.049715669            4 
  255000    1.1581567   -5.4073372    144.69704  0.047286614  0.049688281            3 
  256000    1.1668166   -5.4145863     145.5732  0.047387108  0.049660456            2 
  257000    1.1427348   -5.4148194    146.11898  0.047379694   0.04963579            3 
  258000    1.1587212    -5.412543    147.61592  0.047679559  0.049613247            3 
  259000     1.149453   -5.4061823    147.01053  0.047300685  0.049590217            2 
  260000    1.1330889   -5.4269641    147.79254  0.047369403  0.049567842            3 
  261000    1.1496267    -5.427888    148.34626  0.047364707  0.049545529            3 
  262000    1.1348125   -5.4185173    149.10788  0.047426171  0.049522669            4 
  263000    1.1336199   -5.3975768    149.77308  0.047456617  0.049500933            3 
  264000    1.1490128   -5.4333843    150.41235  0.047478647  0.049477888            4 
  265000    1.1515863   -5.3674386    150.87633  0.047445388  0.049453542            2 
  266000    1.1744274   -5.4603497    151.24355  0.047382065  0.049432066            3 
  267000    1.1452467   -5.4545209    151.65144  0.047331911  0.049410444            2 
  268000    1.1609574   -5.4025973    152.64953  0.047465651  0.049387897            2 
  269000     1.136673   -5.4171418    152.62687  0.047282178  0.049366703            3 
  270000    1.1415229   -5.4134507    153.50918  0.047379375  0.049346923            3 
  271000    1.1590438   -5.4290664    154.40581  0.047480261  0.049325151            2 
  272000    1.1152065    -5.418248    154.33307  0.047283417  0.049305865            2 
  273000    1.1509253   -5.4106122    155.73126  0.047537015  0.049287065            4 
  274000    1.1449559   -5.4017726    156.74195  0.047670908  0.049270787            5 
  275000     1.130886   -5.4395301    157.06734  0.047596164  0.049254962            7 
  276000     1.156995   -5.4125608    157.26251  0.047482643  0.049239471            2 
  277000    1.1235971   -5.4099415    157.58523  0.047408311  0.049220634            2 
  278000    1.1465888     -5.44147    158.77654  0.047594886  0.049203753            3 
  279000    1.1590569   -5.4227717    158.67955  0.047395326  0.049184615            3 
  280000    1.1499637   -5.4308939    159.16598  0.047370827  0.049165764            2 
  281000    1.1411913   -5.4382606    159.53345  0.047311223  0.049146787            3 
  282000    1.1821873   -5.4349709    160.74361  0.047501065  0.049128654            2 
  283000    1.1294764   -5.4035544    161.45016  0.047541271  0.049111096            4 
  284000    1.1694278   -5.4508634    161.69877  0.047446823  0.049093487            5 
  285000    1.1153807   -5.4622158    161.83084  0.047318959  0.049077435            3 
  286000    1.1166431   -5.3902995    162.74472  0.047419791  0.049060276            2 
  287000    1.1511775   -5.4216698    163.69029  0.047529121  0.049045426            2 
  288000    1.1655605    -5.411094    164.46011  0.047586836  0.049030927            3 
  289000    1.1401448   -5.4518492    164.55401  0.047449252  0.049017261            3 
  290000    1.1695554   -5.4351619    165.47426  0.047550074  0.049002863            2 
  291000    1.1506038   -5.4568674    165.69483  0.047449837  0.048987899            3 
  292000    1.1539872   -5.4283839    167.16882  0.047707998  0.048975666            2 
  293000    1.1520776   -5.3921792    167.29246  0.047580337  0.048962593            3 
  294000    1.1420037   -5.4185225    167.24238  0.047404303  0.048949372            2 
  295000    1.1269374   -5.4405555    167.98947  0.047454651  0.048937183            2 
  296000    1.1242218    -5.448454    168.34964  0.047395733  0.048923147            2 
  297000    1.1608125   -5.4262518      169.123  0.047453142  0.048908629            2 
  298000    1.1388082   -5.4092412    169.28774  0.047339971  0.048892867            3 
  299000    1.1541397   -5.4268916    169.90773  0.047354439    0.0488781            5 
  300000    1.1249912   -5.4311872    171.05803   0.04751612  0.048863691            3 
  301000    1.1289895   -5.4380552    171.96751  0.047610052  0.048850584            3 
  302000    1.1302526    -5.441969    170.95333  0.047172553  0.048834346            5 
  303000    1.1376147    -5.438337    172.42253  0.047420937  0.048818288            5 
  304000    1.1347192   -5.4564352    172.53395  0.047295491  0.048803294            6 
  305000    1.1274485   -5.4343513     173.2256    0.0473294   0.04878829            3 
  306000    1.1395116   -5.4087618    174.20561  0.047441616  0.048775252            3 
  307000    1.1332739    -5.437993    174.51538  0.047371167  0.048760712            2 
  308000    1.1189079   -5.3841107    174.83166  0.047302939  0.048744971            2 
  309000     1.125082   -5.4553644      174.446  0.047045847  0.048727357            2 
  310000    1.1172245   -5.4458024     175.7553  0.047246048  0.048710219            3 
  311000    1.1298621   -5.4387461    176.29467  0.047238658  0.048694208            2 
  312000    1.0982241   -5.4366067    176.82044  0.047227681  0.048680449            1 
  313000    1.1310357   -5.4302952    177.91276  0.047367614  0.048665071            2 
  314000    1.1287242   -5.4618573    177.29125  0.047051819  0.048648411           11 
  315000    1.1445083   -5.4154683    178.97303  0.047347364  0.048630832            3 
  316000    1.1236746    -5.420189     179.4551  0.047324658   0.04861581            3 
  317000     1.177071   -5.4680397    178.88141  0.047024556    0.0486008            3 
  318000    1.1254117   -5.4592003     179.5505  0.047052018  0.048583659            5 
  319000    1.1433384   -5.4923825    179.78062  0.046964634  0.048566069            2 
  320000    1.1175541   -5.5056265    179.87345  0.046842045  0.048546584            2 
  321000    1.1355805   -5.4859597    180.68324  0.046906346  0.048527298            2 
  322000    1.1306115   -5.4705926    181.42453  0.046952519  0.048508639            2 
  323000      1.13755   -5.5155363    181.93242  0.046938189  0.048489753            2 
  324000    1.1376162   -5.4717745    182.40682  0.046915334  0.048471044            2 
  325000    1.1446216   -5.4905744    182.56149  0.046810637  0.048454075            4 
  326000    1.1372052   -5.4656927    183.37724  0.046875571  0.048436362            1 
  327000     1.134693   -5.4352445    184.13562   0.04692549  0.048418307            3 
  328000    1.1060704   -5.4295519    184.96267  0.046992547  0.048401968            5 
  329000    1.1366338   -5.4637622     185.3663  0.046951951  0.048383769            3 
  330000    1.1275793   -5.4654091    184.60538  0.046617519  0.048365314            3 
  331000    1.1230513   -5.4810074    185.71774  0.046756733  0.048346137            5 
  332000    1.1281212   -5.4766894    185.96938  0.046679062   0.04832805            2 
  333000     1.113243   -5.4727299     186.4746  0.046665315  0.048307896            2 
  334000     1.177017   -5.5050634    187.31467  0.046735196  0.048287823            5 
  335000    1.1001204    -5.467438    188.00129   0.04676649  0.048267526            2 
  336000    1.1217977   -5.4266105    188.52348  0.046756816  0.048247346            4 
  337000    1.1396618   -5.4464501    189.21933  0.046790142  0.048228301            4 
  338000    1.1225931   -5.4844055    189.16903  0.046639308  0.048207502            4 
  339000    1.1024019   -5.4398253    189.34934  0.046546052  0.048187151            2 
  340000    1.1053352   -5.4931198      189.826  0.046525981  0.048165675            2 
  341000    1.1203107   -5.4559603    190.27229  0.046498605  0.048143075            2 
  342000    1.1246688   -5.4438349    191.12874   0.04657133  0.048120867            2 
  343000    1.1205243   -5.4659566    191.67299  0.046567781  0.048098776            3 
  344000    1.1123023   -5.4874763    192.42426  0.046614405  0.048076769            3 
  345000    1.1050459   -5.4678619    192.75939  0.046560239  0.048055445            2 
  346000    1.1186248   -5.5091716    192.92038  0.046464446  0.048034332            4 
  347000    1.1145508   -5.4584451    193.91558  0.046569544  0.048011527            4 
  348000    1.1132767   -5.4731702    193.56936  0.046352817  0.047990169            4 
  349000     1.092085   -5.4358067    195.27825  0.046628043  0.047969689            3 
  350000    1.1128502   -5.4879625    194.80166  0.046381347  0.047949891            3 
  351000    1.0939036    -5.524133    194.51594  0.046181371  0.047928176            7 
  352000    1.1438567    -5.491928     195.9894  0.046399004  0.047906558            4 
  353000    1.1093091   -5.4848077      196.168  0.046309727  0.047887287            2 
  354000    1.1180755   -5.4906129    196.56742  0.046272933  0.047867201            6 
  355000    1.1536169   -5.5012207    197.37741  0.046332724  0.047844904            3 
  356000    1.1302576   -5.4671675    198.20555   0.04639643  0.047823387            2 
  357000    1.0991076   -5.5077946    197.79309  0.046170189  0.047802028            3 
  358000    1.1063661    -5.474949    198.75043  0.046264066  0.047780094            2 
  359000     1.110843   -5.4582443    199.64489  0.046342824  0.047758449            3 
  360000    1.1052579   -5.4788565    199.20217  0.046111613  0.047736138            3 
  361000    1.1122144   -5.4763509    200.42766  0.046266772  0.047714961            3 
  362000    1.1275243   -5.5152589    200.41514  0.046136083  0.047691845            2 
  363000    1.0999626   -5.4786693    200.97399  0.046137278  0.047670302            5 
  364000    1.0986675   -5.4763148    201.65255  0.046165877  0.047647876            3 
  365000    1.0894785   -5.5204024    200.94445  0.045877728  0.047625652            3 
  366000    1.0852859   -5.4944162    202.47352  0.046100528  0.047603191            2 
  367000    1.1167027    -5.455293     203.8645  0.046290758  0.047580442            2 
  368000    1.0943918   -5.4990032    203.44622  0.046070249  0.047559163            1 
  369000    1.0865766   -5.4592242    204.46136  0.046174653  0.047537514            4 
  370000    1.0957723   -5.4877456    204.62528  0.046086774  0.047515461            3 
  371000    1.1120718   -5.5175038    204.71234  0.045982108  0.047494463            4 
  372000      1.12164   -5.5047905     205.0157  0.045926455  0.047474863            2 
  373000    1.0967884   -5.5007158    206.68243  0.046175699  0.047455389            2 
  374000    1.0797918    -5.489687    207.42404  0.046217478  0.047435477            3 
  375000      1.08002   -5.5021775    206.47027  0.045882283    0.0474151            2 
  376000    1.0981339   -5.4823982    206.62188  0.045793856  0.047393634            3 
  377000    1.0905084   -5.4918322    207.50947  0.045868584  0.047371522            4 
  378000    1.1008291   -5.5025393    207.93901  0.045841933  0.047348909            2 
  379000     1.100469   -5.5432684    208.25509  0.045790476  0.047325874            3 
  380000    1.1169464    -5.505196    209.23168   0.04588414  0.047301456            2 
  381000    1.1023193    -5.502347    209.34402   0.04578828  0.047277504            3 
  382000    1.1262008   -5.5176235    210.00052  0.045811632  0.047255056            3 
  383000    1.0809684   -5.5092966    211.01415  0.045912565  0.047233684            5 
  384000    1.1085196    -5.533546    211.17238  0.045827339  0.047211939            3 
  385000    1.0931148   -5.5062376    211.44394  0.045767086  0.047189375            6 
  386000    1.1018256   -5.5140427    211.80393  0.045726236  0.047167455            3 
  387000    1.0770463   -5.5122922    212.35401  0.045726532   0.04714544            2 
  388000    1.0960962   -5.5235198    213.66958  0.045891232  0.047124313            4 
  389000    1.0964762   -5.5209685    213.68701  0.045776994  0.047102658            2 
  390000    1.0982808   -5.5028323    214.13588   0.04575553  0.047082432            2 
  391000    1.1007138   -5.4770814    215.36802  0.045901111  0.047062442            6 
  392000    1.1002662   -5.5060805     216.5905  0.046043898  0.047044374            3 
  393000    1.1515675   -5.5314662    216.40259  0.045886892  0.047026335            2 
  394000     1.083762   -5.5139937    216.91582  0.045878981  0.047007584            3 
  395000    1.0921858   -5.5099429     216.5836  0.045692742  0.046988192            2 
  396000    1.1009688   -5.4980222    217.25701  0.045719068  0.046968213            3 
  397000    1.1107869   -5.5317537    217.13277  0.045577828  0.046947593            3 
  398000    1.0842299   -5.5344819    217.15239  0.045467418  0.046927234            4 
  399000    1.1051194   -5.5239963    217.72135  0.045472295  0.046905421            1 
  400000    1.1055375   -5.4857126    218.19213  0.045456693   0.04688309            2 
  401000    1.0913483   -5.5018704    218.79612  0.045468853  0.046862307            2 
  402000    1.1077322   -5.5641259    218.41371  0.045276473  0.046839051            2 
  403000    1.1215343   -5.5148148    220.29979  0.045554134  0.046815941            4 
  404000    1.0701396   -5.5339782    220.50367  0.045483429   0.04679334            3 
  405000    1.1258505   -5.5283677    221.37294  0.045549988  0.046771266            6 
  406000    1.0911693    -5.521862    221.51966  0.045467911  0.046750467            3 
  407000    1.0685657   -5.5769369     221.7902  0.045411588  0.046728111            3 
  408000    1.0813278   -5.5218807    221.89016  0.045320703  0.046706048            3 
  409000    1.1180504   -5.5414748    221.90566  0.045213052  0.046684381            5 
  410000    1.0860808   -5.5794734    222.57572  0.045238967  0.046663015            2 
  411000    1.0798475   -5.5320684    224.30703  0.045479932  0.046642714            4 
  412000    1.0995458    -5.525687    225.37201  0.045584953  0.046622821            6 
  413000    1.0878216   -5.5233327    225.33965  0.045468049  0.046603318            4 
  414000    1.0941193    -5.546298    224.96242  0.045282291  0.046584249            2 
  415000    1.0910186   -5.5146719    226.54829  0.045491625  0.046565237            4 
  416000    1.1165183   -5.5255056    226.71959  0.045416584  0.046547877            3 
  417000     1.078116    -5.560596    226.67044   0.04529785  0.046529327           13 
  418000    1.1066875   -5.5105066    227.66955  0.045388667  0.046509432            4 
  419000    1.0965844   -5.5160492    227.94319  0.045334764  0.046489098            3 
  420000    1.0860456   -5.5608698    227.76605  0.045191676  0.046467329            6 
  421000    1.0578606   -5.5293487    227.68791  0.045068866  0.046446577            2 
  422000     1.105433   -5.5289315    228.80757  0.045183169  0.046425408            4 
  423000    1.0699263   -5.5598142     229.9958  0.045310441  0.046404794            4 
  424000    1.0842217     -5.50469    230.11638  0.045227277  0.046384217            3 
  425000    1.1065561    -5.558564    230.87058   0.04526874  0.046363655            4 
  426000     1.061468    -5.523753    231.52703  0.045290891  0.046343534            5 
  427000    1.0988713   -5.5456563    231.69045  0.045216715   0.04632291            5 
  428000    1.0685272   -5.5752571    231.15443  0.045006704  0.046301498            3 
  429000    1.0976794    -5.567071    232.14068  0.045093373  0.046280104            5 
  430000    1.0645725   -5.5691579    232.27106  0.045013771  0.046258949            3 
  431000     1.096265   -5.5506226    232.98094  0.045046585  0.046238442            6 
  432000    1.0798387   -5.5021799     234.5856  0.045251851  0.046217655            3 
  433000    1.0958975   -5.5165099    233.79919  0.044995995  0.046198275            3 
  434000    1.0985087   -5.5580928    235.11432  0.045144839  0.046177768            4 
  435000    1.1022906   -5.5974101    234.81845  0.044984378  0.046157798            2 
  436000    1.0953093   -5.5388667    234.74464  0.044867094  0.046136894            5 
  437000    1.0659729   -5.5409262    235.52706  0.044913626   0.04611512            3 
  438000    1.0736224    -5.542223     235.4258   0.04479182  0.046093776            2 
  439000    1.0767091   -5.5373043    237.06238  0.045000452  0.046071679            2 
  440000    1.0699843   -5.5197071    237.67343  0.045013907  0.046049783            3 
  441000    1.0850796   -5.5877888     236.4638  0.044683257  0.046027628            8 
  442000    1.0665831   -5.5313194    237.16842  0.044715011  0.046003905            3 
  443000    1.0784004   -5.5605424    236.74161  0.044533786  0.045979179            4 
  444000    1.0808837   -5.5659568     237.4966  0.044575187  0.045956305            4 
  445000    1.0777967    -5.587391    237.47177  0.044470368  0.045932558            2 
  446000     1.098772    -5.577367     238.3971  0.044543553   0.04590914            4 
  447000     1.087472   -5.5843517    238.53504   0.04446962  0.045884773            3 
  448000     1.079832   -5.5701781    238.96585  0.044450494  0.045861144            2 
  449000      1.07098   -5.5718951    239.43468  0.044438507  0.045837836            3 
  450000    1.0500934   -5.5156966    241.04851  0.044638612  0.045814912            3 
  451000    1.0857594   -5.6147627     240.2642  0.044394716  0.045790715            2 
  452000    1.0885379   -5.5604456    241.60841  0.044544323  0.045767572            5 
  453000    1.0532823   -5.5469199    241.74972  0.044471986  0.045745341            3 
  454000    1.0739472   -5.5655851    242.77555  0.044562325  0.045721984            5 
  455000    1.0739231     -5.58042    243.02668  0.044510382  0.045699498            2 
  456000    1.0931581   -5.5560475    243.23173  0.044450242  0.045677489            3 
  457000    1.0863416   -5.5805894    244.54893  0.044593168  0.045655991            1 
  458000    1.0588605   -5.5631127    244.51164  0.044489017  0.045635352            2 
  459000    1.0902814   -5.5463546    245.25775   0.04452755   0.04561497            2 
  460000    1.0822759   -5.5589919    245.84833   0.04453774  0.045594015            6 
  461000    1.0764575   -5.5639031    246.61252   0.04457927  0.045572793            4 
  462000    1.0740513   -5.5954487    246.26856  0.044420736  0.045552721            5 
  463000    1.0808315   -5.5964363    246.43995  0.044355643   0.04553109            3 
  464000    1.0771099   -5.6053918    247.68113  0.044482962  0.045510048            5 
  465000    1.0454889   -5.5775653    247.27851  0.044315145  0.045489104            2 
  466000    1.0738501   -5.5361512    248.46951  0.044433032  0.045467719            2 
  467000    1.0811355   -5.5915032    248.20664  0.044290977  0.045445712            5 
  468000    1.0751302   -5.5654055    249.89261  0.044496547  0.045423729            3 
  469000    1.0641124   -5.5567857    250.13246  0.044444289  0.045402007            3 
  470000    1.0797889   -5.5946019    249.01471  0.044151544  0.045380634            3 
  471000    1.0779596   -5.6103752    249.96201  0.044225409  0.045358981            6 
  472000    1.0748631   -5.5475061    251.13284  0.044338425  0.045337735            2 
  473000    1.0605401   -5.5704122    251.54621  0.044317515  0.045316857            2 
  474000    1.0690604   -5.6065978    250.91952  0.044113839   0.04529583            3 
  475000    1.0653659   -5.5787607     252.0547  0.044220124  0.045274123            2 
  476000    1.0382306   -5.5900339    252.75735  0.044250236  0.045252939            3 
  477000    1.0943237   -5.6112624     252.2618  0.044070894  0.045230563            2 
  478000    1.0539133   -5.5917002    253.32093  0.044163342  0.045208576            2 
  479000    1.0943449   -5.5629067    253.60106  0.044119878  0.045187389            3 
  480000    1.0861765   -5.5904827    254.02169  0.044100987  0.045166402            2 
  481000    1.0553231   -5.6405822    253.04757  0.043840535  0.045144113            4 
  482000    1.0475781   -5.5741107     255.0195  0.044090508  0.045121968            3 
  483000    1.0590547   -5.5865676    255.18851  0.044028383  0.045100747            5 
  484000    1.0710901   -5.6142243    255.25947  0.043949633  0.045079451            6 
  485000     1.059873   -5.6171052    255.77826  0.043948155  0.045057174            9 
  486000    1.0663174   -5.6306959    255.56104  0.043820481  0.045035933            2 
  487000    1.0600641   -5.6075497    257.34712  0.044036126  0.045014867           10 
  488000    1.0676315   -5.6081367     256.9811  0.043883385  0.044992568            2 
  489000    1.0697899   -5.5933965    256.48323  0.043708798   0.04496948            2 
  490000    1.0587992   -5.5918782    257.16702  0.043735888   0.04494638            2 
  491000    1.0774081    -5.588648    258.06323  0.043798918  0.044922616            2 
  492000    1.0779511   -5.6388431    258.28135  0.043746841   0.04489931            5 
  493000     1.054649   -5.5723158    259.01348  0.043781859  0.044875793            6 
  494000    1.0554236   -5.5523381    261.12002  0.044048587  0.044852893            2 
  495000    1.0974528   -5.6318365    259.15045  0.043628022  0.044830657            2 
  496000    1.0598172   -5.5800658    261.36404  0.043911968  0.044808214            2 
  497000    1.0597036   -5.5995974    259.98121  0.043591752  0.044784717            3 
  498000    1.0520995   -5.5975727    261.08564  0.043689029  0.044760855            3 
  499000    1.0458312   -5.6087008    261.15665  0.043613335   0.04473803            2 
  500000    1.0555613   -5.6032291    261.69664  0.043616107  0.044715271            4 
  501000    1.0470097   -5.5978723    261.67979  0.043526246  0.044692655            4 
  502000    1.0458073   -5.6348647    261.90343  0.043476665  0.044669126            3 
  503000    1.0634332   -5.5813435    262.52968  0.043493982  0.044645456            3 
  504000    1.0311175   -5.6206688    262.78295  0.043449562  0.044621409            1 
  505000    1.0444866   -5.5881916    263.48019   0.04347858  0.044596774            3 
  506000     1.055715   -5.6038273    262.83282  0.043286037   0.04457281            3 
  507000    1.0533572   -5.6156286    264.06321  0.043402894   0.04454875            6 
  508000    1.0294506   -5.5983024    265.19554  0.043503205  0.044525493            4 
  509000    1.0293302   -5.5948698    265.76968  0.043511736  0.044502142            3 
  510000    1.0571197   -5.6195716    265.96485  0.043458309  0.044478982            4 
  511000    1.0412529   -5.5740748    266.44225  0.043451116  0.044455529            3 
  512000     1.046771    -5.635326    265.75631  0.043254608  0.044432667            4 
  513000    1.0556285   -5.5749625    267.12189   0.04339212   0.04440942            8 
  514000    1.0312136   -5.6050665    266.57706  0.043219368  0.044386404            4 
  515000    1.0350371   -5.5989165    267.28582  0.043250133  0.044362328            3 
  516000    1.0481522   -5.6374198    266.40169  0.043023528  0.044337233            4 
  517000    1.0371727   -5.6050805    266.97814  0.043033226   0.04431219            3 
  518000    1.0633662   -5.6220236    268.04283  0.043121434  0.044287051            5 
  519000    1.0522193   -5.6164403    268.61708  0.043130552  0.044261855            3 
  520000    1.0445255   -5.6297619    267.65983  0.042894204  0.044237616            4 
  521000    1.0578874   -5.6099037     269.1501   0.04305024  0.044212553            5 
  522000    1.0454203   -5.6359432    269.29347  0.042990657  0.044187119            4 
  523000     1.033855   -5.6485065    269.36804  0.042920338  0.044162786            2 
  524000    1.0273621   -5.6358831    270.26029  0.042980325  0.044138677            6 
  525000    1.0558767   -5.6119381    271.59879  0.043110918  0.044115332            3 
  526000    1.0283662   -5.6230875    271.98712  0.043090481  0.044093383            5 
  527000    1.0499297   -5.6623574    270.32115  0.042745281   0.04406989            2 
  528000     1.037862   -5.6521124    272.84467  0.043062605  0.044047112            2 
  529000    1.0500053   -5.6441602    273.37258  0.043064364  0.044024198            3 
  530000    1.0653154   -5.6331279    274.97343  0.043234816  0.044003073            4 
  531000    1.0480542   -5.6147945    274.83503  0.043131674  0.043981775            2 
  532000    1.0338533   -5.6144726    275.48169  0.043151894  0.043960394            2 
  533000    1.0247579   -5.6707728    274.19139  0.042869198  0.043938107           12 
  534000       1.0248   -5.6470902    275.80181  0.043040233   0.04391546            3 
  535000     1.028862   -5.6172148    275.85822   0.04296857  0.043893495            7 
  536000    1.0480104   -5.6375108    276.06303  0.042920248  0.043871731            6 
  537000    1.0539898   -5.6359594    276.71456  0.042941428  0.043849936            6 
  538000    1.0477302   -5.6602998    277.03631  0.042911448  0.043828417            6 
  539000    1.0318374   -5.6561608    277.91197  0.042967219   0.04380742            6 
  540000    1.0389172   -5.6465807     277.6222  0.042842932  0.043785293            7 
  541000    1.0328584   -5.6413462    279.12165  0.042994709  0.043763507            2 
  542000    1.0583048   -5.6617231    278.51324  0.042821838  0.043741843            3 
  543000    1.0431279   -5.6551374    278.98905  0.042815999  0.043720502            2 
  544000    1.0346959   -5.6459733    278.93759   0.04272941  0.043698956            6 
  545000    1.0534718   -5.6558508    279.43969  0.042727782  0.043677194            3 
  546000    1.0420696   -5.6494909    279.69548  0.042688565  0.043655196            4 
  547000    1.0413334   -5.6412479    281.54178  0.042891801  0.043633435            4 
  548000    1.0348389   -5.6362622    280.23332  0.042614557  0.043611096            2 
  549000    1.0339771   -5.6558873    282.11708  0.042822871  0.043589012            3 
  550000    1.0278421   -5.6540053    281.48954   0.04264993  0.043566909            5 
  551000    1.0310172   -5.6631896    282.23077  0.042684629  0.043544958            2 
  552000    1.0414843   -5.6587911     283.3015  0.042768947  0.043523778            2 
  553000    1.0507813   -5.6768208    282.97718  0.042642734   0.04350238            6 
  554000    1.0101881   -5.6351992    283.97707  0.042716166  0.043481686            4 
  555000    1.0345045   -5.6505301    283.82804  0.042616822  0.043459789            5 
  556000    1.0189342   -5.6575128    284.47944  0.042637805   0.04343839            3 
  557000    1.0186076   -5.6159923    286.48746  0.042861679  0.043417725            2 
  558000    1.0317412   -5.6901737    283.27227    0.0423047  0.043396302            4 
  559000    1.0282433    -5.684603    285.36714  0.042541314  0.043374179            2 
  560000    1.0480494   -5.6243674    285.99317  0.042558508  0.043352043           10 
  561000    1.0237054   -5.6764926    285.69053  0.042437691  0.043329441            3 
  562000    1.0174026   -5.6764728    285.36592  0.042314046  0.043306968            2 
  563000    1.0356692   -5.6867231    285.66526  0.042283193  0.043284425            8 
  564000    1.0100818   -5.7091267    286.18381  0.042284842  0.043261727            4 
  565000    1.0294396   -5.6738673    286.81119  0.042302536  0.043238608            5 
  566000    1.0390003   -5.6409826    287.33906  0.042305515  0.043215899            3 
  567000    1.0477479   -5.6367764    288.40205  0.042387132  0.043193933            5 
  568000    1.0245555   -5.6419138    289.08602  0.042412856  0.043172163            4 
  569000    1.0242861   -5.6780324    288.26842  0.042218573  0.043150222            2 
  570000    1.0383426   -5.6712673    289.22098  0.042283769  0.043128199            3 
  571000    1.0190202   -5.7212474    288.46099  0.042098802  0.043106014            3 
  572000    1.0335414   -5.6254568    291.39682  0.042452916  0.043084171            4 
  573000    1.0239953   -5.6142203    291.67561  0.042419374  0.043062945            3 
  574000    1.0271117   -5.6623509    290.53881  0.042180432  0.043041385            4 
  575000     1.004215   -5.6813263    292.26907  0.042357836  0.043019841            3 
  576000    1.0319962   -5.6571179    291.49778  0.042172712  0.042998213            5 
  577000    1.0175884   -5.6961654    291.22001  0.042059505  0.042976385            7 
  578000    1.0250224   -5.6828657    292.35309  0.042150099  0.042953661            4 
  579000    1.0247346   -5.7054169    291.89085  0.042010772  0.042931285            2 
  580000    1.0019337   -5.7024137    292.24561  0.041989312  0.042909007            4 
  581000    1.0192696   -5.6622589    293.26605  0.042063404  0.042886853            6 
  582000    1.0058343   -5.6875454    293.77409  0.042063873  0.042865519            5 
  583000    1.0178465   -5.6928493    294.06685   0.04203357  0.042843403            2 
  584000    1.0267989   -5.6786972    293.69723  0.041908851  0.042821073            1 
  585000    1.0227832    -5.668663    294.39866  0.041937131  0.042799098            5 
  586000     1.015653   -5.7107319     293.5158  0.041740017  0.042776754            3 
  587000    1.0048703   -5.6684844    295.34143  0.041928085  0.042754512            5 
  588000    1.0133787   -5.6964434    295.42581  0.041868737  0.042732171            2 
  589000    1.0003049   -5.6757777    296.09088  0.041891748  0.042709235            2 
  590000    1.0065769   -5.6992914    295.72138  0.041768557  0.042686829            7 
  591000    1.0330151   -5.6836278    297.16411  0.041901312  0.042665117            6 
  592000    1.0287608   -5.6660685    298.36346  0.041999361  0.042643896            4 
  593000    1.0086401   -5.6679404    297.77798   0.04184626   0.04262279            6 
  594000    1.0186493   -5.6823177    298.35227  0.041856379  0.042601796            7 
  595000    1.0050448    -5.713388    299.37922  0.041929862  0.042580869            3 
  596000    1.0078909   -5.7047318     298.9609  0.041801021  0.042559501            2 
  597000    1.0244377   -5.6932314    299.28657  0.041776461  0.042538208            3 
  598000     1.008491   -5.7233567    298.82121  0.041641752  0.042516789            2 
  599000    1.0037295   -5.6552156    300.90209  0.041861726  0.042495681            3 
  600000    1.0181286   -5.6851672    300.88106  0.041789036  0.042475378            6 
  601000    1.0070351   -5.6880792     301.9363   0.04186582  0.042455279            3 
  602000    1.0265512   -5.7251695    301.40676  0.041722973  0.042433899            6 
  603000    1.0385605   -5.6970379    303.06297  0.041882666  0.042412514            4 
  604000   0.98702055   -5.6959394    302.01871  0.041669248  0.042391266            7 
  605000    1.0150847   -5.6993563    303.19033  0.041761753  0.042369867            3 
  606000    1.0215523   -5.6982484    303.52053  0.041738247  0.042348567            4 
  607000     1.017745   -5.7177525    301.50459  0.041392723  0.042326805            4 
  608000    1.0105376    -5.739275    302.61774  0.041477212  0.042304816            5 
  609000    1.0196631   -5.6788519     304.5009  0.041666789  0.042284091            5 
  610000     1.006711   -5.6932145     304.2945  0.041570286  0.042262517            5 
  611000   0.99772503   -5.7193266    304.33219  0.041507391   0.04224157            5 
  612000    1.0295625   -5.7348338    304.61493  0.041478068  0.042220639            5 
  613000    1.0160764   -5.7024112    304.88738  0.041447441  0.042199432            5 
  614000    1.0048285   -5.7120311    305.32058  0.041438732  0.042177718            5 
  615000   0.98778724   -5.7250236    304.71349  0.041289091  0.042156402            3 
  616000    1.0028861   -5.7058355    306.71606  0.041492974    0.0421349            8 
  617000    1.0062355   -5.7289687    305.98827  0.041327427  0.042113234            4 
  618000   0.97899199    -5.746632    306.37295  0.041312425  0.042091636            4 
  619000    1.0089755   -5.7223786    307.34889  0.041377072  0.042069865            4 
  620000    0.9825737   -5.7524965    307.57512  0.041340742  0.042048259            1 
  621000    1.0153265   -5.7404397    308.32845  0.041375262  0.042026988            3 
  622000    1.0287946   -5.7230837    309.28994  0.041437558   0.04200553            2 
  623000   0.99249643    -5.685768    309.26734  0.041368023  0.041984704            4 
  624000    0.9885995   -5.7367068    309.37974  0.041316738  0.041963922            4 
  625000   0.99377066   -5.7152678    309.12805  0.041217073  0.041942555            2 
  626000    1.0057743   -5.7181435    309.10774  0.041148528    0.0419219            5 
  627000   0.99050974   -5.7305373    310.59035   0.04127995   0.04190126            6 
  628000    1.0028522   -5.7002166    310.23916  0.041167617  0.041880291            2 
  629000    1.0278407   -5.6844181    311.92223   0.04132515  0.041858833            4 
  630000    1.0456922   -5.7015772    312.24444  0.041302175  0.041837569            5 
  631000   0.98884936   -5.6811223    311.16402  0.041094034  0.041816549            3 
  632000    1.0098384   -5.7330676    311.23917   0.04103892  0.041794733            4 
  633000   0.99696091   -5.7261166    312.05149  0.041081028  0.041772961            7 
  634000     1.000843   -5.7303851    312.68058   0.04109892  0.041751233            9 
  635000    1.0026077    -5.736239    312.98611  0.041074293  0.041729444            2 
  636000   0.99921113     -5.69112    313.83967   0.04112155  0.041708511            6 
  637000   0.98679759   -5.7179822    313.73235  0.041042955  0.041688441            4 
  638000    1.0025729   -5.7541142    313.45191  0.040941995  0.041667927            7 
  639000    1.0203074   -5.7367578    312.96163  0.040813984  0.041646775            4 
  640000   0.99916697   -5.7457987    313.66202  0.040841409  0.041625478            2 
  641000   0.99455998   -5.7248054    314.72873  0.040916371  0.041603548            4 
  642000   0.99178709   -5.7136611     314.9518  0.040881594  0.041582073            4 
  643000   0.99069513   -5.7216915    316.75091   0.04105118  0.041561282            2 
  644000    1.0009247   -5.7502632    315.08905  0.040772393  0.041539936            5 
  645000    1.0008316   -5.7479227    316.08783  0.040838221  0.041518766            5 
  646000   0.97863222   -5.7439016     315.7682  0.040733771  0.041497116            4 
  647000     1.013878   -5.7006775    317.24462  0.040860976  0.041475628            2 
  648000   0.97877638   -5.6929895    317.70889  0.040857625   0.04145407            3 
  649000   0.99830923   -5.7754488    317.45685  0.040762308  0.041432829            4 
  650000   0.99146331   -5.7583758    318.04062  0.040774438  0.041411875            4 
  651000   0.98832631   -5.7402412    318.29502  0.040744371  0.041390251            6 
  652000   0.99525592   -5.7408539    317.46461  0.040575743  0.041368504            4 
  653000   0.99269068   -5.7786554    318.67656   0.04066827  0.041346977            5 
  654000   0.99616272   -5.7516172    318.44912  0.040577105  0.041325346            7 
  655000     1.002521    -5.757229    318.43573  0.040513451  0.041303519            3 
  656000   0.98235716   -5.7399835    319.11971  0.040538582  0.041281833            3 
  657000   0.99740832   -5.7266031    320.15105  0.040607692  0.041260311            2 
  658000   0.97886307   -5.7806029     318.6551  0.040356523   0.04123816            3 
  659000    0.9787508   -5.7442529    319.91163  0.040454177  0.041215828            3 
  660000   0.99382771    -5.770926    319.88947  0.040390085  0.041193792            7 
  661000    1.0194791   -5.7194218    321.33819  0.040511623  0.041171653            3 
  662000   0.98773153    -5.714588    321.60406  0.040483895  0.041149449            5 
  663000   0.98876937   -5.7531534    321.21257  0.040373626  0.041126479            3 
  664000   0.97297508   -5.7574324    319.77664   0.04013261  0.041103655            3 
  665000   0.97144674   -5.7715513    321.92651  0.040341668  0.041080683            3 
  666000   0.99458581    -5.749187    322.42787  0.040343827  0.041057841            4 
  667000   0.99140747   -5.7413044    323.98768  0.040478221  0.041035715            4 
  668000   0.99207711   -5.7602227    322.04946   0.04017583  0.041014151            3 
  669000   0.98548059   -5.7511333    324.93899  0.040475709  0.040992392            2 
  670000     1.001927    -5.729182    324.66852  0.040381657  0.040970698            8 
  671000   0.98416523   -5.7759302    323.73049  0.040204979  0.040949253            5 
  672000   0.99805758    -5.776516    324.37141  0.040224629  0.040927159            5 
  673000    1.0075118   -5.7577627    324.57302  0.040189825  0.040904762           10 
  674000   0.98635436   -5.7646441    324.91157  0.040172054   0.04088298            3 
  675000   0.99221432   -5.7746547    325.57182  0.040194052  0.040861297            7 
  676000    0.9701639   -5.7778082    325.68199  0.040148174  0.040839802            3 
  677000   0.97398062   -5.7713857     325.5586  0.040073682  0.040818092            5 
  678000   0.96435373   -5.7828531     326.0985  0.040080937  0.040796355            2 
  679000   0.97900757   -5.7514468    326.42946  0.040062526  0.040773971            4 
  680000   0.97984061   -5.7550008    326.95536  0.040068059  0.040752098            4 
  681000   0.99752028   -5.7634261    327.00356   0.04001512  0.040729989            7 
  682000   0.97502127   -5.7725997    326.63297  0.039911165  0.040707772            2 
  683000   0.97824073   -5.7761534    327.83173  0.039998991  0.040685621            5 
  684000   0.98186967   -5.7854238    327.29001  0.039874513  0.040663321            5 
  685000   0.97991168   -5.8149722    328.11639  0.039916836  0.040640423            3 
  686000   0.98965846   -5.7342115    328.27776  0.039878251  0.040617202            3 
  687000    0.9902715   -5.7123419    329.02528  0.039910878  0.040594385            5 
  688000   0.97214923   -5.7705525    328.12695  0.039744059  0.040571281            2 
  689000   0.97411067   -5.7975312     327.5024  0.039610837  0.040547932            5 
  690000   0.98578178   -5.8000991    329.36923  0.039778893  0.040524715            7 
  691000   0.97707266   -5.8058645    328.55227  0.039622801  0.040501674            6 
  692000    0.9533664   -5.7941362    328.18655  0.039521501  0.040478311            3 
  693000   0.98542885   -5.7597393    330.76688  0.039774757  0.040455606            3 
  694000   0.97376674    -5.803269    329.16388  0.039524961  0.040432382            4 
  695000   0.97418805   -5.7640835    330.60056  0.039640354  0.040408784            2 
  696000   0.98505679   -5.7646184    331.16779  0.039651316  0.040385673            2 
  697000   0.95718608   -5.7331062    331.04981  0.039580322  0.040362595            4 
  698000   0.95603595   -5.7777653    330.73548  0.039486089  0.040339338            3 
  699000   0.97315559    -5.818764    330.95169  0.039455375  0.040315325            2 
  700000   0.98229719   -5.7921789    331.23813  0.039433111  0.040291096            4 
  701000   0.97720835   -5.8134924    330.62594  0.039304082  0.040266923            3 
  702000   0.97096104   -5.7943772    331.38604  0.039338324  0.040242667            5 
  703000   0.97678133   -5.8052352    331.79053  0.039330315   0.04021778            4 
  704000   0.96981825   -5.7948081    331.35022  0.039222327  0.040193109            4 
  705000   0.99176288   -5.7904483     331.7425  0.039213062  0.040169127            3 
  706000   0.98131042   -5.8234878    332.23988  0.039216228  0.040144997            4 
  707000   0.95682727   -5.7848862    332.02814  0.039135801  0.040120553            2 
  708000   0.99197623   -5.8083884    332.62782  0.039151109  0.040095881            2 
  709000   0.96597801   -5.8049114    332.88948  0.039126643  0.040071525            1 
  710000   0.97555261   -5.7755822    333.19692   0.03910762  0.040046951            1 
  711000   0.98771978   -5.7389561    334.29832  0.039181706  0.040022825            3 
  712000   0.97559729   -5.7826187    335.05201  0.039214889   0.03999866            6 
  713000   0.97281422   -5.8035105    333.70898  0.039002919  0.039974306            7 
  714000   0.96071439   -5.8304765    334.78536  0.039073922  0.039949903            4 
  715000   0.99161669   -5.8242602    333.90785  0.038916998  0.039925496            4 
  716000   0.96528023   -5.7752297    335.75479  0.039077606  0.039900977            2 
  717000    0.9637376   -5.8049711    334.93806   0.03892818  0.039876546            7 
  718000    0.9547276   -5.8015408    334.43239  0.038815273  0.039851681            3 
  719000   0.96803269   -5.8267777    334.99582   0.03882659  0.039826357            4 
  720000   0.95748877   -5.8283445    334.69317  0.038737635  0.039801148            4 
  721000   0.97602718   -5.8035852    336.40827   0.03888214   0.03977553            4 
  722000   0.95091916   -5.7890353    336.64361  0.038855449  0.039749911            4 
  723000   0.95145715   -5.8427499    335.52952  0.038673297  0.039724481            6 
  724000   0.96552467   -5.7948581    335.32922  0.038596826  0.039698762            5 
  725000   0.97375869   -5.8098206    336.86016  0.038719559  0.039672793            6 
  726000   0.96807907   -5.8171527    335.15153  0.038470102  0.039646835            4 
  727000    0.9526598   -5.8205467    336.03981  0.038519007  0.039621313            5 
  728000   0.96370454   -5.8408658    336.48991  0.038517618  0.039595801            2 
  729000   0.94640741   -5.8320965    336.28395  0.038441238  0.039569668            5 
  730000   0.96624205   -5.8237638    337.73667  0.038554414  0.039543945            4 
  731000   0.97145848   -5.8281177    338.43575  0.038581367  0.039518431            3 
  732000   0.96185828   -5.8117481    338.33259  0.038516916  0.039492877            2 
  733000   0.95539089   -5.8025222     337.3117  0.038348306   0.03946745            8 
  734000   0.96607926   -5.8059357    338.86085   0.03847194  0.039441641            7 
  735000   0.92586171   -5.8152081    338.99032  0.038434277  0.039416255            3 
  736000   0.94551561   -5.8094074    339.71342  0.038463929  0.039391323            3 
  737000   0.96567914   -5.7853916    340.18862   0.03846547  0.039366365            4 
  738000   0.94381986   -5.8821317    339.05282  0.038285097   0.03934116            5 
  739000   0.94236719    -5.850198    340.35834  0.038380508  0.039316061            3 
  740000    0.9558848   -5.8474837    340.75366   0.03837316  0.039290914            4 
  741000   0.97704805   -5.8125986    341.17339  0.038368578   0.03926566            3 
  742000   0.96191245   -5.8200755    342.30251  0.038443678  0.039241145            7 
  743000   0.97513082    -5.826866    342.38358  0.038401029   0.03921657            6 
  744000   0.93977515   -5.8381831    341.50781  0.038251323  0.039192243            3 
  745000   0.96279383   -5.8178401    342.50169   0.03831115  0.039167808            3 
  746000   0.94214069   -5.8160459    343.45458   0.03836624  0.039142791            6 
  747000   0.96145288   -5.8253459    343.67622  0.038339605  0.039118299            7 
  748000   0.96431405   -5.8320344    344.01795   0.03832642  0.039093815            6 
  749000   0.95940863   -5.8369159    344.05478  0.038279348  0.039069726            5 
  750000   0.94545799    -5.825153    344.34338  0.038260375  0.039044892            4 
  751000   0.94612152    -5.835898    343.36287  0.038100629  0.039020088            6 
  752000   0.99432846    -5.844351    343.76089   0.03809407   0.03899517           12 
  753000   0.96912757   -5.8119082    344.12288  0.038083541  0.038970279            2 
  754000   0.95114249   -5.8640952    343.37275  0.037950127  0.038944999            2 
  755000   0.93745101   -5.8436381    344.55488   0.03803034  0.038920099            6 
  756000   0.93468781   -5.8301164    345.03215  0.038032645  0.038895727            6 
  757000   0.95426552   -5.8451904    345.22323  0.038003438    0.0388711            3 
  758000   0.95209921   -5.8395081    344.75638  0.037901976  0.038846075            4 
  759000   0.93266065   -5.8408219    346.41726  0.038034394  0.038821719            3 
  760000    0.9480894   -5.8437138      346.267  0.037967873  0.038797352           10 
  761000   0.94018615   -5.8238447    346.91175  0.037988584  0.038773165            2 
  762000   0.94576279   -5.8387938     346.9987   0.03794824  0.038749009            6 
  763000   0.95277489    -5.831771    346.97384  0.037895788  0.038724869            4 
  764000   0.95123286   -5.8677043    347.33477  0.037885555  0.038700885            8 
  765000   0.93939446   -5.8271581    347.73075  0.037879166  0.038677467            3 
  766000   0.96032728   -5.7766097    349.98989  0.038075488  0.038653925            3 
  767000   0.93076045   -5.7989873    349.20468  0.037940535  0.038630356            3 
  768000   0.96027003   -5.8379042    349.43511  0.037916136  0.038606487            8 
  769000   0.93995489   -5.8423969     349.8218  0.037908734  0.038582511            4 
  770000   0.95960564   -5.8355678    349.69462  0.037845738  0.038559201            3 
  771000   0.95178219   -5.8675582    349.49137  0.037774683  0.038535193            4 
  772000   0.94870935   -5.8754873    349.12475  0.037686178  0.038511255           14 
  773000   0.94409482    -5.830703    349.94437  0.037725783  0.038486938            4 
  774000   0.95644354   -5.8486114    350.78071  0.037767087   0.03846284            9 
  775000    0.9225558   -5.9094818    349.08435  0.037535952  0.038438959            5 
  776000   0.95617602   -5.8668818    349.85833  0.037570697  0.038414463            2 
  777000   0.96313286   -5.8647504    350.15196  0.037553836  0.038390442            3 
  778000   0.92812919   -5.8585041     350.5209  0.037545084  0.038366417           11 
  779000   0.95107393   -5.8235493    351.33466  0.037583939  0.038341927            3 
  780000   0.94522894   -5.8697951    351.49149  0.037552509  0.038317703            2 
  781000   0.95972058   -5.8471776    350.92507  0.037443989  0.038292979            5 
  782000   0.94382349   -5.8367185    351.39983  0.037446699  0.038268336            3 
  783000   0.92392326    -5.822458    352.86045  0.037554326  0.038243905            5 
  784000   0.94303202   -5.8606518    351.27388  0.037337785  0.038219324            5 
  785000   0.92530607   -5.8357582     352.5254  0.037423078  0.038194649            4 
  786000   0.94957242   -5.8836999    352.35651   0.03735756   0.03816972            6 
  787000   0.93146102   -5.8657065    351.62638  0.037232781  0.038144689            4 
  788000   0.92830575   -5.8641622    351.91159  0.037215692  0.038119161            3 
  789000   0.90487221   -5.8499551    351.92104  0.037169523  0.038093837            3 
  790000   0.92193947   -5.9186177    350.97083  0.037022239  0.038068337           11 
  791000   0.93560456   -5.9174518    351.63304    0.0370452  0.038042939            4 
  792000   0.92821064   -5.8755106    353.22023  0.037165428  0.038017628            6 
  793000    0.9416713   -5.8734422    353.26274  0.037123028  0.037992653            4 
  794000   0.94380833   -5.8446187    353.30114  0.037080305  0.037968151            1 
  795000   0.95193183   -5.8752217    354.14209  0.037121813  0.037943757            4 
  796000   0.93549967   -5.8658121     353.4488  0.037002596   0.03791892            4 
  797000   0.89746878   -5.8673362    353.96165  0.037009792  0.037893654            9 
  798000    0.9306304   -5.9115272    354.70878  0.037041435  0.037868821            4 
  799000   0.92061964   -5.8834205    354.78135  0.037002644  0.037844055            6 
  800000   0.92940025   -5.8609385    354.97927  0.036977007  0.037819324            5 
  801000   0.92474962   -5.8399265    356.71593   0.03711152  0.037794615            7 
  802000   0.92696523   -5.9023901    354.91958  0.036878593  0.037769945            4 
  803000   0.92637504   -5.8721143    355.60649  0.036903953  0.037745085            6 
  804000   0.90822002   -5.8690916    356.45798  0.036946308  0.037720588            2 
  805000   0.92621245   -5.9128361    355.27045   0.03677748  0.037695792            3 
  806000   0.93194961   -5.9009846    355.84067  0.036790806  0.037670618            4 
  807000   0.91778429   -5.8957111    355.57583  0.036717868  0.037645537            5 
  808000   0.93104208   -5.8552477     358.1282  0.036935664  0.037620624            7 
  809000   0.90796697   -5.9056381    358.08253  0.036885304  0.037595665            2 
  810000   0.92852376   -5.8822459    356.40861  0.036667552  0.037570824            4 
  811000    0.9411847    -5.844436    358.27611  0.036814232   0.03754633            3 
  812000    0.9347152   -5.8726818    357.59214  0.036698701  0.037521924            5 
  813000   0.93519058   -5.8728878    358.40993  0.036737386  0.037496985            4 
  814000   0.94246466   -5.8625399    358.19081  0.036669821   0.03747227            3 
  815000   0.91996566   -5.8969542    358.32258  0.036638301  0.037447316            7 
  816000   0.92858291   -5.8985523    357.87621  0.036547816   0.03742232            7 
  817000   0.92126332    -5.964371    358.10847  0.036526771  0.037397288            9 
  818000    0.9430891   -5.8796537    358.85341  0.036558009  0.037372585            5 
  819000   0.91712547   -5.9233988    359.14018   0.03654255  0.037347724            5 
  820000   0.91599697   -5.9177901    359.06281  0.036490123  0.037322661            4 
  821000   0.94858013   -5.8757576    360.90246  0.036632405  0.037297927            7 
  822000   0.92179396   -5.9226653    359.43396  0.036438965  0.037273417            5 
  823000   0.92804149   -5.8936322    360.86004  0.036539089    0.0372486            7 
  824000    0.9263408   -5.9103139    360.70409  0.036478973  0.037223538            3 
  825000   0.92760991   -5.9530533     359.0984  0.036272565  0.037198023            6 
  826000   0.93123128   -5.9108894    360.83367   0.03640372   0.03717302            6 
  827000    0.9433506   -5.8767926    360.98301  0.036374749  0.037148244            7 
  828000   0.93513135   -5.8825273    361.03055  0.036335603  0.037123665            3 
  829000   0.91753404   -5.9403484     360.4524  0.036233655  0.037098794            3 
  830000   0.91764944    -5.942903    361.81115   0.03632642  0.037074069            4 
  831000   0.89800771   -5.9199641    362.21782  0.036323488  0.037049024            8 
  832000   0.91795686   -5.8980509    362.26285   0.03628434  0.037024289            3 
  833000   0.89434919   -5.9033677    362.89066  0.036303588  0.036999964           10 
  834000   0.92581649   -5.9241501    362.42873  0.036213902  0.036975247            8 
  835000   0.92448592   -5.9593058    361.62415  0.036090234  0.036950399            5 
  836000   0.90945768   -5.9400956    363.22458  0.036206597  0.036926073            5 
  837000   0.89714458   -5.9317544    363.97108  0.036237663  0.036901808            4 
  838000   0.92647895   -5.9290045    363.23951   0.03612167   0.03687782           11 
  839000   0.89809655   -5.9099842    365.47642  0.036300797  0.036853806           10 
  840000   0.91383655   -5.9349944    364.82996  0.036193448  0.036829748            7 
  841000   0.92447679   -5.8869404     364.5807  0.036125714   0.03680569            8 
  842000   0.92016745   -5.9034753    365.53537  0.036177293  0.036781792            4 
  843000   0.91691697   -5.9516171    365.04644  0.036086046  0.036757875            6 
  844000   0.93405565    -5.940579    365.60403  0.036098344  0.036734089            5 
  845000   0.92271073   -5.9019172    367.05187  0.036198409  0.036710278            6 
  846000   0.91024474   -5.9148288    367.13335  0.036163648  0.036686835            3 
  847000   0.92996379   -5.9031356    367.09875  0.036117548   0.03666286            5 
  848000   0.91281939   -5.9615106    366.16051  0.035982754  0.036639094            7 
  849000    0.9319515   -5.9228675    367.69926  0.036091407  0.036615458            5 
  850000   0.92331947   -5.9380088    368.11338  0.036089547  0.036591846            4 
  851000   0.91282286   -5.9115502    368.07147  0.036043034  0.036568502            5 
  852000   0.91243723   -5.9245094    368.07464  0.036001041  0.036545124            3 
  853000   0.92626591   -5.8898929    368.47286  0.035997739   0.03652152            4 
  854000   0.92385685    -5.910578    369.80502  0.036085579  0.036498375            7 
  855000   0.93011164    -5.927783    368.29162   0.03589587   0.03647521            5 
  856000   0.90332774   -5.9346834    368.28496  0.035853287  0.036451556            4 
  857000   0.90382533   -5.9406435     369.1838  0.035898853  0.036427886            6 
  858000   0.90442691   -5.9336346    369.66825  0.035904065  0.036404629            7 
  859000   0.91342889   -5.9274593    370.63667  0.035956216  0.036381266            5 
  860000   0.92100798   -5.8941042    369.78249  0.035831637  0.036358099            4 
  861000   0.89168787   -5.9185268    370.20926  0.035831326  0.036335332            5 
  862000   0.91351077   -5.9372568    369.86092  0.035756083  0.036311971            4 
  863000   0.90388659   -5.9481203    370.69307  0.035795005  0.036288601            8 
  864000   0.91518416   -5.9109694    370.72556  0.035756709  0.036265314           12 
  865000   0.91176968   -5.9462486    369.38709  0.035586425  0.036242145            3 
  866000   0.89624459   -5.9471418    371.27524  0.035727025  0.036219009            5 
  867000   0.90614044   -5.9401791    370.85147  0.035645085  0.036195781            5 
  868000   0.91596132   -5.9523364    371.51871  0.035668079  0.036172558            3 
  869000   0.88665169   -5.8996798    371.87685  0.035661378  0.036149388            9 
  870000   0.89991694   -5.9389179    371.46742  0.035581171  0.036126443            5 
  871000   0.89208855   -5.9196295     370.2052  0.035419556  0.036103193            7 
  872000   0.92333817   -5.9305214    372.87986  0.035634543   0.03607988            5 
  873000   0.89857281   -5.9683526    372.65708  0.035572459  0.036056377            5 
  874000   0.90805713   -5.9518183    370.54408   0.03533029   0.03603255            4 
  875000   0.90514436   -6.0000123    370.98448  0.035331855  0.036009052            5 
  876000   0.93748891    -5.959564     371.7737    0.0353666  0.035985494            5 
  877000   0.90184067   -5.9468473    372.18046  0.035364924  0.035961962            3 
  878000   0.90596371   -5.9600263    372.76552  0.035380175  0.035938417            8 
  879000   0.90471713   -5.9766814    372.74797   0.03533826  0.035914442            7 
  880000   0.90456341   -5.9411925    373.76845  0.035394739  0.035890845            3 
  881000   0.88913112    -5.933477    374.18492  0.035393957  0.035867397            3 
  882000   0.90225296   -5.9430413    373.12944  0.035254105  0.035843791           12 
  883000   0.88999294   -5.9790796    372.96672  0.035198822  0.035820122           13 
  884000   0.90893678   -5.9416963    375.51191  0.035398936  0.035796563            3 
  885000   0.88765747   -5.9280834    374.95866  0.035306842  0.035773212            5 
  886000   0.91466191   -5.9696011    374.16248  0.035192107  0.035750025            4 
  887000    0.8872822   -5.9615949    374.37563  0.035172457  0.035726762            4 
  888000   0.89194181   -5.9098616    376.47339   0.03532971  0.035703722            6 
  889000   0.89211004   -5.9655339    375.87139  0.035233539  0.035680805            2 
  890000   0.88772361   -5.9435561    375.02365  0.035114574  0.035657906            3 
  891000     0.905285   -5.9702252    375.38362  0.035108831  0.035634473            3 
  892000   0.86948728   -5.9694696    377.11214  0.035230955  0.035611384            2 
  893000   0.88444536   -6.0056522    376.44136  0.035128907    0.0355884            7 
  894000   0.89566987   -5.9309281    378.10493   0.03524468  0.035565307            3 
  895000   0.86615252   -5.9660861    376.52754   0.03505843  0.035542155            9 
  896000   0.88138388   -5.9867294    376.65147  0.035030829  0.035518964            4 
  897000    0.8787087   -5.9584373    376.97988  0.035022285  0.035495668            7 
  898000   0.88426752   -5.9527415    376.92415  0.034978114  0.035472217            6 
  899000   0.91273427   -5.9512189     377.0103  0.034947191   0.03544881            5 
  900000   0.89408138   -5.9526718    377.04417  0.034911497  0.035425582            2 
  901000   0.88377007   -5.9561825    376.73679   0.03484432  0.035402204            6 
  902000   0.89682634   -5.9315608    376.91716  0.034822354  0.035378808           13 
  903000   0.89560813   -5.9781788    376.14371  0.034712413  0.035355007            4 
  904000   0.87228202   -5.9940668    376.24544  0.034683393  0.035330748            8 
  905000   0.89201257   -6.0122051    376.49602  0.034668142  0.035306662            3 
  906000   0.88859767   -5.9797921    376.64591  0.034643664  0.035282617            3 
  907000   0.88505569   -6.0182044    377.16443  0.034653109  0.035258631            8 
  908000    0.8871911   -5.9690557    378.29605    0.0347188  0.035234746            5 
  909000   0.90585059    -5.937955    378.31331  0.034682189  0.035211083            8 
  910000   0.88605543   -5.9483773    378.09568  0.034624147  0.035187342            5 
  911000    0.8897567   -5.9899873    377.15189  0.034499807   0.03516331            4 
  912000   0.89770123   -5.9734393    377.99463  0.034538983  0.035139333           12 
  913000    0.9053769    -5.997566    377.25846   0.03443396  0.035115278            4 
  914000   0.88375665   -5.9734886    378.82411  0.034539033  0.035091194            6 
  915000   0.86493757   -6.0018565    378.51814  0.034473419  0.035067235            5 
  916000   0.89840212   -6.0037926    378.09676  0.034397449  0.035043084            8 
  917000   0.88179686   -6.0107332    378.45822  0.034392787   0.03501918            5 
  918000   0.86989237   -5.9896534     378.5463  0.034363317  0.034995326            6 
  919000   0.88523031   -6.0155787    379.25384  0.034390083  0.034971281            3 
  920000   0.89313152   -6.0289619    379.12898  0.034341394  0.034947782            4 
  921000   0.90489823   -5.9906201      379.722  0.034357763  0.034924431            6 
  922000   0.89396505   -6.0154669     379.1828  0.034271764  0.034900935            5 
  923000   0.91490123   -6.0016035    381.33691  0.034429118   0.03487752            4 
  924000   0.88175045    -5.994345    382.28242   0.03447713  0.034854055            9 
  925000   0.87938989    -6.004515    381.04418  0.034328304  0.034830778            3 
  926000    0.8811594   -5.9967698    381.17082   0.03430263  0.034807668            4 
  927000   0.87162039   -6.0026906    382.65656  0.034399187  0.034784629            4 
  928000   0.88571168   -5.9898104    380.96515  0.034210232  0.034761349            6 
  929000   0.88949884   -5.9749747    382.09091  0.034274391  0.034738174            6 
  930000    0.8836585   -6.0145072    382.33718  0.034259603  0.034715358            6 
  931000   0.87587638    -6.002238    382.88537  0.034271873  0.034692435            8 
  932000   0.89597717   -6.0082058    383.45372  0.034285919   0.03466942            9 
  933000   0.87914782   -6.0159395    382.83728  0.034194112  0.034646466            4 
  934000   0.89318748   -5.9910061    382.75365   0.03415004  0.034623395            3 
  935000   0.87774391   -5.9756137    384.70856   0.03428775  0.034600404           11 
  936000   0.87007893   -6.0103149    384.28267  0.034213201  0.034577521            7 
  937000   0.86838916   -5.9964921     384.1284  0.034162967  0.034554534           12 
  938000   0.88854893   -5.9905833    385.26667  0.034227671  0.034531811            4 
  939000   0.86756768   -6.0114885    383.69003  0.034051298  0.034508636            6 
  940000   0.87425371   -6.0017421    383.56675  0.034004144   0.03448565            5 
  941000   0.87704023   -5.9882366     384.6458  0.034063568  0.034462548            6 
  942000   0.87421399   -6.0067545    384.42019  0.034007448  0.034439499            6 
  943000   0.87697321   -6.0136335    383.71617  0.033909171  0.034416473            3 
  944000   0.88818547    -6.009816    386.04067  0.034078449  0.034393517            4 
  945000   0.87410541   -6.0008233     385.9346  0.034033034  0.034370574            5 
  946000   0.88584635   -6.0329859    384.85071  0.033901578  0.034347439            9 
  947000   0.86900881    -6.032609    384.32756  0.033819743  0.034324137            3 
  948000   0.86470057   -6.0221035    385.44179  0.033882014  0.034301039            7 
  949000   0.87109115   -6.0410856    385.13834  0.033819664  0.034277801           13 
  950000   0.87310301   -6.0115103    386.64298  0.033916051  0.034254477            6 
  951000   0.88277566   -6.0200722    384.81285  0.033720019  0.034231249            5 
  952000   0.87058597    -6.056285    384.42395  0.033650556  0.034207707            9 
  953000   0.89252651   -6.0113538    386.80558  0.033823503  0.034184504            8 
  954000     0.871254   -6.0315514    385.57475  0.033680534  0.034161239            6 
  955000   0.88381251   -6.0254391    385.59859  0.033647346  0.034137884            7 
  956000   0.86910059   -6.0497045    386.55584  0.033695592  0.034114507            8 
  957000    0.8890939   -6.0448675    386.82526  0.033683844  0.034091216            6 
  958000   0.89505495   -6.0234704     387.4618  0.033704054  0.034068095            6 
  959000   0.87898792   -6.0426783    386.33666  0.033571138  0.034045025            6 
  960000   0.85516239   -5.9975118    388.58375  0.033731228  0.034022091            7 
  961000   0.86549193   -6.0291821    387.17122   0.03357364  0.033999208            5 
  962000   0.88549841   -6.0178444    387.88964  0.033600973  0.033976443            4 
  963000   0.86550616   -6.0224524    387.91294  0.033568098  0.033953634           12 
  964000    0.8677322   -6.0053819    387.46894  0.033494894  0.033930763            7 
  965000   0.87370318   -6.0218309    388.26104  0.033528587  0.033907915            4 
  966000   0.88205382   -6.0347964    387.71545  0.033446812  0.033885133            6 
  967000   0.88178191   -6.0408943    389.09488    0.0335311  0.033862237            5 
  968000   0.87357916   -6.0795945    386.85985   0.03330405  0.033839165            5 
  969000   0.87028556   -6.0326823    388.95932  0.033450234  0.033815898            6 
  970000   0.87239754   -6.0338036    389.02272  0.033421196  0.033792767            4 
  971000   0.87642612   -6.0158448    389.86242  0.033458841  0.033769771            4 
  972000   0.87394043   -6.0335736    389.38498  0.033383486  0.033746781            5 
  973000   0.88926638   -6.0338066    389.48515  0.033357755  0.033724129            4 
  974000    0.8499394   -6.0536321    389.06644  0.033287683   0.03370125            6 
  975000   0.85484526   -6.0308196    390.02568  0.033335528  0.033678314            9 
  976000   0.84589841   -6.0488963    389.01099  0.033214736  0.033655325            4 
  977000   0.85184809   -6.0482541    390.36962  0.033296624   0.03363218           11 
  978000   0.85326604   -6.0224217    390.43451  0.033268108  0.033609091            8 
  979000   0.84336395   -6.0506538    389.72999  0.033174157  0.033586033            5 
  980000    0.8596885   -6.0624874    389.49946  0.033120703  0.033562703           14 
  981000   0.84221587   -6.0503285    391.20492  0.033231815  0.033539758            5 
  982000   0.85180994   -6.0531403    391.74149  0.033243507  0.033517115            7 
  983000   0.86185891   -6.0623144    392.12693  0.033242364  0.033494498            7 
  984000   0.86192449   -6.0308577    392.44314   0.03323536  0.033471867            4 
  985000   0.88134405   -6.0179937    392.74871  0.033227472  0.033449352            5 
  986000   0.86756031   -6.0403473    392.59096  0.033180439  0.033427052            4 
  987000   0.86564757   -5.9940041    392.66405  0.033152993  0.033404683            3 
  988000   0.86698855   -6.0001121     392.9405  0.033142755  0.033382513            5 
  989000   0.83763673   -6.0722495    390.89926  0.032937248  0.033359891            5 
  990000   0.85873651   -6.0408896    390.85749  0.032900462  0.033337088            4 
  991000   0.86622985   -6.0894301    392.67785  0.033020337  0.033314212            7 
  992000   0.85424094   -6.0985937    391.57437  0.032894352  0.033291318            3 
  993000   0.85275136   -6.0384164    392.41263  0.032931573  0.033268747            5 
  994000   0.85261668    -6.074107    391.96756   0.03286113  0.033245954            6 
  995000    0.8530529   -6.0780832    391.86155  0.032819225  0.033223262            5 
  996000   0.84443877   -6.0448114    393.58638  0.032930587   0.03320077            3 
  997000    0.8737092   -6.0717837    392.09292  0.032772728  0.033177828           13 
  998000   0.84222877   -6.0726416    393.33168  0.032843327  0.033154877            9 
  999000   0.84623282   -6.0760229    392.17802  0.032714216  0.033131703            3 
 1000000   0.85628804   -6.0855929    392.84296  0.032736913  0.033108644            7 
 1001000   0.85316148   -6.0829276    393.24069   0.03273732  0.033085824            6 
 1002000   0.87470107   -6.0614955    392.94147  0.032679763  0.033063092           33 
 1003000   0.86814022   -6.0894574    392.91921  0.032645331  0.033040243            9 
 1004000   0.86157499   -6.0877219    393.27246  0.032642136  0.033017566            6 
 1005000   0.84910402   -6.0790908     394.7649  0.032733408  0.032994878           11 
 1006000   0.84230034   -6.1008564    393.62227  0.032606218  0.032972264           10 
 1007000   0.83492992   -6.0779712     394.8186   0.03267284  0.032949802           13 
 1008000    0.8512705   -6.0450481    394.89687  0.032646897  0.032927725            5 
 1009000    0.8565483   -6.0754675    395.92523  0.032699474  0.032905714            6 
 1010000   0.83124316   -6.0841914    396.04969  0.032677367   0.03288346            7 
 1011000   0.85779824   -6.0962805    395.23072   0.03257754  0.032861151            6 
 1012000   0.85325641   -6.0837794    396.31263  0.032634439  0.032839174            8 
 1013000   0.83859056   -6.1186337    395.20609  0.032511195  0.032816945            6 
 1014000   0.86719029    -6.084353     395.4632  0.032500263  0.032795011            6 
 1015000   0.84284026   -6.0637991    397.10063  0.032602679  0.032772971            8 
 1016000   0.84635533   -6.0716019    396.73351  0.032540479  0.032751108            5 
 1017000   0.85153851   -6.1075056    396.42001  0.032482794  0.032728946            5 
 1018000   0.85473961   -6.1015871     397.1181   0.03250803  0.032706924            5 
 1019000    0.8477437   -6.0676964    397.82215  0.032533705  0.032684798            5 
 1020000   0.84253806   -6.1013669    396.83863  0.032421457  0.032662838           10 
 1021000   0.86192628   -6.0519871    397.16174  0.032416074  0.032640918            5 
 1022000   0.84322766   -6.0728749    397.80781  0.032437036  0.032619015            8 
 1023000   0.84567254    -6.100587     397.2625  0.032360907  0.032597031            3 
 1024000    0.8447959   -6.1042456    398.11438  0.032398631  0.032574999            5 
 1025000   0.85092788   -6.0950879    397.14518  0.032288226  0.032553074            9 
 1026000   0.85308663   -6.0892755    397.73288   0.03230449   0.03253118            8 
 1027000   0.85464218    -6.095244    398.43096  0.032329679  0.032509174           10 
 1028000   0.84064583    -6.070688    398.56385  0.032309002  0.032487217            9 
 1029000    0.8440602   -6.1277286    398.16125     0.032245  0.032464925            4 
 1030000   0.85888562   -6.1120022    397.47346  0.032158047  0.032442771            6 
 1031000   0.83713463   -6.1097061     398.6611   0.03222285  0.032420632            7 
 1032000   0.84456175   -6.0944065    398.51266   0.03217964  0.032398481           15 
 1033000   0.84652508   -6.1375483    397.07735    0.0320327     0.032376           10 
 1034000   0.83686422   -6.0933635    399.03111   0.03215918  0.032353841           15 
 1035000   0.83596103   -6.1215987    398.66953  0.032098996  0.032332076            4 
 1036000   0.82299229   -6.0872406    399.49125   0.03213411  0.032310126            4 
 1037000   0.84314696   -6.0852548    399.88737  0.032134954  0.032288161            7 
 1038000   0.83623359   -6.1140536    399.21211  0.032049784  0.032266349            4 
 1039000    0.8396121   -6.1089426    400.12918  0.032092491  0.032244502            7 
 1040000   0.85524198   -6.1261346    399.82395  0.032037176    0.0322227            5 
 1041000   0.83546275   -6.0952466     400.7179  0.032077962  0.032200903            6 
 1042000   0.84715482   -6.0954058    401.55833   0.03211439  0.032179562            7 
 1043000   0.82052649    -6.099227    401.79603  0.032102591  0.032157993            5 
 1044000   0.83181778   -6.0984558    400.98426  0.032007045  0.032136606            6 
 1045000   0.83577159   -6.1179797    402.47378  0.032095198  0.032115016            3 
 1046000   0.83779717    -6.117973    401.65797  0.031999519  0.032093506            9 
 1047000   0.84555611   -6.1296771    401.04186  0.031919919  0.032071965           12 
 1048000    0.8373252   -6.1308704    402.23804  0.031984577  0.032050568            9 
 1049000   0.81237882   -6.1285274    402.62355  0.031984712  0.032029224            9 
 1050000   0.84288376    -6.145478     403.0129  0.031985151  0.032007861           14 
 1051000   0.82896086   -6.1174179    402.24569  0.031893886  0.031986372            8 
 1052000   0.82637334   -6.1009777    402.56515  0.031888875  0.031964959           12 
 1053000   0.82768516   -6.0938949    403.02308   0.03189483  0.031943548            4 
 1054000   0.85529695   -6.1040435    404.67744   0.03199537  0.031922155            8 
 1055000   0.83472233   -6.0981246    402.90438  0.031824991  0.031900598            8 
 1056000   0.86514928   -6.1203001    403.22006  0.031819765  0.031879098            5 
 1057000    0.8295723   -6.1037175    403.25925  0.031792751  0.031857845            5 
 1058000   0.83541202   -6.1262804    403.10525  0.031750571  0.031836412            8 
 1059000   0.83444201   -6.1136823    403.80483   0.03177564   0.03181513            9 
 1060000   0.82680224   -6.1554553     403.0224  0.031684151  0.031793814            3 
 1061000   0.82862049   -6.1377357    402.71043  0.031629785  0.031772285            6 
 1062000   0.83733713   -6.1086122    403.50812  0.031662596  0.031750718            5 
 1063000   0.83117137   -6.1525742     404.2359  0.031689864  0.031729186            2 
 1064000   0.82694217   -6.1461783    403.25279  0.031583082  0.031707838            5 
 1065000   0.83291372   -6.1494679    403.03496  0.031536382  0.031686318            4 
 1066000   0.81862265   -6.1357545    403.90405  0.031574738  0.031665019           24 
 1067000   0.84483359   -6.1027137    405.05062  0.031634694  0.031643771            5 
 1068000   0.81503322   -6.0989504    405.21006  0.031617514  0.031622963            6 
 1069000   0.81271372   -6.1524127    404.79056  0.031555235  0.031602109            4 
 1070000   0.84166805   -6.1324085    404.59319  0.031510373  0.031581001            5 
 1071000   0.82009168   -6.1317227    405.99107  0.031589719  0.031559925            6 
 1072000   0.81473658   -6.1534503    404.95899  0.031480021  0.031538772           11 
 1073000   0.83009468   -6.0933414    406.24402  0.031550483  0.031517748            2 
 1074000   0.81028336   -6.1227447    405.98588  0.031501077  0.031496597            5 
 1075000    0.8407911    -6.127286    405.67709  0.031447837  0.031475538           10 
 1076000   0.81735473   -6.1346763    405.44096  0.031400323  0.031454341            9 
 1077000   0.80833832   -6.1640862    406.32543  0.031439603  0.031433263            6 
 1078000   0.84523156   -6.1287505    405.88704   0.03137655  0.031412207           11 
 1079000   0.82113755   -6.1556096    405.78991  0.031339968  0.031391166            6 
 1080000   0.83432958   -6.1412577    406.34214   0.03135356  0.031370411            6 
 1081000   0.80628307   -6.1600669    407.29548  0.031398048  0.031349478            4 
 1082000   0.82950151   -6.1083064    407.38213  0.031375703   0.03132849           15 
 1083000   0.81849576   -6.1627109    406.13801  0.031251001  0.031307459            6 
 1084000   0.82428995   -6.1228679    406.56395  0.031254916   0.03128658            4 
 1085000   0.81925165   -6.1487724    407.31023  0.031283428  0.031265504            4 
 1086000   0.81361594   -6.1537508    407.14421  0.031241882  0.031244598            5 
 1087000   0.81703041   -6.1282575    406.74898  0.031182841  0.031223584            5 
 1088000   0.82621519   -6.1527895    406.83687  0.031160912  0.031202496            6 
 1089000   0.81568988   -6.1867049    407.06249  0.031149563  0.031181473           10 
 1090000     0.805737    -6.159717    407.57583  0.031160231  0.031160309            5 
 1091000   0.80624009   -6.1791562    407.01073  0.031088507  0.031139359            8 
 1092000   0.80347536   -6.1621699    407.47742  0.031095652  0.031118357            9 
 1093000   0.80892707   -6.1566622     408.1603  0.031119267  0.031097454           11 
 1094000   0.80510851   -6.1787953    406.71234  0.030980526  0.031076556            7 
 1095000    0.8212747    -6.158626    406.98273  0.030972811  0.031055615           15 
 1096000   0.82887212   -6.1572213    408.87001  0.031088048  0.031034662            9 
 1097000   0.82637428   -6.1786957    408.13891  0.031004171  0.031013551            4 
 1098000   0.82661376    -6.168487    407.05007  0.030893296  0.030992304            9 
 1099000   0.81344219   -6.1793007    407.29035  0.030883406  0.030971085            9 
 1100000   0.82607167   -6.1652037    408.44063  0.030942472  0.030950062            9 
 1101000   0.80977319     -6.15543    408.17552  0.030894302  0.030928975           13 
 1102000   0.81941412   -6.1545818    408.06079  0.030857591  0.030907976            5 
 1103000   0.82785709   -6.1550428    408.88636  0.030891988  0.030886881            9 
 1104000   0.81168528   -6.1873409    407.91784    0.0307909  0.030865902            4 
 1105000   0.81015347   -6.1801716    408.88746  0.030836158  0.030844824            4 
 1106000   0.78842123   -6.1668961    408.86268   0.03080641  0.030823983           11 
 1107000   0.80539178   -6.1768519    408.50024  0.030751298  0.030802862           10 
 1108000   0.81381532   -6.1676663    409.65304  0.030810246  0.030781636            7 
 1109000   0.79697729   -6.1741378    408.21628  0.030674503  0.030760423            5 
 1110000   0.81063854    -6.161692    410.52665  0.030820319  0.030739226            5 
 1111000   0.79708121   -6.1861138    408.62113   0.03064965  0.030718077            8 
 1112000   0.82314084   -6.1440447    409.77309  0.030708415  0.030697171            8 
 1113000   0.79782004   -6.1351327    411.29042  0.030794431  0.030676373            8 
 1114000   0.81729658   -6.1615856    409.89275  0.030662234  0.030655711            3 
 1115000   0.80483098   -6.1552755    410.76442  0.030699882  0.030634855            6 
 1116000   0.82150796   -6.1963378    408.39296  0.030495293  0.030613843            8 
 1117000   0.80339673   -6.1997795    410.74042  0.030643123  0.030592815           12 
 1118000   0.81308915     -6.21487    409.25852  0.030505256  0.030572065            5 
 1119000   0.81686316   -6.1595191    411.36094  0.030634565  0.030551243            7 
 1120000   0.80784133   -6.1938843    410.20242  0.030521013  0.030530501           14 
 1121000   0.81156806   -6.2229815    410.81954  0.030539662  0.030509502            6 
 1122000   0.82831294   -6.1829956     409.6781  0.030427666  0.030488417           12 
 1123000   0.80697639   -6.1906495    410.60709  0.030469508  0.030467433           10 
 1124000   0.79589837   -6.1920825    410.49046  0.030433753  0.030446623            5 
 1125000   0.78206405   -6.1891544    411.34096  0.030469701   0.03042565            8 
 1126000   0.78179071   -6.1992595    410.92886  0.030412142  0.030404624           14 
 1127000   0.79596162   -6.1827426    413.11136  0.030546537  0.030383885           10 
 1128000   0.78438572   -6.2016021    411.60428  0.030408118  0.030363074            3 
 1129000   0.82331377    -6.225872    410.06178  0.030267329  0.030342185           13 
 1130000   0.79719978   -6.2146199    410.50408  0.030273162  0.030321268           10 
 1131000   0.80932869    -6.212018    410.99087  0.030282263  0.030300305            3 
 1132000   0.80512495   -6.2035035    411.21927  0.030272326  0.030279365            8 
 1133000   0.80587564   -6.1896434    411.58219    0.0302723  0.030258496            3 
 1134000   0.81174133   -6.1997518    410.63052   0.03017567  0.030237565            7 
 1135000    0.7925654   -6.2159255    411.16135  0.030188058  0.030216476            6 
 1136000    0.8003326   -6.2118589    411.67445  0.030199123  0.030195362            7 
 1137000   0.79303241   -6.2083661    411.26753  0.030142739  0.030174186            5 
 1138000   0.78854291   -6.2092382     412.3809  0.030197781  0.030153162            6 
 1139000   0.79727397   -6.2274384    411.32468  0.030093992  0.030132073            7 
 1140000   0.79647775   -6.2151201    411.33084  0.030068044   0.03011104            9 
 1141000   0.80826711   -6.2113324    411.84538  0.030079271  0.030090028           10 
 1142000   0.80528302   -6.2037806    411.71231  0.030043222  0.030069087           11 
 1143000     0.791938   -6.2080741    412.63612   0.03008429   0.03004812           17 
 1144000   0.79419047   -6.2314079    411.93308   0.03000678  0.030027162           16 
 1145000   0.78718879   -6.2314101     411.6329  0.029958727  0.030006088            6 
 1146000   0.77595429   -6.2345587    413.54026  0.030071282  0.029985004           13 
 1147000   0.81626747   -6.2104662    412.86591   0.02999607  0.029964194           12 
 1148000   0.81732783   -6.2001584    414.43068  0.030083528  0.029943587           13 
 1149000   0.79550507   -6.2206861    414.33347  0.030050295  0.029922997            4 
 1150000   0.80508767   -6.2015676    414.64792  0.030046951   0.02990243            5 
 1151000   0.79999754   -6.2224013    413.96877  0.029971675  0.029881836            6 
 1152000    0.7990705   -6.2267495    414.22632  0.029964288  0.029861093           10 
 1153000   0.79651828    -6.220566    414.03563  0.029924518  0.029840522            6 
 1154000   0.78508414   -6.2519364    413.78069  0.029880177  0.029819928           17 
 1155000   0.78936575   -6.1853472      414.331  0.029894011  0.029799332            5 
 1156000   0.78627815   -6.2118737    414.11024  0.029852237  0.029779007           10 
 1157000   0.77023637   -6.2412931    414.60062  0.029861756  0.029758774            6 
 1158000   0.79707902   -6.2086981    415.17404  0.029877234  0.029738501            7 
 1159000   0.79086098   -6.2041817     416.4007  0.029939654  0.029718248            6 
 1160000   0.79507025   -6.2304911    415.32394   0.02983649  0.029697917            9 
 1161000   0.79498777   -6.2258715    415.40717  0.029816765  0.029677332           12 
 1162000   0.81366673   -6.2485121    414.43941  0.029721701  0.029656942           10 
 1163000   0.80841624    -6.224154    415.28381   0.02975665  0.029636437            6 
 1164000    0.8204472   -6.2438037    415.20174  0.029725211   0.02961606            5 
 1165000   0.79219273   -6.2342108    414.41794  0.029643629   0.02959558           13 
 1166000   0.78110397   -6.2511108    414.86878  0.029650427  0.029574897            4 
 1167000   0.78841998   -6.2263476    415.03486   0.02963688  0.029554425            7 
 1168000   0.78722068   -6.2372294    416.53531  0.029718558  0.029534152            7 
 1169000   0.77876796   -6.2489847    415.22444  0.029599689  0.029513863            9 
 1170000   0.78519661   -6.2397659    416.51218  0.029666109  0.029493499            6 
 1171000   0.79785512   -6.2483694    415.87349  0.029595324  0.029473056           13 
 1172000   0.79027532   -6.2456807    414.82128  0.029495256  0.029452683            9 
 1173000   0.78658943   -6.2579608    415.28898  0.029503337  0.029432173            7 
 1174000   0.80018422   -6.2280616     417.0813   0.02960543   0.02941187            6 
 1175000    0.7932557   -6.2337925    415.50679  0.029468567  0.029391426            7 
 1176000   0.78787193   -6.2382938    415.65161  0.029453771  0.029371028           13 
 1177000   0.78398671   -6.2581426    416.03758  0.029456074  0.029350669           13 
 1178000   0.77406413   -6.2126594    417.57131  0.029539567  0.029330364            8 
 1179000   0.78037554     -6.23582    416.15247  0.029414226  0.029310177            5 
 1180000    0.7868793   -6.2851822     416.6577  0.029424979  0.029289717           28 
 1181000    0.7983845   -6.2607293    416.50183  0.029389065  0.029269345           10 
 1182000   0.78704059   -6.2594651    416.91412  0.029393269  0.029249064            4 
 1183000   0.77399929   -6.2796775     417.1226  0.029383108  0.029228946           11 
 1184000   0.79051152   -6.2587473    417.12067  0.029358156  0.029208877           10 
 1185000    0.7644092   -6.2346023    417.15548  0.029335828   0.02918885            7 
 1186000   0.78763556   -6.2685224    417.39809   0.02932814  0.029168813           13 
 1187000   0.78200013   -6.2341132    418.23348  0.029362081  0.029148625            5 
 1188000   0.78489888   -6.2418742    418.22501  0.029336771  0.029128514           13 
 1189000   0.78594464   -6.2571698    417.63102  0.029270467  0.029108368            7 
 1190000   0.78090023   -6.3003482    416.90562  0.029195071   0.02908818           10 
 1191000   0.76999598   -6.2767429    417.76049  0.029230373  0.029068084            8 
 1192000   0.78354062   -6.2391663    419.33517  0.029315937  0.029048364            6 
 1193000   0.77384386   -6.2301416    419.68217  0.029315603  0.029028451            6 
 1194000    0.7776727   -6.2635177    418.33679  0.029197152  0.029008605            9 
 1195000   0.77804182   -6.2557643    418.79302  0.029204534  0.028988636            9 
 1196000   0.78484084   -6.2572221    420.00998  0.029264909  0.028968852            7 
 1197000   0.77777492   -6.2601925    420.16319  0.029251127  0.028948949            7 
 1198000    0.7614848   -6.2768119    420.19764  0.029229107   0.02892908            6 
 1199000   0.75574417   -6.2775972    419.53656  0.029158782  0.028909095            7 
 1200000   0.76970486   -6.2885199     418.6439  0.029072493  0.028889118           10 
 1201000   0.75900671   -6.2734378    418.75274  0.029055838  0.028869308           24 
 1202000    0.7762777    -6.247114    419.70889  0.029097954   0.02884954           16 
 1203000   0.77265609   -6.2733052    418.02868  0.028957376  0.028829546           15 
 1204000   0.78881745   -6.2963238    419.05796  0.029004565  0.028809414            5 
 1205000   0.77848033   -6.2809838    419.71664  0.029026047  0.028789389            8 
 1206000   0.78260015   -6.2939593    418.79582  0.028938351  0.028769495           10 
 1207000   0.78528655   -6.2811451    418.80399   0.02891494  0.028749487           16 
 1208000   0.76719431   -6.2635611    419.44942  0.028935528  0.028729603           13 
 1209000   0.76294411   -6.2766229    421.23773  0.029034859  0.028709685           12 
 1210000   0.77681214   -6.2911973    419.78136  0.028910562  0.028689733            5 
 1211000   0.76969185   -6.2814886    420.88298  0.028962495  0.028669884            9 
 1212000   0.76626477   -6.2847109    419.98502  0.028876858  0.028650012           13 
 1213000   0.77404427   -6.2877163    421.67789  0.028969352  0.028630263            8 
 1214000    0.7497798   -6.3149222    420.12911  0.028839176  0.028610396            9 
 1215000   0.75685684   -6.2771638    421.13849   0.02888467  0.028590479            9 
 1216000   0.75999398   -6.2936543    420.13356  0.028792048  0.028570553            7 
 1217000   0.77886911   -6.2987282    420.54974  0.028796887  0.028550831            9 
 1218000   0.77955739   -6.2890701    420.75731  0.028787446  0.028531124            7 
 1219000   0.75787472    -6.323813    421.38895   0.02880701  0.028511292           11 
 1220000   0.77034398   -6.2944269    420.21421  0.028703156  0.028491605            9 
 1221000   0.76877074   -6.3016706     422.1919  0.028814626   0.02847196            6 
 1222000   0.77632931   -6.3165804    422.06872  0.028782646  0.028452567            7 
 1223000   0.76481556   -6.2986268    421.84261  0.028743705  0.028432986            6 
 1224000   0.76877357   -6.2858877    421.46639  0.028694607  0.028413461            8 
 1225000   0.76923447   -6.2629725    422.39556  0.028734392  0.028394057            8 
 1226000   0.78451423   -6.3080377    422.10761  0.028691382  0.028374689            8 
 1227000   0.76890014   -6.3002407    422.64488  0.028704488  0.028355483            8 
 1228000   0.77589726   -6.2919999    422.39558  0.028664195  0.028336064            8 
 1229000   0.74672101   -6.3011812    421.62033  0.028588306  0.028316521            5 
 1230000   0.75220815    -6.285992    422.75037  0.028641624  0.028297012           10 
 1231000   0.77475605   -6.2684921    423.75066  0.028686072  0.028277683            4 
 1232000     0.754103    -6.298388    423.24958  0.028628895  0.028258388            9 
 1233000   0.77039904   -6.3161463    421.82692  0.028509524   0.02823902            5 
 1234000   0.78535103   -6.3021736    423.05345   0.02856925  0.028219746            8 
 1235000   0.75788761   -6.3217049    422.43673  0.028504503  0.028200534            3 
 1236000   0.75959451   -6.3096744    423.10371   0.02852641  0.028181275           13 
 1237000   0.76775738   -6.2872188    423.49978  0.028530031  0.028161994            9 
 1238000   0.75676369   -6.2767627    423.67994  0.028519113  0.028142894            9 
 1239000   0.75269244   -6.3137906    424.08117  0.028523081  0.028123668            5 
 1240000   0.77548244   -6.3213786    423.60353  0.028467979  0.028104412           24 
 1241000   0.75251085   -6.3248329    423.32858  0.028426576  0.028085316           10 
 1242000   0.77378729   -6.3209285    423.40141  0.028408575    0.0280661           11 
 1243000   0.76296726   -6.3430062    423.11518  0.028366531  0.028046891            9 
 1244000   0.76351991   -6.3086216     424.1182  0.028410919  0.028027813           10 
 1245000   0.76115137   -6.3120252    423.71547  0.028361143  0.028008758           18 
 1246000   0.73882233   -6.3277534     423.9861   0.02835648  0.027989613           20 
 1247000   0.76948409   -6.3100934    422.94115   0.02826391  0.027970486            6 
 1248000   0.76273763   -6.3241581    423.88842  0.028304515  0.027951331            9 
 1249000   0.75325759    -6.309496    424.49421  0.028322272  0.027932205           17 
 1250000    0.7533753    -6.311513    424.51984  0.028301322  0.027913063            7 
 1251000   0.73198133   -6.3100204    425.49452  0.028343627  0.027893953            9 
 1252000   0.75756733   -6.3162733    424.85327  0.028278306  0.027874845            8 
 1253000   0.77074703   -6.2948493    425.40697  0.028292563  0.027855875           19 
 1254000   0.73719547    -6.340948    423.92866  0.028171761  0.027836858           30 
 1255000   0.75770697   -6.3331139    424.65458  0.028197515  0.027817643            8 
 1256000   0.76112721   -6.3167202    425.69121  0.028243844  0.027798676            6 
 1257000   0.75092868   -6.3339609    424.59953  0.028149001  0.027779574           15 
 1258000    0.7668116   -6.3259337    425.10192  0.028159904   0.02776055           11 
 1259000   0.74902671   -6.3015547    426.51758   0.02823124  0.027741528           12 
 1260000   0.74877765   -6.3205339    426.14896  0.028184455  0.027722557           26 
 1261000   0.74651836   -6.3185898    426.80817  0.028205668  0.027703694            8 
 1262000   0.73950215   -6.3079356    426.09386   0.02813615  0.027685021           12 
 1263000   0.75293104   -6.3051677    425.65794  0.028085111  0.027666216            8 
 1264000   0.75026367   -6.3391708    426.01268  0.028086279   0.02764746            7 
 1265000   0.74981856   -6.3121171    425.59249  0.028036396  0.027628587           13 
 1266000   0.75228364   -6.3242412    425.63805  0.028017249  0.027609766            6 
 1267000   0.75373187    -6.319518    425.50881  0.027986636  0.027591017           11 
 1268000   0.75303434   -6.3615641    425.30512  0.027951178   0.02757205            7 
 1269000   0.74322628   -6.3408834    424.73393  0.027891643  0.027553073           12 
 1270000   0.76073871   -6.3403745    425.11541  0.027894712  0.027533996           15 
 1271000   0.75777632   -6.3475998    425.45684  0.027895151  0.027514963           11 
 1272000   0.73489454   -6.3637016    426.22289  0.027923407   0.02749606           28 
 1273000   0.75298319   -6.3554118    424.74847  0.027804953  0.027477067           15 
 1274000    0.7290786   -6.3615019    426.53588  0.027900044  0.027458002           11 
 1275000   0.74318612   -6.3656406    424.40185  0.027738683  0.027438849           14 
 1276000    0.7445518   -6.3131091    427.13455  0.027895412   0.02741984           12 
 1277000    0.7415798   -6.3625121    426.34037  0.027821742  0.027400686           20 
 1278000   0.76209666   -6.3678748    425.41466   0.02773961  0.027381389            7 
 1279000   0.73804078    -6.341559    425.22259  0.027705407  0.027362135            9 
 1280000   0.74932949   -6.3545243     425.1852  0.027681328  0.027343108           21 
 1281000    0.7618661   -6.3500633      424.682  0.027626984  0.027323799            9 
 1282000   0.74286512   -6.3491279    425.11086  0.027633311  0.027304474            8 
 1283000   0.72898187   -6.3875096    425.06447   0.02760876  0.027285241           13 
 1284000    0.7197875   -6.3421732     425.4138   0.02760993  0.027265958           10 
 1285000   0.75342498   -6.3139346    427.44901  0.027720429  0.027246725            7 
 1286000   0.73539875   -6.3587534    424.76727  0.027525095  0.027227552           15 
 1287000   0.73052286   -6.3461093     425.8929  0.027576593  0.027208324           11 
 1288000   0.73234019   -6.3587864    424.77339   0.02748275   0.02718912            5 
 1289000   0.73180417   -6.3780673    425.61237  0.027515669  0.027169886           10 
 1290000   0.74223395   -6.3788137    425.39431  0.027480253  0.027150561            6 
 1291000   0.74908181   -6.3439778    426.95658   0.02755981  0.027131382            9 
 1292000   0.73698534   -6.3845065    426.86337  0.027532467  0.027112289           12 
 1293000   0.74246124    -6.374495    426.38583  0.027480396  0.027093179            9 
 1294000   0.74357283   -6.3719017    425.91642   0.02742893  0.027073992            9 
 1295000   0.71747136   -6.3671589     426.4721  0.027443507  0.027054916            7 
 1296000   0.73659279   -6.3453033    427.14059  0.027465316  0.027035944           10 
 1297000   0.72453347   -6.3603834    425.89059  0.027363826  0.027016993           13 
 1298000   0.75851393   -6.3767236    426.36534  0.027373224  0.026997947           12 
 1299000   0.74524771   -6.3815316     426.2628  0.027345573   0.02697899            8 
 1300000   0.72427168   -6.3879161    426.06372  0.027311777  0.026959987            7 
 1301000   0.73154386    -6.363962    426.60764  0.027325624  0.026940945           10 
 1302000   0.73505813   -6.3830411    425.92402  0.027260882  0.026921848           18 
 1303000   0.72056313   -6.3886486    426.89884  0.027302305  0.026902811           13 
 1304000   0.72834486   -6.3685759    426.51852  0.027257063  0.026883661           21 
 1305000   0.74345989   -6.4099837    425.92164  0.027198062  0.026864572           19 
 1306000   0.74452068   -6.3663475    426.29192  0.027200863  0.026845579            9 
 1307000   0.71738792   -6.3745454    427.77944  0.027274894  0.026826644           13 
 1308000   0.72049838   -6.3552644    427.46189   0.02723381  0.026807624            9 
 1309000   0.73382595   -6.3711939    426.61289  0.027158956  0.026788563           14 
 1310000    0.7206723   -6.3958721    425.69344  0.027079736  0.026769386            7 
 1311000   0.71575896   -6.3979076    425.96893  0.027076591  0.026750214            9 
 1312000   0.73091646   -6.4123824    426.15928  0.027068043  0.026731075            9 
 1313000   0.72128787   -6.3906353    426.96445  0.027098531  0.026711916           10 
 1314000   0.74051875   -6.3749312    425.96435  0.027014482  0.026692885           12 
 1315000   0.72091106   -6.3847306    426.92352  0.027054723  0.026673785           12 
 1316000   0.71751276   -6.3841716    427.31795  0.027059141  0.026654786            9 
 1317000   0.71564375   -6.3846967    426.69564  0.026999218  0.026635882           13 
 1318000   0.72619237   -6.4168575    426.69165   0.02697848  0.026616867           12 
 1319000   0.73427899   -6.4150088    427.79927  0.027028006  0.026597819           29 
 1320000   0.72112644   -6.3962046    427.42449  0.026983869  0.026578815           12 
 1321000   0.73837643   -6.3638668    428.12282  0.027007496  0.026559851           12 
 1322000   0.73165181   -6.4006095    428.28327   0.02699718  0.026540957           21 
 1323000   0.70937619   -6.3959244    427.07971  0.026900964  0.026522061           21 
 1324000   0.71835054   -6.4106157    426.55524  0.026847636  0.026502993            9 
 1325000   0.72202863   -6.4162059    426.83082  0.026844705  0.026483992           10 
 1326000   0.71784458   -6.4293587    426.88776  0.026828039  0.026464898           38 
 1327000   0.71988275   -6.4220998    426.61995  0.026791004  0.026445848           19 
 1328000   0.71594101    -6.391478    427.81528  0.026845838  0.026426839           11 
 1329000   0.72149069   -6.3973372     427.4402  0.026802119  0.026407861           11 
 1330000   0.73275077   -6.3853722    427.92617  0.026812417   0.02638887            8 
 1331000   0.73436764   -6.3781535    428.24916  0.026812495  0.026369941           25 
 1332000   0.72444474   -6.4253647    426.66354  0.026693165  0.026350969            9 
 1333000   0.71255766   -6.4090544    427.19161  0.026706152  0.026331956           20 
 1334000   0.73299267   -6.4196821    427.88871   0.02672968  0.026312935            6 
 1335000   0.71906649   -6.4206053    427.94177  0.026712969  0.026293974            6 
 1336000   0.71310314   -6.4285869    426.82813  0.026623511  0.026274905           13 
 1337000   0.70854692   -6.4183121    427.33364  0.026635106  0.026255891           12 
 1338000   0.71193513   -6.4234565    427.60696  0.026632222  0.026236889           17 
 1339000   0.72284748   -6.4002139    427.59884  0.026611827  0.026217895            9 
 1340000   0.72563809   -6.4269744    427.91089  0.026611374  0.026198913            8 
 1341000   0.71013881   -6.4361689    426.76129   0.02652009  0.026179934           13 
 1342000   0.70577215   -6.4139949    426.84485  0.026505518  0.026160964            8 
 1343000   0.71774604   -6.4335124    426.76543  0.026480853  0.026141989           19 
 1344000   0.72071602   -6.4227003    427.64874  0.026515919  0.026122912            9 
 1345000   0.71778549   -6.4143344    428.88647  0.026572891  0.026104007            9 
 1346000   0.73195654    -6.431064    427.98854  0.026497557   0.02608516           15 
 1347000   0.69743006   -6.4317385    427.11256  0.026423692  0.026066205           15 
 1348000   0.71699881   -6.4244519    426.99386  0.026396752  0.026047305            9 
 1349000   0.73343007   -6.4031243     427.8378  0.026429318  0.026028428           15 
 1350000    0.7193137   -6.4175722    427.84327  0.026410079  0.026009558            8 
 1351000   0.70815862   -6.4281065    428.91081  0.026456378  0.025990697           18 
 1352000   0.72761039   -6.4276112    427.96541  0.026378538  0.025971746           39 
 1353000   0.70256686    -6.383788    428.77772  0.026409074  0.025952912           11 
 1354000   0.70262626   -6.4146783     428.8006  0.026390978  0.025934165           10 
 1355000   0.70954501   -6.4230962    427.93836  0.026318472  0.025915313            7 
 1356000   0.72362644   -6.4014313    429.35904  0.026386372    0.0258966            6 
 1357000    0.7185583   -6.4353212    427.95315  0.026280591  0.025877789           14 
 1358000   0.71902084   -6.4358898    428.01819   0.02626523  0.025859009           13 
 1359000    0.7018878   -6.4338596    430.11543  0.026374505  0.025840433            5 
 1360000   0.69628495    -6.440403    428.36928  0.026248117  0.025821933            6 
 1361000   0.71812734   -6.4443669    429.46308  0.026295804  0.025803406           16 
 1362000   0.70413541   -6.4111718    429.91986  0.026304446  0.025784867           17 
 1363000   0.71151555    -6.423987     429.4848  0.026258547  0.025766238           10 
 1364000   0.70544775   -6.4413984    428.71757  0.026192422  0.025747667            9 
 1365000   0.70732863   -6.4410642     427.7286  0.026112857  0.025729057           12 
 1366000   0.71048292   -6.4558025    427.91048  0.026104837  0.025710354           12 
 1367000   0.72407409   -6.4107914    429.76579  0.026198841  0.025691653           21 
 1368000   0.70948894   -6.4686573    429.19594  0.026144977   0.02567304            8 
 1369000   0.71685905    -6.444515    428.86455  0.026105707  0.025654501            7 
 1370000   0.70629575   -6.4340317    428.98208  0.026093801  0.025635995            6 
 1371000   0.68299541   -6.4393934    428.81991  0.026064911  0.025617436            7 
 1372000    0.6974458   -6.4605937    428.76551  0.026042609  0.025598888           10 
 1373000   0.70878856   -6.4429258    428.83526  0.026027875  0.025580385            5 
 1374000   0.70342768   -6.4620045    429.54605  0.026052041  0.025561952            8 
 1375000   0.70936435   -6.4474348    430.25527  0.026076077  0.025543537           18 
 1376000   0.70893998   -6.4350921    429.49094  0.026010837  0.025525063           12 
 1377000   0.70485529   -6.4287405    429.67652  0.026003179   0.02550671           20 
 1378000    0.7171924   -6.4712667    429.96727  0.026001891  0.025488293           10 
 1379000   0.71323149   -6.4284286     430.5039  0.026015464  0.025469972            7 
 1380000   0.70270355   -6.4311632    430.73805  0.026010752  0.025451664           17 
 1381000   0.70325059    -6.445637    429.58783   0.02592251  0.025433426           31 
 1382000   0.70551516   -6.4405545    430.75423  0.025974085  0.025415129           25 
 1383000   0.71491617   -6.4512703    430.19787   0.02592178  0.025396767           17 
 1384000   0.69991965   -6.4583664    430.67184   0.02593159  0.025378515           22 
 1385000   0.68496139   -6.4575436     431.3173  0.025951703  0.025360267           15 
 1386000   0.70687955   -6.4577387    430.48071  0.025882678  0.025341988           17 
 1387000   0.70315421   -6.4546615    429.79338  0.025822722  0.025323662           11 
 1388000   0.68537834   -6.4778238    429.84888   0.02580745   0.02530527           24 
 1389000   0.70255441   -6.4731127    430.19085  0.025809386  0.025286886           23 
 1390000   0.70193398   -6.4715288    429.76628  0.025765364  0.025268555           14 
 1391000   0.68917128   -6.4720069    430.08515  0.025765945  0.025250233           13 
 1392000    0.7022758   -6.4504983    430.60104  0.025778319  0.025231874           23 
 1393000   0.68713437   -6.4811343    430.00799  0.025724335  0.025213565           12 
 1394000    0.6999712   -6.4698268    430.54982  0.025738272   0.02519531           12 
 1395000   0.68334744   -6.4859788    429.60694  0.025663497  0.025176951           10 
 1396000   0.70095728   -6.4772994    431.55892  0.025761635  0.025158616           13 
 1397000   0.69316746   -6.4774131    431.80796  0.025758051  0.025140337           13 
 1398000   0.69181209   -6.4600185    430.32293  0.025651104  0.025122021           10 
 1399000   0.69561393   -6.4966112    430.29623  0.025631179  0.025103637           39 
 1400000   0.70639057   -6.4854888    429.53462  0.025567537  0.025085337           17 
 1401000   0.68334744   -6.4535944    430.46417  0.025604578   0.02506713           13 
 1402000   0.69080362   -6.4456251     430.6917   0.02559984  0.025048906           16 
 1403000   0.70038569   -6.4775494    431.58617  0.025634721  0.025030663           14 
 1404000   0.69138891   -6.4694373    430.96289  0.025579469  0.025012474           12 
 1405000    0.6897015   -6.4582959    430.59822  0.025539634  0.024994267           14 
 1406000   0.70089983   -6.4611953    431.03577  0.025547402  0.024976112           45 
 1407000   0.68135086   -6.4888634    432.14771  0.025595103   0.02495796           38 
 1408000   0.70226436   -6.4871074    431.66407    0.0255483  0.024939847           45 
 1409000   0.68957643   -6.4757448    430.85619  0.025482386  0.024921661           50 
 1410000   0.68995904   -6.4866583     430.4921  0.025442796  0.024903411           11 
 1411000   0.70275279   -6.5014526    430.46623  0.025423236  0.024885188           25 
 1412000   0.69849831   -6.4938831    431.31752  0.025455472  0.024867027           34 
 1413000   0.69542074   -6.4883791    430.85831  0.025410374  0.024848963           13 
 1414000    0.6926093   -6.4742938     431.8648  0.025451721  0.024830874           15 
 1415000    0.6963531   -6.4807971    432.40761  0.025465701  0.024812816           39 
 1416000   0.69075189   -6.5131277    429.95729  0.025303513  0.024794809           21 
 1417000   0.68382875    -6.494794    430.75061  0.025332311  0.024776761           19 
 1418000   0.68652159   -6.4892994    432.20813  0.025400102   0.02475878           27 
 1419000   0.69373978   -6.5141728    431.55446  0.025343814   0.02474079            9 
 1420000   0.68530362   -6.5106396    430.79847    0.0252816  0.024722738           25 
 1421000   0.69401154   -6.5118001    431.30415  0.025293464  0.024704772           16 
 1422000   0.68643268   -6.4932513    431.12919  0.025265424  0.024686754           17 
 1423000    0.6767083   -6.5177914    431.43375  0.025265504  0.024668772           20 
 1424000   0.68702438   -6.5350391    431.94082  0.025277436  0.024650724           43 
 1425000   0.68612019   -6.5170446    431.08124  0.025209429  0.024632735           55 
 1426000   0.67688109   -6.5005971    431.51668  0.025217198  0.024614723           22 
 1427000   0.68236606   -6.5173354    431.77535  0.025214632  0.024596799           12 
 1428000   0.68166726   -6.5380283    431.60404  0.025186977  0.024578871           17 
 1429000   0.68477463   -6.5182485     431.3409  0.025154006  0.024560889           19 
 1430000   0.68540828   -6.5282303    430.82158  0.025106153  0.024542856           17 
 1431000   0.68848039   -6.5156555    432.05803  0.025160612  0.024524887            9 
 1432000   0.68266366   -6.5324458    430.59008  0.025057616  0.024506984           12 
 1433000   0.68562336   -6.5310288    432.27877  0.025138333  0.024489125           17 
 1434000   0.66813363   -6.5199459     431.6426  0.025083833  0.024471213            8 
 1435000   0.68335912   -6.5200756    432.13319  0.025094843  0.024453354           10 
 1436000   0.68848008   -6.5231607    431.27921   0.02502781  0.024435483           14 
 1437000   0.67946801   -6.5298331    432.07767  0.025056696  0.024417641           30 
 1438000   0.69294354   -6.5232883    432.42539  0.025059422  0.024399819            9 
 1439000   0.69346334   -6.4858146    433.23178  0.025088706  0.024382149            9 
 1440000    0.7010039   -6.5243773    432.35134  0.025020332  0.024364428            8 
 1441000   0.69868423   -6.5106851    433.00138  0.025040561  0.024346659           15 
 1442000   0.67175313   -6.5411825    431.42155  0.024931898  0.024328818           12 
 1443000   0.66562547   -6.5287207    431.59695  0.024924749  0.024310919            6 
 1444000   0.68789119   -6.5147584    432.20049  0.024942318  0.024293069           13 
 1445000   0.68697047   -6.5322389    433.48408  0.024999082  0.024275333           12 
 1446000   0.66976024   -6.5350767    431.76079   0.02488248  0.024257587           11 
 1447000   0.66832112   -6.5606778    431.23499  0.024835003  0.024239782           13 
 1448000   0.67025561   -6.5520748     431.5354  0.024835141  0.024221978           13 
 1449000   0.66944328   -6.5494238    432.01033  0.024845314  0.024204277           12 
 1450000   0.67334544   -6.5499283    431.66616    0.0248084  0.024186601           26 
 1451000   0.66626995   -6.5608034    431.35924  0.024773676  0.024168852           13 
 1452000   0.69629583   -6.5361049    433.25995    0.0248657  0.024151199           25 
 1453000   0.66463997    -6.526601    432.70362  0.024816679  0.024133544           18 
 1454000   0.67502165   -6.5269237    432.89713  0.024810702  0.024115996           12 
 1455000   0.67854551   -6.5441783    431.93114  0.024738324  0.024098391           15 
 1456000   0.67219934   -6.5592297    432.26251  0.024740299  0.024080743           20 
 1457000   0.67149542   -6.5428464     432.6378  0.024744784  0.024063107           21 
 1458000   0.66289175   -6.5385549    431.92534  0.024687091  0.024045565           13 
 1459000   0.67705057   -6.5285596    433.08912  0.024736641  0.024028009           18 
 1460000   0.67843396   -6.5351267    431.74741  0.024643117  0.024010539           20 
 1461000   0.68063786   -6.5666765    431.71008   0.02462412   0.02399297           18 
 1462000   0.67301094   -6.5324058    433.15047  0.024689379   0.02397535           14 
 1463000   0.67666636   -6.5490582    432.01383   0.02460776  0.023957717           20 
 1464000   0.66868978   -6.5336344    432.21949  0.024602658  0.023939998           35 
 1465000   0.67201372   -6.5460051     432.3216  0.024591673  0.023922272           27 
 1466000   0.67850789   -6.5585208       433.05  0.024616303  0.023904635           18 
 1467000    0.6721214   -6.5669813    432.49456  0.024567971   0.02388703           10 
 1468000   0.65928914   -6.5339585     432.7035  0.024563096  0.023869507           16 
 1469000   0.67351209   -6.5441029     432.4345  0.024531115  0.023852048           12 
 1470000   0.65592633    -6.542933    433.27325  0.024561975  0.023834617           10 
 1471000   0.65929611   -6.5486117    433.91786  0.024581796   0.02381718           35 
 1472000   0.66556974   -6.5825102    432.06164  0.024460012  0.023799747           42 
 1473000   0.65772939   -6.5586786    434.14376  0.024561199  0.023782327            6 
 1474000   0.66048395   -6.5438204    432.15987  0.024432376  0.023764889           16 
 1475000   0.65829383   -6.5603518    433.07184  0.024467335  0.023747402           11 
 1476000   0.64063942   -6.5640612    433.53315  0.024476804  0.023729944           13 
 1477000   0.65848664   -6.5867484    432.31669  0.024391598   0.02371247           15 
 1478000    0.6420765   -6.5661742    432.14633   0.02436549  0.023694998           11 
 1479000   0.66446578   -6.5940462    432.95549  0.024394607  0.023677539           16 
 1480000   0.65549013   -6.5978374    432.38604  0.024346061  0.023660138           13 
 1481000   0.67720365   -6.5728846    432.65331  0.024344661  0.023642632           12 
 1482000    0.6706148    -6.550943    432.92047  0.024343256  0.023625203           13 
 1483000   0.64826661    -6.557864    431.98495  0.024274272  0.023607802           39 
 1484000   0.67617287   -6.5776635    432.80365  0.024303889  0.023590416           16 
 1485000   0.65294003   -6.5824316     432.7374  0.024283805  0.023572987           50 
 1486000   0.65438953   -6.5726221    432.75122  0.024268238  0.023555589           21 
 1487000   0.66210087    -6.583461    432.43401  0.024234141   0.02353815           25 
 1488000   0.65496435   -6.5996051    433.45165  0.024274846   0.02352072           26 
 1489000   0.65534739   -6.5762977    433.28415  0.024249169  0.023503371           26 
 1490000   0.65967955   -6.5775909     432.3423  0.024180218  0.023486014           36 
 1491000   0.64271056   -6.5893671    432.13981  0.024152683  0.023468648           23 
 1492000   0.65990569   -6.5782691     433.2269  0.024197213  0.023451307           14 
 1493000    0.6454177   -6.5701993    433.20772  0.024179935  0.023434022           26 
 1494000   0.65133817   -6.5713418    433.27662  0.024167594  0.023416827           18 
 1495000   0.66138058   -6.5694501    433.44003  0.024160537  0.023399572           19 
 1496000   0.65626812   -6.5755631    433.09473  0.024125152  0.023382353           20 
 1497000   0.66343664    -6.555363     433.8681  0.024152088  0.023365104           21 
 1498000   0.65044878   -6.5577434    433.27726  0.024103097  0.023347959           14 
 1499000   0.65041072   -6.5815677    433.50828   0.02409986  0.023330793           25 
 1500000   0.66372206   -6.5731109    433.73373  0.024096318  0.023313664           17 
 1501000   0.65352484   -6.5691785    433.70509  0.024078675   0.02329649           22 
 1502000   0.66628543   -6.5809348    433.16108  0.024032461  0.023279283            9 
 1503000   0.65419265    -6.581583    432.44191  0.023976597  0.023262154           17 
 1504000   0.65920204   -6.6111919    433.48089  0.024018223  0.023244948           20 
 1505000   0.66054643   -6.5791157    433.57517  0.024007484  0.023227734           23 
 1506000   0.65606576    -6.605207    432.70049  0.023943143  0.023210566           11 
 1507000   0.65505153   -6.5627141    434.28166   0.02401469  0.023193479           13 
 1508000   0.64898332   -6.5860883    432.70449   0.02391161  0.023176298           13 
 1509000   0.62977555    -6.572034    433.91548   0.02396264   0.02315922           10 
 1510000   0.65994438   -6.5990224    433.58821  0.023928709   0.02314211           17 
 1511000   0.64600047   -6.5796188    433.25451  0.023894469  0.023125034           16 
 1512000    0.6495085   -6.5861882    434.39184  0.023941349  0.023107935           21 
 1513000   0.64434687   -6.5803002    434.13505  0.023911382  0.023090922           24 
 1514000   0.65502708   -6.5766352    434.69668  0.023926501  0.023073889           10 
 1515000   0.66638586   -6.5895065    434.23365  0.023885239  0.023056937           11 
 1516000   0.63395078   -6.6153839    434.42326  0.023879906  0.023040042           36 
 1517000    0.6495347   -6.5808246    433.78369  0.023829031  0.023023042           16 
 1518000   0.64187873   -6.5702964    433.95901  0.023822958  0.023006073           31 
 1519000   0.63908167   -6.5892553     434.1196  0.023816085  0.022989082           20 
 1520000   0.66283342    -6.607654    434.09454  0.023799043  0.022972111           24 
 1521000    0.6439446   -6.5946821    433.47203  0.023749289  0.022955114           17 
 1522000   0.65182138   -6.5997644     434.1376  0.023770127  0.022938157           13 
 1523000   0.64533546   -6.5796843      434.047  0.023749562  0.022921188           19 
 1524000   0.64027575   -6.5838182    435.08353  0.023790657  0.022904253           22 
 1525000   0.63979324   -6.5990979    433.96159  0.023713748  0.022887291           17 
 1526000    0.6461179   -6.6084169    432.51956  0.023619461  0.022870317            9 
 1527000   0.64307677   -6.6035914     433.8496  0.023676577  0.022853423           32 
 1528000    0.6450439   -6.6274996    433.56363  0.023645486  0.022836486           24 
 1529000   0.65629503   -6.5791598     434.6256    0.0236879  0.022819614           16 
 1530000   0.65065652   -6.6076141    434.66961  0.023674815  0.022802805           21 
 1531000   0.64500844   -6.5609901    435.03122  0.023679034  0.022786042           24 
 1532000   0.64676621   -6.5800258    433.90112  0.023602106  0.022769326           11 
 1533000   0.63610044   -6.5895264    434.13259  0.023599293  0.022752606           37 
 1534000   0.62833252   -6.6239988    434.09814  0.023582037  0.022735845           25 
 1535000   0.64288064   -6.6051432    433.95058  0.023558663  0.022719042           13 
 1536000    0.6294039   -6.6048342    432.81357  0.023481639  0.022702244           13 
 1537000   0.61772795   -6.6085147    433.87997   0.02352418  0.022685388           16 
 1538000   0.64014276   -6.6314366       433.68   0.02349805    0.0226685           24 
 1539000   0.64225268   -6.6192557    433.47769  0.023471827  0.022651629           16 
 1540000   0.63610968   -6.6240249    433.15581  0.023439167  0.022634707           25 
 1541000   0.63236546   -6.6465539    433.87433  0.023462813  0.022617804           30 
 1542000   0.61986355   -6.6427921    432.68112  0.023383113  0.022600959           24 
 1543000   0.63504324   -6.6240444    433.17374  0.023394564  0.022584023           26 
 1544000   0.63808741   -6.6536615    433.57231  0.023400924  0.022567181           21 
 1545000   0.62814069   -6.6376391    433.93833  0.023405519  0.022550315           26 
 1546000   0.63912856   -6.6138608    433.69645  0.023377342  0.022533493           36 
 1547000   0.61757671   -6.6280789    433.27288  0.023339414  0.022516638           27 
 1548000   0.63308387   -6.6423331    433.05159  0.023312424  0.022499856           43 
 1549000   0.64413511   -6.6380506    433.69724  0.023332109  0.022483081           30 
 1550000   0.64458315   -6.6670064    433.99389  0.023333005  0.022466311           40 
 1551000   0.63064404   -6.6480786    434.09871  0.023323593  0.022449552           21 
 1552000   0.65107161   -6.6411712    434.19371  0.023313666  0.022432832           28 
 1553000   0.62486573   -6.6496725    433.93493  0.023284768  0.022416092           19 
 1554000   0.62734209   -6.6245386    434.33234  0.023291095  0.022399336           31 
 1555000   0.63491408   -6.6587716    432.96143  0.023202649  0.022382596           32 
 1556000   0.63561334   -6.6474304     433.9452  0.023240424  0.022365822           23 
 1557000   0.62964613     -6.62601    434.51861  0.023256188  0.022349133           14 
 1558000   0.62982269   -6.6585392    433.32748   0.02317755  0.022332453           27 
 1559000   0.62374587   -6.6470081    434.20107  0.023209379  0.022315771           31 
 1560000   0.61735969   -6.6564973     433.6019  0.023162495  0.022299102           23 
 1561000   0.63034747   -6.6496338    433.11884  0.023121868  0.022282389           58 
 1562000     0.620452   -6.6420399    433.84561  0.023145839  0.022265704           31 
 1563000    0.6268116   -6.6393949    434.08378  0.023143729  0.022249094           20 
 1564000   0.61893286   -6.6541963    434.34232  0.023142707    0.0222324           33 
 1565000   0.62256296   -6.6405211    433.49132  0.023082605  0.022215687           27 
 1566000   0.63335113   -6.6357529    433.59177   0.02307321  0.022198982           30 
 1567000    0.6310717    -6.671855    433.26337  0.023041021  0.022182322           33 
 1568000   0.61242122   -6.6579148    433.65207  0.023046985  0.022165657           33 
 1569000   0.62691423   -6.6741083    433.60206   0.02302964  0.022149003           37 
 1570000   0.63363949   -6.6513883    433.30245  0.022999069  0.022132339           53 
 1571000    0.6352941   -6.6637118    433.22751  0.022980454  0.022115627          101 
 1572000   0.63273743   -6.6708911    433.87217  0.023000009  0.022098986           75 
 1573000   0.62460005   -6.6539205    433.31493  0.022955866  0.022082357           47 
 1574000   0.62805847   -6.6735332    433.47767  0.022949898  0.022065779           81 
 1575000   0.62734248   -6.6808673    432.92703  0.022906192  0.022049123           63 
 1576000   0.63672057   -6.6541776    433.74894  0.022935117  0.022032541           53 
 1577000   0.61627351   -6.6715206    433.92312  0.022929778  0.022015928           39 
 1578000   0.61876094   -6.6823907    432.99082  0.022866013   0.02199933           68 
 1579000   0.60540514   -6.6815856     433.1018  0.022857388  0.021982718           44 
 1580000    0.6115929   -6.6687327    433.70057  0.022874503  0.021966167           48 
 1581000   0.61654495   -6.6791285    433.40848  0.022844638  0.021949653           25 
 1582000   0.62566349   -6.6751888    432.99406  0.022808368  0.021933184           65 
 1583000   0.63110504    -6.676899    432.15914  0.022750007  0.021916645           92 
 1584000    0.6277711   -6.6925697    432.85092  0.022772039  0.021900115           31 
 1585000   0.62290191   -6.6733376    432.99482  0.022765238  0.021883605           50 
 1586000   0.62174212   -6.6806584    433.23543  0.022763526  0.021867119           49 
 1587000   0.62935033   -6.6879683    433.00163  0.022736906  0.021850623           69 
 1588000   0.61839666   -6.6958633    433.58494  0.022753198  0.021834117           76 
 1589000    0.6091583   -6.6703352    433.73785  0.022746898  0.021817657           59 
 1590000   0.60297926   -6.6855005     433.5589  0.022723213  0.021801167           79 
 1591000   0.62594572   -6.6833608    433.00485   0.02267991  0.021784728           50 
 1592000   0.63342405   -6.7137682    432.33628  0.022630668  0.021768274           52 
 1593000   0.60689922   -6.7088013    433.01931  0.022652192  0.021751817           32 
 1594000   0.61880482   -6.7083767     433.4521  0.022660607   0.02173537           19 
 1595000    0.6253051   -6.6800689    433.22279   0.02263442  0.021719005           66 
 1596000   0.61345765   -6.6940105    433.96548  0.022659016  0.021702656           84 
 1597000   0.62146162   -6.6717684    434.27708  0.022661087   0.02168632           40 
 1598000   0.59216873   -6.6895374    433.40364  0.022601358  0.021670023           79 
 1599000    0.6042658   -6.6679514    433.35852  0.022584872  0.021653728          103 
 1600000   0.61208289   -6.6809347    433.33935  0.022569758  0.021637444           31 
 1601000   0.61933187    -6.671112    434.79828  0.022631599  0.021621186           31 
 1602000   0.61727546   -6.7001809    433.59683  0.022554975  0.021604937           36 
 1603000   0.61404442   -6.6877088    433.32285  0.022526661  0.021588735           36 
 1604000   0.61594902   -6.6711003     435.0264  0.022601122  0.021572522           51 
 1605000   0.60133427   -6.6969553    433.83397  0.022525128   0.02155633           17 
 1606000   0.62287352   -6.6897867    433.64163  0.022501122  0.021540126           20 
 1607000    0.6103594   -6.6932398    434.28743  0.022520609  0.021523936           39 
 1608000      0.60262   -6.7063274    433.45477  0.022463452   0.02150775           29 
 1609000   0.60962039    -6.699339     433.4751  0.022450544   0.02149163           29 
 1610000   0.61508016   -6.7085398     434.0673  0.022467252  0.021475501           30 
 1611000    0.6223198   -6.7000986    434.78495  0.022490428  0.021459356           20 
 1612000   0.62688684   -6.7055423    432.98918  0.022383643   0.02144322           23 
 1613000   0.59900647   -6.7111154    433.43257  0.022392672  0.021427043           18 
 1614000   0.62017474   -6.7152926    433.15187  0.022364306  0.021410876           35 
 1615000   0.62507896   -6.6939243    433.42797  0.022364704  0.021394699           15 
 1616000   0.62687312    -6.714243    434.05516  0.022383207  0.021378593           22 
 1617000   0.60567348   -6.6950021    433.97983  0.022365483  0.021362523           23 
 1618000   0.61888311   -6.7071646    433.69413  0.022336945   0.02134648           62 
 1619000   0.60171841   -6.6902437    433.35694  0.022305793  0.021330439           51 
 1620000   0.62211099   -6.7102049    434.01859  0.022326059  0.021314412           33 
 1621000   0.59901764   -6.7165273    433.33396   0.02227709  0.021298376           54 
 1622000   0.60984112   -6.7107155    433.47117  0.022270405  0.021282287           57 
 1623000   0.59048565   -6.7055746    433.44721  0.022255453  0.021266124           40 
 1624000    0.6002311    -6.718077    433.48886  0.022243887  0.021250049           33 
 1625000   0.61326252   -6.7173295    433.39349  0.022225307  0.021233973           97 
 1626000    0.5958876   -6.6977824    433.68771  0.022226717  0.021217951           42 
 1627000    0.6026329   -6.7006696    434.45844  0.022252532  0.021201934           39 
 1628000   0.59382538   -6.7113696    434.08718   0.02221986  0.021185931           24 
 1629000   0.60580713   -6.7047324    434.79139  0.022242244  0.021169912           39 
 1630000   0.59938911   -6.7214667    434.18478  0.022197586  0.021153913           25 
 1631000   0.59967951    -6.709015    433.65339  0.022156826   0.02113795           34 
 1632000   0.60485016   -6.7295072    434.20946  0.022171643  0.021121994           23 
 1633000   0.60508996   -6.7134671    433.77239  0.022135762  0.021105992           34 
 1634000   0.60416351   -6.7203396    433.68122  0.022117565   0.02108998           42 
 1635000   0.60852816   -6.7307191    434.31677  0.022136431  0.021074005           33 
 1636000   0.60663667   -6.7259233    432.98711  0.022055171  0.021058025           32 
 1637000   0.59439938   -6.7307664    432.72959  0.022028589  0.021042038           22 
 1638000    0.6057036   -6.7185255    433.71918  0.022065486    0.0210261           35 
 1639000   0.59622037   -6.7231022    433.55795  0.022043825  0.021010162           42 
 1640000    0.6160512   -6.7326512    433.04822  0.022004483   0.02099419           35 
 1641000   0.59314937   -6.7321109    431.89328  0.021932423  0.020978184           51 
 1642000   0.61029488   -6.7294991    433.57854  0.022004595  0.020962246           39 
 1643000   0.59117513   -6.7379297      432.722  0.021947758  0.020946257           41 
 1644000   0.59847189   -6.7287313    432.80229  0.021938478  0.020930272           82 
 1645000   0.60062563   -6.7374862    433.79312  0.021975335  0.020914342           27 
 1646000   0.58569504   -6.7332443    433.64396  0.021954433  0.020898444           39 
 1647000   0.58742185   -6.7422945    433.32473  0.021924951   0.02088254           20 
 1648000   0.58945069   -6.7534548    433.32881  0.021911853  0.020866653           33 
 1649000   0.58907479   -6.7176951    433.38506  0.021901408  0.020850818           45 
 1650000   0.58599163   -6.7474301    433.78312  0.021908238  0.020834932           60 
 1651000    0.5864862   -6.7589425    432.39367  0.021824837   0.02081901           49 
 1652000   0.60451562   -6.7291341    433.37085  0.021860919   0.02080315           59 
 1653000   0.59434054   -6.7490046    433.72309  0.021865451  0.020787338           93 
 1654000   0.59120024   -6.7485777    433.57915  0.021844979  0.020771475           52 
 1655000   0.59876589   -6.7536816    433.22816  0.021814107  0.020755632           53 
 1656000   0.59027412   -6.7633127    432.83475  0.021781137  0.020739765           62 
 1657000    0.5923115   -6.7677116    432.55676  0.021754011  0.020723925           52 
 1658000   0.59156921   -6.7357511     433.3519  0.021780855  0.020708082           39 
 1659000   0.58433808   -6.7597804    431.69979  0.021684739   0.02069227           29 
 1660000    0.6029123   -6.7551642    432.48657  0.021711173  0.020676425           98 
 1661000   0.59251326   -6.7491734     433.5655  0.021752233  0.020660633           49 
 1662000   0.58987455   -6.7692838    432.59001  0.021690233  0.020644854           93 
 1663000   0.59911092   -6.7655671    431.50258  0.021622699  0.020629057          102 
 1664000   0.58045031   -6.7694511    432.20484  0.021644874  0.020613291           34 
 1665000   0.58797051    -6.754948    432.11395  0.021627325  0.020597511           67 
 1666000   0.59669157   -6.7613657    433.65736  0.021691545  0.020581778           29 
 1667000   0.59353402   -6.7654337    432.94811  0.021643077  0.020566057           26 
 1668000   0.58493705   -6.7381984    432.90163  0.021627779  0.020550395           61 
 1669000   0.58225322   -6.7817984    433.64215  0.021651795   0.02053474           31 
 1670000   0.59289461   -6.7641703    433.03599  0.021608582  0.020519087           30 
 1671000   0.58136544   -6.7652649    432.98117  0.021592917  0.020503462           33 
 1672000    0.5883554    -6.775858    433.00625  0.021581252  0.020487839          125 
 1673000   0.58847482    -6.760612    432.39667  0.021537989   0.02047221           95 
 1674000   0.58808911   -6.7726646    433.21823  0.021566021  0.020456632           91 
 1675000   0.59848708   -6.7587516    433.57567  0.021570929  0.020441021           35 
 1676000   0.57946789   -6.7765883    433.05388  0.021532114  0.020425485           72 
 1677000   0.57267089   -6.7519227    433.56106  0.021544477  0.020409927           52 
 1678000   0.58187053   -6.7591127    432.99311  0.021503432  0.020394414           29 
 1679000   0.59290007   -6.7891995    432.76263  0.021479186  0.020378922           85 
 1680000   0.59239481   -6.7635317    433.44781  0.021500387  0.020363469           57 
 1681000   0.57945461   -6.7547101    433.34054  0.021482279  0.020347984           95 
 1682000   0.58391052   -6.7817468     432.8093  0.021443188  0.020332499           39 
 1683000   0.57694841   -6.7832354    433.18324  0.021448962   0.02031692           39 
 1684000   0.57361995   -6.7903358     433.1438  0.021434274  0.020301392           94 
 1685000   0.57141003   -6.7792658    432.41761  0.021385639  0.020285883           55 
 1686000    0.5828398   -6.7872776    432.47235   0.02137566  0.020270372           94 
 1687000   0.58644605    -6.767528    433.28699   0.02140323  0.020254946           59 
 1688000   0.58342576   -6.7752085    432.75557  0.021364315  0.020239503           66 
 1689000   0.57405376   -6.7929687    432.93906   0.02136072  0.020224023           40 
 1690000   0.57492911   -6.7880311    432.03454  0.021303478  0.020208595          128 
 1691000   0.57350808   -6.7759502    433.38641  0.021357501  0.020193179           97 
 1692000    0.5739533   -6.7840469    433.51964   0.02135144  0.020177771          129 
 1693000   0.58425892    -6.795439     432.9757  0.021312055  0.020162355          142 
 1694000   0.58269665   -6.7847448    431.84585  0.021243893  0.020146916          106 
 1695000   0.57641699   -6.7795184    432.25077  0.021251267  0.020131506           89 
 1696000     0.577584   -6.7797068    432.74942  0.021263238  0.020116151          237 
 1697000    0.5807429   -6.7846984    431.96657  0.021212265  0.020100775           99 
 1698000   0.57904617   -6.8013076    432.65377  0.021233499  0.020085358           56 
 1699000   0.58291392   -6.7578403    432.78601  0.021227487  0.020069995           98 
 1700000   0.57887716   -6.7963482    432.71403  0.021211472  0.020054637           63 
 1701000   0.56674262    -6.808743    432.81352  0.021203876  0.020039284          170 
 1702000   0.55831317   -6.7872592    432.46999  0.021174598  0.020023941           63 
 1703000   0.58670022   -6.8047242    432.75852  0.021176283  0.020008598          121 
 1704000    0.5778747   -6.7982559    430.83991  0.021070027  0.019993208          125 
 1705000    0.5930001   -6.8006955    432.18683  0.021123501  0.019977859          188 
 1706000    0.5723561   -6.8206933    431.28845  0.021067236  0.019962514           89 
 1707000   0.56815348   -6.8182299    431.11153  0.021046257  0.019947127           80 
 1708000   0.56717004    -6.826906    431.56438   0.02105603  0.019931785           54 
 1709000   0.57169645   -6.8125181    432.13584  0.021071574  0.019916498           49 
 1710000   0.57031413   -6.8017923      431.718  0.021038889  0.019901238           71 
 1711000   0.56701366   -6.8200026    432.92799  0.021085524  0.019885983           97 
 1712000   0.57847398   -6.8211206    432.19096  0.021037332  0.019870718          146 
 1713000     0.564217   -6.8157931    431.95009  0.021013334  0.019855464          140 
 1714000     0.564863   -6.8266638    432.87993  0.021046282    0.0198402          120 
 1715000   0.57450644   -6.8066777    432.85259  0.021032682  0.019824901          122 
 1716000   0.56679631   -6.8155695    431.71697  0.020965276  0.019809626           70 
 1717000    0.5710431   -6.8180561    431.55843  0.020945371  0.019794362          151 
 1718000   0.56872623   -6.8199939    432.63036  0.020985174  0.019779123          116 
 1719000   0.55809647   -6.8069872    433.21947  0.021001526  0.019763881          131 
 1720000   0.56954286   -6.8151414    431.42508  0.020902378  0.019748604          173 
 1721000    0.5643664   -6.8390042    431.10665  0.020874814  0.019733319          182 
 1722000   0.56440302   -6.8273764    431.30254  0.020872171  0.019718021           73 
 1723000   0.57326448   -6.8361027    430.57186  0.020824717  0.019702783          185 
 1724000    0.5634568   -6.8133023     431.7222  0.020868243  0.019687563          261 
 1725000   0.56110522   -6.8195636    432.41807  0.020889762  0.019672343           96 
 1726000   0.55471262    -6.822661    431.60674  0.020838487  0.019657119          246 
 1727000   0.55935883    -6.829418    431.75668  0.020833655  0.019641942          230 
 1728000   0.56330662   -6.8405283    431.33324  0.020801179   0.01962673          165 
 1729000   0.56113207   -6.8323247     431.8372  0.020813438  0.019611502          246 
 1730000   0.56082505   -6.8632641     431.5333  0.020786768  0.019596313          161 
 1731000   0.56086574   -6.8525341     431.1556  0.020756576  0.019581119          282 
 1732000    0.5532833   -6.8403439    432.13273  0.020791605   0.01956594          238 
 1733000   0.56862225   -6.8606475    430.78772  0.020714932  0.019550759          234 
 1734000   0.57059765   -6.8522568    430.96124  0.020711325  0.019535598          224 
 1735000   0.55893075   -6.8256021    431.14935  0.020708422  0.019520459          287 
 1736000   0.56141749     -6.83785    431.41091  0.020709049  0.019505336          408 
 1737000   0.56406975   -6.8392764    431.80151  0.020715866  0.019490226          121 
 1738000   0.56153235   -6.8736293    430.76563  0.020654278  0.019475113          148 
 1739000   0.55213825   -6.8675418    430.62587  0.020635704  0.019459959          225 
 1740000   0.55503965   -6.8576821    431.08538  0.020645852  0.019444847          196 
 1741000    0.5442198   -6.8567136    430.88063  0.020624193  0.019429751          355 
 1742000   0.56262747   -6.8750631    432.13074  0.020672156  0.019414641          283 
 1743000   0.56033913   -6.8454624    431.41445  0.020626049  0.019399569          374 
 1744000   0.54807095   -6.8430394    431.55479  0.020620928  0.019384508          329 
 1745000   0.55463736   -6.8731556    430.83312  0.020574648  0.019369469          286 
 1746000   0.55254174   -6.8473187    431.36761  0.020588374  0.019354463          345 
 1747000   0.56795686   -6.8370735    431.15665  0.020566526  0.019339447          216 
 1748000   0.56332997    -6.866997    430.55164  0.020525917  0.019324433          356 
 1749000    0.5600202   -6.8386741    431.49265  0.020559017  0.019309421          188 
 1750000   0.55210172   -6.8614344    429.93874  0.020473273  0.019294407          372 
 1751000   0.54988938    -6.835584    431.52104  0.020536886    0.0192794          167 
 1752000   0.55389822   -6.8569425    431.67614  0.020532541  0.019264426          353 
 1753000    0.5559665   -6.8690701    430.84673    0.0204814  0.019249483          261 
 1754000   0.54164592   -6.8671054     430.5552  0.020455872   0.01923455          232 
 1755000   0.55840345    -6.851422    430.97335  0.020464072  0.019219658          350 
 1756000   0.54897904   -6.8597359    430.64968  0.020437058  0.019204747          264 
 1757000   0.55944653   -6.8544891    430.93837  0.020439118   0.01918985          383 
 1758000   0.54201569   -6.8672634    430.16259  0.020390718  0.019174915          361 
 1759000   0.55373955   -6.8741749    430.44376  0.020392447  0.019160062          273 
 1760000   0.54239138   -6.8542183    430.25093   0.02037173  0.019145175          406 
 1761000   0.55458303   -6.8766652    431.38914  0.020414023  0.019130326          480 
 1762000   0.55280472   -6.8725364    430.46892  0.020358916  0.019115436          412 
 1763000   0.55478296   -6.8558525    431.07479  0.020376007  0.019100584          272 
 1764000   0.54845363   -6.8715048    430.70923  0.020347186  0.019085733          265 
 1765000   0.54790228   -6.8734974    431.08451  0.020353376  0.019070893          278 
 1766000   0.53223397   -6.8611738    431.65693  0.020368862  0.019056048          350 
 1767000   0.54466867   -6.8618085    430.73442  0.020313829  0.019041225          417 
 1768000   0.54421521   -6.8773642    429.93479  0.020264649  0.019026427          382 
 1769000   0.55426238   -6.8614522    430.07067  0.020259594  0.019011613          431 
 1770000   0.55443822   -6.8752203    430.36313  0.020261917  0.018996815          451 
 1771000   0.55541412    -6.874229    429.83694  0.020225717  0.018982023          506 
 1772000   0.53419093   -6.8763479    429.69059  0.020207421  0.018967273          338 
 1773000   0.54416014   -6.8752997    430.81116  0.020248692  0.018952492          552 
 1774000   0.54045236   -6.8632912    431.06413  0.020249161  0.018937737          511 
 1775000   0.54947991   -6.8894997     430.4485   0.02020885  0.018923014          565 
 1776000   0.52813867   -6.8781007    430.51184  0.020200443   0.01890824          613 
 1777000   0.54247388   -6.8859621    429.52564  0.020142827  0.018893517          624 
 1778000   0.53911437   -6.9068225    430.05846  0.020156471  0.018878787          528 
 1779000   0.54770249   -6.8748288    431.57172  0.020216026  0.018864048          510 
 1780000   0.54793253   -6.8924536    430.64605  0.020161332  0.018849353          477 
 1781000   0.52964299   -6.8780149    430.35205  0.020136255  0.018834639          500 
 1782000   0.53651104   -6.8833289    430.49348  0.020131569  0.018819941          408 
 1783000   0.54171358   -6.8940709    430.69529   0.02012971  0.018805248          515 
 1784000    0.5424067   -6.8942763    429.94735   0.02008349    0.0187906          567 
 1785000   0.54135669   -6.8772374    429.64997  0.020058355  0.018775936          405 
 1786000   0.54425689   -6.9041113    430.77957  0.020099831  0.018761299          401 
 1787000    0.5362175   -6.9009219    429.94249  0.020049547  0.018746676          479 
 1788000   0.54122552   -6.9021262    430.28222  0.020054167  0.018732052          441 
 1789000   0.53067665   -6.8958365    430.05286  0.020032274  0.018717427          494 
 1790000   0.53278598   -6.8818135    430.07258  0.020022001  0.018702823          584 
 1791000   0.53258194   -6.9116342    430.62903  0.020036713  0.018688191          298 
 1792000   0.53370194    -6.904123    429.91393  0.019992277  0.018673591          510 
 1793000   0.53942564   -6.9027588     430.6736  0.020016434  0.018658981          567 
 1794000   0.53048631   -6.8858726    429.47239  0.019949479  0.018644387          585 
 1795000   0.55348698   -6.9005184    430.24864  0.019974403  0.018629799          455 
 1796000   0.54197511   -6.9152852    429.41444  0.019924575  0.018615206          475 
 1797000    0.5370442   -6.9061399    429.73983  0.019928577  0.018600616          425 
 1798000   0.53378105   -6.8952786    429.89283  0.019924584   0.01858606          527 
 1799000   0.54526257    -6.906863    430.60477  0.019946487  0.018571546          366 
 1800000   0.52322272   -6.9180795    429.61451  0.019889561  0.018557037          541 
 1801000   0.52874806   -6.8806428    429.99026  0.019895903  0.018542567          361 
 1802000   0.52943898   -6.8943257    429.90597  0.019880964  0.018528081          554 
 1803000   0.55613644   -6.8959404    430.03839  0.019876058   0.01851362          427 
 1804000   0.52101818   -6.8972511    430.22197  0.019873521  0.018499163          539 
 1805000   0.53621877   -6.9309473    429.16699  0.019813804  0.018484709          339 
 1806000   0.52540868   -6.9117498    429.07736  0.019798697  0.018470255          388 
 1807000   0.53119831   -6.9155297    429.53446   0.01980882  0.018455814          174 
 1808000   0.54505365   -6.9146323    429.98355  0.019818563  0.018441371          405 
 1809000   0.52571334   -6.9216572    428.66617  0.019746921  0.018426964          441 
 1810000   0.52626383   -6.8906824    429.46574  0.019772824   0.01841256          361 
 1811000   0.54580898   -6.9106899    428.95721  0.019738506  0.018398188          245 
 1812000   0.52926586   -6.9161894    428.62066  0.019712135  0.018383784          513 
 1813000   0.52350023   -6.9076104    429.09378  0.019723009  0.018369423          510 
 1814000   0.53996142   -6.9124465    428.85696  0.019701257  0.018355047          276 
 1815000   0.51332486   -6.9383437    428.87181  0.019691084  0.018340702          449 
 1816000   0.53719536   -6.9088745    429.20268  0.019695424   0.01832636          512 
 1817000   0.52088965   -6.9271201    429.13715  0.019681579  0.018312045          455 
 1818000   0.52288649   -6.9040423    429.46222  0.019685654  0.018297724          394 
 1819000    0.5243329   -6.9226756    429.52973  0.019677924  0.018283443          491 
 1820000   0.53320475   -6.9408928    428.25546  0.019608766  0.018269136          464 
 1821000   0.51758697   -6.9328552    429.02925  0.019633409  0.018254855          505 
 1822000   0.51966448   -6.9288995    428.41758  0.019594657  0.018240571          576 
 1823000   0.53466406   -6.9105784    429.81323  0.019647707  0.018226292          400 
 1824000   0.52302214   -6.9158532    429.77681  0.019635271  0.018212048          502 
 1825000   0.51760448   -6.9440578    429.34102  0.019604613  0.018197787          588 
 1826000   0.51267375    -6.941993    428.81161  0.019569716  0.018183528          556 
 1827000   0.52363376   -6.9299129    429.56933  0.019593566  0.018169296          551 
 1828000   0.51894297   -6.9360488    428.69204  0.019542854  0.018155096          516 
 1829000   0.51940713   -6.9269737    428.44377  0.019520857  0.018140871          494 
 1830000   0.52578374   -6.9422498    428.18511  0.019498411  0.018126674          592 
 1831000   0.51730224    -6.923284    429.00604  0.019525125  0.018112502          633 
 1832000   0.52482052   -6.9300434    428.74674  0.019502672  0.018098327          541 
 1833000   0.52259826   -6.9483313     428.3397  0.019473527  0.018084152          445 
 1834000   0.52465503   -6.9349162    428.21023  0.019457026   0.01806998          333 
 1835000   0.53193088   -6.9313696    429.47012  0.019503639  0.018055813          419 
 1836000   0.52218159   -6.9492023    428.62962  0.019454866  0.018041682          586 
 1837000   0.50910947     -6.93691    428.46281  0.019436709   0.01802756          556 
 1838000   0.52907548   -6.9299004    428.61709  0.019433129  0.018013436          580 
 1839000   0.52379505    -6.936001    429.83538  0.019477768  0.017999338          654 
 1840000   0.52056138   -6.9514715    429.08859   0.01943336  0.017985242          595 
 1841000   0.51846977   -6.9440623    429.28381  0.019431641  0.017971146          737 
 1842000   0.52389922   -6.9385935    428.99164  0.019407874  0.017957073          651 
 1843000   0.51633029   -6.9496996     429.0247  0.019398838  0.017943027          633 
 1844000    0.5248111   -6.9478912     429.4393  0.019407055  0.017928998          711 
 1845000   0.51918079   -6.9232554    428.61302  0.019359215  0.017914973          591 
 1846000   0.52242974   -6.9521097    428.95548  0.019364187  0.017900951          612 
 1847000   0.50880107   -6.9452125    428.64684  0.019339778   0.01788691          684 
 1848000   0.51671149   -6.9552515    429.11474  0.019350412  0.017872897          605 
 1849000   0.51497761   -6.9393065    428.60215  0.019316844   0.01785889          765 
 1850000   0.51283397   -6.9436855    429.13254  0.019330295  0.017844892          599 
 1851000   0.52517099   -6.9470043     428.3032  0.019282514  0.017830921          486 
 1852000    0.5180009   -6.9410078    428.63251   0.01928692  0.017816952          563 
 1853000   0.50995236   -6.9674483    428.60061  0.019275077  0.017802999          669 
 1854000   0.51693357   -6.9621931    428.42238  0.019256669  0.017789055          766 
 1855000   0.50722003   -6.9526601    428.87013  0.019266403  0.017775138          867 
 1856000   0.51820926   -6.9551355    428.87883  0.019256413  0.017761263          557 
 1857000   0.51838756   -6.9627471    428.53299  0.019230523   0.01774738          715 
 1858000   0.50880657   -6.9509676    429.34669  0.019256669  0.017733496          670 
 1859000    0.5181566    -6.960405    427.76065  0.019175213  0.017719606          758 
 1860000   0.51845254    -6.947157    428.81626  0.019212198  0.017705727          673 
 1861000   0.51712351   -6.9795994    428.57449  0.019191048  0.017691851          826 
 1862000   0.50223173    -6.975965    428.45679  0.019175474  0.017677989          767 
 1863000   0.50963259   -6.9553002    428.06881  0.019147826  0.017664157          710 
 1864000   0.50575695   -6.9647389    428.02597  0.019135639  0.017650329          814 
 1865000   0.50916224   -6.9532851    429.03534   0.01917048  0.017636512          795 
 1866000   0.50984067   -6.9577609    428.11823  0.019119249  0.017622716          698 
 1867000   0.50759031   -6.9827393    427.79618  0.019094634  0.017608914          699 
 1868000   0.51507072   -6.9635606    428.72323  0.019125769   0.01759513          851 
 1869000   0.50813657   -6.9624646    427.85493  0.019076821  0.017581345          808 
 1870000   0.50338155   -6.9641554    428.04102  0.019074912  0.017567581          793 
 1871000   0.50133605    -6.969754    427.78371  0.019053256  0.017553815          802 
 1872000   0.51057215   -6.9758433    428.48517  0.019074304  0.017540075          498 
 1873000   0.51172916   -6.9740214    427.20826  0.019007308  0.017526334          777 
 1874000   0.50727087   -6.9726083    428.51819  0.019055416  0.017512607          706 
 1875000   0.51058548   -6.9669402    428.60042  0.019048908  0.017498913          722 
 1876000   0.49939295   -6.9815757    428.13366   0.01901802  0.017485223          730 
 1877000   0.50018843   -6.9894851    428.38371  0.019018989  0.017471546          746 
 1878000   0.48892951     -6.97036    427.22423  0.018957411  0.017457869          764 
 1879000   0.51449793     -6.98375     427.6381  0.018965678   0.01744421          776 
 1880000    0.4977668   -6.9755941    428.41192   0.01898989   0.01743055          682 
 1881000   0.49947642   -6.9725967    427.77126  0.018951411  0.017416902          719 
 1882000   0.50980194   -6.9706809    428.30051  0.018964777  0.017403262          735 
 1883000   0.50709487   -6.9728376    427.88712   0.01893641  0.017389643          684 
 1884000   0.50055773   -6.9864029    428.17678  0.018939171  0.017376025          645 
 1885000   0.50242089   -7.0039151    427.80006  0.018912469  0.017362426          779 
 1886000   0.50371551   -6.9780775    426.98813  0.018866566  0.017348816          782 
 1887000   0.48703022   -6.9851662    428.05075  0.018903496  0.017335243          702 
 1888000   0.50570481   -6.9818432    428.24888  0.018902228  0.017321664          744 
 1889000   0.49909268   -6.9813092    428.60454  0.018907912  0.017308107          729 
 1890000   0.49365786   -6.9795044    428.24845  0.018882207  0.017294575          763 
 1891000   0.49602291   -6.9753129    428.10948  0.018866097  0.017281043          694 
 1892000   0.49234566   -6.9766866    428.23847  0.018861807  0.017267522          638 
 1893000   0.49177119   -6.9710036    427.74091   0.01882994  0.017254051          680 
 1894000    0.4993277   -6.9944348     427.5696   0.01881246  0.017240577          716 
 1895000   0.50467329    -6.982311    428.18286  0.018829501  0.017227112          730 
 1896000   0.49853408   -6.9872771     427.4018  0.018785241  0.017213651          794 
 1897000   0.49768323   -6.9860508    428.76132  0.018835061  0.017200209          720 
 1898000   0.50363326   -6.9834331    427.78314  0.018782189  0.017186783          690 
 1899000   0.48949006   -6.9945639    427.18571  0.018746082  0.017173369          690 
 1900000   0.48902967   -6.9711036    428.06884  0.018774949  0.017159976          720 
 1901000   0.49639608   -6.9897587    427.74596  0.018750919  0.017146576          747 
 1902000   0.48108963   -6.9788578    427.60453  0.018734864   0.01713318          731 
 1903000   0.49100445   -6.9685023    428.47873  0.018763301  0.017119826          698 
 1904000   0.48928021   -6.9968353    427.31342  0.018702443  0.017106463          715 
 1905000   0.49786088   -6.9802916     428.0032    0.0187228  0.017093113          806 
 1906000   0.48119033   -6.9973594    428.16202   0.01871992  0.017079765          716 
 1907000   0.49879957   -6.9917975    427.79052   0.01869387  0.017066433          736 
 1908000   0.50555127   -7.0025224    427.49969   0.01867137  0.017053102          808 
 1909000   0.49100577    -7.003803    426.90303  0.018635544  0.017039793          763 
 1910000   0.49143218    -6.996098    427.59561  0.018656004  0.017026498          723 
 1911000   0.48779982    -6.987499    426.93742   0.01861754  0.017013215          734 
 1912000    0.4881711   -6.9891443    427.61187  0.018637198  0.016999949          711 
 1913000   0.48286856   -6.9758396    428.43911  0.018663491  0.016986712          627 
 1914000   0.48407579   -6.9961894    427.99804  0.018634537  0.016973471          791 
 1915000   0.49687448   -6.9921792    427.01767  0.018582144  0.016960233          765 
 1916000   0.49819587   -6.9978508    426.94417  0.018569249  0.016947002          759 
 1917000   0.48158559   -6.9997709     427.6877  0.018591884  0.016933774          706 
 1918000   0.50038255   -7.0070564    427.19992  0.018560997  0.016920573          714 
 1919000   0.49293403   -6.9835169     426.5375   0.01852256  0.016907391          759 
 1920000   0.48633945    -7.007072    427.82291  0.018568703  0.016894194          710 
 1921000   0.48358847   -7.0178809    427.34732  0.018538405  0.016881037          792 
 1922000   0.49099524   -6.9817693    427.40222  0.018531141  0.016867884          766 
 1923000    0.4836498   -7.0015206    427.03519  0.018505598   0.01685474          777 
 1924000   0.48357161   -7.0001734    427.51616  0.018516812  0.016841592          787 
 1925000   0.49100838   -7.0131106    427.66743  0.018513742  0.016828472          699 
 1926000    0.4789935   -6.9863387    427.01683  0.018475979  0.016815345          725 
 1927000   0.47458604   -6.9875718    427.81283  0.018500814  0.016802246          744 
 1928000   0.47431262   -7.0000199    427.45913   0.01847593  0.016789155          726 
 1929000   0.47346145   -7.0185513    427.91299  0.018485959  0.016776059          779 
 1930000    0.4803542   -7.0077892    427.71705  0.018467921  0.016762991          842 
 1931000   0.48021971   -7.0250434    426.61227   0.01841068  0.016749934          794 
 1932000   0.48100904   -7.0000491    427.14798  0.018424257  0.016736877          800 
 1933000   0.49009727   -7.0268615     426.8665  0.018402591   0.01672385          763 
 1934000   0.47974059   -7.0180652    426.93222  0.018395907  0.016710813          877 
 1935000   0.47955788   -7.0047373    426.99992  0.018389316  0.016697797          840 
 1936000   0.48380943    -7.008842    427.38696  0.018396477  0.016684777          696 
 1937000   0.48744996   -7.0270371    426.84915  0.018363842   0.01667178          785 
 1938000   0.48585174   -7.0054684    426.45931  0.018337604    0.0166588          854 
 1939000   0.48850223   -7.0047271    426.85182  0.018345015  0.016645825          854 
 1940000   0.48181785   -7.0216446     426.5373  0.018322049  0.016632863          867 
 1941000   0.46627283   -7.0183385    427.23601  0.018342607  0.016619932          859 
 1942000   0.47608323   -7.0097047    427.15615  0.018329735  0.016606998          823 
 1943000   0.47844375    -7.012021    426.61838  0.018297237   0.01659407          827 
 1944000    0.4821827   -7.0189721    427.14219  0.018310279  0.016581136          837 
 1945000   0.48142197   -7.0180524    427.66601  0.018323308  0.016568219          868 
 1946000   0.48231065   -7.0243836    426.84696  0.018278818  0.016555322          887 
 1947000   0.48103978   -7.0283594    427.02988  0.018277259  0.016542435          847 
 1948000   0.48086855   -7.0143895    427.24256  0.018276975  0.016529589          820 
 1949000   0.47792028   -7.0323428    426.51916  0.018236667  0.016516727          779 
 1950000    0.4684228   -7.0414097    426.78115  0.018238511  0.016503865          734 
 1951000   0.47547856   -7.0154622    426.78129  0.018229168  0.016491013          786 
 1952000   0.46718155   -7.0228416    427.13008   0.01823472   0.01647818          809 
 1953000   0.46914103   -7.0278034    426.43928  0.018195907  0.016465358          805 
 1954000   0.47249001   -7.0244018    426.79471  0.018201753  0.016452546          775 
 1955000    0.4782884   -7.0249069    426.96536  0.018199717  0.016439731          809 
 1956000   0.47127922   -7.0336206    426.17882  0.018156903  0.016426934          814 
 1957000   0.47592998   -7.0205043    426.71676  0.018170532  0.016414126          909 
 1958000   0.46356968   -7.0237317    426.22276  0.018140227  0.016401336          844 
 1959000   0.47673294   -7.0379325    426.51052  0.018143208  0.016388554          845 
 1960000    0.4707953   -7.0475626    425.49169  0.018090633  0.016375797          906 
 1961000   0.47119998   -7.0471025    426.47398  0.018123151  0.016363041          788 
 1962000    0.4727605   -7.0342693    426.55571  0.018117385  0.016350305          862 
 1963000   0.46380821   -7.0362046    426.38894  0.018101076  0.016337566          832 
 1964000   0.46893762   -7.0328369    426.12505  0.018080662  0.016324851          812 
 1965000   0.47474057   -7.0395713     426.7138  0.018096429  0.016312147          873 
 1966000   0.47661811   -7.0554018    425.63117  0.018041335  0.016299431          910 
 1967000    0.4750385   -7.0512605    426.36076  0.018063072   0.01628674          874 
 1968000   0.46709895   -7.0304996    425.73438   0.01802737  0.016274061          835 
 1969000   0.46201494   -7.0471576    426.33244  0.018043526  0.016261388          927 
 1970000   0.46614748   -7.0321487    426.01165  0.018020797  0.016248713          899 
 1971000   0.46364523   -7.0410643    426.14615  0.018017341  0.016236059          891 
 1972000   0.47231944   -7.0466588     426.3094  0.018015103  0.016223431          815 
 1973000   0.46061099   -7.0514459    425.39688   0.01796743    0.0162108          880 
 1974000   0.47077459   -7.0486793     426.7502  0.018015459  0.016198192          896 
 1975000   0.47289742   -7.0314593    425.80592  0.017966495  0.016185602          914 
 1976000   0.46405667   -7.0629368     425.5495  0.017946588  0.016172996          883 
 1977000   0.46706933   -7.0456631    426.22783  0.017966103  0.016160405          843 
 1978000   0.46108186   -7.0510027    426.39172  0.017963925  0.016147823          823 
 1979000   0.46890173   -7.0337908    426.12897  0.017943784  0.016135262          771 
 1980000   0.45318359    -7.037645    425.80364  0.017921029  0.016122713          881 
 1981000   0.46760729   -7.0298519    426.24546  0.017930568   0.01611018          778 
 1982000   0.46457021   -7.0449534    426.27049  0.017922574  0.016097666          769 
 1983000   0.46141915   -7.0505543    426.01118  0.017902638  0.016085158          876 
 1984000    0.4670061   -7.0450074    425.83078  0.017886037  0.016072657          876 
 1985000   0.45098293   -7.0558572    426.48395  0.017904448  0.016060167          823 
 1986000   0.46735475   -7.0499686    425.52925  0.017855373   0.01604768          893 
 1987000   0.45897989   -7.0378535    425.80935  0.017858134  0.016035218          861 
 1988000   0.46043886   -7.0531594    426.04995  0.017859237  0.016022761          774 
 1989000   0.45930316    -7.058168    425.98762  0.017847646  0.016010316          877 
 1990000   0.46401798   -7.0518037    426.27927  0.017850891  0.015997887          922 
 1991000   0.46556194   -7.0418353    425.90441  0.017826235  0.015985465          901 
 1992000     0.464488   -7.0520185    425.99788  0.017821196  0.015973058          703 
 1993000   0.45970438   -7.0453545    425.43259  0.017788618  0.015960663          920 
 1994000   0.44996707   -7.0549221    425.65701  0.017789076  0.015948261          886 
 1995000   0.45223058   -7.0415141    425.37219  0.017768262  0.015935868          831 
 1996000   0.46186447   -7.0460804    425.50223  0.017764789  0.015923497          904 
 1997000   0.45173302   -7.0561582    425.90058  0.017772516  0.015911149          870 
 1998000   0.45844555   -7.0321674     426.8455  0.017803032  0.015898796          783 
 1999000   0.45840066   -7.0607714    425.37524  0.017732835  0.015886452          919 
 2000000   0.44309641   -7.0610221      425.456  0.017727333  0.015874123          910 
 2001000   0.45910634   -7.0500699    426.01007  0.017741549  0.015861817          851 
 2002000   0.45404754   -7.0484699    425.70242  0.017719881  0.015849515          934 
 2003000   0.45764451   -7.0561835     426.2764  0.017734914  0.015837226          970 
 2004000   0.44979935   -7.0608248     426.4132  0.017731753  0.015824926          886 
 2005000   0.46077144   -7.0690751    425.90918  0.017701961  0.015812654          900 
 2006000   0.45239196   -7.0691397    426.25545  0.017707521  0.015800402          858 
 2007000   0.45166757   -7.0519708    425.97378  0.017687003  0.015788161          817 
 2008000    0.4512148   -7.0585484    425.63417  0.017664101  0.015775916          858 
 2009000   0.44350394   -7.0586947    426.24873    0.0176808  0.015763686          812 
 2010000   0.45289151   -7.0593169    425.83331  0.017654781  0.015751465          910 
 2011000   0.44787028   -7.0600874    425.88264  0.017648046  0.015739255          859 
 2012000   0.45173213   -7.0644237     425.0845  0.017606217  0.015727061          847 
Loop time of 5201.25 on 48 procs for 2000000 steps with 4000 atoms

Performance: 66445.575 tau/day, 384.523 timesteps/s
99.4% CPU use with 48 MPI tasks x no OpenMP threads

MPI task timing breakdown:
Section |  min time  |  avg time  |  max time  |%varavg| %total
---------------------------------------------------------------
Pair    | 390.7      | 411.54     | 435.97     |  57.8 |  7.91
Neigh   | 36.02      | 37.255     | 38.484     |  10.1 |  0.72
Comm    | 337.85     | 362.63     | 387.03     |  65.3 |  6.97
Output  | 4.8316     | 4.8336     | 4.8801     |   0.3 |  0.09
Modify  | 4328       | 4336.8     | 4353.6     |   8.4 | 83.38
Other   |            | 48.2       |            |       |  0.93

Nlocal:        83.3333 ave          88 max          76 min
Histogram: 1 0 5 6 2 11 4 3 7 9
Nghost:        2398.38 ave        2413 max        2382 min
Histogram: 1 4 3 5 7 7 12 3 3 3
Neighs:        16631.5 ave       19156 max       14256 min
Histogram: 4 4 5 4 5 14 3 2 3 4
FullNghs:      33263.4 ave       35161 max       30333 min
Histogram: 1 1 6 5 4 7 4 5 7 8

Total # of neighbors = 1596645
Ave neighs/atom = 399.16125
Neighbor list builds = 107134
Dangerous builds = 0

#clear
#
#next RN
#
#jump SELF
Total wall time: 1:26:44
