
units lj                  # Use reduced LJ style units
atom_style atomic         # Uncharged point particles
atom_modify map hash      # Needed for indexing of clusters etc
                          # Used to be able to find where atoms are in relation to each other.

lattice fcc 1.0 spacing 1 1 1
Lattice spacing in x,y,z = 1.5874011 1.5874011 1.5874011
region box block 0 10 0 10 0 10 units lattice
create_box 2 box
Created orthogonal box = (0.0000000 0.0000000 0.0000000) to (15.874011 15.874011 15.874011)
  3 by 4 by 4 MPI processor grid
create_atoms 1 box
Created 4000 atoms
  using lattice units in orthogonal box = (0.0000000 0.0000000 0.0000000) to (15.874011 15.874011 15.874011)
  create_atoms CPU = 0.003 seconds
set type 1 type/fraction 2 0.06 78393
Setting atom values ...
  252 settings made for type/fraction
mass 1 1.0
mass 2 1.0
pair_style lj/cut  3.5
pair_modify tail  yes
pair_coeff 1  1  1.0  1.0   # Intearaction between 1 and 1 set with epsilon = 1 and sigma = 1
pair_coeff 1  2  1.5  0.8
pair_coeff 2  2  0.5  0.88

write_data data.0
System init for write_data ...
Neighbor list info ...
  update every 1 steps, delay 10 steps, check yes
  max neighbors/atom: 2000, page size: 100000
  master list distance cutoff = 3.8
  ghost atom cutoff = 3.8
  binsize = 1.9, bins = 9 9 9
  1 neighbor lists, perpetual/occasional/extra = 1 0 0
  (1) pair lj/cut, perpetual
      attributes: half, newton on
      pair build: half/bin/atomonly/newton
      stencil: half/bin/3d
      bin: standard
WARNING: Not all mixed pair coeffs generated from mixing. Use write_data with 'pair ij' option to store all pair coeffs. (../write_data.cpp:312)


#############################
#   M E L T   S Y S T E M   #
#############################

velocity all create 2.4 9580093 mom yes dist gaussian # Assign velocities
                                                    # Temperature 2.4, random number seed, zero linear momentum
                                                                                # Gaussian distribution

timestep 0.002   # simulation timestep
thermo 1000       # output thermodynamic data every 1000 steps bf 100

# Define a fix  in this case with index 1 applied to all
# particles in the simulation. This fix is for simulations
# in the anisotropic NPT ensemble. Note that we use the MTK
# correction.
fix 1 all npt temp 2.4 2.4 0.1 iso 5.68 5.68 0.5 mtk yes tchain 5 pchain 5 # Use NPT ensemble
                                                                         # Set temperature and pressure and damping
                                                                         # Numbers of thermostats in chain and in barostat
run 10000          # run for 10000 steps
Per MPI rank memory allocation (min/avg/max) = 3.642 | 3.644 | 3.648 Mbytes
Step Temp E_pair E_mol TotEng Press Volume 
       0          2.4   -7.9704536            0   -4.3713536   -2.7323792         4000 
    1000    2.4240989   -4.5606691            0  -0.92542982    5.5347227    4987.0912 
    2000    2.4094348   -4.5101467            0  -0.89689802    5.6275121    5010.8373 
    3000    2.3847062   -4.5051328            0   -0.9289677    5.8169498    4970.0754 
    4000    2.3906452   -4.4916711            0   -0.9065998    5.7954274    4997.6485 
    5000    2.4168129   -4.4866161            0  -0.86230315    5.4465323    5039.3104 
    6000    2.4147005   -4.5109915            0  -0.88984634    5.6621595    4995.3807 
    7000    2.4487727   -4.4930184            0  -0.82077774     5.901692    4991.7572 
    8000    2.3806717   -4.5699973            0  -0.99988245    5.6574461    4959.1447 
    9000    2.3910082   -4.5168193            0  -0.93120362    5.8052737    4970.8625 
   10000    2.4003257   -4.5109724            0  -0.91138405    5.8412956    4972.3688 
Loop time of 2.18836 on 48 procs for 10000 steps with 4000 atoms

Performance: 789633.200 tau/day, 4569.637 timesteps/s
99.6% CPU use with 48 MPI tasks x no OpenMP threads

MPI task timing breakdown:
Section |  min time  |  avg time  |  max time  |%varavg| %total
---------------------------------------------------------------
Pair    | 0.87945    | 0.93554    | 1.0454     |   3.3 | 42.75
Neigh   | 0.17863    | 0.18655    | 0.21029    |   1.3 |  8.52
Comm    | 0.62919    | 0.75293    | 0.84302    |   5.0 | 34.41
Output  | 0.00024253 | 0.00024687 | 0.00030912 |   0.0 |  0.01
Modify  | 0.26156    | 0.29855    | 0.35641    |   4.6 | 13.64
Other   |            | 0.01455    |            |       |  0.66

Nlocal:        83.3333 ave          92 max          77 min
Histogram: 6 3 3 9 9 7 5 0 5 1
Nghost:        1426.75 ave        1452 max        1404 min
Histogram: 2 8 3 4 8 7 6 7 2 1
Neighs:        7664.25 ave        8653 max        6924 min
Histogram: 4 6 6 9 7 3 6 2 2 3

Total # of neighbors = 367884
Ave neighs/atom = 91.971000
Neighbor list builds = 898
Dangerous builds = 169

# Equilibrate just above the melting temperature to avoid step fn in T

fix 1 all npt temp 1.25 1.25 0.1 iso 5.68 5.68 0.5 mtk yes tchain 5 pchain 5
run 2000
Per MPI rank memory allocation (min/avg/max) = 3.643 | 3.645 | 3.648 Mbytes
Step Temp E_pair E_mol TotEng Press Volume 
   10000    2.4003257   -4.5109724            0  -0.91138405    5.8412956    4972.3688 
   11000    1.2700828   -6.0730183            0   -4.1683704    5.6738891    4124.5293 
   12000    1.2308912   -6.0712052            0     -4.22533     5.736739    4116.6568 
Loop time of 0.459295 on 48 procs for 2000 steps with 4000 atoms

Performance: 752458.367 tau/day, 4354.504 timesteps/s
99.6% CPU use with 48 MPI tasks x no OpenMP threads

MPI task timing breakdown:
Section |  min time  |  avg time  |  max time  |%varavg| %total
---------------------------------------------------------------
Pair    | 0.20158    | 0.21542    | 0.23428    |   1.6 | 46.90
Neigh   | 0.03086    | 0.03235    | 0.035505   |   0.6 |  7.04
Comm    | 0.13263    | 0.15713    | 0.17931    |   2.4 | 34.21
Output  | 5.2014e-05 | 5.3392e-05 | 6.856e-05  |   0.0 |  0.01
Modify  | 0.041882   | 0.049914   | 0.057999   |   2.0 | 10.87
Other   |            | 0.004428   |            |       |  0.96

Nlocal:        83.3333 ave          92 max          75 min
Histogram: 2 1 4 6 18 4 2 7 2 2
Nghost:        1611.48 ave        1638 max        1591 min
Histogram: 2 7 5 8 6 10 3 4 2 1
Neighs:        9242.00 ave       10842 max        8012 min
Histogram: 1 3 7 9 14 7 4 2 0 1

Total # of neighbors = 443616
Ave neighs/atom = 110.90400
Neighbor list builds = 142
Dangerous builds = 7

#############################
# L I N E A R  Q U E N C H  #
#############################

# Define solid atoms. This closely follows ten Wolde  Ruiz-Montero and Frenkel  Faraday Discuss  1996  104  93-110
# Compute components of the per-atom q6 vector
compute q6 all orientorder/atom degrees 1 6 components 6 nnn NULL cutoff 1.3 # compute the Q6 parameter.
                                                                             # Use all neighbours within 1.3 unit cell.

# get number of connections
compute coord_number all coord/atom orientorder q6 0.5

# An atom is solid if it has 8 or more connections (of a possible 14)
variable is_solid atom c_coord_number>=8
group solid dynamic all var is_solid    # Must be dynamic to update
dynamic group solid defined

# do clustering
compute cluster solid cluster/atom 1.3 # Create a cluster where all atoms within are solid and max 1.3 units from another member

# define chunks one chunk per cluster
compute clus_chunks solid chunk/atom c_cluster nchunk every compress yes  # Says which atoms are in which chunk

# count the size of each chunk
compute size_chunks solid property/chunk clus_chunks count


# Find the maximum entry in the vector of chunk sizes
variable max_n equal max(c_size_chunks)


# Thermo style which includes this variable
# thermo_style custom step temp pe vol v_max_n

thermo ${N}  # Print the thermo information every 100 steps
thermo 1000  

# Reset the npt fix at a lower temperature (below freezing)
fix 1  all npt temp  ${temp} ${temp}  0.1  iso  5.68  5.68  0.5  mtk yes tchain  5  pchain  5
fix 1  all npt temp  0.45 ${temp}  0.1  iso  5.68  5.68  0.5  mtk yes tchain  5  pchain  5
fix 1  all npt temp  0.45 0.45  0.1  iso  5.68  5.68  0.5  mtk yes tchain  5  pchain  5

dump dmp2 all dcd ${N} traj.dcd
dump dmp2 all dcd 1000 traj.dcd


compute msd all msd com yes
variable twopoint equal c_msd[4]/6/(step*dt+1.0e-6)
fix 9 all vector 10 c_msd[4]
variable fit equal slope(f_9)/6/(10*dt)
thermo_style custom step temp pe c_msd[4] v_twopoint v_fit v_max_n

fix 1 all npt temp 1.25 ${temp} 0.1 iso 5.68 5.68 0.5 mtk yes tchain 5 pchain 5
fix 1 all npt temp 1.25 0.45 0.1 iso 5.68 5.68 0.5 mtk yes tchain 5 pchain 5
run 5000000 # 5000000  # Run for this many steps
Neighbor list info ...
  update every 1 steps, delay 10 steps, check yes
  max neighbors/atom: 2000, page size: 100000
  master list distance cutoff = 3.8
  ghost atom cutoff = 3.8
  binsize = 1.9, bins = 9 9 9
  4 neighbor lists, perpetual/occasional/extra = 1 3 0
  (1) pair lj/cut, perpetual
      attributes: half, newton on
      pair build: half/bin/atomonly/newton
      stencil: half/bin/3d
      bin: standard
  (2) compute orientorder/atom, occasional
      attributes: full, newton on
      pair build: full/bin/atomonly
      stencil: full/bin/3d
      bin: standard
  (3) compute coord/atom, occasional
      attributes: full, newton on
      pair build: full/bin/atomonly
      stencil: full/bin/3d
      bin: standard
  (4) compute cluster/atom, occasional
      attributes: full, newton on
      pair build: full/bin/atomonly
      stencil: full/bin/3d
      bin: standard
Per MPI rank memory allocation (min/avg/max) = 9.740 | 9.747 | 9.752 Mbytes
Step Temp PotEng c_msd[4] v_twopoint v_fit v_max_n 
   12000    1.2308912   -6.0712052 1.8792639e-30 1.3050443e-32 8.3333333e+20            1 
   13000    1.2640101    -6.063346    0.5626319 0.0036066146  0.045983749            4 
   14000    1.2393872   -6.0377544    1.0817159 0.0064387848  0.044251989            2 
   15000    1.2464905   -6.0783683    1.6231096 0.0090172755  0.044733922            1 
   16000    1.2380691   -6.1033831    2.1371927  0.011131212  0.044368126            3 
   17000    1.2613282    -6.031501    2.7483079  0.013472097   0.04485238            2 
   18000    1.2533155   -6.0765011    3.3361926  0.015445336  0.045889498            3 
   19000    1.2515066   -6.0883787    3.9118856  0.017157393  0.046297947            3 
   20000    1.2252719   -6.0126902    4.5350846  0.018896186  0.046830009            3 
   21000    1.2500438    -6.020591    5.1307564  0.020360144   0.04733039            2 
   22000    1.2517991   -6.0394463    5.6122928  0.021258684  0.047375344            5 
   23000    1.2670491   -6.0313745    6.1974851  0.022454656  0.047260909            2 
   24000    1.2598723   -6.0763324    6.7678861  0.023499604  0.047354503            4 
   25000    1.2614572   -6.0830628    7.3117339  0.024372446   0.04743784            1 
   26000    1.2222838   -6.1237494    7.7649538  0.024887672  0.047268575            5 
   27000    1.2748397   -6.0891899    8.3586615  0.025798338  0.047035801            5 
   28000    1.2539039   -6.0722385    8.7843581  0.026143922   0.04679119            3 
   29000    1.2613636   -6.0766409    9.2473931  0.026572968  0.046423612            6 
   30000    1.2719359   -6.0820273    9.7614588  0.027115163  0.046071598            2 
   31000    1.2492524   -6.0347488    10.261125   0.02758367  0.045747926            2 
   32000    1.2543627   -6.0716869     10.74435  0.027980077  0.045430823            5 
   33000    1.2486828   -6.0713978    11.274453  0.028470841  0.045165852            3 
   34000    1.2347962   -6.0255222    11.910949  0.029193501  0.045003277            2 
   35000    1.2474359   -6.0860497    12.521431  0.029812932  0.044958743            2 
   36000    1.2368409   -6.0810136    13.016366  0.030130477  0.044963267            4 
   37000    1.2492984    -6.045554     13.51053  0.030429121  0.044911738            3 
   38000    1.2508503   -6.0491113    13.956786  0.030606988  0.044833925            2 
   39000    1.2399327   -6.0540209    14.482678  0.030945893  0.044737216            6 
   40000    1.2466066    -6.043777    15.127214  0.031515028  0.044684133            4 
   41000    1.2409288   -6.0644873    15.770978  0.032054833  0.044692365            4 
   42000    1.2521175   -6.0395242    16.351348   0.03244315   0.04475545            4 
   43000    1.2302018   -6.0878226    16.836049  0.032628001  0.044785473            3 
   44000    1.2657359   -6.0834111     17.45826  0.033064886  0.044818671            2 
   45000    1.2606035   -6.0061115    17.985904  0.033307229  0.044860773            2 
   46000    1.2190165    -6.037272    18.471404  0.033462687  0.044879549            2 
   47000     1.255491   -6.0989538    19.014512  0.033713673  0.044890809            2 
   48000     1.247218    -6.102954    19.417286  0.033710565  0.044880224            2 
   49000    1.2795739   -6.0864778    19.932884  0.033899462  0.044875942            2 
   50000    1.2393936   -6.0744265     20.60019  0.034333649   0.04486018            3 
   51000    1.2570648   -6.0719175    21.094603  0.034468305  0.044848682            2 
   52000    1.2256355   -6.0541546    21.475927  0.034416549  0.044823386            1 
   53000    1.2584967   -6.0722447    21.918974  0.034463796  0.044765788            3 
   54000    1.2607791    -6.108874    22.327959  0.034456727  0.044675061            4 
   55000    1.2470839   -6.0357064    22.890449  0.034682498  0.044586106            3 
   56000     1.257917   -6.0840872    23.445314  0.034888861  0.044510706            4 
   57000    1.2405923   -6.0547711    24.042306   0.03514957  0.044479676            5 
   58000    1.2557407   -6.0870995    24.670703  0.035446412  0.044465395            2 
   59000    1.2412776   -6.0992399    25.330319  0.035777287  0.044451193            2 
   60000    1.2600775   -6.0318009    25.786032  0.035813933   0.04444949            1 
   61000    1.2581601   -6.0642388     26.23412  0.035838961  0.044427664            3 
   62000    1.2437665   -6.0499368     26.70284  0.035890914  0.044410482            2 
   63000    1.2343614   -6.0672724    27.199946  0.035978764  0.044392476            3 
   64000    1.2451426   -6.0627628     27.73751   0.03611655  0.044359508            2 
   65000    1.2173286   -6.0707736    28.260564  0.036231492  0.044332192            2 
   66000    1.2427364   -6.0879061    28.764474   0.03631878  0.044300345            4 
   67000    1.2635401   -6.0878385    29.401299   0.03656878  0.044293131            3 
   68000    1.2459358   -6.0977409    30.037019  0.036810071  0.044294445            3 
   69000    1.2761287   -6.0735722     30.62581  0.036987693   0.04429611            8 
   70000    1.2214356   -6.0840638    31.026385  0.036936173   0.04429128            3 
   71000    1.2457218   -6.0900819    31.816255  0.037343022  0.044311361            6 
   72000    1.2299844   -6.0734223     32.36976     0.037465  0.044342895            3 
   73000    1.2598574     -6.06105    32.897838  0.037554609  0.044371885            1 
   74000     1.240542   -6.0817997    33.344211  0.037549787  0.044396948            3 
   75000    1.2573603   -6.0426201    33.896641  0.037662934  0.044410056            2 
   76000    1.2226504   -6.0656718    34.382378  0.037699976  0.044421189            5 
   77000     1.275138   -6.0895385    35.025782  0.037906691  0.044447191            4 
   78000    1.2405986   -6.0919761     35.57125  0.038003471  0.044465818            6 
   79000    1.2321068   -6.0801138    36.081595  0.038060754  0.044485048            2 
   80000    1.2233445   -6.0785095    36.719576  0.038249558  0.044501168            3 
   81000    1.2371915   -6.0748997    37.188927  0.038260213  0.044517993            2 
   82000    1.2381712   -6.0957526     37.79256  0.038407073  0.044527793            3 
   83000     1.226109   -6.0803529    38.160432  0.038313687  0.044542348            3 
   84000     1.235833   -6.0662493    38.920359  0.038611467  0.044559061            3 
   85000    1.2127203   -6.1029556    39.331029  0.038559832  0.044576127            2 
   86000    1.2544479   -6.0921987     39.98154  0.038741802   0.04459838            4 
   87000    1.2420079   -6.0940406    40.664727  0.038950887  0.044622678            9 
   88000    1.2459714   -6.0988907     41.34124  0.039148901     0.044655            2 
   89000    1.2299351   -6.1144442    41.622392  0.038972277   0.04467705            2 
   90000    1.2334661   -6.1108989    42.224778  0.039097017  0.044701213            4 
   91000    1.2141099   -6.0808292    42.650243  0.039056999  0.044717364            4 
   92000    1.2315288   -6.0815366    43.335465  0.039253138   0.04473848            3 
   93000    1.2053878   -6.0933516    43.857577  0.039298904  0.044764514            4 
   94000    1.2507139    -6.105653    44.497088  0.039447773  0.044784651            4 
   95000    1.2508897   -6.1245929    44.951041  0.039430737  0.044813255            6 
   96000    1.2167137   -6.0639258    45.767145  0.039728425   0.04483807            1 
   97000    1.2253463   -6.0632425    46.122645  0.039624265  0.044867456            3 
   98000    1.2180307   -6.0895257    46.557112  0.039589381  0.044884857            2 
   99000    1.2481189   -6.0658288    47.091167  0.039639029  0.044894332            3 
  100000    1.2336816   -6.0905938    47.467541  0.039556284  0.044899311            3 
  101000    1.2547472   -6.0684962    48.072035  0.039663395  0.044896834            3 
  102000    1.2363766   -6.0954897    48.712665  0.039797928  0.044903162            1 
  103000    1.2360274   -6.0969598    49.279003  0.039869743  0.044911472            2 
  104000    1.2333264   -6.0861927    49.411901  0.039592869  0.044910205            6 
  105000    1.2385399   -6.1081202    49.987444  0.039672574   0.04490387            2 
  106000    1.2194278   -6.0884842    50.380865  0.039607598  0.044890537            3 
  107000    1.2211515   -6.0719812    50.830144  0.039587339  0.044868005            2 
  108000    1.2677091   -6.1040927    51.030295  0.039375227  0.044843585            2 
  109000    1.2504089   -6.0565776    51.590609  0.039442361  0.044816913            2 
  110000    1.2485249   -6.0740913    52.220283  0.039560821  0.044790568            2 
  111000    1.2313398   -6.1111653    52.876383  0.039696984  0.044765823            2 
  112000     1.260776   -6.0923432     53.22506  0.039601979  0.044741141            4 
  113000    1.2446961   -6.0646881    53.848445  0.039711242  0.044720175            2 
  114000    1.2230802   -6.1086639    54.149831  0.039583209  0.044687495            2 
  115000    1.2179922   -6.0810156    54.599167  0.039564614    0.0446564            3 
  116000    1.2350628   -6.0802825      55.3761  0.039781681  0.044628832            3 
  117000     1.235837   -6.1097259    55.451087  0.039495076  0.044600878            3 
  118000    1.2189241   -6.0671457    56.272855  0.039740717  0.044567661            2 
  119000    1.2454542    -6.111822        56.56  0.039607843  0.044535801            3 
  120000    1.2406209   -6.0963836    57.016624  0.039594877  0.044503974           11 
  121000     1.230828   -6.1159336    57.389178  0.039524227  0.044468455            3 
  122000    1.2172991   -6.1172553    58.189816  0.039747142  0.044437123            6 
  123000    1.2464151   -6.1110616    58.401198  0.039567207  0.044408039            2 
  124000    1.2251198   -6.0951354    59.203159  0.039787069   0.04437688            4 
  125000    1.2314906   -6.1236104    59.512709  0.039675139  0.044346975            6 
  126000    1.2164665   -6.0954562    60.020541  0.039696125  0.044311005            3 
  127000     1.220635   -6.0868818    60.817422  0.039906445  0.044279477            4 
  128000    1.2519298   -6.0715214    61.309218  0.039914855  0.044253881            3 
  129000    1.2174631   -6.1341822    61.675502  0.039842055  0.044227831            1 
  130000    1.2486412    -6.087842     62.51743  0.040075276  0.044207034            2 
  131000    1.2401203   -6.1155531    62.715611  0.039895427  0.044187964            5 
  132000    1.2568192   -6.0871254    63.417229  0.040036129  0.044162229            1 
  133000    1.2381018   -6.1297678    63.854877  0.040009321  0.044140409            7 
  134000    1.2058583   -6.1084151     64.30926  0.039993321  0.044121529            2 
  135000    1.2147386   -6.0776163    65.093036  0.040180886  0.044103451            2 
  136000    1.2352225   -6.0897918    65.722118  0.040270905  0.044090807            3 
  137000    1.2352985   -6.1331005    66.298088  0.040327304  0.044079504            1 
  138000    1.2303661   -6.1073339     66.44013  0.040120851  0.044067974            5 
  139000    1.2168427   -6.0846927    67.292936  0.040343487  0.044055155            3 
  140000    1.2247152   -6.0989025    67.374022  0.040103585  0.044038432            6 
  141000    1.2464042   -6.1618516    68.022198  0.040202245  0.044020735            7 
  142000    1.2087498    -6.153522    68.546333  0.040226721  0.044005219            1 
  143000     1.257446    -6.095591    68.950049  0.040180681   0.04398833            3 
  144000    1.2476937   -6.1357958    69.657088  0.040310815  0.043971355           10 
  145000    1.2416536   -6.0936674    70.022852  0.040243019  0.043952871            2 
  146000    1.2236258   -6.0499879     70.45511  0.040214104  0.043933887            3 
  147000    1.2286926   -6.0963904     71.07079  0.040289564  0.043915235            3 
  148000      1.21546    -6.060382    71.249638  0.040118039  0.043896399            4 
  149000    1.2293057   -6.0541556    71.834913  0.040176126  0.043877419           10 
  150000    1.2045932    -6.093943    72.609637  0.040338687  0.043862865            2 
  151000    1.2244629   -6.1058251    73.375577  0.040494248  0.043851469            7 
  152000    1.2369712   -6.1131436    73.867052  0.040497287  0.043841328           21 
  153000    1.2200058   -6.0871588    74.409447  0.040528021  0.043830741            1 
  154000    1.2247573   -6.0554546    75.165743  0.040674103  0.043822644            6 
  155000    1.2251284   -6.0952068    75.320359  0.040494817   0.04381999            3 
  156000    1.2282877   -6.1050467    75.669648   0.04042182  0.043810733            2 
  157000    1.2055921   -6.1144607    76.459501  0.040583599  0.043805523            4 
  158000    1.2192926   -6.1014136    76.918365  0.040568758  0.043802425            2 
  159000    1.2302609    -6.061359    77.975714  0.040867775  0.043802063            3 
  160000    1.2234202   -6.0618912    78.714945  0.040997367  0.043801683            2 
  161000    1.2303053   -6.1080573    79.086945  0.040935271  0.043806762            1 
  162000    1.2297625   -6.1202096    79.860373  0.041080439  0.043809242            7 
  163000    1.2608187   -6.0880069    80.341917    0.0410746  0.043817181            6 
  164000    1.2147278   -6.1013079    80.626525  0.040968762  0.043825656            4 
  165000    1.2333621    -6.080303    81.313337  0.041067342  0.043833702            3 
  166000    1.1978124   -6.1200457    81.824944  0.041076779  0.043840707            3 
  167000    1.2451907   -6.1246573    82.124006  0.040980043  0.043847359            2 
  168000    1.2191648   -6.1143859    83.118597  0.041229463  0.043851707            3 
  169000     1.213396   -6.1494585    83.557739  0.041202041  0.043860807            3 
  170000    1.2078614   -6.0793394    84.271988  0.041309798  0.043870811            4 
  171000    1.2072073   -6.1262843    84.855258  0.041352465   0.04388298            4 
  172000     1.217586   -6.0714881    85.393339  0.041372741  0.043894329            4 
  173000    1.2199396   -6.0963505     85.55739  0.041212616  0.043905127            6 
  174000    1.2137916   -6.1177595    85.982481  0.041179349   0.04391068            2 
  175000    1.2385798   -6.0922873    86.482292  0.041182044  0.043913327            3 
  176000    1.2273505   -6.1447486    86.748632  0.041074163  0.043913774            2 
  177000    1.1962049   -6.1086272    87.572551  0.041230014  0.043913481            3 
  178000    1.2242242   -6.1227373    87.871007  0.041138112  0.043914409            4 
  179000    1.1699731   -6.1443348    88.349852  0.041131216  0.043912173            2 
  180000     1.226738   -6.0635894    88.887055  0.041151414  0.043908884            3 
  181000    1.1998158   -6.1049405    89.318598  0.041122743  0.043908043            2 
  182000    1.1973769   -6.1155635    90.133118  0.041269742  0.043907185            2 
  183000    1.2281314   -6.0921349     90.81252  0.041353606  0.043908419            2 
  184000    1.2336586    -6.123528    91.384314  0.041387823  0.043915861            3 
  185000    1.2270457   -6.1263286    91.847025  0.041372533   0.04392052            2 
  186000    1.2246719   -6.1128026    92.377679  0.041387849   0.04392559            2 
  187000    1.1993588   -6.1116566    93.125535  0.041499793  0.043933177            5 
  188000    1.2264208   -6.0873108    93.642192  0.041508064  0.043938787            3 
  189000    1.2164995   -6.1241122    93.853689  0.041381697   0.04394376            4 
  190000    1.2003794   -6.1156634    94.738068  0.041551784   0.04394882            5 
  191000    1.2079538   -6.1243693    94.854618  0.041385086  0.043953105            2 
  192000    1.2305929   -6.1153376    95.187646  0.041314082  0.043953337            2 
  193000    1.2364264   -6.0900824     95.77928  0.041355475  0.043953613            4 
  194000      1.22175   -6.0763454    96.708402   0.04154141  0.043954155            6 
  195000    1.2451083   -6.0977334     96.91389  0.041416192  0.043955263            1 
  196000    1.2172305   -6.1099819    97.399053  0.041411162  0.043957336            3 
  197000    1.2316107   -6.1242849    97.663951  0.041313008  0.043957462            2 
  198000    1.2353074   -6.0924391    98.447189  0.041434002  0.043954717            3 
  199000    1.1974503    -6.118566     99.33024  0.041595578  0.043954982            1 
  200000    1.2112128   -6.0985688    99.892253  0.041621772  0.043956653            2 
  201000    1.2227272   -6.1218264    100.43445   0.04163949  0.043958467            3 
  202000    1.2239565   -6.1103137    100.64393  0.041519774  0.043960797            4 
  203000    1.2174691   -6.1138282    100.85551  0.041402099  0.043960218            3 
  204000    1.2110377   -6.1135296    101.66329  0.041529123  0.043958159            5 
  205000    1.2155073   -6.1166937    102.07506  0.041493927  0.043956924            2 
  206000    1.2341878    -6.131886     102.6223  0.041513877  0.043956317            4 
  207000    1.2244271   -6.0951584    102.85754  0.041408029   0.04395484            5 
  208000    1.2144341   -6.1067695    104.04145  0.041683274  0.043955182            3 
  209000    1.2064256   -6.1093065    103.87217  0.041416337   0.04395204            2 
  210000    1.2165293   -6.1010977    104.43892  0.041444016   0.04394628            3 
  211000    1.2111558   -6.0877507    105.12077  0.041516892  0.043938059            4 
  212000     1.242418   -6.0953509    105.05305  0.041294436    0.0439293            2 
  213000    1.2187405   -6.0869127    105.44335  0.041253267  0.043919448            4 
  214000    1.2131397   -6.1309114    105.72572  0.041170452  0.043907982            1 
  215000    1.2319546   -6.0910451    106.42984  0.041251877  0.043897221            2 
  216000    1.2166264   -6.1008162    107.54034  0.041489327  0.043887181            3 
  217000    1.2306286   -6.1086164    107.76289  0.041383599  0.043876903            2 
  218000    1.1932076   -6.0917158    107.98463   0.04127853  0.043867183            4 
  219000    1.2310786   -6.1270249    108.55469   0.04130696  0.043856614            4 
  220000    1.2170101   -6.1177983     109.6734  0.041542954  0.043849973            3 
  221000     1.220066   -6.1510168    109.75344  0.041385158  0.043844973            4 
  222000    1.1962028     -6.08121    110.21887   0.04137345  0.043836349            4 
  223000    1.2024438   -6.1246772    110.72155  0.041375768  0.043826861            3 
  224000    1.2320596   -6.1350766     111.0678  0.041319864   0.04381537            4 
  225000     1.202188   -6.1315942     111.4741  0.041286703  0.043803655            4 
  226000    1.2402195   -6.0908119    111.60333   0.04115167  0.043789542            2 
  227000    1.1784585   -6.1102117    112.31701  0.041232382   0.04377685            2 
  228000    1.1852262   -6.1168517    113.10709  0.041340311  0.043762429            3 
  229000    1.2063022   -6.0864298     113.5835   0.04133315  0.043749863            5 
  230000    1.2158202   -6.1168567    113.69366  0.041193353  0.043737228            3 
  231000     1.225123   -6.1186311     114.3559  0.041253933  0.043723435            2 
  232000    1.2215568   -6.1182153    114.89346  0.041269203  0.043711966            3 
  233000    1.2086188   -6.1502152    115.08818  0.041161722  0.043700732            4 
  234000    1.1922899   -6.1127261    115.93613  0.041287796   0.04368808            3 
  235000    1.2113938   -6.0587418    116.65179  0.041365884  0.043677635            3 
  236000    1.2014295   -6.1186981    116.73692  0.041220665  0.043667673            3 
  237000    1.1921836   -6.1119885    117.74477  0.041401113  0.043655408            2 
  238000    1.2123605   -6.0701427    117.88082  0.041274798  0.043642282            4 
  239000    1.2072225   -6.1012812    118.19324  0.041211031  0.043627108            5 
  240000    1.2049931   -6.1391357    118.96049  0.041305726   0.04361289            4 
  241000    1.2162568   -6.1383931    119.64711  0.041371754  0.043601153            4 
  242000     1.220954   -6.1201956    120.02471  0.041330824  0.043588696            2 
  243000    1.2358557   -6.1044488    120.73309  0.041403667  0.043576445            7 
  244000    1.1978386   -6.0720288     120.8608  0.041277595   0.04356455            2 
  245000    1.2125941   -6.1145302    121.27459  0.041249861  0.043550238            2 
  246000    1.2267282   -6.1432756    121.97497  0.041319435  0.043537066            2 
  247000    1.2223421    -6.136633    122.01715  0.041166381  0.043527038            2 
  248000    1.1929521   -6.1530997     122.2081   0.04106455  0.043513522            4 
  249000    1.2271769   -6.1250563    122.86991  0.041121122  0.043499542            3 
  250000    1.1961397   -6.1426977    123.44839  0.041149464  0.043484467            3 
  251000    1.2162073   -6.1345287    123.71429  0.041073802  0.043468489            2 
  252000    1.2088682   -6.1247402    124.23313  0.041082384  0.043451288            4 
  253000    1.2302942   -6.1351907    124.84713  0.041122243   0.04343641            1 
  254000    1.2248228   -6.1145698    125.49175  0.041171835  0.043421695            8 
  255000    1.1866201   -6.1041365    125.87709  0.041136305  0.043406912            1 
  256000     1.214161   -6.1102641    126.87402  0.041300135  0.043393907            3 
  257000    1.2152378   -6.1184204    126.85458  0.041133131  0.043384127            2 
  258000    1.2166085   -6.1113034    127.95177  0.041328092  0.043374888            4 
  259000    1.2228654    -6.125733    128.18262    0.0412428   0.04336517            3 
  260000    1.2261397   -6.1551251    128.83137  0.041292107  0.043356035            5 
  261000    1.2193631   -6.1220141    129.11804  0.041225427  0.043346319            3 
  262000     1.210384   -6.1256808    129.87987  0.041310391  0.043335218            3 
  263000    1.1994428   -6.0936731    130.62352  0.041388948  0.043325436            3 
  264000    1.1942553   -6.1179323    131.09586   0.04138127  0.043314883            3 
  265000    1.2191486   -6.1425859     131.1103  0.041229654  0.043303341            2 
  266000    1.2103795     -6.10033    131.84142  0.041303701  0.043292482            2 
  267000    1.1916598   -6.1194701    132.13399  0.041240322  0.043280186            3 
  268000    1.2151116   -6.1389384    131.90384  0.041014874  0.043267187            2 
  269000    1.1789636   -6.1335983    132.70195  0.041109651  0.043256082            4 
  270000    1.2307156   -6.1006438    133.28141  0.041136237  0.043245087            2 
  271000    1.2212589   -6.1116882    134.60577  0.041391689  0.043234698            2 
  272000    1.2120501   -6.1649256    134.29284  0.041143639  0.043224267            3 
  273000     1.227756   -6.1161076    135.42102  0.041337309    0.0432144            2 
  274000    1.2079032   -6.1241259    135.30409   0.04115088  0.043204186            3 
  275000    1.2028889   -6.1355832    135.64517  0.041104598  0.043193378            2 
  276000    1.2177874   -6.1217375    136.36736  0.041173718  0.043180615            2 
  277000    1.2230594   -6.1571807    136.62893  0.041103769  0.043167925            2 
  278000    1.2085388   -6.1110839    137.55945  0.041234847   0.04315536            2 
  279000     1.205431   -6.1343569    137.67973  0.041122976   0.04314432            4 
  280000    1.2248761   -6.1069606    138.64682  0.041263934   0.04313301            5 
  281000    1.1967315   -6.1295114     139.1931  0.041279093  0.043122789            2 
  282000     1.196866   -6.1520947    138.89075  0.041043366   0.04311156            4 
  283000    1.2180187   -6.1343338    139.82933  0.041174715  0.043100537            2 
  284000    1.1947858   -6.2235458    140.25404  0.041154354   0.04308981            3 
  285000    1.2134656   -6.1412382    141.10634  0.041259165  0.043081837            2 
  286000    1.2154849   -6.1322516    141.71858  0.041293293  0.043073561            3 
  287000    1.2278879   -6.1620216    142.47144  0.041368014  0.043066554            3 
  288000    1.1841018   -6.1585972    142.64269  0.041273927  0.043059625            2 
  289000     1.197439   -6.1128692    143.88461  0.041489218  0.043052071            1 
  290000    1.2058492    -6.117354    143.50496  0.041237058  0.043044752            4 
  291000    1.1760621   -6.1440162    143.71872  0.041156563  0.043035811            3 
  292000    1.2132321    -6.155876    144.14467  0.041137176  0.043027558            6 
  293000    1.1957515   -6.1237558    145.55985  0.041399275  0.043020125            5 
  294000     1.184764   -6.1444509    145.52868  0.041249627   0.04301262            2 
  295000    1.2018186   -6.1589697    146.16904  0.041290688  0.043005041            3 
  296000    1.1976964   -6.1619833    146.90237  0.041357649  0.043000054            2 
  297000    1.2050592   -6.1298965    147.59939  0.041413971  0.042995358            5 
  298000    1.2094399    -6.109484      147.836  0.041341163  0.042991307            5 
  299000    1.1909812   -6.1297494    148.71253  0.041447194  0.042987558            4 
  300000     1.189784   -6.1119358    148.86887  0.041352463   0.04298259            4 
  301000    1.2062356    -6.125367    149.75331  0.041459942   0.04297775            3 
  302000    1.2003117   -6.1427538    150.45547  0.041516411   0.04297314            6 
  303000    1.1980484   -6.1573803    150.22768  0.041316745  0.042968011            4 
  304000    1.1813105   -6.1522781    150.55145  0.041269586   0.04296095            3 
  305000     1.204479   -6.1245496    150.93025  0.041237774  0.042952861            4 
  306000    1.1955419   -6.1158055    151.43481  0.041240417  0.042945538            2 
  307000    1.2180839     -6.12342    151.68929   0.04117516  0.042937046            6 
  308000    1.1757631   -6.1506103    152.09199   0.04115043  0.042927727            6 
  309000    1.2037643   -6.1151685    153.16952  0.041307852  0.042917039            1 
  310000    1.1843558   -6.1273119    152.83258  0.041084026  0.042907641            2 
  311000    1.1677797   -6.1077152    153.93198  0.041246511  0.042898341            2 
  312000    1.1626619   -6.1196413    154.09504  0.041157862  0.042889397            3 
  313000    1.2128288   -6.1271794    155.05065  0.041280789  0.042880681            2 
  314000     1.194111   -6.1307746    155.60657   0.04129686  0.042873139            3 
  315000    1.1934973   -6.1525662    156.39598  0.041374599  0.042866107            1 
  316000    1.1801628   -6.1461774    156.55708  0.041286149  0.042858595            4 
  317000     1.182199   -6.1503902    157.08969  0.041295922  0.042851635            4 
  318000    1.2151461   -6.1730492    157.13358  0.041177562  0.042844618            3 
  319000     1.205588   -6.1005223     158.1666  0.041318338  0.042836535            2 
  320000    1.1967723   -6.1003048     158.3173  0.041228464  0.042829642            2 
  321000    1.2121557   -6.1399032    159.19186  0.041327065  0.042821955            2 
  322000    1.2236748   -6.1349542    159.39419  0.041251084  0.042814687            9 
  323000    1.1971641    -6.134607    160.02703  0.041286644  0.042807569            3 
  324000    1.1911788   -6.1555482    160.09656  0.041177098  0.042799485            3 
  325000    1.1738649   -6.1414961    160.75666  0.041219657  0.042791679            4 
  326000     1.181247   -6.1612209    161.53196    0.0412914  0.042784763            4 
  327000    1.2154379    -6.156033    161.42584  0.041138084  0.042778029            1 
  328000    1.2038356   -6.1424189    162.34624  0.041246505  0.042770833            5 
  329000     1.197184   -6.1307276    162.93567  0.041270433  0.042761774            4 
  330000    1.2013642   -6.1300911    162.40355  0.041010997  0.042752298            3 
  331000     1.172743   -6.1522211    162.99101  0.041034998  0.042742593            4 
  332000    1.1952189   -6.1343246    163.04043  0.040923804  0.042732108            3 
  333000    1.2157772   -6.1480332    164.62603  0.041197704  0.042722636            2 
  334000    1.1836507   -6.1108158    164.66263  0.041083492  0.042713046            3 
  335000    1.2097153   -6.1364145    165.26594   0.04111093  0.042702848            8 
  336000    1.2044594   -6.1672808    165.40423  0.041022875  0.042692625            5 
  337000    1.2088101    -6.126356    166.31228  0.041125687  0.042683534            4 
  338000    1.1976988   -6.1146381    166.72472  0.041105699  0.042676142            3 
  339000    1.1831642   -6.1337969    167.73673  0.041233218  0.042666972            3 
  340000    1.2179397    -6.116082    167.61017  0.041080924  0.042657776            8 
  341000     1.209696   -6.1580395    168.11482  0.041083778   0.04264716            4 
  342000    1.1998093    -6.117756    168.07826  0.040954742  0.042635964            4 
  343000    1.1924725   -6.2062723    168.80657  0.041012285  0.042623475            5 
  344000    1.1900161   -6.1292465    168.32477  0.040776349  0.042610013            3 
  345000    1.1720973   -6.1420347    168.99274  0.040819502  0.042595525           10 
  346000    1.1767253   -6.1220276    169.36184  0.040790424   0.04258085            4 
  347000    1.1640895   -6.1432911     169.4595  0.040696325  0.042566989            2 
  348000    1.1986243   -6.1140395    170.57607   0.04084676  0.042553266            7 
  349000    1.1654519   -6.1660051    170.51059  0.040714085  0.042539427            4 
  350000     1.196635   -6.1554693     171.4073  0.040811261  0.042524433            4 
  351000    1.1876592   -6.1569887    171.44712  0.040704445  0.042510074            4 
  352000    1.1941721   -6.1988461     171.8666  0.040688116  0.042495049            6 
  353000    1.2228618    -6.125776    173.42739   0.04094131  0.042480972            3 
  354000    1.2094659   -6.1235799    173.53058  0.040849948  0.042468428            2 
  355000    1.1751736   -6.1816648      174.298  0.040915022  0.042455988            8 
  356000    1.1988229   -6.1640894    174.09749  0.040753158  0.042443376            3 
  357000     1.194027   -6.1491507    174.41527  0.040713181  0.042430698            2 
  358000    1.1829716   -6.1500753    174.80409  0.040689965  0.042417578            2 
  359000    1.2179983   -6.1689707    176.24305  0.040910643  0.042404195            2 
  360000    1.1833278   -6.1540789    176.72864  0.040909407  0.042392576            3 
  361000    1.1769567   -6.1225285    176.88036  0.040831108  0.042380955            3 
  362000    1.1809436   -6.1592904    177.51699  0.040864868  0.042368872            3 
  363000    1.1891191   -6.1329596    177.51966  0.040752906  0.042357307            2 
  364000    1.1798535   -6.1596335    178.51057  0.040867804  0.042345872            2 
  365000    1.1996837   -6.1760948    178.75285  0.040811154  0.042335498            3 
  366000    1.1925936   -6.1385842    179.70403  0.040916217  0.042325741            4 
  367000     1.200037   -6.1470414    179.65686   0.04079402  0.042316132            3 
  368000    1.1940311   -6.1575788    180.47132  0.040867601  0.042306628            4 
  369000    1.1927019   -6.1956312    180.82534  0.040836798  0.042297136            5 
  370000    1.2031643   -6.1559345    180.97352  0.040759802  0.042287414            2 
  371000    1.1835358   -6.1704076    181.76151  0.040826934  0.042277653            4 
  372000    1.2098444   -6.1399185    183.21381  0.041042521  0.042269034            4 
  373000    1.1996371   -6.1309168    182.34671  0.040738765  0.042258323            5 
  374000    1.2064657   -6.1455556    183.87675  0.040970754  0.042247148            1 
  375000    1.2149776   -6.1409039    183.57621  0.040794713  0.042236587            6 
  376000     1.178731   -6.1904382    184.34079  0.040855671  0.042227264            2 
  377000    1.1601112   -6.1928949    184.54624  0.040792714  0.042217445            1 
  378000    1.1707767   -6.1218455    185.66575  0.040931602  0.042208304            2 
  379000    1.2197996   -6.1893667    185.69788  0.040830669  0.042199328            2 
  380000    1.1919725   -6.1752505    186.29563  0.040854306  0.042189376            3 
  381000    1.1810544   -6.2330538    186.17734  0.040721203  0.042179005            5 
  382000    1.1882341   -6.1665367    186.72444  0.040733953  0.042167888            3 
  383000    1.1459345   -6.1608262     187.2392  0.040739599  0.042157267            2 
  384000    1.1908269   -6.1751187    187.98433   0.04079521  0.042146876            2 
  385000    1.1843131   -6.1941574    188.12177  0.040718997  0.042136427            5 
  386000    1.1761747   -6.1859283     188.2183  0.040634347  0.042126788            8 
  387000    1.2298025   -6.1326405    189.52568  0.040810869  0.042116781            2 
  388000    1.1950119   -6.1552673    190.12803  0.040835057  0.042106963            3 
  389000    1.2012554   -6.1394061    190.42944  0.040794653  0.042098295            3 
  390000    1.1957648   -6.1498157    190.84539  0.040778929  0.042089578            3 
  391000    1.1673374   -6.2001354      191.498  0.040813725  0.042081675            2 
  392000    1.1956685   -6.1377287    192.32207  0.040884793  0.042073646            4 
  393000    1.1834198   -6.1778055    192.46459  0.040810981  0.042066262            5 
  394000    1.1844659   -6.1564626    193.29023  0.040882027  0.042057767            4 
  395000    1.1901912   -6.1778742    193.20177  0.040759868   0.04204975            3 
  396000    1.1861702   -6.1431317    194.20275  0.040867582  0.042040749            6 
  397000    1.1746865   -6.1088714    194.36265  0.040798206  0.042033343            4 
  398000    1.2157045   -6.1267264    195.14652  0.040859825  0.042025319            3 
  399000    1.2194982   -6.1749651    194.88374  0.040702536  0.042017479            4 
  400000    1.1773344   -6.1801603    196.25309   0.04088606  0.042009259            2 
  401000    1.1949462   -6.1789023    196.77766  0.040893113  0.042000981            4 
  402000    1.1815014   -6.1349992    196.61494  0.040757658   0.04199345            2 
  403000    1.2005054   -6.2010607    197.22329  0.040782317  0.041986475            8 
  404000    1.1804016    -6.195737    198.15682  0.040873932  0.041978392            2 
  405000    1.1520017   -6.1705893    197.73567  0.040686353  0.041969854            3 
  406000     1.165215   -6.1462593    199.12085  0.040870453   0.04196181            3 
  407000    1.1930741   -6.1719048    198.62599  0.040668711  0.041953649            3 
  408000    1.1903543    -6.156525    199.62603   0.04077329  0.041945898            4 
  409000    1.2054466   -6.1964417    199.81045  0.040711176  0.041937057            2 
  410000    1.1854645   -6.1600539    200.06394  0.040663403  0.041929192            4 
  411000    1.1914133   -6.1680218    201.01554  0.040757409  0.041922767            3 
  412000    1.1710427   -6.2040464    201.29718  0.040715448  0.041915743            9 
  413000    1.1648236   -6.1877256    201.78303  0.040714897  0.041907892            3 
  414000    1.2032176   -6.1628989    202.96858  0.040855189  0.041900145            3 
  415000    1.1725238   -6.1844359    202.83705  0.040730331  0.041892712            3 
  416000     1.169453   -6.1289853    203.71242  0.040807777  0.041884127            3 
  417000     1.176568   -6.1814439    203.90095  0.040747591  0.041875247            4 
  418000    1.1766638   -6.1956723    204.18643  0.040707023  0.041866606            3 
  419000    1.2038191   -6.1916633    203.92601  0.040558077  0.041857508            2 
  420000    1.1713998    -6.141296    205.05825  0.040686161  0.041848896            2 
  421000    1.1691057   -6.1839505    205.05941  0.040589748   0.04184014            2 
  422000    1.2131832   -6.1580054    206.01313  0.040681897  0.041831411            3 
  423000    1.1814181   -6.1521324    206.65152  0.040711489  0.041822176            3 
  424000    1.1968441   -6.1586499    206.95984  0.040676069  0.041813253            2 
  425000    1.1862767   -6.1864061    206.95982  0.040580357  0.041804618            5 
  426000    1.1885134   -6.1777492    206.45371  0.040386093  0.041795174            3 
  427000    1.1851363   -6.1500466    207.77241   0.04054887    0.0417861            4 
  428000    1.1760851   -6.1797496    207.24492  0.040351426  0.041775408            2 
  429000    1.1850562   -6.2257851    207.71125  0.040347952  0.041763767            3 
  430000    1.1764797   -6.1645794    208.77892   0.04046103   0.04175185            6 
  431000    1.1777943   -6.1362089    209.35215  0.040477987  0.041741209            2 
  432000     1.172493    -6.130326    210.08861  0.040526353  0.041730632            6 
  433000     1.153345    -6.179372    209.45223  0.040310283  0.041719992            2 
  434000    1.1707212   -6.1888954    210.61729  0.040441108  0.041709095            6 
  435000    1.1788083    -6.211199    210.70941  0.040365788  0.041698587            8 
  436000    1.1664187   -6.1568257    212.15158  0.040548849  0.041688207            3 
  437000    1.1611907   -6.1777222    212.00437  0.040427988  0.041677941            3 
  438000    1.1982309   -6.1783278    212.25686  0.040383725  0.041668459            3 
  439000    1.1837481   -6.1697126    213.62307  0.040551076  0.041658911            4 
  440000    1.1731746   -6.2064807    213.15377  0.040370032  0.041649015            4 
  441000    1.1789714   -6.1566584    213.74373  0.040389971  0.041638489            3 
  442000    1.1894966   -6.1436287    214.44018  0.040429898   0.04162851            5 
  443000    1.1673713     -6.16194    214.29478  0.040311282   0.04161849            2 
  444000    1.1763925   -6.1607356    215.21133  0.040392517  0.041608373            2 
  445000    1.1707348   -6.1750626    215.67877  0.040389283   0.04159821            3 
  446000    1.1692817   -6.1704102    216.22007  0.040399863  0.041587588            7 
  447000    1.1866054   -6.1835279    216.36746  0.040336961  0.041577584            2 
  448000    1.1700845    -6.184876    217.25568  0.040412143  0.041567346            4 
  449000    1.1821629   -6.1948235    217.05621  0.040285117  0.041557291            2 
  450000    1.2003482   -6.1615086    216.96088  0.040177941  0.041546618            5 
  451000    1.1750765   -6.1482401     218.1394  0.040306616  0.041535521            2 
  452000    1.1756522   -6.2191738    218.43608  0.040272139  0.041524333            2 
  453000    1.1759812   -6.1692831    219.10379   0.04030607  0.041512379            2 
  454000    1.1702525   -6.1966495    218.99072  0.040196534  0.041501091            3 
  455000    1.1778894   -6.1781547    219.16631   0.04014035  0.041489736            2 
  456000    1.1732394   -6.1922812    219.46705  0.040107283   0.04147905            3 
  457000    1.1561591   -6.1551681     220.8031  0.040263146  0.041468238            4 
  458000    1.1778059   -6.1853597    221.18131  0.040244052  0.041457382            3 
  459000     1.189885   -6.1645529     221.8066  0.040269898  0.041446336            3 
  460000    1.2110102   -6.2043006    222.70862  0.040345764  0.041436096            2 
  461000      1.17794   -6.2156269    222.84551  0.040282991   0.04142614            5 
  462000    1.1756922    -6.196563     222.7667  0.040181583  0.041415073            5 
  463000    1.1858454   -6.1728096    223.02603  0.040141474  0.041403039            2 
  464000    1.1731091   -6.2167604    223.42867  0.040127275  0.041390804            2 
  465000    1.1457161   -6.1833424    224.54793  0.040241565  0.041378984            3 
  466000    1.1743058   -6.1967468    223.74474  0.040011578  0.041367347            2 
  467000    1.1554334   -6.1415279    225.21337  0.040187967  0.041355237            2 
  468000     1.193541   -6.1864882    224.82401  0.040032766  0.041343417            3 
  469000    1.1924989     -6.13403    225.68383  0.040100183  0.041331726            4 
  470000    1.1682656   -6.2036355    226.32159  0.040127942  0.041320418            2 
  471000    1.1401866   -6.2094574    226.57514  0.040087605  0.041308253            3 
  472000    1.1615496   -6.1803613    227.29316  0.040129442  0.041296579            4 
  473000    1.2176801   -6.1929013     227.9029  0.040152027  0.041286113            3 
  474000    1.1850665   -6.1776988    227.91093  0.040068729  0.041275605            8 
  475000    1.1575969    -6.215128    228.05349  0.040009384  0.041263812            4 
  476000    1.2033451   -6.1856889    229.49826  0.040178266  0.041252883            3 
  477000    1.1917833   -6.2084893    230.41743  0.040254618  0.041242985            4 
  478000    1.1945722   -6.1919581    230.73963  0.040226575  0.041234223            1 
  479000     1.189011    -6.182846     231.2081  0.040224095  0.041224979            3 
  480000      1.14975   -6.1968205    232.17493  0.040308147  0.041216173            2 
  481000    1.1896638   -6.2027999     231.7108  0.040143937  0.041207295            3 
  482000    1.1695475    -6.143888    231.68639   0.04005643  0.041198228            3 
  483000    1.1719198   -6.1781589    232.91202  0.040184958   0.04118865            3 
  484000    1.1857875   -6.2294558    232.52044   0.04003451  0.041178217            4 
  485000    1.1683816   -6.1875959    232.98034  0.040030986  0.041167565            3 
  486000    1.1703736    -6.193961    233.80064  0.040089272  0.041156979            3 
  487000    1.1634087   -6.2017602    234.47429  0.040122227  0.041146399            3 
  488000    1.1707871   -6.1757481    234.31271  0.040012416  0.041136221            2 
  489000    1.1541685   -6.1953105    234.92222  0.040034462  0.041125287            2 
  490000    1.2137359   -6.2257473    235.04699  0.039973977  0.041114456            3 
  491000    1.1878478   -6.1758734    235.77292   0.04001577  0.041103572            2 
  492000    1.1517801   -6.1809926    235.59081  0.039903592  0.041092678            4 
  493000    1.1595807   -6.1958666    236.29343  0.039941418  0.041081528            3 
  494000    1.1800961   -6.1750435     237.5668  0.040075371  0.041070756            2 
  495000    1.1744795   -6.2009596    237.61756  0.040002955  0.041060157            3 
  496000    1.1509367   -6.2347547    237.21189  0.039854149  0.041049157            7 
  497000    1.1769832   -6.2193498    238.33595  0.039962432  0.041037989            6 
  498000     1.156765   -6.2125851    239.16249  0.040020498  0.041028004            1 
  499000    1.1905018   -6.1573339    240.02767  0.040084781  0.041018331            2 
  500000    1.1578802   -6.1472296    240.43966  0.040073276  0.041009085            3 
  501000    1.1811699   -6.1682714    240.64835  0.040028002  0.041000059            4 
  502000     1.156044   -6.2337946    241.11628  0.040025943  0.040991505            2 
  503000    1.1894077   -6.2131239    241.66628  0.040037489  0.040982736            6 
  504000    1.1731532   -6.1269825    243.26964  0.040223154  0.040974061            3 
  505000    1.1631584   -6.2315998    243.03971  0.040105563  0.040966208            3 
  506000    1.1889686   -6.1839593    243.45502  0.040094701  0.040958023            3 
  507000    1.1449548     -6.17303    243.81591  0.040074936  0.040949957            3 
  508000    1.1853372   -6.2202494    244.80535  0.040158359  0.040942898            5 
  509000    1.1529196   -6.1845705    245.49445  0.040192281  0.040935693            3 
  510000    1.1763053   -6.2202828    245.38773  0.040096035  0.040928807            5 
  511000    1.1843917   -6.2038413    246.05671  0.040126666  0.040921792            3 
  512000    1.1513955   -6.1734083    247.88155  0.040345304  0.040916158            1 
  513000    1.1645189   -6.1996304    247.27132  0.040167531  0.040910252            2 
  514000    1.1431992   -6.1732485    247.82054  0.040178428  0.040904451            3 
  515000    1.1480684   -6.2407048    248.23027  0.040166711   0.04089854            8 
  516000    1.1702122   -6.1661927    249.62858  0.040314694  0.040893455            2 
  517000    1.1813475   -6.2061232    250.89239  0.040440424  0.040889046            3 
  518000    1.2066009   -6.2066451    250.84634  0.040354945  0.040885101            2 
  519000    1.1726642   -6.1836202    251.08046  0.040314782  0.040880684            2 
  520000    1.1729017    -6.190431    251.69415  0.040335601  0.040875868            7 
  521000    1.1645197   -6.1923458     251.4832  0.040224439  0.040870948            1 
  522000    1.1797541   -6.2073394    251.99734  0.040229461  0.040864684            3 
  523000    1.1819607   -6.1792601    252.77489  0.040276432   0.04085905            4 
  524000     1.133803   -6.2189724    253.00999  0.040236957  0.040854042            3 
  525000    1.1736013   -6.1953021    252.97733  0.040155132  0.040848482            2 
  526000    1.1646531   -6.2064307    253.95162  0.040233147  0.040842809            5 
  527000    1.1674698   -6.1624939    254.38643  0.040225558  0.040837819            1 
  528000    1.1569013   -6.2059536    255.49702  0.040324656   0.04083324            4 
  529000     1.157855   -6.1879096    255.65642  0.040273539  0.040828274            1 
  530000    1.1719975   -6.2042341    255.36978  0.040152481  0.040823373            3 
  531000    1.1553715   -6.2318872      256.475  0.040250314  0.040818715            4 
  532000    1.1895597   -6.2303882    256.37606  0.040159158  0.040814137            5 
  533000    1.1502608   -6.1999168    256.98327  0.040178748  0.040809553            2 
  534000    1.1867908   -6.2052079      258.307  0.040310081   0.04080585            4 
  535000    1.1345894   -6.2455264    259.36096  0.040398903  0.040801523            3 
  536000    1.1584134   -6.2077467    258.67819   0.04021738  0.040796739            4 
  537000    1.1612565   -6.1755148    258.87999  0.040173804  0.040792067            3 
  538000    1.1506135   -6.2281673    259.56144  0.040204685  0.040786938            3 
  539000    1.1724667    -6.231247    259.86848  0.040177564  0.040782335            5 
  540000    1.1672039   -6.1870321    261.53273  0.040359989  0.040777984            3 
  541000    1.1774863     -6.20317    261.78326  0.040323976  0.040774458            3 
  542000    1.1719626    -6.202823    261.74105  0.040243089  0.040770341            4 
  543000    1.1766307   -6.1839174    262.64405  0.040307558  0.040766747            5 
  544000    1.1764748   -6.2052454    263.19604   0.04031802   0.04076313            3 
  545000    1.1567372   -6.2269504    264.03269  0.040371971  0.040759665            3 
  546000    1.1375304   -6.1957558    264.73311  0.040404931  0.040756396            4 
  547000    1.1778966   -6.2066773    265.09253  0.040385821  0.040752204            7 
  548000    1.1614575   -6.1754757    265.62907  0.040393716  0.040748298            4 
  549000     1.152908   -6.2089437    265.06324   0.04023425   0.04074426            5 
  550000      1.15928   -6.1950179    266.34285  0.040354977  0.040740021            3 
  551000    1.1487634   -6.1999629    265.80253   0.04020002  0.040735879            4 
  552000    1.1400224   -6.2326707     265.7723   0.04012263  0.040731785            5 
  553000    1.1677263   -6.1908878    266.41167  0.040146424  0.040727524            3 
  554000    1.1769794   -6.1870438    267.15209  0.040185333  0.040723506            1 
  555000    1.1672199   -6.1939339    268.38866  0.040298597  0.040719843            3 
  556000     1.190997   -6.1844384    269.13365  0.040337778  0.040716468            2 
  557000    1.1642992   -6.2447476    268.65068  0.040193101  0.040712475           10 
  558000    1.1588545   -6.1976794    270.44713  0.040389357  0.040709055            4 
  559000    1.1626071   -6.2252804    270.23088  0.040284866   0.04070591            3 
  560000    1.1735367   -6.2160486    270.71108  0.040284387   0.04070294            2 
  561000    1.1614348   -6.2015379    271.20683  0.040286219  0.040699997            3 
  562000    1.1411815   -6.1961493    272.27004  0.040372189  0.040697047            3 
  563000    1.1610738   -6.2321367    270.91014  0.040099192  0.040693466            4 
  564000     1.171463   -6.2049626    271.48064  0.040112388  0.040689155            2 
  565000    1.1525206   -6.2075844    272.33911   0.04016801  0.040684811            2 
  566000    1.1785685    -6.222595    271.89352  0.040031437  0.040679945            2 
  567000    1.1638386   -6.2216705    272.50546  0.040050773  0.040674991            3 
  568000    1.1635887   -6.2411497    273.13271  0.040072287   0.04066966            2 
  569000    1.1561608   -6.2598241    274.32967  0.040177163  0.040664477            2 
  570000    1.1800484   -6.2117351    274.59645   0.04014568  0.040659907            2 
  571000    1.1447433   -6.1992707    275.10956  0.040150256  0.040654918            3 
  572000    1.1854794   -6.2193716    274.21078  0.039949123  0.040649863            3 
  573000    1.1718403   -6.2125574    275.71884  0.040098726  0.040644923            2 
  574000     1.149185   -6.2497065    275.86737  0.040050431  0.040639824            3 
  575000    1.1381441   -6.2109578    276.38452  0.040055727   0.04063463            2 
  576000    1.1698021   -6.2208152      276.846  0.040052951  0.040629667            3 
  577000    1.1755578   -6.1904311    276.97507  0.040002177  0.040624475            2 
  578000    1.1719725   -6.2465697    278.81205  0.040197815  0.040619487            3 
  579000    1.1607527   -6.1976257    278.13047  0.040030293  0.040614136            3 
  580000    1.1782282   -6.2626587    278.38026  0.039997164   0.04060932            4 
  581000    1.1440335   -6.2116239    279.28459  0.040058031  0.040604196            4 
  582000    1.1441307   -6.1950098    279.88558  0.040075255   0.04059908            4 
  583000    1.1693833   -6.2158952    279.99446  0.040022078  0.040594112            4 
  584000      1.16759   -6.2069442     280.6269  0.040043793  0.040588539            2 
  585000    1.1653759   -6.2128275    281.53887  0.040105252  0.040582883            2 
  586000    1.1769721   -6.2170848    281.07142  0.039970338  0.040578057            3 
  587000    1.1557371   -6.2140679    282.44593  0.040097377  0.040573294            2 
  588000    1.1471626   -6.2399667    282.28552  0.040006452  0.040567993            3 
  589000    1.1610325   -6.2466099    281.77284  0.039865993   0.04056298            3 
  590000    1.1431736   -6.1853044    283.54964  0.040049384  0.040558123            3 
  591000    1.1696609   -6.2278305    284.58878  0.040128141  0.040554041            2 
  592000    1.1419575   -6.2253351    284.09153  0.039990362  0.040549879            5 
  593000    1.1779107   -6.2627661    284.59026   0.03999301  0.040545934            5 
  594000    1.1468794   -6.2352765    286.25917  0.040159815  0.040542352            4 
  595000    1.1613553    -6.203905    286.87883  0.040179107  0.040538763            3 
  596000    1.1740783    -6.208485    287.48355  0.040196245  0.040535559            3 
  597000    1.1591565    -6.204619    288.96282  0.040335402  0.040532338            2 
  598000    1.1867056    -6.253438    287.95761  0.040127872  0.040529635            3 
  599000    1.1422498    -6.231115    288.60477  0.040150914  0.040526955            3 
  600000    1.1661106   -6.1784941    289.67745  0.040232979  0.040524063            4 
  601000    1.1354188   -6.2267653    289.55924  0.040149646  0.040520766            4 
  602000    1.1459897   -6.1868431    290.52623   0.04021681  0.040517492            3 
  603000     1.149775   -6.2268823     290.4207  0.040135531  0.040514274            3 
  604000    1.1542124   -6.2017049    290.92852  0.040139145  0.040510721            5 
  605000     1.125387   -6.2575843    290.77955  0.040052279  0.040507455            4 
  606000    1.1444141   -6.2267893    292.11406    0.0401697  0.040503461            3 
  607000    1.1570173   -6.2732606    291.44695  0.040011936  0.040499691            5 
  608000    1.1421335   -6.2399464    291.57466  0.039963632  0.040495463            3 
  609000    1.1544068   -6.2104174    293.47776  0.040158424   0.04049166            4 
  610000    1.1377672   -6.2090634    293.79332    0.0401357  0.040487679            4 
  611000    1.1793246   -6.2210818    293.25117  0.039996069  0.040483117            3 
  612000    1.1519018   -6.2370608    292.62894  0.039845989  0.040478239            4 
  613000    1.1726675   -6.2500668    293.09945   0.03984495  0.040472788            1 
  614000    1.1449032    -6.205688    293.51792  0.039836851   0.04046694            5 
  615000    1.1506316    -6.251716    294.41678  0.039893873  0.040461189            2 
  616000    1.1422194   -6.2461346    295.64751  0.039995605  0.040455376            3 
  617000    1.1681977    -6.217968    294.27249  0.039745068  0.040449356            2 
  618000    1.1419337   -6.2112542    293.65421  0.039597385  0.040442426            4 
  619000    1.1415378   -6.2100151    293.88358  0.039564294  0.040435182            3 
  620000    1.1296595   -6.2218439    295.96779  0.039780617  0.040427957            4 
  621000    1.1417451   -6.2355143    295.53788  0.039658867  0.040420643            3 
  622000    1.1540771   -6.2205502    295.95139  0.039650507  0.040413207            4 
  623000    1.1720138   -6.2012281    296.79461  0.039699653  0.040406327            4 
  624000    1.1930659   -6.1839166    298.26593  0.039832523  0.040399541            3 
  625000    1.1617684   -6.2524487    297.17863  0.039623817  0.040392156            6 
  626000     1.155724   -6.2799222    296.68192  0.039494398  0.040385435            2 
  627000    1.1534623   -6.2509242    297.70021  0.039566747  0.040378765            3 
  628000    1.1451882   -6.2628345    298.86733  0.039658616  0.040371837            2 
  629000    1.1281901   -6.2222063    299.68302  0.039703633  0.040365028            5 
  630000    1.1497525   -6.2456765    300.33459  0.039726797  0.040358278            2 
  631000    1.1344521   -6.2130623     301.2749  0.039788022  0.040351821            2 
  632000    1.1540698   -6.2257232    301.56589  0.039763434    0.0403458            4 
  633000    1.1610848   -6.1963897    302.43461  0.039814983  0.040339934            5 
  634000     1.113137   -6.2326029    302.00427   0.03969562  0.040334418            2 
  635000    1.1330308   -6.2726593     301.6023  0.039580354  0.040328271            5 
  636000    1.1293825   -6.2405478    303.07972  0.039711704  0.040321986            8 
  637000    1.1627514   -6.2316788    303.32624  0.039681611  0.040316104            3 
  638000    1.1613121   -6.2207482    304.20872  0.039734681  0.040309471            2 
  639000    1.1561874   -6.1972609    303.90291  0.039632618  0.040302917            3 
  640000    1.1562632   -6.2315778    304.05793  0.039590876  0.040296506            3 
  641000    1.1342937   -6.2453433    305.58873  0.039728124  0.040290109            5 
  642000    1.1713656   -6.1874443    306.09261  0.039731647  0.040283341            2 
  643000    1.1667347   -6.2430598    305.54461  0.039598835  0.040277054            4 
  644000    1.1470447   -6.2213929    306.31445  0.039636962  0.040270769            3 
  645000    1.1141123    -6.252001    307.23379  0.039694289  0.040264583            3 
  646000    1.1541868   -6.2612412    306.45767  0.039532723  0.040257925            4 
  647000    1.1670613   -6.2527186    307.72738   0.03963516  0.040251313            2 
  648000    1.1343148   -6.2321141     307.5203  0.039547363  0.040244391            4 
  649000    1.1487031   -6.2412173    308.74592    0.0396438  0.040237855            1 
  650000    1.1503192   -6.2500618    310.17674  0.039766248  0.040231316            4 
  651000    1.1347076   -6.2318249    309.84098  0.039662184  0.040224508            3 
  652000    1.1285786   -6.2285366    309.94897  0.039615154  0.040217951            2 
  653000    1.1258402    -6.207659    309.95118  0.039554771  0.040211652            2 
  654000    1.1638914   -6.2400652    310.18028  0.039523481  0.040205148            3 
  655000    1.1797813   -6.2487059    310.88416  0.039552692  0.040198552            4 
  656000    1.1472908   -6.2755006    311.00312   0.03950751  0.040191899            3 
  657000    1.1437992   -6.2173584     311.0252  0.039450177  0.040185334            2 
  658000    1.1455424   -6.2213111    312.92944  0.039631388  0.040179425            3 
  659000    1.1504777   -6.2670712    312.11289  0.039467993  0.040173133            3 
  660000    1.1305802   -6.2269241    313.61646  0.039598038  0.040166847            3 
  661000    1.1334417   -6.2297795     314.3102  0.039625593  0.040160614            2 
  662000    1.1350572   -6.2347662    314.98851  0.039651121  0.040155321            2 
  663000    1.1519604   -6.2650785    316.36163  0.039763905  0.040150096            5 
  664000    1.1629098   -6.2811572    316.27838  0.039693572  0.040144567            4 
  665000    1.1238473   -6.2507514    316.11834  0.039613828  0.040139093            3 
  666000    1.1410967   -6.2323331    317.44974  0.039720938  0.040133705            2 
  667000    1.1448345   -6.2599768    318.05473  0.039736973  0.040128689            3 
  668000    1.1873471   -6.2519251    318.19476  0.039694955  0.040123936            3 
  669000    1.1422702   -6.2144052    318.14477  0.039629394  0.040119347            2 
  670000     1.134518   -6.2333945    319.13303  0.039693163  0.040114601            3 
  671000    1.1660212   -6.2211721    319.48642  0.039677897  0.040109913            3 
  672000    1.1363516   -6.2711003    319.36615  0.039603938  0.040104848            3 
  673000    1.1323188   -6.2481374    320.06983  0.039632223  0.040100194            4 
  674000     1.140548   -6.1708904    321.73627   0.03977946  0.040095623            2 
  675000    1.1327306   -6.2695572    320.76133  0.039600164  0.040090993            3 
  676000    1.1223868   -6.2774051    321.48475  0.039630763  0.040085799            2 
  677000    1.1602047    -6.261769    321.59317   0.03958557  0.040081246            4 
  678000    1.1627298   -6.2450054    322.60163  0.039651135  0.040076795            4 
  679000    1.1211931   -6.2092133      324.032  0.039768287   0.04007296            7 
  680000    1.1414124   -6.2767602    324.87427  0.039813023  0.040068775            5 
  681000    1.1560113   -6.2220169    325.16721  0.039790408   0.04006475            6 
  682000    1.1368523    -6.272901    324.92334  0.039702265  0.040060664            4 
  683000    1.1513802    -6.238699    325.44534  0.039707826  0.040055982            4 
  684000    1.1264077   -6.2606369    324.28796  0.039508767  0.040050893            2 
  685000    1.1319198    -6.233938    325.99532  0.039658798  0.040045684            2 
  686000     1.127245   -6.2318304    326.65977  0.039681702  0.040040838            3 
  687000    1.1254972   -6.2427497    327.45356  0.039720229  0.040036245            6 
  688000    1.1391121   -6.2515768    327.18229  0.039629638   0.04003153            5 
  689000    1.1147254   -6.2111846    327.66396  0.039630377  0.040026659            3 
  690000    1.1608891   -6.2404237    327.68557  0.039575552  0.040021735            2 
  691000      1.15311   -6.2178127     329.2536   0.03970738   0.04001678            3 
  692000     1.144769   -6.2375555    329.37848  0.039665039  0.040011882            2 
  693000    1.1113201   -6.2722314    328.70641  0.039526985  0.040006612            2 
  694000    1.1145365   -6.2485475    328.59977  0.039457225  0.040001149            3 
  695000    1.1476672   -6.2569806    329.07942  0.039457964  0.039995442            2 
  696000    1.1244318   -6.2368571    330.13452    0.0395276  0.039989632            2 
  697000     1.148102   -6.2427417    330.61756  0.039528642  0.039983835            4 
  698000    1.1577449   -6.2728157     329.3244  0.039317621  0.039978169            4 
  699000    1.1402223   -6.2343666    330.77372  0.039434159  0.039972476            4 
  700000    1.1011577   -6.2295003    330.87181  0.039389501  0.039966707            3 
  701000    1.1288431   -6.2612865     332.2584  0.039498146  0.039961076            4 
  702000     1.130321   -6.2395125    331.77469   0.03938446  0.039954911            5 
  703000    1.1520731   -6.2536273    333.29056  0.039508127  0.039949213            2 
  704000    1.1519952   -6.2445098    333.78021  0.039509968  0.039943752            2 
  705000    1.1373872   -6.2164541    333.86775  0.039464273  0.039938249            5 
  706000    1.1025863   -6.2643926    334.00523  0.039424602  0.039932279            4 
  707000    1.1155454   -6.2559744    333.32824  0.039289043  0.039926155            3 
  708000    1.1268795   -6.2612706    334.32654  0.039351053  0.039919714            4 
  709000    1.1582528   -6.2665823    335.23635  0.039402486  0.039913595            4 
  710000    1.1519861   -6.2440604    335.86196  0.039420418  0.039907278            9 
  711000    1.1568856   -6.2559346    334.58967  0.039215855  0.039900872            3 
  712000    1.1250342   -6.2850863    336.47039  0.039380898  0.039894653            6 
  713000    1.1226137    -6.247097    337.20413  0.039411422  0.039888901            2 
  714000    1.1337043   -6.2285894    338.63686  0.039523443  0.039883334            2 
  715000     1.142609   -6.2900173    337.80071  0.039370712  0.039877522            2 
  716000    1.1178712   -6.2762684    337.42338  0.039271809  0.039871062            2 
  717000    1.1409463    -6.255105    338.19621  0.039306859  0.039864546            3 
  718000    1.1434389   -6.2347636    338.00629  0.039230071  0.039858233            2 
  719000    1.1408661    -6.248023    340.04288  0.039411553  0.039852306            3 
  720000    1.1215833   -6.2386651    340.08491   0.03936168  0.039846392            3 
  721000    1.1446258   -6.2742408    339.96798  0.039293572  0.039840457            1 
  722000    1.1475995   -6.2440241    341.31891  0.039395073   0.03983457            4 
  723000    1.1123414   -6.2602734    340.87424  0.039289332  0.039828739            4 
  724000    1.1612544   -6.2555053    342.38684  0.039409167  0.039823026            6 
  725000    1.1491687   -6.2686948    342.85223  0.039408302  0.039817641            3 
  726000    1.1327653   -6.2386065    342.22946  0.039282537  0.039811892            4 
  727000    1.1529533   -6.2652649    342.94132  0.039310101  0.039806204            3 
  728000     1.123698    -6.281954    341.69273  0.039113178  0.039799972            6 
  729000    1.1326863   -6.2365446    344.37931  0.039366634  0.039793642            3 
  730000    1.1331911   -6.2880474    343.10214  0.039166911  0.039787638           11 
  731000    1.1421185    -6.238815    344.05843  0.039222347  0.039780951            2 
  732000    1.1390323   -6.2406774    345.41563  0.039323273  0.039774806            5 
  733000    1.1154343   -6.2579652    345.37395  0.039264888  0.039768376            1 
  734000    1.1377608   -6.2816067    345.05493  0.039175174  0.039761965            4 
  735000    1.1309939   -6.2882454    345.69358  0.039194283  0.039755766            6 
  736000    1.1169102   -6.2435278    345.80488  0.039153632  0.039749364            1 
  737000    1.1450217   -6.2702121    346.88034   0.03922211  0.039742898            3 
  738000    1.1227271   -6.2743726    347.33261  0.039220032   0.03973628            3 
  739000    1.1236699   -6.2621533    346.72431  0.039098366  0.039729872            5 
  740000    1.1379141   -6.2419085    348.15932   0.03920713  0.039723188            5 
  741000    1.1449515   -6.2394867    347.33437  0.039061446  0.039716418            3 
  742000     1.131127   -6.2383116    348.83878  0.039177761  0.039709738            3 
  743000    1.1216134   -6.3201727    348.13967  0.039046621  0.039702789            2 
  744000    1.1403691   -6.2993567    347.46387  0.038918444   0.03969548            4 
  745000    1.1371365   -6.2505718    348.86109  0.039022494  0.039687643            3 
  746000    1.1699803   -6.2765189     347.9588  0.038869392  0.039679836            6 
  747000    1.1257125   -6.2861382    348.89634  0.038921948  0.039672159            3 
  748000    1.1230268   -6.2949877    349.89466  0.038981134  0.039664538            4 
  749000    1.1230994   -6.2419024    350.46804  0.038992883  0.039657064            2 
  750000    1.1389336   -6.2417872    351.20827  0.039023141  0.039649347            3 
  751000    1.1381304   -6.2467599     351.5731  0.039011662  0.039641656            2 
  752000    1.1265859   -6.3011492    350.90095    0.0388853  0.039633764            3 
  753000    1.1440544   -6.3091509    350.66024  0.038807021  0.039626182            5 
  754000    1.1224081   -6.2517568    351.06853  0.038800678  0.039618471            4 
  755000    1.1213759   -6.2813068    351.75932  0.038825532   0.03961076            4 
  756000    1.1355516   -6.2323738    352.53311   0.03885947   0.03960269            4 
  757000    1.1324775   -6.2772738     352.7142  0.038828071  0.039594377            4 
  758000    1.1307935    -6.256836    351.98921  0.038697143  0.039585932            3 
  759000    1.0974754   -6.2576128    354.88293   0.03896387  0.039577813            5 
  760000    1.1400928   -6.2764591    354.34963  0.038854126    0.0395698            2 
  761000    1.1406243   -6.2411015    356.01378  0.038985302  0.039562136            2 
  762000    1.1568248   -6.2612411    355.78189  0.038908781  0.039554725            5 
  763000    1.1147987   -6.2933629    356.08879  0.038891305  0.039547296            2 
  764000    1.1015294   -6.2453694    356.09126   0.03884067  0.039539655            3 
  765000    1.1003711   -6.2944449    357.06327  0.038895781  0.039532163            2 
  766000    1.1319728    -6.226395    357.51939  0.038894625  0.039524579            2 
  767000    1.1014635   -6.2803335    356.97389  0.038784647  0.039516984            4 
  768000    1.1286665   -6.2931812    359.07589  0.038962228  0.039509491            3 
  769000    1.1556266   -6.2725056    358.36177  0.038834176  0.039502154            3 
  770000    1.1473616   -6.2723982    358.90165   0.03884217  0.039494671            3 
  771000    1.1199611   -6.2357043    359.95703  0.038905861  0.039487407            5 
  772000    1.1288009   -6.2739557    360.11908  0.038872957  0.039480112            2 
  773000    1.1388155   -6.2642782    361.75115  0.038998615  0.039472887            4 
  774000    1.1281126   -6.2873333    360.86036  0.038852321  0.039465343            5 
  775000    1.1267834    -6.248377    361.54062  0.038875335  0.039458228            4 
  776000    1.1297346   -6.2587563     362.6888  0.038948539  0.039450956            3 
  777000    1.1204114   -6.2838665    363.24048   0.03895758  0.039443666            3 
  778000     1.101913   -6.2307638    363.27574  0.038911283  0.039436715            5 
  779000    1.1105236   -6.2850958    363.54724  0.038890377  0.039430057            3 
  780000    1.1246292   -6.2769465    364.19465  0.038909685  0.039423225            2 
  781000    1.1423789   -6.2821013    363.64695  0.038801424  0.039416218            6 
  782000    1.1336293   -6.2833522    364.64423  0.038858081  0.039409204            3 
  783000    1.1367928   -6.2929477    364.43229  0.038785897  0.039402452            3 
  784000    1.1133722   -6.2980893     365.9489   0.03889763  0.039395188            2 
  785000    1.1284054    -6.298164    364.53804  0.038698305  0.039387974            4 
  786000    1.1163039   -6.2835532    366.57412   0.03886494  0.039380535            5 
  787000    1.1059783   -6.2553592    366.85513  0.038845312  0.039373709            2 
  788000    1.1209776   -6.2897447    366.62957  0.038772162  0.039366771            3 
  789000     1.141102   -6.2747411    368.17535  0.038886285  0.039360257            3 
  790000    1.0997807   -6.2567942    369.85097  0.039013816  0.039354025            3 
  791000    1.1322749   -6.3005269    369.15879   0.03889157  0.039347959            1 
  792000    1.1229409   -6.2689228    369.79567  0.038909477  0.039341896            2 
  793000    1.1228937   -6.2346558    370.45706  0.038929913  0.039336109            3 
  794000    1.0995881   -6.2570878    371.17698  0.038956442  0.039329811            3 
  795000    1.1207495   -6.2646046    371.74686  0.038967176  0.039323562            4 
  796000    1.1216465   -6.2620497    371.73244  0.038916713  0.039317568            3 
  797000    1.1134122   -6.2850081    373.07007  0.039007744  0.039311742            7 
  798000    1.1096367     -6.30173    373.17397  0.038969713  0.039306371            5 
  799000    1.0966176   -6.2861801    373.21388  0.038925103  0.039301048            3 
  800000     1.129859   -6.2676998    374.12301  0.038971147  0.039295925            2 
  801000    1.1396342   -6.2935732    375.39306  0.039054625  0.039290909            4 
  802000    1.1152242   -6.2547574    374.89744   0.03895443  0.039285665            2 
  803000    1.1075274   -6.2619498    374.45431  0.038859933   0.03928051            3 
  804000    1.0880481   -6.2886969    375.72615  0.038943423  0.039275475            2 
  805000    1.1286386   -6.3158436    376.40855  0.038965689   0.03927024            2 
  806000     1.139452    -6.281128    376.03445  0.038878666  0.039264934            3 
  807000    1.1290429    -6.282922    376.67698  0.038896838    0.0392596            5 
  808000    1.1024487   -6.2951586    375.47692   0.03872493  0.039253962            4 
  809000    1.1236617    -6.275826    377.86503  0.038923056   0.03924802            4 
  810000    1.1494862   -6.2693528    378.48469  0.038938754   0.03924259            3 
  811000    1.1287993   -6.2986479    377.40562  0.038779863  0.039237066            2 
  812000    1.1474141    -6.282897    378.68696  0.038863604  0.039231389            5 
  813000    1.1070232   -6.2861143    378.29343  0.038775464   0.03922588            6 
  814000    1.1281686   -6.2774319    379.41997  0.038843158  0.039220243            3 
  815000    1.1193664   -6.2769185    379.87407  0.038841929  0.039214992            5 
  816000    1.1226573   -6.2579266    380.17314  0.038824872  0.039209447            4 
  817000    1.1298506   -6.2916129    381.81987  0.038945316  0.039204195            1 
  818000    1.1304078   -6.2940363    382.11094  0.038927358  0.039198796            7 
  819000    1.1201502   -6.2642537    382.72994   0.03894281  0.039193289            9 
  820000    1.1193793   -6.2780325    382.41655  0.038863471  0.039187933            3 
  821000     1.122259   -6.3020334    381.89726  0.038763425  0.039182305            2 
  822000    1.1192362   -6.2469547    382.86833  0.038814713  0.039176768            3 
  823000    1.1288117   -6.2865805    383.32583  0.038813875  0.039171821            2 
  824000    1.1083794    -6.261986    385.16581  0.038952853  0.039166317            2 
  825000    1.1262376   -6.2940068    384.83604  0.038872328  0.039160747            2 
  826000    1.1352078   -6.2772194    383.73663  0.038714349  0.039155346            3 
  827000    1.1247958    -6.283431    385.61535  0.038856847  0.039150013            4 
  828000    1.1175126   -6.2422036    385.38641  0.038786877  0.039144749            9 
  829000    1.1275754   -6.3054222    385.39706   0.03874116  0.039139612            3 
  830000     1.109326    -6.296139    386.43533  0.038798727  0.039134503            2 
  831000    1.1168045   -6.2628481    386.48531   0.03875705  0.039128977            6 
  832000    1.1399997   -6.2703953    387.01151  0.038763172  0.039123147            4 
  833000    1.1184094   -6.3028448    386.71689  0.038687164  0.039117821            3 
  834000    1.1264563   -6.3072071    387.99234  0.038768219  0.039112455            6 
  835000    1.1295515   -6.2954797    388.55901  0.038778344  0.039107212            1 
  836000    1.1126544   -6.2853344     388.2617  0.038702323  0.039101848            4 
  837000    1.0899336   -6.2935308    388.69134  0.038698859  0.039096215            3 
  838000    1.1230478   -6.2600669    389.69042  0.038752031  0.039090423            2 
  839000    1.1175154   -6.3106989    389.07466  0.038644682  0.039084782            2 
  840000    1.1161705    -6.317088    389.23274  0.038614359  0.039078635            5 
  841000    1.1200994   -6.3062271    389.59808  0.038604645   0.03907231            4 
  842000    1.1132083   -6.2776741    391.51471  0.038748487  0.039066823            2 
  843000     1.103312   -6.2862676    391.43335  0.038694479  0.039060942            5 
  844000    1.1068135   -6.2724748     391.7295  0.038677873  0.039055282            6 
  845000      1.10496   -6.2558346     392.0857  0.038667229  0.039049661            3 
  846000    1.1152215   -6.2693927    393.99127  0.038809227   0.03904415            4 
  847000    1.1103342   -6.2969473     392.0203   0.03856949  0.039038871            3 
  848000    1.1178282   -6.2837437    394.08591  0.038726996  0.039033545            1 
  849000    1.0839354   -6.2813224    395.07692  0.038778654  0.039028185            3 
  850000    1.1219465   -6.3078969    392.29513  0.038460307  0.039022906            3 
  851000    1.0913175   -6.3291038    395.22638  0.038702153  0.039017429            4 
  852000    1.1090158   -6.2674043    395.89736  0.038722356  0.039012124            4 
  853000    1.1431836   -6.2755988    395.72176  0.038659804  0.039006965            5 
  854000     1.146175   -6.3186417    396.82348  0.038722042  0.039001897            6 
  855000    1.1228801   -6.2618372    397.70209  0.038762387  0.038996743            6 
  856000    1.1151081    -6.312842     397.5437  0.038701684    0.0389913            5 
  857000    1.0948023   -6.2767768    395.97205    0.0385037  0.038985581            2 
  858000    1.1355113   -6.3297328    396.41263  0.038501615  0.038979508            3 
  859000    1.1276809   -6.2757415    398.15645  0.038625966  0.038973698            3 
  860000     1.108374   -6.2676287    396.80618  0.038450211  0.038967274            4 
  861000    1.1001626   -6.2870605    397.45593  0.038468441   0.03896071            6 
  862000    1.0898451   -6.2853193    397.30315  0.038409043  0.038954017            4 
  863000    1.1344344   -6.2939774    398.63521  0.038493164  0.038947375            5 
  864000    1.1066277   -6.3066194    397.75478  0.038363694  0.038940813            2 
  865000    1.1182043   -6.3182611     398.7014   0.03841054  0.038933889            3 
  866000    1.1074153   -6.3147066    396.85888  0.038188884  0.038926717           10 
  867000     1.108269   -6.2834102    399.24279   0.03837397  0.038919612            2 
  868000    1.1506642   -6.2846787    399.50337  0.038354779  0.038912749            1 
  869000    1.1171039    -6.297532    399.85326  0.038344194  0.038905606            6 
  870000    1.1018205   -6.2850474    399.81949  0.038296886  0.038898341            4 
  871000    1.1157184    -6.278104     400.8359  0.038350163   0.03889094            5 
  872000    1.0940523   -6.2960002    400.75241  0.038298204  0.038883496            3 
  873000    1.1230707   -6.2993061    399.47976  0.038132852  0.038875821            9 
  874000     1.124701   -6.2891531    401.75386  0.038306051  0.038868314            5 
  875000    1.1191164   -6.2814781    401.32923  0.038221832  0.038860909            5 
  876000    1.1113171   -6.2630517    402.60649  0.038299704  0.038853419            3 
  877000    1.1040671   -6.2982444    402.64015  0.038259232  0.038845703            6 
  878000    1.1174921   -6.2884396    402.69442  0.038220807  0.038837864            5 
  879000    1.1052007   -6.3163121    402.02374  0.038113741  0.038829911            5 
  880000    1.1382751   -6.2602373    404.44132  0.038299367  0.038822153            2 
  881000    1.0967708   -6.3062156    403.72917  0.038188533   0.03881443            6 
  882000    1.0987393   -6.3245042    403.94232  0.038165374  0.038806518            6 
  883000    1.0972017   -6.2985307    403.88192  0.038116452  0.038798513            4 
  884000    1.0947521   -6.3356175    403.62447  0.038049064  0.038790581            4 
  885000    1.1066656   -6.3021018    405.13816  0.038148602  0.038782803            5 
  886000     1.124436   -6.2941688    404.88212  0.038081463  0.038774889            3 
  887000    1.1070673   -6.2867545    406.07423  0.038150529  0.038766887            3 
  888000    1.1153782   -6.2662106     405.6295  0.038065832  0.038759359            7 
  889000    1.1327983   -6.3234892    404.95247  0.037959549  0.038751579            5 
  890000    1.1189841   -6.2971255    407.31301  0.038137922  0.038743649            5 
  891000    1.0869453   -6.3063598    407.29749  0.038093667  0.038736027            5 
  892000    1.0899666   -6.3224764    407.78954   0.03809693  0.038728321            4 
  893000    1.1015403   -6.3271662    409.30129  0.038195343  0.038720632            6 
  894000    1.1212146   -6.3291775    408.27981  0.038057402  0.038712912            4 
  895000    1.1275272      -6.3053    407.81169  0.037971293   0.03870498            5 
  896000     1.104779   -6.3179845     409.1823  0.038056389   0.03869708            3 
  897000    1.1015701   -6.3358417    410.02978  0.038092696  0.038689229            4 
  898000    1.1102201   -6.3254818    409.58915  0.038009386  0.038681799            6 
  899000    1.0943109   -6.3172365    410.82346  0.038081522  0.038674204            4 
  900000    1.1037161   -6.2768952    410.70663  0.038028391  0.038666538           10 
  901000    1.1206975   -6.3280947    409.89544  0.037911158  0.038658367            3 
  902000    1.1217493   -6.2904477    413.35107  0.038188385  0.038650666            4 
  903000    1.1087214   -6.3154052    412.10914  0.038031482   0.03864317            3 
  904000    1.1099401   -6.2784929    413.84168  0.038149122   0.03863571            2 
  905000    1.1104482   -6.2818503    414.49784  0.038167389  0.038628355            5 
  906000    1.1054301   -6.3148747    413.94457  0.038074372  0.038620648            3 
  907000    1.1104653   -6.3703611    412.44385  0.037894511  0.038612811            4 
  908000    1.0949251    -6.320367    413.23266  0.037925171  0.038604696            4 
  909000    1.0912334    -6.304453    414.85405  0.038032091  0.038596718            2 
  910000    1.1104602   -6.3213388    413.15283  0.037834508  0.038588605            2 
  911000    1.1203412   -6.3398268    414.72165  0.037936485  0.038580587            2 
  912000    1.1083024   -6.3164197    415.06284  0.037926064  0.038572971            2 
  913000    1.1030007   -6.2810831    417.62509   0.03811839  0.038565751            5 
  914000    1.0959457    -6.277839    418.07609  0.038117806  0.038558461            2 
  915000    1.1194366   -6.2732798    417.06144  0.037983738  0.038551275            2 
  916000    1.1068686   -6.3539502    416.97014  0.037933964  0.038543915            4 
  917000    1.1029885   -6.3024059    417.99422  0.037985662  0.038536788            6 
  918000    1.0984075   -6.3317109    418.70457  0.038008766  0.038529342           10 
  919000       1.1336   -6.2965933    419.30286  0.038021659  0.038521727            5 
  920000    1.0922734   -6.3231131    419.29299  0.037979437  0.038514096            4 
  921000    1.1096639   -6.2969239    418.76741  0.037890646  0.038506479            3 
  922000     1.106603   -6.3136942    420.36055  0.037993542  0.038499107            2 
  923000    1.0967973   -6.3166383    419.88745  0.037909665   0.03849144            4 
  924000     1.101701   -6.3201868    420.30756  0.037906526  0.038483993            3 
  925000    1.1003071   -6.3196039    421.75489  0.037995936  0.038476496            6 
  926000    1.1092379   -6.2651908    420.67995  0.037858167  0.038469108            2 
  927000    1.0815738   -6.3325514    421.91646  0.037928485  0.038461666            2 
  928000    1.1215014   -6.3187758    421.24916   0.03782769  0.038454046            7 
  929000     1.069562   -6.3550606     421.2376  0.037785934  0.038446572            3 
  930000     1.114813   -6.3332738    423.66632  0.037962932  0.038438833            7 
  931000     1.101462   -6.3372031    421.71151  0.037747182  0.038431036            2 
  932000    1.0880336   -6.3124714    423.77584  0.037891259  0.038423648            5 
  933000    1.1241225   -6.2782643    424.82528   0.03794438  0.038416327            4 
  934000    1.0889247   -6.3346253    423.83606  0.037815495  0.038409029            1 
  935000     1.099464    -6.333527    425.18757  0.037895506  0.038401664            2 
  936000    1.1206316   -6.3630593    424.45502  0.037789799  0.038394349            2 
  937000    1.1060797   -6.3335545    426.23959  0.037908181   0.03838714            5 
  938000    1.1103265    -6.319584     427.1124  0.037945309  0.038379842            5 
  939000    1.1196557   -6.2893254    426.69402  0.037867769  0.038372889            2 
  940000    1.1061627   -6.3506367    426.50366  0.037810609  0.038365929            5 
  941000    1.0847879   -6.3139041    428.72493  0.037967139  0.038359263            4 
  942000     1.092515   -6.3510545    428.11246  0.037872652  0.038352122            4 
  943000    1.0977266   -6.3443606    427.57647  0.037785124  0.038345081            4 
  944000     1.077032   -6.3218368    429.60794   0.03792443  0.038337993            4 
  945000     1.128584   -6.3123329    429.52399  0.037876895  0.038330975            5 
  946000    1.0992727   -6.3052784    431.04795  0.037971102  0.038324041            5 
  947000    1.1229824   -6.3075638    429.53511  0.037797881   0.03831688            3 
  948000    1.0975296   -6.3551106    429.58134  0.037762073  0.038309697            4 
  949000    1.1070582   -6.3094074    431.77866  0.037915232  0.038302824            7 
  950000    1.1001803   -6.3148887      432.149  0.037907807  0.038295909            2 
  951000    1.1349728   -6.3134073    431.30227   0.03779375   0.03828903            2 
  952000    1.1179762   -6.3083402    432.42613  0.037852427  0.038282127            6 
  953000    1.1101778   -6.3349931    432.51062  0.037820096  0.038275156            3 
  954000    1.0741752   -6.3172678    433.16863   0.03783793  0.038268069            2 
  955000    1.0625499    -6.321564    432.36238  0.037727956  0.038260708            2 
  956000    1.1020086   -6.3095604    433.06268  0.037749536  0.038253396            6 
  957000    1.0950088   -6.3382658    433.26539  0.037727742  0.038246241            5 
  958000    1.0894047   -6.3216856    434.81777  0.037823397  0.038239147            4 
  959000    1.1062121   -6.3150281    435.05466  0.037804541  0.038232051            5 
  960000    1.0812685   -6.3233262    434.88011   0.03775001  0.038224675            5 
  961000    1.1163941   -6.3453139     435.2488  0.037742699  0.038217498            5 
  962000    1.0676762   -6.3402376    435.42943  0.037719112  0.038210454            4 
  963000    1.0868712   -6.3433982    435.13456  0.037654427  0.038203571            4 
  964000    1.1252602   -6.3231601    436.16399  0.037704356  0.038196511            7 
  965000      1.09552   -6.3186907    436.85297  0.037724782  0.038189456            5 
  966000    1.1275956   -6.3517342    436.43074  0.037649305  0.038182274            6 
  967000    1.1045804   -6.3415262    437.77944  0.037726598  0.038175364            3 
  968000    1.1219848   -6.3599545    437.92287  0.037699972  0.038168485            4 
  969000    1.1123823   -6.3456886    438.08141    0.0376747  0.038161086            4 
  970000    1.1246987   -6.2864793    438.11029  0.037638341  0.038153736            3 
  971000    1.0858334    -6.354027    438.08659  0.037597544  0.038146348            5 
  972000    1.0870786   -6.3290539    439.47871  0.037678216  0.038139116            2 
  973000    1.1162789   -6.3104529    439.47065  0.037638802  0.038131876            3 
  974000      1.09022   -6.3333992    439.03774  0.037563119   0.03812444            5 
  975000    1.0797761   -6.3303876    440.09853  0.037615259  0.038116822            7 
  976000    1.0900716   -6.3182036    439.79503  0.037550805  0.038109014            4 
  977000      1.09485   -6.3238919    439.80162  0.037512933  0.038101389           11 
  978000    1.0916955    -6.337766    439.53474  0.037451835  0.038093474            5 
  979000    1.0786776   -6.3190252    440.41451  0.037488467  0.038085491            2 
  980000    1.1278263   -6.3046928    441.17364  0.037514765  0.038077753            2 
  981000    1.0993507   -6.3256465    441.06192  0.037467034  0.038070097            4 
  982000    1.0873779   -6.3681159     440.9902  0.037422793  0.038062272            2 
  983000    1.1026556   -6.3217091     441.9572  0.037466701  0.038054214            3 
  984000    1.0781967   -6.3376398    441.55838  0.037394849  0.038046286            4 
  985000    1.0965136   -6.3162492      442.829  0.037464383   0.03803849            4 
  986000    1.0816224   -6.3590664    441.47127  0.037311635  0.038030556            4 
  987000    1.0984188   -6.3540772    443.65856  0.037458507  0.038022624            6 
  988000    1.0827612   -6.3490563    444.84456  0.037520628  0.038014891            5 
  989000    1.1044169   -6.2960297    444.75529  0.037475168  0.038007415            2 
  990000    1.0967918   -6.3410812    445.19629  0.037474435  0.037999825            2 
  991000    1.0778014   -6.3308344    445.32604  0.037447531  0.037992186            5 
  992000    1.0791288   -6.3302611    446.15189  0.037479157  0.037984796            4 
  993000    1.1007917   -6.3398698    445.93866  0.037423519  0.037977457            3 
  994000    1.0854888   -6.3258709    447.89424  0.037549819  0.037970028            3 
  995000    1.0763873    -6.328442    447.39754   0.03747048  0.037962635            5 
  996000    1.0890524   -6.3398431    447.93444  0.037477781  0.037955259            5 
  997000    1.0776971   -6.3210492    448.65435  0.037500364  0.037947865            3 
  998000    1.1119376   -6.3334355     449.6872  0.037549031  0.037940759            3 
  999000    1.0962172   -6.3393274    446.93363  0.037281751  0.037933562            3 
 1000000    1.0808171   -6.3295089    449.07934  0.037423278  0.037926029            8 
 1001000    1.0834354   -6.3424375    448.34991  0.037325167  0.037918431            4 
 1002000    1.1068319   -6.2829453    450.81558  0.037492979  0.037910839            2 
 1003000    1.0883704   -6.3586096    449.36085  0.037334733  0.037903045            5 
 1004000    1.1089537    -6.313929    451.56824  0.037480763  0.037895375            3 
 1005000    1.0820233   -6.3508084    449.87246  0.037302857  0.037887801            4 
 1006000    1.1285858   -6.2889928    450.62753  0.037328324  0.037880275            3 
 1007000    1.1174533   -6.3383486    451.34369   0.03735052  0.037872657            5 
 1008000    1.0691297   -6.3273016      450.776  0.037266535  0.037864799            8 
 1009000    1.0937616     -6.33409    452.26492   0.03735257  0.037856911            4 
 1010000    1.0966244   -6.2914974    451.72059  0.037270675  0.037848818            3 
 1011000     1.069759     -6.34627    451.81273  0.037241405  0.037840812            3 
 1012000    1.0691834   -6.3130665    453.12847   0.03731295  0.037832754            5 
 1013000    1.0665718   -6.3403438    453.45508  0.037302985  0.037824786            5 
 1014000    1.0878253   -6.3609553     453.6619  0.037283194  0.037816616            2 
 1015000    1.0797614   -6.3526061    452.79622  0.037175388  0.037808304            4 
 1016000    1.1155317    -6.360524     452.5857  0.037121531  0.037800147            8 
 1017000    1.0934502   -6.3238456    455.18473  0.037297995  0.037791937            6 
 1018000    1.1003889   -6.3479761    453.52526  0.037125513  0.037783659            5 
 1019000    1.0808653   -6.3749185    453.01614  0.037047444  0.037775314            2 
 1020000    1.0912434   -6.3581791    454.30516  0.037116434  0.037766992            2 
 1021000    1.1011422   -6.3398091    455.46625  0.037174849   0.03775862            9 
 1022000     1.088776   -6.3638529    453.78177  0.037001123  0.037750004            8 
 1023000    1.1113293    -6.344801     455.4585  0.037101539   0.03774139            3 
 1024000    1.0740277   -6.3467626    455.55677  0.037073305  0.037732726            3 
 1025000    1.0731848   -6.3308152     456.8623  0.037143277  0.037724122            3 
 1026000    1.1167137   -6.3547232    456.15618  0.037049722  0.037715371            2 
 1027000     1.091244   -6.3214009    458.12119  0.037173092  0.037707152            2 
 1028000    1.0738194   -6.3799773    456.63394   0.03701637  0.037698947            6 
 1029000    1.0956604    -6.320365    457.08491  0.037016918  0.037690615            5 
 1030000    1.0796925   -6.3371035    457.86119  0.037043785  0.037682178            4 
 1031000     1.077278   -6.3601231    456.68159  0.036912511   0.03767353            4 
 1032000    1.0950553   -6.3600001    458.61975  0.037033248  0.037664955            6 
 1033000    1.0831311   -6.3619399    458.36814    0.0369771  0.037656439            3 
 1034000    1.0889306    -6.362589    459.38241  0.037023083  0.037648106            3 
 1035000    1.1048195   -6.3534184     458.9787  0.036954807  0.037639444            5 
 1036000    1.0824263    -6.357325    459.43651  0.036955961   0.03763091            6 
 1037000    1.0930574    -6.369825    460.24692  0.036985449  0.037622454            3 
 1038000    1.0647072   -6.3638076    460.11669  0.036939362  0.037614266            4 
 1039000    1.0968491   -6.3387342    460.36093  0.036923398  0.037605768            5 
 1040000    1.0713436   -6.3185532    462.21463  0.037036429  0.037597451            3 
 1041000    1.0948455   -6.3782263    461.06483  0.036908808  0.037589068            6 
 1042000     1.084885   -6.3014313    461.40145  0.036900308   0.03758059            2 
 1043000    1.0716645   -6.3574398    461.55724  0.036877376  0.037572279            4 
 1044000     1.072901   -6.3868593    461.88515  0.036868227  0.037563655            5 
 1045000    1.0806577     -6.35858    461.29871  0.036786181   0.03755504            5 
 1046000    1.0894647   -6.3276939    463.28711  0.036909425  0.037546296            3 
 1047000    1.0849227    -6.374786    464.83508   0.03699738  0.037537877            6 
 1048000    1.1089724   -6.3786652    462.67218  0.036790091  0.037529449            5 
 1049000    1.0539193   -6.3425538    464.61824  0.036909616  0.037520953            4 
 1050000    1.1146655   -6.3649367    465.57931  0.036950739  0.037512722            3 
 1051000    1.0767082   -6.3688796    464.54432  0.036833517  0.037504807            5 
 1052000    1.1040647   -6.3522335    467.39643  0.037024432  0.037497018            3 
 1053000    1.0841553   -6.3764213    466.58184  0.036924806  0.037488917            5 
 1054000     1.088623   -6.3586542    466.13846  0.036854717  0.037480972            4 
 1055000    1.0939158   -6.3571202      468.809  0.037030727    0.0374732            4 
 1056000    1.0956895    -6.364594    467.21829   0.03687013  0.037465402            3 
 1057000    1.0512775   -6.3564713    467.98376  0.036895598  0.037457532            6 
 1058000    1.0942234   -6.3613025    468.42115  0.036895176  0.037449792            5 
 1059000    1.0400929   -6.3585776    470.58015  0.037030229  0.037442051            3 
 1060000    1.0667694   -6.3690754    469.20086   0.03688686  0.037434405           10 
 1061000    1.0584356     -6.39701     470.2807  0.036936907  0.037426469            3 
 1062000    1.0756426   -6.3434823    470.20296  0.036896026  0.037418567            4 
 1063000    1.0845014   -6.3417598    471.02048  0.036925406  0.037410713            3 
 1064000    1.0651807   -6.3488492    470.83052  0.036875824  0.037403069            2 
 1065000    1.1003327   -6.3705953    470.57407  0.036821132  0.037395338            5 
 1066000    1.0552938   -6.3523316    472.60151  0.036945084  0.037387777            6 
 1067000     1.087221   -6.3739968    472.84156  0.036929207  0.037380194            3 
 1068000    1.0848249   -6.3524719    472.31596  0.036853617   0.03737255            4 
 1069000    1.0790812   -6.3310027    473.31208  0.036896795  0.037364642            6 
 1070000    1.0875701   -6.3802718    473.20153  0.036853702  0.037356994            3 
 1071000    1.0713241   -6.3474097    472.42625  0.036758968  0.037349239            2 
 1072000    1.0882234   -6.3654498    475.19547  0.036939947  0.037341668           17 
 1073000    1.0881674   -6.3683819    474.02948  0.036814964  0.037334074            4 
 1074000    1.0655011   -6.3756076    475.54174  0.036898024  0.037326644            5 
 1075000    1.0925058   -6.3403665    476.85047  0.036965153  0.037319268            2 
 1076000     1.107948   -6.3571868    475.20169  0.036803105  0.037311697            2 
 1077000    1.0768858   -6.3317336    475.89371  0.036822478  0.037304004            3 
 1078000    1.0984805   -6.3733922    475.67228  0.036771203  0.037296236            2 
 1079000    1.0688037   -6.3447333    476.35134  0.036789569  0.037288543            3 
 1080000    1.0880698   -6.3405945    476.93299  0.036800385  0.037280768            4 
 1081000    1.0595716   -6.3926895    477.84152   0.03683638   0.03727318            3 
 1082000    1.0901297   -6.3588273    478.20121  0.036830038  0.037265469            5 
 1083000    1.0890326   -6.3793672    477.94918  0.036776638    0.0372579            3 
 1084000    1.0834131    -6.370827     478.1059  0.036754759  0.037250215            6 
 1085000    1.0620516   -6.3381033    478.14698  0.036724038  0.037242526            3 
 1086000    1.0955959    -6.384522    479.47599  0.036792203  0.037234818            5 
 1087000     1.103318   -6.3646933    479.41002  0.036753298  0.037227176            4 
 1088000    1.0553401   -6.3112867    478.70543   0.03666555    0.0372196            2 
 1089000    1.0770357   -6.3429116    480.42035  0.036763112  0.037211932            5 
 1090000    1.0689709   -6.3918371       479.24  0.036639144  0.037204004            2 
 1091000    1.0776075   -6.3617048    478.78598  0.036570881  0.037196105            3 
 1092000    1.0771032   -6.3514199    480.40479  0.036660927  0.037188312            3 
 1093000    1.1057246   -6.3711781    480.05207  0.036600494  0.037180808            3 
 1094000    1.0676861   -6.3967395    481.08819  0.036645962  0.037173118            4 
 1095000    1.0662432    -6.411498    480.98244  0.036604448  0.037165306            4 
 1096000    1.0745399   -6.3897579    481.86203  0.036637928   0.03715743            4 
 1097000    1.0729785   -6.3401502    483.82153  0.036753383  0.037149656            4 
 1098000    1.0795195   -6.3558013    481.97738  0.036579947  0.037141962            9 
 1099000    1.1025646   -6.3996431    482.80008  0.036609045   0.03713424            2 
 1100000    1.0789391   -6.3762523    482.86009   0.03658031  0.037126574            4 
 1101000    1.0405982   -6.3613772     483.9689   0.03663101  0.037119071            5 
 1102000    1.0839543   -6.3399169    483.25418  0.036543722  0.037111254            4 
 1103000    1.0520915   -6.3724208    484.89205  0.036634334  0.037103423            5 
 1104000    1.0603389    -6.346945    485.53738  0.036649863  0.037095481            5 
 1105000    1.0727386   -6.3671431    485.72671  0.036630973  0.037087532            2 
 1106000    1.0729569   -6.3654674    485.27443  0.036563775  0.037079663            7 
 1107000    1.1027015   -6.3668881    486.52247  0.036624696  0.037072126            2 
 1108000    1.0876675   -6.3682059     486.6426  0.036600677   0.03706484            3 
 1109000    1.0696214   -6.3389544    488.22297  0.036686427  0.037057472            4 
 1110000    1.0884507    -6.392039    486.33369  0.036511538  0.037050087            4 
 1111000    1.0535294   -6.3771113    487.15278  0.036540113  0.037042619            2 
 1112000    1.0659768   -6.3829265    486.81373  0.036481844  0.037035197            4 
 1113000    1.0891685   -6.3791524    487.76661  0.036520411  0.037027568            2 
 1114000    1.0602955   -6.3810943    487.32259  0.036454413  0.037019781            6 
 1115000     1.058084   -6.3263739    490.04695  0.036625332  0.037012126            3 
 1116000    1.0641758   -6.3876508    488.74259  0.036495116  0.037004645            5 
 1117000    1.0846875   -6.3501114    489.19586  0.036496259  0.036996998            5 
 1118000    1.0739004   -6.3800981    490.58703   0.03656731  0.036989336            4 
 1119000    1.0743928   -6.4073616     490.2114  0.036506658  0.036981648            3 
 1120000    1.1032795   -6.3639716    491.81882  0.036593662  0.036974087            4 
 1121000    1.0895229   -6.3865889    491.92561  0.036568957  0.036966383            4 
 1122000     1.067844   -6.3490562    491.22645  0.036484437  0.036958806            3 
 1123000      1.06888   -6.3654891    491.38092   0.03646341  0.036951433            5 
 1124000    1.0735138   -6.3599941    493.36858  0.036578335  0.036943632            4 
 1125000    1.0735236   -6.3281597    491.80067  0.036429679  0.036936057            4 
 1126000    1.0783362   -6.4145727    492.56202  0.036453672  0.036928222            8 
 1127000    1.0640123   -6.3708774    493.04371  0.036456944  0.036920501            3 
 1128000    1.0709121   -6.3843998    492.60488  0.036392205  0.036912718            4 
 1129000    1.0922648   -6.4054658    492.65254  0.036363489  0.036905126            4 
 1130000    1.0802091   -6.3872096    494.27433  0.036450909  0.036897251            7 
 1131000    1.0543735   -6.3804401    493.84535  0.036387072  0.036889823            3 
 1132000     1.081409    -6.406348    494.00251  0.036366498  0.036882206            4 
 1133000      1.06409   -6.3841803    495.21255    0.0364234  0.036874778            3 
 1134000    1.0783349   -6.3848243     494.7394  0.036356511  0.036867096            2 
 1135000    1.0921288   -6.3635916    495.82974  0.036404533  0.036859698            4 
 1136000    1.0647312   -6.3683074    497.37204  0.036485625  0.036852166            4 
 1137000    1.0703336   -6.3591345    496.24462  0.036370905  0.036844686            9 
 1138000     1.072115   -6.3558877    497.33671  0.036418916  0.036837147            2 
 1139000    1.0629207   -6.3652502    497.43874  0.036394406   0.03682976            4 
 1140000    1.0924077   -6.4139727    497.75223  0.036385397  0.036822159            3 
 1141000    1.0879419   -6.3648363    497.54802  0.036338594   0.03681477            3 
 1142000    1.0541668   -6.3928526     498.7624  0.036395388  0.036807495            5 
 1143000    1.0593078    -6.410369    499.07947  0.036386663  0.036800052            4 
 1144000    1.0657773   -6.3470831     501.3729  0.036521919  0.036792691            4 
 1145000    1.0391307   -6.3800167    499.96634  0.036387652  0.036785319            5 
 1146000    1.0714642   -6.4234657    499.21323  0.036301137  0.036777995            4 
 1147000     1.057452   -6.3639877     500.7467    0.0363809  0.036770792            4 
 1148000    1.0715454   -6.3852979    501.13189   0.03637717  0.036763527            3 
 1149000    1.0948839   -6.4031643    501.40929  0.036365629  0.036756317            3 
 1150000    1.0452817   -6.3880362    502.12887   0.03638615  0.036749101            5 
 1151000    1.0962694   -6.4142961    502.49516  0.036381057  0.036742162            7 
 1152000    1.0417361   -6.3618363     501.9636  0.036311025  0.036734954            5 
 1153000    1.0461224    -6.361615    503.02986  0.036356596  0.036727993            5 
 1154000    1.0450598   -6.3585411    504.09043  0.036401677  0.036720887            2 
 1155000    1.0736737   -6.3789515      503.383   0.03631912  0.036713734            3 
 1156000    1.0539477    -6.341018    505.48251   0.03643905  0.036706609            2 
 1157000    1.0700289   -6.3638027    504.98291  0.036371572  0.036699685            5 
 1158000    1.0500965   -6.4059595    504.77342  0.036325088  0.036692453            9 
 1159000    1.0773125   -6.4010325    506.11192  0.036389986   0.03668522            8 
 1160000    1.0763612   -6.3415895    506.97513  0.036420627  0.036678256            4 
 1161000    1.0586345   -6.3686626    505.61825  0.036291864  0.036671473            2 
 1162000    1.0783429   -6.3674672    507.38242   0.03638715  0.036664627            3 
 1163000    1.0747842   -6.3765241    507.40635  0.036357577  0.036657739            2 
 1164000    1.0590339   -6.4053057     507.5012  0.036333133  0.036650668            5 
 1165000    1.0734634   -6.3902768    506.89953  0.036258908  0.036643645            6 
 1166000     1.044841   -6.3884742    507.91214  0.036300182  0.036636595            6 
 1167000    1.0594409   -6.3968582    508.23476  0.036292113  0.036629432            4 
 1168000    1.0758797   -6.3972401    507.94003  0.036240014  0.036622218            3 
 1169000    1.0510628   -6.3572792    507.82486  0.036200803  0.036614783            4 
 1170000    1.0676672   -6.3984146     509.3481  0.036278355  0.036607497            4 
 1171000    1.0368989   -6.3853363     509.0935  0.036229256  0.036600315            4 
 1172000    1.0604987   -6.3860215    507.26646  0.036068434  0.036593034            4 
 1173000     1.082832   -6.3717877    509.21191  0.036175896  0.036585759            9 
 1174000    1.0640083   -6.3382341     510.9844  0.036270897  0.036578542            4 
 1175000    1.0385644   -6.3809834    509.58852   0.03614103  0.036571288            3 
 1176000    1.0753695   -6.3605279    511.24881  0.036227949  0.036564253            3 
 1177000    1.0781493   -6.3910699    510.46581  0.036141731  0.036556934            4 
 1178000    1.0553617   -6.3759036    511.67692  0.036196726  0.036549947            5 
 1179000    1.0681614   -6.3674907    511.96977  0.036186724  0.036542841            2 
 1180000    1.0474921   -6.3799871    511.95147  0.036154765  0.036535874            3 
 1181000    1.0326889   -6.4364093    512.25406  0.036145503  0.036528534            7 
 1182000    1.0292113    -6.400334    513.40757  0.036196247  0.036521226            3 
 1183000    1.0611549   -6.3656814    513.09983  0.036143972  0.036513742            4 
 1184000    1.0753623   -6.4174837     513.3011  0.036127611  0.036506217            5 
 1185000    1.0505805   -6.3853566    513.27688   0.03609542  0.036498679            4 
 1186000    1.0675779   -6.3902587    511.71162  0.035955004   0.03649104            4 
 1187000    1.0755706   -6.3922889    514.92134  0.036150052  0.036483357            6 
 1188000    1.0573262   -6.4049483    512.57902  0.035955318   0.03647555            4 
 1189000    1.0556515   -6.4373374    513.63095  0.035998805   0.03646788            3 
 1190000    1.0672542   -6.4103709    514.11217  0.036002253  0.036460271            6 
 1191000    1.0757388    -6.390721    513.72025  0.035944602  0.036452588            4 
 1192000    1.0880278   -6.3591622    516.91753   0.03613797  0.036445279            6 
 1193000    1.0444831    -6.380103     516.4772  0.036076921  0.036438164            8 
 1194000    1.0724141    -6.376892    517.73646  0.036134594  0.036431106            6 
 1195000    1.0691901   -6.3704964    517.37053  0.036078837  0.036424165            3 
 1196000    1.0658398   -6.4126199    516.47789  0.035986475  0.036417225            6 
 1197000     1.076344   -6.3957646    519.44845  0.036163217  0.036410417            4 
 1198000     1.040604   -6.4222865    519.66267  0.036147932  0.036403494            3 
 1199000    1.0602953   -6.4200864    517.22963  0.035948681  0.036396457            3 
 1200000    1.0288859   -6.3870607    519.06625  0.036046267  0.036389412            5 
 1201000    1.0538664   -6.4074415    519.42028  0.036040819  0.036382117            6 
 1202000    1.0640153   -6.3924117    519.90502  0.036044441  0.036375099            8 
 1203000    1.0414941   -6.3566287      522.449  0.036190704  0.036368128            3 
 1204000    1.0696221    -6.393469    520.40535  0.036019197  0.036361122            7 
 1205000    1.0414351   -6.3569581     521.0131  0.036031334  0.036354178            3 
 1206000    1.0517073   -6.4209422      521.253  0.036018035  0.036347152            5 
 1207000    1.0429404   -6.3935917     521.1172  0.035978818  0.036339996            5 
 1208000    1.0620266   -6.3655522    521.78657   0.03599521  0.036332916            3 
 1209000    1.0520689   -6.4037533     522.8408  0.036038103  0.036325851            7 
 1210000    1.0503703   -6.3826411    521.96348  0.035947898  0.036318558            6 
 1211000    1.0505979   -6.4154314    521.01057  0.035852641  0.036311343            3 
 1212000     1.051546   -6.3971399    522.44314  0.035921558  0.036303849            6 
 1213000    1.0697209   -6.3868946    522.81112  0.035917224  0.036296661            4 
 1214000    1.0479104   -6.4098191    523.60088  0.035941851  0.036289427            4 
 1215000    1.0570317    -6.361877    523.86964  0.035930703  0.036282174            2 
 1216000     1.053562   -6.4056649    522.47783  0.035805773   0.03627483            3 
 1217000    1.0746624   -6.4147886    523.51985  0.035847703  0.036267354            6 
 1218000    1.0681454   -6.3855705    525.23037  0.035935302  0.036260114            4 
 1219000    1.0813321   -6.4370593    523.95111  0.035818369  0.036252986            5 
 1220000     1.063962   -6.3909349     526.3026  0.035949631  0.036245642            5 
 1221000    1.0404548   -6.4182563    526.05258  0.035903125  0.036238366            5 
 1222000    1.0441785    -6.396402    525.88787  0.035862511   0.03623115            6 
 1223000    1.0417392   -6.3830424    526.13406  0.035849963  0.036223866            3 
 1224000    1.0548259   -6.3731337    527.61143  0.035921258    0.0362167            4 
 1225000    1.0509496   -6.3865628    527.39514   0.03587722  0.036209704            7 
 1226000    1.0513422   -6.4032765    528.07908  0.035894445  0.036202541            3 
 1227000    1.0405286   -6.3739492    529.06178  0.035931933   0.03619526            3 
 1228000    1.0330963   -6.4240152    527.66759  0.035808061  0.036188025            3 
 1229000    1.0511461   -6.3713623    529.51344  0.035904085  0.036180811            7 
 1230000    1.0498503   -6.4144331    529.74955  0.035890891  0.036173676            4 
 1231000    1.0737155   -6.3654892    529.80393  0.035865416  0.036166611            2 
 1232000    1.0454178   -6.4152192    529.01802  0.035783145  0.036159406            5 
 1233000    1.0597823   -6.4134688    528.50433  0.035719406  0.036152078           19 
 1234000     1.054228   -6.4000722    530.89428  0.035851856  0.036144988           11 
 1235000    1.0323296   -6.4268355    532.18924  0.035910205  0.036137809            1 
 1236000    1.0712941   -6.4078112     532.9853  0.035934823  0.036130973            5 
 1237000    1.0390126   -6.3792321    533.59197  0.035946643   0.03612411            4 
 1238000    1.0265477    -6.355868     533.7923  0.035931091  0.036117244            8 
 1239000    1.0594542   -6.4180193    533.20068    0.0358623  0.036110196            4 
 1240000    1.0513087   -6.4013968    532.46841  0.035784167  0.036103027            3 
 1241000     1.058752    -6.374039    533.78449  0.035843708  0.036095958            4 
 1242000    1.0264426   -6.4168065    531.49302  0.035661099  0.036088864            5 
 1243000    1.0270526   -6.3973636    533.81599  0.035788146  0.036081733            3 
 1244000    1.0563161   -6.4259461    534.98057  0.035837391  0.036074615            3 
 1245000    1.0484234   -6.4316007     535.5775  0.035848561  0.036067364            4 
 1246000    1.0713201   -6.4402066    533.93614  0.035710015  0.036060081            2 
 1247000    1.0712417   -6.4010623    533.80564  0.035672657  0.036052697            4 
 1248000    1.0679762   -6.4224564    533.58328  0.035629225  0.036045415            8 
 1249000    1.0603899   -6.4101806    535.34028  0.035717926  0.036038258            2 
 1250000    1.0464889   -6.4154232    535.47052  0.035698035  0.036031068            9 
 1251000    1.0604049   -6.4026296    538.32747   0.03585981    0.0360239            4 
 1252000    1.0629656   -6.3850328     537.1418  0.035752249  0.036016812            3 
 1253000    1.0604088   -6.3723917    536.85135    0.0357044  0.036009798            4 
 1254000    1.0390905   -6.4071239    537.97349  0.035750498  0.036002865            4 
 1255000     1.050787   -6.4172143    537.92282  0.035718647  0.035996016            7 
 1256000    1.0561328   -6.4284971    537.53977  0.035664794  0.035988974            7 
 1257000    1.0576641   -6.3976097    539.39156  0.035759186  0.035982001            5 
 1258000     1.047857   -6.3720364    539.29004  0.035724035  0.035975169            7 
 1259000    1.0577584   -6.3745738    539.56166  0.035713639  0.035968156            2 
 1260000    1.0195175   -6.4027134    539.33608  0.035670376    0.0359611            6 
 1261000    1.0644596   -6.4091519    538.90318   0.03561348  0.035953898            9 
 1262000    1.0385491   -6.4294425    539.91822  0.035652286  0.035946662            4 
 1263000    1.0435766   -6.4460752    540.23486   0.03564495  0.035939365            4 
 1264000    1.0592476   -6.4017853    540.17817  0.035613012  0.035932221            6 
 1265000    1.0714658   -6.4023292    540.58794  0.035611854  0.035924986            7 
 1266000    1.0525788   -6.4176212    540.45629  0.035575058   0.03591798            2 
 1267000    1.0387818   -6.4294651    540.87723  0.035574667  0.035910778            2 
 1268000     1.067235   -6.4235362    540.69513  0.035534643  0.035903658            2 
 1269000    1.0753006   -6.4066269    543.61964  0.035698689  0.035896607            4 
 1270000    1.0485263   -6.4167981    542.08734  0.035570036  0.035889442            5 
 1271000    1.0449867   -6.3944982      543.664  0.035645423   0.03588238            3 
 1272000    1.0471113   -6.4246421    542.93708  0.035569777  0.035875169            3 
 1273000    1.0307113    -6.422028    544.14787  0.035621096  0.035868201            5 
 1274000    1.0522617   -6.4607537    542.90121  0.035511592  0.035861072            6 
 1275000    1.0438983   -6.4395977    544.04029  0.035558189  0.035854072            5 
 1276000     1.050916   -6.4240048    544.13333  0.035536398  0.035846976            5 
 1277000    1.0526177   -6.3924419    546.91948  0.035690386  0.035840269            4 
 1278000    1.0322532   -6.4018156    546.36227  0.035626126   0.03583345            4 
 1279000    1.0606304   -6.4212179    545.42833  0.035537421  0.035826654            2 
 1280000    1.0515332   -6.4257443    544.33132  0.035438237  0.035819635            5 
 1281000    1.0613699   -6.4133892    546.47995  0.035550348  0.035812524            3 
 1282000    1.0345022   -6.4460894     545.5195  0.035460186  0.035805484            6 
 1283000    1.0650908     -6.42016    546.80147  0.035515814  0.035798557            3 
 1284000    1.0419854   -6.4257899    547.97359  0.035564226  0.035791638            5 
 1285000    1.0387295    -6.417467    548.35857  0.035561515  0.035784737            4 
 1286000    1.0336933   -6.4302129    547.39848  0.035471648  0.035777634            5 
 1287000    1.0341091   -6.4244363     547.9209  0.035477914  0.035770427            3 
 1288000    1.0509211   -6.4255496    548.45703  0.035485056   0.03576338            4 
 1289000    1.0263451   -6.4081281    549.53047  0.035526924   0.03575626            4 
 1290000    1.0486767   -6.4289645    548.69622  0.035445492  0.035749236            3 
 1291000    1.0332182   -6.4070088    549.84273  0.035492043  0.035742388            4 
 1292000    1.0280808   -6.4505133    550.30095  0.035494127  0.035735578            5 
 1293000    1.0392014    -6.416442    550.03028  0.035449232  0.035728699            6 
 1294000    1.0448948   -6.4260235    549.05027  0.035358724  0.035721771            6 
 1295000      1.05329   -6.4315592    551.28826  0.035475435  0.035714826           11 
 1296000    1.0323757   -6.4167513    552.06121  0.035497763   0.03570787            5 
 1297000    1.0458138   -6.4255492    552.16435  0.035477021  0.035701174           14 
 1298000    1.0380852   -6.4249365    551.52443  0.035408605  0.035694401            3 
 1299000    1.0399466   -6.4300853    555.47184  0.035634581  0.035687599            4 
 1300000    1.0558639   -6.4155714    553.70724  0.035494054  0.035680769            3 
 1301000    1.0339921   -6.4255311    552.62422    0.0353974  0.035673873            5 
 1302000    1.0317692   -6.4399279    552.22563  0.035344703  0.035667008            5 
 1303000    1.0410672   -6.4587114    552.72218  0.035349334  0.035659938            7 
 1304000    1.0373826   -6.4491303    552.74282  0.035323544  0.035652822            8 
 1305000    1.0272101    -6.408969     553.9964  0.035376526   0.03564579            8 
 1306000    1.0646609   -6.4182981    554.95263  0.035410454  0.035638881            3 
 1307000    1.0445421   -6.4203752    554.00175  0.035322733  0.035631785            4 
 1308000    1.0178598   -6.4140699    555.16855  0.035370066  0.035624697            4 
 1309000    1.0264271   -6.4084287    554.63367  0.035308993  0.035617641            4 
 1310000    1.0292866   -6.4198298    556.09701  0.035375128  0.035610527            5 
 1311000    1.0242158   -6.4247311    557.37158  0.035429162  0.035603505            9 
 1312000    1.0361571    -6.403692    554.66062  0.035229968   0.03559645            3 
 1313000    1.0546208   -6.4270131    556.19637  0.035300608  0.035589423            2 
 1314000    1.0413173   -6.4613493    555.79367  0.035248203  0.035582328            6 
 1315000    1.0253198   -6.4444136    556.00994  0.035235104  0.035575291            4 
 1316000    1.0236397   -6.3999397    557.79887   0.03532161  0.035568441            4 
 1317000    1.0634376   -6.4347137    558.15325  0.035317214  0.035561727            2 
 1318000    1.0424504   -6.4099306    558.93639  0.035339934  0.035554953            3 
 1319000    1.0480233   -6.4301352    559.31526  0.035337078  0.035548262            3 
 1320000    1.0363663   -6.4374327     559.9412  0.035349823  0.035541375            4 
 1321000    1.0274353   -6.4240191    560.49555  0.035358034  0.035534639            3 
 1322000    1.0554626    -6.422361    560.61162  0.035338605  0.035527838            5 
 1323000    1.0108482   -6.4037796    561.93551  0.035395283   0.03552116            4 
 1324000    1.0338767   -6.4030003    560.51812  0.035279338  0.035514516            4 
 1325000    1.0396807   -6.4442555    560.88665   0.03527589  0.035507744            5 
 1326000     1.043721   -6.4391644    561.67042  0.035298544   0.03550105            4 
 1327000     1.047075   -6.4109736     561.0548  0.035233283  0.035494152            3 
 1328000    1.0236216   -6.3918836    560.28321  0.035158334  0.035487389            7 
 1329000    1.0658389   -6.4245602     561.6043  0.035214716  0.035480447            6 
 1330000    1.0440254   -6.4196863      561.076  0.035155138  0.035473502            4 
 1331000    1.0639196   -6.4157559    562.98506  0.035248251  0.035466754            3 
 1332000    1.0463176   -6.4103468    562.37222  0.035183447  0.035459827            3 
 1333000    1.0260625   -6.4156345    564.14801  0.035268068  0.035452892            3 
 1334000    1.0004701   -6.4149882     563.5172  0.035202224  0.035446188            5 
 1335000    1.0501331   -6.4230223    563.25221  0.035159314  0.035439323            5 
 1336000    1.0290592   -6.4108189    562.79835  0.035104688  0.035432634            3 
 1337000    1.0332129   -6.4431298    565.17779  0.035226738  0.035425848            4 
 1338000    1.0338864   -6.4152038    562.88376  0.035057534  0.035418956            2 
 1339000    1.0592014    -6.474291    564.05535  0.035104266  0.035411979            4 
 1340000    1.0593105   -6.4135658    565.40953  0.035162284  0.035405143            2 
 1341000    1.0164362    -6.441447    564.66381  0.035089722  0.035398283            6 
 1342000    1.0319519   -6.4728739    565.62195  0.035123072  0.035391239            6 
 1343000    1.0319443   -6.4902308    566.41941  0.035146402  0.035384216            3 
 1344000    1.0546994   -6.4148635    566.00795  0.035094739  0.035377008            3 
 1345000    1.0465316   -6.4913143    565.96132  0.035065757  0.035369938            7 
 1346000    1.0501606   -6.4322541     566.7213  0.035086757   0.03536286            2 
 1347000    1.0473915   -6.4525511    567.31712   0.03509757   0.03535576            2 
 1348000     1.051165   -6.4381379    567.19104  0.035063739  0.035348808            3 
 1349000    1.0368235   -6.4422166    565.73214  0.034947624  0.035341805            6 
 1350000    1.0369119   -6.4693507    567.99443  0.035061385  0.035334611            5 
 1351000    1.0443647    -6.437079    570.92569   0.03521624  0.035327632            3 
 1352000    1.0417291   -6.4486651    569.30286  0.035090167  0.035320789            8 
 1353000    1.0241341   -6.4344921    569.79019  0.035094247  0.035314038            5 
 1354000    1.0141307    -6.448612    570.73617  0.035126549  0.035307012            3 
 1355000    1.0286803   -6.4429622      569.065  0.034997848  0.035300014            9 
 1356000    1.0568629   -6.4080006    570.59552  0.035066097  0.035293169            8 
 1357000    1.0407639   -6.4726202    570.52329   0.03503582  0.035286304            7 
 1358000    1.0535139   -6.4682215    571.03822  0.035041619  0.035279419            8 
 1359000    1.0481886   -6.4320787    570.38236  0.034975617  0.035272399            3 
 1360000    1.0586352    -6.442859    571.28388   0.03500514  0.035265456            4 
 1361000    1.0126546   -6.4111209    572.43149  0.035049687   0.03525849            6 
 1362000    1.0236462   -6.4396423    571.80028  0.034985333  0.035251558            5 
 1363000     1.033186   -6.4605499     571.1071  0.034917284  0.035244715            4 
 1364000    1.0141322   -6.4257099    571.39278  0.034909139  0.035237906            4 
 1365000    1.0684539   -6.4288278    571.88577  0.034913661  0.035230963            5 
 1366000    1.0326934   -6.4362409    573.65423  0.034995988  0.035224032            4 
 1367000    1.0270007   -6.4439576    574.84714  0.035043108  0.035217284            5 
 1368000    1.0352913   -6.4317427    576.14992  0.035096852  0.035210685            4 
 1369000    1.0282775   -6.4146233    577.11629   0.03513004  0.035204015            5 
 1370000    1.0500732   -6.4861356    574.60976  0.034951932  0.035197264            4 
 1371000    1.0317661   -6.4071231    576.51518  0.035042255  0.035190424            3 
 1372000    1.0281186   -6.4287268    575.03408  0.034926754  0.035183692            9 
 1373000    1.0417723    -6.437443    574.97799  0.034897912  0.035176787            3 
 1374000    1.0148857   -6.4227854    575.43192  0.034900044  0.035170043            3 
 1375000    1.0177453    -6.454264    577.13151  0.034977667  0.035163239            6 
 1376000    1.0306363    -6.414437    577.37258  0.034966847  0.035156452            2 
 1377000     1.041721    -6.494211     579.1654  0.035049952  0.035149951           10 
 1378000    1.0100046   -6.4391671    578.06775  0.034958137  0.035143503            7 
 1379000     1.036056   -6.4597203    578.38479  0.034951946   0.03513687            6 
 1380000      1.03333   -6.4447497     578.7938  0.034951316  0.035130155            4 
 1381000    1.0193966   -6.4346199    580.39527  0.035022645  0.035123748            3 
 1382000    1.0370973   -6.4638318    580.12153  0.034980796  0.035117299            4 
 1383000    1.0404643   -6.4181545    579.96783  0.034946242  0.035110884            4 
 1384000    1.0390751   -6.4668387    579.66398  0.034902696  0.035104363            2 
 1385000    1.0353469   -6.4169818    582.32355  0.035037518  0.035097861            3 
 1386000    1.0314597   -6.4490231    582.81352  0.035041698  0.035091454            5 
 1387000    1.0471427   -6.4401002    580.63694  0.034885661  0.035084865            4 
 1388000       1.0128   -6.4662076    579.69965  0.034804254  0.035078254            7 
 1389000    1.0185021   -6.4239132    582.96378  0.034975029  0.035071631            4 
 1390000     1.024373    -6.432682     582.2458  0.034906822  0.035065149           10 
 1391000    1.0259208   -6.4137323    582.62925    0.0349047  0.035058433            6 
 1392000    1.0206596   -6.4361061     583.1451  0.034910507  0.035051915            5 
 1393000    1.0347031   -6.4753472    584.47397  0.034964942  0.035045322            3 
 1394000     1.004371   -6.4802202    582.70609  0.034834176  0.035038649            5 
 1395000    1.0236833   -6.4601162    582.66503  0.034806752  0.035031956            4 
 1396000   0.99859567   -6.4673624    586.52309  0.035012123  0.035025275            7 
 1397000    1.0271844    -6.458413    585.66304  0.034935757  0.035018743            5 
 1398000     1.009746   -6.4719163    583.06597  0.034755959  0.035012098            3 
 1399000    1.0247312   -6.4685692    584.26241  0.034802383  0.035005492            6 
 1400000     1.026102    -6.435455    586.10713  0.034887329  0.034998675            4 
 1401000     1.028048    -6.472331    584.65072  0.034775798  0.034991978            5 
 1402000    1.0354481   -6.4487067    586.25023  0.034846067  0.034985347            3 
 1403000     1.022528   -6.4744858    586.34023  0.034826576  0.034978752            3 
 1404000    1.0321198   -6.4612451    585.43241  0.034747887  0.034972012            4 
 1405000    1.0114095   -6.4447188    586.34822  0.034777474  0.034965239            4 
 1406000    1.0439544   -6.4816305    584.94996  0.034669865  0.034958652            5 
 1407000    1.0098641   -6.4567903    586.73589     0.034751  0.034952106            4 
 1408000    1.0222028   -6.4440977    588.40077  0.034824856  0.034945558            3 
 1409000    1.0382048   -6.4525834    587.71872  0.034759801  0.034939216            3 
 1410000    1.0358772   -6.4819972    589.35652  0.034831945  0.034932695            4 
 1411000    1.0219886   -6.4659614    589.46025  0.034813386  0.034926307            2 
 1412000    1.0269786   -6.4527975    590.64791  0.034858824   0.03491997            5 
 1413000    1.0162371   -6.4801648    589.24166  0.034751218  0.034913415           11 
 1414000    1.0260349   -6.4339166    589.25322  0.034727323   0.03490689            8 
 1415000    1.0347222   -6.4185136    589.68367  0.034728131  0.034900436            7 
 1416000    1.0129736   -6.4704148    589.83732  0.034712648  0.034893811           10 
 1417000    1.0310181    -6.475485    590.71702  0.034739886  0.034887235            6 
 1418000    1.0183903   -6.4251074    592.37823  0.034813013  0.034880828            4 
 1419000    1.0479337   -6.5007444    588.79096  0.034577811  0.034874233           11 
 1420000    1.0268867   -6.4237539    592.13495  0.034749704  0.034867646            3 
 1421000    1.0267049   -6.4755032    592.06367  0.034721069  0.034861301            9 
 1422000    1.0089264   -6.4867156    593.55586  0.034784099  0.034854823            5 
 1423000     1.022561   -6.4585684    591.74299   0.03465349  0.034848378           10 
 1424000    1.0121007   -6.4726611    594.31694  0.034779783  0.034842081            4 
 1425000     1.027269   -6.4835897    594.66037   0.03477546  0.034835693            6 
 1426000    1.0004008   -6.4782967    592.17839   0.03460603  0.034829224            5 
 1427000    1.0189218   -6.4690124    594.48893  0.034716709  0.034822752            3 
 1428000     1.032687   -6.4664686    594.31508  0.034682252  0.034816244            3 
 1429000     1.033534   -6.4603046    594.33454  0.034659117  0.034809864            7 
 1430000    1.0303565   -6.4501794    595.55528  0.034706019  0.034803468            7 
 1431000    1.0044997   -6.4736268    596.57999  0.034741439  0.034797169            6 
 1432000    1.0591707   -6.4408245    596.63292  0.034720258  0.034790981            5 
 1433000    1.0251761    -6.448138    596.91846  0.034712634  0.034784856            6 
 1434000    1.0453616   -6.4370892    597.54485  0.034724829  0.034778701            2 
 1435000    1.0425944   -6.4657573    597.21412  0.034681424  0.034772359            6 
 1436000    1.0165488   -6.4809133    597.15687   0.03465395  0.034766246            5 
 1437000    1.0058475    -6.474081    598.59905  0.034713468  0.034759962            4 
 1438000    1.0183396   -6.4351675    599.52952   0.03474325  0.034753914            5 
 1439000      1.03517   -6.4349078    600.52902  0.034776988  0.034747912            4 
 1440000    1.0254845   -6.5040937    598.13328  0.034614194  0.034741929            5 
 1441000    1.0492125   -6.4636237    601.00211  0.034756079  0.034735905            2 
 1442000    1.0186283   -6.4415435    599.57489  0.034649497  0.034729915            5 
 1443000    1.0170586   -6.4551553      599.982  0.034648995     0.034724            8 
 1444000    1.0343916   -6.4747553    601.60921  0.034718906  0.034718073            3 
 1445000    1.0095454    -6.445866    602.93192   0.03477116  0.034712086            3 
 1446000    1.0416911   -6.4389672    600.41811  0.034602242  0.034706142            4 
 1447000    1.0077171   -6.4918087    602.60244  0.034704126  0.034700046            3 
 1448000    1.0249191    -6.486018    603.15799  0.034712131  0.034694047            2 
 1449000   0.99098286   -6.5124584    601.95167  0.034618799  0.034687967            7 
 1450000    1.0189548   -6.4782476    603.35869  0.034675787  0.034682106            5 
 1451000   0.98663697    -6.449133    605.38861   0.03476847  0.034676238            6 
 1452000    1.0271074   -6.4857148      604.119   0.03467166   0.03467048            7 
 1453000    1.0131128   -6.4493637    605.04594   0.03470096  0.034664667            5 
 1454000    1.0214222   -6.4775462    603.33982  0.034579311  0.034658744            4 
 1455000    1.0144645   -6.4806699    606.88966  0.034758858  0.034652847            7 
 1456000    1.0371414   -6.4701813     605.9623  0.034681908   0.03464697            5 
 1457000    1.0100573   -6.4980189    606.31747  0.034678418  0.034640916            4 
 1458000    1.0255009   -6.4738028    604.06928  0.034526136  0.034634952            2 
 1459000    1.0390623   -6.4921771    606.07775   0.03461719  0.034629039            2 
 1460000    1.0191285   -6.4849242    607.99627  0.034702983  0.034623089            6 
 1461000    1.0278752   -6.4749568    607.50557  0.034651242  0.034617213            4 
 1462000    1.0258222   -6.4524369    606.38864  0.034563876  0.034611359            5 
 1463000    1.0357756   -6.4689861    607.98803  0.034631353   0.03460543            4 
 1464000    1.0280367   -6.4833638    607.57518  0.034584197  0.034599385            6 
 1465000    1.0429875   -6.4670352    608.04267  0.034587182  0.034593439            5 
 1466000    1.0285392   -6.4732389    607.91489  0.034556326   0.03458746            6 
 1467000    1.0087621   -6.4657134    609.24761  0.034608476  0.034581472            5 
 1468000     1.013735   -6.4834068    607.93439  0.034510354  0.034575532            7 
 1469000    1.0111897   -6.4715829    609.73948   0.03458926  0.034569734           16 
 1470000    1.0143132   -6.4445489    608.31715  0.034485099  0.034563778            6 
 1471000    1.0232994   -6.4689238    607.94192  0.034440399  0.034557848            2 
 1472000    1.0281964   -6.5039297    609.86266  0.034525739  0.034551866            4 
 1473000   0.99570744   -6.4844814    612.07924  0.034627701  0.034546114            2 
 1474000   0.98824039   -6.4241987    612.57243  0.034632091  0.034540398            5 
 1475000    1.0368062   -6.4371465    611.54917  0.034550801  0.034534575            3 
 1476000    1.0057882   -6.4730134     612.5833  0.034585778  0.034528842            2 
 1477000    1.0339212   -6.4644767    613.66152  0.034623196  0.034522961            4 
 1478000   0.99185713   -6.4562945    612.18531  0.034516538  0.034517155            4 
 1479000       1.0262   -6.4622782    613.61284  0.034573633  0.034511289            4 
 1480000    1.0180457   -6.5062684    611.63428  0.034438867  0.034505275            8 
 1481000     1.024388   -6.4659242    613.29797  0.034509226  0.034499466            5 
 1482000   0.99145297   -6.4697403    613.29525  0.034485788  0.034493515            7 
 1483000    1.0189772   -6.4875648    615.27118  0.034573566  0.034487557            6 
 1484000    1.0084713   -6.5039206    614.58343  0.034511648  0.034481804            4 
 1485000    1.0022035   -6.4850293    614.58763  0.034488644  0.034475827            3 
 1486000   0.99041865   -6.5034562    613.36363  0.034396794  0.034469782           12 
 1487000    1.0176552   -6.4653368    615.16026  0.034474347  0.034463573            4 
 1488000    1.0072097   -6.4530911    616.19225  0.034508975  0.034457616            5 
 1489000    0.9909849   -6.4945652    614.51272  0.034391802  0.034451786            1 
 1490000    1.0264583   -6.4533368    615.50233  0.034424067  0.034445844            6 
 1491000   0.99748861   -6.4698409    615.88542  0.034422391  0.034439936            2 
 1492000    1.0162604   -6.4732081    617.09578  0.034466923  0.034434044            7 
 1493000    1.0421393   -6.4657847    617.94195  0.034491066  0.034428139            4 
 1494000   0.99829595    -6.480104    616.78775    0.0344036  0.034422336            4 
 1495000    1.0081498   -6.4980569    615.21365  0.034292845   0.03441635            6 
 1496000    1.0243184    -6.487047    617.51701  0.034398229  0.034410344            6 
 1497000    1.0227699   -6.4965844    617.06297  0.034349976  0.034404226            3 
 1498000    1.0217969   -6.4935132    616.04578   0.03427046  0.034398142            6 
 1499000    1.0294129   -6.4939421    616.56496   0.03427646   0.03439186            4 
 1500000    1.0021587    -6.489818    617.73656  0.034318698  0.034385788            6 
 1501000    1.0090116   -6.4899249    618.19053  0.034321037   0.03437973            6 
 1502000     1.024652   -6.4827356    616.96863  0.034230395  0.034373542            4 
 1503000    1.0002211   -6.5197434    616.96409  0.034207368  0.034367169            4 
 1504000    1.0225565    -6.476601    619.60694  0.034331058  0.034360813            3 
 1505000     1.015303   -6.5008326    619.21661  0.034286634  0.034354576            4 
 1506000    1.0049978   -6.4930557    618.50738  0.034224623  0.034348287            4 
 1507000    1.0019927   -6.4793574    620.44516  0.034309067  0.034342018            7 
 1508000   0.99361766   -6.4862268    621.71311  0.034356383  0.034335907            3 
 1509000    1.0050791   -6.4806431    619.46561  0.034209499  0.034329722           16 
 1510000    1.0246622   -6.4820303    619.20695  0.034172569  0.034323527           11 
 1511000    1.0233705   -6.4811827    620.71055  0.034232878  0.034317357            4 
 1512000    1.0243826   -6.4987683    620.43261  0.034194919  0.034311153            3 
 1513000    1.0099396   -6.4797967    621.93362  0.034254991  0.034304901            3 
 1514000    1.0062795   -6.5239392    622.19801  0.034246918  0.034298673            6 
 1515000    1.0277781   -6.4988461      622.492  0.034240484  0.034292413            4 
 1516000    1.0125018   -6.4672726     623.6455  0.034281305  0.034286283            4 
 1517000   0.99214539   -6.4695579     623.0351  0.034225176  0.034280137            4 
 1518000     1.027257   -6.4930536     623.0265  0.034202158   0.03427398            7 
 1519000   0.98417104   -6.4867855    623.14314   0.03418604  0.034267822            3 
 1520000     1.014265   -6.4788709    622.58872  0.034133154  0.034261495            4 
 1521000    1.0086165   -6.4797939    623.53559   0.03416259  0.034255219           11 
 1522000    1.0085438   -6.5099646    623.77324  0.034153156  0.034248858            6 
 1523000    1.0071184    -6.472247    623.56827  0.034119516  0.034242665            9 
 1524000    1.0144534   -6.5159874    623.04112  0.034068303  0.034236305            7 
 1525000    1.0075733   -6.4848363    625.45702  0.034177979  0.034230161            7 
 1526000    1.0369929   -6.4882299    625.91683  0.034180692   0.03422391            3 
 1527000   0.98958351   -6.5085752    625.48919   0.03413497  0.034217718            5 
 1528000    1.0169503   -6.4998706     624.6216  0.034065314  0.034211564            3 
 1529000    1.0159633   -6.5046861    625.80474  0.034107518  0.034205411            5 
 1530000   0.99761686   -6.4925183    627.52899  0.034179139   0.03419913            6 
 1531000    1.0138652    -6.519609    626.42999  0.034096995  0.034192706            6 
 1532000    1.0132852   -6.4994422    626.85489  0.034097851  0.034186285           11 
 1533000   0.99714751   -6.5106156    627.24082  0.034096587  0.034179845            4 
 1534000    1.0152178   -6.4796686    627.36945  0.034081348  0.034173621            8 
 1535000    1.0274441   -6.4468729    626.72078  0.034023929  0.034167296            7 
 1536000    1.0331686   -6.4702825     627.9738  0.034069759  0.034160933            4 
 1537000     1.009999    -6.472006    628.99065  0.034102724   0.03415454            5 
 1538000    1.0131469   -6.4726175    628.52204  0.034055161  0.034148054            5 
 1539000   0.99430762   -6.5084366    630.82121  0.034157527  0.034141748            2 
 1540000    1.0080871   -6.5241677    628.89785  0.034031269   0.03413533            8 
 1541000     1.002876   -6.4902651    628.78495   0.03400308  0.034129023            3 
 1542000    1.0231638   -6.4951926    629.51017  0.034020221  0.034122637            5 
 1543000   0.99741992   -6.5151484    629.41312  0.033992932  0.034116315            2 
 1544000   0.99196545   -6.5230653    629.59745  0.033980864  0.034109892            5 
 1545000    1.0048954   -6.4961607    628.77712  0.033914623  0.034103257            4 
 1546000    1.0116985   -6.4735122    631.09414   0.03401758  0.034096781            9 
 1547000    1.0055947   -6.4999298    631.51038  0.034018012  0.034090403            4 
 1548000    0.9878224   -6.4395152    631.59129  0.034000392  0.034084048            6 
 1549000    1.0047984   -6.5184799    630.39665  0.033914173  0.034077724            5 
 1550000   0.96846955   -6.4989778    630.23052  0.033883361  0.034071231            5 
 1551000    1.0018461   -6.4650747    632.91473  0.034005735  0.034064845            6 
 1552000   0.99140724   -6.4723262    632.68199  0.033971327  0.034058544            2 
 1553000   0.99168923    -6.518121     632.4144  0.033935093  0.034051989            3 
 1554000   0.99161305   -6.4703368    633.12133  0.033951165  0.034045582            4 
 1555000    1.0020424    -6.468096    633.43728  0.033946264  0.034039284            4 
 1556000    1.0028473    -6.540305    631.94565  0.033844561  0.034032712           10 
 1557000    1.0027125   -6.4815158    632.96627   0.03387745  0.034026184            8 
 1558000   0.99794595   -6.5048071     634.7488  0.033951048  0.034019675            4 
 1559000    1.0223501   -6.4853391    633.40205  0.033857283  0.034013182            3 
 1560000   0.99793516   -6.5245966    632.93436  0.033810596  0.034006645            7 
 1561000    0.9991123   -6.5116257    634.14075  0.033853339  0.033999947           10 
 1562000   0.97056027   -6.5543027    633.61455  0.033803593  0.033993291            4 
 1563000    1.0036917   -6.5127091    634.97829  0.033854675  0.033986589            6 
 1564000     1.008232   -6.5335469    634.74005  0.033820335  0.033979963            4 
 1565000    1.0272115    -6.507071    635.09424  0.033817584  0.033973365            6 
 1566000   0.97937423     -6.49718    636.36309  0.033863511  0.033966806            1 
 1567000   0.99500729   -6.5099777    636.65657  0.033857507  0.033960191            3 
 1568000     1.002586   -6.5014349    635.56314  0.033777803  0.033953541            3 
 1569000    1.0272422   -6.4889082    635.22857  0.033738505  0.033946937            3 
 1570000   0.98800185   -6.4951916    636.30575   0.03377419  0.033940117            9 
 1571000   0.99801736   -6.5038875    635.07702  0.033687514  0.033933378            2 
 1572000     1.009638   -6.5324676    634.46864  0.033633834  0.033926458            4 
 1573000    1.0001228   -6.4998856    638.77695  0.033840695   0.03391957            5 
 1574000    1.0139237   -6.4938787    636.99825  0.033725024  0.033913018            8 
 1575000   0.98164336   -6.5249543     635.2308  0.033610095  0.033906376            4 
 1576000    1.0047228   -6.5004474    638.34215  0.033753286  0.033899746            6 
 1577000    1.0242288   -6.5064096    637.12532  0.033667582  0.033893007            7 
 1578000   0.99735356   -6.5019198    637.40982  0.033661271  0.033886088            4 
 1579000    0.9965143   -6.4895207    639.59949  0.033755514  0.033879309            6 
 1580000    1.0043396   -6.4881322    638.47453  0.033674817  0.033872552            3 
 1581000    1.0163085   -6.5313539    639.36444  0.033700424  0.033865923            8 
 1582000    1.0155568   -6.4939639     641.4692  0.033789992  0.033859264            4 
 1583000   0.99282522   -6.5184615    639.54723  0.033667468  0.033852681            7 
 1584000    1.0200355   -6.5230858    638.08458  0.033569264  0.033845895            5 
 1585000   0.99622421   -6.4893679    640.56152  0.033678314  0.033839086            9 
 1586000    0.9752347   -6.5310291    639.50992  0.033601824  0.033832186            8 
 1587000   0.99763931   -6.5325462    639.21063  0.033564935  0.033825197            9 
 1588000    1.0125115   -6.5514539    638.27582  0.033494743   0.03381827            6 
 1589000   0.99057828   -6.4856973    639.02859  0.033513142  0.033811342            9 
 1590000   0.98955346   -6.5159663    639.49829  0.033516682  0.033804351            4 
 1591000   0.99386726   -6.5069374    639.68734  0.033505518  0.033797273            4 
 1592000    1.0067267   -6.5429263    640.77916  0.033541623  0.033790284            2 
 1593000    1.0038732   -6.4978392    641.03398  0.033533897  0.033783237            4 
 1594000   0.99809689   -6.4987786    640.36501  0.033477887  0.033776169            3 
 1595000   0.98167632   -6.5031952    641.80038   0.03353189  0.033769241           13 
 1596000    1.0119009   -6.5259853    642.06708  0.033524806  0.033762261            5 
 1597000    1.0160937   -6.4953076    642.54412  0.033528706  0.033755115            4 
 1598000   0.99763998   -6.5435736    641.97699  0.033478149  0.033747959            5 
 1599000   0.98033023   -6.4876507     642.6516   0.03349237  0.033740766            8 
 1600000   0.99319671    -6.505396    641.95263  0.033435033  0.033733742            5 
 1601000   0.97879421   -6.5432152    643.10472  0.033474116  0.033726708            5 
 1602000    1.0013289   -6.5158945     641.4153   0.03336534  0.033719566            3 
 1603000    1.0053872   -6.4919317    642.69691  0.033411151  0.033712437            4 
 1604000    1.0082558   -6.5441998    642.60912   0.03338576  0.033705303            5 
 1605000    1.0071791   -6.4948768    642.79356  0.033374536  0.033698242            8 
 1606000   0.99694264   -6.5059165     644.0794  0.033420475  0.033691072            7 
 1607000   0.99166683   -6.5370602    644.46535  0.033419693  0.033683883            5 
 1608000    1.0103904   -6.5245664    644.21019  0.033385685  0.033676639            4 
 1609000   0.98921585   -6.5369379    644.81212  0.033396111  0.033669445            5 
 1610000    1.0235161   -6.4789818    644.27076  0.033347348  0.033662221            3 
 1611000   0.98845111   -6.5072881    643.03971  0.033262969  0.033655103            5 
 1612000   0.97459901   -6.5082858     644.5549  0.033320663  0.033647803            3 
 1613000   0.99900592    -6.532457    643.64133  0.033252807  0.033640555            4 
 1614000   0.98274143   -6.5329772    643.91096  0.033246125  0.033633291            7 
 1615000   0.98560678   -6.5150546    646.01749  0.033334236  0.033625963           10 
 1616000     1.019235   -6.5198774    645.83827  0.033304366  0.033618681            9 
 1617000   0.98338645   -6.5563784    644.18514  0.033198574  0.033611272            6 
 1618000   0.99782658   -6.5053352    644.79689  0.033209564  0.033603793            5 
 1619000   0.98009613   -6.5178564    646.44045  0.033273649  0.033596511           10 
 1620000    1.0050156   -6.5271734    645.87147  0.033223841  0.033589242            5 
 1621000    1.0035696   -6.5011643    646.96163  0.033259389   0.03358203            4 
 1622000   0.96652946   -6.5364522     647.7396  0.033278853  0.033574786            6 
 1623000   0.98688338   -6.5424974    645.34685  0.033135492  0.033567396            4 
 1624000    1.0047026   -6.5127137    648.02762  0.033252649  0.033560007           20 
 1625000   0.99758815   -6.4836061     648.4363  0.033253144  0.033552671            3 
 1626000    0.9806582   -6.5395612    647.84054   0.03320216  0.033545299            4 
 1627000    1.0073215   -6.5405678    647.12153  0.033144926  0.033538043            4 
 1628000   0.98750218   -6.4925938    650.44576  0.033294726  0.033530653            6 
 1629000    1.0032897   -6.5286301    648.20393  0.033159603  0.033523318            9 
 1630000    1.0016315   -6.4992813    648.94984  0.033177395  0.033515977            7 
 1631000   0.97292606   -6.4985276    651.83568    0.0333045  0.033508806            7 
 1632000   0.99057473   -6.5722486    649.19448  0.033149228  0.033501528            6 
 1633000    1.0105346   -6.5058463    649.42417   0.03314065   0.03349411            6 
 1634000   0.98145572   -6.4812395    651.84183  0.033243667   0.03348686            6 
 1635000   0.97716374   -6.5448332    649.39489  0.033098618  0.033479523            7 
 1636000   0.98023933    -6.494798    652.14165  0.033218299  0.033472161            3 
 1637000   0.98242868   -6.5281318    651.65764  0.033173368  0.033464858            5 
 1638000   0.99641031   -6.5239986    651.00523  0.033119924  0.033457559            2 
 1639000   0.99535469   -6.5011632     652.1411  0.033157469  0.033450139            8 
 1640000   0.99384926   -6.5091706    649.89076  0.033022904  0.033442696            7 
 1641000   0.99600323   -6.5164866    651.52376  0.033085708  0.033435359            4 
 1642000   0.99213673   -6.5150527    648.87456  0.032931108  0.033427856            3 
 1643000    1.0171264   -6.5359648    652.02916  0.033071067  0.033420407            6 
 1644000      1.01194   -6.5452481    650.59156   0.03297808   0.03341297            6 
 1645000   0.98549803     -6.52407    653.14828  0.033087552  0.033405501            8 
 1646000   0.98995394   -6.5458555    651.72579  0.032995433  0.033398075            9 
 1647000   0.99239287   -6.5561979    651.59359   0.03296871  0.033390506            4 
 1648000    1.0156161   -6.5383681    653.24683  0.033032303  0.033382877           11 
 1649000   0.98833594   -6.5251863    653.34124  0.033017043  0.033375284            4 
 1650000    1.0081533   -6.5110309    653.28591  0.032994238  0.033367771            8 
 1651000   0.98111582   -6.5192952    651.11854  0.032864857  0.033360124            6 
 1652000     0.960731   -6.5142506    654.21944  0.033001384  0.033352589            5 
 1653000   0.99414183   -6.5449122    652.60307  0.032899933  0.033344937            8 
 1654000   0.97749329   -6.5709165    652.77883  0.032888897  0.033337173            5 
 1655000   0.99424972   -6.5355821     654.7693   0.03296925  0.033329405            6 
 1656000    1.0079947   -6.4973662    654.13082  0.032917211  0.033321669            5 
 1657000    1.0294016   -6.5163363    653.33489  0.032857317  0.033313933            4 
 1658000   0.98534918   -6.5297235    653.63054  0.032852359   0.03330603            5 
 1659000   0.97802497   -6.5447511    652.48965  0.032775249   0.03329811            3 
 1660000   0.95241799   -6.5406053    654.15493  0.032839103  0.033290119            5 
 1661000   0.96463186   -6.5417173    654.38707  0.032830979  0.033282207           14 
 1662000   0.98218388   -6.5210802     654.3237  0.032808048  0.033274309            6 
 1663000   0.98301364   -6.5841672    653.03434  0.032723709  0.033266184            2 
 1664000   0.97817287   -6.5358325    655.22827  0.032813916  0.033258264            5 
 1665000   0.99096428   -6.5646707    655.23537  0.032794563  0.033250415            5 
 1666000    0.9685584   -6.5335644    654.68156  0.032747177  0.033242388            5 
 1667000    1.0055807    -6.549695    655.07015  0.032746958  0.033234502            4 
 1668000   0.97487935   -6.5320901    653.82584   0.03266516  0.033226693            5 
 1669000   0.97914801   -6.5123918    654.91904  0.032700172  0.033218622           15 
 1670000   0.97916109   -6.5658294    655.34106   0.03270165  0.033210654            8 
 1671000     1.000684   -6.5633144    656.29201  0.032729504  0.033202482           12 
 1672000   0.99680493   -6.5207242    655.80548   0.03268568   0.03319445            5 
 1673000    1.0156175   -6.5151503    656.50181  0.032700827  0.033186514            8 
 1674000   0.99419062    -6.530471    655.19692  0.032616334  0.033178603            4 
 1675000   0.96967835   -6.5402162    656.11717  0.032642645  0.033170552            6 
 1676000   0.97928166   -6.5474814    654.76383  0.032555878  0.033162586            4 
 1677000   0.96093554   -6.5168416    656.57306   0.03262637  0.033154432            4 
 1678000   0.97348479   -6.5536552    655.53611  0.032555428  0.033146325            3 
 1679000   0.97430578   -6.5219361    655.94011   0.03255609   0.03313826            6 
 1680000   0.99135165   -6.5236605    657.22851  0.032600621  0.033130179            4 
 1681000    0.9768376   -6.5058328    657.66932  0.032603079  0.033122101            7 
 1682000    1.0025198   -6.5141966    658.26107  0.032613014  0.033114213            4 
 1683000    1.0092697   -6.5455631    658.69191  0.032614969  0.033106284            8 
 1684000   0.97698451   -6.5649676    659.84123  0.032652476   0.03309825            7 
 1685000   0.97483454   -6.5547129    658.76963  0.032580101  0.033090315            3 
 1686000   0.98991952   -6.5131267    659.10743  0.032577473  0.033082312            6 
 1687000   0.99073097   -6.5743364    658.52758  0.032529519  0.033074293            3 
 1688000   0.97827453   -6.5239989    659.52899  0.032559685  0.033066354            5 
 1689000   0.97000308   -6.4937571    658.86602  0.032507698  0.033058252            6 
 1690000   0.99438218   -6.5642749    659.03591   0.03249684  0.033050118            8 
 1691000   0.97486652   -6.5488571    659.75659  0.032513138  0.033041977            6 
 1692000   0.96172206   -6.5260967    659.21631  0.032467313  0.033033867            5 
 1693000   0.97971782   -6.5664408    660.38232  0.032505529  0.033025699            6 
 1694000   0.96908928   -6.5463613    660.80833  0.032507297  0.033017494            4 
 1695000   0.97637604   -6.5044976    662.62904  0.032577632  0.033009462            5 
 1696000   0.97398589   -6.5343365    664.53331   0.03265199  0.033001338            4 
 1697000   0.99988818   -6.5253579    659.39781  0.032380564  0.032993282            6 
 1698000     0.960212   -6.5218244    661.56386  0.032467798  0.032985118            6 
 1699000   0.96152988   -6.5213503    661.59586  0.032450258  0.032977107           16 
 1700000   0.96615703   -6.5493665    660.62299   0.03238348  0.032969078            4 
 1701000   0.97347901   -6.5248152    661.38939  0.032401989  0.032960979            9 
 1702000   0.99562373   -6.5280006    662.23115  0.032424165  0.032952985            5 
 1703000    0.9797159    -6.547697    662.85724  0.032435763  0.032944984           15 
 1704000   0.97895776   -6.5964472    661.66802  0.032358569  0.032936842            5 
 1705000   0.97412088   -6.5352031    659.51392  0.032234307  0.032928638            7 
 1706000    0.9751013   -6.5340139     662.6879  0.032370452  0.032920406            7 
 1707000   0.96866924   -6.5470474    662.80822  0.032357363  0.032912205            9 
 1708000   0.96359466   -6.5168764    664.84299  0.032437695   0.03290393           13 
 1709000   0.96916163   -6.5488187     664.6698  0.032410269  0.032895833            4 
 1710000   0.99182505   -6.5221805    665.11719  0.032413118  0.032887807            4 
 1711000   0.95890144   -6.5418848    664.09031  0.032344161   0.03287966            7 
 1712000   0.98056881   -6.5652959    665.37097  0.032387605   0.03287153            8 
 1713000   0.94686768   -6.5836885    664.97429  0.032349401  0.032863369            3 
 1714000   0.95390721   -6.5430956    664.73414  0.032318852  0.032855152            7 
 1715000   0.98214136   -6.5234888    664.91349  0.032308722  0.032847036            7 
 1716000   0.97795885   -6.5649503    665.38528  0.032312805  0.032838903            7 
 1717000   0.98365756   -6.5538608    666.50665   0.03234841  0.032830835            6 
 1718000    0.9989639   -6.5390042    665.65088  0.032288071  0.032822805            3 
 1719000    0.9731795   -6.5708981    664.42982  0.032210094  0.032814764            6 
 1720000   0.96328891   -6.5424522    666.61524   0.03229725  0.032806708            5 
 1721000   0.96168959    -6.557833    666.94385  0.032294395  0.032798475            6 
 1722000   0.97620994   -6.5564237    665.22969  0.032192687  0.032790264            4 
 1723000   0.98597964   -6.5222697    666.75131  0.032247597  0.032782038            3 
 1724000   0.96787735   -6.5755234     667.3142    0.0322561  0.032773884            7 
 1725000   0.96592136   -6.5323622    668.60543  0.032299779  0.032765777            6 
 1726000   0.95317751   -6.5609241    668.78696   0.03228983  0.032757677            5 
 1727000   0.98083507   -6.5707155    668.67328  0.032265648  0.032749577            3 
 1728000   0.94655849    -6.538252    667.02502  0.032167487  0.032741496            3 
 1729000   0.99298103   -6.5425736     668.3406   0.03221229  0.032733326            6 
 1730000   0.96702805   -6.5729829    666.81946  0.032120398  0.032725158            5 
 1731000   0.97899233   -6.5354645    668.95823  0.032204806  0.032717026            4 
 1732000   0.96572863   -6.5713482    669.61575  0.032217848  0.032708872            6 
 1733000   0.99075816   -6.5424832    667.85791  0.032114729  0.032700811            7 
 1734000   0.98215446   -6.5324005    669.34797  0.032167819  0.032692669            4 
 1735000   0.96308587   -6.5400759    669.48939   0.03215607  0.032684518           13 
 1736000   0.98882006   -6.5746502    669.73013  0.032149104  0.032676317           13 
 1737000   0.97649252   -6.5819873     668.4591  0.032069617  0.032668172           17 
 1738000   0.97066318   -6.5234488    670.97558  0.032171825  0.032660017            3 
 1739000   0.97098744   -6.5216608    670.98787  0.032153914  0.032651945            7 
 1740000   0.98739602   -6.5766359    670.23981  0.032099608  0.032643756            8 
 1741000   0.95292667   -6.5357177    670.95449  0.032115379  0.032635575           10 
 1742000   0.96325672    -6.575064    669.53771  0.032029167    0.0326274            7 
 1743000   0.99267442   -6.5530493    671.95871   0.03212654  0.032619279            7 
 1744000   0.98550206    -6.557982    672.34338  0.032126499  0.032611204            5 
 1745000   0.97709089     -6.57322     671.0565  0.032046633  0.032603142            6 
 1746000   0.96562704   -6.5412844    672.11604  0.032078849  0.032594925           10 
 1747000   0.96783669   -6.5607781    672.30738  0.032069614  0.032586881            5 
 1748000    0.9603778     -6.51747    673.75732  0.032120391  0.032578928            6 
 1749000    0.9519271   -6.5557151    674.14761  0.032120622  0.032571062            4 
 1750000   0.97444947   -6.5633089    674.51495   0.03211976  0.032563163            4 
 1751000   0.96767659   -6.5615955    674.95334   0.03212228  0.032555323           10 
 1752000   0.98776822   -6.5629985    676.16679  0.032161663  0.032547383            8 
 1753000   0.97360642   -6.5448853    676.79289  0.032173079  0.032539614            3 
 1754000   0.97356364   -6.5373104    674.17379  0.032030302  0.032531707            5 
 1755000   0.94585272   -6.5572636     675.4513  0.032072712  0.032523753            8 
 1756000   0.98184248   -6.5804352    677.44703  0.032149156  0.032515909            5 
 1757000   0.97570976   -6.5692862    674.54034  0.031992996  0.032508007            6 
 1758000   0.96646138   -6.5481252    676.76401  0.032080205  0.032500197            9 
 1759000   0.96697712   -6.5637926    678.48821  0.032143652  0.032492489            6 
 1760000   0.97698509   -6.5559408    676.94959  0.032052537  0.032484786            5 
 1761000   0.97545627   -6.5590312    676.30081  0.032003635   0.03247709            4 
 1762000   0.99471686   -6.5736425    677.46647  0.032040601  0.032469312            5 
 1763000   0.97410874   -6.5338591     680.0804  0.032145982  0.032461527            6 
 1764000   0.96766277   -6.5620222    678.78167  0.032066405  0.032453688            2 
 1765000   0.97442188   -6.5741295    676.76279  0.031952917  0.032445968            6 
 1766000   0.95996995   -6.5531894    679.80072  0.032078176    0.0324382            6 
 1767000   0.95755052    -6.594774    681.11673  0.032122087  0.032430546            7 
 1768000   0.95564087   -6.5570673    679.44861  0.032025293  0.032422889            9 
 1769000   0.96633674    -6.555754    679.74883  0.032021332  0.032415187            5 
 1770000   0.96564125   -6.5304901     680.3696  0.032032467  0.032407514            5 
 1771000   0.98635608   -6.5669806    680.41089  0.032016323  0.032399813            5 
 1772000   0.95585831   -6.5767856    679.66299  0.031963083  0.032392078            3 
 1773000   0.97282553   -6.5755555    679.48442  0.031936662  0.032384296            5 
 1774000   0.96593385   -6.5727539    682.05818  0.032039561  0.032376569            4 
 1775000   0.96884195   -6.5946341    682.14279  0.032025483  0.032368818            5 
 1776000   0.97526761   -6.5444884     681.2253  0.031964401  0.032361156            6 
 1777000   0.97639319   -6.5807251    680.08824   0.03189309  0.032353315            5 
 1778000   0.96165588   -6.5747068    681.95895   0.03196283  0.032345439            5 
 1779000   0.95503288    -6.599479    680.87454  0.031894067  0.032337662            6 
 1780000   0.97855798   -6.5826874    681.55226  0.031907877  0.032329841            7 
 1781000   0.99881164   -6.5922472    681.29928  0.031878125  0.032322107            7 
 1782000   0.96234623   -6.6071177    682.42135  0.031912708  0.032314344            4 
 1783000   0.96406254   -6.5797604      682.249  0.031886754  0.032306678           12 
 1784000    0.9666642   -6.5697375     683.4989  0.031927265  0.032298909            6 
 1785000   0.95581898   -6.5549152    683.52911  0.031910789  0.032291069           23 
 1786000    0.9707742   -6.6025529    683.22944   0.03187894  0.032283372            7 
 1787000   0.97163277   -6.5391319    683.90652  0.031892675  0.032275704            3 
 1788000   0.97286296   -6.5747474     683.3712  0.031849888  0.032268068            8 
 1789000   0.95290912   -6.5572441    686.91839  0.031997317  0.032260422            3 
 1790000   0.95388997   -6.5625693    683.73848    0.0318314   0.03225285            4 
 1791000   0.98916651   -6.5640058    684.23874  0.031836904  0.032245189            4 
 1792000   0.97987541   -6.5674492    685.32407  0.031869609  0.032237401            4 
 1793000   0.96332754   -6.5690669    685.34413  0.031852767  0.032229629            3 
 1794000   0.96736498   -6.5594126     686.6856  0.031897325  0.032221909            6 
 1795000   0.97618802   -6.5571532    686.73392  0.031881798  0.032214306            7 
 1796000   0.95482129   -6.5374037     686.2466  0.031841435  0.032206615            6 
 1797000   0.94222692   -6.5586344    687.51605  0.031882584  0.032198885            5 
 1798000   0.94597893   -6.5607077    687.31423  0.031855498  0.032191236           10 
 1799000   0.96714095   -6.5814701    686.52794  0.031801368  0.032183512            5 
 1800000   0.95921826   -6.5620442    687.35286  0.031821892  0.032175743            6 
 1801000   0.98492964   -6.5740269     687.8327  0.031826425  0.032168009            7 
 1802000   0.97477162   -6.5988824    687.21968  0.031780414  0.032160333           10 
 1803000   0.96329063   -6.5882291    686.29649  0.031720119  0.032152637            5 
 1804000   0.95825981   -6.5891119    687.79713  0.031771856  0.032144936            4 
 1805000   0.95397846   -6.5684551    689.17592  0.031817909  0.032137171            9 
 1806000   0.95718747   -6.5744926    686.92202  0.031696291  0.032129465            6 
 1807000   0.95179129   -6.5594324    689.33785  0.031790161   0.03212169            7 
 1808000    0.9521442   -6.5866347     688.1368   0.03171722  0.032113941            7 
 1809000   0.97743565   -6.5668598    687.79103  0.031683759  0.032106169            9 
 1810000   0.95500129   -6.5813156    686.59945  0.031611393  0.032098359            6 
 1811000   0.94772113    -6.595227    687.93505  0.031655395  0.032090531            8 
 1812000   0.93938181   -6.5628613    687.80207   0.03163181  0.032082631            3 
 1813000   0.96950412   -6.5977555    689.18304  0.031677838  0.032074863            4 
 1814000   0.94453033    -6.575235    687.40047  0.031578486  0.032067022            6 
 1815000   0.96470077   -6.5542494    688.98145  0.031633675  0.032059112            3 
 1816000   0.99569552   -6.5789117    689.80411  0.031654007  0.032051233            5 
 1817000   0.96025908   -6.5810902    690.03669  0.031647253  0.032043345            6 
 1818000   0.96263377    -6.567397    690.17093  0.031635998  0.032035388            4 
 1819000    0.9650541   -6.6030246    688.60221  0.031546739  0.032027315            6 
 1820000   0.94739985   -6.5543878    688.39557  0.031519944  0.032019213            5 
 1821000    0.9620081   -6.5865855    689.99463  0.031575811  0.032011199            4 
 1822000   0.95052426   -6.5888209    686.76471  0.031410753  0.032003093            4 
 1823000   0.96013362   -6.5907025       689.64  0.031524959  0.031994922            4 
 1824000   0.95220266   -6.5998421     689.2011  0.031487624  0.031986822            6 
 1825000   0.95537317   -6.5732417    690.34213  0.031522472  0.031978796            7 
 1826000   0.96589383   -6.5748811     688.6238  0.031426789  0.031970857            5 
 1827000   0.94946379    -6.601079    690.45336  0.031493038  0.031962724            5 
 1828000   0.93807717   -6.5734406    687.63801  0.031347466  0.031954615            6 
 1829000   0.95844166   -6.5904958    688.25615   0.03135849  0.031946333            7 
 1830000   0.95725068   -6.5981722    692.65116  0.031541492  0.031938046            6 
 1831000   0.96207587    -6.588595    689.83548  0.031396117  0.031929737            7 
 1832000   0.95545678    -6.578909     689.0909   0.03134511  0.031921479            4 
 1833000   0.96853666   -6.5535812    689.08899  0.031327923   0.03191326            5 
 1834000    0.9691306    -6.594849    690.36105  0.031368641  0.031905096            3 
 1835000   0.96327989   -6.5803029    690.25795  0.031346864  0.031896869            4 
 1836000   0.95251044   -6.5754815    691.61307  0.031391297  0.031888795            4 
 1837000   0.95692813   -6.5931562    692.17525  0.031399712  0.031880655            6 
 1838000   0.98612783   -6.5892925    692.43675  0.031394485   0.03187249            2 
 1839000   0.96466338   -6.5396218    690.31129  0.031281099  0.031864242            5 
 1840000   0.97379326   -6.6167144    690.05208  0.031252359  0.031855979            4 
 1841000   0.95496421   -6.6024468    691.03901  0.031280057  0.031847726            3 
 1842000   0.98130206    -6.564177    690.93279   0.03125827  0.031839473            7 
 1843000   0.93331946   -6.5949739    692.26936  0.031301744  0.031831239            7 
 1844000   0.96012071   -6.5857197    692.34803  0.031288324  0.031822925            4 
 1845000   0.95166444   -6.5490907    693.64028  0.031329733  0.031814749            6 
 1846000   0.97150429   -6.5933944    693.42606   0.03130309  0.031806614            6 
 1847000   0.95761844   -6.5795041    694.22214   0.03132206  0.031798481            8 
 1848000   0.93198679   -6.5869745    694.08273  0.031298824  0.031790334            5 
 1849000   0.94225137   -6.5826695    692.05369  0.031190449   0.03178216            4 
 1850000   0.96135224   -6.5428575    695.13111  0.031312212  0.031773978            4 
 1851000   0.95051944   -6.6059014    694.70993  0.031276334  0.031765857            5 
 1852000   0.96832053   -6.5880937    694.14915  0.031234213  0.031757695            3 
 1853000   0.94652725   -6.5938966    694.21962  0.031220526  0.031749569           10 
 1854000   0.95878577   -6.5844796    694.07318  0.031197105  0.031741382            8 
 1855000   0.95332545   -6.5886811    693.97642   0.03117594  0.031733167            5 
 1856000   0.94304457    -6.576536     694.3338  0.031175189  0.031724982            9 
 1857000   0.96084112   -6.5717636    696.80298  0.031269206  0.031716893            5 
 1858000   0.93761303   -6.6009822    696.65233  0.031245619  0.031708754            2 
 1859000    0.9559224   -6.5559209    695.23692  0.031165363  0.031700531            9 
 1860000   0.96517202   -6.5831562    695.12686  0.031143677   0.03169228            6 
 1861000   0.94599518   -6.5899417    694.95308   0.03111916  0.031684115            5 
 1862000   0.95713436   -6.6290786    697.24315  0.031204939  0.031675892            8 
 1863000   0.96100284   -6.5891702    697.12072  0.031182712  0.031667747            5 
 1864000   0.93177587    -6.612008    696.99179  0.031160219  0.031659709            9 
 1865000   0.96204066   -6.6245783    696.00152  0.031099264  0.031651555           10 
 1866000   0.96730908   -6.5984565    697.58888  0.031153487  0.031643433            4 
 1867000   0.95203353   -6.5894971    698.13488  0.031161171  0.031635304            7 
 1868000   0.95739516   -6.5883428    698.47346  0.031159594  0.031627191            8 
 1869000   0.93764615   -6.5748145    698.98932  0.031165923  0.031619034            8 
 1870000   0.94733312   -6.5866676    697.58795  0.031086807  0.031610829            3 
 1871000   0.95378301   -6.5840714    698.24875  0.031099624  0.031602636            3 
 1872000   0.96022991   -6.6125587    699.44201   0.03113613  0.031594469            4 
 1873000   0.96785233    -6.583381    699.23455  0.031110275   0.03158627            9 
 1874000   0.94884979   -6.5932648    698.31649   0.03105285  0.031578012            3 
 1875000   0.96547437   -6.6349138    699.62563  0.031094473  0.031569711            6 
 1876000   0.96357846   -6.6191805    696.63482  0.030945044  0.031561456            9 
 1877000   0.96050828   -6.6026756    699.26409  0.031045289  0.031553098            6 
 1878000   0.93274772    -6.591773    699.28198  0.031029552  0.031544761            4 
 1879000   0.94748264   -6.5810401    698.12846   0.03096188  0.031536365            6 
 1880000   0.95218721   -6.5959691    699.92117  0.031024875  0.031528081            3 
 1881000   0.93323756   -6.5930056    698.44731  0.030943085  0.031519616           15 
 1882000   0.95439505   -6.6019651    696.97148  0.030861295  0.031511151            3 
 1883000    0.9460037   -6.6117785    698.05536  0.030892873  0.031502672            6 
 1884000   0.96530906   -6.5910397     698.9882  0.030917737  0.031494112            6 
 1885000   0.94610011   -6.6185603    698.91113  0.030897928  0.031485663            6 
 1886000   0.94317368   -6.5755611    700.37588  0.030946265  0.031477265            7 
 1887000   0.95671828   -6.6024377    699.23321  0.030879403  0.031468899            8 
 1888000   0.95026812   -6.6036244    699.99986  0.030896887  0.031460471            4 
 1889000   0.94297421   -6.6100802    699.39951  0.030854046  0.031452138            4 
 1890000    0.9307632   -6.5802099    701.10847  0.030913072   0.03144377            7 
 1891000   0.94092823   -6.6031265    702.24323  0.030946732   0.03143547            8 
 1892000   0.96196858   -6.5692455    701.48474  0.030896967  0.031427117            8 
 1893000   0.94802202   -6.6169848    702.65134  0.030932001  0.031418807            4 
 1894000   0.94905821   -6.6296536    701.90193  0.030882697  0.031410554            8 
 1895000   0.92826267   -6.6466991    701.96986  0.030869387  0.031402194            5 
 1896000    0.9486706    -6.560196    703.06131  0.030901077  0.031393989            4 
 1897000   0.94531839   -6.6114461    704.05593   0.03092848  0.031385814            7 
 1898000   0.95957335   -6.6254259    703.59234  0.030891831  0.031377655            9 
 1899000   0.95662844   -6.5851388    705.55422  0.030961656   0.03136957            4 
 1900000   0.97328641    -6.593148    703.41886  0.030851704  0.031361482            8 
 1901000   0.94174485   -6.6073008    704.61079  0.030887725  0.031353415            3 
 1902000   0.93812056   -6.6449179    702.37727  0.030773627  0.031345309            4 
 1903000   0.95558245   -6.6138636    703.49457  0.030806383  0.031336974            9 
 1904000   0.92602315   -6.6489464     703.2141  0.030777928  0.031328712            7 
 1905000   0.96094271   -6.6145479    704.65633  0.030824861  0.031320506           11 
 1906000   0.95982235    -6.612568    703.09573  0.030740457   0.03131231            5 
 1907000   0.94619619   -6.6133813    705.00729   0.03080787   0.03130412            5 
 1908000   0.95287612   -6.6077444    705.33675  0.030806113  0.031295857           11 
 1909000   0.95965704   -6.6331223    704.74696  0.030764229   0.03128764            8 
 1910000   0.94652213   -6.6430223    705.35597  0.030774693  0.031279314           21 
 1911000   0.94188421   -6.5884204    704.76143  0.030732663  0.031271026            6 
 1912000   0.95395528   -6.6000028    706.33149   0.03078502  0.031262756            2 
 1913000   0.95266981   -6.6082913    705.02796  0.030712143  0.031254444            6 
 1914000   0.93650704   -6.6209771    703.47913  0.030628663  0.031246189            8 
 1915000   0.95014366    -6.634296    704.57929  0.030660544  0.031237856            9 
 1916000   0.96143015   -6.6037021    708.01321  0.030793894  0.031229539            6 
 1917000   0.94826641    -6.618304    705.15618  0.030653633  0.031221309            6 
 1918000   0.94327924   -6.6295752     705.9883  0.030673805   0.03121295            8 
 1919000   0.96186054   -6.5977279    706.93139  0.030698775  0.031204676            4 
 1920000   0.92570771   -6.6173688    706.31263   0.03065593  0.031196451            9 
 1921000   0.94459467   -6.5981069    709.05308  0.030758853   0.03118826            8 
 1922000   0.95780597   -6.5986151    708.40579  0.030714785  0.031180083            5 
 1923000   0.94088749   -6.6233596    707.39159  0.030654862  0.031171835            3 
 1924000   0.94796646   -6.5925684     710.1678  0.030759174  0.031163612            6 
 1925000   0.94060607    -6.610477    709.11602  0.030697663   0.03115546            5 
 1926000   0.95081858   -6.5760938    709.08622  0.030680435  0.031147328            4 
 1927000   0.95509469   -6.5846904    708.58653  0.030642905  0.031139206            6 
 1928000   0.95677449   -6.6252578    709.45226   0.03066443  0.031130938            5 
 1929000   0.92974185   -6.6291269    708.87164  0.030623451  0.031122646            6 
 1930000   0.92315523    -6.624254    708.11523  0.030574923  0.031114433            4 
 1931000   0.95758776   -6.6472412    709.18098  0.030605083  0.031106187            7 
 1932000   0.91349272   -6.5998761     710.7734  0.030657928  0.031097942           15 
 1933000   0.93661893    -6.607604    711.54933  0.030675518    0.0310898           18 
 1934000    0.9501413   -6.6518345    709.94715  0.030590622  0.031081637            8 
 1935000   0.94603743   -6.6121298    710.25815  0.030588206  0.031073447            5 
 1936000   0.92031355   -6.6364976    710.08731  0.030565053  0.031065161            1 
 1937000   0.94134931   -6.6128545    711.97964  0.030630685  0.031056982            7 
 1938000   0.94610261    -6.595147      711.488  0.030593739  0.031048815            9 
 1939000   0.95705728   -6.5998549    711.90237   0.03059577  0.031040746            7 
 1940000    0.9429782   -6.6012283    713.85619  0.030663926  0.031032713            4 
 1941000   0.96207742   -6.6148234    714.01938  0.030655134  0.031024721            6 
 1942000   0.94732068   -6.5977384    712.69132   0.03058236  0.031016667            4 
 1943000   0.94847148   -6.5947078    714.02414  0.030623784  0.031008591            6 
 1944000   0.94452576   -6.6313934    712.59147  0.030546616  0.031000538            8 
 1945000   0.91948303   -6.6345913    713.13109  0.030554031  0.030992423           12 
 1946000   0.92022431   -6.6227508    712.55889  0.030513827  0.030984274            9 
 1947000   0.93595144   -6.6120039    713.28121  0.030529071   0.03097622            7 
 1948000   0.94157793    -6.616781    715.44956  0.030606158  0.030968171            5 
 1949000   0.94554982   -6.6168462     714.3155  0.030541966  0.030960068            7 
 1950000   0.91350308   -6.5937437    714.38274  0.030529177  0.030951979           16 
 1951000   0.95264012   -6.6181259    714.63142  0.030524151  0.030943934            3 
 1952000   0.94789537   -6.6320323    713.78907  0.030472552  0.030935802            4 
 1953000   0.94041512   -6.6376203    713.34946  0.030438192  0.030927633            7 
 1954000   0.91087602   -6.5716846    716.67286  0.030564349  0.030919591            7 
 1955000   0.93254947   -6.5857442    713.32435  0.030405983  0.030911595            8 
 1956000   0.95241281   -6.6419163    714.40902  0.030436649  0.030903534            8 
 1957000   0.94346497   -6.6590432    715.61595   0.03047249  0.030895347            2 
 1958000   0.91993381   -6.6419496    713.69976  0.030375373  0.030887141           14 
 1959000   0.94712918   -6.6108511    714.02513  0.030373708  0.030878921           10 
 1960000   0.93261316   -6.6149181    714.67726  0.030385938   0.03087078            4 
 1961000   0.92359689   -6.6152927    715.81236  0.030418679  0.030862699            8 
 1962000   0.93577725   -6.6406388    715.39949  0.030385639  0.030854569            4 
 1963000    0.9334628   -6.6216687    716.32049  0.030409258  0.030846398            5 
 1964000   0.94272978   -6.6222378    716.70861  0.030410243  0.030838235           19 
 1965000   0.94434432   -6.6153201    718.70222  0.030479314    0.0308302            5 
 1966000   0.93287797   -6.6251949    717.58493  0.030416452  0.030822216           10 
 1967000    0.9398036   -6.6447076    716.95379   0.03037425  0.030814148           18 
 1968000   0.94965099   -6.6464143    717.71157  0.030390903  0.030806015            5 
 1969000    0.9260549   -6.6453927    716.83164  0.030338227  0.030797913            4 
 1970000   0.95805056   -6.6431226    718.42438  0.030390202  0.030789868            4 
 1971000   0.93859645   -6.6322641    716.60591  0.030297899  0.030781785            6 
 1972000   0.94954046   -6.6150128    717.42432  0.030317119   0.03077373            5 
 1973000   0.93000684   -6.5981626    717.57753  0.030308225  0.030765593            5 
 1974000   0.94775912    -6.644873    717.23481  0.030278403  0.030757482            7 
 1975000   0.90932553   -6.6064166    718.20827  0.030304146  0.030749395           10 
 1976000   0.94466104   -6.6162194    717.06636  0.030240653  0.030741336            4 
 1977000    0.9477664   -6.6191912    717.86723  0.030259114  0.030733298            3 
 1978000   0.94381398   -6.6111721    718.46527  0.030269012  0.030725178           11 
 1979000   0.93761676   -6.6428386    718.07911  0.030237456  0.030717092            7 
 1980000   0.92380941   -6.6253326    721.12523  0.030350388  0.030709003            6 
 1981000   0.91417191   -6.6219789    721.52145  0.030351735  0.030701001            7 
 1982000   0.93072977   -6.6108476    719.32272  0.030243976  0.030692953            9 
 1983000   0.93126126    -6.636817    719.49581  0.030235998  0.030684904            8 
 1984000   0.92136188   -6.6006193    720.19577  0.030250159  0.030676869            9 
 1985000   0.93166042   -6.6225884     719.9458  0.030224425  0.030668778            4 
 1986000   0.94759573   -6.6371083    720.50178  0.030232535  0.030660697            4 
 1987000   0.91926342   -6.6282179    721.96108  0.030278522  0.030652633            8 
 1988000   0.92636071   -6.6369498    720.45622   0.03020021  0.030644552            4 
 1989000   0.95201742   -6.6148101    721.11738  0.030212728  0.030636481            4 
 1990000   0.92228139   -6.6586406    720.21706  0.030159843  0.030628379            5 
 1991000   0.92628368   -6.6385648    722.00426  0.030219498   0.03062019            6 
 1992000   0.94124946   -6.6622521    720.88181  0.030157372  0.030612035            7 
 1993000   0.93088125   -6.6412666    722.07586  0.030192167  0.030603966            7 
 1994000   0.93446605   -6.6768578    720.56975  0.030114082  0.030595911            6 
 1995000   0.92848718   -6.6605725    722.01475  0.030159346  0.030587768           14 
 1996000   0.91906603   -6.6532056    720.67354  0.030088241  0.030579559            4 
 1997000    0.9336799   -6.6581244    721.10018  0.030090977  0.030571456            4 
 1998000   0.94607307   -6.6396759    723.33214  0.030169008  0.030563388            8 
 1999000   0.92485218   -6.6505206    720.40153  0.030031746  0.030555241            6 
 2000000   0.92400539   -6.6164807    722.56156  0.030106732  0.030547069            6 
 2001000    0.9309516   -6.6173727    723.10939  0.030114501  0.030538915            7 
 2002000   0.92279047   -6.6211231    721.50348  0.030032612  0.030530778            6 
 2003000   0.91527679   -6.6589641    723.10564  0.030084275  0.030522572            4 
 2004000   0.91970451   -6.6465054    722.66027  0.030050743  0.030514359            9 
 2005000   0.92198313   -6.6394931    722.92557  0.030046782   0.03050617           11 
 2006000   0.93082667   -6.6405654    725.08043  0.030121321  0.030498119            8 
 2007000   0.94804127   -6.6345003    724.71992  0.030091344      0.03049            6 
 2008000   0.92018555   -6.6728399    723.58634  0.030029313  0.030481808            5 
 2009000   0.94045273   -6.6160707    724.70807  0.030060896  0.030473534           14 
 2010000   0.92006133   -6.6311115    722.61218  0.029959046  0.030465372            8 
 2011000   0.93199091   -6.6354072    723.31169  0.029973135  0.030457142            7 
 2012000   0.94047681   -6.6438357    723.20877  0.029953975  0.030448947            7 
 2013000   0.93583785   -6.6382974    724.96143  0.030011651    0.0304407            5 
 2014000   0.93421155   -6.6252906    722.66217  0.029901613  0.030432508           10 
 2015000   0.90857344   -6.6664133    723.12517  0.029905921  0.030424275            9 
 2016000   0.94886167   -6.5905704    725.31314  0.029981528  0.030416142            7 
 2017000   0.92870239   -6.6511926    725.03589  0.029955209   0.03040797            3 
 2018000   0.92648253   -6.6855876    722.16534  0.029821826  0.030399718            5 
 2019000   0.92185864   -6.6670102    724.65813  0.029909944  0.030391317            7 
 2020000   0.92464343   -6.6071976    724.19151  0.029875887   0.03038295           16 
 2021000   0.92905095   -6.6671423    722.26698  0.029781749  0.030374605            9 
 2022000   0.92670793   -6.6408574    724.07045  0.029841347  0.030366258           11 
 2023000   0.92225279   -6.6218996    726.87521  0.029942132  0.030357983            8 
 2024000   0.93488049   -6.6547137    726.54984  0.029913943  0.030349794            5 
 2025000   0.93740953   -6.6243046    726.06855  0.029879364  0.030341589            3 
 2026000   0.94763791   -6.6343901    727.09623  0.029906887  0.030333307           13 
 2027000   0.93159524    -6.644779    726.59596  0.029871565   0.03032504            5 
 2028000   0.90436867   -6.6349326    726.39391  0.029848533  0.030316804            5 
 2029000   0.93271639   -6.6216829     727.6772  0.029886529   0.03030854           13 
 2030000   0.93428293   -6.6546955    725.07123  0.029764829  0.030300289            9 
 2031000   0.90326462   -6.6511675    723.20111  0.029673441  0.030291893           11 
 2032000   0.91565317   -6.6463382    724.22944  0.029701011  0.030283486            4 
 2033000   0.93493931   -6.6563083    724.47628  0.029696519  0.030275117            4 
 2034000   0.93956065    -6.642407    726.62785  0.029770069  0.030266721            7 
 2035000   0.92063939   -6.6538858     726.3602   0.02974448  0.030258349            8 
 2036000   0.92272685   -6.6411248    725.89449  0.029710809  0.030250078            3 
 2037000    0.9154485   -6.6237365    728.65428  0.029809126  0.030241869            6 
 2038000    0.9201432   -6.6341744      728.937   0.02980606  0.030233602            3 
 2039000   0.92836401   -6.6668675    726.97222  0.029711142  0.030225322           14 
 2040000   0.92089144   -6.6525182    728.24481  0.029748562  0.030217024           15 
 2041000   0.91883206     -6.64335     726.9385  0.029680651   0.03020871            5 
 2042000   0.92008781   -6.6414967    728.78326    0.0297414  0.030200389            5 
 2043000   0.92355575   -6.6344509    729.01972  0.029736487  0.030192086           14 
 2044000   0.91141036   -6.6408707    728.41444  0.029697262  0.030183761            5 
 2045000   0.93094245   -6.6582664    728.02846  0.029667011  0.030175472            8 
 2046000   0.91752651   -6.6432423     729.7494  0.029722605   0.03016724            5 
 2047000   0.92606879   -6.6578117    731.35673  0.029773519  0.030159029           10 
 2048000   0.94044317   -6.6632527    728.57207  0.029645673  0.030150834            9 
 2049000   0.92633606   -6.6304246    731.05514  0.029732192  0.030142583            7 
 2050000   0.93194671   -6.6520836    730.51607  0.029695775  0.030134438            4 
 2051000   0.92470698   -6.6648021    727.56681  0.029561466  0.030126172            6 
 2052000   0.91414545   -6.6303439    730.45757  0.029664456   0.03011791            4 
 2053000   0.90532692   -6.6542518    731.48351  0.029691651  0.030109709            5 
 2054000   0.93608027    -6.676538    729.66844  0.029603556  0.030101519            6 
 2055000   0.92615695   -6.6339012    730.45893  0.029621206  0.030093279           11 
 2056000   0.94893433   -6.6444138    730.79687  0.029620496  0.030085033            3 
 2057000    0.9225644   -6.6653335    730.30206   0.02958605   0.03007678            6 
 2058000    0.9315748   -6.6295653    731.55274  0.029622317  0.030068568            5 
 2059000   0.91975106   -6.6854452      730.281  0.029556459  0.030060346            6 
 2060000   0.92069656   -6.6487261    731.92694  0.029608695  0.030052095            6 
 2061000   0.91936256   -6.6661856    731.08075  0.029560114  0.030043797           12 
 2062000   0.93426044   -6.6210193     730.4504  0.029520304  0.030035591            7 
 2063000   0.92268605   -6.6589166    730.68328  0.029515401  0.030027302            6 
 2064000   0.93021282   -6.6221251    732.08439  0.029557671  0.030018962           11 
 2065000   0.91934466   -6.6487436    730.57226  0.029482335  0.030010618            7 
 2066000   0.89924649   -6.6647999    732.14912  0.029531668   0.03000214            3 
 2067000   0.92383855   -6.6377531    731.05639  0.029473326  0.029993734            5 
 2068000   0.90557115   -6.6457933     732.9793  0.029536561  0.029985357           10 
 2069000    0.9219049   -6.6613767    732.61067  0.029507438  0.029977038            3 
 2070000   0.92967987   -6.6525699     732.5359  0.029490173  0.029968648            8 
 2071000   0.92766137   -6.6778317    730.24222   0.02938364  0.029960194            7 
 2072000   0.89797857   -6.6432258    733.09356  0.029484136  0.029951761           10 
 2073000   0.92291704   -6.6693606    731.22345  0.029394736  0.029943405           11 
 2074000   0.91461932   -6.6672333    732.81782  0.029444625  0.029934966            4 
 2075000   0.92019161   -6.6723733    733.25566  0.029448019  0.029926562            5 
 2076000   0.93763917    -6.652948    730.31561  0.029315816  0.029918178           10 
 2077000   0.92849847   -6.6674612    733.49505  0.029429267   0.02990979            7 
 2078000   0.94414265   -6.6743679    732.03553  0.029356574   0.02990137           11 
 2079000    0.9159771    -6.648896    733.90162  0.029417253  0.029893026            7 
 2080000   0.92349533   -6.6651046    732.65593  0.029353202   0.02988464            8 
 2081000   0.93553971   -6.6536434    733.98302   0.02939224  0.029876311            7 
 2082000   0.93479501   -6.6571913    732.30338  0.029310894  0.029867916            5 
 2083000   0.91354028    -6.627273    733.28543  0.029336111  0.029859496            4 
 2084000   0.89608495   -6.6676265    733.95611  0.029348853  0.029851079            6 
 2085000   0.93272999   -6.6508461    733.64821   0.02932247  0.029842657            6 
 2086000   0.90679416   -6.6374042    735.43737  0.029379889  0.029834238            4 
 2087000   0.92907955    -6.658058    735.16812   0.02935506  0.029825864            7 
 2088000   0.92508903    -6.662737    733.52587  0.029275458   0.02981751            5 
 2089000   0.90560793    -6.650751    734.70766  0.029308587  0.029809138            8 
 2090000   0.91595133   -6.6617084    734.93813  0.029303753  0.029800741            8 
 2091000   0.94576123   -6.6444134    734.87959  0.029287406   0.02979238            6 
 2092000   0.89790488   -6.6572306    734.50296  0.029258403   0.02978404            4 
 2093000   0.91719118   -6.6768481     735.2894  0.029275737  0.029775688            3 
 2094000   0.90552066   -6.7092868    733.43867  0.029188104  0.029767294           16 
 2095000    0.9131567   -6.6576156    735.88481  0.029271472  0.029758916            4 
 2096000   0.93702166   -6.6395848    736.57675  0.029285017  0.029750546            7 
 2097000    0.9239094   -6.6581527    735.90554  0.029244378  0.029742201            6 
 2098000   0.90462131   -6.6636432    737.88225  0.029308955   0.02973388            4 
 2099000   0.92455311   -6.6733027    738.42745  0.029316637  0.029725542            6 
 2100000   0.92932813   -6.6657742    738.26944  0.029296406   0.02971718            7 
 2101000   0.92904034   -6.6860935    736.04324  0.029194163  0.029708858            9 
 2102000   0.92479047   -6.6715198    738.10284  0.029261927  0.029700564            5 
 2103000   0.91689758   -6.6841951    735.56154  0.029147311  0.029692282            5 
 2104000   0.89731868    -6.642943     737.3169  0.029202982  0.029683955            7 
 2105000   0.90872654   -6.6656536    735.89506  0.029132821  0.029675653            6 
 2106000   0.92293705   -6.6686909    736.80879  0.029155144  0.029667294           10 
 2107000   0.91388649    -6.649914    737.77152  0.029179383  0.029658967           10 
 2108000   0.91941181   -6.6500626    738.00015  0.029174579  0.029650684            8 
 2109000   0.91892336   -6.6406519    738.07192  0.029163582   0.02964242            6 
 2110000   0.91388237   -6.6577052    737.96547  0.029145556  0.029634042           12 
 2111000   0.91050739   -6.6490596    738.82811  0.029165803  0.029625673            4 
 2112000   0.92335024   -6.6703842    739.60026   0.02918246  0.029617331            5 
 2113000   0.92434134   -6.6551377    737.46205  0.029084321  0.029608951            5 
 2114000   0.90414702   -6.6306722    738.12052   0.02909652  0.029600644            5 
 2115000   0.92367632    -6.670496    739.54558  0.029138912  0.029592305           10 
 2116000   0.90391906   -6.6686536    739.12842  0.029108712  0.029584012            8 
 2117000     0.903326   -6.6440462     739.7934  0.029121139  0.029575698            7 
 2118000   0.91407778   -6.6653827    739.85267  0.029109721  0.029567438            4 
 2119000   0.91173849   -6.6935026     740.9787  0.029140266  0.029559076           11 
 2120000   0.91728653     -6.65134    741.67533  0.029153905  0.029550789            4 
 2121000   0.90499269   -6.6463357    742.18039  0.029160003  0.029542597            4 
 2122000     0.922259   -6.6583976    739.70462  0.029049035  0.029534389            4 
 2123000   0.91939429   -6.6775699    740.57776  0.029069625  0.029526163            8 
 2124000   0.91481637   -6.6885031     740.7035  0.029060872  0.029517886            9 
 2125000   0.91639611   -6.6660042     741.6335  0.029083667  0.029509649            4 
 2126000   0.92650358   -6.6627731    742.90805  0.029119946    0.0295015            8 
 2127000   0.90467016   -6.6777449    743.31947  0.029122374  0.029493331           16 
 2128000   0.91270329   -6.6921395    740.77285  0.029008962  0.029485113            5 
 2129000   0.90582064    -6.666128    740.11121  0.028969438  0.029476865            7 
 2130000   0.90590988   -6.6709993    740.65326  0.028977045  0.029468608           12 
 2131000    0.9058604    -6.684405    741.21579  0.028985445   0.02946043            6 
 2132000    0.9042349   -6.7064123    743.27841  0.029052471  0.029452228            4 
 2133000   0.88872153   -6.6963068    743.99425  0.029066817  0.029444038            4 
 2134000   0.90107897   -6.6927501    744.71704  0.029081422   0.02943586            9 
 2135000   0.92101259   -6.6932641    742.52684  0.028982312  0.029427566            8 
 2136000   0.89524307   -6.6690919    744.18423  0.029033405  0.029419396            8 
 2137000   0.90849018   -6.6677487    743.61088  0.028997461  0.029411209            8 
 2138000   0.91898044   -6.6601929    744.68599  0.029025803  0.029403024            8 
 2139000    0.9162154   -6.6846066    743.82166  0.028978559  0.029394854            7 
 2140000   0.89254174   -6.6822886     741.7324  0.028883661  0.029386638            5 
 2141000   0.92796142   -6.7023969    741.25646  0.028851645   0.02937843            9 
 2142000   0.90333782   -6.6974849    741.80376  0.028859468  0.029370109            6 
 2143000   0.90273583   -6.7242089    742.72232   0.02888172  0.029361922            3 
 2144000   0.91926309    -6.673274    741.38955  0.028816447  0.029353704           11 
 2145000   0.91165392   -6.6887944    743.78728  0.028896165  0.029345505            4 
 2146000   0.90330689   -6.6719878    744.68923  0.028917724  0.029337393            5 
 2147000    0.8904195   -6.6985662    744.50594  0.028897141  0.029329222            6 
 2148000   0.92144865   -6.6883041    743.80953   0.02885667  0.029321025           11 
 2149000   0.91668187   -6.7071135    747.05693  0.028969169  0.029312833            4 
 2150000   0.91445055   -6.6849241    746.24636  0.028924278  0.029304681            6 
 2151000   0.91382912   -6.6879038    748.15726  0.028984862  0.029296567            7 
 2152000   0.90741561   -6.6827445    745.77092  0.028878986  0.029288487            6 
 2153000   0.90694903   -6.6839194     745.1892  0.028843056   0.02928038            9 
 2154000   0.90732538   -6.6910815    746.12015  0.028865682  0.029272282            6 
 2155000   0.91510309   -6.6984792    744.86486  0.028803746  0.029264154            7 
 2156000   0.90331665   -6.6783474    746.53662  0.028855002  0.029256042            6 
 2157000   0.88695359   -6.6434888    748.16156  0.028904403   0.02924793            6 
 2158000   0.88808171   -6.7048664    748.22827  0.028893585   0.02923977            6 
 2159000   0.92972111   -6.6801828    748.76959  0.028901096   0.02923167            3 
 2160000   0.93294343   -6.6981421    746.77508  0.028810767  0.029223628           12 
 2161000   0.89590277   -6.6878408    749.41108  0.028899085  0.029215594            9 
 2162000   0.90520985   -6.6763412    748.23489  0.028840383   0.02920762            4 
 2163000   0.91961783   -6.7049157    748.16776  0.028824463  0.029199533            4 
 2164000   0.88815178   -6.6996769    749.31023  0.028855138  0.029191436            6 
 2165000   0.91005668   -6.6941774    747.90427  0.028787693  0.029183387           13 
 2166000   0.89463052   -6.6495542    749.59776  0.028839557   0.02917527            8 
 2167000   0.90489196   -6.6803395     749.2392   0.02881246  0.029167237           10 
 2168000   0.90041429   -6.7103538    749.90057  0.028824592  0.029159262            6 
 2169000   0.91706493   -6.7300156    749.03055  0.028777876  0.029151242           12 
 2170000   0.90789155   -6.6981326    750.41154  0.028817647    0.0291432            6 
 2171000   0.91415314   -6.6990526    746.90701  0.028669853  0.029135159            5 
 2172000   0.90040656    -6.687147    750.11363  0.028779682  0.029127099            6 
 2173000    0.9018627   -6.7017937    749.80504  0.028754604  0.029118965            6 
 2174000   0.91245317   -6.6751908    749.19144  0.028717856  0.029110947            6 
 2175000   0.89524331   -6.6387741    750.25241  0.028745303   0.02910295            9 
 2176000   0.91677545   -6.6829928    748.12849  0.028650754  0.029094898            4 
 2177000    0.8911909   -6.6933546    749.55872  0.028692341  0.029086871            3 
 2178000   0.89469152   -6.6714014    751.95952  0.028771025  0.029078838            3 
 2179000    0.9031949   -6.7124149    749.50227  0.028663847  0.029070815            3 
 2180000    0.8892238   -6.6926346    751.17983  0.028714825  0.029062811            7 
 2181000     0.915524   -6.6956953    751.44519  0.028711799  0.029054798            6 
 2182000   0.90586686   -6.6892177    750.28934  0.028654497  0.029046682            7 
 2183000   0.88493927   -6.7052174     750.4556  0.028647717  0.029038612            6 
 2184000   0.91069283   -6.6971853    752.50171  0.028712672  0.029030536            7 
 2185000    0.9094293   -6.7560125    751.92999  0.028677727   0.02902244           11 
 2186000   0.89873146   -6.7053571    750.21817  0.028599351    0.0290143           14 
 2187000    0.9026238    -6.677043     751.6364  0.028640314  0.029006199            6 
 2188000   0.90051323   -6.6927968    751.64485  0.028627546  0.028998185            7 
 2189000   0.91292286   -6.7261524    752.22835  0.028636681  0.028990151            7 
 2190000   0.91148086   -6.6616779    750.01316  0.028539313  0.028982134            4 
 2191000   0.89401512    -6.686612    754.52955  0.028698066  0.028974163           15 
 2192000    0.8994798   -6.6827447    753.56775  0.028648409  0.028966164           16 
 2193000   0.88166169   -6.6807496    753.32543  0.028626137  0.028958155            7 
 2194000   0.89767196     -6.71073    752.93159  0.028598131  0.028950194            7 
 2195000    0.8880201   -6.7058583    752.36815  0.028563711  0.028942192           11 
 2196000    0.9079552   -6.6784434    752.25123  0.028546267  0.028934135            6 
 2197000   0.91455125   -6.6920166    754.66559  0.028624852  0.028926105            4 
 2198000   0.90080428   -6.7136704    751.87207  0.028505917  0.028918085            5 
 2199000   0.90124273    -6.676642    753.54827  0.028556475  0.028910012            4 
 2200000   0.89471077   -6.7103217    753.78968  0.028552639  0.028901971            6 
 2201000   0.90990322   -6.6773369    754.80949  0.028578278  0.028893955            6 
 2202000   0.92661749   -6.6830361    754.62384  0.028558274  0.028885945            9 
 2203000   0.89326876   -6.7160029    752.04005  0.028447574  0.028877893            5 
 2204000    0.9151457   -6.7025008    753.76315  0.028499817  0.028869775           10 
 2205000   0.90344849   -6.6690716    754.99905    0.0285336  0.028861778            7 
 2206000   0.91834598    -6.655086    755.69866  0.028547094  0.028853861            5 
 2207000   0.88948585    -6.713987    753.29699  0.028443475  0.028845881           15 
 2208000    0.8924187   -6.6857532    756.27202  0.028542875  0.028837843           12 
 2209000   0.89253632   -6.7442322    755.55328   0.02850284  0.028829765           11 
 2210000   0.89363001   -6.6867589    756.12003  0.028511313   0.02882172            4 
 2211000   0.91963424    -6.707002     754.6238  0.028442025  0.028813704           12 
 2212000   0.87865572   -6.6867532    755.03276  0.028444574  0.028805662            7 
 2213000    0.9002707   -6.6938419    754.64398   0.02841708   0.02879764            7 
 2214000   0.89431279   -6.6967248    756.77794  0.028484566  0.028789664            8 
 2215000   0.91560965   -6.6931456     756.1092  0.028446546   0.02878162           10 
 2216000   0.90499142   -6.7365323    755.39902  0.028407003   0.02877362            4 
 2217000   0.89815079   -6.7321233    754.64869  0.028365986  0.028765589            9 
 2218000   0.89926757   -6.7208697    756.09394  0.028407497  0.028757585            7 
 2219000   0.90476913   -6.7119972    757.62772  0.028452295  0.028749649            6 
 2220000   0.88322055   -6.7067245    759.03218  0.028492199  0.028741705            7 
 2221000   0.89505686   -6.6922696    755.57012  0.028349472  0.028733705           15 
 2222000   0.89349407   -6.7246269     756.5334   0.02837284  0.028725722            5 
 2223000   0.89307448   -6.6999211     757.8531  0.028409548  0.028717819           10 
 2224000   0.89714279   -6.6944554    759.01638  0.028440362  0.028709941           13 
 2225000   0.91441202   -6.7037389    759.71042  0.028453574  0.028702066            5 
 2226000   0.89378835   -6.7073806    759.16291  0.028420295  0.028694195            7 
 2227000   0.90323808   -6.6811007    757.59985  0.028349044   0.02868637            9 
 2228000   0.91201027   -6.7104872    758.15129  0.028356945  0.028678444            7 
 2229000   0.91995152   -6.6927229    760.39449  0.028428088   0.02867049            5 
 2230000    0.9015506   -6.6769244    758.54522  0.028346234  0.028662549            8 
 2231000   0.88617954   -6.6959219    758.81147  0.028343473  0.028654602            3 
 2232000   0.89406378   -6.7172452    757.74734  0.028291045  0.028646611            8 
 2233000   0.90798852   -6.7237366    758.85966  0.028319886  0.028638709            7 
 2234000   0.89642581   -6.6878644    760.40854  0.028364986  0.028630723            3 
 2235000   0.87431939   -6.7125131    758.63975  0.028286344  0.028622758            9 
 2236000   0.88474034   -6.7184879     762.2004  0.028406395   0.02861486            9 
 2237000   0.88909927   -6.7029958    760.50998  0.028330725  0.028606945            3 
 2238000   0.88977958   -6.7208991    759.72023  0.028288659  0.028599041            5 
 2239000   0.90166963   -6.7029158    761.03587  0.028324992   0.02859112            9 
 2240000   0.90150943   -6.7215027    759.62653  0.028259916  0.028583261            5 
 2241000    0.9072135   -6.7001503    760.22892  0.028269705  0.028575406            5 
 2242000   0.88332671   -6.6964141    759.05008   0.02821328  0.028567463            7 
 2243000   0.90121861   -6.7010931    760.50752  0.028254849  0.028559594           10 
 2244000    0.8920413   -6.7335871    760.64552  0.028247383  0.028551636            4 
 2245000   0.87999293   -6.7216666    760.02167  0.028211643  0.028543675            8 
 2246000   0.88137672   -6.7081468    761.27987  0.028245766  0.028535688            7 
 2247000   0.92468469   -6.6987435    761.90537  0.028256393  0.028527831           12 
 2248000   0.89029221   -6.7286928    759.44632  0.028152666  0.028519946            4 
 2249000   0.89188978   -6.7115597    761.48671  0.028215752  0.028512038           11 
 2250000   0.90743684   -6.7316097    760.97448   0.02818424  0.028504036           23 
 2251000   0.89588252    -6.732515    759.32108  0.028110509  0.028496072            9 
 2252000   0.89265144   -6.7032226    762.87721  0.028229618  0.028488089            3 
 2253000   0.88199825   -6.6921623    761.27431  0.028157801  0.028480228            5 
 2254000   0.88632432   -6.7017559    760.36712  0.028111769  0.028472312            8 
 2255000   0.87704768    -6.660116    763.37733  0.028210544  0.028464402            6 
 2256000   0.88607187   -6.7101626    761.53744  0.028130077  0.028456438           13 
 2257000   0.87743454   -6.7437134    761.34047  0.028110341  0.028448497            7 
 2258000   0.90029072   -6.7121972    763.49959  0.028177576  0.028440561            7 
 2259000   0.88468504   -6.7243236    763.11364  0.028150865  0.028432663            6 
 2260000   0.88585729   -6.7078971    764.19064  0.028178121  0.028424852            7 
 2261000   0.89875516   -6.7315075    761.72826  0.028074903   0.02841701            6 
 2262000   0.87194138   -6.6990785    764.72494   0.02817289  0.028409208           18 
 2263000    0.8793574   -6.6988589    763.25837  0.028106436  0.028401432            5 
 2264000   0.88543478   -6.7254553    765.41946  0.028173567  0.028393611            7 
 2265000   0.87661804   -6.7238441    764.43062  0.028124747  0.028385748           11 
 2266000   0.88577046    -6.715961    762.10426  0.028026782  0.028377835            4 
 2267000   0.89682978   -6.7061905    761.87293  0.028005916  0.028369978            5 
 2268000   0.88104094   -6.7492631    763.80159  0.028064432  0.028362137            5 
 2269000   0.89658019   -6.7205746    765.26283   0.02810573  0.028354383           12 
 2270000   0.88280085   -6.7296269    764.23531  0.028055628  0.028346608           10 
 2271000    0.9069008   -6.7207248    765.60129  0.028093398  0.028338809            8 
 2272000   0.88240193   -6.7429131     764.9069  0.028055564  0.028331032            7 
 2273000    0.8697917   -6.7106814    764.67383  0.028034676  0.028323252           10 
 2274000   0.89905434   -6.6832148    766.65036   0.02809478  0.028315497            7 
 2275000   0.87958935   -6.7263848    766.00018  0.028058614  0.028307702            8 
 2276000    0.8836108   -6.7139522    766.51663  0.028065196  0.028299921            9 
 2277000   0.89690957    -6.721835    765.72583  0.028023929  0.028292145            8 
 2278000   0.88118588   -6.7230324    764.61406  0.027970956  0.028284342            6 
 2279000    0.8900369   -6.7247134    765.87988  0.028004969   0.02827658            6 
 2280000    0.8791552   -6.7120494    765.83606  0.027991084  0.028268795            8 
 2281000   0.87002161   -6.6770679    768.76692  0.028085888  0.028261039            8 
 2282000   0.90121539   -6.7101417    767.11026  0.028013083  0.028253266           10 
 2283000   0.89410452   -6.7253157    765.57356   0.02794472  0.028245458            5 
 2284000   0.90523061   -6.6909759    768.27133  0.028030915  0.028237657           12 
 2285000   0.90144575   -6.7105954    765.37087  0.027912869  0.028229918           11 
 2286000   0.87096986    -6.723554    766.78388  0.027952168  0.028222101           10 
 2287000   0.88199205   -6.6907583    769.08128  0.028023658   0.02821436            8 
 2288000   0.89361195   -6.7155518    768.70416  0.027997675  0.028206562            5 
 2289000   0.88053188   -6.7158686    767.62743  0.027946244  0.028198809           11 
 2290000   0.90098121   -6.7301324     767.7061  0.027936903  0.028191039            6 
 2291000   0.89662147   -6.7195304    767.41254  0.027914031  0.028183244            7 
 2292000   0.87642051   -6.7427875    767.92018  0.027920309  0.028175448            8 
 2293000   0.88796731   -6.7604309    767.10756    0.0278786  0.028167633           10 
 2294000   0.88301271   -6.7116137    769.85344  0.027966196  0.028159849            5 
 2295000   0.86970843   -6.6928828    769.71884  0.027949123  0.028152147           10 
 2296000   0.85875977   -6.7226814    769.55089  0.027930854  0.028144488           10 
 2297000   0.86459207   -6.7406879     765.6697  0.027777888  0.028136693           13 
 2298000   0.88243746   -6.7402692    768.97785  0.027885765  0.028128935           16 
 2299000   0.87181211      -6.7484    770.31876   0.02792224  0.028121216            6 
 2300000   0.88412266   -6.7509372    769.58084  0.027883364  0.028113513           14 
 2301000   0.87206494   -6.7293806    770.35667  0.027899343  0.028105756           10 
 2302000   0.89690492   -6.7573918    769.64975  0.027861633  0.028098028            5 
 2303000   0.85720761   -6.7015131    768.18297   0.02779646  0.028090283            6 
 2304000   0.88631554   -6.7388852    768.83943  0.027808139  0.028082528            6 
 2305000   0.89018005    -6.730215    768.23406  0.027774189  0.028074848           11 
 2306000   0.88916161   -6.7380111    771.24324  0.027870889  0.028067143           13 
 2307000   0.87841361   -6.7339166    769.13461   0.02778264  0.028059405            9 
 2308000   0.87464588   -6.7255429    772.48591  0.027891605  0.028051656            6 
 2309000   0.87797553   -6.7136414    770.48429  0.027807286   0.02804399           12 
 2310000   0.89098474   -6.7539447    771.32064   0.02782542  0.028036358           10 
 2311000   0.89220981   -6.7345567    772.68923   0.02786273   0.02802868            7 
 2312000   0.89668604    -6.741698    773.38991  0.027875934  0.028021004            4 
 2313000   0.88658494   -6.7173582    773.55276  0.027869749   0.02801335           11 
 2314000   0.89105494   -6.7452025    771.73049   0.02779208  0.028005758           18 
 2315000   0.87702962   -6.7419624    771.32373  0.027765433  0.027998147            6 
 2316000   0.88786912   -6.7400677    773.93116  0.027847264  0.027990537            7 
 2317000    0.8785534   -6.7359022    772.25587  0.027774992  0.027982904            6 
 2318000   0.87288277   -6.7242546     772.8568  0.027784613  0.027975304            5 
 2319000   0.86478051   -6.7386448    772.64215  0.027764919  0.027967724            6 
 2320000    0.8950971   -6.7250325    773.44578  0.027781817  0.027960178            7 
 2321000   0.88542263    -6.732974    773.82708  0.027783537  0.027952555           23 
 2322000   0.87663522   -6.7062984    773.34795  0.027754377  0.027944948           33 
 2323000   0.86760941    -6.728591    773.39038  0.027743951  0.027937374           14 
 2324000   0.86826868   -6.7375944    774.86074  0.027784737  0.027929798            5 
 2325000   0.89391368   -6.7044734    773.74998  0.027732974   0.02792229            3 
 2326000   0.84589887   -6.7240085     775.5282  0.027784759  0.027914717            7 
 2327000   0.88324921   -6.7629315    774.61727  0.027740197  0.027907127            7 
 2328000   0.89556863   -6.7433171    775.24637  0.027750801  0.027899495            8 
 2329000   0.86669467   -6.7590837     775.6518  0.027753392  0.027891878            9 
 2330000    0.8611801   -6.7362484     776.4808   0.02777113  0.027884273           14 
 2331000   0.89111021   -6.7443458    774.72966  0.027696613  0.027876643            8 
 2332000   0.88476678   -6.7306086    775.01264  0.027694849   0.02786896           14 
 2333000   0.88692833   -6.7415699    774.78022  0.027674676  0.027861326            4 
 2334000   0.87890024   -6.7477062    775.48563  0.027688004  0.027853667            6 
 2335000   0.90139451   -6.7550663    775.79349  0.027687134   0.02784608           11 
 2336000   0.87467054   -6.7591786    774.17922  0.027617695  0.027838407           18 
 2337000   0.87018652   -6.7188479    777.48435  0.027723732  0.027830848           12 
 2338000   0.88836129   -6.7575043    777.56984  0.027714922  0.027823264            7 
 2339000   0.87754487   -6.7370746    776.31542   0.02765838  0.027815672           13 
 2340000   0.88637815   -6.7341664    776.28266  0.027645394  0.027808004            5 
 2341000    0.8805907   -6.7564993     774.7301  0.027578318  0.027800329            9 
 2342000   0.87752621   -6.7477663    774.48061  0.027557665  0.027792649            8 
 2343000   0.87268506   -6.7512154    775.50539  0.027582351  0.027784913           11 
 2344000   0.87585735   -6.7689959    773.86344   0.02751221  0.027777144            5 
 2345000   0.87788137   -6.7407712    776.18836  0.027583097  0.027769434           15 
 2346000   0.85780525   -6.7452438    776.34902  0.027577047  0.027761752            5 
 2347000   0.88162059   -6.7625682    774.24908  0.027490736  0.027754092            8 
 2348000   0.91009966   -6.7302221    776.83989  0.027570979  0.027746519           10 
 2349000   0.88639234    -6.724313     777.1488    0.0275702    0.0277389            9 
 2350000   0.85731295   -6.7574422    774.50265  0.027464633  0.027731254            7 
 2351000   0.88017805   -6.7417616    775.86624  0.027501284  0.027723577           15 
 2352000   0.90219733   -6.7553139    778.51574  0.027583466  0.027715961            8 
 2353000   0.84943305   -6.7358735    776.11813   0.02748683  0.027708347           10 
 2354000   0.89573057   -6.7771111    777.33981  0.027518402  0.027700734            4 
 2355000   0.86973907   -6.7650795    776.59329  0.027480301  0.027693074            4 
 2356000   0.87211134    -6.791941     775.1001  0.027415821   0.02768545            9 
 2357000   0.85315567   -6.7616842    779.81566  0.027570912  0.027677812            6 
 2358000   0.88282495   -6.7376592    778.94508  0.027528452  0.027670204            9 
 2359000   0.88092744    -6.729906    779.37106  0.027531831  0.027662627            9 
 2360000   0.86920012   -6.7339017    776.27542  0.027410855  0.027655067           12 
 2361000   0.88254431   -6.7553356    779.98913  0.027530324  0.027647421            5 
 2362000   0.85750949   -6.7562957    778.57863  0.027468905  0.027639809           10 
 2363000    0.8728542   -6.7586808    777.51843  0.027419891  0.027632167           10 
 2364000   0.88915168    -6.745357    778.59157  0.027446121  0.027624538           12 
 2365000   0.87217603   -6.7577149    779.61377  0.027470534  0.027616898            5 
 2366000   0.86421163   -6.7344584    778.37688  0.027415359  0.027609197            9 
 2367000   0.89410085    -6.774202    778.32465  0.027401938  0.027601468           11 
 2368000   0.87374482   -6.7743996     779.0851  0.027417128  0.027593788            2 
 2369000   0.86934153   -6.7492569    777.68851  0.027356427  0.027586177            8 
 2370000   0.86343641   -6.7267263    779.85488  0.027421058  0.027578532            7 
 2371000   0.86928712   -6.7477069    779.65969  0.027402632  0.027570912           11 
 2372000   0.87703524   -6.7213514     778.1669  0.027338635  0.027563302           11 
 2373000   0.82293782   -6.7688372    782.47113  0.027478267  0.027555718            4 
 2374000   0.89051082   -6.7266021    782.49881  0.027467664  0.027548149            5 
 2375000   0.88323815   -6.7518395    781.59673  0.027424447  0.027540573            5 
 2376000   0.86746404   -6.7347032    781.23729  0.027400298  0.027533008           11 
 2377000   0.86621878    -6.757313     777.8972  0.027271673   0.02752539            6 
 2378000   0.88492871   -6.7686609    779.58759  0.027319442  0.027517733           10 
 2379000   0.87227147    -6.767886     781.2855  0.027367434  0.027510074            9 
 2380000   0.87057431   -6.7585002    780.64255  0.027333423  0.027502534            6 
 2381000   0.87862424   -6.7338293    781.18907  0.027341071  0.027494984            8 
 2382000   0.85846109   -6.7858299    779.95378  0.027286376  0.027487357           14 
 2383000   0.88301053   -6.7568981    780.54025  0.027295435  0.027479677            9 
 2384000   0.87278202   -6.7265672    780.82252  0.027293852  0.027472056            7 
 2385000   0.88414094   -6.7518475    782.23077  0.027331613  0.027464427            5 
 2386000   0.85826098   -6.7619944    779.60229  0.027228356  0.027456724           10 
 2387000   0.86664318   -6.7753762    780.37528  0.027243935   0.02744901           11 
 2388000   0.86103055   -6.7814683     778.3046  0.027160266  0.027441246           21 
 2389000   0.86968398   -6.7631664    781.20981  0.027250238  0.027433507            7 
 2390000   0.88671239   -6.7527653    782.28644  0.027276375  0.027425814            8 
 2391000   0.86789484   -6.7864841    782.07771  0.027257692  0.027418147            5 
 2392000   0.86243159   -6.7545424    779.61705  0.027160572  0.027410418            3 
 2393000   0.88524978   -6.7681722    779.79672  0.027155479  0.027402682            9 
 2394000   0.88275386   -6.7464287     781.2132  0.027193442  0.027394924           11 
 2395000   0.87044701   -6.7689506    782.42843  0.027224371  0.027387199           16 
 2396000   0.85504929    -6.759375    780.83485  0.027157584  0.027379491           12 
 2397000   0.86491231   -6.7891305     780.2281   0.02712516  0.027371679           12 
 2398000   0.88384871   -6.7591291    780.02082  0.027106645  0.027363878           19 
 2399000   0.85526477   -6.7888193    780.12583  0.027098994  0.027356126           34 
 2400000   0.86549342    -6.784897    780.84265  0.027112592   0.02734836            7 
 2401000   0.86753882    -6.780783    780.40898  0.027086248  0.027340622           12 
 2402000   0.87251286   -6.7641469    782.58036  0.027150304   0.02733296            5 
 2403000   0.88844927   -6.7750363    781.58953  0.027104644  0.027325234            4 
 2404000   0.86835048   -6.7355566    781.76889  0.027099587  0.027317471           11 
 2405000   0.90690081    -6.769625    780.87724  0.027057423  0.027309718           13 
 2406000   0.87236601    -6.743425    783.34497  0.027131649  0.027302008           11 
 2407000   0.87866399   -6.7878704    782.77202  0.027100541   0.02729428            9 
 2408000   0.87365025   -6.7910112     782.1442  0.027067559  0.027286566            6 
 2409000   0.86139666   -6.7643534    782.91952  0.027083144  0.027278806           19 
 2410000   0.85824762   -6.7691861    782.87331  0.027070308  0.027271081           13 
 2411000   0.88085031   -6.7305554    785.09963   0.02713603  0.027263368           14 
 2412000   0.86684469   -6.7823542     782.4942  0.027034764  0.027255664           10 
 2413000   0.86415729   -6.7436759    783.70534  0.027065387  0.027247948            5 
 2414000   0.85301937   -6.7926587    784.28743  0.027074269  0.027240227            9 
 2415000   0.85420083   -6.7699431    782.55383  0.027003238  0.027232534            5 
 2416000    0.8715612   -6.7573452    782.13083  0.026977471  0.027224804            4 
 2417000   0.86106355   -6.7670371     782.2832  0.026971563  0.027217143            7 
 2418000   0.86745942   -6.7753916    782.70535  0.026974957  0.027209433            5 
 2419000   0.85450282   -6.7552234    783.23005  0.026981881  0.027201729            6 
 2420000   0.87283712   -6.7802983    783.18016  0.026969014  0.027194008            9 
 2421000   0.86099041   -6.7609646    782.19984  0.026924131  0.027186289            7 
 2422000    0.8601234   -6.7687333    784.21725  0.026982427  0.027178536            8 
 2423000   0.86188079   -6.7595216    783.20955  0.026936633  0.027170837           12 
 2424000   0.86080301   -6.7819916    781.46315  0.026865482  0.027163099            7 
 2425000    0.8581484   -6.7821888    784.40344  0.026955445  0.027155292            8 
 2426000   0.87253253   -6.7964068    784.28408  0.026940233  0.027147548           11 
 2427000   0.83933592   -6.8021893    783.62158  0.026906386  0.027139733            4 
 2428000     0.872445   -6.7585251     785.8371  0.026971345  0.027131908           26 
 2429000   0.85432835   -6.7560808    783.92968  0.026894802  0.027124162            8 
 2430000   0.84924534   -6.7636162    783.98355  0.026885581   0.02711639            7 
 2431000   0.85617697   -6.7604735    785.61949  0.026930601  0.027108634            9 
 2432000   0.85369908   -6.7509642    782.91862  0.026826981  0.027100895            5 
 2433000   0.87156821   -6.8113294    783.58429  0.026838755  0.027093132           11 
 2434000    0.8453688   -6.7987859    782.13452  0.026778092   0.02708529           17 
 2435000   0.87322234    -6.776027    783.01533  0.026797239  0.027077509           13 
 2436000   0.87627532    -6.774664    786.89631  0.026919003  0.027069727           11 
 2437000   0.86599551   -6.7622761    785.93284  0.026875012  0.027061944            7 
 2438000   0.86276552   -6.7762656    783.94303  0.026795974  0.027054154            5 
 2439000   0.85759586    -6.780812    783.61632  0.026773825  0.027046384            5 
 2440000   0.84442368   -6.7593733    785.35431   0.02682221  0.027038607           10 
 2441000   0.85153145    -6.762034    785.73109  0.026824085  0.027030876            7 
 2442000   0.83261218    -6.773266    785.41828  0.026802425  0.027023141            7 
 2443000   0.87837284   -6.8110321    784.71545   0.02676748  0.027015396            4 
 2444000   0.88055504   -6.7728979    785.04279  0.026767689  0.027007657           18 
 2445000    0.8538624    -6.816027    784.93804  0.026753171  0.026999863            5 
 2446000   0.86887383   -6.7676704    785.62181  0.026765529  0.026992098            7 
 2447000   0.84082816   -6.7692424    785.73673  0.026758505  0.026984392            9 
 2448000   0.86909858   -6.7829541    786.15478  0.026761805   0.02697667            8 
 2449000   0.84104732   -6.8011505    784.63684  0.026699225   0.02696894            9 
 2450000   0.86880101   -6.7812806    787.06882  0.026771048  0.026961209            6 
 2451000   0.87675008   -6.7506674    787.60524  0.026778364  0.026953464            3 
 2452000    0.8748422    -6.784199    786.60611  0.026733487  0.026945768            9 
 2453000    0.8517367   -6.7592684    788.16043  0.026775392  0.026938057            5 
 2454000   0.86545302   -6.7837323    786.89088  0.026721369  0.026930333           11 
 2455000   0.84353638   -6.7813501     785.6643  0.026668849  0.026922575            8 
 2456000    0.8829021   -6.7695085    787.15613  0.026708609  0.026914873           10 
 2457000   0.84971558   -6.7520954    787.74126  0.026717584  0.026907173            5 
 2458000   0.85626286    -6.747698    788.42605  0.026729931  0.026899446            5 
 2459000   0.85645553   -6.7589518    789.35633  0.026750587   0.02689177           13 
 2460000    0.8740493   -6.7685116    786.82729  0.026654041   0.02688407            9 
 2461000   0.88288713   -6.7798027    786.86843  0.026644604  0.026876311            7 
 2462000   0.84713566   -6.7856973    786.19036   0.02661083  0.026868541            9 
 2463000   0.86348908   -6.8213316     787.5994  0.026647699  0.026860768           10 
 2464000    0.8494237   -6.7865697     788.4591   0.02666596  0.026853038           12 
 2465000   0.87067452   -6.7845996    786.58607  0.026591821  0.026845261            4 
 2466000   0.86499678   -6.7790295    787.99171  0.026628539  0.026837509            6 
 2467000   0.82816025   -6.7730097    788.39959  0.026631523  0.026829776           21 
 2468000     0.843913    -6.770964    789.84258  0.026669455  0.026822078           16 
 2469000   0.85415944   -6.7831211    789.88049  0.026659933  0.026814363           11 
 2470000   0.85006375    -6.801854    786.95961  0.026550594  0.026806667            8 
 2471000   0.86263503   -6.7600782    789.05062  0.026610368  0.026798969            6 
 2472000   0.86611736   -6.7902748    788.04102  0.026565568  0.026791303            5 
 2473000   0.83405372   -6.7687107    789.32695  0.026598158    0.0267836            8 
 2474000   0.85125197   -6.7864369     789.7675  0.026602247  0.026775912            9 
 2475000   0.87229162   -6.7744685    791.41787  0.026647066  0.026768205            9 
 2476000   0.85310376   -6.8051509    788.59899  0.026541431  0.026760504            8 
 2477000   0.86049071   -6.7643269    790.69001  0.026601063  0.026752772            8 
 2478000   0.86117698   -6.7909805    790.10962   0.02657081  0.026745061            6 
 2479000   0.83990369   -6.8024408    788.22019  0.026496577  0.026737371            7 
 2480000   0.84624554   -6.7676144    788.94511  0.026510252    0.0267297            4 
 2481000   0.86029514   -6.7528039    791.87435  0.026597956  0.026722018            6 
 2482000   0.84701118   -6.7866168    790.89449  0.026554341  0.026714393           12 
 2483000   0.87017308   -6.8349356     790.0181  0.026514233  0.026706761            6 
 2484000   0.84970457   -6.8017506     790.9944  0.026536312   0.02669906            9 
 2485000   0.85625896   -6.8036486    790.72645  0.026516648   0.02669133           10 
 2486000    0.8663169   -6.8048003    791.20396  0.026521989  0.026683666            7 
 2487000   0.85775417   -6.8096753     792.0819  0.026540742   0.02667608            7 
 2488000   0.86609445    -6.789101    791.71121  0.026517658  0.026668504            6 
 2489000   0.86038428   -6.7785643    793.55456  0.026568721   0.02666094           20 
 2490000   0.85651208   -6.7894001    793.26692  0.026548425  0.026653352           16 
 2491000   0.84508574   -6.7808538    792.55446  0.026513932   0.02664576            9 
 2492000   0.86093139   -6.8325618    789.88159  0.026413911  0.026638107            6 
 2493000    0.8588221    -6.805788    789.33528  0.026385054  0.026630384            4 
 2494000   0.86679857   -6.7741243    793.38963  0.026509945  0.026622764           12 
 2495000   0.83519913   -6.8104114     793.2961  0.026496196  0.026615141            6 
 2496000   0.85587678   -6.7830181    791.21615  0.026416138  0.026607487           11 
 2497000   0.85299609   -6.7627055    791.50943  0.026415346  0.026599861           10 
 2498000   0.84807685   -6.7933839     790.1222  0.026358493  0.026592216           11 
 2499000   0.83446111   -6.8059925    791.51773  0.026394482  0.026584536            6 
 2500000   0.84202136   -6.8020379    790.57581  0.026352527  0.026576863            6 
 2501000   0.86145653   -6.8193189    792.69794  0.026412699  0.026569168            7 
 2502000   0.83348849   -6.8022251    793.07861  0.026414822  0.026561541            7 
 2503000   0.84106565   -6.8136042    793.36175  0.026413695  0.026553926            6 
 2504000   0.84785323   -6.7797021    793.37921  0.026403728  0.026546328            5 
 2505000   0.83940756   -6.7560233    793.56763  0.026399455  0.026538747           19 
 2506000   0.84738754   -6.8214358    792.88342  0.026366169  0.026531109            7 
 2507000   0.86987136   -6.7904194    792.90441  0.026356349   0.02652343           11 
 2508000   0.86750695   -6.8175584    790.56794  0.026268207  0.026515749           10 
 2509000   0.85135452   -6.7973752    791.24951  0.026280374  0.026508031           29 
 2510000   0.84880889   -6.7864128    794.62534  0.026381983  0.026500344           17 
 2511000   0.85130329   -6.7800183    792.66411  0.026306389  0.026492685            9 
 2512000   0.83902788   -6.7724388    791.00928  0.026241019  0.026485024           15 
 2513000   0.84409831   -6.7977109    791.12612  0.026234451  0.026477344           11 
 2514000   0.84956376   -6.8015899    794.81028  0.026346137  0.026469636            5 
 2515000   0.83691833   -6.7902846    792.64629  0.026263959  0.026461928            7 
 2516000   0.83877797   -6.7962175     793.3505  0.026276845  0.026454261           20 
 2517000    0.8439105   -6.8222407    792.67586  0.026244069  0.026446561           10 
 2518000   0.85906944   -6.7897631     793.7868  0.026270413  0.026438917            4 
 2519000   0.84859096   -6.7722288    793.74394  0.026258566  0.026431318           13 
 2520000   0.84953702    -6.797554    794.57047  0.026275479  0.026423727           15 
 2521000   0.85072271   -6.8120819    794.29864   0.02625607  0.026416093            9 
 2522000   0.85568739    -6.804679     794.5857  0.026255145  0.026408468            8 
 2523000   0.85043995   -6.7935342    794.22807  0.026232926  0.026400873            5 
 2524000   0.84489581   -6.7697738    795.10106  0.026251356   0.02639329            9 
 2525000   0.84396564   -6.8311169    794.07199  0.026206996  0.026385705            8 
 2526000   0.84649598   -6.8475889    794.49619  0.026210616  0.026378045            7 
 2527000    0.8458768   -6.8366205    794.35953  0.026195737  0.026370407           13 
 2528000   0.88018302   -6.7722551    794.56909  0.026192283  0.026362835           13 
 2529000   0.82835601   -6.8006541    794.69718  0.026186147  0.026355221            5 
 2530000    0.8330376   -6.7754444    794.51926  0.026169936  0.026347686            6 
 2531000     0.849378   -6.7710519    795.28795  0.026184905  0.026340092           12 
 2532000   0.83404354    -6.797766    795.83494  0.026192567  0.026332544            8 
 2533000    0.8729971   -6.8008221    795.83854  0.026182344  0.026324998           12 
 2534000   0.85508504   -6.7952325    795.32109  0.026154995  0.026317333            6 
 2535000   0.84020451   -6.8060449    794.59878  0.026120933  0.026309695            6 
 2536000   0.82926446   -6.8185764    794.72235  0.026114693  0.026302068            5 
 2537000   0.84651616   -6.8348823    795.68933  0.026136162  0.026294442           13 
 2538000   0.84980909   -6.8085063    795.78749  0.026129088  0.026286821            8 
 2539000   0.86534051   -6.8193449    798.22591  0.026198828  0.026279191           16 
 2540000   0.83331241   -6.8182216    797.63121  0.026169003  0.026271571           15 
 2541000    0.8403734   -6.7883793     796.8833  0.026134176  0.026263997           10 
 2542000   0.83118589   -6.8012426    797.11627  0.026131533  0.026256503           21 
 2543000   0.86018237   -6.8214178    797.89478  0.026146768  0.026248947            7 
 2544000   0.85899562   -6.7986176    796.31694  0.026084806  0.026241358           10 
 2545000   0.84188037    -6.814096    797.64468  0.026118031  0.026233803            6 
 2546000   0.83574628   -6.8147925    800.16497  0.026190265  0.026226313            7 
 2547000   0.82958136   -6.7946712    796.56029  0.026062043   0.02621878           11 
 2548000   0.83156373   -6.8225465    796.78638  0.026059209  0.026211198           11 
 2549000   0.85160182   -6.8079193    796.19425  0.026029628  0.026203608           11 
 2550000   0.82834389   -6.8129982    798.01952  0.026079069  0.026196038            9 
 2551000    0.8384185   -6.7836828     798.7327  0.026092144  0.026188484            6 
 2552000   0.84080452   -6.8165015    799.13534  0.026095067  0.026180927           10 
 2553000   0.84995209   -6.8311938    798.35939  0.026059518  0.026173384           12 
 2554000   0.83015815   -6.8524839    797.10168  0.026008277  0.026165787           14 
 2555000   0.81673587   -6.8152779    798.99501   0.02605985  0.026158215           18 
 2556000   0.84653203   -6.8169311     797.9354  0.026015108  0.026150673            7 
 2557000   0.85611732   -6.8056513    799.72074  0.026063119  0.026143129            6 
 2558000   0.83035594    -6.794474    798.69928  0.026019653   0.02613556           14 
 2559000   0.85333558    -6.806429    799.11005  0.026022862  0.026128043            7 
 2560000   0.85053455   -6.8228801    798.43241  0.025990638  0.026120473            7 
 2561000   0.85841096   -6.8020272    799.38983  0.026011644  0.026112882            9 
 2562000   0.84152423   -6.8366743     800.0156  0.026021845  0.026105375           13 
 2563000   0.83481896   -6.8218013    799.03584  0.025979836  0.026097843           12 
 2564000   0.85547444   -6.8255138    798.26753  0.025944732  0.026090316           15 
 2565000   0.83491634   -6.8068538    800.56993  0.026009419   0.02608281           16 
 2566000   0.83893138    -6.837423     799.9136  0.025977968  0.026075278           19 
 2567000   0.84222676   -6.8255702    800.38059  0.025983008  0.026067767           20 
 2568000   0.82848663   -6.8201242    799.90436  0.025957436  0.026060272            9 
 2569000   0.83506156   -6.8054902    801.54733  0.026000627   0.02605282            5 
 2570000   0.84131816   -6.8240813    801.29714  0.025982398  0.026045396           11 
 2571000   0.83838918   -6.8286903    797.72243  0.025856425  0.026037908            8 
 2572000   0.83136614    -6.805302    799.80445   0.02591383  0.026030435            6 
 2573000   0.85735442   -6.7963588    801.15604  0.025947533   0.02602298           10 
 2574000   0.84253724    -6.786726     804.1115  0.026033136  0.026015535            6 
 2575000    0.8667013    -6.824435    802.00085   0.02595472  0.026008053           11 
 2576000   0.83885895   -6.8495429    801.67495  0.025934102  0.026000611           32 
 2577000   0.85049943   -6.7933652    803.53951  0.025984333  0.025993145           36 
 2578000   0.82056053   -6.8081192    801.20644  0.025898838  0.025985741           16 
 2579000    0.8425958   -6.8378109     802.5081  0.025930855   0.02597832            7 
 2580000   0.85285059   -6.8131159    803.91467  0.025966236  0.025970956            3 
 2581000   0.84286081   -6.8153849    802.57845  0.025913033  0.025963621            9 
 2582000   0.84543943   -6.8157503    803.38461  0.025929015  0.025956227            6 
 2583000   0.83825221   -6.8195757    800.91414  0.025839274  0.025948842            5 
 2584000    0.8328801   -6.8312199     803.5944  0.025915712  0.025941432           13 
 2585000   0.83808758   -6.8531993    801.45665  0.025836772  0.025934024            7 
 2586000   0.84876557   -6.8186673    805.03269  0.025942017  0.025926668           12 
 2587000   0.84321417    -6.816372    801.68763  0.025824237  0.025919332           10 
 2588000   0.82009656    -6.804374    803.33978  0.025867458  0.025911975           14 
 2589000   0.84583347   -6.8313798    802.11044  0.025817898  0.025904618            7 
 2590000   0.83440929   -6.8309266    803.32549  0.025847023   0.02589723           12 
 2591000   0.82997526    -6.814629     804.0983  0.025861903  0.025889884            9 
 2592000   0.83229673   -6.8429481    802.80366  0.025810303  0.025882479            8 
 2593000   0.85116646   -6.8206461    803.78071  0.025831749  0.025875079           11 
 2594000    0.8427426   -6.8058185    804.78029  0.025853903  0.025867732            9 
 2595000   0.84392363   -6.7837697    804.04774  0.025820416  0.025860391            6 
 2596000   0.85168104   -6.8188269    802.77687  0.025769674  0.025853068            7 
 2597000   0.83861497   -6.8182085    804.22723   0.02580629  0.025845747            6 
 2598000   0.83894247   -6.8103103     804.4891  0.025804757  0.025838442            6 
 2599000   0.85030126   -6.8293716    805.29279  0.025820597  0.025831129            6 
 2600000   0.82387898   -6.8253702    803.72149  0.025760304  0.025823803           10 
 2601000   0.82815662   -6.8281571    805.04483  0.025792799  0.025816469           22 
 2602000   0.84752705   -6.8277543    805.59623  0.025800546  0.025809142           12 
 2603000   0.83113409   -6.8202811    805.16099    0.0257767  0.025801866            8 
 2604000   0.84605641   -6.8293911     806.3973  0.025806365  0.025794573            5 
 2605000   0.85619479   -6.8353464    805.90439  0.025780691  0.025787276           19 
 2606000   0.84741324   -6.8057959    807.76676  0.025830352  0.025780045            6 
 2607000   0.83415034   -6.8281097    806.15003  0.025768764  0.025772811           15 
 2608000   0.84991974   -6.8260407    807.25538  0.025794203  0.025765544           14 
 2609000   0.85179297   -6.8288188    806.01264  0.025744622  0.025758293           10 
 2610000   0.81385912   -6.8389064     807.0244  0.025767062  0.025751021           10 
 2611000   0.84074657   -6.8178319    806.45087  0.025738889  0.025743747            6 
 2612000   0.82622659   -6.8819134    806.89887  0.025743328  0.025736479           36 
 2613000   0.81907907   -6.8604229    805.48201   0.02568829  0.025729147            8 
 2614000   0.83342259   -6.8495913    806.25562  0.025703125  0.025721859            7 
 2615000   0.82649463    -6.806204     807.9846  0.025748394  0.025714615           10 
 2616000   0.82490794   -6.8382819    809.39972   0.02578363  0.025707398            9 
 2617000   0.83949337   -6.8200326    807.63483  0.025717578  0.025700184            7 
 2618000   0.84685702   -6.8375788    807.84214  0.025714354  0.025692938            6 
 2619000   0.83215862   -6.8299057    806.69776  0.025668123  0.025685666            6 
 2620000   0.83187233   -6.8022051    807.90949  0.025696867  0.025678438            5 
 2621000   0.83316781   -6.8103741    807.69629  0.025680284  0.025671241           11 
 2622000   0.85045223   -6.8177772    808.24623  0.025687968  0.025663972            7 
 2623000    0.8331185   -6.8135927    808.47271   0.02568537  0.025656756           14 
 2624000   0.85086616   -6.8333182    807.09652  0.025631876  0.025649538            9 
 2625000   0.83502186   -6.8001216    808.89627  0.025679247  0.025642308           11 
 2626000   0.81616184    -6.856766    808.24391  0.025648766  0.025635034            6 
 2627000   0.84207825    -6.859246    807.18306   0.02560535  0.025627777            8 
 2628000   0.82859506   -6.8487553    810.57789  0.025703256  0.025620491           13 
 2629000   0.83317308   -6.8391817    809.23159  0.025650805  0.025613255           14 
 2630000   0.83784501   -6.8116865    809.03618   0.02563486  0.025606008            9 
 2631000   0.82267494   -6.8161936    809.81673  0.025649839  0.025598798            8 
 2632000   0.83287154   -6.8168948    808.33785   0.02559327  0.025591605            8 
 2633000   0.83039207   -6.8432532    810.79692  0.025661379   0.02558442            5 
 2634000   0.84207856   -6.8557256    809.57523  0.025612985  0.025577227            7 
 2635000   0.80117435   -6.8511605    809.26494  0.025593451  0.025569962           16 
 2636000   0.83499687   -6.8244705    808.40214  0.025556466  0.025562717            9 
 2637000    0.8180021   -6.8287149    808.22333  0.025541124  0.025555465           12 
 2638000    0.8395838   -6.8308468    806.50427  0.025477138  0.025548207            8 
 2639000   0.83005182    -6.841967    808.47866   0.02552983  0.025540929           13 
 2640000   0.83393909     -6.83183    808.61486  0.025524459  0.025533693           14 
 2641000   0.82840299   -6.8526242     810.5885   0.02557707  0.025526456            7 
 2642000   0.84459479   -6.8347876    810.78997  0.025573744  0.025519193            8 
 2643000   0.81768111   -6.7920653    810.25936  0.025547338  0.025512045            9 
 2644000   0.82062367   -6.8087479    809.70785  0.025520293  0.025504864           21 
 2645000    0.8299876   -6.8314051    810.77887  0.025544388  0.025497676            8 
 2646000   0.83372748   -6.8317644    809.80516  0.025504068  0.025490509            7 
 2647000   0.84009547   -6.8504692     809.8094  0.025494566  0.025483359            8 
 2648000   0.81359208   -6.8002121    810.87084  0.025518342  0.025476181           10 
 2649000   0.83100096   -6.8367767    810.26995  0.025489806  0.025468987            8 
 2650000   0.82641556   -6.8226395    813.36043  0.025577372    0.0254618           21 
 2651000   0.84250743   -6.8569451    810.66857  0.025483106  0.025454642            9 
 2652000   0.84286827   -6.8564628    811.12385  0.025487803  0.025447448            5 
 2653000   0.82185428   -6.8506847    810.12008  0.025446667  0.025440261           17 
 2654000   0.81812248   -6.8428706    811.65771  0.025485359    0.0254331           13 
 2655000    0.8154692   -6.8321845    810.66181  0.025444501  0.025425939           22 
 2656000   0.82246771   -6.8326955     812.8333  0.025503053  0.025418768            7 
 2657000   0.83819233   -6.8293816    812.10184  0.025470513  0.025411578            8 
 2658000   0.82830574   -6.8637505    810.58709   0.02541344  0.025404408           13 
 2659000   0.81486813   -6.8832268    809.70753  0.025376317  0.025397205            6 
 2660000   0.82559901   -6.8682787    811.63545  0.025427176  0.025389998           28 
 2661000    0.8314804   -6.8515538    811.33829  0.025408314  0.025382798           14 
 2662000   0.81300794   -6.8360561    812.58111  0.025437676  0.025375613            8 
 2663000   0.82856296    -6.858987    811.87915  0.025406157  0.025368421           16 
 2664000   0.83605954   -6.8856668    811.39432  0.025381454  0.025361164           14 
 2665000   0.81216687   -6.8640298    809.94301  0.025326548  0.025353896           11 
 2666000   0.81804622   -6.8755997    811.35477  0.025361177  0.025346665            8 
 2667000   0.84222499   -6.8328997    810.91813  0.025338024  0.025339454            8 
 2668000   0.83500425   -6.8232247    811.38844  0.025343217   0.02533224           10 
 2669000   0.82305359   -6.8424454    811.15356  0.025326388  0.025325025            5 
 2670000   0.83540123   -6.8601872    809.97117  0.025279999  0.025317784           11 
 2671000   0.82970319   -6.8568248    810.83533  0.025297496  0.025310552           10 
 2672000   0.83037754   -6.8661613     813.5191  0.025371728  0.025303295            5 
 2673000   0.82959888   -6.8327473    811.65103  0.025303998  0.025296042           25 
 2674000   0.82863741   -6.8494802    812.44909  0.025319406  0.025288811            7 
 2675000   0.81947161   -6.8518695    811.21173  0.025271393  0.025281525            8 
 2676000   0.82061695   -6.8619109    811.21015    0.0252619  0.025274313           13 
 2677000   0.81789733   -6.8390253    812.50887  0.025292892  0.025267109           17 
 2678000   0.82575424   -6.8410591    814.90148    0.0253579  0.025259922            5 
 2679000   0.82240193   -6.8476877    814.37139  0.025331946   0.02525277            4 
 2680000   0.81937284   -6.8231118    812.27343  0.025257258  0.025245592           13 
 2681000   0.82699913   -6.8491157    812.00487   0.02523949  0.025238347            9 
 2682000   0.80095308   -6.8256002    814.78756  0.025316541  0.025231164           11 
 2683000   0.81950978   -6.8374064    813.69853   0.02527328  0.025223958            9 
 2684000   0.83061775   -6.8423686    816.25459  0.025343225  0.025216755           19 
 2685000   0.81635233   -6.8751648    812.73503  0.025224551  0.025209521            5 
 2686000   0.83683723   -6.8491212    813.05562  0.025225106   0.02520226           11 
 2687000   0.81478058   -6.8788757    814.64359  0.025264967  0.025195027           11 
 2688000   0.81716876   -6.8373763    813.86543  0.025231443  0.025187857            7 
 2689000   0.82627148   -6.8493957    812.05803  0.025166048  0.025180702           11 
 2690000   0.81065294   -6.8682833    814.59111  0.025235165  0.025173551           11 
 2691000   0.82350505   -6.8481314    814.08423   0.02521009  0.025166388           21 
 2692000   0.82794929   -6.8773243    812.84816  0.025162462  0.025159197           12 
 2693000   0.80752285   -6.8545838    813.74173  0.025180769  0.025151986           10 
 2694000   0.81303959   -6.9071899     813.1394   0.02515279  0.025144759           11 
 2695000    0.8315648   -6.8709974    813.53429  0.025155668  0.025137553            7 
 2696000   0.82014216   -6.8741417    814.34167  0.025171293  0.025130351           13 
 2697000    0.8068096   -6.8505248    816.12761  0.025217143  0.025123191           11 
 2698000   0.83165935   -6.8241826    814.65467  0.025162302  0.025116072            5 
 2699000   0.81368608    -6.856164    815.91897  0.025192015  0.025108937            6 
 2700000   0.83172479    -6.855821    814.46052   0.02513767  0.025101818            6 
 2701000   0.81212254   -6.8545479    815.14588  0.025149509  0.025094689           13 
 2702000   0.81397878   -6.8443121    815.70955  0.025157585  0.025087546           17 
 2703000   0.81381019   -6.8613425    813.56375  0.025082123  0.025080416           13 
 2704000   0.82540593   -6.8663929    814.41346  0.025099034  0.025073232           11 
 2705000   0.82834043   -6.8458277    817.65184  0.025189521  0.025066082            5 
 2706000    0.8233532   -6.8384569    817.88215  0.025187304  0.025058966           15 
 2707000   0.82723434   -6.8659252    815.52441  0.025105418  0.025051889           14 
 2708000   0.81616796   -6.8525145    815.37196  0.025091456  0.025044786           13 
 2709000   0.80455293   -6.8446508    814.33937   0.02505043  0.025037678           10 
 2710000   0.80771956   -6.8662467    817.62856   0.02514233  0.025030572            5 
 2711000   0.83485055   -6.8604374    816.33002   0.02509314  0.025023502           11 
 2712000    0.8167863   -6.8710892     817.4275   0.02511761  0.025016442            6 
 2713000   0.82309368   -6.8953873    816.06072  0.025066369  0.025009388            6 
 2714000   0.82398765   -6.8467267    819.53601  0.025163842   0.02500233            7 
 2715000   0.81207639   -6.8479893     816.9517  0.025075252  0.024995275           13 
 2716000   0.82443722   -6.8775932    815.27747   0.02501465  0.024988185           49 
 2717000   0.81983052   -6.8695638    817.14033  0.025062579  0.024981124           24 
 2718000   0.81356088   -6.8875268    815.52773  0.025003916  0.024974037           11 
 2719000   0.80000929   -6.9057564    817.76675  0.025063343  0.024966901           32 
 2720000   0.80952331   -6.8684173    816.47239  0.025014473  0.024959786           22 
 2721000   0.80579283   -6.8779377    816.30373  0.025000114  0.024952698           16 
 2722000   0.79956389   -6.8694569    817.37267  0.025023655  0.024945598            7 
 2723000   0.81493679   -6.8813642    816.44408  0.024986047  0.024938514            9 
 2724000   0.81125734   -6.8668554     817.8351  0.025019429  0.024931382            7 
 2725000   0.81117411   -6.8555705    817.40811   0.02499719  0.024924304           13 
 2726000   0.83017726   -6.8594482    818.50662  0.025021601  0.024917244            8 
 2727000   0.79569428   -6.8724324    818.47682  0.025011515  0.024910143            9 
 2728000   0.81990946   -6.8505615     818.9569  0.025017012  0.024903041            9 
 2729000   0.81515746   -6.8737382    816.61102  0.024936211  0.024895965            8 
 2730000   0.80888011   -6.8965957    818.26563  0.024977583  0.024888856           14 
 2731000   0.82110816   -6.8650159    819.37609  0.025002322  0.024881788           12 
 2732000   0.84364912   -6.8579327    819.61151  0.025000351  0.024874735            4 
 2733000   0.81603185   -6.8701563    819.65029  0.024992386  0.024867675            6 
 2734000   0.81700256   -6.8843177     819.7636  0.024986698  0.024860616           11 
 2735000   0.80859252   -6.8720561    819.75264  0.024977228  0.024853622            5 
 2736000   0.80299088   -6.8342563    819.87209  0.024971738  0.024846622            7 
 2737000   0.81355995   -6.8401493    819.96769  0.024965525  0.024839591           10 
 2738000   0.80423161   -6.8576607    818.53557  0.024912819  0.024832548            6 
 2739000   0.80627314    -6.911265     818.8023  0.024911838  0.024825469           10 
 2740000   0.82594562   -6.8721949    819.43735  0.024922061   0.02481843           17 
 2741000   0.81199114   -6.8634331    822.21256  0.024997342  0.024811468            9 
 2742000    0.8181028   -6.8578046    821.54343  0.024967889  0.024804468           15 
 2743000   0.80004057   -6.8671994    820.68067  0.024932576  0.024797474           18 
 2744000   0.81386336   -6.8649494     819.0581  0.024874214   0.02479045           13 
 2745000   0.81740402   -6.8587902    819.80103  0.024887706  0.024783453           19 
 2746000   0.81183511   -6.8510921    821.81106  0.024939641  0.024776451           14 
 2747000   0.83321201   -6.8603582    820.68767  0.024896483  0.024769434           11 
 2748000   0.80513237   -6.8765774    820.23908   0.02487382  0.024762409            8 
 2749000   0.81596418   -6.8669563    821.35549  0.024898614  0.024755442            8 
 2750000   0.80056375   -6.8697962    820.64771  0.024868112  0.024748436           11 
 2751000   0.82474053   -6.8936541    821.25565  0.024877489  0.024741384            8 
 2752000   0.80679601    -6.861692    819.52422  0.024816019  0.024734388            5 
 2753000   0.80814549    -6.895168    820.08614  0.024824014  0.024727394            8 
 2754000   0.81323013   -6.8880425    820.74745  0.024835011  0.024720385            9 
 2755000   0.80985945   -6.8763436    821.76135  0.024856665   0.02471337            6 
 2756000   0.80629331   -6.8647021    820.46424  0.024808425  0.024706325            6 
 2757000   0.82324032   -6.8734828    821.47551  0.024829994  0.024699322            5 
 2758000    0.8137374   -6.8606131    819.76615  0.024769342  0.024692323            5 
 2759000   0.79965075   -6.8730485    821.18423  0.024803197  0.024685321            6 
 2760000   0.81209647   -6.9036579    821.99855  0.024818797  0.024678312            8 
 2761000   0.79076696   -6.8959926    819.75989   0.02474224  0.024671327           19 
 2762000   0.81687516   -6.8826995    821.15972  0.024775517  0.024664339           10 
 2763000   0.79831875   -6.8517527    823.58876   0.02483981  0.024657368           15 
 2764000   0.79648582    -6.886622     822.3186  0.024792529  0.024650362           14 
 2765000   0.82150751     -6.86872    821.36574  0.024754844  0.024643356            7 
 2766000   0.81214249   -6.8619234    822.18779  0.024770661  0.024636367            5 
 2767000   0.80678893   -6.8675986    821.81244  0.024750405  0.024629374           11 
 2768000   0.80604246   -6.8732388     823.7079  0.024798528  0.024622373           13 
 2769000   0.79735385   -6.8682436    820.58061  0.024695456  0.024615353            5 
 2770000   0.80627368   -6.8620938    822.32671  0.024739071  0.024608332           14 
 2771000   0.81048775   -6.8905075    820.87879  0.024686599  0.024601296            8 
 2772000   0.82026961   -6.8538149    822.67348  0.024731646  0.024594262            9 
 2773000   0.80611539   -6.8733992    821.80092  0.024696506  0.024587254            5 
 2774000   0.79267204   -6.8907431    822.83109   0.02471855  0.024580265            6 
 2775000   0.79921668   -6.8829714    822.10201  0.024687748  0.024573251            5 
 2776000   0.80654391   -6.8433491    821.95508  0.024674444  0.024566243            6 
 2777000   0.81214889   -6.8729116    824.02372  0.024727635  0.024559192            7 
 2778000   0.81571218   -6.9017181    822.86342  0.024683928  0.024552153            9 
 2779000    0.8304881    -6.876571    822.10505  0.024652305    0.0245451            9 
 2780000   0.80521865   -6.8706569    819.10268  0.024553438  0.024538039           20 
 2781000   0.79869845   -6.8998899    821.63773  0.024620572  0.024530987           11 
 2782000   0.80582942   -6.9202159    818.43604  0.024515817  0.024523937            8 
 2783000   0.79869876    -6.892369     824.0089   0.02467388  0.024516896            6 
 2784000   0.80465859   -6.8743126    822.76352  0.024627739  0.024509868            6 
 2785000   0.78889457    -6.890376    824.32213  0.024665534  0.024502898            5 
 2786000   0.80197582   -6.8581929    824.24369  0.024654334  0.024495932           15 
 2787000   0.79801766   -6.8823199    824.88894  0.024664781  0.024488956            7 
 2788000   0.82312605   -6.9086623    824.29857  0.024638288  0.024481969            9 
 2789000   0.79670049   -6.8993222    822.34812  0.024571176  0.024475032            7 
 2790000    0.8108241   -6.8863251    822.99197    0.0245816  0.024468061            8 
 2791000   0.81714942   -6.9009601    821.46552  0.024527216  0.024461096           11 
 2792000   0.81501995   -6.8933337    824.22398  0.024600763  0.024454145           13 
 2793000   0.80119359   -6.8760349    822.18104  0.024531001  0.024447199            8 
 2794000   0.80288257   -6.8725937    824.12231  0.024580122  0.024440287           18 
 2795000   0.79951648   -6.9139522    823.63724  0.024556865  0.024433365           12 
 2796000   0.80479322   -6.8787069    824.36261  0.024569701  0.024426462            7 
 2797000   0.80726071   -6.8790666    823.67346  0.024540384  0.024419556           19 
 2798000   0.81484053   -6.8671812    825.22006  0.024577676  0.024412637           12 
 2799000   0.80899895   -6.8975987    824.33741  0.024542617  0.024405728           12 
 2800000   0.81096485     -6.88553    825.50616  0.024568636  0.024398827           13 
 2801000   0.79997118   -6.8720528    825.47561  0.024558955  0.024391888           22 
 2802000   0.82641571   -6.8626991     824.6415  0.024525384  0.024384956            6 
 2803000   0.79622743   -6.8997031    825.92619  0.024554828  0.024378021           11 
 2804000   0.83808589   -6.9115447     825.0735  0.024520729  0.024371057           10 
 2805000   0.80513642     -6.90242    824.08684  0.024482675  0.024364082           12 
 2806000   0.79828432   -6.8679404     825.2209  0.024507629  0.024357128            8 
 2807000    0.7996929   -6.9003932    824.89278  0.024489158  0.024350196           18 
 2808000   0.79870383   -6.8791946    825.84826  0.024508792  0.024343237            8 
 2809000   0.80319509   -6.9182615    824.68159  0.024465456  0.024336269           15 
 2810000   0.78626361   -6.8763682    825.21966  0.024472707  0.024329332           12 
 2811000   0.81491725    -6.887407    824.52365  0.024443367  0.024322415           11 
 2812000   0.81038261   -6.8896122    825.30608  0.024457861  0.024315507           13 
 2813000   0.80321301   -6.8589735    824.59816  0.024428195  0.024308589           19 
 2814000   0.80772264   -6.8741698    826.96372  0.024489568  0.024301626           27 
 2815000   0.79523625   -6.8870317    822.88782  0.024360208  0.024294627           22 
 2816000   0.78553464    -6.904865    824.99858  0.024414021  0.024287609            9 
 2817000    0.7945629   -6.8875936    826.14996  0.024439414  0.024280597           11 
 2818000   0.79240538   -6.9379833    824.23694   0.02437417  0.024273584           14 
 2819000   0.80017469   -6.9063738    824.62693  0.024377052  0.024266554           11 
 2820000   0.81164755   -6.8891521    826.73765  0.024430782  0.024259561           23 
 2821000   0.81111689   -6.8987108    825.44995  0.024384082  0.024252602           30 
 2822000   0.79461765     -6.89411    826.62352  0.024410097  0.024245648           14 
 2823000   0.80432214   -6.9068784    824.43552  0.024336862  0.024238672           11 
 2824000   0.79159113   -6.8908009    825.41983   0.02435729  0.024231684            7 
 2825000   0.78906683   -6.9084875    827.79551  0.024418747  0.024224719            9 
 2826000   0.81615593   -6.8758209    827.12334  0.024390285  0.024217778            6 
 2827000   0.78848313   -6.9016604    824.91713  0.024316623  0.024210868           10 
 2828000   0.79689686   -6.9042227    827.57956  0.024386479  0.024203957           16 
 2829000   0.80843087   -6.9079384    828.50384  0.024405085  0.024197036            9 
 2830000   0.80630489   -6.8988736    827.56096  0.024368697  0.024190114            5 
 2831000    0.8148543   -6.9088792    825.69767  0.024305242  0.024183193           21 
 2832000   0.78874075   -6.9297223    827.30141   0.02434385  0.024176251           10 
 2833000   0.77960653   -6.9148371    826.72752  0.024318376  0.024169298           12 
 2834000   0.80707159   -6.9184626     825.3589  0.024269551  0.024162393           19 
 2835000   0.78805905   -6.9053713    827.04868  0.024310661   0.02415547           11 
 2836000   0.80554679   -6.9055986    828.57841  0.024347038  0.024148541            9 
 2837000   0.81649356   -6.9085833     828.9702  0.024349965  0.024141649           14 
 2838000   0.77551446   -6.8775658    827.07694  0.024285792  0.024134754           11 
 2839000   0.80658309   -6.9076497    828.66553  0.024323868   0.02412792           19 
 2840000   0.79393155   -6.9044658     828.4016  0.024307559  0.024121041           48 
 2841000   0.79957067   -6.9088202    826.11251  0.024231858  0.024114194           26 
 2842000   0.78247504   -6.8795707    827.21008  0.024255515  0.024107317           17 
 2843000   0.78862291   -6.8925418    828.79507  0.024293442  0.024100457            7 
 2844000   0.80501409   -6.9069956    828.51814  0.024276786  0.024093541            9 
 2845000   0.77452699   -6.8910002    827.36689  0.024234531  0.024086693            8 
 2846000   0.79541962    -6.879558    829.03753  0.024274934  0.024079857           12 
 2847000   0.79452735    -6.905816    827.61786  0.024224852   0.02407301           14 
 2848000   0.80625981   -6.9381804    828.99967  0.024256779  0.024066131            8 
 2849000   0.80728675   -6.8998331    829.98207     0.024277  0.024059255           14 
 2850000   0.80096541   -6.9064271    828.77142  0.024233082  0.024052375           13 
 2851000   0.81273921   -6.8998108    827.60096  0.024190371  0.024045517            4 
 2852000   0.79103439     -6.90125    829.00429  0.024222893  0.024038688            7 
 2853000   0.80223228   -6.8817674    832.00901  0.024302168  0.024031878           21 
 2854000   0.79033152   -6.9056236    830.19664  0.024240733  0.024025081            9 
 2855000   0.80148122   -6.8929355    828.77521  0.024190753   0.02401827            8 
 2856000   0.79486811   -6.9165024    829.62433  0.024207059   0.02401145            5 
 2857000   0.79562912   -6.9029205     831.3818  0.024249848  0.024004621           25 
 2858000   0.79916428   -6.9125259    829.41187  0.024183924  0.023997795           10 
 2859000   0.78585571   -6.8880682    828.27517  0.024142333  0.023990941           19 
 2860000    0.7993976   -6.9078638    829.69718  0.024175326  0.023984096           14 
 2861000   0.80489408   -6.9157464    829.85633  0.024171512  0.023977229           23 
 2862000   0.81141879   -6.9064554    829.27605   0.02414617  0.023970381           11 
 2863000   0.79842214   -6.9098958    829.74544  0.024151398   0.02396354           13 
 2864000   0.79674904   -6.9071343    829.31562  0.024130459  0.023956734            9 
 2865000   0.77714219   -6.8986214    831.55503  0.024187174  0.023949923           14 
 2866000   0.79711498   -6.9059005    831.41157  0.024174563  0.023943146           10 
 2867000    0.7949542   -6.9115844    831.07221  0.024156267  0.023936354           13 
 2868000   0.80450459   -6.9070626    830.72171   0.02413766  0.023929526            8 
 2869000   0.77877445   -6.9103761    831.54551  0.024153175  0.023922699           11 
 2870000   0.78266978   -6.8919185    832.48837  0.024172136  0.023915912           15 
 2871000   0.78048518   -6.9203285    831.64674  0.024139288  0.023909133           10 
 2872000   0.77254533   -6.9087699    833.94282  0.024197505  0.023902352           20 
 2873000   0.80306887   -6.8871509    834.13285  0.024194595   0.02389559           14 
 2874000    0.7914499   -6.9514626    830.72844  0.024087464  0.023888808            8 
 2875000   0.78336717   -6.9374911    831.27539  0.024094939  0.023882019            6 
 2876000   0.78647649    -6.881539    837.28602  0.024260721  0.023875283            8 
 2877000   0.79248404   -6.8949958    833.29493  0.024136685   0.02386857            9 
 2878000   0.79528008   -6.8945948     831.4814  0.024075787  0.023861803            4 
 2879000   0.80263812   -6.9051366    834.37682  0.024151234  0.023855044           15 
 2880000   0.78936916   -6.9415849    834.93394  0.024158968  0.023848283           15 
 2881000   0.79958282   -6.9246277    832.63152  0.024083985  0.023841524            9 
 2882000   0.79974258    -6.901255    832.89323  0.024083195  0.023834824           17 
 2883000   0.78202423   -6.9231502    833.54114   0.02409357   0.02382812           11 
 2884000   0.78289257   -6.9105727     833.0044  0.024069706  0.023821423            7 
 2885000   0.79275192   -6.9170175    832.34558  0.024042333  0.023814749            7 
 2886000   0.77668199   -6.8948573    833.35692  0.024063205  0.023808068           20 
 2887000   0.78430416   -6.9020659    832.97421  0.024043823  0.023801371           26 
 2888000   0.79676954   -6.9172209    834.56251  0.024081328  0.023794678           10 
 2889000   0.76752437   -6.9371556    833.50336  0.024042441   0.02378792           18 
 2890000   0.78416818   -6.9420856    832.89273  0.024016515  0.023781155           16 
 2891000   0.78699019   -6.9655749    832.99588  0.024011181  0.023774394           14 
 2892000   0.79862034   -6.9231652    832.81423  0.023997644   0.02376762           18 
 2893000     0.794673    -6.940453    832.20719  0.023971863  0.023760892            8 
 2894000   0.78193564     -6.92363    832.76387  0.023979609  0.023754185           12 
 2895000   0.80053084   -6.9373061    832.63159  0.023967518  0.023747482           11 
 2896000   0.78481041   -6.8895358    834.34823  0.024008639  0.023740808            5 
 2897000   0.79196445   -6.9401222     832.4042  0.023944431  0.023734109            9 
 2898000   0.78981475   -6.9142035    832.99071  0.023953034   0.02372738            9 
 2899000   0.79040526   -6.9338885    833.85002  0.023969473   0.02372069           27 
 2900000   0.78564155   -6.9056018    834.23612  0.023972302  0.023713959           10 
 2901000    0.7759062   -6.9084221    834.14812  0.023961511  0.023707254           23 
 2902000   0.79629262   -6.9402056    834.73057   0.02396998  0.023700542           17 
 2903000   0.77489096   -6.9272653       833.46   0.02392525  0.023693821           43 
 2904000   0.77678966    -6.924508    835.26229   0.02396873  0.023687097           11 
 2905000   0.78958202    -6.918484    834.47191  0.023937806  0.023680364            5 
 2906000   0.77650976    -6.935576    834.80613  0.023939153  0.023673626            8 
 2907000   0.78916624   -6.9242424     833.2985  0.023887699  0.023666891           11 
 2908000   0.78082268    -6.923583    834.54976  0.023915342  0.023660173           15 
 2909000   0.80159007   -6.9235191    833.34151  0.023872508  0.023653466           12 
 2910000   0.80026162   -6.9095009    834.67973  0.023902627  0.023646791           14 
 2911000   0.78669152   -6.9352579    836.54818  0.023947904  0.023640113           19 
 2912000   0.77420913   -6.9240092     836.1547   0.02392842  0.023633441           12 
 2913000   0.78770038   -6.9232423    835.31351  0.023896141  0.023626772           13 
 2914000   0.78502362   -6.9059923    835.03937  0.023880101   0.02362007           10 
 2915000   0.79104812   -6.9402825    836.87995  0.023924527  0.023613395           31 
 2916000   0.77197008   -6.9218244    834.26656  0.023841637  0.023606677           13 
 2917000   0.78309182   -6.9146347    834.88908  0.023851248  0.023599995           15 
 2918000   0.77756873   -6.9347379    835.05336  0.023847765  0.023593303           14 
 2919000   0.78432877    -6.948166    834.12766  0.023813168  0.023586583           14 
 2920000   0.77659326   -6.9319845    836.12136  0.023861911  0.023579876           11 
 2921000   0.79186284   -6.9203962    835.08112  0.023824065  0.023573209           22 
 2922000   0.77667513   -6.9317089    834.33613  0.023794665  0.023566526           17 
 2923000   0.78334393   -6.9375895    835.92102  0.023831709  0.023559881           10 
 2924000   0.78608919   -6.9080968    835.51632  0.023812024   0.02355322           13 
 2925000   0.78465507   -6.9532073    836.79003  0.023840172  0.023546559            8 
 2926000   0.77789331   -6.9295054    836.04141  0.023810703  0.023539887            4 
 2927000    0.7813018   -6.9405197    834.55228  0.023760172  0.023533187            7 
 2928000   0.77648303   -6.9367986    836.94529  0.023820164  0.023526515           12 
 2929000   0.77088574   -6.9495704    835.89701  0.023782207  0.023519867           29 
 2930000   0.77894515   -6.9282649    838.10764  0.023836964  0.023513199           12 
 2931000   0.79555507   -6.8935923     835.0236  0.023741146  0.023506538           13 
 2932000   0.77601579   -6.9237596    837.23619  0.023795935  0.023499857           18 
 2933000    0.7680953    -6.903221    836.85785  0.023777073  0.023493196           18 
 2934000   0.77526499   -6.9165483    834.78918  0.023710213  0.023486525           14 
 2935000   0.78009785   -6.9533791    834.37104  0.023690262   0.02347981           18 
 2936000   0.78719202   -6.9291896    837.58109  0.023773305  0.023473121           29 
 2937000   0.78393126    -6.935778    838.15585  0.023781519  0.023466436           19 
 2938000   0.77393212   -6.9233282    835.23646  0.023690619  0.023459736           23 
 2939000   0.76899441   -6.9167142    835.27673    0.0236837  0.023453032           31 
 2940000   0.79400802   -6.9341365    835.52965  0.023682813  0.023446349           12 
 2941000   0.77295503    -6.940039      835.456  0.023672674   0.02343965           18 
 2942000   0.77271263   -6.9483702    837.73318  0.023729129   0.02343298           13 
 2943000   0.79170586   -6.9196647    836.17393  0.023676915  0.023426289           14 
 2944000   0.78144225   -6.9488396    837.11602   0.02369554  0.023419572            9 
 2945000   0.77548792   -6.9518561    837.46114  0.023697259  0.023412873           15 
 2946000    0.7859059   -6.9107907    836.92978  0.023674185    0.0234062           14 
 2947000   0.79319548   -6.9232545    838.24291  0.023703283  0.023399527           31 
 2948000   0.78955958   -6.9187454    837.22318  0.023666417  0.023392876            8 
 2949000   0.79489013   -6.9450499    835.74097  0.023616508  0.023386191           11 
 2950000   0.77785074   -6.9365736     836.8987  0.023641206  0.023379547            4 
 2951000   0.79172263   -6.9157394    839.63552   0.02371048  0.023372885            7 
 2952000   0.77558828    -6.942799    836.59838  0.023616711  0.023366228           11 
 2953000   0.79546714   -6.9306241    836.57333  0.023608007  0.023359544            7 
 2954000   0.77414765   -6.9381796    837.70002  0.023631799  0.023352886           17 
 2955000   0.77614507   -6.9465969    837.99011  0.023631983   0.02334624           12 
 2956000   0.79031574   -6.9494984    836.67154  0.023586816  0.023339569           21 
 2957000   0.77857265   -6.9180834    837.69085  0.023607565  0.023332951           10 
 2958000   0.78282692   -6.9471571      838.398  0.023619506   0.02332632           11 
 2959000   0.78173989   -6.9454837    837.53296  0.023587162  0.023319692           26 
 2960000   0.77185416   -6.9551381    836.14292   0.02354006  0.023313015           20 
 2961000   0.78381339   -6.9726525    837.32733  0.023565443  0.023306338           19 
 2962000   0.76938251   -6.9316381    839.65784  0.023623054  0.023299671           14 
 2963000   0.77742717   -6.9457069    837.61851  0.023557726  0.023293035           11 
 2964000   0.77584168   -6.9338729    838.55728  0.023576172  0.023286379           16 
 2965000   0.78862576     -6.91961    837.49074  0.023538245  0.023279744            7 
 2966000   0.77817165   -6.9582564    837.97101  0.023543802   0.02327313           14 
 2967000   0.78886338   -6.9226379    837.21149  0.023514535  0.023266501           12 
 2968000   0.78183124   -6.9485437    840.28604  0.023592937  0.023259876           21 
 2969000   0.77066006   -6.9554091    837.17595  0.023497697  0.023253218           32 
 2970000   0.76620899   -6.9576817    838.41897  0.023524662  0.023246526           13 
 2971000    0.7714128   -6.9250203    836.97533  0.023476252  0.023239838           15 
 2972000   0.76266699   -6.9632409    839.51314  0.023539512  0.023233166           20 
 2973000   0.77617606   -6.9289411     838.6371  0.023507038  0.023226511           13 
 2974000   0.78643362   -6.9254706    837.90272  0.023478556  0.023219854           20 
 2975000   0.77922777   -6.9563303    837.97038   0.02347256  0.023213222            6 
 2976000    0.7796016   -6.9732643    838.38873  0.023476387  0.023206554           15 
 2977000   0.76586047   -6.9487943    838.93171    0.0234837  0.023199874           37 
 2978000   0.77830971   -6.9573614    838.16752   0.02345443  0.023193258           41 
 2979000   0.76540367   -6.9398772    838.88473   0.02346662  0.023186595           46 
 2980000   0.79534589   -6.9328436    840.20445   0.02349565  0.023179968           29 
 2981000    0.7650449   -6.9436775    837.33267  0.023407488  0.023173357           29 
 2982000   0.77924329   -6.9301315    839.70019    0.0234658  0.023166725           26 
 2983000   0.76612588   -6.9410565    838.83896  0.023433874  0.023160092           16 
 2984000   0.76450394    -6.923504    838.57844  0.023418745  0.023153469           17 
 2985000   0.78432392   -6.9757442    838.12169  0.023398149  0.023146824           12 
 2986000   0.79184704   -6.9312774    841.60716  0.023487585  0.023140223           10 
 2987000   0.74925704   -6.9664208    840.04131  0.023436037  0.023133603           14 
 2988000   0.77973564   -6.9489877    839.00754  0.023399362  0.023126977            8 
 2989000   0.78478945   -6.9366468    839.81434  0.023414028  0.023120364            7 
 2990000   0.78130296   -6.9328427    840.56381  0.023427085  0.023113751           13 
 2991000   0.77560806   -6.9244925    841.92103  0.023457067  0.023107165           20 
 2992000   0.78167241   -6.9348058     840.8817  0.023420279  0.023100597           14 
 2993000   0.77889492    -6.941822    837.32575  0.023313447   0.02309401           17 
 2994000   0.76102986   -6.9457359     840.5302  0.023394851  0.023087418           21 
 2995000   0.76383414    -6.958909    843.86418  0.023479805  0.023080871           26 
 2996000   0.75139347   -6.9475115    839.38838  0.023347474  0.023074282            8 
 2997000   0.75962392   -6.9650317    841.05869  0.023386127  0.023067686           11 
 2998000   0.77059334   -6.9418492    839.21385  0.023327047  0.023061058           20 
 2999000   0.75254946   -6.9570958    840.32768  0.023350219   0.02305445            8 
 3000000   0.77722507   -6.9501467     842.1006  0.023391683  0.023047845            8 
 3001000   0.77275831   -6.9792552    840.87628  0.023349891  0.023041212           11 
 3002000    0.7711455   -6.9678058    839.97078  0.023316977  0.023034566           11 
 3003000   0.77250402    -6.969567    839.80116  0.023304506  0.023027899           20 
 3004000   0.76773224   -6.9749293    840.03486  0.023303231  0.023021239            7 
 3005000   0.77774722   -6.9601648    840.37661  0.023304953  0.023014613            6 
 3006000   0.77450195   -6.9519134    840.38302  0.023297378   0.02300802           19 
 3007000   0.77916322   -6.9554686    841.10626  0.023309674  0.023001445            7 
 3008000   0.78689954   -6.9354362    841.31559  0.023307723  0.022994851            6 
 3009000   0.75475744   -6.9568273    840.59955  0.023280147   0.02298823            7 
 3010000   0.78973261   -6.9465981    839.89355  0.023252867  0.022981596           14 
 3011000   0.78134673    -6.998272    841.44987  0.023288217  0.022974972            7 
 3012000   0.77406597   -6.9798008    842.07808  0.023297866  0.022968344           36 
 3013000   0.77917629   -6.9680903    842.11295  0.023291098  0.022961703            6 
 3014000   0.76287228   -6.9832287    840.21332  0.023230848  0.022955062           10 
 3015000   0.74002112   -6.9460051    840.37431  0.023227593  0.022948449            7 
 3016000   0.77077916   -6.9665149    840.36382  0.023219602   0.02294184            9 
 3017000   0.76297231   -6.9797746    839.86845  0.023198223   0.02293523            6 
 3018000   0.76409222   -6.9962921    841.21835   0.02322781  0.022928591           13 
 3019000   0.77104628   -6.9590925    839.69153  0.023177971  0.022921952           25 
 3020000   0.76324679   -6.9635958    840.93881  0.023204713  0.022915308           16 
 3021000   0.76766844   -6.9796634    840.06717  0.023172988  0.022908676           10 
 3022000   0.77161735   -6.9585645    840.60481  0.023180146  0.022902052           10 
 3023000   0.78704157   -6.9711616    841.29392  0.023191474  0.022895434            7 
 3024000    0.7854794    -6.976294    843.59854  0.023247314  0.022888827           10 
 3025000   0.76351088   -6.9593507     840.9744  0.023167339  0.022882209           10 
 3026000   0.76080528   -6.9596475    843.04476  0.023216699  0.022875599           27 
 3027000   0.76101234   -6.9773967    840.45076  0.023137616  0.022869019           11 
 3028000   0.78064373   -6.9635058    842.15491  0.023176874  0.022862409           12 
 3029000   0.77710022   -6.9655591     840.9257  0.023135405  0.022855803           11 
 3030000   0.76554974   -6.9448268    841.61507  0.023146729  0.022849212           23 
 3031000    0.7670391   -6.9838027    842.35289  0.023159378  0.022842611           12 
 3032000   0.76683085   -6.9208276    842.24767  0.023148848  0.022835994           10 
 3033000   0.77352098   -6.9906858    842.12365  0.023137808  0.022829377           41 
 3034000   0.77546029   -6.9609648    843.95034  0.023180354  0.022822743           25 
 3035000   0.77993672   -6.9571391    840.25146  0.023071155  0.022816121           14 
 3036000   0.75907651   -6.9376977    841.51462  0.023098228  0.022809511           18 
 3037000    0.7467065   -6.9844815    839.06566  0.023023424  0.022802911           18 
 3038000   0.76648715    -6.936324    841.85638  0.023092396  0.022796273           15 
 3039000   0.75322377   -6.9907984    840.10383   0.02303674  0.022789653           41 
 3040000    0.7620445    -6.990063    843.72719  0.023128487  0.022783035           26 
 3041000    0.7636082   -6.9567317    843.71198  0.023120464  0.022776463           11 
 3042000   0.76990255   -6.9821597    842.15342  0.023070168  0.022769898            7 
 3043000    0.7424953   -6.9643175    842.39077  0.023069087  0.022763299           16 
 3044000   0.76563643   -6.9886718    841.56808  0.023038986  0.022756702           12 
 3045000   0.75861786    -6.936231    842.77824  0.023064539  0.022750108           11 
 3046000   0.75532102   -6.9724701    841.82583   0.02303091  0.022743489           11 
 3047000    0.7640453     -6.99274    842.10974  0.023031116   0.02273684           14 
 3048000   0.77379011   -6.9981916    842.21206  0.023026358  0.022730205           11 
 3049000   0.75803753   -6.9623439    842.36685  0.023023036  0.022723585           11 
 3050000   0.75958048   -6.9690577     841.1215  0.022981462  0.022716972           15 
 3051000   0.75821926   -6.9713367    840.87109   0.02296709  0.022710351            7 
 3052000   0.76500705   -6.9436107    842.58151  0.023006267  0.022703742            6 
 3053000   0.76024844    -6.961957    842.14221   0.02298674  0.022697128           11 
 3054000   0.75532347   -6.9794184    843.67366  0.023021001   0.02269055           14 
 3055000   0.75834401   -7.0012388    843.06243  0.022996793  0.022683959           16 
 3056000   0.76942353   -6.9766305    842.91231  0.022985174  0.022677351           49 
 3057000   0.75367232    -6.962946    841.89413    0.0229499  0.022670757           39 
 3058000   0.76199958   -6.9789409    843.28594  0.022980323  0.022664156           26 
 3059000   0.76784501   -6.9820318    843.00868  0.022965258   0.02265752           33 
 3060000   0.76974112    -6.984572    842.87956  0.022954236  0.022650948           25 
 3061000   0.77426562   -6.9604844    843.71137  0.022969383   0.02264435           19 
 3062000   0.76678583   -7.0100182    843.07104  0.022944455  0.022637739           53 
 3063000   0.75174751   -6.9711676    844.94771  0.022988021  0.022631144           13 
 3064000    0.7519298   -6.9774003    842.59005  0.022916396  0.022624586           10 
 3065000   0.76563567   -6.9508457     844.3506  0.022956786  0.022618034            8 
 3066000   0.76871732   -7.0041581    843.43831  0.022924503  0.022611461            6 
 3067000   0.76546946   -6.9540497    845.38512  0.022969925  0.022604906           10 
 3068000   0.78388528   -6.9690408    842.90857   0.02289517  0.022598359           15 
 3069000   0.77623272   -6.9717043     843.5336  0.022904681  0.022591792           10 
 3070000    0.7452365   -6.9959583    843.45993  0.022895221  0.022585199           13 
 3071000   0.77574414   -6.9829905    844.56777  0.022917827  0.022578622            9 
 3072000   0.75862542   -6.9940039    844.15688  0.022899221  0.022572031           18 
 3073000   0.75363463   -6.9655868    841.75601  0.022826663  0.022565429           25 
 3074000   0.74910274   -7.0020747    842.53205  0.022840275  0.022558827           13 
 3075000   0.76511327   -6.9760015    844.93458  0.022897956  0.022552238           11 
 3076000   0.75592255   -6.9969569    843.55051  0.022853016   0.02254566           14 
 3077000   0.76345913   -6.9813889    841.67676  0.022794842  0.022539076           13 
 3078000   0.76595881   -6.9645235    844.58138  0.022866076  0.022532517           12 
 3079000   0.73894473   -6.9913452    843.46007  0.022828301  0.022525932           13 
 3080000   0.75924204   -6.9874827    843.30644  0.022816733  0.022519325           19 
 3081000   0.74957307   -7.0194209    842.85137  0.022797019  0.022512708           40 
 3082000   0.77018279   -6.9972291    844.39983   0.02283149  0.022506083           16 
 3083000   0.76368285   -6.9788782    844.77717  0.022834284  0.022499493           31 
 3084000   0.75443458    -6.978815    843.66942  0.022796947  0.022492925           13 
 3085000   0.75317981   -7.0064603    845.04667   0.02282676  0.022486359           22 
 3086000   0.76257144   -6.9637654    843.56431  0.022779334  0.022479821           12 
 3087000   0.75513502   -6.9874521    844.83191  0.022806174  0.022473226           21 
 3088000   0.76129401   -7.0134395    843.41921  0.022760665  0.022466645           12 
 3089000   0.75750922    -7.019897    841.84519  0.022710834  0.022460041           12 
 3090000   0.76329423   -7.0112304     843.0462  0.022735874  0.022453429            6 
 3091000   0.77116531   -6.9749428    843.36843  0.022737206  0.022446818           23 
 3092000   0.75232021   -6.9979426    843.24443   0.02272651  0.022440213           31 
 3093000   0.75797346   -7.0059192    843.98822  0.022739202  0.022433648           18 
 3094000   0.76906438   -6.9501421    846.91577  0.022810703  0.022427091           10 
 3095000   0.74909793   -6.9875322    847.14724  0.022809565  0.022420549           11 
 3096000   0.78061987   -6.9920108    845.45034  0.022756523     0.022414           13 
 3097000   0.77129568   -7.0300779    845.18306  0.022741983  0.022407437           27 
 3098000   0.78110552   -6.9742753    845.90643    0.0227541  0.022400908            6 
 3099000   0.74516203   -6.9519537    844.41704  0.022706707  0.022394384            9 
 3100000   0.73440294   -6.9761711    841.50655  0.022621144  0.022387824           25 
 3101000   0.74781456   -7.0000673    843.12248  0.022657274   0.02238122           43 
 3102000   0.74762546   -6.9920106    842.98891  0.022646382  0.022374621           42 
 3103000   0.76991377    -6.994168    843.74131   0.02265929  0.022367991           16 
 3104000    0.7629557   -7.0024489    842.90854  0.022629632  0.022361367           45 
 3105000   0.75451112     -7.03686    842.33881  0.022607053  0.022354752           26 
 3106000   0.74444115   -6.9903485    843.96263  0.022643342  0.022348162           25 
 3107000   0.75117455   -6.9887618    842.96147  0.022609202  0.022341586           21 
 3108000   0.74983879   -7.0075245    844.36978  0.022639687  0.022335037           15 
 3109000   0.73360883   -6.9810694    843.68238   0.02261398  0.022328428           11 
 3110000   0.75612664   -6.9916158    844.79395  0.022636494  0.022321838           17 
 3111000   0.74018229   -6.9852782    843.09295  0.022583654   0.02231525           15 
 3112000   0.73850059    -6.988418    845.35815  0.022637054  0.022308653           21 
 3113000   0.75742118   -6.9943409    845.82439  0.022642263  0.022302077           11 
 3114000   0.74905806   -7.0085182    844.48078  0.022599036    0.0222955           27 
 3115000    0.7383892   -7.0100943    845.02348    0.0226063  0.022288927           23 
 3116000   0.75427394    -6.994103    843.48433  0.022557882   0.02228234           23 
 3117000   0.74812897   -7.0013769    842.24502  0.022517512  0.022275733           32 
 3118000   0.75935857   -7.0002299    844.19529  0.022562414   0.02226916           21 
 3119000   0.76083314   -7.0094126    843.22061  0.022529139  0.022262559           23 
 3120000   0.74961116    -6.994206    845.40696  0.022580314  0.022255971           32 
 3121000   0.73866906   -6.9810682    842.89371  0.022505973  0.022249401           11 
 3122000      0.74556    -6.998449    843.05209  0.022502992  0.022242823           10 
 3123000   0.75825038   -6.9764112    843.58493  0.022510005  0.022236246            9 
 3124000   0.74780579    -6.985536    844.97257  0.022539815  0.022229661           19 
 3125000   0.75555111   -7.0179869    843.39385  0.022490503  0.022223089           13 
 3126000   0.76776209   -6.9936267    845.38758  0.022536457  0.022216505           31 
 3127000   0.75082371   -7.0100011    846.79324   0.02256671  0.022209943           10 
 3128000   0.75780841   -6.9903811    844.76917  0.022505573   0.02220339           21 
 3129000   0.75066206   -7.0202763    844.64778  0.022495147    0.0221968           21 
 3130000   0.75216255   -6.9940361    846.39164  0.022534389  0.022190211           17 
 3131000   0.73372047   -7.0099789    845.19023  0.022495215  0.022183646           16 
 3132000   0.75656359     -7.02297    844.77299  0.022476931  0.022177075           22 
 3133000   0.75908315   -7.0029046    845.21989  0.022481644  0.022170527           37 
 3134000   0.74678542   -7.0020121    847.78713  0.022542734  0.022164018           16 
 3135000   0.75125327   -6.9857351    845.87427  0.022484696  0.022157482           20 
 3136000   0.75406415   -7.0049677    846.17297  0.022485464  0.022150953           17 
 3137000   0.74431737   -7.0039539    845.20103  0.022452477  0.022144418           12 
 3138000   0.75048784   -7.0177922    845.83072  0.022462044  0.022137868            9 
 3139000   0.75902579   -6.9909313    846.17383  0.022463997  0.022131338           50 
 3140000   0.75085865   -6.9922354    845.72805  0.022445012  0.022124811            8 
 3141000   0.74360668   -7.0025113    846.83565  0.022467252  0.022118264           10 
 3142000   0.74600038   -6.9866548    846.77408  0.022458468  0.022111762           14 
 3143000   0.73708724   -6.9871181    847.33439  0.022466178  0.022105253           12 
 3144000   0.75347035    -7.007756    847.76539  0.022470457  0.022098733           20 
 3145000   0.74382212   -6.9956663     847.1264   0.02244638  0.022092251            6 
 3146000   0.74019775   -6.9946874    846.91305  0.022433594  0.022085794           17 
 3147000    0.7438851   -6.9942852    846.79913  0.022423449  0.022079314           10 
 3148000   0.75370845   -7.0268748    846.66818  0.022412859  0.022072823           17 
 3149000   0.74347249   -6.9797276     845.2468  0.022368128  0.022066314           19 
 3150000   0.74743152   -6.9888877    847.22742  0.022413424  0.022059834           15 
 3151000   0.74628497   -7.0267171    847.11247  0.022403271  0.022053346           21 
 3152000   0.74244108   -7.0170064    846.58482  0.022382213  0.022046855           43 
 3153000   0.76733065   -7.0129865    847.04565  0.022387294  0.022040382           28 
 3154000   0.74906067   -6.9890167    848.48411  0.022418202   0.02203387           30 
 3155000    0.7380764   -7.0039756    849.30286  0.022432722  0.022027396           13 
 3156000   0.76255756   -7.0004975    846.14053  0.022342114  0.022020948           22 
 3157000   0.75609395   -6.9997608    847.92278  0.022382082  0.022014478           10 
 3158000   0.76205719   -6.9981993    848.29519  0.022384821  0.022007997           11 
 3159000   0.74320706   -7.0233912    846.87679  0.022340318   0.02200155           18 
 3160000   0.75553114   -7.0061162    847.20605  0.022341932  0.021995055           19 
 3161000   0.74670857   -6.9768069     848.7178  0.022374718  0.021988589           22 
 3162000   0.74182197    -6.975622    847.56096  0.022337154  0.021982117           25 
 3163000   0.75667564   -6.9859394    848.01851  0.022342147  0.021975677           23 
 3164000   0.73569352   -7.0183748    846.78535  0.022302606  0.021969202           27 
 3165000   0.77181838   -6.9981871    847.77974  0.022321741  0.021962717           34 
 3166000   0.73635849   -7.0149231    848.59629  0.022336184  0.021956229           29 
 3167000   0.74747208   -7.0231333    845.26326  0.022241429  0.021949731           12 
 3168000   0.76111758   -7.0127406    847.99694  0.022306317  0.021943231            9 
 3169000   0.75105338    -7.003114    845.71891  0.022239374  0.021936736           13 
 3170000   0.75266447   -7.0117362    846.21418  0.022245378  0.021930251           18 
 3171000   0.74503483   -7.0019798    846.17195  0.022237253  0.021923763            7 
 3172000   0.73843323    -6.984163    848.69405  0.022296502  0.021917292           11 
 3173000   0.74596202   -6.9578632    849.88502  0.022320754  0.021910876           12 
 3174000   0.76252504   -6.9881028    849.86556  0.022313211  0.021904472           23 
 3175000   0.74192737   -6.9895926    849.69906  0.022301813  0.021898069           10 
 3176000   0.74614035   -7.0006288    849.49974  0.022289561  0.021891667            9 
 3177000   0.73197365   -7.0090402    849.25648  0.022276164  0.021885241           12 
 3178000   0.74394982   -6.9963242    849.63385   0.02227905  0.021878823            7 
 3179000   0.72334084   -7.0229055     848.3399  0.022238123  0.021872402           30 
 3180000   0.74409247   -7.0399592     848.7229  0.022241166  0.021865952           16 
 3181000   0.74762121   -7.0160406     850.2826  0.022275034  0.021859508           13 
 3182000   0.75176389   -6.9940603    848.00081  0.022208276  0.021853092           20 
 3183000   0.75315676   -7.0205586    851.10049  0.022282451  0.021846659           20 
 3184000   0.72948327   -7.0154739    848.56558  0.022209107  0.021840229           17 
 3185000   0.73794699   -7.0183287    850.42405   0.02225076  0.021833818           33 
 3186000   0.75602041   -7.0122022    848.67544  0.022198039  0.021827403           18 
 3187000   0.74082504   -6.9935205    848.08795  0.022175712  0.021820986           27 
 3188000   0.73984546   -7.0116641    849.67364  0.022210206  0.021814578           33 
 3189000   0.73377798   -7.0175839    849.02812  0.022186373  0.021808148           50 
 3190000   0.72293887   -7.0234123    849.28977  0.022186253  0.021801719           25 
 3191000   0.75166284   -7.0008083    847.04411  0.022120655  0.021795281           21 
 3192000   0.72714467   -6.9965409    848.22711  0.022144609  0.021788875           14 
 3193000   0.73380077   -7.0245424    849.04659  0.022159061   0.02178245           13 
 3194000   0.74176567   -7.0476417    849.85321  0.022173169  0.021776034           24 
 3195000   0.73279888   -7.0042031    849.73177  0.022163061   0.02176964           10 
 3196000   0.75655129   -6.9996472    851.02555  0.022189861  0.021763249           12 
 3197000   0.75591425   -7.0154817    850.55972  0.022170778  0.021756863           27 
 3198000   0.72613133   -7.0065984    847.68428  0.022088917  0.021750447           19 
 3199000   0.71752932   -7.0351549    847.74083  0.022083485  0.021743981           38 
 3200000   0.74595832   -7.0318725    848.17895  0.022087993  0.021737522           32 
 3201000   0.74970903   -7.0031266    848.58066  0.022091551  0.021731068           20 
 3202000   0.73659893   -7.0212506     848.6696  0.022086966  0.021724623           11 
 3203000   0.74608019   -7.0155367    849.53444  0.022102571  0.021718206           25 
 3204000   0.71953246    -7.032923    849.42265  0.022092765  0.021711762           20 
 3205000   0.72704135   -7.0265868    848.43708  0.022060246  0.021705332           21 
 3206000   0.74998705   -7.0261111    847.67359   0.02203352  0.021698892           37 
 3207000   0.73531533   -7.0207795    851.08493  0.022115293  0.021692462           25 
 3208000   0.74932259   -7.0228256    847.40364  0.022012771  0.021686027           52 
 3209000   0.72976985   -7.0248098    848.58826  0.022036674  0.021679579           24 
 3210000   0.73069654   -7.0069179    850.38188  0.022076373   0.02167315           11 
 3211000   0.74705457   -7.0134971    850.19228  0.022064577  0.021666729           37 
 3212000   0.74240445   -7.0367747    848.17373  0.022005338  0.021660287           29 
 3213000   0.72978298   -7.0448212    849.26819  0.022026875  0.021653852           22 
 3214000   0.72760675   -7.0530735    849.93003  0.022037182  0.021647385           45 
 3215000   0.74545568   -7.0546815    849.52893  0.022019931  0.021640938           17 
 3216000   0.74991051   -7.0243954    848.26625  0.021980365  0.021634506           20 
 3217000   0.72959497   -7.0327351    850.41771  0.022029264  0.021628079           24 
 3218000   0.71803078   -7.0462889    848.08842  0.021962099  0.021621641           14 
 3219000    0.7392997   -7.0375407    849.75128  0.021998325  0.021615222           13 
 3220000   0.75384853   -7.0384794    848.78751   0.02196655  0.021608825           11 
 3221000   0.74366233   -7.0238516    848.32559   0.02194778  0.021602397           13 
 3222000   0.74913998   -7.0118587    850.47409  0.021996537     0.021596           11 
 3223000   0.74628094    -7.016767     851.2074  0.022008672   0.02158962            9 
 3224000   0.74700882   -7.0169427     850.1583  0.021974729   0.02158324           11 
 3225000    0.7452864   -7.0153526    850.16704   0.02196814  0.021576874           14 
 3226000   0.74271491   -7.0438323    850.09686  0.021959518  0.021570509           11 
 3227000   0.73767594   -7.0335827    850.09359  0.021952629  0.021564143            9 
 3228000   0.74154444   -7.0244038    850.70357  0.021961575  0.021557767           27 
 3229000   0.73495157   -7.0350694    848.44743  0.021896548  0.021551384           27 
 3230000   0.71722907   -7.0326285    851.61277  0.021971434  0.021545006           26 
 3231000   0.75282769   -7.0625508    851.70274  0.021966954  0.021538654           25 
 3232000   0.73065854   -7.0068325    850.11029  0.021919098  0.021532298           13 
 3233000   0.74430757   -7.0282787    851.24191  0.021941487  0.021525941           24 
 3234000   0.70024509   -7.0242135    850.48715  0.021915253  0.021519584           21 
 3235000   0.71721306   -7.0346952    850.42707  0.021906931  0.021513221           28 
 3236000   0.73102335   -7.0379854    852.36708  0.021950121  0.021506871           15 
 3237000    0.7329574   -7.0472891    851.72719  0.021926866   0.02150053            9 
 3238000    0.7386757   -7.0532038    848.14425  0.021827884  0.021494191           20 
 3239000   0.75142521   -7.0200003    852.21773  0.021925948  0.021487845           31 
 3240000   0.73947842   -7.0268274    853.07394  0.021941202  0.021481511           17 
 3241000   0.72426437   -7.0288408    850.85441  0.021877363  0.021475178            7 
 3242000   0.73644792   -7.0363287    851.96314  0.021899114  0.021468851            8 
 3243000   0.73643955   -7.0488223    850.39592   0.02185209  0.021462518           11 
 3244000   0.72393209   -7.0334056    851.88791   0.02188368  0.021456172           11 
 3245000   0.74992642   -7.0444235    853.11383  0.021908419  0.021449858           17 
 3246000   0.72619839   -7.0362894    852.09357  0.021875477  0.021443544           11 
 3247000   0.71491613   -7.0275516    850.34636  0.021823898  0.021437219           10 
 3248000   0.73013488   -7.0225494    852.98528  0.021884885  0.021430925           16 
 3249000   0.72174548   -7.0215785     852.6292  0.021869016  0.021424629           12 
 3250000   0.72191975    -7.041566    852.28771  0.021853531  0.021418305           15 
 3251000   0.73580302   -7.0259259     851.7299  0.021832511  0.021411989           22 
 3252000   0.73444614   -7.0651245    851.42531  0.021817992  0.021405673           11 
 3253000    0.7215768   -7.0360354    851.79602  0.021820781  0.021399336           16 
 3254000   0.74087447   -7.0429841     852.5165  0.021832527  0.021392992           22 
 3255000    0.7276774   -7.0471632    852.11176  0.021815457  0.021386677           17 
 3256000   0.74475643   -7.0428348    851.10613  0.021783019  0.021380368           29 
 3257000   0.72346894   -7.0568247    852.93953   0.02182324  0.021374032           14 
 3258000   0.73041296   -7.0469775    852.40456  0.021802859  0.021367721           11 
 3259000   0.72398322   -7.0262639     852.0136  0.021786172  0.021361428           25 
 3260000   0.72826727   -7.0183237    852.96696  0.021803859  0.021355112           17 
 3261000   0.75253749   -7.0301682    851.86345  0.021768973  0.021348811           34 
 3262000   0.73738014   -7.0206352    851.78281  0.021760239   0.02134251           20 
 3263000   0.71179743    -7.028136    853.97547  0.021809569  0.021336213           24 
 3264000    0.7240691   -7.0437876    851.46608  0.021738819  0.021329922           17 
 3265000   0.74330011   -7.0817931    852.56195  0.021760131  0.021323626           37 
 3266000   0.72543759   -7.0341628    852.26847   0.02174598  0.021317317           17 
 3267000   0.72083842   -7.0241122    851.55079  0.021721018  0.021311031           10 
 3268000   0.72312892   -7.0484772    855.01373  0.021802676  0.021304754           15 
 3269000   0.73556145   -7.0434501    855.45188  0.021807175  0.021298472           13 
 3270000    0.7369264   -7.0280252    853.33049  0.021746445  0.021292172            6 
 3271000   0.73266387   -7.0325262    854.93558  0.021780688  0.021285876            9 
 3272000   0.71443344   -7.0753471    851.24964  0.021680156  0.021279578           21 
 3273000   0.73199079   -7.0452574     852.7435  0.021711567  0.021273258           22 
 3274000    0.7353305   -7.0416953    852.36826  0.021695384  0.021266941           12 
 3275000   0.72277104   -7.0641061    850.58928  0.021643493  0.021260609           21 
 3276000   0.73187395     -7.05586    851.66103  0.021664149  0.021254244           17 
 3277000   0.72246706   -7.0286052    853.13972  0.021695141  0.021247905           25 
 3278000   0.72772028   -7.0804218    850.76371  0.021628119   0.02124157           19 
 3279000   0.72790996   -7.0529138    852.38149  0.021662638  0.021235244            8 
 3280000   0.71976782   -7.0362191    853.71813  0.021689993  0.021228939           14 
 3281000   0.73151386   -7.0489449    850.89908  0.021611782  0.021222617           26 
 3282000   0.72513074    -7.018252    852.62486  0.021649016  0.021216291           20 
 3283000   0.72280842    -7.050446    853.57546  0.021666551  0.021209982           30 
 3284000   0.73555928   -7.0713509     851.9511  0.021618735  0.021203637           26 
 3285000   0.71461677   -7.0473475     849.8998  0.021560117    0.0211973           32 
 3286000   0.72193659   -7.0330196    852.36527   0.02161608  0.021190946           41 
 3287000   0.72232935   -7.0378102    850.87639  0.021571757  0.021184608           32 
 3288000   0.72747673     -7.03605    850.43562  0.021554025  0.021178268           38 
 3289000   0.72092254   -7.0467853    852.71068  0.021605115   0.02117195           52 
 3290000    0.7281273   -7.0551425    851.83178  0.021576286   0.02116564           42 
 3291000   0.73682502   -7.0383312    852.53658  0.021587577   0.02115931           26 
 3292000   0.73423436   -7.0435988    853.54506  0.021606548  0.021152992           25 
 3293000   0.72192875   -7.0777634    850.91706  0.021533482  0.021146646           23 
 3294000   0.70277385   -7.0734758    851.45679  0.021540599  0.021140302           16 
 3295000   0.72570778   -7.0598295    851.14445  0.021526162  0.021133961           18 
 3296000   0.74524925   -7.0664129    853.52343  0.021579779  0.021127639           14 
 3297000   0.73537317   -7.0659316    851.19264  0.021514322  0.021121327           22 
 3298000   0.72234348   -7.0391932     852.1071  0.021530905  0.021115018           23 
 3299000   0.72701361   -7.0480706    853.88128  0.021569195  0.021108731           15 
 3300000   0.71892947   -7.0437922    853.42862  0.021551228  0.021102437           17 
 3301000   0.73417647   -7.0436252    852.51284   0.02152158  0.021096145           25 
 3302000   0.71756533   -7.0321003    854.49575  0.021565106  0.021089869           25 
 3303000   0.71196721   -7.0402787    854.06281  0.021547654  0.021083574           23 
 3304000   0.73892313   -7.0626359    852.64411   0.02150535  0.021077283           14 
 3305000   0.71448633   -7.0609257    851.50351  0.021470083  0.021070985           26 
 3306000   0.70154795   -7.0687511    853.49087  0.021513684  0.021064681           17 
 3307000   0.72603503   -7.0592161    853.34448  0.021503489  0.021058367            9 
 3308000   0.72695306    -7.074483     849.5314  0.021400932  0.021052076           42 
 3309000   0.71048404   -7.0465598    852.57879   0.02147121  0.021045774           16 
 3310000   0.71074269    -7.039475    854.11539  0.021503409  0.021039501           15 
 3311000   0.72975602   -7.0535007    854.40301  0.021504153  0.021033252           22 
 3312000   0.72355397    -7.077657    855.58657   0.02152744  0.021027002           25 
 3313000   0.70931254   -7.0636097    855.43373  0.021517097  0.021020749           25 
 3314000   0.71673893     -7.06179     853.9248  0.021472661  0.021014514           19 
 3315000    0.7342788   -7.0441299    852.55434  0.021431733  0.021008275           25 
 3316000   0.71696632   -7.0463369    853.95798  0.021460544  0.021002044           19 
 3317000   0.72400936   -7.0902072    852.96166  0.021429044  0.020995804           10 
 3318000   0.72589976   -7.0920052    852.39107  0.021408255  0.020989548           15 
 3319000   0.73280887   -7.0613818    852.69489  0.021409433  0.020983309            8 
 3320000   0.72174616   -7.0298491    854.93903  0.021459313  0.020977093           10 
 3321000    0.7131292   -7.0384778     855.8452   0.02147559  0.020970858           16 
 3322000   0.72456362    -7.070152    853.85937   0.02141931  0.020964644           24 
 3323000   0.72216926   -7.0733505     854.6321  0.021432242  0.020958408           12 
 3324000   0.73246971   -7.0529234    853.07038  0.021386642  0.020952213           19 
 3325000      0.72886   -7.0553009    856.67838  0.021470636  0.020946022           15 
 3326000   0.71621941   -7.0615387    854.84738  0.021418305  0.020939823           12 
 3327000   0.72957185   -7.0429457    855.99641  0.021440648   0.02093361           45 
 3328000   0.72318417   -7.0574547    855.28688  0.021416438  0.020927412           22 
 3329000   0.72236337   -7.0516516    856.09079  0.021430129  0.020921207           20 
 3330000   0.72345953   -7.0558047    853.26678  0.021353023  0.020915011           26 
 3331000    0.7169202   -7.0646378     853.3093  0.021347676  0.020908816           17 
 3332000   0.71691399   -7.0654971    856.21845  0.021414027   0.02090262            9 
 3333000   0.71460448   -7.0629717    855.81216  0.021397444  0.020896448           19 
 3334000   0.70377793   -7.0702124    854.32264  0.021353795   0.02089027           17 
 3335000   0.70294027   -7.0702573    855.21454  0.021369679  0.020884096            8 
 3336000    0.7134235   -7.0570488     855.5903  0.021372659  0.020877925           16 
 3337000   0.72665119   -7.0907794    855.38928  0.021361235  0.020871745           48 
 3338000    0.7148141    -7.071441    855.26147  0.021351644  0.020865562           33 
 3339000   0.72092389   -7.0504184    855.71489  0.021356566  0.020859378           23 
 3340000   0.72969243   -7.0645742    856.28528  0.021364403  0.020853205           22 
 3341000   0.74030745   -7.0527267    854.30958  0.021308729  0.020847029           47 
 3342000   0.69331306   -7.0651453    856.05037   0.02134576  0.020840854           19 
 3343000   0.72954725   -7.0709551     854.6002  0.021303226  0.020834664           30 
 3344000   0.72771485   -7.0694359    855.44646  0.021317944  0.020828473           38 
 3345000   0.71711651   -7.0670093    855.01896  0.021300921  0.020822284           20 
 3346000   0.72161029   -7.0498403    855.13869  0.021297537  0.020816082           24 
 3347000    0.7244886   -7.0653049    856.56699  0.021326735  0.020809915           55 
 3348000    0.7336987   -7.0881343    856.68379  0.021323272  0.020803733           51 
 3349000   0.72422937    -7.094387    856.43687  0.021310761  0.020797569           30 
 3350000   0.72288951   -7.0862438    856.31721  0.021301423  0.020791417           49 
 3351000   0.72215136   -7.0806309    856.16416   0.02129126  0.020785244           17 
 3352000   0.71719169   -7.0611025    855.21156  0.021261226  0.020779081           29 
 3353000    0.7172963   -7.0908404    855.62675  0.021265204   0.02077292           36 
 3354000   0.71652925   -7.0790768    856.05375  0.021269473  0.020766763           25 
 3355000   0.71245839   -7.0794592    856.45059   0.02127299  0.020760608           31 
 3356000   0.69811095   -7.0734872    856.42017  0.021265896  0.020754479           39 
 3357000    0.7197246   -7.0669633     856.5058  0.021261687  0.020748319           22 
 3358000   0.72087243   -7.0561307    857.14585  0.021271239  0.020742173           12 
 3359000   0.72224129   -7.0720643    856.50061  0.021248899  0.020736023           13 
 3360000   0.72017667   -7.0819311    855.22928  0.021211044  0.020729859           10 
 3361000   0.70590746   -7.0739803    856.62349  0.021239301  0.020723709           10 
 3362000   0.70748606   -7.0872843    856.09652  0.021219922  0.020717547           23 
 3363000   0.72145835   -7.0798561    855.40974  0.021196594  0.020711391           14 
 3364000   0.71283004   -7.0613098    856.84247  0.021225784  0.020705214           14 
 3365000   0.70325587   -7.0605299    856.38491  0.021208145  0.020699056            8 
 3366000   0.72144146   -7.0837465    853.96553  0.021141947  0.020692902           21 
 3367000   0.72768897   -7.0748841    854.98654  0.021160938  0.020686732           18 
 3368000   0.71711356   -7.0503771    856.02235  0.021180284  0.020680546           10 
 3369000   0.71022222   -7.0851358     855.8973  0.021170904  0.020674372           14 
 3370000   0.72697944   -7.1005386    857.26484  0.021198438  0.020668194           22 
 3371000    0.7105353   -7.0671625    856.22049  0.021166333  0.020662012           11 
 3372000   0.70806928   -7.0940555    855.50797  0.021142447  0.020655857           18 
 3373000   0.71338802   -7.0835852    857.67565  0.021189733  0.020649691           15 
 3374000   0.70717604      -7.0779    855.66669  0.021133834  0.020643538           23 
 3375000   0.70048562   -7.0564984    855.71901  0.021128865  0.020637388           12 
 3376000   0.71370633   -7.0313396    856.12791  0.021132699  0.020631248           17 
 3377000   0.71591121   -7.0681763    856.57187  0.021137397  0.020625102           16 
 3378000   0.69823731   -7.0846898    856.43403  0.021127739  0.020618945           26 
 3379000   0.70745358   -7.0694705    857.34766  0.021144018    0.0206128           33 
 3380000   0.71125038   -7.0726506    858.44624  0.021164848  0.020606666           19 
 3381000   0.70761411     -7.08291    856.84976  0.021119239  0.020600544           35 
 3382000   0.72511293   -7.0799716    858.33919  0.021149694  0.020594442           30 
 3383000    0.7151887   -7.0941531     857.5526  0.021124066  0.020588322           43 
 3384000   0.70428704   -7.0704245    858.24986  0.021134995  0.020582227           13 
 3385000   0.71682145   -7.0968276    858.25226   0.02112881  0.020576128           21 
 3386000   0.71436135    -7.056179    856.75466  0.021085712  0.020570021           10 
 3387000   0.70397409   -7.0582016    856.69181   0.02107794  0.020563894           35 
 3388000   0.71756474   -7.0825583    856.89276  0.021076662  0.020557769           32 
 3389000   0.70882419   -7.0960963    857.56504  0.021086974  0.020551654           19 
 3390000   0.70915614   -7.0632859    855.16544  0.021021766  0.020545528           43 
 3391000   0.70799169   -7.0889515    856.83794  0.021056668    0.0205394           34 
 3392000   0.69742359   -7.0965395    858.77453  0.021098038  0.020533284           34 
 3393000   0.71667343    -7.097574    857.38852  0.021057779  0.020527161           27 
 3394000   0.71452475   -7.0738897    855.47579  0.021004611  0.020521034           14 
 3395000   0.70909752   -7.0921283    858.39849  0.021070164  0.020514924           55 
 3396000   0.70346987   -7.1071936    858.38149  0.021063543  0.020508814           28 
 3397000   0.69759397   -7.0908209    856.13406  0.021002209  0.020502688           79 
 3398000   0.70801348   -7.0806826    857.71183  0.021034722  0.020496591           37 
 3399000   0.71304069   -7.0929203    858.39606  0.021045309  0.020490484           25 
 3400000   0.71161967   -7.1148457    857.15263  0.021008643  0.020484354           25 
 3401000    0.7368874   -7.0802397    857.96832  0.021022452  0.020478215           20 
 3402000   0.71530052   -7.0930335    856.68127  0.020984746  0.020472087           55 
 3403000   0.71525935   -7.0998922    856.81222  0.020981786  0.020465945           32 
 3404000   0.70751853   -7.0933468    857.21233  0.020985417  0.020459806           23 
 3405000   0.69252905   -7.1015924    856.88738  0.020971301  0.020453671           39 
 3406000   0.71103207    -7.129514    856.47137  0.020954966  0.020447525           21 
 3407000   0.70219922   -7.0955266    857.96705  0.020985399  0.020441405           37 
 3408000   0.71798783   -7.0738105     857.9998  0.020980042  0.020435293           26 
 3409000   0.70916371   -7.1075952    856.07265  0.020926778   0.02042918           34 
 3410000     0.699814   -7.0947593     856.2945  0.020926063  0.020423052           32 
 3411000   0.71171894   -7.1102359    857.12151  0.020940133  0.020416951           36 
 3412000    0.6952871   -7.1348574    857.27709  0.020937795  0.020410826           41 
 3413000   0.68540197    -7.122966    856.81175  0.020920299  0.020404703           66 
 3414000   0.71352945    -7.087871    857.45803  0.020929946  0.020398588           22 
 3415000   0.70047546   -7.0870537     857.7835  0.020931759  0.020392487           21 
 3416000   0.71296462   -7.0984892    857.48124  0.020918258   0.02038639           14 
 3417000   0.69899147   -7.1042711    857.01038  0.020900653  0.020380287           15 
 3418000   0.69938485   -7.1032057    859.52177  0.020955768   0.02037419           16 
 3419000   0.70468294    -7.073398    859.31843  0.020944682  0.020368116           25 
 3420000   0.71019219   -7.1094828     858.4641  0.020917741  0.020362041           49 
 3421000   0.70286501   -7.1104587    856.87804  0.020872991  0.020355964           24 
 3422000   0.70280599   -7.0951402    858.59614  0.020908731  0.020349885           31 
 3423000   0.71438914   -7.1028556    859.13036  0.020915629  0.020343823           52 
 3424000   0.71041602   -7.0977227    858.14003  0.020885417  0.020337762           30 
 3425000   0.69323143   -7.1135104     859.2186  0.020905562  0.020331675           37 
 3426000   0.69133162   -7.1065134    857.74091  0.020863517  0.020325596           24 
 3427000   0.71050431   -7.1098264    859.44339  0.020898828  0.020319556           32 
 3428000   0.69669079   -7.0965289    856.49969  0.020821171  0.020313503           15 
 3429000   0.69851931   -7.1152383    857.61355  0.020842168   0.02030745           14 
 3430000   0.69165109   -7.0852812    857.77967  0.020840128  0.020301396           13 
 3431000   0.71446022   -7.1108074    856.01069  0.020791088  0.020295336           17 
 3432000   0.70524231   -7.0895561     858.5129  0.020845787  0.020289275           42 
 3433000   0.70088812   -7.1213881    857.73195  0.020820758  0.020283193           54 
 3434000    0.6935763   -7.0743034    857.21585  0.020802171  0.020277135           34 
 3435000   0.70165523   -7.1030509    857.09189  0.020793107  0.020271083           33 
 3436000   0.70770274   -7.0751858     859.1825   0.02083776  0.020265011           20 
 3437000   0.71428141   -7.1107341    855.84223  0.020750709  0.020258944           32 
 3438000   0.70651647   -7.1262923    858.16859  0.020801061  0.020252869           51 
 3439000   0.71529063   -7.1018682    860.32914  0.020847367  0.020246822           40 
 3440000   0.70049705   -7.0887451    857.88254  0.020782038  0.020240802           38 
 3441000   0.69390905   -7.0766631    858.02745  0.020779508  0.020234754           25 
 3442000   0.71250363    -7.102761    859.66487  0.020813114  0.020228722           34 
 3443000    0.6998847   -7.1059025    857.64291   0.02075813   0.02022267           69 
 3444000   0.68773005   -7.0888415    861.16373  0.020837295  0.020216621           47 
 3445000   0.69947383   -7.1113552    859.25897  0.020785171  0.020210598           28 
 3446000   0.68542061   -7.0713056    858.54929  0.020761977  0.020204577           25 
 3447000   0.70562572   -7.0844802    857.45596  0.020729522  0.020198551           18 
 3448000   0.71590822   -7.1255038    859.07582   0.02076266  0.020192518           17 
 3449000   0.70103485   -7.0979471     858.8062  0.020750126   0.02018647           32 
 3450000   0.70585324   -7.1125985    859.54237  0.020761893  0.020180419           32 
 3451000   0.69816763   -7.1086023    857.48419  0.020706177  0.020174369           35 
 3452000   0.69552081   -7.1264091    858.75263  0.020730799  0.020168322           34 
 3453000   0.69318464   -7.1047453    859.78315  0.020749666  0.020162288           29 
 3454000   0.68562025   -7.0906911    857.86283  0.020697327  0.020156258           31 
 3455000   0.69606918   -7.1162659    857.70929  0.020687634  0.020150235           12 
 3456000   0.69515763   -7.1006276    858.96738  0.020711983  0.020144212           18 
 3457000   0.69927256   -7.1208548    857.00523  0.020658693  0.020138187           20 
 3458000   0.70682817   -7.0889853    859.12207  0.020703732  0.020132172           20 
 3459000   0.70257442   -7.1210881     858.5803  0.020684695  0.020126154           22 
 3460000    0.7011436   -7.1032929    860.23379   0.02071854  0.020120142           33 
 3461000   0.70512234   -7.1279528    858.56683  0.020672417  0.020114115           29 
 3462000   0.71401464    -7.117831    857.25495  0.020634868  0.020108091           21 
 3463000   0.70960461   -7.1079806    858.98283  0.020670489  0.020102048           18 
 3464000   0.69137734   -7.0809498    860.84416    0.0207093  0.020096031           30 
 3465000   0.70946569   -7.1046741     857.7395  0.020628656  0.020090012           23 
 3466000   0.68953729   -7.0985904    858.76164  0.020647279  0.020083999           19 
 3467000   0.69600826   -7.1077338    859.43882  0.020657601  0.020077985           25 
 3468000   0.70408379   -7.1110045    859.89894    0.0206627  0.020071974           28 
 3469000   0.71019666   -7.1225608    859.79106  0.020654152  0.020065978           20 
 3470000   0.70248009   -7.1108925    859.66871  0.020645262  0.020059981           20 
 3471000   0.69271437   -7.1215899    860.50267  0.020659336  0.020053989           30 
 3472000   0.71026927   -7.1203149    859.26449  0.020623668  0.020047982           20 
 3473000   0.69728918   -7.0916824    860.31814  0.020643011  0.020041981           48 
 3474000   0.68819608   -7.1126183    859.46724  0.020616658  0.020035986           30 
 3475000   0.69524913   -7.1189141    859.83571  0.020619561   0.02002999           14 
 3476000   0.69654808   -7.1149886    859.89533  0.020615059  0.020024021           33 
 3477000   0.69921732   -7.0978631    859.19074  0.020592243  0.020018042           30 
 3478000   0.71011822   -7.0798531    858.77681  0.020576404  0.020012055           42 
 3479000   0.68844084   -7.1039454       860.08  0.020601705  0.020006071           21 
 3480000   0.69575785   -7.1141509    859.80456   0.02058919   0.02000006           42 
 3481000   0.68723178    -7.097005    859.54025  0.020576947  0.019994048           21 
 3482000   0.69283642   -7.1419845    860.04428  0.020583101  0.019988046           29 
 3483000   0.69453179   -7.1297319    859.65617  0.020567905  0.019982029           35 
 3484000   0.69080138   -7.1274978       858.37  0.020531238  0.019976015           26 
 3485000   0.71348264   -7.1367698     860.1042  0.020566815  0.019969997           24 
 3486000   0.69475518   -7.1224422    860.53329  0.020571172  0.019964009           33 
 3487000   0.69183288   -7.1138701    859.52974   0.02054129  0.019958016           23 
 3488000   0.69760662   -7.1207565    860.87724  0.020567595  0.019952069           36 
 3489000   0.69452946   -7.1184492    859.73145  0.020534333  0.019946098           12 
 3490000   0.68955574   -7.1446992    860.79666  0.020553884  0.019940131            9 
 3491000    0.6952261   -7.1464427    862.97387  0.020599968  0.019934187           25 
 3492000   0.69879682      -7.1011    860.27498  0.020529663  0.019928233           11 
 3493000   0.69671045   -7.1284557    860.49469  0.020529027  0.019922289           30 
 3494000   0.69153705   -7.1129235    859.44644   0.02049815   0.01991633           23 
 3495000    0.6955216   -7.1193215    859.88371  0.020502711   0.01991039           32 
 3496000   0.69459274    -7.126017    859.36094  0.020484385  0.019904461           27 
 3497000   0.69282254   -7.1304154     859.9329  0.020492157  0.019898518           15 
 3498000   0.69385123   -7.1227617    859.16309   0.02046796   0.01989258           15 
 3499000   0.69837125   -7.1208092      858.751  0.020452296  0.019886651           16 
 3500000    0.6773352    -7.097023    861.10507  0.020502502  0.019880718           23 
 3501000   0.67783549   -7.1095526    861.27164   0.02050061  0.019874789           18 
 3502000   0.69688014   -7.1220883    861.62619  0.020503193  0.019868849           29 
 3503000   0.67905171   -7.1192572     860.5645  0.020472084  0.019862921           28 
 3504000   0.69206566   -7.1190522    861.67189  0.020492577  0.019856982           38 
 3505000   0.69513322   -7.1125264    860.55866  0.020460263  0.019851051           14 
 3506000    0.6845136   -7.1457328    860.31946  0.020448742  0.019845122           24 
 3507000   0.70188164   -7.1092228    860.93513   0.02045754  0.019839184           25 
 3508000   0.69361096   -7.0988447    860.73408  0.020446933  0.019833248           41 
 3509000   0.68730386   -7.1232559    861.43945  0.020457857  0.019827321           40 
 3510000   0.67993105   -7.1482373    861.81451  0.020460933  0.019821403           26 
 3511000    0.6985743   -7.1517986    859.66065  0.020403984  0.019815448          106 
 3512000   0.69629872   -7.1341223    861.55744  0.020443181  0.019809518           29 
 3513000   0.69224477   -7.1508462    860.51527   0.02041264  0.019803596           16 
 3514000   0.68763814   -7.1189713    860.85017  0.020414774  0.019797653           46 
 3515000   0.70162505     -7.12639    860.17817  0.020393034   0.01979173           17 
 3516000   0.69137652   -7.1182035    861.64352  0.020421964  0.019785817           23 
 3517000   0.69380348   -7.0890302    861.04806  0.020402049  0.019779915           19 
 3518000    0.6847747   -7.0946592    863.02644  0.020443112  0.019774018           35 
 3519000    0.6894236   -7.1216366    861.20016  0.020394055  0.019768108           26 
 3520000   0.69628794   -7.1326829    862.59101  0.020421189    0.0197622           32 
 3521000   0.70547307   -7.1295549    862.89397  0.020422559  0.019756307           12 
 3522000   0.68917585   -7.1197647    861.35493  0.020380346    0.0197504           16 
 3523000   0.67949156   -7.1308023    861.03919  0.020367092  0.019744495           18 
 3524000   0.70030811   -7.1276081     860.4107  0.020346451  0.019738585           17 
 3525000   0.69936458   -7.1144718    859.34579  0.020315503  0.019732654           22 
 3526000   0.67874292   -7.1383023    861.23183  0.020354316  0.019726738           23 
 3527000   0.67807931   -7.1204075    862.46309  0.020377636  0.019720828           11 
 3528000   0.67143382   -7.1061661    862.11988  0.020363754  0.019714919           31 
 3529000   0.68335738   -7.1233657    862.34885   0.02036339  0.019709006           32 
 3530000   0.70925849   -7.1358891    862.81902  0.020368721  0.019703112           28 
 3531000   0.69082225   -7.1302169    860.04058   0.02029738  0.019697209           43 
 3532000   0.68551672   -7.1457153    862.39337  0.020347144   0.01969133           49 
 3533000   0.69814349   -7.1002529     861.7109  0.020325288   0.01968547           38 
 3534000    0.6987973   -7.1336287     859.9434  0.020277858  0.019679594           13 
 3535000   0.67804188   -7.1360476    861.49664  0.020308737   0.01967371           32 
 3536000   0.68720634   -7.1294166    861.18075  0.020295549  0.019667834           26 
 3537000   0.68455543   -7.1358757    860.36644  0.020270626  0.019661938           39 
 3538000   0.68468594   -7.1373979    861.96775  0.020302613  0.019656042           40 
 3539000   0.69615415    -7.152078    859.86992  0.020247479  0.019650152           28 
 3540000   0.67684266   -7.1299143    862.67292  0.020307743   0.01964425           44 
 3541000    0.6808927   -7.1381909    859.91635  0.020237135  0.019638375           25 
 3542000   0.68129483   -7.1186882    860.91195  0.020254845  0.019632473           36 
 3543000   0.68108427   -7.1356226    860.84849  0.020247636  0.019626567           25 
 3544000   0.67923852   -7.1148356    861.99437  0.020268867  0.019620654           23 
 3545000   0.68384798   -7.1339435    862.94691  0.020285541  0.019614755           21 
 3546000   0.67438023   -7.1007063    861.98007  0.020257099  0.019608857           22 
 3547000   0.68249801    -7.139349    860.59905  0.020218942  0.019602968           37 
 3548000   0.69052464   -7.1266185    860.30712  0.020206387  0.019597076           24 
 3549000   0.67898947   -7.1289083    859.87994  0.020190663  0.019591167           25 
 3550000   0.68102161   -7.1532617    859.90923  0.020185663  0.019585259           59 
 3551000   0.68897369    -7.110547    859.31764  0.020166095  0.019579355           32 
 3552000   0.67975498   -7.1348117    861.74152  0.020217284  0.019573449           22 
 3553000   0.68599852   -7.1123242    861.51054  0.020206176  0.019567561           20 
 3554000   0.68981576   -7.1158761    860.68028  0.020181023  0.019561666           41 
 3555000   0.67580127    -7.145038    860.84864  0.020179293  0.019555788           33 
 3556000   0.68308333   -7.1332111    861.27528  0.020183617  0.019549902           36 
 3557000   0.67813348   -7.1137378    862.51504  0.020206987  0.019544021           11 
 3558000   0.68788566    -7.142639    860.51096   0.02015437  0.019538125           28 
 3559000   0.67442869   -7.1575807    860.22629  0.020142041  0.019532241           20 
 3560000   0.68244994   -7.1556311    861.46256  0.020165322  0.019526345           30 
 3561000   0.67280143   -7.1448513    862.03377  0.020173027  0.019520459           31 
 3562000    0.6841161   -7.1449169    861.70915  0.020159769  0.019514556           61 
 3563000    0.6727924   -7.1446424    860.05405    0.0201154  0.019508675           30 
 3564000   0.67864658    -7.134711    860.80323  0.020127273  0.019502799           30 
 3565000   0.69511776   -7.1467168    862.13839  0.020152838  0.019496923           21 
 3566000    0.6784043   -7.1677698    861.76403  0.020138438  0.019491034           40 
 3567000   0.69339657   -7.1652963    861.55325  0.020127868  0.019485151           54 
 3568000   0.68308204   -7.1451637    863.06422  0.020157516  0.019479282           17 
 3569000   0.68587162   -7.1366942    862.10782  0.020129537  0.019473426           56 
 3570000    0.6823196   -7.1477152    863.17143  0.020148726   0.01946756           38 
 3571000   0.68117231   -7.1440146    863.59265  0.020152913  0.019461699           60 
 3572000   0.67732254   -7.1663803    863.76879  0.020151381  0.019455822           53 
 3573000   0.67653359   -7.1363293    860.94415  0.020079862  0.019449946           43 
 3574000   0.67373995   -7.1345356     861.1094  0.020078096  0.019444075           37 
 3575000   0.68836214   -7.1187874    862.11098  0.020095827  0.019438236           44 
 3576000   0.67239382   -7.1236907    860.96844  0.020063582  0.019432392           47 
 3577000   0.67024457   -7.1323093    861.84586  0.020078415  0.019426531           37 
 3578000   0.70007957   -7.1614479    862.91414  0.020097683  0.019420665           31 
 3579000   0.68504885   -7.1455404    859.97778  0.020023698  0.019414804           34 
 3580000   0.66261715   -7.1360796    861.44456  0.020052248   0.01940895           51 
 3581000    0.6845698   -7.1530797    861.10573  0.020038763  0.019403108           75 
 3582000   0.68737247   -7.1417888    861.47586   0.02004178  0.019397253           73 
 3583000   0.67409012   -7.1575597    861.99755   0.02004832  0.019391375           82 
 3584000   0.68685718   -7.1251273    861.41848  0.020029262  0.019385497           70 
 3585000   0.67222561   -7.1574736    861.88772  0.020034582  0.019379632           63 
 3586000   0.69403695   -7.1660503    861.90891  0.020029488   0.01937376           43 
 3587000   0.67270255     -7.14271    861.42461  0.020012653  0.019367895           67 
 3588000   0.68873116    -7.161059    861.55462  0.020010094  0.019362031           57 
 3589000   0.65988462   -7.1503027    861.33356  0.019999386  0.019356151          105 
 3590000    0.6821016   -7.1522832    861.51575  0.019998044  0.019350273           70 
 3591000   0.68332614   -7.1659349    861.49482   0.01999199  0.019344403           56 
 3592000   0.68372206   -7.1523017    860.60867  0.019965866  0.019338531           37 
 3593000   0.67966666   -7.1599168    860.60911  0.019960319  0.019332675           92 
 3594000   0.68040812   -7.1698444    859.19917  0.019922073  0.019326815           74 
 3595000   0.68434778   -7.1568759    860.76316  0.019952785  0.019320936          151 
 3596000   0.67717923    -7.137772    861.97449  0.019975308  0.019315064           77 
 3597000    0.6725782   -7.1776391    860.97297  0.019946552  0.019309206           94 
 3598000   0.68971487   -7.1564114    860.23869  0.019924001  0.019303326          137 
 3599000   0.67109307   -7.1844796    860.72741  0.019929782  0.019297451          103 
 3600000   0.66499555   -7.1692105    860.25391  0.019913285  0.019291578          123 
 3601000   0.68333695   -7.1639672    861.63852  0.019939797  0.019285715          150 
 3602000   0.67237001   -7.1707637    860.49249  0.019907748  0.019279854          158 
 3603000   0.68578047    -7.186377    860.04349  0.019891837  0.019274004          182 
 3604000   0.68819256   -7.1626008    860.02187  0.019885818   0.01926815          217 
 3605000   0.65992761   -7.1560071    863.27045  0.019955396  0.019262307          197 
 3606000   0.67570591   -7.1682821    862.06988  0.019922118  0.019256451          253 
 3607000   0.66040965   -7.1656914    862.68519   0.01993081  0.019250607          250 
 3608000    0.6757839   -7.1678801    861.62245   0.01990074  0.019244762          180 
 3609000   0.65504705   -7.1711989    862.73756  0.019920974  0.019238911          136 
 3610000   0.68059861   -7.1959805    861.07568  0.019877093  0.019233074          164 
 3611000   0.67023157   -7.2063473    861.66854   0.01988527  0.019227232          185 
 3612000   0.66322963   -7.1731345     860.8675  0.019861284  0.019221394          155 
 3613000   0.67509075   -7.1727253    860.84934  0.019855368  0.019215552          122 
 3614000    0.6747179   -7.1877202    860.45715  0.019840831  0.019209712          173 
 3615000   0.66757961   -7.1716279     860.1382   0.01982799  0.019203873          125 
 3616000   0.67813478   -7.1925383    860.35231  0.019827441  0.019198023          141 
 3617000   0.67325519   -7.1997373    860.51376  0.019825679  0.019192192          138 
 3618000   0.66692983   -7.1744574     860.1683  0.019812242  0.019186365          145 
 3619000   0.68893834   -7.1714615    860.91502  0.019823962  0.019180532          168 
 3620000    0.6687637    -7.178242    860.94147  0.019819095  0.019174701          251 
 3621000   0.65703247   -7.1803014      861.788  0.019833103  0.019168872          237 
 3622000   0.66699133    -7.164099    861.24154  0.019815055  0.019163043          256 
 3623000   0.65355014   -7.1885311    860.84273  0.019800412  0.019157226          219 
 3624000   0.66240349   -7.1802381    860.93541   0.01979708  0.019151392          262 
 3625000   0.66517884   -7.1831474     860.7204  0.019786676  0.019145564          239 
 3626000   0.67825003   -7.1652425    861.41907  0.019797276  0.019139732          273 
 3627000   0.68651381   -7.1794497     859.4461  0.019746487  0.019133909          320 
 3628000    0.6704794   -7.1752189    861.79649  0.019795032   0.01912806          285 
 3629000    0.6679502    -7.197921    859.09465  0.019727534  0.019122203          337 
 3630000   0.68258041   -7.1765252    859.84454  0.019739315  0.019116339          256 
 3631000   0.68986434   -7.1811985    860.12261   0.01974026  0.019110493          284 
 3632000   0.66648666   -7.1929144    859.60544  0.019722959  0.019104657          326 
 3633000   0.67747636   -7.1720646    860.03692  0.019727427  0.019098823          295 
 3634000   0.66322994   -7.1745398    860.39039  0.019730104  0.019092999          297 
 3635000   0.66506872   -7.1910272    859.86598  0.019712654  0.019087152          400 
 3636000   0.68192637   -7.2029695     861.5299  0.019745368  0.019081298          369 
 3637000   0.66465336   -7.1928965     861.1511   0.01973126  0.019075452          388 
 3638000   0.67064419   -7.1858986    860.86347  0.019719248  0.019069604          330 
 3639000   0.68072444   -7.2019828    859.97709   0.01969353  0.019063773          398 
 3640000    0.6824488   -7.1813437    860.54673  0.019701161  0.019057949          317 
 3641000    0.6780854   -7.2052672    861.38767  0.019714998  0.019052118          375 
 3642000   0.68367326   -7.2044647    861.08165  0.019702582   0.01904628          342 
 3643000   0.67471649   -7.1778826    858.67331  0.019642083  0.019040437          347 
 3644000    0.6765095   -7.2082106    859.23393  0.019649514  0.019034572          359 
 3645000   0.67064948   -7.2140479     859.9651  0.019660839  0.019028701          341 
 3646000   0.68139145    -7.205395    858.56243  0.019623387  0.019022836          355 
 3647000   0.66178603   -7.2185371     859.6778  0.019643492  0.019016974          324 
 3648000   0.66615781   -7.1939199    861.82188  0.019687086  0.019011113          356 
 3649000   0.66875238   -7.2097012    860.26767  0.019646197  0.019005267          371 
 3650000   0.67629759   -7.2078009    860.35683   0.01964285  0.018999415          347 
 3651000   0.65758178   -7.2186435    860.90364  0.019649951  0.018993578          413 
 3652000   0.65930737   -7.2118203    861.66169  0.019661868  0.018987742          347 
 3653000    0.6645377   -7.1864912    861.29295  0.019648073  0.018981911          409 
 3654000   0.66802839   -7.2327294     859.6187  0.019604513  0.018976065          486 
 3655000   0.66652562   -7.2297717    860.05577  0.019609115   0.01897021          597 
 3656000    0.6548403   -7.2027739    860.46052  0.019612977  0.018964357          516 
 3657000   0.66007538   -7.2073929    858.97757  0.019573821  0.018958509          419 
 3658000   0.67048648   -7.2167578    860.99034  0.019614323   0.01895266          503 
 3659000   0.66214046   -7.2265653    859.18422  0.019567829  0.018946799          395 
 3660000   0.67482239   -7.2365783    859.79078  0.019576293  0.018940949          679 
 3661000   0.68483148   -7.2238074    860.21154  0.019580523   0.01893508          461 
 3662000   0.65135944   -7.2455005    859.38837  0.019556444  0.018929211          606 
 3663000   0.65281542   -7.2219427    860.33509  0.019572643  0.018923347          565 
 3664000   0.65146119   -7.2450708    857.99753  0.019514136  0.018917468          594 
 3665000   0.66127521   -7.2202766    858.70257  0.019524842  0.018911579          540 
 3666000   0.65786493   -7.2412577    856.70869  0.019474193   0.01890568          756 
 3667000   0.66780209    -7.249329    860.02844  0.019544324  0.018899777          696 
 3668000   0.65190557   -7.2411789    857.83776  0.019489226  0.018893885          541 
 3669000   0.66962765   -7.2370864    857.87287  0.019484711  0.018887991          546 
 3670000   0.66252947   -7.2495211    857.74315  0.019476457  0.018882087          721 
 3671000   0.65566858   -7.2593447    856.78599  0.019449423  0.018876192          685 
 3672000    0.6868452   -7.2649669    858.43399  0.019481527  0.018870293          748 
 3673000   0.66594502   -7.2401164    857.33828  0.019451363  0.018864388          596 
 3674000   0.65758879   -7.2644082    858.62442  0.019475241  0.018858487          830 
 3675000   0.65042995   -7.2463925    859.14357  0.019481714  0.018852583          595 
 3676000   0.66137156   -7.2512663    858.57794  0.019463591   0.01884669          773 
 3677000   0.68393515   -7.2578924    858.83403  0.019464102  0.018840791          810 
 3678000   0.65793234   -7.2256756    857.93536  0.019438449  0.018834892          680 
 3679000   0.65687205   -7.2368924    858.08354  0.019436521  0.018828996          649 
 3680000   0.66126405   -7.2730498    858.75567   0.01944646  0.018823116          778 
 3681000   0.67019477   -7.2633366    858.91429  0.019444768  0.018817243          663 
 3682000    0.6552441   -7.2608022    857.98979  0.019418563   0.01881135          723 
 3683000   0.64777065   -7.2566101    858.21616  0.019418412  0.018805467          811 
 3684000   0.66959936   -7.2349143    858.01179  0.019408519  0.018799567          757 
 3685000   0.66737631   -7.2285293    856.73064  0.019374279  0.018793686          761 
 3686000   0.66010249   -7.2290837    858.23179  0.019402961  0.018787808          730 
 3687000    0.6719788    -7.252949    858.36234   0.01940065   0.01878193          810 
 3688000   0.68565758   -7.2361896    859.16071  0.019413429  0.018776052          749 
 3689000   0.66248374   -7.2444804     857.9628  0.019381106  0.018770196          832 
 3690000   0.67772608   -7.2351566    856.15578  0.019335045  0.018764317          811 
 3691000   0.65691621   -7.2616102    857.48704  0.019359863  0.018758442          827 
 3692000   0.65445232   -7.2678694    859.05701  0.019390055  0.018752569          697 
 3693000   0.64342131   -7.2743498    857.61554  0.019352278  0.018746678          859 
 3694000    0.6663362    -7.276238    856.35518  0.019318606    0.0187408          851 
 3695000    0.6550139    -7.267569    856.79134  0.019323215  0.018734918          865 
 3696000   0.64868662    -7.267413    858.60308  0.019358836  0.018729028          876 
 3697000   0.65880932    -7.259005    857.16265  0.019321131  0.018723157          791 
 3698000   0.64840071   -7.2735127    858.48804  0.019345773  0.018717276          950 
 3699000    0.6604537   -7.2822211    858.03812  0.019330407  0.018711397         1019 
 3700000   0.66382832     -7.26936    858.32623  0.019331672  0.018705521          933 
 3701000   0.67091472   -7.2415473    856.63735  0.019288421  0.018699645          893 
 3702000   0.65267497   -7.2916686    857.32035  0.019298585  0.018693767          925 
 3703000   0.64469932   -7.2793531    857.40928  0.019295375  0.018687867          911 
 3704000    0.6558016    -7.271289    857.17527  0.019284901  0.018681971          969 
 3705000   0.66828441   -7.2900762     858.2823  0.019304595  0.018676089          994 
 3706000   0.66503947   -7.2779767    857.40246  0.019279602  0.018670202         1015 
 3707000   0.65805337   -7.2649023    858.22195  0.019292823  0.018664326         1078 
 3708000    0.6510067   -7.2654997    858.81713  0.019300996  0.018658462         1081 
 3709000   0.66521644   -7.2806298    857.93467  0.019275965  0.018652595         1046 
 3710000   0.67269396   -7.2847618    855.61574  0.019218682  0.018646716         1099 
 3711000   0.65359363    -7.259476    857.34934  0.019252433   0.01864085         1136 
 3712000   0.66258401    -7.290959    858.76129  0.019278944  0.018634978         1141 
 3713000   0.66089202   -7.2801251    857.39389  0.019243062  0.018629103         1046 
 3714000   0.65620817   -7.2789323    856.51253  0.019218106  0.018623242         1193 
 3715000   0.65355049   -7.2757455    857.61257  0.019237608  0.018617373         1078 
 3716000   0.65229136   -7.2909643    857.65097  0.019233292    0.0186115         1121 
 3717000   0.65361123   -7.2858024    857.27999  0.019219801  0.018605632         1015 
 3718000   0.64193146   -7.2775807    856.87541  0.019205563  0.018599753         1015 
 3719000   0.64380881   -7.3024378    858.51653  0.019237173  0.018593873         1080 
 3720000    0.6509535   -7.2945666    856.50205  0.019186874  0.018587985         1057 
 3721000   0.65650757   -7.2879171    856.79857  0.019188358  0.018582104         1068 
 3722000   0.65582785   -7.2882667    856.93548  0.019186268  0.018576244         1056 
 3723000   0.64519861   -7.3190657     856.2248  0.019165207   0.01857037         1190 
 3724000   0.66944418   -7.3119592    857.42938  0.019187016  0.018564501         1148 
 3725000   0.65040738    -7.300218     858.5303  0.019206494  0.018558629         1139 
 3726000   0.65382987   -7.3230619    857.17533  0.019171035  0.018552776         1121 
 3727000   0.65106408    -7.302812    858.86331  0.019203634  0.018546916         1140 
 3728000   0.65295324   -7.3365023    857.32534  0.019164104  0.018541044         1178 
 3729000   0.63984735   -7.3052289    857.96225  0.019173198   0.01853517         1169 
 3730000   0.66018379   -7.3185759    856.54157  0.019136317  0.018529292         1087 
 3731000   0.64890081    -7.305374    855.59321  0.019110006  0.018523427         1182 
 3732000     0.643375   -7.2968014    856.86192  0.019133216   0.01851756         1210 
 3733000   0.65441152   -7.2910857    857.91591  0.019151619  0.018511699         1081 
 3734000   0.64591841   -7.2965622    856.76506  0.019120806  0.018505844         1175 
 3735000   0.65151828   -7.3106434    856.62214  0.019112497  0.018499968         1221 
 3736000   0.66326724   -7.3136215    855.92981  0.019091939  0.018494097         1197 
 3737000   0.64479895     -7.30528    857.33189  0.019118096   0.01848823         1153 
 3738000   0.63809673   -7.3035888    857.26555  0.019111502  0.018482364         1120 
 3739000   0.64618702   -7.2924686      856.437  0.019087925  0.018476492         1250 
 3740000   0.64205081   -7.3092558    856.43783  0.019082839  0.018470632         1140 
 3741000   0.66453941   -7.3278671    857.12129  0.019092963  0.018464761         1188 
 3742000   0.65160181   -7.3106664    856.55276    0.0190752  0.018458883         1179 
 3743000   0.64852236   -7.3069587    856.27071  0.019063824  0.018452999         1206 
 3744000   0.65266667   -7.3066335    856.11136  0.019055185  0.018447114         1244 
 3745000   0.65229733    -7.340359     855.7515  0.019042089   0.01844123         1227 
 3746000   0.65329735   -7.3199976     856.4772   0.01905315  0.018435351         1207 
 3747000   0.65679665   -7.2951224     855.1706  0.019019006  0.018429483         1238 
 3748000   0.64743222    -7.328356    855.04303  0.019011095  0.018423617         1242 
 3749000   0.65168638   -7.3096557    857.93062   0.01907021  0.018417748         1155 
 3750000   0.65082737   -7.3120853     858.7587  0.019083527  0.018411893         1240 
 3751000   0.64885949   -7.3049732    856.55283  0.019029433   0.01840603         1287 
 3752000   0.64127566   -7.3164174    856.69644  0.019027551  0.018400181         1304 
 3753000   0.65825979   -7.3194667    855.78268  0.019002191   0.01839433         1311 
 3754000   0.64828112   -7.3034243    856.56427  0.019014479  0.018388485         1330 
 3755000   0.64035395   -7.3252224     855.6164   0.01898838  0.018382628         1372 
 3756000   0.65716831   -7.3164891    855.04788  0.018970711  0.018376779         1371 
 3757000   0.64882752   -7.3187115    855.20066   0.01896905  0.018370935         1280 
 3758000   0.65190045   -7.3181668    855.68749  0.018974798  0.018365082         1364 
 3759000   0.66429624   -7.3080983    856.50828  0.018987946  0.018359239         1393 
 3760000   0.65629451   -7.3456865    856.13619   0.01897465  0.018353386         1385 
 3761000    0.6351285   -7.3385411    857.38541  0.018997284   0.01834754         1411 
 3762000   0.65116206   -7.3178482    857.00312  0.018983766  0.018341693         1351 
 3763000   0.64684708   -7.3325414    857.21818  0.018983483  0.018335843         1381 
 3764000   0.64107523   -7.3184267    855.66326  0.018944015  0.018330008         1455 
 3765000   0.66268626   -7.3337518     858.6799  0.019005753   0.01832418         1383 
 3766000     0.662506   -7.3269186    855.92156   0.01893967  0.018318353         1339 
 3767000   0.65244067   -7.3407111     856.3225  0.018943512  0.018312524         1392 
 3768000   0.65638054   -7.3372734     856.6033  0.018944694  0.018306704         1355 
 3769000   0.65078779   -7.3434763    854.60861  0.018895565  0.018300866         1360 
 3770000   0.65199971   -7.3158987    856.60639  0.018934712  0.018295037         1340 
 3771000   0.65405304   -7.3261858    856.15878    0.0189198  0.018289214         1427 
 3772000   0.66445063   -7.3261341    857.40309  0.018942274  0.018283399         1363 
 3773000   0.63864631   -7.3388227    855.30153  0.018890837  0.018277584         1446 
 3774000   0.63564409   -7.3101237    856.34855   0.01890895  0.018271762         1397 
 3775000   0.64779665   -7.3194827    856.28384  0.018902513  0.018265952         1419 
 3776000   0.64624529   -7.3377086    856.99534  0.018913209  0.018260142         1447 
 3777000   0.63070921   -7.3250826     856.9194  0.018906526  0.018254332         1402 
 3778000   0.63973753   -7.3299213    856.67624  0.018896158  0.018248523         1443 
 3779000   0.66323492   -7.3390626    857.45945  0.018908429  0.018242706         1427 
 3780000   0.65194954   -7.3287385    856.02753  0.018871859  0.018236903         1418 
 3781000   0.65811693   -7.3396206    857.05466  0.018889506  0.018231095         1424 
 3782000   0.65312111   -7.3445607    855.99538  0.018861171  0.018225289         1388 
 3783000   0.65052422   -7.3441904    857.10613  0.018880653  0.018219471         1427 
 3784000   0.65008879   -7.3286778    857.17467  0.018877173  0.018213666         1458 
 3785000   0.64139245   -7.3163396    856.44986  0.018856228  0.018207861         1443 
 3786000   0.64068441   -7.3359144    856.99739  0.018863299  0.018202057         1484 
 3787000   0.65082765   -7.3510214    857.62399  0.018872106  0.018196241         1539 
 3788000   0.63442284   -7.3437843    857.85611  0.018872231   0.01819044         1440 
 3789000   0.63304783     -7.34382    857.57783  0.018861129  0.018184637         1511 
 3790000   0.65112763   -7.3513416    854.88274  0.018796894  0.018178819         1462 
 3791000   0.66100681   -7.3429164    855.42922  0.018803948  0.018173014         1457 
 3792000    0.6465627   -7.3594259    856.25965  0.018817239   0.01816722         1419 
 3793000   0.65804857   -7.3405152    856.26492  0.018812394  0.018161412         1418 
 3794000   0.63840157   -7.3364653    855.80789  0.018797397  0.018155597         1458 
 3795000   0.64967146   -7.3506207    856.06915  0.018798181  0.018149791         1478 
 3796000   0.62831335   -7.3462874    856.05887  0.018793003  0.018143982         1458 
 3797000   0.65506002   -7.3316251    855.39891  0.018773569  0.018138171         1454 
 3798000   0.64570792   -7.3523444    855.24602  0.018765272  0.018132367         1473 
 3799000   0.65412958   -7.3399709     855.1652  0.018758559  0.018126553         1492 
 3800000   0.63557495   -7.3712146     854.8719  0.018747191  0.018120731         1495 
 3801000   0.64192062   -7.3360682    856.20808  0.018771553  0.018114915         1466 
 3802000   0.64702431   -7.3453144    854.40514  0.018727099  0.018109101         1491 
 3803000   0.64080327   -7.3558667    855.25262  0.018740745  0.018103285         1525 
 3804000   0.64124953   -7.3532187    855.71744  0.018746001  0.018097465         1545 
 3805000   0.64506092   -7.3605946    853.33786  0.018688959  0.018091646         1574 
 3806000   0.63576476    -7.375632    854.38565   0.01870699  0.018085824         1532 
 3807000   0.62071589   -7.3487922    853.97475  0.018693082  0.018079993         1524 
 3808000   0.65665722   -7.3624187    855.38077  0.018718942   0.01807417         1478 
 3809000   0.64201284   -7.3827486    854.08463  0.018685671  0.018068355         1459 
 3810000    0.6470521   -7.3663757    856.37216    0.0187308  0.018062542         1473 
 3811000   0.64137195   -7.3719258    856.20155  0.018722154  0.018056731         1527 
 3812000   0.64369408   -7.3879069    854.85719  0.018687854  0.018050917         1540 
 3813000   0.65588009   -7.3850127    854.16764  0.018667883    0.0180451         1546 
 3814000   0.64072266   -7.3768455    855.32673  0.018688313  0.018039287         1533 
 3815000   0.65140171   -7.3826052     855.5231  0.018687704  0.018033478         1528 
 3816000   0.64255733   -7.3631128    856.43517  0.018702725  0.018027678         1452 
 3817000   0.62899563   -7.3579198    855.29178  0.018672862   0.01802188         1505 
 3818000    0.6277695    -7.371481     855.3719   0.01866972  0.018016079         1471 
 3819000   0.64935932   -7.3685122    855.40516  0.018665557  0.018010281         1504 
 3820000   0.64134539   -7.3803094    855.65486  0.018666118  0.018004498         1483 
 3821000    0.6443053   -7.3667088    855.91015  0.018666801  0.017998705         1543 
 3822000   0.62247258   -7.3683482    854.14206  0.018623366  0.017992916         1449 
 3823000   0.63536887   -7.3703199    856.68354  0.018673894  0.017987133         1472 
 3824000   0.63313956   -7.3674009    856.94918  0.018674799  0.017981358         1493 
 3825000   0.63544735   -7.3461179    855.75342  0.018643865  0.017975581         1559 
 3826000   0.64253767   -7.3554571    855.33254  0.018629825  0.017969811         1506 
 3827000   0.63530964   -7.3649991    854.39992  0.018604649  0.017964035         1548 
 3828000   0.62417108   -7.3856058    854.79085    0.0186083  0.017958258         1545 
 3829000   0.63059508   -7.3644151    855.14654  0.018611181  0.017952498         1562 
 3830000   0.63328039   -7.3669569    857.10967  0.018649035  0.017946728         1534 
 3831000   0.63133567   -7.3642858    855.05902  0.018599561  0.017940964         1550 
 3832000   0.63175006   -7.3796808    855.65191  0.018607601  0.017935198         1515 
 3833000   0.64272411   -7.3734743    854.83254  0.018584932  0.017929428         1512 
 3834000   0.63973739    -7.369085    854.55822  0.018574122   0.01792366         1511 
 3835000   0.64651249   -7.3584791    854.56324  0.018569388  0.017917894         1491 
 3836000   0.64028026   -7.3795529    855.02082  0.018574488   0.01791212         1483 
 3837000   0.65154977   -7.3755212    853.86109  0.018544459  0.017906354         1599 
 3838000   0.64410359   -7.3881455    854.81253  0.018560286  0.017900579         1595 
 3839000   0.63903262   -7.3780555    855.37045  0.018567562  0.017894812         1544 
 3840000   0.63413144    -7.370609      854.549    0.0185449  0.017889056         1611 
 3841000   0.64578249   -7.3690148    854.12776  0.018530933  0.017883298         1643 
 3842000   0.63881226   -7.3689574    855.48159  0.018555474  0.017877538         1600 
 3843000   0.64247708   -7.3892569    856.26264  0.018567583  0.017871787         1634 
 3844000   0.63947908   -7.3799683    854.24823  0.018519082  0.017866029         1606 
 3845000   0.63069257   -7.3946614    855.21277  0.018535171  0.017860271         1667 
 3846000   0.63733416   -7.3662495    853.94048  0.018502784   0.01785451         1613 
 3847000   0.64148058     -7.37812    854.18789  0.018503334  0.017848747         1623 
 3848000   0.64579247   -7.3838371    854.06017  0.018495759  0.017842982         1684 
 3849000   0.64641712   -7.3941379    855.59234  0.018524126   0.01783722         1673 
 3850000   0.64659323   -7.3785462    854.94114   0.01850522  0.017831462         1775 
 3851000    0.6343219   -7.3865295    854.03543  0.018480815  0.017825703         1731 
 3852000   0.64294621   -7.3683843    856.00038  0.018518527  0.017819947         1717 
 3853000   0.64430845   -7.3994592    854.28512  0.018476623  0.017814184         1792 
 3854000   0.64523625   -7.3947506    854.56702  0.018477924  0.017808411         1751 
 3855000   0.63748667   -7.4111741    854.63183  0.018474532  0.017802646         1761 
 3856000   0.63278091   -7.4059874    854.42494  0.018465269  0.017796884         1678 
 3857000   0.62544104   -7.3898157    854.38297  0.018459575  0.017791105         1793 
 3858000   0.63727972   -7.4025329    852.68879  0.018418196  0.017785336         1814 
 3859000   0.62963519   -7.3835511    854.69413  0.018456727  0.017779558         1651 
 3860000   0.62277218   -7.3960308    852.59652  0.018406661  0.017773794         1703 
 3861000   0.63733617   -7.4000102    854.01579  0.018432526  0.017768024         1715 
 3862000   0.62353594   -7.4066178    854.04849  0.018428459  0.017762259         1777 
 3863000   0.63996718   -7.3859946     852.8636  0.018398127  0.017756497         1779 
 3864000   0.63360322   -7.3886633    852.80975  0.018392205  0.017750734         1793 
 3865000   0.63861707   -7.3957845    853.60254  0.018404539   0.01774498         1821 
 3866000   0.63128285   -7.3927361    855.66751   0.01844429  0.017739225         1717 
 3867000   0.62886092     -7.42382    853.94154  0.018402326   0.01773348         1760 
 3868000   0.62657952   -7.4089566    854.13982   0.01840184  0.017727722         1828 
 3869000   0.62510678   -7.4050671    854.21169  0.018398632  0.017721975         1837 
 3870000   0.61665575   -7.3874556    854.54348  0.018401022  0.017716233         1817 
 3871000   0.64573067   -7.3859251    853.99215    0.0183844  0.017710489         1791 
 3872000   0.63153268   -7.4068859    853.43555  0.018367673  0.017704739         1822 
 3873000   0.64857175    -7.392535    854.03065  0.018375735  0.017699004         1829 
 3874000   0.64328997    -7.396591    852.84933   0.01834558  0.017693256         1815 
 3875000   0.64029272   -7.3968391    854.10062  0.018367755  0.017687512         1852 
 3876000   0.63707531   -7.4093943    853.51557  0.018350438  0.017681764         1937 
 3877000   0.63635942    -7.413515    854.33383  0.018363293  0.017676009         1923 
 3878000   0.62638621   -7.4177046    853.79155  0.018346905  0.017670257         1927 
 3879000   0.63118715   -7.4203754    853.48406  0.018335569  0.017664512         1911 
 3880000   0.62593207   -7.3872499    852.69015  0.018313792  0.017658771         1937 
 3881000   0.63170555   -7.3949772    852.91111  0.018313817  0.017653029         1855 
 3882000   0.63133782   -7.3975455    853.84497  0.018329147  0.017647285         1885 
 3883000   0.64763789   -7.4059044    853.95404  0.018326767  0.017641546         1860 
 3884000     0.632613   -7.3990414    852.83262  0.018297988  0.017635804         1850 
 3885000   0.62362323   -7.4075802    852.91596  0.018295066   0.01763006         1938 
 3886000   0.63262481   -7.4081026    853.64284  0.018305945  0.017624325         1898 
 3887000   0.62508627    -7.414544    853.37195  0.018295428   0.01761859         1874 
 3888000   0.62323904   -7.3851509     853.9839  0.018303839  0.017612846         1952 
 3889000   0.62243973   -7.4059391    851.94751  0.018255496  0.017607115         2013 
 3890000   0.63286821   -7.4132891    853.93988  0.018293485  0.017601376         1956 
 3891000   0.63377509   -7.4131473    854.16208  0.018293542  0.017595642         1946 
 3892000   0.62536435   -7.4133887      853.528  0.018275265  0.017589914         1999 
 3893000   0.61404104    -7.407424    854.24619  0.018285945  0.017584181         2026 
 3894000   0.64159808   -7.4012391    851.85634  0.018230105  0.017578455         2010 
 3895000   0.62212554   -7.4398285    851.63516  0.018220692  0.017572728         2019 
 3896000   0.63293504    -7.406536    851.55624  0.018214327  0.017567002         1939 
 3897000   0.62085625   -7.4429657    853.87401  0.018259217  0.017561276         1959 
 3898000    0.6316923   -7.4220739    852.55765  0.018226391  0.017555551         1993 
 3899000   0.62626677   -7.4226078    853.17703  0.018234954   0.01754983         1989 
 3900000   0.62642653   -7.4180112    853.00587  0.018226621  0.017544108         2010 
 3901000   0.63031166   -7.4192703    851.11159  0.018181483  0.017538389         1923 
 3902000   0.63812554    -7.413501      851.787  0.018191248  0.017532664         1968 
 3903000   0.62853512   -7.4234302    852.02957  0.018191766  0.017526935         1984 
 3904000    0.6249756   -7.4351323    852.66918   0.01820076  0.017521204         1965 
 3905000   0.62717981   -7.4362431     852.5718  0.018194021  0.017515463         2002 
 3906000   0.62119603   -7.4442665    851.19695  0.018160031  0.017509731         1955 
 3907000   0.62269253   -7.4459249    852.82731  0.018190157  0.017504007         2009 
 3908000   0.61413219    -7.434554    851.76979  0.018162952  0.017498279         1999 
 3909000   0.63308046   -7.4274459    852.29503  0.018169503  0.017492557         2040 
 3910000   0.61008725   -7.4269936     852.7418  0.018174378  0.017486833         1960 
 3911000   0.62418032   -7.4401972    852.70847   0.01816902  0.017481116         2006 
 3912000   0.62420909   -7.4131128    850.88897  0.018125617  0.017475406         2021 
 3913000   0.61431726   -7.4453613    852.15878  0.018148028  0.017469697         2061 
 3914000   0.63253797   -7.4211798    853.22451  0.018166081  0.017463987         1992 
 3915000   0.63986204   -7.4416022    851.43296  0.018123307  0.017458267         2033 
 3916000   0.62279501   -7.4355793    851.68057  0.018123948  0.017452554         1981 
 3917000   0.63342884   -7.4206254    852.99474   0.01814728  0.017446837         1942 
 3918000   0.62417081   -7.4642873    851.91312  0.018119643  0.017441116         1996 
 3919000   0.63132083   -7.4466945    852.69367  0.018131617  0.017435397         2055 
 3920000   0.62152681   -7.4319905    852.44824  0.018121774  0.017429678         2002 
 3921000   0.61836289   -7.4374429     852.8549  0.018125795  0.017423957         1994 
 3922000   0.61245909   -7.4542842    853.89946  0.018143368  0.017418243         2094 
 3923000   0.61638938     -7.42532    852.00779  0.018098559  0.017412535         2068 
 3924000   0.61714431   -7.4240766    851.48625  0.018082871  0.017406826         2028 
 3925000   0.61948806   -7.4535077    851.08558  0.018069758  0.017401123         2128 
 3926000   0.62014387   -7.4371047    852.64904  0.018098341  0.017395419         2073 
 3927000   0.62004559   -7.4393474    850.59225  0.018050086   0.01738971         2076 
 3928000   0.63997201   -7.4551332    851.69935  0.018068978  0.017384001         2022 
 3929000   0.63345944   -7.4306772    851.37522  0.018057505  0.017378299         2052 
 3930000   0.61709811   -7.4391824    852.08918  0.018068049  0.017372605         2010 
 3931000   0.62034111   -7.4408799    851.99844  0.018061529  0.017366917         2029 
 3932000   0.62000838   -7.4416683    851.40336  0.018044323  0.017361221         1970 
 3933000     0.619631    -7.441242    853.58928  0.018086051  0.017355537         1993 
 3934000   0.61740468   -7.4320779    851.68384  0.018041091   0.01734985         1994 
 3935000   0.62442913   -7.4263726    851.96711  0.018042505  0.017344174         1923 
 3936000   0.62023316   -7.4190788    851.53824  0.018028842  0.017338489         1984 
 3937000   0.62463554    -7.429849    851.81167   0.01803005  0.017332811         1974 
 3938000   0.62760651   -7.4332609    851.45186  0.018017857  0.017327122         2021 
 3939000    0.6134437   -7.4536055    851.43181  0.018012859  0.017321443         2016 
 3940000   0.60855985   -7.4239777    851.05146  0.018000242  0.017315769         1964 
 3941000   0.63612485   -7.4232448    851.84069  0.018012363  0.017310101         2013 
 3942000   0.62250495   -7.4444335    852.09332  0.018013135  0.017304434         1995 
 3943000   0.62489742   -7.4476042    853.21224  0.018032214   0.01729876         1976 
 3944000   0.61576373   -7.4357842    852.49493  0.018012486  0.017293098         2030 
 3945000   0.61466578   -7.4433826    851.14539  0.017979413  0.017287437         2089 
 3946000   0.62309689   -7.4378151    851.85383  0.017989817  0.017281778         2015 
 3947000   0.62157404   -7.4408034    851.87417  0.017985689  0.017276114         2057 
 3948000   0.62484642   -7.4478541    851.01077  0.017962909  0.017270451         2082 
 3949000    0.6047622   -7.4334638    851.18702  0.017962079  0.017264794         2141 
 3950000   0.62864644   -7.4364819    851.84674   0.01797145  0.017259133         2143 
 3951000   0.60917379   -7.4434862    851.67907  0.017963365  0.017253476         2091 
 3952000   0.62258595    -7.440221    852.19772  0.017969756  0.017247817         2084 
 3953000   0.62214946   -7.4526229    850.94785  0.017938862  0.017242149         2102 
 3954000   0.60978606   -7.4558554    852.49896  0.017967016  0.017236488         2124 
 3955000   0.60569311   -7.4540813    851.09214  0.017932831  0.017230828         2092 
 3956000   0.61328919   -7.4568153    851.54464   0.01793783  0.017225171         2129 
 3957000   0.62003148   -7.4561134    851.28542  0.017927837  0.017219517         2106 
 3958000   0.61555884   -7.4445973     851.0007  0.017917313  0.017213849         2075 
 3959000   0.62784677   -7.4436304    851.50154   0.01792333  0.017208187         2087 
 3960000   0.62952502   -7.4454281    851.51484  0.017919083  0.017202536         2095 
 3961000     0.608856   -7.4528038    852.12665  0.017927431  0.017196874         2098 
 3962000   0.60615989   -7.4480114    852.09331  0.017922205  0.017191217         2162 
 3963000   0.60709409   -7.4502519    850.73845  0.017889193  0.017185564         2078 
 3964000   0.61100543   -7.4629667    852.02386  0.017911702  0.017179906         2082 
 3965000   0.61913235   -7.4755898    851.21578  0.017890201  0.017174247         2075 
 3966000   0.61246965   -7.4686799    852.55873  0.017913909  0.017168591         2081 
 3967000   0.61801711   -7.4588512    851.68903  0.017891123  0.017162937         2012 
 3968000   0.61860691   -7.4768469    852.20414  0.017897432  0.017157293         2063 
 3969000   0.61383958    -7.453686    850.45235  0.017856142  0.017151652         2070 
 3970000    0.6155112   -7.4433928    851.89959  0.017882023  0.017146007         2039 
 3971000   0.60800919   -7.4446031    851.27187  0.017864347  0.017140364         2096 
 3972000   0.61056947   -7.4652839    852.02257  0.017875599  0.017134729         2045 
 3973000    0.6071807   -7.4452332    849.93413  0.017827295  0.017129099         2106 
 3974000   0.62996276   -7.4679523    851.70405  0.017859924  0.017123457         2125 
 3975000   0.60728484   -7.4530342     851.3778  0.017848591  0.017117821         2068 
 3976000    0.6101644   -7.4619331    851.30585  0.017842594  0.017112188         2116 
 3977000   0.61272818   -7.4563727    853.06003  0.017874864  0.017106557         2087 
 3978000   0.60606433   -7.4534099     852.0654  0.017849535  0.017100929         2047 
 3979000    0.6140882   -7.4601859    849.82487  0.017798125  0.017095296         2069 
 3980000   0.62853354    -7.468834    850.40987  0.017805902  0.017089671         2090 
 3981000    0.6155663   -7.4736378    850.85791  0.017810808  0.017084034         2111 
 3982000   0.62732615   -7.4521162    850.94884  0.017808238   0.01707841         2061 
 3983000    0.6142481   -7.4863415    850.37084  0.017791674   0.01707279         2116 
 3984000   0.61139413   -7.4815505    852.76473  0.017837281   0.01706717         2111 
 3985000    0.6099453   -7.4588702    851.19978  0.017800079  0.017061557         2041 
 3986000   0.62896384    -7.464126    853.16836  0.017836769  0.017055942         2053 
 3987000   0.61326975   -7.4819935    853.73743   0.01784419  0.017050333         2074 
 3988000   0.61794538   -7.4522988    851.52642  0.017793514  0.017044726         2050 
 3989000   0.61284507   -7.4810337    850.43587  0.017766271  0.017039122         2094 
 3990000   0.59891875   -7.4691035    850.87164   0.01777092  0.017033508         2108 
 3991000   0.60319836   -7.4990365    851.38991  0.017777289  0.017027902         2116 
 3992000   0.60254998   -7.4671263    850.18032  0.017747585  0.017022282         2128 
 3993000   0.60828334   -7.4520482    851.15134  0.017763406  0.017016673         2127 
 3994000   0.60577196   -7.4633661    852.05522  0.017777817  0.017011069         2111 
 3995000   0.61634397   -7.4766727    850.95735  0.017750466   0.01700546         2087 
 3996000   0.61950329    -7.473655    849.61842  0.017718102  0.016999855         2128 
 3997000   0.60375494   -7.4811021    850.60803  0.017734301  0.016994254         2134 
 3998000   0.62255256   -7.4898177    850.49776  0.017727567  0.016988651         2146 
 3999000     0.607909   -7.4882021    850.39401  0.017720972  0.016983047         2158 
 4000000   0.59193934    -7.477432    851.64903  0.017742688  0.016977448         2102 
 4001000   0.60478365   -7.4591392    851.29567  0.017730894  0.016971854         2162 
 4002000   0.61172846   -7.4748189    850.50584  0.017710017  0.016966259         2133 
 4003000   0.61028685   -7.4698929    850.98509  0.017715569  0.016960658         2094 
 4004000   0.61793701   -7.4778426    850.81414  0.017707587  0.016955063         2131 
 4005000   0.61730039   -7.5081627    852.62259  0.017740795  0.016949472         2152 
 4006000   0.60154279   -7.4812897    850.60466  0.017694389  0.016943883         2150 
 4007000   0.61155401   -7.4786935    850.20844  0.017681733  0.016938303         2204 
 4008000   0.60521123   -7.4945058    850.40153  0.017681336  0.016932721         2136 
 4009000    0.6103087   -7.4849181    852.22517  0.017714833  0.016927143         2210 
 4010000   0.61393228   -7.4960183    851.09155  0.017686857  0.016921562         2161 
 4011000   0.60835414   -7.5080586    850.04736  0.017660753  0.016915985         2165 
 4012000   0.61208555   -7.4881064    850.97121   0.01767554  0.016910403         2182 
 4013000   0.61242644   -7.5179657    851.24103  0.017676739  0.016904824         2172 
 4014000   0.61268327   -7.4918493    848.79551  0.017621564  0.016899243         2157 
 4015000   0.62169923   -7.5059008    849.83936  0.017638841  0.016893666         2160 
 4016000   0.60300919   -7.4757676    850.71921  0.017652706  0.016888084         2181 
 4017000    0.6218427   -7.4941974    852.57912  0.017686896  0.016882508         2191 
 4018000   0.60272717   -7.4832311    850.99961  0.017649735   0.01687694         2231 
 4019000   0.59881621   -7.5128044    850.77813  0.017640751  0.016871366         2200 
 4020000   0.61628896   -7.5027134    849.60958  0.017612139  0.016865798         2225 
 4021000    0.6111061   -7.4741058    850.30065  0.017622081   0.01686023         2125 
 4022000   0.60340801   -7.5051205    850.29431  0.017617568  0.016854665         2198 
 4023000   0.60646304   -7.5131962    849.47507  0.017596219  0.016849094         2197 
 4024000   0.60173502   -7.5092881    850.52581  0.017613606  0.016843537         2144 
 4025000   0.60960829    -7.507009    849.30751  0.017584006  0.016837973         2201 
 4026000   0.60967673   -7.4963416    849.70423   0.01758785  0.016832415         2213 
 4027000   0.61136105   -7.5105802    850.08376  0.017591337  0.016826862         2202 
 4028000    0.6041946   -7.4816521    850.60877  0.017597831  0.016821307         2214 
 4029000   0.61749674   -7.5051131    851.47239  0.017611326  0.016815756         2174 
 4030000   0.60478908   -7.4994828    851.32856  0.017603982  0.016810201         2176 
 4031000   0.59959644   -7.5083016    850.05846  0.017573358  0.016804663         2178 
 4032000   0.60888638   -7.4904365    850.78297  0.017583973  0.016799112         2160 
 4033000    0.6093526   -7.5073693     849.5852  0.017554864  0.016793564         2232 
 4034000   0.60467457   -7.4994864    849.69829  0.017552848  0.016788015         2175 
 4035000   0.60900432   -7.4872047    849.62011  0.017546884  0.016782471         2181 
 4036000   0.59856038   -7.5074795    852.03932  0.017592487  0.016776923         2121 
 4037000   0.61306076    -7.486078    851.41793  0.017575302  0.016771388         2138 
 4038000   0.61407461   -7.4988767    850.41556  0.017550263  0.016765854         2190 
 4039000   0.59348856    -7.502072    849.61477  0.017529396  0.016760315         2162 
 4040000   0.58723799    -7.501494    850.66314  0.017546682   0.01675478         2123 
 4041000   0.59633263   -7.5188768    851.88813  0.017567602  0.016749245         2214 
 4042000   0.60306841   -7.4934736    848.40899  0.017491526  0.016743708         2195 
 4043000   0.60156828   -7.5067227    850.62694  0.017532916  0.016738166         2176 
 4044000   0.60692918   -7.5178321    850.75393  0.017531197  0.016732631         2199 
 4045000   0.60533949   -7.5145056     849.6405  0.017503925  0.016727099         2196 
 4046000   0.61962721   -7.4849271    849.30279  0.017492643  0.016721572         2154 
 4047000   0.61845303   -7.5062662    848.83212  0.017478629  0.016716043         2211 
 4048000     0.608595   -7.5238583    849.31167  0.017484183  0.016710512         2229 
 4049000   0.60950982   -7.5221599    848.84499   0.01747026  0.016704991         2222 
 4050000   0.59660996   -7.4780322    851.37531  0.017518011  0.016699473         2156 
 4051000   0.59955209   -7.5032957     849.2966  0.017470925   0.01669396         2201 
 4052000   0.60444844   -7.5016658     849.5446  0.017471714  0.016688442         2212 
 4053000   0.60911385   -7.5291909    850.36262  0.017484222  0.016682927         2243 
 4054000   0.60000773   -7.4980763    850.72709  0.017487401  0.016677414         2133 
 4055000   0.60072604   -7.5224402    849.34197  0.017454623  0.016671895         2242 
 4056000   0.60539701   -7.5018234    849.70816  0.017457844  0.016666379         2223 
 4057000   0.60051697   -7.5171719    850.33482  0.017466412   0.01666086         2149 
 4058000   0.60914563   -7.5260732    848.87857  0.017432203  0.016655348         2215 
 4059000   0.60594156   -7.5164636    850.11088  0.017453208  0.016649835         2188 
 4060000   0.59568736   -7.5234504    850.02977  0.017447245  0.016644333         2191 
 4061000   0.61081775   -7.5216786    849.63075   0.01743476  0.016638821         2178 
 4062000   0.59628975   -7.5150435    849.24853  0.017422627  0.016633312         2213 
 4063000   0.59387658   -7.5023386    848.39591  0.017400851  0.016627805         2219 
 4064000   0.59883881   -7.5212334    851.16803  0.017453413  0.016622308         2228 
 4065000   0.59811675   -7.5107316    849.56452  0.017416247  0.016616811         2157 
 4066000   0.61086704   -7.5206907    851.35601   0.01744868   0.01661132         2189 
 4067000   0.60094736   -7.4850676    849.57483  0.017407893  0.016605828         2195 
 4068000   0.59213956   -7.5257001    850.80909  0.017428898  0.016600335         2135 
 4069000    0.6153663   -7.5134769    848.67137  0.017380834  0.016594846         2150 
 4070000   0.60237723   -7.5123478    849.94477  0.017402637  0.016589359         2182 
 4071000   0.60064854   -7.4971503     850.2491  0.017404591  0.016583875         2148 
 4072000   0.59194141   -7.5208374    849.49909  0.017384968  0.016578386         2209 
 4073000   0.60816479   -7.5197941     849.6093  0.017382955  0.016572898         2157 
 4074000   0.60377238   -7.5088786    850.31748  0.017393174  0.016567414         2159 
 4075000   0.59484663   -7.5241549    849.52883  0.017372778  0.016561928         2175 
 4076000   0.58076177     -7.51987    849.23156  0.017362438  0.016556441         2255 
 4077000   0.59917886   -7.5306784    850.43207  0.017382718   0.01655096         2199 
 4078000   0.59239579   -7.4985642    848.12588  0.017331328  0.016545485         2193 
 4079000   0.60626394   -7.5293307    849.88596  0.017363038  0.016540007         2211 
 4080000   0.60767679   -7.5464153    848.66509  0.017333846  0.016534533         2264 
 4081000   0.59493777   -7.5250618    848.79952  0.017332343  0.016529054         2208 
 4082000   0.59721343   -7.5200758    849.62357   0.01734492  0.016523587         2208 
 4083000   0.58896951   -7.5085655     849.4485  0.017337099  0.016518123         2268 
 4084000   0.60881203   -7.5163525    849.83789  0.017340799  0.016512658         2218 
 4085000   0.59487153   -7.5235876    849.76687  0.017335105   0.01650719         2228 
 4086000   0.61365624   -7.5133109    850.51574  0.017346136  0.016501735         2219 
 4087000    0.5993382   -7.5124715    850.68432  0.017345329  0.016496278         2172 
 4088000    0.6107446   -7.5448415    847.89401  0.017284206  0.016490812         2204 
 4089000   0.60082391   -7.5057488     849.0845  0.017304241  0.016485351         2184 
 4090000   0.59788755   -7.5210763    850.29111  0.017324595  0.016479891         2232 
 4091000   0.60086966   -7.5329928    848.51756  0.017284233  0.016474434         2238 
 4092000   0.59425125    -7.508257    850.24103  0.017315107   0.01646898         2219 
 4093000   0.59685883   -7.5161194    849.57689  0.017297355  0.016463524         2208 
 4094000    0.5956541   -7.5184134    849.05295  0.017282465  0.016458067         2195 
 4095000   0.59374159   -7.5145608    848.38819  0.017264717  0.016452611         2209 
 4096000   0.58948335   -7.5122677    848.54054  0.017263601  0.016447152         2159 
 4097000   0.60421838    -7.525702    849.36983  0.017276256    0.0164417         2215 
 4098000   0.59218197   -7.5370292    849.95769  0.017283994  0.016436251         2220 
 4099000   0.59042189   -7.5338657    849.48058  0.017270078  0.016430801         2210 
 4100000   0.59636607   -7.5241631    848.62052  0.017248385  0.016425351         2192 
 4101000   0.61025451   -7.5224688    848.23744  0.017236394  0.016419905         2210 
 4102000   0.59363433   -7.5213495    850.46347  0.017277415  0.016414466         2185 
 4103000   0.59222897   -7.5310745    847.69439  0.017216963  0.016409023         2205 
 4104000   0.59419917   -7.5455255    849.89521  0.017257456  0.016403585         2202 
 4105000   0.59654525   -7.5526223    849.82369    0.0172518  0.016398144         2247 
 4106000   0.58588693   -7.5303453    849.05769  0.017232053    0.0163927         2229 
 4107000   0.58115174    -7.540834    850.25144  0.017252079  0.016387266         2243 
 4108000   0.59165529   -7.5404648    848.65015  0.017215396  0.016381828         2244 
 4109000   0.58032402   -7.5161786    849.00299  0.017218362  0.016376391         2194 
 4110000   0.60600213   -7.5553047    848.17955  0.017197477   0.01637096         2269 
 4111000   0.59106076   -7.5442277    848.40863  0.017197937   0.01636553         2229 
 4112000   0.59099063   -7.5385699    847.97022   0.01718487  0.016360099         2218 
 4113000   0.59047148   -7.5347555    847.71659  0.017175553  0.016354668         2135 
 4114000   0.60435618   -7.5446757    848.27956  0.017182781  0.016349242         2201 
 4115000   0.58665968   -7.5342374    849.20892  0.017197426  0.016343824         2228 
 4116000   0.59088846   -7.5476535     847.7075   0.01716285  0.016338401         2230 
 4117000   0.59242861   -7.5102627     849.7328  0.017199676  0.016332986         2157 
 4118000   0.59795737   -7.5330447    848.98637  0.017180394  0.016327576         2245 
 4119000   0.60476532    -7.514062    849.39273  0.017184445  0.016322167         2236 
 4120000   0.60362533   -7.5191733    848.30415  0.017158255  0.016316753         2230 
 4121000   0.58502028   -7.5385587    848.56981  0.017159464  0.016311346         2184 
 4122000   0.60577772   -7.5498006    848.35199  0.017150898  0.016305934         2233 
 4123000   0.59401001   -7.5272238    848.67519   0.01715327  0.016300526         2221 
 4124000   0.59420986   -7.5451875    849.26626  0.017161054  0.016295115         2198 
 4125000   0.59730907   -7.5226117    848.69898  0.017145434  0.016289709         2271 
 4126000   0.59253221   -7.5314061    847.68905  0.017120881  0.016284308         2179 
 4127000   0.59525878   -7.5276132    847.38572  0.017110607  0.016278905         2217 
 4128000   0.58395357   -7.5349133    847.45527  0.017107866  0.016273504         2262 
 4129000   0.57367585   -7.5348832    848.15279  0.017117801  0.016268101         2247 
 4130000   0.58365888   -7.5378506    848.63267  0.017123339    0.0162627         2250 
 4131000   0.58705191   -7.5382494    848.78109  0.017122188  0.016257304         2240 
 4132000   0.58268586   -7.5222112    848.31546  0.017108653  0.016251905         2221 
 4133000   0.59741183   -7.5264496    848.45594  0.017107346   0.01624651         2219 
 4134000   0.58924366   -7.5301118    848.92432   0.01711265  0.016241123         2254 
 4135000   0.60920036   -7.5513783    848.45665  0.017099086   0.01623573         2183 
 4136000   0.57928753   -7.5397541    849.08319  0.017107576  0.016230336         2217 
 4137000   0.59073378   -7.5578691    847.08449   0.01706318  0.016224944         2219 
 4138000   0.58547902   -7.5425332    848.56489  0.017088869  0.016219554         2184 
 4139000    0.5985664   -7.5566213    847.41039  0.017061496  0.016214163         2213 
 4140000   0.59040856   -7.5359282    849.16972  0.017092788  0.016208782         2199 
 4141000   0.58221428   -7.5528717    849.23486  0.017089971  0.016203396         2229 
 4142000   0.58601855   -7.5531924    850.43598  0.017110011  0.016198007         2240 
 4143000   0.58089541     -7.54036    847.68753  0.017050598  0.016192627         2215 
 4144000   0.59825372   -7.5497145    850.05978  0.017094188  0.016187253         2271 
 4145000   0.58672176   -7.5316756    847.52664  0.017039136  0.016181881         2271 
 4146000   0.59122417   -7.5500738     847.6193  0.017036889  0.016176514         2213 
 4147000   0.58845845   -7.5077042    847.64108  0.017033218  0.016171145         2217 
 4148000   0.58476323   -7.5338001    849.59971  0.017068461  0.016165778         2226 
 4149000   0.59227767   -7.5421007    848.63889  0.017045049   0.01616041         2251 
 4150000   0.59542388   -7.5637353    848.65184  0.017041202  0.016155043         2250 
 4151000   0.57696348   -7.5295717    849.62049  0.017056542  0.016149675         2200 
 4152000   0.57442784   -7.5532443    847.50234  0.017009922  0.016144308         2255 
 4153000   0.59985583     -7.54946     848.9359  0.017034591  0.016138943         2231 
 4154000   0.58394436   -7.5516706    849.15911  0.017034968  0.016133582         2154 
 4155000   0.58429584   -7.5446482    848.55338   0.01701872  0.016128217         2154 
 4156000   0.59038943    -7.556509    847.90091  0.017001542  0.016122861         2177 
 4157000   0.58750694   -7.5377215    848.42549  0.017007968  0.016117506         2231 
 4158000   0.58353894   -7.5432825    848.32843  0.017001933  0.016112154         2234 
 4159000    0.5901201   -7.5465624     848.1414  0.016994097  0.016106809         2199 
 4160000   0.58199144   -7.5414319    849.92436  0.017025728  0.016101467         2257 
 4161000   0.58899734   -7.5339322    848.42675  0.016991644  0.016096121         2243 
 4162000   0.58361087   -7.5419135    847.14087  0.016961815  0.016090782         2233 
 4163000   0.57737272   -7.5406598    847.52721  0.016965474  0.016085447         2254 
 4164000   0.58536393   -7.5398933    848.36339  0.016978134  0.016080112         2246 
 4165000   0.59446799   -7.5249327     847.0221  0.016947221   0.01607478         2229 
 4166000   0.57975597   -7.5394613    847.56986   0.01695411  0.016069447         2259 
 4167000    0.5798235    -7.559841    848.60963  0.016970835  0.016064112         2196 
 4168000   0.57057786    -7.561081    847.53125  0.016945203  0.016058782         2233 
 4169000   0.57651505   -7.5538715    848.30858  0.016956676   0.01605345         2217 
 4170000   0.59731061   -7.5311224    848.03592  0.016947161  0.016048122         2222 
 4171000    0.5945021   -7.5525848    849.28815  0.016968116  0.016042796         2211 
 4172000   0.58362795   -7.5505339    846.64051  0.016911164  0.016037471         2226 
 4173000   0.58784832   -7.5411325    849.06536  0.016955535  0.016032145         2193 
 4174000   0.57741057   -7.5517737    848.72147  0.016944607  0.016026828         2200 
 4175000   0.58632556     -7.55986    848.61779  0.016938479  0.016021507         2217 
 4176000   0.57392267   -7.5480385    848.42739  0.016930623  0.016016186         2249 
 4177000   0.58693256   -7.5526908    846.98434   0.01689778  0.016010864         2269 
 4178000   0.58984171   -7.5614638    847.62204  0.016906455  0.016005554         2287 
 4179000   0.58624563   -7.5537152    850.27665  0.016955345  0.016000242         2246 
 4180000    0.5877421   -7.5532857    847.76975  0.016901311   0.01599493         2171 
 4181000   0.57548861   -7.5606687    848.35968  0.016909026   0.01598962         2237 
 4182000   0.58369536   -7.5355478    847.98549  0.016897527  0.015984315         2228 
 4183000   0.57254538   -7.5422731    849.70223  0.016927688  0.015979014         2152 
 4184000   0.57997038   -7.5361357    847.47702  0.016879322  0.015973716         2206 
 4185000   0.58056687   -7.5288634    848.33558  0.016892385  0.015968413         2216 
 4186000   0.58602281   -7.5454597    847.94373  0.016880549  0.015963113         2218 
 4187000   0.59241173   -7.5552345    847.89289  0.016875505  0.015957814         2212 
 4188000   0.58315419   -7.5588304    849.99595  0.016913323  0.015952518         2200 
 4189000    0.5748486   -7.5569713    846.89361  0.016847569  0.015947227         2249 
 4190000   0.58146084   -7.5588649    848.48451  0.016875189  0.015941936         2205 
 4191000   0.58489129   -7.5530957    848.47273  0.016870928  0.015936654         2225 
 4192000   0.57326638   -7.5613607    848.30264  0.016863523  0.015931376         2257 
 4193000    0.5827038   -7.5478857     848.6697  0.016866796  0.015926097         2221 
 4194000   0.57881536   -7.5605846    846.39843  0.016817645  0.015920816         2226 
 4195000   0.57909029   -7.5392167    846.82535  0.016822117  0.015915547         2254 
 4196000   0.58377079   -7.5516264    848.67978  0.016854937  0.015910276         2196 
 4197000   0.58791865   -7.5567991    847.39626  0.016825436  0.015905002         2217 
 4198000   0.60063445    -7.546401    846.81184  0.016809827  0.015899732         2162 
 4199000   0.58499767   -7.5631132    848.37625  0.016836871  0.015894462         2211 
 4200000   0.57608696   -7.5469049    847.85118  0.016822444  0.015889189         2239 
 4201000   0.57638106   -7.5486429    848.59601  0.016833215  0.015883919         2181 
 4202000   0.57927461   -7.5505487    848.96775  0.016836581  0.015878658         2197 
 4203000   0.58397626   -7.5402546    848.91103   0.01683145  0.015873393         2161 
 4204000   0.57281854   -7.5459015    848.65693   0.01682241  0.015868134         2226 
 4205000   0.57878656   -7.5436135    849.29907  0.016831135  0.015862876         2242 
 4206000   0.55865457   -7.5471984    848.98984  0.016821006  0.015857625         2234 
 4207000   0.57210573   -7.5462625    847.98454  0.016797095  0.015852372         2194 
 4208000   0.57426165     -7.55407    845.75082  0.016748868  0.015847115         2205 
 4209000   0.58088512   -7.5369621    847.94584  0.016788347  0.015841866         2248 
 4210000   0.58555449   -7.5473258    847.88186  0.016783093   0.01583662         2169 
 4211000   0.57672572   -7.5521559    848.68447  0.016794991  0.015831374         2196 
 4212000   0.56428499   -7.5518862    849.06066  0.016798446  0.015826128         2252 
 4213000   0.57964271    -7.542427    847.98835  0.016773249   0.01582089         2224 
 4214000   0.59503935   -7.5667205    848.36006  0.016776619  0.015815653         2224 
 4215000   0.58879687   -7.5454577    846.03964  0.016726762  0.015810419         2303 
 4216000   0.57967745   -7.5455314    848.47716  0.016770975   0.01580518         2212 
 4217000   0.57482202   -7.5494696    848.70053  0.016771412  0.015799948         2214 
 4218000   0.57859975   -7.5667201    846.05802  0.016715229  0.015794715         2232 
 4219000   0.57202774   -7.5612179    847.83893  0.016746443  0.015789487         2230 
 4220000   0.55964948   -7.5747204     849.0781  0.016766945  0.015784257         2237 
 4221000   0.57208111   -7.5752629    847.68903  0.016735549  0.015779027         2266 
 4222000   0.58874494   -7.5858607    847.11768  0.016720308  0.015773799         2234 
 4223000   0.57438142   -7.5632359    848.32412  0.016740155  0.015768575         2258 
 4224000   0.58336822   -7.5653939    846.66826  0.016703525  0.015763346         2238 
 4225000   0.57437823   -7.5662886    847.96043  0.016725058  0.015758129         2210 
 4226000   0.57816008   -7.5703482    848.83617  0.016738369   0.01575291         2254 
 4227000   0.56697351   -7.5505419    847.01349  0.016698476  0.015747693         2280 
 4228000    0.5745327   -7.5733001    846.85105  0.016691325  0.015742473         2215 
 4229000   0.56793907   -7.5620506     847.4249  0.016698686  0.015737251         2269 
 4230000    0.5761674   -7.5581444    847.66222  0.016699413  0.015732037         2239 
 4231000   0.57216219   -7.5596797    847.65461  0.016695316  0.015726821         2200 
 4232000   0.56918031   -7.5596468    847.44403  0.016687225  0.015721602         2239 
 4233000   0.57082955   -7.5536839    847.56609  0.016685686  0.015716389         2210 
 4234000   0.57356146   -7.5829748    846.44615  0.016659702  0.015711176         2254 
 4235000   0.57336027   -7.5698567    846.62376  0.016659263  0.015705968         2258 
 4236000   0.57072798    -7.565611    847.43642  0.016671318  0.015700755         2286 
 4237000   0.56202388   -7.5794233    846.55375  0.016650023  0.015695548         2298 
 4238000   0.56861533   -7.5373343    847.44554  0.016663629  0.015690343         2304 
 4239000   0.58359604    -7.558214    848.68244  0.016684014  0.015685142         2310 
 4240000   0.57673506   -7.5709283    847.70446  0.016660858  0.015679944         2263 
 4241000   0.57912598   -7.5564345    846.86471  0.016640429  0.015674749         2250 
 4242000   0.58137492   -7.5627042    848.31205  0.016664939  0.015669551         2290 
 4243000   0.57284213   -7.5581991    847.07861  0.016636786  0.015664354         2320 
 4244000    0.5727834   -7.5800759    846.25042  0.016616604  0.015659159         2342 
 4245000   0.56331289        -7.55    845.96068  0.016607002  0.015653964         2278 
 4246000    0.5736457   -7.5664075    846.40325  0.016611777  0.015648768         2284 
 4247000   0.57080326   -7.5750951    846.06391  0.016601207  0.015643576         2254 
 4248000   0.57190597   -7.5755942    846.03434  0.016596719  0.015638381         2312 
 4249000   0.57739498   -7.5739152    848.10644  0.016633452  0.015633192         2280 
 4250000   0.55988017   -7.5664097    846.05278   0.01658927  0.015628004         2270 
 4251000   0.56578552   -7.5676741    847.83265  0.016620259  0.015622818         2274 
 4252000   0.56220026   -7.5899273    848.69088   0.01663317  0.015617635         2310 
 4253000    0.5598753   -7.5564989     848.8601  0.016632575  0.015612453         2252 
 4254000   0.57049207   -7.5698376    845.67251  0.016566222   0.01560728         2256 
 4255000   0.57676823   -7.5652651    847.00074  0.016588342    0.0156021         2256 
 4256000   0.56252916   -7.5687465    847.56033  0.016595401  0.015596931         2237 
 4257000   0.57628945   -7.5574116    847.14944  0.016583459  0.015591763         2225 
 4258000   0.57210527   -7.5719343    845.86636  0.016554453  0.015586593         2255 
 4259000   0.57050917   -7.5683836    846.95598  0.016571887  0.015581429         2310 
 4260000    0.5678842   -7.5672359    846.31286  0.016555416  0.015576263         2323 
 4261000   0.57561797   -7.5627694    846.12079  0.016547774  0.015571101         2276 
 4262000   0.56722196   -7.5698236    845.85132  0.016538623  0.015565933         2309 
 4263000    0.5753878   -7.5672111      847.061   0.01655839  0.015560774         2279 
 4264000   0.57272036   -7.5814139    846.26465  0.016538943  0.015555612         2275 
 4265000   0.58057905   -7.5808938     847.6597  0.016562323  0.015550454         2271 
 4266000   0.57704108   -7.5971552    847.89454  0.016563028  0.015545292         2302 
 4267000   0.57061801   -7.5722527    846.14215  0.016524923  0.015540138         2242 
 4268000   0.57505276   -7.5680122    847.13431  0.016540423  0.015534985         2277 
 4269000   0.56369502   -7.5769461    846.19659  0.016518244   0.01552983         2253 
 4270000    0.5681747    -7.569183    847.14428   0.01653287  0.015524677         2294 
 4271000   0.57204587   -7.5770204    846.32906  0.016513093  0.015519526         2279 
 4272000   0.57688504   -7.5768848    847.00414  0.016522397  0.015514379         2255 
 4273000   0.57117096   -7.5648768    846.93777  0.016517236  0.015509235         2314 
 4274000   0.57348647      -7.5758    847.53706  0.016525056  0.015504092         2329 
 4275000    0.5566033   -7.5644293     847.1523   0.01651369  0.015498957         2284 
 4276000   0.57839331   -7.5708033    845.59886  0.016479554  0.015493829         2226 
 4277000   0.56291308    -7.582827    846.97083  0.016502432  0.015488695         2279 
 4278000   0.56333534   -7.5852458    847.04783  0.016500075  0.015483565         2268 
 4279000    0.5760843   -7.5604089    846.73902  0.016490204  0.015478435         2295 
 4280000   0.57285361   -7.5625613    846.83401  0.016488201  0.015473311         2228 
 4281000    0.5548414   -7.5844195    846.35003  0.016474929  0.015468186         2280 
 4282000   0.56488689   -7.5855813    847.02387  0.016484195  0.015463065         2251 
 4283000   0.55646529   -7.5950233    847.75439   0.01649456  0.015457944         2296 
 4284000   0.57306326   -7.5686742    846.13755  0.016459258  0.015452826         2232 
 4285000   0.57483677   -7.5680682    845.98392  0.016452429  0.015447712         2254 
 4286000   0.57975133   -7.5851227    845.49314  0.016439048  0.015442594         2291 
 4287000    0.5634516    -7.600914    845.99944  0.016445055  0.015437476         2210 
 4288000   0.56821675   -7.5831788    846.17001  0.016444535  0.015432365         2281 
 4289000   0.57834441   -7.5966304     845.9944  0.016437289  0.015427254         2212 
 4290000   0.57160565   -7.5663578    847.52707   0.01646323  0.015422147         2221 
 4291000   0.57013741   -7.5610506    847.97482  0.016468089  0.015417048         2228 
 4292000   0.56848036   -7.5891005    847.81054  0.016461062  0.015411948         2256 
 4293000   0.55733246   -7.5883662    845.84399  0.016419054  0.015406849         2278 
 4294000   0.57361732    -7.570493    847.20062  0.016441558   0.01540175         2222 
 4295000   0.56527126   -7.5716768     845.6849  0.016408322  0.015396658         2288 
 4296000   0.55911272   -7.5837892    846.99911  0.016429995  0.015391564         2249 
 4297000   0.56574461   -7.6008808    847.99242  0.016445435  0.015386473         2261 
 4298000    0.5599865   -7.5803652    846.64615  0.016415506  0.015381378         2263 
 4299000    0.5647505   -7.5737636    846.90005   0.01641661   0.01537629         2239 
 4300000   0.56057153   -7.5760334    847.80811   0.01643039  0.015371206         2249 
 4301000   0.56462183   -7.5830911    846.65434  0.016404215  0.015366122         2237 
 4302000   0.55597589   -7.5814505    848.29021   0.01643209  0.015361038         2285 
 4303000   0.55414116   -7.5634414    845.07644  0.016366032  0.015355956         2241 
 4304000   0.57446318   -7.5783421    847.62352  0.016411546  0.015350878         2263 
 4305000   0.57078368   -7.5866808    847.02462   0.01639614  0.015345799         2237 
 4306000   0.56608408     -7.58313    846.12468  0.016374916  0.015340722         2249 
 4307000   0.55803591   -7.5811242    845.40144  0.016357121  0.015335644         2244 
 4308000   0.56396054   -7.5692232    847.85589  0.016400803  0.015330574         2271 
 4309000   0.55972122    -7.572445    846.74162  0.016375447  0.015325501         2263 
 4310000   0.56905491   -7.5828557    848.07247   0.01639738  0.015320432         2232 
 4311000   0.55041479   -7.5743602    847.07664  0.016374326  0.015315365         2269 
 4312000   0.54732963    -7.590928    845.92174  0.016348209    0.0153103         2286 
 4313000   0.56175507   -7.5650476    846.56712  0.016356888  0.015305227         2273 
 4314000   0.55765338   -7.5794205    846.71775  0.016356007  0.015300163         2344 
 4315000   0.56311648   -7.5804251    847.06984  0.016359016  0.015295096         2284 
 4316000   0.56356179     -7.57505     846.2594  0.016339577   0.01529003         2313 
 4317000   0.56462776   -7.5994335    846.73019  0.016344881  0.015284971         2261 
 4318000   0.55265555   -7.5764766    845.87335  0.016324559  0.015279914         2261 
 4319000   0.55538978   -7.5785623    846.29529   0.01632892  0.015274853         2282 
 4320000   0.55393537   -7.6043363    845.05057   0.01630113  0.015269794         2312 
 4321000   0.55803984   -7.5898877    846.74128  0.016329964  0.015264742         2255 
 4322000   0.58089294   -7.5741568    845.69661  0.016306043  0.015259692         2230 
 4323000   0.56471622   -7.5943278    847.41212   0.01633534   0.01525464         2256 
 4324000   0.55396097   -7.5860011    845.81228   0.01630073  0.015249595         2271 
 4325000   0.55118431   -7.5679488    845.50999  0.016291137  0.015244546         2235 
 4326000   0.55794132   -7.5821744    845.63152  0.016289712  0.015239504         2282 
 4327000   0.55291854   -7.5816937    847.42606  0.016320508  0.015234464         2253 
 4328000    0.5513704   -7.5769212    847.56251  0.016319364  0.015229426         2259 
 4329000   0.56178832   -7.6031045    848.64988  0.016336527  0.015224391         2301 
 4330000    0.5530773    -7.589429    845.95522  0.016280893  0.015219353         2292 
 4331000   0.56331392   -7.5727141    846.58352  0.016289223  0.015214318         2267 
 4332000   0.56036217   -7.5948461    846.16843  0.016277478  0.015209292         2268 
 4333000   0.55739438   -7.5897952    844.82806  0.016247943  0.015204263         2231 
 4334000   0.55188138   -7.5728959    847.28953  0.016291523  0.015199235         2269 
 4335000   0.57030741   -7.5911743    845.09471  0.016245573  0.015194209         2292 
 4336000   0.56269327   -7.5834601    845.25609  0.016244928  0.015189187         2296 
 4337000   0.55986419   -7.5773436    845.85683  0.016252725  0.015184163         2245 
 4338000   0.54581567   -7.5912478    846.50974  0.016261521  0.015179136         2327 
 4339000   0.55302193   -7.5986019    845.36589  0.016235805  0.015174114         2253 
 4340000   0.56264768   -7.5696183    845.57272  0.016236035  0.015169096         2229 
 4341000   0.56429653   -7.5980444     845.6652   0.01623407  0.015164079         2272 
 4342000   0.55680444   -7.5955672    846.80346  0.016252178  0.015159062         2301 
 4343000   0.55970611   -7.5819572    845.88245  0.016230763  0.015154049         2282 
 4344000    0.5528255   -7.5878867    846.40718  0.016237093  0.015149045         2313 
 4345000    0.5561938   -7.5899016     845.1152  0.016208577  0.015144033         2313 
 4346000   0.55425322   -7.5897044    846.44515  0.016230349  0.015139028         2306 
 4347000   0.56151856   -7.5939283    846.60691  0.016229716  0.015134023         2299 
 4348000   0.55576046   -7.5881925    847.27926   0.01623887  0.015129019         2351 
 4349000   0.55693875   -7.5961961    845.59818  0.016202924  0.015124017         2343 
 4350000   0.54495147   -7.6029416     845.7882  0.016202839  0.015119017         2271 
 4351000   0.55146299   -7.5864018    845.77892  0.016198937  0.015114016         2308 
 4352000   0.55309477   -7.5937091     845.8971  0.016197478  0.015109016         2275 
 4353000   0.54917841   -7.6083875    847.03185  0.016215481  0.015104021         2315 
 4354000   0.55569255   -7.5963776    846.09609  0.016193846  0.015099026         2298 
 4355000   0.55925164   -7.6185218    846.26261  0.016193314  0.015094038         2296 
 4356000   0.55295045   -7.5921585    847.23635  0.016208225   0.01508905         2313 
 4357000   0.55787169   -7.5824125     846.3249  0.016187073  0.015084059         2302 
 4358000   0.55299071   -7.5950305    847.09362  0.016198058  0.015079072         2303 
 4359000    0.5495266   -7.5968166    845.62263   0.01616622  0.015074083         2257 
 4360000   0.54155155   -7.5866485    845.69617  0.016163918  0.015069101         2259 
 4361000   0.54441961   -7.5855419     847.0346  0.016185787  0.015064118         2321 
 4362000   0.53807721   -7.5902545    846.54169  0.016172659  0.015059139         2333 
 4363000   0.55561266   -7.5965396    845.50904  0.016149229  0.015054163         2297 
 4364000   0.56284527   -7.5970056    846.26157  0.016159899  0.015049185         2303 
 4365000   0.55094479   -7.6159536    845.85975  0.016148525  0.015044215         2317 
 4366000   0.55241723   -7.5918237    845.92336  0.016146041  0.015039244         2357 
 4367000    0.5495421   -7.5776615    845.89668  0.016141834  0.015034273         2348 
 4368000   0.55622642   -7.5887838    846.27195  0.016145298  0.015029305         2305 
 4369000   0.55367921   -7.5821864    845.67295  0.016130178  0.015024339         2285 
 4370000   0.54451193   -7.5934138    846.08193  0.016134285  0.015019367         2329 
 4371000   0.55160576   -7.6215804    846.26699  0.016134122  0.015014407         2313 
 4372000   0.54877435   -7.5821444    846.75473  0.016139729  0.015009439         2355 
 4373000   0.54809484   -7.5983984     845.6506  0.016114997  0.015004481         2283 
 4374000   0.56008276   -7.5917181    844.93515  0.016097682  0.014999522         2261 
 4375000   0.56095844   -7.6009108    847.49285  0.016142721  0.014994565         2264 
 4376000   0.56150644   -7.5861404    846.82538  0.016126321  0.014989608         2260 
 4377000   0.54720665   -7.6148831       846.53  0.016117013  0.014984652         2287 
 4378000   0.56087327   -7.6327383    845.07428  0.016085623  0.014979692         2338 
 4379000   0.54840546   -7.5973338    845.57867  0.016091548  0.014974743         2305 
 4380000   0.54072615   -7.6074399    845.15716  0.016079855  0.014969787         2304 
 4381000   0.53482134   -7.6069619    844.95589  0.016072356  0.014964838         2326 
 4382000   0.55085239   -7.5936988    846.29921  0.016094234  0.014959891         2330 
 4383000   0.55420256   -7.6014891    844.54185   0.01605715  0.014954942         2284 
 4384000   0.55416225   -7.6097763    844.91851  0.016060647  0.014950002         2290 
 4385000   0.55086348   -7.5875448    844.54377  0.016049863  0.014945056         2303 
 4386000   0.55971294   -7.5998738    845.09743  0.016056723  0.014940115         2294 
 4387000   0.54160177   -7.5718485    845.28538  0.016056633  0.014935178         2284 
 4388000   0.54473029   -7.5978967    846.00292  0.016066601  0.014930243         2290 
 4389000   0.54185658   -7.6192594    847.04703  0.016082764  0.014925312         2262 
 4390000   0.54757085   -7.5945465    847.01477  0.016078488  0.014920378         2284 
 4391000   0.54904717   -7.5976167    845.37309  0.016043671  0.014915448         2321 
 4392000    0.5435809    -7.592896    845.58047  0.016043952  0.014910519         2283 
 4393000   0.54495119   -7.6079715    845.92739  0.016046881  0.014905591         2275 
 4394000   0.55784064    -7.604067    845.33334  0.016031963   0.01490067         2272 
 4395000   0.55202633   -7.5975676    845.82409   0.01603762   0.01489575         2305 
 4396000   0.54982369   -7.6284668    845.47577  0.016027369  0.014890831         2294 
 4397000   0.55141691   -7.5948716    845.88337  0.016031449  0.014885913         2351 
 4398000    0.5576686    -7.607579    845.35346  0.016017763  0.014881003         2330 
 4399000   0.54613167   -7.6052389    845.14871  0.016010243  0.014876086         2323 
 4400000    0.5441918   -7.5967422    845.21495  0.016007859  0.014871173         2326 
 4401000    0.5487395   -7.5978696    845.49887  0.016009598  0.014866264         2302 
 4402000   0.56109428   -7.5960779    845.12337  0.015998852  0.014861356         2305 
 4403000   0.55387048   -7.6024927    845.82995  0.016008592  0.014856446         2295 
 4404000   0.55091127   -7.5874443    845.76737  0.016003772  0.014851543         2283 
 4405000   0.56081715   -7.6072328    844.62445  0.015978518  0.014846638         2331 
 4406000   0.53986165   -7.6023743    844.03791  0.015963798  0.014841737         2290 
 4407000    0.5404579   -7.6024288     846.4263  0.016005338  0.014836835         2315 
 4408000    0.5426198   -7.6033191     845.1268   0.01597714  0.014831936         2302 
 4409000   0.53720272   -7.6214458    844.91012  0.015969421  0.014827042         2307 
 4410000   0.54686741   -7.6004749     845.3548  0.015974203  0.014822149         2332 
 4411000   0.55013893   -7.5974648    845.92333  0.015981322  0.014817257         2298 
 4412000   0.55511127   -7.6005715    845.89616  0.015977187  0.014812371         2299 
 4413000   0.55175665   -7.6080229    847.55715  0.016004931  0.014807485         2334 
 4414000   0.55270878    -7.614113    846.40564  0.015979566  0.014802603         2340 
 4415000   0.54435744   -7.6137603     844.6434  0.015942684  0.014797717         2326 
 4416000   0.54632449   -7.6247293    846.35735  0.015971417  0.014792834         2332 
 4417000    0.5570763   -7.6156244    845.81979   0.01595766  0.014787955         2270 
 4418000   0.55271487   -7.6256656     846.7181  0.015970992  0.014783076         2314 
 4419000   0.54860392   -7.6060277    845.53057  0.015944983  0.014778199         2311 
 4420000   0.54150577   -7.6056938    844.69618  0.015925644  0.014773315         2368 
 4421000   0.54493661   -7.6147196    844.58688  0.015919982  0.014768439         2323 
 4422000   0.55079622    -7.611391    846.70103  0.015956223  0.014763563         2254 
 4423000    0.5394382   -7.6095138      844.308  0.015907529  0.014758694         2382 
 4424000   0.54265915   -7.6019298    846.15346  0.015938695  0.014753826         2327 
 4425000   0.53852284   -7.6042319    845.44873  0.015921822  0.014748961         2319 
 4426000   0.54488022   -7.6276448    845.97642   0.01592816  0.014744092         2368 
 4427000   0.55037387   -7.6207899    845.08602  0.015907801  0.014739224         2329 
 4428000    0.5447736   -7.6234089    844.11907  0.015886011  0.014734361         2369 
 4429000    0.5526015   -7.6191461    844.46233  0.015888883    0.0147295         2330 
 4430000   0.54015435   -7.5958249     844.3812   0.01588377  0.014724644         2308 
 4431000   0.53495214      -7.6097    844.58962  0.015884105  0.014719787         2370 
 4432000   0.54839077   -7.6122761    845.52787  0.015898162  0.014714937         2364 
 4433000   0.54889784      -7.6047    846.12309  0.015905765  0.014710079         2351 
 4434000   0.53587114   -7.6159709    843.16573  0.015846597  0.014705228         2387 
 4435000   0.55192523   -7.6071093    845.20307  0.015881305  0.014700378         2347 
 4436000   0.54029811   -7.6277033    844.68989  0.015868085  0.014695531         2321 
 4437000   0.54149155   -7.6066126     846.4183   0.01589697  0.014690688         2355 
 4438000   0.53908457   -7.6296419    845.29005  0.015872203  0.014685841         2395 
 4439000   0.54379462   -7.6262666    846.00256  0.015882003  0.014680999         2361 
 4440000   0.54427691   -7.6256385    845.57851  0.015870468   0.01467616         2381 
 4441000   0.54385106   -7.6152709    845.33647  0.015862352   0.01467132         2356 
 4442000   0.52562091   -7.6158165    843.19094   0.01581853  0.014666481         2364 
 4443000   0.54159499   -7.6288505    845.34608  0.015855392  0.014661643         2367 
 4444000   0.54165687    -7.628931    845.23333   0.01584971  0.014656808         2399 
 4445000   0.54111624   -7.6184156    844.47938  0.015832009  0.014651974         2369 
 4446000   0.54564397   -7.6266334    844.69651  0.015832518  0.014647141         2352 
 4447000   0.53820185   -7.6333933    845.58539  0.015845615  0.014642312         2389 
 4448000   0.53165396   -7.6286285    843.89651  0.015810411  0.014637486         2370 
 4449000   0.54139654   -7.6320023    845.04485  0.015828367  0.014632659         2373 
 4450000   0.54507314   -7.6162649    843.59058  0.015797576  0.014627835         2362 
 4451000   0.53889213    -7.607792    843.53784   0.01579304   0.01462301         2358 
 4452000   0.54165765   -7.6005361    844.25644  0.015802943  0.014618189         2410 
 4453000   0.53964261   -7.6168684    844.24283   0.01579914  0.014613369         2317 
 4454000   0.53620005   -7.6417445    844.75033  0.015805088  0.014608554         2360 
 4455000   0.54277503   -7.6198831    843.94158  0.015786412  0.014603737         2383 
 4456000    0.5447828   -7.6261533    845.54054  0.015812772  0.014598922         2295 
 4457000   0.54475861   -7.6359311     844.6881  0.015793286  0.014594114         2359 
 4458000   0.53462432   -7.6117504    844.20922  0.015780792  0.014589308         2358 
 4459000   0.54494378   -7.6038072    846.72623  0.015824292    0.0145845         2273 
 4460000   0.53704624   -7.6254615    845.77365  0.015802946  0.014579697         2340 
 4461000   0.55292494   -7.6222356    844.53646  0.015776292  0.014574891         2404 
 4462000   0.54483676   -7.6234639    843.70165  0.015757165  0.014570089         2362 
 4463000   0.53047945   -7.6374715    844.45064   0.01576762  0.014565286         2371 
 4464000   0.51971836   -7.6213478    844.72022   0.01576912  0.014560486         2382 
 4465000   0.53346152   -7.6096134     844.4917  0.015761323  0.014555686         2330 
 4466000   0.53657921   -7.6128967    844.68761   0.01576145  0.014550888         2375 
 4467000   0.53529079   -7.6248412    844.43695  0.015753245  0.014546095         2316 
 4468000   0.53746458   -7.6162282    844.66931  0.015754053  0.014541297         2347 
 4469000   0.53271244   -7.6289721    845.75041  0.015770687  0.014536507         2357 
 4470000   0.53947013   -7.6195099    844.08366  0.015736086   0.01453172         2412 
 4471000   0.52715258   -7.6190092    842.96225  0.015711665  0.014526927         2400 
 4472000    0.5344052    -7.611505     845.3194  0.015752076  0.014522141         2419 
 4473000   0.53138321    -7.633045     844.6625  0.015736316  0.014517359         2385 
 4474000   0.53331818   -7.6193015    843.73003  0.015715431   0.01451258         2369 
 4475000   0.53829594   -7.6184794    845.05535  0.015736599    0.0145078         2387 
 4476000   0.53868678   -7.6399578    844.99755  0.015732007  0.014503019         2400 
 4477000   0.52690752   -7.6239006    845.44959  0.015736907  0.014498241         2375 
 4478000   0.53121825   -7.6074678    844.67487  0.015718975  0.014493464         2398 
 4479000    0.5299549   -7.6156305    844.47698  0.015711784  0.014488691         2333 
 4480000   0.53789456   -7.6260969    844.50059  0.015708716   0.01448392         2383 
 4481000   0.54484088   -7.6300925    844.84061  0.015711534  0.014479152         2350 
 4482000   0.53385102   -7.6013781     844.0191  0.015692754  0.014474381         2374 
 4483000   0.53172938   -7.6250926     845.3072  0.015713198  0.014469612         2354 
 4484000   0.53009006   -7.6130402    843.92697  0.015684043  0.014464845         2354 
 4485000   0.52126981    -7.649155    844.95413  0.015699631   0.01446008         2360 
 4486000   0.51940341   -7.6253909    843.42846   0.01566779  0.014455314         2362 
 4487000   0.53196087   -7.6230142     846.2356  0.015716433  0.014450552         2369 
 4488000   0.54115749   -7.6138111    844.65338  0.015683552  0.014445794         2352 
 4489000   0.54524757   -7.6284959    844.71256  0.015681157  0.014441041         2380 
 4490000   0.55066599   -7.6234591    844.84293  0.015680084  0.014436284         2331 
 4491000   0.52253299   -7.6379986    843.89317  0.015658969  0.014431528         2353 
 4492000   0.53564104   -7.6156961    844.41024  0.015665076  0.014426773         2359 
 4493000   0.53771835   -7.6328991    844.40978  0.015661581   0.01442202         2353 
 4494000   0.52240965   -7.6354233    844.98984  0.015668852  0.014417275         2411 
 4495000   0.52541287   -7.6294773    845.36719  0.015672362  0.014412531         2341 
 4496000   0.53646938   -7.6438501    845.15908  0.015665018  0.014407786         2367 
 4497000   0.54042888   -7.6339266    845.31212  0.015664371  0.014403042         2392 
 4498000   0.52170398   -7.6271071    843.98365  0.015636276    0.0143983         2359 
 4499000   0.53680896    -7.644515     844.7522  0.015647036   0.01439356         2362 
 4500000   0.52248176   -7.6382699    843.55185  0.015621331  0.014388819         2390 
 4501000   0.53203565   -7.6337665    844.24706  0.015630731  0.014384086         2361 
 4502000   0.53923713   -7.6424511    844.24045  0.015627137  0.014379353         2359 
 4503000   0.52627559   -7.6371509    843.20163  0.015604442  0.014374618         2420 
 4504000   0.52638721   -7.6431295    846.32513  0.015658769  0.014369887         2376 
 4505000   0.52197667   -7.6250107    844.43501  0.015620329  0.014365162         2378 
 4506000   0.52439993   -7.6325951    845.12671  0.015629655  0.014360438         2347 
 4507000   0.53011003   -7.6372763    843.94454  0.015604329  0.014355712         2419 
 4508000   0.53090523   -7.6237242    842.77238    0.0155792   0.01435099         2386 
 4509000   0.51932698   -7.6637451    844.11521  0.015600562  0.014346268         2376 
 4510000   0.51897557   -7.6348602    843.84273  0.015592068  0.014341551         2408 
 4511000   0.52052359    -7.645213    845.80405  0.015624844  0.014336839         2401 
 4512000   0.52998209   -7.6511936     845.2969  0.015612014  0.014332123         2361 
 4513000   0.53460625   -7.6243474    844.14702  0.015587322  0.014327411         2369 
 4514000   0.52778927   -7.6343426     844.5875  0.015592001  0.014322701         2353 
 4515000   0.52200523   -7.6319938    844.48212  0.015586602  0.014317992         2426 
 4516000   0.53750203   -7.6230025    843.73731  0.015569407  0.014313287         2374 
 4517000   0.52866703    -7.635701    843.61499  0.015563704  0.014308583         2355 
 4518000   0.53808583   -7.6183213    844.24513  0.015571882  0.014303881         2399 
 4519000    0.5264721   -7.6247159    843.42757  0.015553359  0.014299178         2362 
 4520000   0.51752492   -7.6226043    845.28828  0.015584223  0.014294474         2378 
 4521000   0.53803861   -7.6417099    843.71675  0.015551809  0.014289775         2379 
 4522000   0.52342876   -7.6422012    844.25152  0.015558225  0.014285075         2370 
 4523000   0.52809513   -7.6302402    844.15305  0.015552971  0.014280376         2426 
 4524000   0.52106519   -7.6507346     845.0782  0.015566574  0.014275684         2431 
 4525000   0.52756767   -7.6427846    844.17678  0.015546534  0.014270994         2385 
 4526000   0.52370388   -7.6293132    843.26136  0.015526244  0.014266303         2401 
 4527000   0.53149694   -7.6426249    844.24594  0.015540938  0.014261615         2386 
 4528000   0.53000928   -7.6367296    844.96786  0.015550793  0.014256928         2394 
 4529000   0.53330105   -7.6279806    843.95942  0.015528804  0.014252249         2388 
 4530000   0.52903131   -7.6212051    844.92128   0.01554307  0.014247565         2388 
 4531000   0.53222299   -7.6419961    843.86483  0.015520209  0.014242887         2384 
 4532000   0.53110617   -7.6366358    845.36608   0.01554439  0.014238206         2416 
 4533000   0.52687725   -7.6373036    843.57272  0.015507992  0.014233532         2399 
 4534000   0.52197472   -7.6448345    843.16708  0.015497116  0.014228852         2390 
 4535000   0.52608644   -7.6307674    843.03505  0.015491272   0.01422418         2327 
 4536000   0.52337604   -7.6241936    843.49587  0.015496323  0.014219508         2391 
 4537000   0.52931069   -7.6334619    844.54353  0.015512151   0.01421484         2365 
 4538000   0.53373417   -7.6462343    843.24287  0.015484848  0.014210169         2375 
 4539000   0.53030703   -7.6433501    844.12572  0.015497645  0.014205502         2348 
 4540000   0.54318187   -7.6582489    843.20529  0.015477336  0.014200834         2393 
 4541000   0.52791299   -7.6428713    843.34351  0.015476465  0.014196166         2416 
 4542000   0.51888804   -7.6394736    843.94759   0.01548414  0.014191498         2420 
 4543000   0.52209592   -7.6407262    842.00659  0.015445128  0.014186833         2441 
 4544000   0.52493207   -7.6510032    843.62118  0.015471339  0.014182174         2403 
 4545000   0.52368977   -7.6516131    845.11616  0.015495346  0.014177513         2366 
 4546000   0.53122722   -7.6463925    843.76106  0.015467097  0.014172854         2433 
 4547000   0.52676466   -7.6459423    845.10982  0.015488414  0.014168197         2330 
 4548000   0.52173669   -7.6413514    843.89309  0.015462714  0.014163547         2375 
 4549000   0.52457558   -7.6447262    842.61994  0.015435992  0.014158898         2417 
 4550000   0.52866213   -7.6600179    842.94739  0.015438597  0.014154249         2439 
 4551000   0.51117735   -7.6690118     843.5743  0.015446684  0.014149596         2360 
 4552000   0.52710609   -7.6412205    843.99793  0.015451046  0.014144948         2355 
 4553000   0.53241991   -7.6493737     843.4407  0.015437453  0.014140303         2369 
 4554000   0.51757888   -7.6394058    844.25227  0.015448914  0.014135655         2415 
 4555000   0.52363759   -7.6430527    843.96894  0.015440339  0.014131011         2382 
 4556000   0.52956584    -7.642224    844.45868  0.015445908  0.014126372         2372 
 4557000   0.51783293   -7.6304393    843.39132     0.015423  0.014121735         2314 
 4558000   0.51761792   -7.6425197     843.1721  0.015415608  0.014117098         2388 
 4559000    0.5193769   -7.6404834    843.63148  0.015420624  0.014112466         2397 
 4560000   0.53080292     -7.63461    843.18379   0.01540906  0.014107836         2423 
 4561000   0.53130121   -7.6554665    845.09034  0.015440516  0.014103204         2399 
 4562000   0.52324921   -7.6515085     844.6072  0.015428306  0.014098574         2412 
 4563000   0.51415546   -7.6446534    844.23243  0.015418081  0.014093948         2424 
 4564000   0.50745227    -7.650671    844.68392  0.015422946  0.014089322         2407 
 4565000   0.52461711   -7.6363109    842.67948  0.015382977  0.014084697         2412 
 4566000   0.52315815   -7.6457999    843.86526  0.015401249  0.014080073         2357 
 4567000   0.52829874   -7.6483995    844.20462  0.015404069  0.014075454         2406 
 4568000    0.5322934   -7.6298175     843.2156  0.015382655  0.014070838         2409 
 4569000   0.52694407   -7.6561098    844.67275  0.015405865  0.014066228         2421 
 4570000   0.51639601   -7.6256053    843.51558  0.015381393  0.014061611         2385 
 4571000   0.51674578   -7.6609589    843.29317  0.015373973  0.014056998         2429 
 4572000   0.51035695   -7.6370493    842.72111  0.015360183  0.014052384         2455 
 4573000   0.51941143   -7.6301912    843.55254  0.015371976  0.014047774         2372 
 4574000   0.52017952   -7.6486995    842.12332  0.015342576  0.014043165         2365 
 4575000   0.51742829   -7.6309439    844.19882  0.015377028  0.014038557         2424 
 4576000   0.51778046   -7.6514172    843.72742  0.015365083  0.014033952         2386 
 4577000   0.52223446   -7.6416187    843.02725  0.015348978  0.014029347         2412 
 4578000   0.52813822   -7.6683861    844.73733  0.015376754  0.014024747         2407 
 4579000   0.51427914   -7.6435947    843.66748  0.015353925  0.014020147         2392 
 4580000   0.51387206   -7.6435433    843.24989  0.015342975  0.014015547         2348 
 4581000   0.51408039    -7.664531    843.50842  0.015344328   0.01401095         2394 
 4582000   0.52437017    -7.649662    842.93388   0.01533053  0.014006351         2420 
 4583000   0.52431895   -7.6491794    842.81944  0.015325104  0.014001755         2401 
 4584000   0.51293743   -7.6601762    842.66392  0.015318934  0.013997163         2423 
 4585000   0.51040486   -7.6459118    844.10085  0.015341709  0.013992569         2358 
 4586000   0.51813716   -7.6482506     842.5988   0.01531107  0.013987981         2399 
 4587000   0.52296282   -7.6621722    843.90742  0.015331506  0.013983393         2415 
 4588000    0.5164002   -7.6500885    843.35847  0.015318194  0.013978807         2354 
 4589000   0.51378841   -7.6529043     842.5966  0.015301021  0.013974222         2402 
 4590000   0.52316435    -7.653714    843.44895  0.015313162  0.013969641         2400 
 4591000   0.52399053   -7.6660597    843.02037  0.015302047  0.013965059         2433 
 4592000   0.50954718   -7.6549969    843.43126  0.015306171  0.013960482         2384 
 4593000   0.51548515   -7.6428644     843.3481   0.01530133  0.013955902         2416 
 4594000   0.50557355   -7.6664427    843.05163  0.015292621  0.013951328         2378 
 4595000   0.51949817   -7.6471658    843.68904  0.015300853  0.013946753         2387 
 4596000   0.50980702   -7.6499936    841.74739  0.015262318  0.013942181         2393 
 4597000   0.51563796   -7.6368626    841.63265  0.015256918  0.013937606         2403 
 4598000   0.52600278   -7.6340392    842.69877  0.015272922  0.013933036         2381 
 4599000   0.50272963   -7.6623086    843.94657  0.015292212  0.013928469         2363 
 4600000   0.51551281   -7.6460536    842.79485  0.015268023  0.013923903         2404 
 4601000   0.52013268   -7.6679265    843.51208  0.015277695  0.013919337         2341 
 4602000   0.50875852   -7.6651771    844.91195  0.015299724  0.013914776         2391 
 4603000   0.52603138   -7.6655012    841.93249  0.015242459  0.013910217         2390 
 4604000   0.50614005   -7.6538185    842.79273  0.015254719  0.013905657         2396 
 4605000   0.51978047   -7.6588623    843.19392  0.015258667  0.013901099         2410 
 4606000   0.49748242   -7.6401727    842.49327  0.015242677  0.013896542         2422 
 4607000   0.51042011   -7.6671533    843.82355  0.015263431  0.013891986         2367 
 4608000   0.51771111   -7.6686143    843.41938   0.01525281  0.013887432         2420 
 4609000   0.50751833   -7.6663627      842.715  0.015236765  0.013882878         2449 
 4610000    0.5243592   -7.6504882    843.18026   0.01524187  0.013878331         2414 
 4611000   0.51628082   -7.6378923    843.39452  0.015242437  0.013873782         2393 
 4612000   0.50269867   -7.6732631    843.06979  0.015233264   0.01386924         2377 
 4613000   0.51017425   -7.6687263    842.66205  0.015222596  0.013864698         2420 
 4614000   0.51660184   -7.6578484    843.26602  0.015230206  0.013860154         2387 
 4615000   0.52086914   -7.6548191    842.71852  0.015217019   0.01385561         2405 
 4616000   0.50669357   -7.6384418    843.36928  0.015225471  0.013851071         2356 
 4617000   0.50035845   -7.6534293    844.11632  0.015235657  0.013846539         2394 
 4618000   0.51426757   -7.6697859    842.82339  0.015209026  0.013842002         2375 
 4619000    0.5175408   -7.6590344    841.43622  0.015180707  0.013837469         2393 
 4620000   0.51296712   -7.6471179    841.27347  0.015174485  0.013832938         2461 
 4621000   0.50116587   -7.6466858    843.74664  0.015215802   0.01382841         2406 
 4622000   0.51990204   -7.6573369    842.19592  0.015184551  0.013823881         2426 
 4623000   0.51188463   -7.6697394    844.40096  0.015221014  0.013819356         2409 
 4624000   0.50915644   -7.6498312    842.95237  0.015191616  0.013814834         2387 
 4625000    0.5090949   -7.6511886    843.83463  0.015204228  0.013810312         2376 
 4626000   0.51889823   -7.6604154     842.7028  0.015180552  0.013805792         2353 
 4627000   0.50820036   -7.6679843    842.58223    0.0151751  0.013801276         2391 
 4628000   0.51093356   -7.6598817     842.2439  0.015165729  0.013796758         2419 
 4629000   0.49874826   -7.6704672    841.91173  0.015156472   0.01379224         2398 
 4630000   0.50202528   -7.6697078    843.06928  0.015174033   0.01378772         2393 
 4631000   0.50422886   -7.6582114    843.09381  0.015171198  0.013783207         2391 
 4632000   0.50606429   -7.6700156    843.58618  0.015176781  0.013778693         2379 
 4633000   0.50967852   -7.6656489    841.49443  0.015135881  0.013774178         2393 
 4634000   0.50716509   -7.6700238    842.62351  0.015152919  0.013769665         2356 
 4635000    0.5127261   -7.6897276     843.7822  0.015170482  0.013765156         2386 
 4636000    0.5152193   -7.6633548    841.51426  0.015126443  0.013760645         2410 
 4637000   0.50037476   -7.6403635    842.68054   0.01514414  0.013756141         2389 
 4638000   0.50230295   -7.6797901    843.65013  0.015158296   0.01375164         2417 
 4639000   0.51123903   -7.6699626    842.41213   0.01513279  0.013747135         2403 
 4640000    0.5108481    -7.671557    842.79644   0.01513643  0.013742632         2397 
 4641000   0.51748267   -7.6745118    842.62717  0.015130129  0.013738129         2363 
 4642000   0.51087548   -7.6701317    843.52813  0.015143044  0.013733631         2395 
 4643000   0.51291174   -7.6591958    841.86493  0.015109931  0.013729137         2427 
 4644000   0.51943668   -7.6833038    842.15871  0.015111949  0.013724645         2365 
 4645000   0.50554812   -7.6784586    842.86595  0.015121384  0.013720154         2382 
 4646000   0.51522516    -7.668587    842.50874  0.015111722  0.013715664         2396 
 4647000   0.51074705    -7.681948    842.73469  0.015112522  0.013711177         2442 
 4648000   0.50468282   -7.6732449    842.32291  0.015101888  0.013706689         2408 
 4649000   0.50024505   -7.6703372    842.89908  0.015108968  0.013702204         2422 
 4650000   0.50359901   -7.6615443    843.58349  0.015117984  0.013697722         2381 
 4651000   0.52142234   -7.6639416    842.41481  0.015093794  0.013693245         2405 
 4652000   0.51198508    -7.674448    841.79313  0.015079413  0.013688767         2371 
 4653000   0.51132278   -7.6630081    843.42865  0.015105463  0.013684293         2381 
 4654000   0.51164437   -7.6619308    841.18673  0.015062074   0.01367982         2415 
 4655000   0.50506494   -7.6523252     842.4511  0.015081473  0.013675347         2413 
 4656000   0.51056472   -7.6699744    842.71918  0.015083032  0.013670874         2413 
 4657000   0.50851772   -7.6794415    841.49833  0.015057947  0.013666402         2399 
 4658000   0.51229618    -7.667793    841.14137  0.015048328  0.013661936         2439 
 4659000   0.51155793   -7.6780501    842.75596  0.015073978  0.013657469         2401 
 4660000   0.49581871   -7.6652655    841.13647  0.015041782  0.013653006         2415 
 4661000   0.50892633   -7.6794324    842.20523  0.015057663  0.013648541         2396 
 4662000   0.50592034   -7.6705642    842.61554  0.015061768  0.013644084         2442 
 4663000   0.50527099   -7.6623145    842.79386  0.015061725  0.013639627         2369 
 4664000   0.51379245   -7.6688497    843.01323  0.015062415  0.013635172         2436 
 4665000    0.4982947   -7.6743199    841.98431  0.015040806  0.013630717         2420 
 4666000   0.50567401   -7.6745454     842.8004  0.015052157  0.013626264         2439 
 4667000    0.5013759   -7.6736558    841.54664  0.015026545  0.013621811         2455 
 4668000   0.49363437   -7.6704963    841.95024  0.015030531   0.01361736         2382 
 4669000   0.50857523   -7.6688492    842.11815  0.015030309  0.013612913         2399 
 4670000   0.50911073   -7.6744505    842.48302  0.015033601  0.013608467         2423 
 4671000   0.50691862   -7.6635791    841.78979  0.015018015   0.01360402         2382 
 4672000   0.50789781   -7.6906272    841.31229  0.015006284  0.013599572         2452 
 4673000   0.50489665   -7.6873963     841.4022  0.015004676  0.013595127         2402 
 4674000   0.50326733   -7.6701028    841.08978  0.014995895  0.013590685         2392 
 4675000   0.50032603   -7.6781539    840.54469  0.014982971  0.013586241         2415 
 4676000   0.51754645   -7.6743309    841.16984  0.014990908  0.013581797         2391 
 4677000   0.51595728   -7.6634014    844.32563  0.015043932   0.01357736         2393 
 4678000   0.49867097   -7.6737666     841.8538  0.014996683  0.013572928         2376 
 4679000   0.49828449     -7.66913    840.86837  0.014975927  0.013568498         2380 
 4680000   0.50421573   -7.6719319    842.30074  0.014998233  0.013564065         2388 
 4681000   0.50211665   -7.6843002     841.2919  0.014977069  0.013559633         2388 
 4682000   0.51589187   -7.6751704    841.77148  0.014982406  0.013555203         2372 
 4683000   0.49921926   -7.6752943    842.46816  0.014991604  0.013550778         2347 
 4684000   0.49999935   -7.6702028    842.09463  0.014981758  0.013546354         2363 
 4685000    0.5041305   -7.6807733    842.25881   0.01498148  0.013541928         2415 
 4686000   0.50536327   -7.6867312    842.80579   0.01498801  0.013537505         2388 
 4687000     0.515745   -7.6730691    841.59395  0.014963266  0.013533085         2372 
 4688000   0.50282213   -7.6787275    842.05618  0.014968291  0.013528669         2420 
 4689000   0.50013005   -7.6802528     841.8593    0.0149616  0.013524253         2392 
 4690000   0.50043024   -7.6779644    841.01722  0.014943447  0.013519835         2426 
 4691000   0.50027297   -7.6619162    841.85198  0.014955091  0.013515418         2345 
 4692000   0.49673114   -7.6822002    841.96578  0.014953925  0.013511007         2371 
 4693000   0.49694616   -7.6852892    841.10404  0.014935436  0.013506594         2372 
 4694000   0.50912437   -7.6715161    840.54516  0.014922333  0.013502188         2398 
 4695000   0.49322789   -7.6960574    841.08723  0.014928776   0.01349778         2382 
 4696000   0.50136843   -7.6811711    841.23504   0.01492822  0.013493375         2372 
 4697000   0.49659535   -7.6883662    842.87441  0.014954127  0.013488972         2384 
 4698000   0.49770055   -7.6735407    841.65334  0.014929285  0.013484569         2398 
 4699000    0.5003528   -7.6718769    841.36664  0.014921023  0.013480163         2369 
 4700000   0.51649866   -7.6825252    840.78018   0.01490745  0.013475765         2416 
 4701000   0.49507652   -7.6716595    843.19948  0.014947165  0.013471368         2396 
 4702000   0.50493369       -7.695     841.3501   0.01491121  0.013466973         2388 
 4703000   0.49588536   -7.6827172    841.72284  0.014914644   0.01346258         2382 
 4704000   0.50128457   -7.6702549    841.30749  0.014904115   0.01345819         2360 
 4705000   0.50285823   -7.6842842    842.71977  0.014925961  0.013453799         2352 
 4706000   0.49381933   -7.6859146    841.52374   0.01490161  0.013449413         2423 
 4707000   0.49481531   -7.7023049    842.74014   0.01491998  0.013445027         2402 
 4708000   0.50110531   -7.6855909    842.42074  0.014911157  0.013440642         2432 
 4709000   0.50429469    -7.684395    840.37205  0.014871736  0.013436258         2390 
 4710000    0.5067477   -7.6835081    841.76529  0.014893229  0.013431878         2409 
 4711000   0.49795578   -7.6946568    842.72503  0.014907044  0.013427496         2362 
 4712000   0.49769986   -7.6674256    841.28663  0.014878442  0.013423117         2352 
 4713000   0.48650283   -7.6720814    840.71073  0.014865102   0.01341874         2350 
 4714000   0.49397802   -7.7003297    841.16273  0.014869939  0.013414364         2398 
 4715000   0.49091606   -7.6786445    842.41441  0.014888908  0.013409992         2391 
 4716000   0.49692316   -7.6858206    842.15087  0.014881094   0.01340562         2395 
 4717000   0.49308474   -7.6834389    841.59336   0.01486809  0.013401251         2373 
 4718000   0.49569904   -7.6731071    842.01087  0.014872313  0.013396882         2406 
 4719000   0.49798191   -7.6955061    842.18189  0.014872182  0.013392518         2379 
 4720000   0.49593794   -7.6775226    840.72261  0.014843266  0.013388154         2379 
 4721000   0.49406598    -7.681999    841.82839  0.014859641  0.013383794         2333 
 4722000   0.49358667   -7.6863439    842.65674  0.014871113  0.013379436         2365 
 4723000   0.49934064   -7.6989015    843.75249  0.014887298  0.013375079         2412 
 4724000   0.49322445   -7.6915601    841.86313  0.014850817  0.013370721         2383 
 4725000   0.50202796   -7.7057521      841.568  0.014842469  0.013366371         2409 
 4726000   0.49688268   -7.6673886    840.38485  0.014818466   0.01336202         2392 
 4727000   0.48362329   -7.6896537    840.72023  0.014821244  0.013357667         2395 
 4728000   0.49622789   -7.6889779    841.36075  0.014829398  0.013353317         2395 
 4729000   0.49083265   -7.6923276     840.7168  0.014814915   0.01334897         2381 
 4730000   0.50055615    -7.691051     841.9335  0.014833219  0.013344624         2389 
 4731000   0.50509782    -7.677372      841.321  0.014819295   0.01334028         2367 
 4732000   0.48843619   -7.6800526     841.1867  0.014813798  0.013335938         2396 
 4733000   0.49417996   -7.6959601    842.38014  0.014831681  0.013331596         2404 
 4734000   0.48380366   -7.6872843    841.84439  0.014819117  0.013327256         2374 
 4735000   0.49960387   -7.6826694    840.37729  0.014790167  0.013322915         2387 
 4736000   0.48959123   -7.6812885    840.56501  0.014790347   0.01331858         2392 
 4737000   0.49169824   -7.6910119    840.58254  0.014787533  0.013314245         2394 
 4738000   0.48701387   -7.6954473    840.71353  0.014786716  0.013309912         2409 
 4739000   0.49508946   -7.6817733     842.2676  0.014810924  0.013305579         2373 
 4740000   0.48805049   -7.7031005    842.23679  0.014807257  0.013301252         2420 
 4741000   0.49425907   -7.7031144    840.81357  0.014779118  0.013296924         2462 
 4742000   0.49160869   -7.6940025    841.44872  0.014787163  0.013292596         2413 
 4743000   0.49120697   -7.6942452    841.15744  0.014778928  0.013288268         2417 
 4744000   0.49635191   -7.6883617    840.55165  0.014765171  0.013283943         2359 
 4745000   0.49250644   -7.6838949    840.96727  0.014769358  0.013279621         2379 
 4746000   0.50390036   -7.6969143    841.15363  0.014769519  0.013275303         2364 
 4747000   0.49772693   -7.6805918    841.13051  0.014766002  0.013270984         2391 
 4748000   0.49199813   -7.6870307     839.7509  0.014738678  0.013266666         2363 
 4749000    0.4881769   -7.6862563    841.48245  0.014765959  0.013262351         2406 
 4750000   0.49406374   -7.6883222    839.77112  0.014732827   0.01325804         2387 
 4751000   0.49244614   -7.7024602    841.39222   0.01475816   0.01325373         2382 
 4752000   0.48839006   -7.7042751    841.73752   0.01476111  0.013249422         2369 
 4753000   0.49798563   -7.6934714    841.97378  0.014762146  0.013245116         2407 
 4754000   0.49002022   -7.6756466    840.65654  0.014735951   0.01324081         2402 
 4755000   0.49621518   -7.6999415    841.38509   0.01474562  0.013236505         2390 
 4756000   0.48283012    -7.682355    841.98742  0.014753074  0.013232205         2427 
 4757000   0.49111415   -7.7120673     839.7708  0.014711141  0.013227904         2396 
 4758000   0.49224843   -7.7083735    841.19553  0.014733003  0.013223603         2423 
 4759000   0.49525733   -7.6902663    839.80622  0.014705579  0.013219308         2409 
 4760000   0.49059259   -7.6811802    841.34274   0.01472939  0.013215013         2391 
 4761000   0.49231908   -7.6930394    839.17815  0.014688408  0.013210721         2428 
 4762000   0.49836491   -7.6889512    841.76225  0.014730545   0.01320643         2385 
 4763000   0.48284498   -7.6892532    840.27229  0.014701384  0.013202144         2380 
 4764000   0.49102978   -7.6967359    839.12273  0.014678189  0.013197854         2432 
 4765000   0.49085219   -7.6939835    841.60398  0.014718503  0.013193566         2383 
 4766000    0.4903733   -7.6912531    839.65013  0.014681251  0.013189279         2382 
 4767000   0.49171831   -7.7044639    841.01995  0.014702118  0.013184993         2352 
 4768000   0.48795568   -7.6803051    841.79201  0.014712528  0.013180711         2339 
 4769000   0.49161887   -7.6973842    842.11192  0.014715033  0.013176434         2444 
 4770000   0.48718474   -7.6833407    841.31356  0.014698001  0.013172155         2437 
 4771000   0.49083106   -7.6940814    841.49527  0.014698094  0.013167877         2431 
 4772000    0.4871141   -7.7005211    842.33973   0.01470976  0.013163598         2404 
 4773000   0.48742913    -7.690051    840.42222    0.0146732  0.013159326         2388 
 4774000    0.4970346   -7.6855494    839.92896  0.014661517  0.013155052         2425 
 4775000   0.49201751   -7.6865252    841.51156  0.014686066  0.013150779         2374 
 4776000   0.49110692   -7.7151188    841.40553  0.014681141  0.013146507         2412 
 4777000   0.48300748   -7.6995249     841.2323  0.014675045  0.013142239         2439 
 4778000   0.48608564   -7.6991882    841.91804  0.014683934  0.013137972         2381 
 4779000   0.48185819    -7.708488    841.74171  0.014677787  0.013133711         2406 
 4780000   0.49181137   -7.6994949    842.64781  0.014690513  0.013129452         2366 
 4781000   0.48482799   -7.7155088    840.85536  0.014656197  0.013125191         2463 
 4782000   0.48439985    -7.702239    840.46401  0.014646313  0.013120928         2387 
 4783000   0.48004232   -7.6868929    840.16037   0.01463796  0.013116672         2402 
 4784000   0.49243901   -7.6945063    840.35735  0.014638332  0.013112417         2406 
 4785000   0.48148871     -7.70935    841.41106  0.014653623  0.013108163         2400 
 4786000   0.48046772   -7.6977519    840.91314  0.014641892  0.013103913         2405 
 4787000     0.490636   -7.6887325    840.65719  0.014634378  0.013099658         2450 
 4788000   0.47345514   -7.7220011    841.24755  0.014641596  0.013095408         2421 
 4789000   0.48752287   -7.6859085    841.56601   0.01464408  0.013091162         2402 
 4790000   0.48606756   -7.6994873    842.25126  0.014652945  0.013086919         2411 
 4791000   0.48396538   -7.7026157    840.72996  0.014623425  0.013082675         2425 
 4792000   0.48368439   -7.7118609    839.93498  0.014606549  0.013078433         2426 
 4793000    0.4799829   -7.7074744    839.82625  0.014601611  0.013074191         2379 
 4794000   0.47507852   -7.7029837    839.78295  0.014597812   0.01306995         2455 
 4795000   0.47990127   -7.7200249      840.654  0.014609906   0.01306571         2433 
 4796000   0.48178583   -7.7157164    841.33317  0.014618661  0.013061473         2399 
 4797000   0.49268934   -7.6991268     839.7228  0.014587638  0.013057237         2425 
 4798000   0.48726329   -7.7128155    841.16938  0.014609722  0.013053005         2445 
 4799000   0.47752367   -7.6952931    840.80724   0.01460039  0.013048773         2402 
 4800000   0.47369983   -7.7221802    839.97232  0.014582853  0.013044546         2408 
 4801000   0.48508149   -7.7062962    841.34992  0.014603727  0.013040317         2383 
 4802000   0.48003213   -7.7019328    841.37106  0.014601053  0.013036091         2439 
 4803000   0.47845862   -7.7145133    840.78968  0.014587926  0.013031867         2432 
 4804000   0.48726737   -7.7180044    840.98212  0.014588227  0.013027648         2418 
 4805000   0.48954613   -7.7117942     839.9964  0.014568096  0.013023426         2429 
 4806000   0.49531482   -7.6911799    840.60127  0.014575553  0.013019205         2402 
 4807000   0.49023125   -7.7098981    840.84329  0.014576716  0.013014988         2409 
 4808000    0.4729665   -7.7025885    841.63518  0.014587409  0.013010771         2417 
 4809000   0.47842991   -7.7174372    840.66421  0.014567551  0.013006556         2408 
 4810000   0.47854991   -7.7131592    841.51823  0.014579318  0.013002346         2417 
 4811000   0.48169998   -7.7012049    839.95776  0.014549258  0.012998132         2441 
 4812000   0.46870143   -7.7156597    840.55288  0.014556541  0.012993923         2452 
 4813000   0.47784896   -7.6884734    841.23103  0.014565258  0.012989715         2407 
 4814000   0.47831761   -7.7152368    840.12006  0.014543001  0.012985509         2452 
 4815000   0.48234537    -7.703785     841.1179   0.01455725  0.012981302         2413 
 4816000     0.480121     -7.71606    840.93838  0.014551121    0.0129771         2407 
 4817000   0.47991437   -7.7061292    839.13685  0.014516934  0.012972896         2425 
 4818000   0.47902236   -7.7165944    841.68416   0.01455798  0.012968692         2376 
 4819000   0.47939648    -7.691095    840.08461  0.014527298  0.012964494         2443 
 4820000   0.48419918   -7.7183012    839.79214  0.014519228    0.0129603         2409 
 4821000   0.48767887    -7.713124    839.98635  0.014519573  0.012956101         2398 
 4822000   0.49004565   -7.7139143     840.9413  0.014533065   0.01295191         2394 
 4823000   0.46766123   -7.7227473    841.70112  0.014543181  0.012947718         2468 
 4824000   0.48387487   -7.7112233    840.72995  0.014523389  0.012943532         2437 
 4825000   0.49278006   -7.7104773    840.50669  0.014516523  0.012939347         2436 
 4826000   0.48350467   -7.7043225    840.79181  0.014518438  0.012935163         2348 
 4827000   0.47864413   -7.7203562     841.0307  0.014519555  0.012930977         2402 
 4828000   0.47717842   -7.6918645    841.56688  0.014525802  0.012926795         2458 
 4829000    0.4759842   -7.7047545    840.04975  0.014496613  0.012922611         2447 
 4830000   0.47224759   -7.7042893    840.35875  0.014498943  0.012918433         2429 
 4831000   0.48487309   -7.7149586     839.7813  0.014485981  0.012914255         2454 
 4832000   0.48353647   -7.7147097    840.33973  0.014492614  0.012910079         2420 
 4833000   0.48054901   -7.7065682    841.73473  0.014513669  0.012905905         2395 
 4834000   0.48182802   -7.7062055    840.77184  0.014494067  0.012901732         2435 
 4835000   0.47785604   -7.7120978    840.52062  0.014486739  0.012897559         2414 
 4836000   0.46946586   -7.7046146    840.31367  0.014480178  0.012893391         2432 
 4837000   0.49149123   -7.6939105    840.63878  0.014482785  0.012889224         2399 
 4838000   0.47043932   -7.7058966    839.50516  0.014460265  0.012885061         2423 
 4839000    0.4783942   -7.7220044    840.50423  0.014474482  0.012880897         2427 
 4840000   0.48080356     -7.71814    840.94798  0.014479132  0.012876737         2415 
 4841000   0.47973312   -7.7071342    840.47507     0.014468  0.012872575         2447 
 4842000   0.46337818   -7.7018028    841.03769  0.014474695  0.012868419         2428 
 4843000   0.47866534   -7.6967364    839.80823  0.014450551  0.012864262         2393 
 4844000   0.47776848   -7.7193788    839.85825  0.014448428  0.012860109         2448 
 4845000   0.48226484    -7.712376     840.1094  0.014449766  0.012855954         2407 
 4846000   0.47031765   -7.7210578    840.61622    0.0144555    0.0128518         2401 
 4847000   0.46683042   -7.7005263    840.08243   0.01444334  0.012847649         2389 
 4848000   0.48175595   -7.7168866    839.08487  0.014423213  0.012843501         2380 
 4849000   0.48991488   -7.7156278    840.56922  0.014445749  0.012839355         2418 
 4850000   0.48383523   -7.7130379    840.72891  0.014445514  0.012835209         2443 
 4851000   0.47988361   -7.7219096    839.69076  0.014424702  0.012831062         2416 
 4852000    0.4781861   -7.7160601    839.69017  0.014421719  0.012826918         2435 
 4853000    0.4753791   -7.7096788     840.1619  0.014426848  0.012822778         2376 
 4854000   0.46869984   -7.7239484    840.09971  0.014422808  0.012818636         2413 
 4855000   0.47663285   -7.7060072     839.3744  0.014407387    0.0128145         2394 
 4856000   0.48899159   -7.7202038    841.39684  0.014439127  0.012810363         2375 
 4857000   0.47207865   -7.7141859    838.91884  0.014393639   0.01280623         2413 
 4858000   0.47310192   -7.7168272    840.12431  0.014411354  0.012802093         2419 
 4859000    0.4748664   -7.7098568    839.16955  0.014392014  0.012797961         2413 
 4860000   0.45828955    -7.719444    839.58239  0.014396132  0.012793832         2412 
 4861000   0.47091576   -7.7156435     839.6813  0.014394866  0.012789703         2443 
 4862000    0.4722036   -7.7214732    840.17635   0.01440039  0.012785577         2454 
 4863000   0.47678416   -7.7154101    839.22395  0.014381108   0.01278145         2419 
 4864000   0.47590737   -7.7097239    840.03189  0.014391994  0.012777329         2462 
 4865000   0.47225029   -7.7205638    839.65992  0.014382664  0.012773209         2411 
 4866000   0.48372807   -7.7243059    838.92094  0.014367053  0.012769091         2414 
 4867000   0.46869328   -7.7078364    840.07115  0.014383795  0.012764974         2394 
 4868000   0.46746699   -7.7178908    839.19161  0.014365783  0.012760859         2450 
 4869000   0.47171901   -7.7175043    839.45985  0.014367424  0.012756745         2409 
 4870000   0.46137119   -7.6954723    840.04754   0.01437453  0.012752631         2408 
 4871000   0.47186955   -7.7192399    839.92164  0.014369425  0.012748517         2466 
 4872000   0.48437383   -7.7172706     840.2953  0.014372867  0.012744405         2413 
 4873000   0.47845106   -7.7305976     840.7785  0.014378181  0.012740296         2457 
 4874000   0.46728735   -7.7030397    840.02925   0.01436242  0.012736187         2413 
 4875000   0.46770018   -7.7259848    841.82576  0.014390184  0.012732084         2376 
 4876000   0.47296827   -7.7163893    839.45394  0.014346697  0.012727979         2409 
 4877000   0.46332693   -7.7042938    839.21164  0.014339615  0.012723879         2455 
 4878000   0.47289864    -7.714781    840.22321  0.014353957  0.012719778         2449 
 4879000   0.46860519   -7.7278685      841.076   0.01436558  0.012715677         2454 
 4880000   0.47145117   -7.7297515    839.65429  0.014338359   0.01271158         2434 
 4881000   0.45919518   -7.7245801    839.15321  0.014326866  0.012707485         2431 
 4882000   0.47671423   -7.7309397    840.44573  0.014345994  0.012703392         2457 
 4883000   0.46992612   -7.7288429    839.65162  0.014329504  0.012699297         2411 
 4884000   0.45662006   -7.7182077      839.951  0.014331678  0.012695205         2398 
 4885000   0.47605266   -7.7233221    838.74151  0.014308112  0.012691116         2407 
 4886000   0.46620945   -7.7343521    840.83567    0.0143409  0.012687025         2444 
 4887000   0.46710503   -7.7375804    839.60723  0.014317018   0.01268294         2429 
 4888000   0.46527117   -7.7283055    839.23415  0.014307729  0.012678853         2422 
 4889000   0.46954171   -7.7291416    840.60365  0.014328146  0.012674769         2457 
 4890000   0.46488672   -7.7291143      839.642  0.014308828  0.012670686         2437 
 4891000   0.47418626   -7.7302642    838.15688  0.014280598  0.012666605         2441 
 4892000   0.46425411    -7.743638     839.5018  0.014300589  0.012662525         2421 
 4893000   0.46111118   -7.7247051    840.52734  0.014315133  0.012658447         2393 
 4894000   0.47415896   -7.7226704    839.25626  0.014290564   0.01265437         2423 
 4895000   0.46981162   -7.7177083    839.67306  0.014294741  0.012650294         2446 
 4896000   0.46369869   -7.7252278    840.29185  0.014302353   0.01264622         2428 
 4897000   0.46510934   -7.7223524    839.18709  0.014280633  0.012642149         2390 
 4898000   0.46863204   -7.7247991     838.7936  0.014271022  0.012638082         2413 
 4899000   0.46906672   -7.7154048    840.13111  0.014290861  0.012634017         2399 
 4900000   0.47329276   -7.7189146    840.13775  0.014288057   0.01262995         2416 
 4901000   0.46154431   -7.7233764    840.33705   0.01428853  0.012625886         2441 
 4902000   0.46130338   -7.7272094     839.5693  0.014272564  0.012621822         2469 
 4903000   0.46179401   -7.7182879    839.40018  0.014266778  0.012617762         2441 
 4904000   0.47725779   -7.7229808    839.30036  0.014262173    0.0126137         2416 
 4905000   0.46642735   -7.7295425    838.34416   0.01424302   0.01260964         2424 
 4906000   0.47265495    -7.741566     840.4789  0.014276378  0.012605581         2460 
 4907000   0.46191247   -7.7416071    838.91418  0.014246895  0.012601527         2451 
 4908000   0.46159817   -7.7261495    839.47367  0.014253492  0.012597472         2447 
 4909000    0.4603327   -7.7369631    839.70887  0.014254581  0.012593417         2442 
 4910000   0.46035161   -7.7334719    838.52213  0.014231536  0.012589365         2422 
 4911000   0.45945872   -7.7292484    840.14321  0.014256146  0.012585317         2425 
 4912000   0.46497393   -7.7339683    839.77354  0.014246972  0.012581272         2440 
 4913000   0.45890668   -7.7284612    839.26648  0.014235472  0.012577229         2440 
 4914000   0.45522369   -7.7342007    840.38137  0.014251482  0.012573186         2426 
 4915000   0.46561159   -7.7240059    838.07063  0.014209404  0.012569143         2447 
 4916000   0.47115731   -7.7243569    839.44473  0.014229806  0.012565102         2430 
 4917000   0.46794128   -7.7238491    839.14593  0.014221848  0.012561062         2417 
 4918000   0.47136894    -7.727461    839.46731  0.014224402  0.012557024         2401 
 4919000   0.47260172   -7.7346312    840.53888  0.014239664  0.012552988         2429 
 4920000    0.4598011   -7.7174835    840.24349  0.014231766  0.012548955         2436 
 4921000    0.4697764   -7.7307497    839.23412  0.014211782  0.012544922         2395 
 4922000    0.4587495   -7.7273443     840.3144  0.014227184  0.012540891         2380 
 4923000   0.46723359   -7.7271644    840.98694  0.014235678  0.012536862         2423 
 4924000    0.4565253   -7.7384982     839.0065  0.014199271  0.012532835         2431 
 4925000   0.46966147   -7.7403561    839.41501    0.0142033  0.012528809         2385 
 4926000   0.45880553   -7.7360224    840.46672  0.014218208  0.012524781         2425 
 4927000   0.46691628   -7.7202338    838.53022  0.014182569  0.012520761         2436 
 4928000   0.45676079   -7.7291544    839.85039  0.014202015  0.012516741         2470 
 4929000   0.46373222   -7.7165725    839.09511  0.014186365   0.01251272         2421 
 4930000   0.46238845   -7.7489169    839.53397  0.014190905  0.012508704         2443 
 4931000   0.45859585   -7.7410737    839.51341   0.01418768  0.012504685         2400 
 4932000   0.46662491   -7.7240509    838.02227  0.014159608  0.012500668         2417 
 4933000   0.45875839    -7.725937    840.10181  0.014191868  0.012496656         2454 
 4934000   0.46624596    -7.729255    840.66537   0.01419851  0.012492645         2427 
 4935000   0.45824163   -7.7382103    839.17174  0.014170411  0.012488637         2457 
 4936000   0.46788606   -7.7350102    840.46036  0.014189296  0.012484631         2424 
 4937000   0.46234863   -7.7266019    838.80512  0.014158482  0.012480625         2454 
 4938000    0.4740805   -7.7307595    840.85782  0.014190256  0.012476619         2431 
 4939000   0.46206155   -7.7154772    839.24834  0.014160227  0.012472618         2442 
 4940000   0.45376221   -7.7301098      838.716  0.014148381  0.012468618         2398 
 4941000   0.46373437   -7.7420075    840.13604  0.014169467  0.012464619         2427 
 4942000    0.4703555   -7.7340647    838.76305  0.014143448  0.012460622         2415 
 4943000   0.45784641   -7.7374919    839.63768  0.014155332  0.012456624         2406 
 4944000    0.4515197   -7.7316787    837.76661  0.014120931   0.01245263         2426 
 4945000   0.45939684   -7.7314555    839.61917  0.014149295  0.012448638         2484 
 4946000   0.46820085   -7.7316838    838.93059  0.014134833  0.012444648         2437 
 4947000   0.46333622   -7.7264636    839.72219   0.01414531  0.012440658         2470 
 4948000   0.46864382   -7.7485872    840.47366  0.014155107  0.012436671         2441 
 4949000   0.45477118   -7.7249307    838.49358  0.014118906  0.012432684         2398 
 4950000   0.45028996   -7.7316723    838.97477  0.014124154  0.012428699         2467 
 4951000   0.45905843   -7.7246151    839.47483  0.014129718  0.012424716         2431 
 4952000   0.44833983   -7.7352546     840.4261  0.014142873  0.012420735         2485 
 4953000   0.45571985   -7.7344466    839.25143  0.014120254  0.012416752         2445 
 4954000   0.46286212   -7.7346981    840.28213  0.014134742  0.012412774         2446 
 4955000   0.45841357   -7.7335859    840.08261  0.014128534  0.012408797         2453 
 4956000   0.47095134   -7.7378563    838.69324  0.014102321  0.012404819         2442 
 4957000   0.45744947   -7.7403296    838.39551  0.014094471  0.012400844         2463 
 4958000   0.45715555    -7.736838    839.65696   0.01411283  0.012396871         2433 
 4959000   0.45725241   -7.7294106    839.81118  0.014112576  0.012392898         2418 
 4960000   0.46605904   -7.7357473    839.39634  0.014102761  0.012388929         2430 
 4961000   0.46476104   -7.7324007    837.68414  0.014071157  0.012384961         2454 
 4962000   0.46009696   -7.7452538    839.09734  0.014092055  0.012380994         2449 
 4963000   0.45625367   -7.7491906    838.85545  0.014085154  0.012377028         2458 
 4964000   0.44392547   -7.7504951    839.51275  0.014093351  0.012373064         2451 
 4965000   0.45512194    -7.746453    838.86666  0.014079669  0.012369101         2435 
 4966000   0.45356706   -7.7494025    839.36023  0.014085116  0.012365142         2451 
 4967000   0.45972305   -7.7373722    839.05771  0.014077205  0.012361183         2475 
 4968000   0.45788773     -7.74106    839.15545  0.014076011  0.012357229         2432 
 4969000   0.46324343   -7.7456739    839.17556  0.014073515  0.012353272         2460 
 4970000   0.45238085   -7.7360171    839.06116  0.014068765  0.012349317         2442 
 4971000   0.46061667   -7.7214124    838.17696  0.014051112  0.012345363         2426 
 4972000   0.45696889   -7.7426681    839.12516  0.014064179   0.01234141         2470 
 4973000   0.45655163   -7.7405392    838.67324  0.014053778  0.012337461         2449 
 4974000    0.4569751   -7.7486938    840.08589  0.014074619  0.012333512         2453 
 4975000   0.45942707   -7.7402457    838.77683  0.014049863  0.012329569         2430 
 4976000   0.45165821   -7.7400347    838.78687  0.014047208  0.012325625         2459 
 4977000   0.45660154   -7.7490303    838.09584  0.014032815  0.012321682         2453 
 4978000   0.45669974   -7.7372314    838.27902  0.014033062  0.012317742         2443 
 4979000   0.46904695   -7.7450826    838.25523  0.014029846  0.012313805         2444 
 4980000   0.45994179   -7.7548343    839.96188  0.014055587  0.012309865         2423 
 4981000   0.45696441   -7.7540708    838.82203  0.014033695  0.012305925         2450 
 4982000      0.44941   -7.7615982    838.54968  0.014026323  0.012301988         2433 
 4983000   0.45699587   -7.7364374     839.2923  0.014035927  0.012298055         2383 
 4984000   0.46072566   -7.7526426    839.27353  0.014032797  0.012294126         2423 
 4985000   0.47241345   -7.7477634    838.64934  0.014019548  0.012290195         2441 
 4986000   0.45442431   -7.7468059    838.87625  0.014020528  0.012286266         2423 
 4987000   0.45268933   -7.7355341    838.84237  0.014017151  0.012282338         2454 
 4988000   0.45125874   -7.7400166    838.53444  0.014009196  0.012278412         2433 
 4989000   0.44306397   -7.7449546    838.79038  0.014010663  0.012274488         2404 
 4990000   0.45028644   -7.7602006    839.67432  0.014022617  0.012270568         2443 
 4991000   0.45632196   -7.7499333    838.79041  0.014005049  0.012266646         2433 
 4992000   0.45268723   -7.7414526     836.9995  0.013972347  0.012262726         2444 
 4993000   0.44503727   -7.7477046      839.252  0.014007143  0.012258806         2454 
 4994000   0.45422721   -7.7429494    838.32663  0.013988897  0.012254889         2446 
 4995000   0.44608449   -7.7472702    839.26145  0.014001693  0.012250975         2463 
 4996000    0.4457344   -7.7464982    838.62306  0.013988242  0.012247062         2459 
 4997000    0.4617063   -7.7350577    838.54067  0.013984068  0.012243149         2410 
 4998000   0.45388134   -7.7505333    838.64607  0.013983028   0.01223924         2433 
 4999000   0.44769639   -7.7484056     839.4955   0.01399439  0.012235332         2465 
 5000000    0.4487403   -7.7390439    838.48966  0.013974828  0.012231424         2442 
 5001000   0.45516834    -7.745638    839.36684   0.01398665  0.012227519         2434 
 5002000   0.44599364    -7.743719    839.20976  0.013981237  0.012223614         2473 
 5003000    0.4523243    -7.761716    838.11902  0.013960274  0.012219712         2426 
 5004000   0.44490175   -7.7351676    839.77673  0.013985091  0.012215809         2452 
 5005000   0.45682612   -7.7526812     838.6128  0.013962917  0.012211911         2447 
 5006000    0.4543182   -7.7522581    838.81028  0.013963415  0.012208011         2475 
 5007000    0.4456661    -7.764422    839.90401   0.01397883  0.012204116         2453 
 5008000    0.4595658   -7.7587231    838.26882  0.013948829  0.012200222         2420 
 5009000   0.45076922    -7.747743    838.96473  0.013957622  0.012196329         2415 
 5010000      0.45091   -7.7517091    838.11772  0.013940747  0.012192437         2458 
 5011000   0.45550546   -7.7417426    838.61998  0.013946318  0.012188547         2454 
 5012000    0.4550738    -7.753009    839.01412  0.013950088  0.012184656         2479 
Loop time of 10713.1 on 48 procs for 5000000 steps with 4000 atoms

Performance: 80648.910 tau/day, 466.718 timesteps/s
99.4% CPU use with 48 MPI tasks x no OpenMP threads

MPI task timing breakdown:
Section |  min time  |  avg time  |  max time  |%varavg| %total
---------------------------------------------------------------
Pair    | 692.47     | 731.71     | 769.38     |  53.9 |  6.83
Neigh   | 67.16      | 68.341     | 71.21      |   8.9 |  0.64
Comm    | 585.33     | 622.65     | 660.26     |  64.1 |  5.81
Output  | 14.78      | 14.785     | 14.881     |   0.4 |  0.14
Modify  | 9119.1     | 9154.8     | 9189.7     |  21.7 | 85.45
Other   |            | 120.8      |            |       |  1.13

Nlocal:        83.3333 ave          95 max          77 min
Histogram: 3 6 11 13 8 3 3 0 0 1
Nghost:        1784.92 ave        1809 max        1765 min
Histogram: 3 2 7 9 6 12 4 2 2 1
Neighs:        10880.5 ave       12991 max       10040 min
Histogram: 7 7 11 16 3 3 0 0 0 1
FullNghs:      21760.3 ave       25524 max       19695 min
Histogram: 3 8 6 13 12 2 3 0 0 1

Total # of neighbors = 1044495
Ave neighs/atom = 261.12375
Neighbor list builds = 269788
Dangerous builds = 0

#clear
#
#next RN
#
#jump SELF
Total wall time: 2:58:36
