
units lj                  # Use reduced LJ style units
atom_style atomic         # Uncharged point particles
atom_modify map hash      # Needed for indexing of clusters etc
                          # Used to be able to find where atoms are in relation to each other.

lattice fcc 1.0 spacing 1 1 1
Lattice spacing in x,y,z = 1.5874011 1.5874011 1.5874011
region box block 0 10 0 10 0 10 units lattice
create_box 2 box
Created orthogonal box = (0.0000000 0.0000000 0.0000000) to (15.874011 15.874011 15.874011)
  3 by 4 by 4 MPI processor grid
create_atoms 1 box
Created 4000 atoms
  using lattice units in orthogonal box = (0.0000000 0.0000000 0.0000000) to (15.874011 15.874011 15.874011)
  create_atoms CPU = 0.002 seconds
set type 1 type/fraction 2 0.75 78393
Setting atom values ...
  3002 settings made for type/fraction
mass 1 1.0
mass 2 1.0
pair_style lj/cut  3.5
pair_modify tail  yes
pair_coeff 1  1  1.0  1.0   # Intearaction between 1 and 1 set with epsilon = 1 and sigma = 1
pair_coeff 1  2  1.5  0.8
pair_coeff 2  2  0.5  0.88

write_data data.0
System init for write_data ...
Neighbor list info ...
  update every 1 steps, delay 10 steps, check yes
  max neighbors/atom: 2000, page size: 100000
  master list distance cutoff = 3.8
  ghost atom cutoff = 3.8
  binsize = 1.9, bins = 9 9 9
  1 neighbor lists, perpetual/occasional/extra = 1 0 0
  (1) pair lj/cut, perpetual
      attributes: half, newton on
      pair build: half/bin/atomonly/newton
      stencil: half/bin/3d
      bin: standard
WARNING: Not all mixed pair coeffs generated from mixing. Use write_data with 'pair ij' option to store all pair coeffs. (../write_data.cpp:312)


#############################
#   M E L T   S Y S T E M   #
#############################

velocity all create 2.4 6583654 mom yes dist gaussian # Assign velocities
                                                    # Temperature 2.4, random number seed, zero linear momentum
                                                                                # Gaussian distribution

timestep 0.002   # simulation timestep
thermo 1000       # output thermodynamic data every 1000 steps bf 100

# Define a fix  in this case with index 1 applied to all
# particles in the simulation. This fix is for simulations
# in the anisotropic NPT ensemble. Note that we use the MTK
# correction.
fix 1 all npt temp 2.4 2.4 0.1 iso 5.68 5.68 0.5 mtk yes tchain 5 pchain 5 # Use NPT ensemble
                                                                         # Set temperature and pressure and damping
                                                                         # Numbers of thermostats in chain and in barostat
run 10000          # run for 10000 steps
Per MPI rank memory allocation (min/avg/max) = 3.642 | 3.644 | 3.648 Mbytes
Step Temp E_pair E_mol TotEng Press Volume 
       0          2.4    -3.937065            0  -0.33796495   -3.5201857         4000 
    1000    2.3797952   -3.4360114            0     0.132789    5.5786665    3723.8866 
    2000    2.3875813   -3.4270362            0   0.15344037    5.7113256    3725.1838 
    3000    2.3952695   -3.4092014            0   0.18280468    5.7506095    3716.3706 
    4000     2.385421   -3.4722594            0   0.10497762    5.6644452    3686.5929 
    5000     2.467368   -3.3949925            0   0.30513423    5.8867724    3719.8269 
    6000    2.4228803   -3.4030944            0   0.23031742    6.0378772    3693.9553 
    7000    2.4170993   -3.4387609            0    0.1859817    5.7214307    3713.9052 
    8000    2.3439258   -3.4463947            0  0.068615002    5.7251955    3706.2596 
    9000    2.3624762   -3.4564669            0  0.086361581    5.6880023    3697.8753 
   10000    2.4119772   -3.4945693            0   0.12249197     5.534381     3699.399 
Loop time of 2.60564 on 48 procs for 10000 steps with 4000 atoms

Performance: 663177.514 tau/day, 3837.833 timesteps/s
99.7% CPU use with 48 MPI tasks x no OpenMP threads

MPI task timing breakdown:
Section |  min time  |  avg time  |  max time  |%varavg| %total
---------------------------------------------------------------
Pair    | 1.1757     | 1.2382     | 1.3191     |   2.7 | 47.52
Neigh   | 0.21358    | 0.22172    | 0.23692    |   0.9 |  8.51
Comm    | 0.8116     | 0.88235    | 0.96642    |   3.6 | 33.86
Output  | 0.00024477 | 0.00024987 | 0.00031122 |   0.0 |  0.01
Modify  | 0.20782    | 0.2478     | 0.28531    |   4.3 |  9.51
Other   |            | 0.01533    |            |       |  0.59

Nlocal:        83.3333 ave          96 max          70 min
Histogram: 1 1 1 12 7 13 6 2 3 2
Nghost:        1732.40 ave        1766 max        1713 min
Histogram: 7 5 6 12 7 4 3 2 1 1
Neighs:        10321.8 ave       12168 max        8731 min
Histogram: 1 3 7 10 7 8 4 4 2 2

Total # of neighbors = 495447
Ave neighs/atom = 123.86175
Neighbor list builds = 908
Dangerous builds = 219

# Equilibrate just above the melting temperature to avoid step fn in T

fix 1 all npt temp 1.25 1.25 0.1 iso 5.68 5.68 0.5 mtk yes tchain 5 pchain 5
run 2000
Per MPI rank memory allocation (min/avg/max) = 3.644 | 3.646 | 3.649 Mbytes
Step Temp E_pair E_mol TotEng Press Volume 
   10000    2.4119772   -3.4945693            0   0.12249197     5.534381     3699.399 
   11000    1.2550514   -5.0994741            0   -3.2173677    5.5979392    2835.5364 
   12000    1.2527554   -5.1079511            0   -3.2292878    5.7656295     2826.053 
Loop time of 0.646974 on 48 procs for 2000 steps with 4000 atoms

Performance: 534179.084 tau/day, 3091.314 timesteps/s
99.6% CPU use with 48 MPI tasks x no OpenMP threads

MPI task timing breakdown:
Section |  min time  |  avg time  |  max time  |%varavg| %total
---------------------------------------------------------------
Pair    | 0.28934    | 0.31492    | 0.34878    |   2.2 | 48.68
Neigh   | 0.040813   | 0.04334    | 0.048257   |   0.6 |  6.70
Comm    | 0.20265    | 0.23972    | 0.26683    |   2.9 | 37.05
Output  | 5.2001e-05 | 5.353e-05  | 6.7568e-05 |   0.0 |  0.01
Modify  | 0.039949   | 0.044144   | 0.048742   |   1.2 |  6.82
Other   |            | 0.004797   |            |       |  0.74

Nlocal:        83.3333 ave          91 max          78 min
Histogram: 6 5 6 12 5 2 4 2 3 3
Nghost:        2082.35 ave        2102 max        2064 min
Histogram: 2 1 7 8 9 10 3 1 3 4
Neighs:        13509.9 ave       15067 max       12316 min
Histogram: 4 6 5 6 10 5 4 5 1 2

Total # of neighbors = 648475
Ave neighs/atom = 162.11875
Neighbor list builds = 144
Dangerous builds = 11

#############################
# L I N E A R  Q U E N C H  #
#############################

# Define solid atoms. This closely follows ten Wolde  Ruiz-Montero and Frenkel  Faraday Discuss  1996  104  93-110
# Compute components of the per-atom q6 vector
compute q6 all orientorder/atom degrees 1 6 components 6 nnn NULL cutoff 1.3 # compute the Q6 parameter.
                                                                             # Use all neighbours within 1.3 unit cell.

# get number of connections
compute coord_number all coord/atom orientorder q6 0.5

# An atom is solid if it has 8 or more connections (of a possible 14)
variable is_solid atom c_coord_number>=8
group solid dynamic all var is_solid    # Must be dynamic to update
dynamic group solid defined

# do clustering
compute cluster solid cluster/atom 1.3 # Create a cluster where all atoms within are solid and max 1.3 units from another member

# define chunks one chunk per cluster
compute clus_chunks solid chunk/atom c_cluster nchunk every compress yes  # Says which atoms are in which chunk

# count the size of each chunk
compute size_chunks solid property/chunk clus_chunks count


# Find the maximum entry in the vector of chunk sizes
variable max_n equal max(c_size_chunks)


# Thermo style which includes this variable
# thermo_style custom step temp pe vol v_max_n

thermo ${N}  # Print the thermo information every 100 steps
thermo 1000  

# Reset the npt fix at a lower temperature (below freezing)
fix 1  all npt temp  ${temp} ${temp}  0.1  iso  5.68  5.68  0.5  mtk yes tchain  5  pchain  5
fix 1  all npt temp  0.45 ${temp}  0.1  iso  5.68  5.68  0.5  mtk yes tchain  5  pchain  5
fix 1  all npt temp  0.45 0.45  0.1  iso  5.68  5.68  0.5  mtk yes tchain  5  pchain  5

dump dmp2 all dcd ${N} traj.dcd
dump dmp2 all dcd 1000 traj.dcd


compute msd all msd com yes
variable twopoint equal c_msd[4]/6/(step*dt+1.0e-6)
fix 9 all vector 10 c_msd[4]
variable fit equal slope(f_9)/6/(10*dt)
thermo_style custom step temp pe c_msd[4] v_twopoint v_fit v_max_n

fix 1 all npt temp 1.25 ${temp} 0.1 iso 5.68 5.68 0.5 mtk yes tchain 5 pchain 5
fix 1 all npt temp 1.25 0.45 0.1 iso 5.68 5.68 0.5 mtk yes tchain 5 pchain 5
run 2000000 # 5000000  # Run for this many steps
Neighbor list info ...
  update every 1 steps, delay 10 steps, check yes
  max neighbors/atom: 2000, page size: 100000
  master list distance cutoff = 3.8
  ghost atom cutoff = 3.8
  binsize = 1.9, bins = 8 8 8
  4 neighbor lists, perpetual/occasional/extra = 1 3 0
  (1) pair lj/cut, perpetual
      attributes: half, newton on
      pair build: half/bin/atomonly/newton
      stencil: half/bin/3d
      bin: standard
  (2) compute orientorder/atom, occasional
      attributes: full, newton on
      pair build: full/bin/atomonly
      stencil: full/bin/3d
      bin: standard
  (3) compute coord/atom, occasional
      attributes: full, newton on
      pair build: full/bin/atomonly
      stencil: full/bin/3d
      bin: standard
  (4) compute cluster/atom, occasional
      attributes: full, newton on
      pair build: full/bin/atomonly
      stencil: full/bin/3d
      bin: standard
Per MPI rank memory allocation (min/avg/max) = 9.843 | 9.847 | 9.853 Mbytes
Step Temp PotEng c_msd[4] v_twopoint v_fit v_max_n 
   12000    1.2527554   -5.1079511 8.3500927e-31 5.7986752e-33 8.3333333e+20            1 
   13000    1.2360692   -5.0761301    0.6782733 0.0043479056  0.057030921            2 
   14000    1.2455039   -5.1472708    1.4240326  0.008476384  0.058629334            3 
   15000    1.2378727   -5.0588095    2.1725296  0.012069608    0.0602983            2 
   16000    1.2356914   -5.0814807    2.9013206  0.015111044  0.061159741            1 
   17000    1.2474424   -5.1338583    3.5373504  0.017339952  0.060231054            2 
   18000    1.2221381   -5.1360899    4.2577805  0.019711946  0.059570125            2 
   19000    1.2511767   -5.0954795    4.8638674  0.021332751  0.058712969            1 
   20000    1.2251123   -5.0772915     5.554312  0.023142966  0.058028997            1 
   21000     1.234559   -5.0541941    6.2645643  0.024859382  0.057531503            2 
   22000    1.2416477   -5.0908616     6.861986   0.02599237  0.057245559            1 
   23000    1.2688807   -5.1105357    7.5757574  0.027448396  0.056984873            3 
   24000    1.2338414   -5.0996754    8.2292885  0.028573918   0.05690461            1 
   25000    1.2435696   -5.1207697     8.876337  0.029587789  0.056682159            3 
   26000    1.2439015   -5.1035364    9.5630649  0.030650848  0.056544696            2 
   27000    1.2538067   -5.1167923    10.276969  0.031719038  0.056458171            1 
   28000    1.2569642   -5.1116579    11.100384  0.033036858  0.056624055            3 
   29000    1.2223707   -5.1257585    11.924892   0.03426693  0.056978739            2 
   30000    1.2389917   -5.1099933    12.701879  0.035282996  0.057316754            1 
   31000    1.2241952   -5.1161149    13.373745  0.035950927  0.057596274            2 
   32000    1.2294788   -5.1512304    14.026254  0.036526703  0.057827485            1 
   33000    1.2753841   -5.1312454    14.664457  0.037031458   0.05795547            1 
   34000     1.247376   -5.1385516    15.339606  0.037597074  0.058013855            3 
   35000    1.2306928   -5.0966813    15.976758  0.038039899  0.058019608            3 
   36000    1.2338996   -5.1387632    16.682008   0.03861576  0.057985721            1 
   37000    1.2343355   -5.1335628    17.273594  0.038904491  0.057940296            4 
   38000    1.2782957     -5.11181    18.132854  0.039765029   0.05791899            1 
   39000     1.210869   -5.0957375    18.922458  0.040432602  0.057974411            1 
   40000    1.2546348    -5.144171    19.571008  0.040772933  0.058039782            2 
   41000    1.2357838   -5.1337839    20.238055  0.041134259  0.058092577            4 
   42000    1.2420504   -5.0956894    20.833494  0.041336297  0.058079753            3 
   43000    1.2327326   -5.0994215    21.496875   0.04166061  0.058035596            2 
   44000    1.2354859   -5.1027316    22.136343  0.041924892  0.057980106            2 
   45000    1.2422182   -5.1520629    22.795663   0.04221419  0.057896722            5 
   46000    1.2366455     -5.09285    23.484625  0.042544611  0.057848002            2 
   47000    1.2413668   -5.1045799    24.005373  0.042562718  0.057717018            2 
   48000    1.2503088   -5.1197605    24.796167  0.043048901  0.057628377            4 
   49000    1.2541646   -5.1205929    25.388084  0.043177014  0.057576364            1 
   50000      1.20457    -5.108427    25.986229  0.043310382  0.057491289            1 
   51000     1.243454    -5.132928    26.796477  0.043785093  0.057401475            2 
   52000    1.2457172   -5.1267297    27.762783  0.044491638  0.057369653            4 
   53000    1.2198311   -5.1299992    28.225879  0.044380312  0.057368918            3 
   54000     1.250459   -5.1059191     29.10657  0.044917546  0.057376975            2 
   55000     1.238216     -5.11312    29.946058  0.045372814  0.057408385            2 
   56000    1.2004503   -5.1245572    30.524257  0.045423001   0.05743083            4 
   57000    1.2332175   -5.1374044    30.988649  0.045305041  0.057425066            2 
   58000    1.2039548    -5.188806    31.257547  0.044910268  0.057377028            4 
   59000    1.2428519   -5.1310324    32.001482  0.045199833  0.057277141            2 
   60000    1.2244414   -5.1336591    32.812734  0.045573241  0.057185169            2 
   61000    1.2212035   -5.1143469    33.530904  0.045807246  0.057118268            1 
   62000    1.2306599   -5.1677895    33.979372  0.045671199  0.057066974            3 
   63000    1.2130899      -5.1833    34.620285  0.045794027  0.056990158            1 
   64000    1.2402532   -5.1258212     35.21806  0.045856849  0.056919382            3 
   65000     1.226123   -5.1263213    36.028383  0.046190234  0.056844022            3 
   66000    1.2193437   -5.1491199    36.479918  0.046060502  0.056798389            3 
   67000    1.1995297   -5.1351906    37.496654  0.046637629  0.056751232            2 
   68000    1.2203291    -5.135363    38.159589  0.046764202  0.056724946            9 
   69000    1.2252973   -5.1960989    38.702744  0.046742444  0.056699079            2 
   70000    1.1841791    -5.170448     39.27736  0.046758762  0.056655112            3 
   71000    1.2384349   -5.1283344    40.015486  0.046966532  0.056607111            2 
   72000    1.2438428   -5.1915652    40.425594  0.046788881  0.056536093            2 
   73000    1.2278082   -5.0885172    41.347801  0.047200686  0.056485176            3 
   74000    1.2600611   -5.1679748    41.892916  0.047176707   0.05644157            2 
   75000    1.2183001   -5.1524178    42.657262  0.047396957  0.056409451            6 
   76000    1.2340238   -5.1663178    43.508815  0.047707034  0.056392087            2 
   77000    1.2280967   -5.1210158    44.103352    0.0477309  0.056379727            3 
   78000      1.22938   -5.1800735     44.72211  0.047780031  0.056367938            3 
   79000    1.2178781   -5.1775633    45.394693  0.047884697  0.056348324            3 
   80000    1.2322873   -5.1602126     46.30033   0.04822951  0.056346405            2 
   81000    1.2337796   -5.1954172    46.651872  0.047995752  0.056349177            4 
   82000    1.2401253    -5.128597    47.452703  0.048224292   0.05633512            2 
   83000    1.2167918   -5.1700669    48.236209  0.048429929  0.056313429            1 
   84000    1.2265403   -5.1343081    48.979714  0.048590986  0.056309295            2 
   85000    1.2557294    -5.191254    49.416183  0.048447238  0.056306764            1 
   86000    1.2331159   -5.1068708    50.569639  0.049001587  0.056303269            1 
   87000    1.2420219   -5.1201899    50.998977  0.048849595   0.05631074            1 
   88000    1.2189812   -5.1480356    51.817734  0.049069823  0.056312979            3 
   89000    1.2105578   -5.1793831     52.38059  0.049045496  0.056315325            3 
   90000    1.2073989   -5.1282868    52.966875  0.049043403  0.056312911            3 
   91000    1.2006626   -5.1592111    53.516793  0.049008052  0.056301351            3 
   92000    1.2367272   -5.1724696    54.310314  0.049194125  0.056285662            3 
   93000    1.2182959   -5.1360818    55.006591   0.04928906  0.056277075            3 
   94000     1.208493   -5.1309041     55.65947  0.049343501  0.056266379            1 
   95000    1.2161884   -5.1516091    56.325544  0.049408371  0.056252644            1 
   96000    1.2290207   -5.1491008    57.013777  0.049491126  0.056250414            2 
   97000    1.2153099   -5.1528314     57.81703  0.049670988  0.056249455            3 
   98000    1.2329169   -5.1554031    58.483059  0.049730492  0.056249045            6 
   99000    1.2086831   -5.1772425    59.246194  0.049870533  0.056259721            3 
  100000    1.2056599   -5.1989397    59.922253  0.049935211  0.056276586            2 
  101000    1.2185604   -5.1582903    60.310717  0.049761317  0.056286239            3 
  102000    1.2084135   -5.1450761    61.209197  0.050007514  0.056278724            1 
  103000    1.2065056   -5.1798574    61.376414  0.049657293  0.056268446            3 
  104000    1.2175378   -5.1519689    62.079155  0.049742912  0.056253423            2 
  105000    1.2016041   -5.1800275    62.829052  0.049864326  0.056236182            2 
  106000    1.2050274   -5.1697686    63.136238  0.049635407  0.056220346            2 
  107000    1.2113116    -5.186432      63.7968  0.049685981  0.056192924            3 
  108000    1.1882889   -5.1418004    64.523012  0.049786275  0.056162514            3 
  109000     1.206431   -5.1473182    65.187778   0.04983775  0.056127976            3 
  110000    1.2166328   -5.1401952    65.941165  0.049955428  0.056105262            4 
  111000    1.2096153   -5.1818531    66.445174  0.049883764  0.056079722            5 
  112000    1.2091707    -5.176042    67.230572  0.050022747  0.056056528            1 
  113000    1.2047132   -5.1300533    68.088871  0.050213031   0.05603453            2 
  114000     1.224328   -5.1893891    68.925538  0.050384165  0.056010092            1 
  115000    1.2099665   -5.1505621     69.32757   0.05023737  0.055990951            3 
  116000    1.2155644   -5.1818824    70.005358  0.050291205  0.055968558            3 
  117000    1.1865885   -5.1954758    70.722752   0.05037233  0.055955118            2 
  118000    1.1732753   -5.1868026    71.405409  0.050427549  0.055941983            1 
  119000    1.2179395   -5.1821082    71.777074  0.050264057  0.055937184            2 
  120000    1.2056902   -5.1891678    73.008873  0.050700606  0.055933424            2 
  121000    1.2131344   -5.1670419    73.510336  0.050626953  0.055928885            4 
  122000    1.1993631   -5.1767342     73.87957  0.050464187  0.055917331            3 
  123000    1.1965605   -5.1234763    74.462423  0.050448796  0.055901878            3 
  124000     1.215719    -5.203113    74.861502  0.050310149  0.055875371            4 
  125000    1.1886828   -5.2198856    75.051736  0.050034491   0.05583984            3 
  126000    1.2168712   -5.2041871    75.523995  0.049949732  0.055802093            3 
  127000    1.1860181   -5.1687212    76.662821  0.050303688  0.055760328            3 
  128000    1.1874011   -5.1365591    77.739714  0.050611793  0.055727131            2 
  129000    1.1984279   -5.1508778    78.170006   0.05049742  0.055702543            4 
  130000    1.2196189   -5.1893835    78.801254  0.050513624  0.055679861            1 
  131000    1.1858275   -5.2027929    79.201008  0.050382321  0.055654148            3 
  132000    1.1762853   -5.1970898    79.810616   0.05038549   0.05563103            3 
  133000    1.2182881   -5.1764515    80.791657  0.050621339  0.055608077            3 
  134000     1.171866   -5.1954694    81.743262  0.050835362  0.055590557            3 
  135000    1.2018884   -5.2097299    81.671512  0.050414513  0.055562779            4 
  136000    1.1966387   -5.1972531    82.403658  0.050492438  0.055530362            2 
  137000     1.189003   -5.2131665    82.774852  0.050349667   0.05550062            4 
  138000    1.1732858   -5.1829811     83.77294  0.050587524   0.05546992            3 
  139000    1.1867548   -5.2087221    84.612288  0.050726791  0.055445373            3 
  140000    1.1899531   -5.2140649    84.984298  0.050585891  0.055420129            3 
  141000    1.2104791   -5.1829323    85.338083  0.050436219  0.055391883            1 
  142000    1.2263555   -5.1918567    85.363265  0.050095813  0.055353334            5 
  143000    1.2273717    -5.183195    86.686449  0.050516578  0.055319264            3 
  144000    1.2214528   -5.1995052    87.416881  0.050588473  0.055291272            2 
  145000    1.1862953   -5.1607791     88.12374  0.050645827  0.055261412            2 
  146000    1.1743088     -5.21104    88.719102  0.050638757  0.055231916            1 
  147000    1.1854272   -5.1605402    89.119375  0.050521187  0.055203679            2 
  148000     1.204319   -5.2249619    90.021254  0.050687643  0.055181144            3 
  149000    1.2025378   -5.2035683    90.976355   0.05088163  0.055160397            2 
  150000    1.2160536   -5.2224013    91.541569  0.050856427  0.055145039            2 
  151000    1.2233563    -5.240871    91.955265  0.050747939  0.055122492            2 
  152000    1.2127762   -5.2183334    92.825536  0.050891193  0.055103816            1 
  153000    1.1951788   -5.1998426    93.654529  0.051010092  0.055081621            2 
  154000    1.2095357   -5.2185512    93.834731   0.05077637  0.055063064            1 
  155000     1.175978   -5.2755254    94.164049  0.050625833  0.055039377            1 
  156000     1.182387   -5.2499026    95.098909  0.050800699  0.055016989            4 
  157000    1.1892335    -5.202935    96.136774  0.051028011  0.054999239            2 
  158000    1.1834208   -5.2202334    96.148808  0.050711396  0.054977988            6 
  159000    1.1951937   -5.2135125    97.390251  0.051043108   0.05495755            3 
  160000     1.184389    -5.209406    97.434843  0.050747314  0.054935853            2 
  161000     1.200849   -5.2238945    97.907641  0.050676833  0.054909409            2 
  162000    1.1824891   -5.1852492     99.01356  0.050932901  0.054885563            4 
  163000    1.1870572   -5.1794119    99.487453  0.050862706  0.054859533            2 
  164000    1.1902787   -5.1977979    100.05981  0.050843402  0.054830666            1 
  165000    1.1864859   -5.2243576    99.867771  0.050438268  0.054799089            3 
  166000    1.2096703   -5.2339104    100.44646  0.050424929  0.054762555            2 
  167000    1.2070159   -5.2145168    101.37513  0.050586391   0.05472724            3 
  168000    1.1753835   -5.2420171    101.67451  0.050433786  0.054692634            2 
  169000    1.1909315   -5.2258877     102.9898  0.050783926  0.054667695            3 
  170000    1.1797479   -5.2030915    103.94188  0.050951904   0.05464833            2 
  171000    1.1797433   -5.1971928    104.69198  0.051019485  0.054628495            3 
  172000    1.2008971   -5.1817485    105.01037  0.050877118  0.054607632            2 
  173000    1.1746488   -5.2537632    105.55971  0.050847644   0.05458689            2 
  174000    1.1998546   -5.2329518     106.2501  0.050886065  0.054565882            2 
  175000    1.1748632    -5.264932    106.46862  0.050699345  0.054543299            3 
  176000    1.1835822    -5.230939    107.68882  0.050989024   0.05452098            2 
  177000    1.1809973   -5.2155282    107.94157  0.050819949  0.054500858            2 
  178000    1.2127769   -5.2447213    108.59785  0.050841688  0.054477414            3 
  179000    1.1641204   -5.2305348    108.82964  0.050665567  0.054449509            6 
  180000    1.1668655    -5.230054    109.58259   0.05073268  0.054422499            1 
  181000     1.203565   -5.2732931    109.87362  0.050586379  0.054399559            2 
  182000    1.2040481   -5.2013114    111.08064  0.050861097  0.054378572            2 
  183000    1.1934616   -5.2168567    112.00249  0.051002956  0.054356316            2 
  184000    1.1735941    -5.229813    111.90865  0.050683265  0.054333802            5 
  185000    1.1799196   -5.2329549    112.53835  0.050692949     0.054312            6 
  186000    1.1585649   -5.2426876    113.50929  0.050855419  0.054289305            2 
  187000    1.1656159   -5.2377722    114.11856  0.050854975  0.054267732            3 
  188000    1.2117617   -5.2869389    114.60869  0.050801724  0.054248823            2 
  189000    1.1904626   -5.2138821    115.40435   0.05088375   0.05423049            2 
  190000    1.1592399    -5.266739    115.89462  0.050830975  0.054209819            2 
  191000    1.1680484   -5.2420244    116.56836  0.050858795  0.054186295            2 
  192000    1.1889201   -5.2184865    117.56003   0.05102432  0.054164674            3 
  193000    1.1679703   -5.2216645    118.25926  0.051061856  0.054146797            3 
  194000    1.1986607    -5.234725    118.13376  0.050744743   0.05412736            1 
  195000    1.1768019   -5.2730623    118.92847  0.050824134  0.054108357            2 
  196000    1.1658559   -5.2676801    119.32837  0.050734852  0.054085743            2 
  197000    1.1820954   -5.2665708    119.33169  0.050478717  0.054060523            1 
  198000    1.1624113   -5.2566693     120.3701  0.050660818  0.054030788            4 
  199000    1.1568642   -5.2340572    120.82985  0.050598765  0.054003331            1 
  200000    1.1872759   -5.2722355    121.36163  0.050567345  0.053978038            3 
  201000    1.1808551   -5.2748609    122.37912  0.050737611  0.053951007            2 
  202000    1.1656085   -5.2701763    123.00957  0.050746524  0.053925596            4 
  203000     1.178977   -5.2516935    123.65763  0.050762574  0.053897283            2 
  204000    1.1865962    -5.253958    124.09067  0.050690632   0.05387042            3 
  205000     1.194102   -5.2075974    124.62713  0.050661434  0.053844571            4 
  206000    1.1906984   -5.2352376    124.70047  0.050445176   0.05382001            4 
  207000    1.1625527   -5.2565753     125.2367   0.05041735  0.053791787            3 
  208000    1.1540589   -5.2190178    126.14339  0.050538218  0.053762673            6 
  209000    1.1730549   -5.2847489    126.00315  0.050240489  0.053733332            2 
  210000    1.1848127    -5.283415    127.22882  0.050487625  0.053705672            2 
  211000    1.1804895   -5.2860716    127.69566  0.050432724  0.053679476            2 
  212000    1.1821211   -5.2787806    128.10263  0.050354806   0.05365238            2 
  213000    1.1522458   -5.2289225    129.35383  0.050607915   0.05362401            4 
  214000    1.2022705    -5.284775     129.5267  0.050438747  0.053597131            3 
  215000    1.1682115   -5.2369512    130.58463  0.050614199  0.053571512            7 
  216000    1.1476435   -5.2898112    129.73905  0.050053645  0.053540022            3 
  217000    1.1671426   -5.2502682    131.00697  0.050309896  0.053508112            2 
  218000    1.1700248   -5.2693156     131.8466  0.050400077  0.053478977            2 
  219000    1.1692469   -5.2711422    132.47591  0.050409401   0.05345358            5 
  220000    1.1559374   -5.2626703    132.97585  0.050369639  0.053423036            4 
  221000    1.1593411   -5.2675735    133.64377   0.05039358  0.053396078            4 
  222000    1.1696202    -5.260265    133.62235  0.050158541  0.053368365            3 
  223000    1.1923605   -5.2633175    135.17103  0.050512344  0.053341512            2 
  224000     1.181666   -5.2306637    135.18549   0.05029222  0.053314075            3 
  225000    1.1877509   -5.2570255    135.67636  0.050250504  0.053286728            2 
  226000     1.173283   -5.3014858    136.06129  0.050170091   0.05325869            2 
  227000    1.1665342   -5.3104175    136.27082  0.050025998  0.053228883            1 
  228000    1.1598759   -5.2597814    137.40403  0.050220772  0.053199007            4 
  229000    1.1775103   -5.2622882    137.69729  0.050108185  0.053173254            3 
  230000    1.1652166    -5.277343    138.23812  0.050086276  0.053145712            2 
  231000    1.1386842   -5.2599474    139.20637  0.050218749  0.053118428            1 
  232000    1.1517737   -5.2687391    139.99596  0.050285906  0.053092474            1 
  233000    1.1739594   -5.2544404    140.13551  0.050119997  0.053066323            6 
  234000    1.1724096    -5.236012    141.13393   0.05026137  0.053037687            2 
  235000    1.1707578   -5.3235278    140.61222   0.04986249  0.053005991            3 
  236000    1.1689821   -5.2946161     141.6602  0.050021256  0.052976733            1 
  237000    1.1611124   -5.2597034    142.68906   0.05017196  0.052947613            3 
  238000    1.1381277   -5.2964845    142.49011  0.049891493  0.052916177            2 
  239000    1.1618251   -5.3188692    142.99223   0.04985782  0.052884508            4 
  240000    1.1617581   -5.2794844    144.10427  0.050036204  0.052853806            2 
  241000    1.1312488   -5.2630488    144.52379  0.049973648  0.052823084            2 
  242000    1.1413018   -5.2948166    145.29607  0.050033083  0.052794713            1 
  243000    1.1435858   -5.2656451    145.90725  0.050036781  0.052762434            2 
  244000    1.1700568   -5.3045202    145.52222   0.04970021  0.052727312            1 
  245000    1.1454643   -5.2779033     146.3363  0.049774251  0.052693878            3 
  246000    1.1720445   -5.2600593     147.1477  0.049846783  0.052660054            4 
  247000    1.1734036     -5.29624    147.02739  0.049604384  0.052626805            2 
  248000    1.1609908   -5.2769878    148.37929  0.049858633  0.052593447            2 
  249000    1.1449621   -5.3046988      148.982  0.049860107  0.052560723            2 
  250000    1.1538142   -5.2651193    148.75449  0.049584831  0.052530286            3 
  251000     1.163364   -5.2996323     149.5889  0.049664309  0.052497381            3 
  252000    1.1615397   -5.3279647    150.40685  0.049737714  0.052465381            1 
  253000    1.1425985   -5.3116472    150.62021  0.049611399  0.052432679            5 
  254000    1.1733417   -5.2399246    152.24444  0.049948962  0.052401225            2 
  255000    1.1671962   -5.3030363    151.88365  0.049635181  0.052369643            4 
  256000    1.1484831   -5.2933417    151.97464   0.04947091  0.052335732            3 
  257000    1.1529149    -5.266547      152.398  0.049415693  0.052300579            4 
  258000    1.1630796   -5.3378686    153.09483  0.049449233  0.052264988            4 
  259000    1.1731777   -5.3055678    153.80347  0.049486316  0.052226676            3 
  260000    1.1463491   -5.2578545    154.09492  0.049389398  0.052188394            2 
  261000    1.1475888   -5.2729005    154.35184  0.049282198  0.052152107            3 
  262000     1.123881   -5.3061947    155.14579  0.049346627  0.052115739            4 
  263000    1.1329794   -5.2734585    156.50527  0.049589756  0.052083011            1 
  264000    1.1397174   -5.3031999    156.36278  0.049356938  0.052052197            2 
  265000    1.1567085    -5.264965     158.0651  0.049706007  0.052021009            3 
  266000    1.1439733   -5.3233355    157.59648   0.04937233  0.051994352            3 
  267000    1.1589282    -5.275249    158.70101  0.049532151  0.051967048            2 
  268000    1.1494978   -5.2917657     159.6117  0.049630505  0.051938601            3 
  269000     1.133867   -5.2938427    160.40775  0.049692613  0.051912257            2 
  270000    1.1514053    -5.261345    160.80298  0.049630549  0.051885455            4 
  271000    1.1569257   -5.2933881    161.40975  0.049633994  0.051858276            3 
  272000    1.1470995    -5.324866    161.40063  0.049448722  0.051830426            4 
  273000     1.148067   -5.2996148    162.14298  0.049494194  0.051803395            3 
  274000    1.1424031   -5.3240679    162.24679  0.049345131  0.051774363            1 
  275000     1.160157   -5.3114701    162.64878  0.049287509  0.051745393            3 
  276000     1.158573   -5.2752097    163.53661  0.049376996  0.051714428            3 
  277000    1.1327988   -5.2900018    163.39349  0.049155682  0.051682984            2 
  278000    1.1509109   -5.3127443    164.77938  0.049394299  0.051653722            3 
  279000    1.1395888   -5.3074324    164.83655  0.049234333  0.051623889            3 
  280000    1.1562663   -5.3379078    164.68285  0.049012753  0.051593141            3 
  281000    1.1496265   -5.2982271    166.01408   0.04923312  0.051563018            3 
  282000    1.1274438   -5.3250574    166.72554  0.049268775  0.051533409            3 
  283000    1.1335513   -5.3424819    166.39881  0.048998473  0.051501005            2 
  284000    1.1358374   -5.3574505    167.22285  0.049067738  0.051470726            1 
  285000    1.1435057   -5.2706622    168.35534  0.049226709  0.051440137            5 
  286000    1.1415919   -5.3447363    168.93097   0.04922231  0.051411128            4 
  287000     1.129924    -5.328398    169.38764  0.049183403  0.051382914            2 
  288000    1.1262708   -5.2713253    170.37295  0.049297728  0.051354384            6 
  289000    1.1248814    -5.314024    170.41901  0.049140429  0.051325345            2 
  290000    1.1420117   -5.3392801    170.61119  0.049026203  0.051296019            5 
  291000    1.1466506   -5.3373201    171.28517  0.049050737  0.051268748            3 
  292000    1.1322194   -5.3467422    171.86518  0.049048282  0.051241168            2 
  293000    1.1444934   -5.3036261    172.78161  0.049141527  0.051214373            1 
  294000    1.1452361   -5.3248002    173.40448  0.049150929  0.051188295            3 
  295000    1.1240363   -5.3336572    174.18789  0.049205619  0.051162847            3 
  296000    1.1506067    -5.309972    174.94602  0.049252821    0.0511388            3 
  297000     1.134444   -5.3477529    175.60391   0.04927158    0.0511154            4 
  298000     1.124547    -5.323991    176.64694  0.049397915  0.051093057            2 
  299000    1.1415389   -5.3291135    176.54382  0.049203963  0.051069772            2 
  300000    1.1204458   -5.3005829    177.53849  0.049316246  0.051046917            2 
  301000    1.1290112   -5.3205732    177.33931  0.049097261  0.051025238            3 
  302000    1.1218881   -5.3198401    178.00197  0.049117542  0.051001577            4 
  303000    1.1412152   -5.3524763    177.74136  0.048883762  0.050977314            2 
  304000    1.1358225   -5.3261699    179.08957  0.049092535  0.050953577            2 
  305000    1.1492763   -5.3098933    180.02721  0.049187763  0.050930245            3 
  306000    1.1410194   -5.3344325    180.05355  0.049034192  0.050907293            4 
  307000    1.1208062   -5.3333358     182.1983  0.049456649   0.05088492            3 
  308000    1.1237965   -5.3597795    181.00397  0.048972936  0.050862572            4 
  309000    1.1343069   -5.3010421    182.22863  0.049144723  0.050839331            2 
  310000    1.1119372   -5.3572284    181.91291   0.04890132  0.050816606            6 
  311000    1.1120466   -5.3213958     182.9513  0.049022321  0.050794073            1 
  312000     1.142439   -5.3208015     183.7411  0.049076149  0.050770211            8 
  313000    1.1586194   -5.3454254    183.43421  0.048837649   0.05074795            6 
  314000    1.1361529   -5.3064172    184.60519  0.048992885  0.050724569            3 
  315000    1.1276432   -5.3376977    185.12664    0.0489753  0.050699807            3 
  316000    1.1313236    -5.314094    185.94514  0.049036164  0.050675746            3 
  317000    1.1478111   -5.3418922    185.73637  0.048826597  0.050650619            3 
  318000     1.121623   -5.3308864    186.10409  0.048769415  0.050625415            4 
  319000    1.1220347   -5.3520502    186.32422  0.048674038  0.050598914            3 
  320000    1.1275935   -5.3603349    186.91474  0.048675714  0.050573648            1 
  321000    1.1337893   -5.3628273    186.92886   0.04852774  0.050548574            2 
  322000    1.1504959   -5.3459876    187.48759  0.048521633   0.05052156            3 
  323000    1.1063096    -5.322657    189.56912  0.048908443  0.050496465            4 
  324000    1.1110922   -5.3410985    189.39588  0.048712932  0.050471935            2 
  325000    1.1417288   -5.3232765    189.55891  0.048604848  0.050446674            3 
  326000    1.1252942   -5.3390975    190.83073  0.048780862  0.050421864            5 
  327000    1.1285859   -5.3405543    190.68678  0.048594999   0.05039722            2 
  328000    1.1404987   -5.3582612    191.31408  0.048606219  0.050371753            3 
  329000     1.131808   -5.3799667    191.85978  0.048596701  0.050347893            2 
  330000    1.1200399   -5.3626193    192.62218  0.048641964  0.050325505            4 
  331000    1.1162906    -5.329724    193.21053  0.048643134  0.050302475            4 
  332000    1.1189895   -5.2969233    194.33327  0.048778431   0.05027919            3 
  333000    1.1131964   -5.3630794     193.1306  0.048330982  0.050254957            3 
  334000     1.111573   -5.3619895    194.96836  0.048644801   0.05022984            6 
  335000    1.1159678   -5.3484076     195.0006  0.048507611  0.050206993            2 
  336000    1.1216971    -5.357771    195.70193  0.048537186  0.050183526            1 
  337000     1.120519   -5.3580582     196.3236  0.048546884  0.050159887            2 
  338000    1.1345947   -5.3918915    196.93819   0.04855478  0.050137723            2 
  339000     1.131571   -5.3133058    198.30695  0.048748021  0.050116877            3 
  340000    1.1540647   -5.3654529    198.67761  0.048695493  0.050097854            3 
  341000    1.1310061   -5.3756262    198.60018  0.048533768  0.050078954            2 
  342000    1.1169683   -5.3814028    199.94854  0.048720404  0.050058584            2 
  343000    1.1228822   -5.3282424    199.74436  0.048528756  0.050039064            3 
  344000     1.111675   -5.3645475    200.34396  0.048532937   0.05001981            3 
  345000    1.1109242   -5.3685774    200.77415  0.048496172  0.049998868            7 
  346000    1.1362312   -5.3520054    201.41655  0.048510729  0.049979395            3 
  347000    1.1318506   -5.3916011    202.59025  0.048652799   0.04995921            2 
  348000     1.128873   -5.3827995    202.28539  0.048439988  0.049938762            7 
  349000    1.1087509   -5.3725872    202.64179  0.048386292   0.04991887            7 
  350000    1.1288062   -5.3602745    203.60743  0.048477959  0.049897499            3 
  351000    1.1043463   -5.3876273    203.74783   0.04837318  0.049877559            3 
  352000     1.108031    -5.376109    204.67822  0.048456019  0.049857315            2 
  353000    1.1058644   -5.3333154    205.96062  0.048621488   0.04983878            2 
  354000    1.1102594   -5.3901895    205.71021  0.048425191  0.049818192            2 
  355000    1.1384441    -5.407073    206.00212  0.048357305  0.049798542            4 
  356000    1.1178049    -5.347363     207.0799  0.048473759   0.04977784            2 
  357000    1.1368202   -5.3715354    207.00258  0.048319929  0.049758192            3 
  358000    1.1197919   -5.4033035    208.39932  0.048510083  0.049738989            2 
  359000    1.1087962   -5.3230847    209.68052  0.048672358   0.04972088            3 
  360000    1.1024687   -5.3568611    209.90045  0.048588068  0.049702826            2 
  361000    1.1049739   -5.3720979    209.93794  0.048462129  0.049685572            3 
  362000    1.0870026    -5.406414     209.7416  0.048283057  0.049668608            4 
  363000    1.0943783   -5.3768281    211.32077  0.048512574  0.049651621            3 
  364000    1.1020208   -5.3987398    211.86984     0.048505  0.049635429            3 
  365000    1.1163153   -5.3909736     212.3333  0.048477922  0.049618415            4 
  366000     1.111965   -5.3926234    212.68171  0.048424798  0.049602416            4 
  367000     1.097964    -5.367529      213.446  0.048466393  0.049585683            2 
  368000    1.1343335   -5.3724769    214.10271  0.048483404   0.04956778            2 
  369000    1.0984836   -5.3689093    214.71162  0.048489526  0.049550562            3 
  370000     1.100916   -5.4000809    214.20936  0.048245351  0.049533058            1 
  371000    1.0852812   -5.3656501    215.85407  0.048484741  0.049515682            2 
  372000       1.0852    -5.399877    214.60111  0.048073726  0.049496497            3 
  373000    1.1089017    -5.380208    214.78643  0.047986244  0.049477012            1 
  374000    1.0875685   -5.3927311    215.61631   0.04804285  0.049456896            4 
  375000    1.1103895    -5.379887    217.37428  0.048305396   0.04943737            5 
  376000    1.1312095   -5.3661813    217.30699   0.04816201  0.049416846            3 
  377000    1.1006015   -5.3885269    217.07822  0.047983692  0.049395799            3 
  378000    1.1224898    -5.374081    218.31437  0.048129271  0.049374572            4 
  379000    1.0879038   -5.3676831    218.95026  0.048142096  0.049353059            3 
  380000    1.0966131   -5.3967543    218.44845  0.047905363   0.04933111            4 
  381000    1.0744174   -5.3969926    219.66782  0.048046331   0.04930924            1 
  382000    1.1061092   -5.3860655    219.83188  0.047956343  0.049288313            2 
  383000    1.0951051   -5.4039261    219.80252  0.047824743  0.049265494            3 
  384000    1.0986117   -5.3800991     221.5559  0.048080707  0.049244767           11 
  385000     1.125803   -5.4024808    221.59145  0.047963518  0.049224411            3 
  386000    1.1235605   -5.4603481    221.19247  0.047753123  0.049203001            3 
  387000    1.1081431   -5.4134921    222.84609  0.047985806  0.049181159            2 
  388000    1.1011612   -5.4081742     222.5116  0.047790291  0.049159159            4 
  389000    1.0749532   -5.3925645    223.48999  0.047877033  0.049139477            2 
  390000    1.1233475   -5.4154793    223.83738  0.047828501  0.049118817            2 
  391000    1.0920763   -5.3871104    224.83895   0.04791964  0.049097292            2 
  392000    1.1152964   -5.3939821    224.07601  0.047635206  0.049076133            3 
  393000    1.0664637   -5.3900516    225.49501  0.047814887   0.04905517            3 
  394000    1.0792586   -5.3942603    226.35922  0.047876316  0.049035134            2 
  395000    1.0977846   -5.3980648    226.10622  0.047701735  0.049014097            3 
  396000    1.1087026   -5.4360837    226.08491  0.047576791  0.048993525            4 
  397000    1.0957576   -5.4236579    226.70572  0.047587262  0.048972111            6 
  398000      1.07791   -5.4452909    227.96449  0.047731259  0.048951819            3 
  399000    1.0955044   -5.4446256    228.10943  0.047641903  0.048931707            2 
  400000    1.0912542   -5.3934085    229.13082  0.047735588  0.048911714            4 
  401000    1.0791673   -5.4158385    229.39809  0.047672088  0.048892488            3 
  402000    1.0932395   -5.4187844    229.62023  0.047599551  0.048872424            4 
  403000    1.1042476   -5.4010099    230.33157  0.047628529  0.048852163            5 
  404000    1.0944352    -5.383905    230.90991  0.047629932  0.048831777            3 
  405000    1.0929768   -5.4294573    230.53374  0.047434926  0.048811176            4 
  406000    1.1297577   -5.4002079     231.5359  0.047523789  0.048790759            2 
  407000    1.0909226   -5.4373863    231.67469   0.04743544  0.048770289            2 
  408000    1.0561389   -5.4063382    232.55107  0.047498175  0.048750249            2 
  409000    1.0707383   -5.4291774    232.08879  0.047287854  0.048728834            2 
  410000    1.0844405   -5.4289357    233.60231  0.047480145  0.048706929            2 
  411000    1.1158353   -5.4228982    233.90557  0.047426109  0.048684268            4 
  412000      1.08708   -5.4394353     233.7472  0.047278965  0.048662711            5 
  413000    1.0684601   -5.3860123    235.58037  0.047534377  0.048640361            2 
  414000    1.0936761   -5.3952157    235.45074  0.047393467  0.048618273            3 
  415000    1.0712083   -5.4005674    236.39949  0.047469777  0.048596923            3 
  416000    1.0763903   -5.4522555    235.60873  0.047197262  0.048574495            3 
  417000    1.0909877   -5.3885252    236.72615  0.047307384  0.048552719            1 
  418000    1.0919653   -5.4573963    235.83683  0.047016912  0.048530603            2 
  419000    1.0871286   -5.4399986    237.51575  0.047238614  0.048508375            4 
  420000    1.0809859   -5.4033331    238.41853  0.047305263     0.048487            3 
  421000    1.0849404   -5.4250528    238.79871  0.047268153  0.048466149            6 
  422000    1.0588994    -5.474917    239.45068  0.047284889  0.048444658            4 
  423000    1.0820468   -5.4453595    239.31826  0.047147017  0.048423383            4 
  424000    1.0696916   -5.4555012    240.32458  0.047233604  0.048402855            4 
  425000    1.0897392   -5.4047814     241.9744   0.04744596  0.048384058            2 
  426000    1.0606581   -5.4282499    242.54711  0.047446617  0.048365649            2 
  427000    1.0853974   -5.3978135    242.39908  0.047306612  0.048347277            5 
  428000     1.076137   -5.4237141    242.55692  0.047226815  0.048329143            6 
  429000    1.0913342   -5.4280606    243.10294  0.047222792  0.048310517            9 
  430000    1.0723453   -5.4198312    244.59699  0.047402518  0.048291287            2 
  431000    1.0641944    -5.420486     244.0909  0.047194684  0.048270799            3 
  432000    1.0637449   -5.4623265    244.24557  0.047115271    0.0482505            2 
  433000    1.0983535    -5.472958    243.84052  0.046928506  0.048227708            2 
  434000    1.0810043   -5.4087496    244.59867  0.046965951  0.048206528            4 
  435000    1.0764439   -5.4282052    245.48613  0.047027994  0.048185325            2 
  436000     1.065518    -5.425152    245.47806   0.04691859  0.048164353            5 
  437000    1.0728812   -5.4264988    246.53319  0.047012431  0.048143214            4 
  438000    1.0645202   -5.4494407    246.32198  0.046864913  0.048121006            5 
  439000    1.0823814   -5.3718939    247.28787  0.046941508  0.048099075            4 
  440000      1.07092   -5.4244368    247.64988  0.046903386  0.048077535            2 
  441000    1.0469464   -5.4936183    247.55031  0.046778214  0.048056263            6 
  442000    1.0671338   -5.4260284    250.61662  0.047250493  0.048035917            3 
  443000     1.078368   -5.4298737    250.06877  0.047040777  0.048016492            2 
  444000    1.0768118   -5.4231222    249.85587   0.04689487  0.047996262            3 
  445000    1.0682123   -5.4601096    249.38947  0.046702149   0.04797582            3 
  446000    1.0935178   -5.4320954    251.37738  0.046968868   0.04795503            4 
  447000    1.0646326   -5.4823483    250.74955  0.046746747  0.047934463            3 
  448000    1.0958348   -5.4491455    250.97378  0.046684112  0.047913737            4 
  449000     1.059903   -5.4410438    252.19066  0.046805988  0.047893117            7 
  450000    1.0749251   -5.4741688    252.27232  0.046717097   0.04787321            2 
  451000    1.0708864   -5.4773549    252.10597  0.046582774  0.047851914            7 
  452000    1.0827477   -5.4693206    253.68392  0.046770633  0.047831049            8 
  453000    1.0631996   -5.4695975    253.75406   0.04668029  0.047809628            5 
  454000    1.0896972   -5.4390391      254.467  0.046708334  0.047788894            3 
  455000    1.0585917   -5.4730804    254.96679  0.046697214  0.047767027            4 
  456000    1.0859111   -5.4781749    254.44154  0.046498819  0.047744159            1 
  457000    1.0647662   -5.4500453     254.9775  0.046494804  0.047721414            2 
  458000    1.0628579   -5.4594318    255.39098  0.046468518  0.047698388            5 
  459000    1.1048956   -5.4785729    255.76788  0.046435709  0.047674409            3 
  460000    1.0754604   -5.4602788    255.60994  0.046306148  0.047649747            4 
  461000    1.0550109    -5.489088    255.83059  0.046245587  0.047624855            5 
  462000    1.0962425   -5.4773278    256.16432  0.046205685  0.047599805            3 
  463000    1.0572272   -5.4348352    257.48515   0.04634362   0.04757459            5 
  464000    1.0660538   -5.4665725    256.02767  0.045981981  0.047548578            5 
  465000    1.0817937     -5.48035    256.27818   0.04592799  0.047520276            2 
  466000    1.0614249    -5.464929    256.89774  0.045940226  0.047493083            6 
  467000    1.0867435   -5.4887135    257.28542  0.045911032  0.047465596            4 
  468000    1.0763862   -5.4587031    257.85412  0.045914195  0.047438553            1 
  469000    1.0458881   -5.4903759     258.5055  0.045932037  0.047411391            3 
  470000    1.0582247   -5.4904939    258.81586  0.045889336  0.047383403            9 
  471000    1.0646132   -5.4664379    259.00913  0.045826103   0.04735561            4 
  472000     1.045973   -5.4798169    259.64912  0.045842005  0.047327374            2 
  473000    1.0577294   -5.4657765     260.6849  0.045927571  0.047299147            2 
  474000    1.0440662    -5.452051    259.52442  0.045626656   0.04727145            3 
  475000    1.0726577   -5.4833562    260.53629   0.04570812  0.047244086            3 
  476000    1.0848481   -5.4576341     261.0646  0.045704587  0.047216913            4 
  477000    1.0598239   -5.4698578     261.2038  0.045633089  0.047189166            4 
  478000    1.0665652   -5.4957256    262.04384  0.045684072  0.047161467            2 
  479000    1.0622239   -5.4663319    262.89033  0.045735965  0.047134625            4 
  480000    1.0606358   -5.4690279     262.8878  0.045640243  0.047107579            3 
  481000     1.079282   -5.4395429    263.70853  0.045687548  0.047080623            3 
  482000    1.0300752   -5.4375209     263.3362  0.045528388  0.047053411            3 
  483000    1.0568183   -5.5001909    263.83049  0.045519407  0.047025378            5 
  484000    1.0486939   -5.4792049    264.05725  0.045464402   0.04699745            3 
  485000    1.0201371   -5.4925857     263.7052  0.045310173  0.046968846            1 
  486000    1.0619251   -5.4670242    264.88655  0.045419504  0.046939709            1 
  487000     1.041511   -5.5493857    264.13215  0.045197151   0.04691106            5 
  488000    1.0607434   -5.4666222    266.41613  0.045494558  0.046882832            7 
  489000    1.0543081   -5.4730348    266.04051   0.04533751  0.046855438            4 
  490000    1.0366831   -5.4816561    266.85604   0.04538368  0.046827361            4 
  491000     1.058836   -5.4979285    267.35657    0.0453762   0.04679991            3 
  492000     1.045284   -5.4999226    267.53483  0.045314165  0.046772528            3 
  493000    1.0578941   -5.4857337      267.866  0.045278228  0.046745299            6 
  494000    1.0558762   -5.4438818    269.53054  0.045467365  0.046719024            3 
  495000    1.0396529   -5.4868191    269.04794  0.045294265  0.046692962            3 
  496000    1.0579856   -5.5227721     269.3011   0.04524548  0.046665983            2 
  497000    1.0387986   -5.4866864    268.86684   0.04508163  0.046638282            5 
  498000    1.0675289   -5.5186911    269.23731  0.045053097  0.046610333            3 
  499000    1.0696654   -5.5163783    270.42411  0.045161007  0.046582456            3 
  500000    1.0400835   -5.4549014     271.6642  0.045277367  0.046555147            4 
  501000    1.0469356   -5.4666133    271.85734  0.045219119  0.046527289            6 
  502000    1.0555213   -5.5172949    271.15612  0.045012637  0.046498739            4 
  503000    1.0595848   -5.5284566    271.70121  0.045013454  0.046470928            2 
  504000    1.0453798   -5.4997115    272.35758  0.045032668  0.046442373            3 
  505000    1.0693062   -5.5018844    272.52156  0.044970555  0.046414144            5 
  506000    1.0487925   -5.4967977    272.49714  0.044877658  0.046386588            3 
  507000    1.0403837   -5.4618992    274.25648  0.045078317  0.046358088            3 
  508000    1.0430581   -5.4786764    273.20821   0.04481762  0.046329944            4 
  509000    1.0650247   -5.5093851    273.06819  0.044706645  0.046301256            2 
  510000     1.056485   -5.5166524    274.00016  0.044771267  0.046272756            2 
  511000     1.032145   -5.4895339    274.35596  0.044741677   0.04624399            6 
  512000    1.0603428   -5.4908436    275.42059  0.044827571  0.046216118            9 
  513000    1.0614288   -5.5026534    275.51649  0.044755765  0.046187833            2 
  514000    1.0694819   -5.4986864     276.9666  0.044903794   0.04615962            5 
  515000    1.0848216   -5.4966779    276.66531   0.04476785  0.046131496            2 
  516000     1.038796   -5.4915385    277.09633    0.0447507  0.046103555            2 
  517000    1.0430426   -5.5160379    276.71861  0.044603257  0.046074513            7 
  518000     1.049224   -5.5065588    276.56963  0.044493184  0.046045224            4 
  519000     1.061671   -5.5360115     277.6007  0.044573009   0.04601706            3 
  520000    1.0254712   -5.5268028    277.89904  0.044535102  0.045987727            4 
  521000    1.0498043   -5.4893523    279.08522   0.04463935  0.045958737            6 
  522000    1.0709079   -5.5323869    279.33136  0.044593129  0.045930814            4 
  523000      1.01714   -5.4909824    280.34697  0.044669689  0.045902842            4 
  524000    1.0500813   -5.5151219    279.69838  0.044481295  0.045874781            5 
  525000     1.047809   -5.4808301    280.80926  0.044572898  0.045846926            4 
  526000     1.044373   -5.5324367    280.68485   0.04446845  0.045818723            5 
  527000    1.0544402   -5.5345777    281.51684   0.04451563  0.045791244            4 
  528000    1.0407673   -5.5211917    282.60111  0.044602448  0.045764845            4 
  529000    1.0317063   -5.5355429    282.45368  0.044494908  0.045738187            4 
  530000     1.035423   -5.5484634    282.22675  0.044375275  0.045711217            4 
  531000    1.0211617   -5.5042233    283.80029  0.044538652  0.045684426            2 
  532000    1.0408124   -5.5100755    283.39689  0.044391744  0.045658033            2 
  533000    1.0421324   -5.5200365    283.98258  0.044400029  0.045631484            2 
  534000    1.0225122   -5.5157136    284.56711  0.044408101  0.045605153            1 
  535000    1.0458876    -5.513594    285.06302   0.04440234  0.045579319            2 
  536000    1.0482563   -5.4854083    285.40313  0.044372377  0.045552725            6 
  537000    1.0198819   -5.4827571    285.70161  0.044336066   0.04552585            4 
  538000    1.0308148   -5.5507681    286.29205  0.044345113  0.045499491            3 
  539000    1.0308886   -5.5236057     285.2106   0.04409564  0.045473219            4 
  540000    1.0364938   -5.5118059    287.68717  0.044396168  0.045446903            7 
  541000    1.0336394   -5.5408965    286.18995   0.04408348  0.045419506            2 
  542000    1.0525408    -5.510214    288.10644  0.044296809  0.045392885            4 
  543000    1.0339504   -5.5053013    287.51846  0.044124994  0.045365956            2 
  544000    1.0573634   -5.5414358    287.78223  0.044084287  0.045338748            4 
  545000    1.0459862    -5.537502    287.91422   0.04402358  0.045311471            2 
  546000    1.0337286   -5.5192343    288.75803  0.044071739  0.045284797            4 
  547000    1.0346801   -5.5234457    289.52104   0.04410741  0.045257742            4 
  548000    1.0132856   -5.5215536    289.97403  0.044095807   0.04523106            3 
  549000    1.0403036   -5.5012127    291.28137  0.044213929  0.045204179           10 
  550000    1.0833245   -5.5453873    290.17079  0.043965272  0.045176834            3 
  551000    1.0463547   -5.5355284     290.1565  0.043883318  0.045149338            4 
  552000    1.0258898   -5.5288998    291.21577  0.043963733  0.045122155            3 
  553000    1.0204052   -5.5050069     291.7089  0.043958545  0.045095162            4 
  554000     1.028131   -5.5319087    290.07137  0.043632877  0.045066859            4 
  555000    1.0344786   -5.5494264    291.33126  0.043743432  0.045039226            2 
  556000    1.0217787   -5.5717293    291.07462  0.043626291  0.045011798            4 
  557000    1.0205837   -5.5445978    292.53036  0.043765763   0.04498381            5 
  558000    1.0338283   -5.5620186     292.5711  0.043693414  0.044956536            2 
  559000    1.0189777   -5.5738474     292.7479  0.043641606  0.044928777            4 
  560000    1.0252954   -5.5356046    295.44221  0.043964615  0.044902383            3 
  561000    1.0192964   -5.5501926    294.65131  0.043768762  0.044876146            4 
  562000    1.0323605   -5.5184691    295.59644  0.043831026  0.044849026            2 
  563000     1.057242    -5.558274     294.9537  0.043658037  0.044821496            5 
  564000    1.0209848   -5.5354685    294.95678  0.043581085  0.044794838            3 
  565000    1.0212485   -5.5386907     295.4798  0.043581091  0.044767806            2 
  566000     1.008182   -5.5556138    296.49318  0.043653295   0.04474097            3 
  567000    1.0422913   -5.5680301    297.24151  0.043686289   0.04471422            8 
  568000    1.0259711   -5.5629037    296.95568  0.043567442  0.044688386            4 
  569000    1.0124956   -5.5472673    297.14384   0.04351843   0.04466155            2 
  570000    1.0489553   -5.5863013    297.55903  0.043502782  0.044635158            4 
  571000    0.9999031   -5.5394057    297.97562  0.043487393  0.044607981            5 
  572000   0.99574392   -5.5457192    298.65938  0.043510982  0.044580964            2 
  573000    1.0215353   -5.5400607    299.31202  0.043529962  0.044554398            1 
  574000    1.0227945   -5.5629199    298.99031   0.04340742  0.044528019            3 
  575000    1.0438501   -5.5914991    299.87618  0.043460316   0.04450165            3 
  576000    1.0339103   -5.5480742    300.36088  0.043454989  0.044475416            2 
  577000    1.0424284   -5.5747905    300.03789  0.043333029   0.04444859            4 
  578000    1.0286591   -5.5620854    299.50303  0.043180944  0.044421054            2 
  579000    1.0327626   -5.5982712    298.55084  0.042969321    0.0443931            9 
  580000     1.025208    -5.607808    300.23077  0.043136605  0.044365441            8 
  581000    1.0406757   -5.5596153    300.73745  0.043135033  0.044337961            3 
  582000    1.0253331    -5.585403    300.86407  0.043079048  0.044310079            5 
  583000    1.0292617   -5.5769347    301.03821  0.043030047  0.044281613            1 
  584000    1.0355832   -5.5598507    302.05922  0.043102058  0.044253407            3 
  585000   0.99521098   -5.5744699    302.86403  0.043143024  0.044225388           10 
  586000    1.0435415   -5.5807553     301.5833  0.042887272  0.044197136            2 
  587000    1.0156673   -5.5544135     304.0132  0.043159171  0.044169371            9 
  588000   0.98505244   -5.5667746    303.16919  0.042966155  0.044141603            4 
  589000     1.003909   -5.5525235    303.98328  0.043008387  0.044114221           13 
  590000     1.024964   -5.5328809    304.03897  0.042943358   0.04408668            6 
  591000    1.0049365   -5.5844943     305.8538  0.043126594   0.04405931            3 
  592000    1.0230264   -5.6122253    304.33417  0.042839833  0.044031715            3 
  593000    1.0208459   -5.5967759    305.37017  0.042913177  0.044003554            6 
  594000    1.0169863   -5.5534363    305.51387  0.042861093  0.043976203            3 
  595000    1.0159971   -5.5357907    305.90404  0.042843704  0.043948976            1 
  596000     1.003126   -5.5787787    306.56028  0.042863574  0.043920793            3 
  597000    1.0055989   -5.5908173    305.39726  0.042629433  0.043892925            2 
  598000    1.0041418   -5.5955412    306.57799  0.042722685  0.043864554            8 
  599000   0.99535485   -5.5711147    305.82057  0.042545989  0.043836569            5 
  600000    1.0173198   -5.5567242    306.95171  0.042632182  0.043809055            3 
  601000    1.0088716   -5.5430274    307.75659  0.042672849  0.043781706            4 
  602000    1.0329057   -5.5494435    308.62266  0.042721852  0.043754746            4 
  603000    1.0143586   -5.5584465    308.46074  0.042628626  0.043727207            4 
  604000    1.0137678   -5.5906028     308.9352   0.04262351  0.043698677            9 
  605000    1.0006411   -5.5819519    307.94942  0.042417276   0.04367074            3 
  606000   0.99112573   -5.5347484    309.15626  0.042513237  0.043642839            2 
  607000    1.0129815   -5.6022236     308.8095  0.042395593  0.043614878            4 
  608000    1.0078189   -5.5837891    309.56825  0.042429859   0.04358653            5 
  609000    0.9999907    -5.605708    310.45702  0.042481803  0.043557729            2 
  610000    1.0265251   -5.5978805    309.77214  0.042318599  0.043528364            7 
  611000    1.0100313   -5.5834817    311.21871  0.042446633  0.043500121            8 
  612000   0.98126618   -5.5929839    311.06689  0.042356602  0.043471903            2 
  613000   0.98903245   -5.5907201    311.98014  0.042411656  0.043443958            4 
  614000    1.0197053   -5.6305532    310.96888  0.042205331  0.043415889            3 
  615000   0.97977057   -5.5924577    312.59286  0.042356755   0.04338796            5 
  616000   0.99321159   -5.5511138    312.50673  0.042276343  0.043360537            5 
  617000   0.99697546   -5.5963458    312.76848  0.042243176  0.043333118            2 
  618000    1.0042517   -5.5908695    313.44011  0.042265387  0.043305913            2 
  619000     1.026031   -5.5858745    313.91458  0.042260982  0.043278211            2 
  620000    1.0164554    -5.587437    314.59393   0.04228413   0.04325089            2 
  621000   0.99635868   -5.5922663    314.08626  0.042147914  0.043223639            5 
  622000    1.0059544   -5.6201895    313.92366  0.042058368   0.04319625            2 
  623000     1.019556   -5.6174463     315.8239  0.042245037  0.043168848            7 
  624000    1.0112665   -5.6028986    315.36305  0.042115791  0.043142047            4 
  625000    1.0223409   -5.6323301    315.03604  0.042004805  0.043114658            7 
  626000    0.9926676   -5.6253428    316.00475   0.04206666  0.043087238            5 
  627000   0.99469838   -5.5640945    316.57694  0.042075616  0.043060384            8 
  628000   0.99462997   -5.6132337    317.13379   0.04208251   0.04303355            3 
  629000   0.99556956   -5.6269911    316.28961  0.041903764  0.043006614            2 
  630000    1.0052125   -5.5874452    318.34261  0.042108811  0.042980266            6 
  631000   0.98995023   -5.5886154    319.15379  0.042149207  0.042953423            5 
  632000   0.98080471   -5.6032489    318.83786  0.042040857  0.042927216            6 
  633000    1.0134927   -5.6186846    319.29809   0.04203503  0.042900891            2 
  634000   0.99554344    -5.582819    319.40382  0.041982626  0.042875006            4 
  635000    0.9968962   -5.5867348    320.05498  0.042001965  0.042849181            3 
  636000    1.0133306   -5.6067458    321.62228  0.042141285  0.042823619            4 
  637000    1.0090439   -5.6299829     321.7815  0.042095957     0.042798            7 
  638000   0.99869185    -5.589797    321.99967  0.042058474  0.042772345            6 
  639000    0.9818932   -5.6185139    320.64061  0.041815416  0.042746393            2 
  640000    1.0060565   -5.6218949     321.5121  0.041863555  0.042720606            3 
  641000    1.0126679   -5.5918747    323.35764  0.042038174  0.042695612            4 
  642000   0.97759225    -5.635991    322.80404  0.041900836  0.042670777            5 
  643000    1.0193271   -5.6215667    324.42033  0.042045143  0.042646134            3 
  644000    1.0058718    -5.638038    324.63619  0.042007789  0.042621471            3 
  645000   0.99226311   -5.6420814    323.99425  0.041859722  0.042596203            2 
  646000    1.0077543   -5.6501391    324.22865  0.041825162  0.042571385            3 
  647000   0.99557715   -5.5899973    325.84554  0.041968771  0.042546821            3 
  648000   0.98162472   -5.6417461    324.69806  0.041756437  0.042521572            8 
  649000    1.0100027   -5.6249317    324.56466  0.041674969  0.042496094            3 
  650000   0.99795108   -5.5922508    327.05788  0.041930497  0.042471722            4 
  651000   0.97764511   -5.6263923    325.63307    0.0416837  0.042447236            5 
  652000   0.98330841   -5.6327404    325.87512  0.041650706  0.042422588            4 
  653000   0.98372583   -5.6006078    327.73718  0.041824551  0.042398266            1 
  654000   0.99962056   -5.6410851     327.1605  0.041687117  0.042373286            6 
  655000   0.99268173   -5.6119791    327.24846  0.041634664  0.042348669            6 
  656000   0.97864503   -5.6397454    327.65199  0.041622458  0.042324259            3 
  657000   0.97590935   -5.6287635    327.73034  0.041569044  0.042299732            4 
  658000   0.97053481   -5.6326151    327.72122  0.041504713  0.042274659            3 
  659000   0.98470238   -5.6305403    328.67852  0.041562786  0.042250144            5 
  660000    1.0138808   -5.6328182     328.8167   0.04151726  0.042225908            5 
  661000   0.97906718    -5.614453    329.40998  0.041529247  0.042201719            8 
  662000    0.9698391   -5.6182499    329.37415  0.041462003  0.042177117            3 
  663000   0.98875525   -5.6116482    330.21704  0.041505409  0.042152237            4 
  664000   0.99445218   -5.6283634    329.22686  0.041318632   0.04212707            4 
  665000    1.0044104   -5.6284232    329.72017  0.041318316  0.042101977            5 
  666000    1.0220272    -5.617099    330.85214  0.041397916  0.042077028            3 
  667000   0.97721121   -5.6324336    331.03822  0.041359098  0.042052212            3 
  668000   0.99741486   -5.6200569    330.56468  0.041238109  0.042027137            4 
  669000   0.98247256   -5.6264352    331.39321  0.041279673  0.042002375            3 
  670000   0.98199072   -5.6149298    332.41975  0.041345739  0.041977383            3 
  671000    1.0154111   -5.6421433    331.69528  0.041194147  0.041952924            8 
  672000   0.97275427   -5.6196663    332.84067  0.041274885  0.041928566            4 
  673000   0.99928767   -5.6517173    332.21402  0.041135961  0.041904149            5 
  674000   0.98700456   -5.6261893    333.73916  0.041263497  0.041879322            3 
  675000   0.97452957   -5.6414769     333.2607  0.041143296  0.041854251            4 
  676000   0.99066118   -5.6569886    332.49851  0.040988475  0.041828741            3 
  677000   0.97914391    -5.606876    334.47135  0.041170771  0.041803465            4 
  678000   0.96814941   -5.6119834    334.34723  0.041094793  0.041777909            4 
  679000   0.98431346   -5.6292899    335.26613  0.041147046  0.041753234            4 
  680000   0.97130756   -5.6672019    334.06486  0.040939321   0.04172837            3 
  681000     0.966064   -5.6517847    335.37399  0.041039401  0.041702443            4 
  682000   0.97529339   -5.6521227    335.09285  0.040944875  0.041676924            5 
  683000   0.98354166   -5.6494442    333.86077  0.040734599  0.041651069            3 
  684000   0.99326672   -5.6470921    335.25886  0.040845377  0.041625188            4 
  685000   0.98143012   -5.6339173    337.09973  0.041009699  0.041599645            9 
  686000   0.97909276   -5.6196974    336.53153  0.040880896  0.041574382            6 
  687000   0.98873893   -5.6431232    336.04943   0.04076291  0.041548686            6 
  688000   0.96805642   -5.6599244    337.47358   0.04087616  0.041523035            4 
  689000    0.9866961   -5.6645833    336.54697  0.040704762  0.041497786            3 
  690000   0.98395733   -5.6048884    337.96331  0.040816825  0.041472797            7 
  691000   0.96533364    -5.665296    337.27638  0.040674914  0.041447987            3 
  692000   0.96365725   -5.6711295    337.33922  0.040623701  0.041422827            3 
  693000   0.96212934   -5.6729104    338.10567  0.040657247  0.041397653            4 
  694000   0.95894841   -5.6746246    339.77544  0.040799164  0.041372183           10 
  695000   0.97962775    -5.667871     338.8299  0.040627086  0.041346956            7 
  696000   0.98314673   -5.6768278    339.93312  0.040700805  0.041321709            4 
  697000   0.98680475   -5.6572083     340.8342  0.040750144  0.041296786            6 
  698000   0.99000659   -5.6561255     339.4775  0.040529787  0.041271168            5 
  699000   0.97448402   -5.6645618    339.82665  0.040513429  0.041245653            6 
  700000   0.96659791   -5.6557288    339.86647  0.040460294  0.041219903            3 
  701000   0.98092185   -5.6666457    340.42016  0.040468398   0.04119455            3 
  702000   0.96968294   -5.7093812    339.80951  0.040338261  0.041168644            5 
  703000   0.96483759   -5.6098505    342.30979  0.040577263  0.041143168            2 
  704000   0.96919029   -5.6702167     342.1272  0.040498012  0.041118243            7 
  705000   0.99129269   -5.6851877    341.12386  0.040321969  0.041092922           11 
  706000   0.97310092   -5.6422668    343.01661  0.040488269  0.041067817            6 
  707000   0.97696032   -5.6628316    342.29414  0.040345844  0.041042641            2 
  708000   0.97126076   -5.6664286     342.0263  0.040257333  0.041017786            4 
  709000   0.98091855     -5.64644    343.22491  0.040341433  0.040993114            3 
  710000    0.9694145   -5.6746372    344.35201  0.040416903  0.040968157            6 
  711000   0.96796425   -5.7097863    343.91308  0.040308612  0.040943718            3 
  712000   0.98313851   -5.7162649    343.47318  0.040200512  0.040918967            6 
  713000   0.96472123   -5.6893031    343.06932  0.040096928  0.040893862            5 
  714000    0.9719423   -5.6980155    344.72162  0.040233615  0.040869275            3 
  715000   0.97721125   -5.6894131    345.00192  0.040210014  0.040844636            4 
  716000   0.97632074   -5.6824523    344.79025  0.040129219  0.040820151            2 
  717000   0.95971815   -5.6761359    346.88684  0.040316927  0.040795284            5 
  718000    0.9681174   -5.6914557     346.3193  0.040194904  0.040770427            2 
  719000   0.96496397   -5.6965725    345.04937  0.039991813  0.040745534            2 
  720000   0.97151168   -5.6795984    346.79469  0.040138274  0.040720933            3 
  721000     1.017405   -5.6713162    346.21251  0.040015316  0.040695906            3 
  722000   0.96780917   -5.6712926    346.53097  0.039996649  0.040670232            5 
  723000   0.96761686   -5.7029587    346.08053  0.039889412  0.040644385            5 
  724000    0.9564889   -5.6745398    347.80642  0.040032967  0.040619033            3 
  725000     0.972207   -5.7158984    346.47561  0.039824783  0.040593197            3 
  726000    0.9803159    -5.693555       348.23  0.039971304  0.040567694            4 
  727000   0.98246179   -5.7238641    348.31365  0.039925912   0.04054227            4 
  728000   0.95918072   -5.7231049    347.94456  0.039828819  0.040516536            4 
  729000   0.96050721   -5.7000798    347.54715  0.039728755  0.040490941            2 
  730000   0.97229693   -5.6880789    348.44242  0.039776532  0.040464943            7 
  731000   0.97189802    -5.671663    348.14429  0.039688131  0.040438566            7 
  732000   0.94467679   -5.6744536    348.90705  0.039720748  0.040412823            4 
  733000    0.9617109   -5.7129724    348.39879  0.039608775  0.040387094            6 
  734000   0.94675834   -5.7261787    349.73525  0.039706546  0.040361089            4 
  735000   0.96864849   -5.6751046    350.04518  0.039687662  0.040334992            4 
  736000   0.94138526   -5.6845856    348.98356  0.039513537  0.040309258            8 
  737000   0.93259553   -5.6925963    349.47689  0.039515704  0.040283469            2 
  738000    0.9357053    -5.673779    351.53263  0.039694289  0.040257949            4 
  739000   0.95528357   -5.7004062    350.46131  0.039519769  0.040232299            3 
  740000    0.9556395   -5.6798363    351.46682  0.039579597  0.040206976            4 
  741000   0.93552077   -5.6898479    351.41654  0.039520528  0.040180989            2 
  742000   0.95866785   -5.6938116    351.49316  0.039475871  0.040155444            6 
  743000   0.98516146   -5.6931045    352.52159  0.039538088  0.040129867            3 
  744000   0.94281725   -5.7009849    352.94712  0.039532608  0.040105036            7 
  745000      0.95156   -5.6894844    352.53361   0.03943329  0.040079476            4 
  746000   0.95977195   -5.7038948    352.81239  0.039411571  0.040053716            5 
  747000   0.95883295   -5.6974894    351.42479  0.039204015  0.040028136            5 
  748000   0.94107283   -5.6771099    353.63166  0.039397466  0.040002741            3 
  749000   0.94382661   -5.6691759    354.13815  0.039401218  0.039977976           10 
  750000   0.97469034   -5.7135149    353.46219  0.039273576  0.039952905            7 
  751000   0.94529326   -5.7250594    354.25882  0.039309678  0.039928058            3 
  752000   0.96075624   -5.6558454    355.04025     0.039344  0.039903501            4 
  753000    0.9691409   -5.6702197    355.47809  0.039340205  0.039878445            3 
  754000   0.95901846   -5.7164837    354.66232   0.03919787   0.03985376            7 
  755000   0.96336745   -5.7508607    355.39302  0.039226602  0.039828615            4 
  756000   0.93971382   -5.7431739    356.07488  0.039249876  0.039803237            4 
  757000   0.96895974   -5.7111949    356.13054  0.039204155  0.039778061            5 
  758000   0.96169733   -5.7143378    357.21977  0.039272182  0.039753058            4 
  759000   0.96217453   -5.7167609    357.22004   0.03922047  0.039728643            3 
  760000   0.94005651   -5.7140188    357.79762  0.039232195  0.039703357            6 
  761000   0.93484698   -5.7176163    357.08409  0.039102507  0.039678482            7 
  762000   0.94959326   -5.7226423    356.72884  0.039012341  0.039653802            3 
  763000   0.96664381   -5.7256657    357.78971  0.039077076   0.03962883            2 
  764000   0.94745784   -5.7073744    357.83274  0.039030622   0.03960422            2 
  765000   0.94493952   -5.7179534    359.11316  0.039119081   0.03957971            4 
  766000   0.97197119   -5.7323496    357.41596  0.038883373  0.039554716            7 
  767000   0.95758442   -5.7392992    358.44094   0.03894404  0.039529669            3 
  768000   0.96068554    -5.727025    358.42783  0.038891908  0.039504724            8 
  769000   0.93683394   -5.7440464    357.49838  0.038740614  0.039479514            7 
  770000   0.93664272   -5.7148312    359.00595  0.038853458  0.039454132            6 
  771000   0.95254018   -5.7688342    357.88741  0.038682167  0.039428443            4 
  772000   0.94316181   -5.7340965    358.49833  0.038698006  0.039403055            8 
  773000   0.94391833   -5.7130108    360.16403  0.038827515   0.03937745            3 
  774000   0.94660827     -5.74468    359.48674   0.03870443  0.039351795            3 
  775000   0.92752767   -5.7613334    358.87107  0.038588287  0.039326352            3 
  776000    0.9426367   -5.7409391    359.88618  0.038647571  0.039300988            4 
  777000   0.93316682   -5.7276934    360.73775  0.038689162   0.03927518            4 
  778000   0.96970189   -5.7177748    359.99967  0.038560376  0.039249511            4 
  779000   0.93900307   -5.7200633    361.38591  0.038659168  0.039224276            5 
  780000   0.95366809   -5.7572574    361.53451  0.038625482  0.039199246            2 
  781000   0.93700428   -5.7546354    362.54196  0.038683521  0.039174047            3 
  782000   0.97258642   -5.7232758    362.98583  0.038681355  0.039149546            5 
  783000   0.93856347   -5.7663301     361.7819   0.03850382  0.039124588            4 
  784000   0.93939889   -5.7822117    362.36734  0.038516937  0.039099535            5 
  785000   0.94261886   -5.7400234    362.82501  0.038516455  0.039074557            5 
  786000   0.92891241   -5.7281192    363.59727  0.038549328  0.039050024            7 
  787000   0.92818041   -5.7697368    363.15334   0.03845334  0.039025417            3 
  788000   0.93523551   -5.7399966    364.01974  0.038496166  0.039000524            2 
  789000    0.9496358   -5.7629521    364.42761  0.038490453  0.038975593            6 
  790000    0.9371212   -5.7660876    362.76977  0.038266853  0.038950481            2 
  791000   0.93070859    -5.752917    364.47815  0.038398457  0.038925159            4 
  792000   0.93969053   -5.7542046    364.70237  0.038373566  0.038900117            2 
  793000    0.9311119   -5.7579896    364.58449  0.038312788  0.038874789            5 
  794000   0.91610272   -5.7261952    364.53219  0.038259046   0.03885018            4 
  795000    0.9322958   -5.7719134     364.8676  0.038246079  0.038825075           10 
  796000   0.96204168   -5.7399209    366.03916  0.038320683  0.038800251            4 
  797000   0.93461417   -5.7631727    365.19942  0.038184799  0.038775181            5 
  798000   0.95120713   -5.7371463    366.83082  0.038307312  0.038750167            3 
  799000   0.93448197   -5.7209879    366.24961  0.038198749  0.038725206            3 
  800000   0.93295574   -5.7887025    364.40867  0.037959236  0.038700016            7 
  801000    0.9184242   -5.7673582    366.51404  0.038130882  0.038674537            6 
  802000   0.93604733   -5.7831439    366.85654  0.038118925  0.038649093            7 
  803000   0.91026249    -5.708378     367.4403  0.038132036  0.038623592            4 
  804000   0.93790031   -5.7463804    366.38163  0.037974879  0.038598141            3 
  805000   0.93538895   -5.7453664    367.00455  0.037992189   0.03857266            3 
  806000   0.93989056    -5.785329    365.97711  0.037838824  0.038546718            2 
  807000   0.92631427   -5.7536074    366.75072  0.037871821  0.038520889            5 
  808000   0.93732291   -5.7305387    367.92819  0.037946389  0.038495534            7 
  809000   0.92186735   -5.7561907    367.94951   0.03790168  0.038470382            4 
  810000   0.93589446   -5.7684167    368.92998  0.037955759  0.038445105            6 
  811000   0.93821703   -5.7785248    367.87378  0.037800429   0.03841954            5 
  812000   0.95218265   -5.7981149    367.98253  0.037765038  0.038394237            5 
  813000   0.91672148   -5.7694699    368.71426  0.037793589  0.038368723            4 
  814000   0.94629678   -5.7561264    369.16002  0.037792794  0.038343203            4 
  815000   0.93117041   -5.7755564    368.20986   0.03764927    0.0383177            3 
  816000    0.9525955   -5.7525053    369.57249  0.037742288  0.038292409            6 
  817000   0.92022419   -5.7851626    369.11609   0.03764954  0.038266948            3 
  818000   0.91618721   -5.7662168     370.8314   0.03777826  0.038241407            5 
  819000   0.91071945   -5.7958909    369.54746  0.037601492  0.038216149            5 
  820000   0.92495868   -5.7684416    370.54208  0.037656715  0.038190988            5 
  821000   0.93029464   -5.7665289    370.81206  0.037638253  0.038165789           10 
  822000   0.91806715   -5.8345101    369.37364  0.037446638  0.038140292            6 
  823000   0.91904526   -5.7958018    371.72008  0.037638729  0.038115042            9 
  824000   0.92753408   -5.7839117    372.18108  0.037639672  0.038090335            4 
  825000   0.92631449   -5.7645172    372.30296   0.03760636  0.038066014            6 
  826000   0.90429903   -5.8022934    373.38905  0.037670405  0.038041625            7 
  827000   0.91738238   -5.8230114    372.12545  0.037497526  0.038017002            7 
  828000   0.90986853    -5.804874    372.86409   0.03752658  0.037992435           17 
  829000   0.91455151   -5.7947898    373.12699  0.037507739  0.037968109            6 
  830000   0.94621987   -5.7984282    373.24845  0.037474744   0.03794401           13 
  831000   0.90811318   -5.7936214    374.97136  0.037602423  0.037919955            6 
  832000   0.92290025   -5.7944858    374.46177  0.037506187  0.037896107            8 
  833000   0.92342949   -5.7808953    375.03227  0.037518234   0.03787164            6 
  834000   0.92775269   -5.7485593    376.46781  0.037616687  0.037847986            4 
  835000   0.93333061   -5.8155468    374.92911  0.037418075  0.037824348            4 
  836000   0.92056439   -5.8477034    373.95469  0.037276186  0.037799933           17 
  837000    0.9035771   -5.8051416    375.53852  0.037389339  0.037775939            6 
  838000   0.92773924    -5.787307    376.51876    0.0374422   0.03775233            2 
  839000   0.90967706   -5.7996626    376.00184  0.037346229  0.037728109            7 
  840000   0.93116105   -5.7811889    376.74872  0.037375865   0.03770413            5 
  841000   0.92730956   -5.7919756    377.47687  0.037403574  0.037679979            6 
  842000   0.94110192   -5.8091738     376.0767  0.037220576  0.037656311            8 
  843000   0.92234601   -5.8009946    377.69373  0.037336272   0.03763269            4 
  844000   0.89724114   -5.7917728    378.72551  0.037393909  0.037609468            3 
  845000   0.92599385   -5.8072399    378.16567  0.037294444  0.037586355            2 
  846000   0.91591213   -5.8019732    377.33218  0.037168261  0.037563183            7 
  847000    0.9173265   -5.7895771    378.39336  0.037228784  0.037539821            3 
  848000   0.90890082    -5.778701    378.38292  0.037183856   0.03751633            2 
  849000   0.91902919   -5.7873416    379.09952  0.037210397  0.037493142            7 
  850000   0.92415031   -5.8117714    379.68812  0.037224326  0.037469566            3 
  851000   0.89916788   -5.8250552    379.78322  0.037189896  0.037445987            5 
  852000    0.8996882   -5.7902713    379.91123  0.037158767  0.037422552            6 
  853000   0.93603481   -5.8206869    380.24483  0.037147795  0.037399732            3 
  854000   0.89941545   -5.7875794    381.40758  0.037217757  0.037377096            4 
  855000   0.90325693   -5.8217312    380.99293  0.037133814  0.037354425            2 
  856000   0.93219166   -5.8358182    381.36743  0.037126891  0.037331437            7 
  857000   0.92014874   -5.8106524    381.44466   0.03709108  0.037308456            5 
  858000   0.91605943   -5.8412829    382.56829  0.037156983  0.037285776            6 
  859000   0.91017199   -5.7959072    382.48889  0.037106023  0.037262904            4 
  860000   0.90687905   -5.8025165    381.81626    0.0369977  0.037240233            5 
  861000    0.9004581   -5.8076914    383.51073  0.037118731  0.037217585            5 
  862000   0.91998186   -5.8162373    382.83647  0.037010486  0.037194805            2 
  863000   0.91215911   -5.7968108    383.20464  0.037003152  0.037171973            4 
  864000   0.90363179   -5.8257247    382.85087  0.036926203  0.037148911            1 
  865000   0.92988859   -5.8204669    383.69307   0.03696465  0.037126161            9 
  866000   0.89729046   -5.8171353    382.95993  0.036851417  0.037103166            4 
  867000   0.89550882   -5.8136498    382.81026  0.036794527  0.037080079            6 
  868000   0.92316964     -5.82325    384.02166  0.036868439  0.037057105            4 
  869000   0.88407511   -5.8181531    384.65709  0.036886948  0.037034231            4 
  870000   0.90891479   -5.7946809    385.33473  0.036909457  0.037011921            3 
  871000   0.91911762   -5.8163385    385.92441  0.036923499  0.036989688            3 
  872000   0.89750929   -5.8119095    386.00275  0.036888642   0.03696736            9 
  873000   0.90410933   -5.8602647    385.19708  0.036769481  0.036944922            6 
  874000   0.89847523   -5.7882658    387.74761  0.036970596  0.036922384            4 
  875000   0.91252676   -5.8086206    385.41229  0.036705933   0.03690019            4 
  876000   0.90117916   -5.8255664    386.65453  0.036782204  0.036877404            3 
  877000   0.89038404   -5.8531446    384.44134  0.036529964  0.036854621            3 
  878000   0.90226682   -5.8295227    385.93834  0.036630443  0.036831612            8 
  879000   0.90940109    -5.844757    386.94364  0.036684077  0.036808841            4 
  880000   0.92799249   -5.8124003    386.54672  0.036604803  0.036786405            3 
  881000   0.90807294   -5.8473392    385.82179  0.036494683  0.036763833            9 
  882000   0.91186219   -5.7984994    387.67857  0.036628739  0.036741363            3 
  883000   0.89375656   -5.8215686    386.58915  0.036484443  0.036718722            8 
  884000   0.89871877   -5.8370895    388.70717  0.036642833  0.036696086            7 
  885000   0.92112489   -5.8378716    388.08681  0.036543014   0.03667355            5 
  886000   0.88838038   -5.8382889    388.70983  0.036560368  0.036651311            7 
  887000   0.88830466   -5.8502642    388.83584  0.036530988  0.036629139            4 
  888000   0.91571326   -5.8230668    390.32581  0.036629674  0.036606931            5 
  889000    0.9054557    -5.822573    389.70335  0.036530123  0.036584878            7 
  890000   0.90382866   -5.8366787    389.21116  0.036442992  0.036562877            9 
  891000   0.89335754   -5.8199339    389.54733  0.036433533   0.03654068            7 
  892000   0.90006719   -5.8280606     390.1727  0.036451112  0.036518513            3 
  893000   0.91434493   -5.8524941    390.38872  0.036430452   0.03649608           10 
  894000   0.88751363   -5.8376204    391.20337  0.036465638   0.03647419            8 
  895000   0.89632668   -5.8250946    391.30907  0.036434736  0.036452557            6 
  896000   0.89447318   -5.8560627    391.65898  0.036426616  0.036430902            4 
  897000   0.90965294   -5.8472075    391.20601  0.036343925  0.036409216            4 
  898000   0.88718972   -5.8581239    391.13843  0.036297182  0.036386966            6 
  899000   0.88019315   -5.8656553    391.37169  0.036278429  0.036364936            2 
  900000   0.90451508   -5.8439742    391.74326  0.036272524  0.036342838            2 
  901000   0.86877373   -5.8566024    390.88654  0.036153028  0.036320417           12 
  902000   0.91572174   -5.8897125     390.2165  0.036051044  0.036297989           13 
  903000   0.86461551   -5.8713967     392.1761  0.036191962  0.036275562            3 
  904000   0.90053563   -5.8531283    391.15184  0.036057507  0.036253216            6 
  905000   0.89016661   -5.8451804    392.99494  0.036187379  0.036231012           11 
  906000   0.89087863   -5.8473324    392.64525  0.036115273  0.036208755            6 
  907000     0.885152   -5.8587042    392.39521  0.036052482  0.036186361            4 
  908000   0.87134135   -5.8653401    393.05311  0.036073156  0.036164034            8 
  909000   0.87836523   -5.8721603    393.41028  0.036066215   0.03614149            5 
  910000   0.89768416   -5.8574811    391.69052  0.035869095  0.036118978            4 
  911000   0.89429996   -5.8813075    391.93068   0.03585169   0.03609611           14 
  912000   0.89475941   -5.8513527     392.3928  0.035854605  0.036073039            3 
  913000   0.89515194    -5.876588    392.35576  0.035811953  0.036050173            3 
  914000   0.90755099   -5.8265954    392.79999  0.035813274  0.036027324            6 
  915000   0.90266835   -5.8551351    394.34408  0.035914762  0.036004601            5 
  916000   0.88412588   -5.8583969    393.88521  0.035833808  0.035981633            4 
  917000   0.89006515   -5.8633986    393.74075  0.035781602  0.035958485            5 
  918000   0.90554043   -5.8558176      393.823  0.035750091   0.03593568            7 
  919000   0.87005231   -5.8446238    394.28161  0.035752775   0.03591311            5 
  920000    0.8936013   -5.8655144     394.1176  0.035699058  0.035890633            4 
  921000   0.89312616   -5.8917039    395.90657  0.035822165  0.035868102            4 
  922000   0.88536858    -5.887519     394.7123   0.03567537  0.035845605            9 
  923000    0.9134329   -5.8520133    395.92309  0.035746036  0.035823272            5 
  924000   0.87135696   -5.8504073      395.814  0.035697511  0.035801257            4 
  925000   0.87991413   -5.8685166    397.07459  0.035772485  0.035779117            3 
  926000   0.89281899   -5.8525521    398.49854     0.035862   0.03575701            7 
  927000    0.9014386   -5.8964635    397.24966  0.035711044  0.035735059            6 
  928000   0.88172336   -5.8618819     397.3337  0.035680109  0.035712992            2 
  929000   0.87723896   -5.8896446    397.47453  0.035654335  0.035690916            5 
  930000   0.87524453   -5.8680413    398.41889  0.035700618  0.035669011            3 
  931000   0.87377186   -5.8755357    397.97471  0.035622513  0.035646778            6 
  932000   0.88051532   -5.8657898    397.33596  0.035527178  0.035624511            8 
  933000   0.88679782   -5.8932169    398.78457  0.035618486  0.035602583            8 
  934000   0.87253586   -5.8750478    398.70931  0.035573636   0.03558097            7 
  935000   0.87562667    -5.881771    398.83968  0.035547208  0.035559024            2 
  936000   0.88530141   -5.8869603     397.9022  0.035425765  0.035537281            3 
  937000    0.8884905   -5.8921567    399.34583   0.03551635  0.035515336            3 
  938000   0.87762709    -5.879341    399.06654  0.035453673  0.035493616            5 
  939000   0.88986224   -5.8557885    398.72431  0.035385544  0.035471806            3 
  940000   0.87347591   -5.8689065     400.9435  0.035544636  0.035449864            6 
  941000   0.88217816   -5.8868261    399.20719  0.035353098  0.035427663            7 
  942000   0.87887757   -5.8787471    400.69165  0.035446891  0.035405827            6 
  943000   0.88373801   -5.8678721    399.71843  0.035323297  0.035383686           11 
  944000   0.87991831   -5.8802466    399.56653  0.035272469  0.035361898            8 
  945000   0.87939797   -5.9113648    398.97064  0.035182596  0.035339704            3 
  946000   0.86542208   -5.9257215    399.09066  0.035155978  0.035317437            7 
  947000   0.89169628   -5.8959432    400.82036  0.035271063  0.035295191            7 
  948000   0.88716775   -5.9076159    400.90967  0.035241708  0.035273235            7 
  949000   0.88426177    -5.875688    402.24902  0.035322183  0.035251381            8 
  950000   0.86843085   -5.9440287    401.44265  0.035214268  0.035229599            5 
  951000   0.87372172   -5.8853846     402.4588  0.035266281  0.035208338            5 
  952000   0.88080864   -5.9109665    401.79435  0.035171074  0.035186975            8 
  953000   0.88488577    -5.915005    402.42914  0.035189676  0.035165537            3 
  954000   0.85041788   -5.9274928    401.57165  0.035077887  0.035143782            3 
  955000   0.87962181   -5.9451433    401.73621  0.035055515  0.035121875            5 
  956000   0.87645348   -5.8969317    402.84538  0.035115531  0.035100338            5 
  957000   0.87353608   -5.8911827    402.57118  0.035054961  0.035078876            2 
  958000   0.87182994   -5.9048922     403.5674  0.035105027  0.035057269            8 
  959000   0.88569161   -5.9009041     404.6042  0.035158516  0.035035829            7 
  960000   0.86589838   -5.9164001    402.82142  0.034967137  0.035014435            5 
  961000    0.8829288   -5.8814874    403.65605  0.035003126  0.034992847            4 
  962000   0.86731881   -5.8915945    404.98082  0.035081498  0.034971511            5 
  963000   0.85685769   -5.9168539    405.05183  0.035051214  0.034950488            4 
  964000   0.85946373   -5.9083371    404.60545  0.034976267  0.034929229            4 
  965000   0.84928289   -5.9447547    403.11057   0.03481093  0.034907841            3 
  966000   0.87388101   -5.8899664     404.1863  0.034867693  0.034886116            7 
  967000   0.86323408    -5.905864     405.8029   0.03497095  0.034864837            4 
  968000   0.86742047   -5.8737406    405.75771  0.034930932  0.034843684            3 
  969000   0.88766358    -5.937479    406.39974  0.034950098  0.034822231            5 
  970000   0.85804837   -5.9162598    406.40906  0.034914868  0.034800693            5 
  971000   0.86356417   -5.9294639      405.348  0.034787847   0.03477926            9 
  972000   0.86820219   -5.9176539    405.11636  0.034732198  0.034757409            7 
  973000   0.84899138   -5.9155536    405.73167  0.034749201  0.034735692           10 
  974000     0.876157   -5.8933222    407.04968   0.03482629  0.034714091            3 
  975000    0.8622672   -5.8988679    407.00374  0.034786644  0.034692596            4 
  976000   0.86343599   -5.9251556    405.90605  0.034657279  0.034671184            9 
  977000    0.8752326   -5.9094581    408.00955  0.034801224  0.034649597            4 
  978000   0.86040723   -5.9262929    406.40399  0.034628833   0.03462811            6 
  979000   0.87387411   -5.9233193    407.77514  0.034710175  0.034606569            6 
  980000   0.87980769   -5.9258755    407.18352  0.034624449  0.034585199            4 
  981000    0.8800092   -5.9302562    408.53649  0.034704085   0.03456375            7 
  982000   0.87669978    -5.930747    408.12494  0.034633821  0.034542442            3 
  983000   0.84938147   -5.9159616    408.99426  0.034672283  0.034521143            5 
  984000   0.86551861   -5.9136207    409.33703  0.034666076  0.034500027            4 
  985000   0.85525463   -5.9441101     408.6968  0.034576717  0.034478719            5 
  986000   0.84592105   -5.9521861    408.33449  0.034511029  0.034457413            3 
  987000   0.85685799   -5.9115373    410.14534  0.034628955  0.034436428            4 
  988000   0.87011424   -5.9131268    409.26617  0.034519751  0.034415435            5 
  989000    0.8533236   -5.9799427    408.14721  0.034390563  0.034394374           10 
  990000   0.85945847   -5.9253466    409.96577  0.034508903  0.034373044            6 
  991000   0.87614389   -5.9324718    409.89679  0.034468281  0.034351734            2 
  992000   0.86527266   -5.8763976    411.56491  0.034573665  0.034330847            6 
  993000    0.8621228   -5.9164111    408.84883  0.034310912  0.034309791            6 
  994000   0.83538827    -5.985453    408.89784  0.034280503   0.03428855           10 
  995000   0.85827332   -5.9701548    409.87338  0.034327754   0.03426736            3 
  996000   0.84686984   -5.9281282    410.56098  0.034350818   0.03424655            8 
  997000   0.85217782   -5.9382511    410.74322  0.034331597  0.034225481            5 
  998000   0.85483086   -5.9631347    409.88086  0.034225189  0.034204122            6 
  999000   0.86368285   -5.9589137    411.18676  0.034299863  0.034182766            3 
 1000000   0.87031859   -5.9226947    411.48285  0.034290237  0.034161219            4 
 1001000   0.86919833   -5.9710245    408.25875  0.033987575  0.034139536            7 
 1002000   0.88215208   -5.9662645    408.86629  0.034004182  0.034117758            5 
 1003000   0.84666561   -5.9460069    410.79191  0.034130268  0.034096118            3 
 1004000    0.8538224   -5.9467299    410.80206  0.034097116  0.034074659            3 
 1005000   0.84787802   -5.9446908    412.84596  0.034232667  0.034053306            5 
 1006000   0.86748621    -5.949651    411.62444  0.034097452  0.034031941            5 
 1007000   0.84649225   -5.9599154    410.74203  0.033990569   0.03401035            7 
 1008000   0.86986246   -5.9666878     412.2179  0.034078861  0.033988935           18 
 1009000   0.85695735    -5.930722    413.63609  0.034162214  0.033967339            4 
 1010000   0.85499847    -5.949895    412.66804  0.034048519  0.033945936            4 
 1011000   0.86437252   -5.9620485     412.3669  0.033990018   0.03392441            7 
 1012000   0.84141579   -5.9257754    413.36221   0.03403839  0.033902974            8 
 1013000   0.85175532   -5.9663324    413.85579  0.034045393  0.033881575           11 
 1014000   0.83734847   -5.9899682    412.82711  0.033927278  0.033860236            8 
 1015000   0.86002123   -5.9759998    411.99843  0.033825815  0.033838777            7 
 1016000   0.85834393   -5.9768576    413.13142  0.033885451  0.033817303            9 
 1017000   0.85590293   -5.9489897    413.51761  0.033883777  0.033795928            5 
 1018000   0.83747394   -5.9797945    411.69232  0.033701074   0.03377442            4 
 1019000   0.86866893   -6.0035233    413.79278  0.033839776  0.033752869            7 
 1020000   0.84710655   -5.9958455     414.0296  0.033825948  0.033731475            4 
 1021000   0.85646658   -5.9534125    413.46892  0.033747055  0.033710137            6 
 1022000   0.87158526   -5.9941378    413.79715  0.033740798   0.03368869            5 
 1023000   0.85432349   -5.9540651    414.92323  0.033799546  0.033667404            5 
 1024000   0.84991166   -5.9753461    413.93227  0.033685895  0.033645863            6 
 1025000   0.84429369   -5.9778306    414.60633  0.033707832  0.033624293           10 
 1026000   0.83414732   -5.9449142    414.64809   0.03367837  0.033603142            7 
 1027000   0.84968221   -5.9651053    414.30544  0.033617773  0.033581829            6 
 1028000   0.85004014   -5.9918448    413.50483  0.033520171   0.03356017            6 
 1029000   0.85270933   -6.0026544    414.64337    0.0335798  0.033538471            8 
 1030000   0.82794011   -5.9828312     414.1299  0.033505655  0.033516875            6 
 1031000   0.82524417   -5.9593221    415.33161  0.033570289  0.033495146            9 
 1032000   0.84154934   -6.0017711     414.3131  0.033455515  0.033473379            9 
 1033000   0.85157373   -5.9821003    414.06971  0.033403494  0.033451724            5 
 1034000   0.85572397   -5.9937678    413.91063  0.033358368  0.033430094            4 
 1035000   0.84969746   -5.9617199    416.31162  0.033519454  0.033408522            6 
 1036000   0.83480644   -5.9742871    415.94712   0.03345778  0.033386966            5 
 1037000   0.83727052   -5.9643635    415.37401  0.033379461  0.033365406            2 
 1038000   0.85473965   -5.9846032    415.06871  0.033322793   0.03334379            6 
 1039000   0.84444257   -5.9594339    416.33232  0.033392069  0.033322165            7 
 1040000   0.83261146    -5.946816    415.88358  0.033324005  0.033300923            2 
 1041000   0.83085994   -5.9501907    416.78056  0.033363798  0.033279583           10 
 1042000   0.85934399   -5.9891569     415.7138  0.033246465   0.03325807            4 
 1043000   0.84567946   -5.9472807    416.90458   0.03330973  0.033236569            5 
 1044000   0.84257158   -5.9507045     417.2749  0.033307384  0.033214911            6 
 1045000   0.83873853   -5.9882553    416.44464  0.033209301  0.033193249            5 
 1046000   0.83958966   -5.9798694    417.44886  0.033257557  0.033171435            6 
 1047000    0.8392891   -5.9664657     417.1037  0.033198321  0.033149578            6 
 1048000   0.82286498   -5.9796073      417.066  0.033163645  0.033127815            7 
 1049000   0.84307981     -5.98805    416.47978  0.033085461  0.033106151            7 
 1050000   0.82422214   -5.9568549     417.5207  0.033136564  0.033084278            5 
 1051000   0.83160869   -5.9739375    416.88887  0.033054937  0.033062346            4 
 1052000   0.83850967   -5.9717586    417.21266  0.033049165  0.033040732            7 
 1053000   0.83134584   -5.9943258    418.18694  0.033094883  0.033018834            5 
 1054000    0.8490087   -5.9833405    417.37862  0.032999575   0.03299699            3 
 1055000   0.83829089   -6.0222371    417.60319  0.032986034  0.032974966            8 
 1056000   0.83853202   -5.9999794    417.76472  0.032967545  0.032952908            6 
 1057000   0.84341808   -6.0009345    416.87544  0.032866244  0.032930698            5 
 1058000   0.82469142   -6.0105921    416.44071  0.032800938  0.032908721            7 
 1059000   0.83454493   -6.0046773    418.18082  0.032906895  0.032886759           11 
 1060000     0.833874   -6.0066997    417.98411  0.032860386  0.032864911            7 
 1061000   0.81230662   -5.9902108    418.10266  0.032838726  0.032842925            5 
 1062000   0.84590174    -6.027169    417.04472  0.032724789  0.032820841            9 
 1063000   0.82887808    -6.018208    418.40483   0.03280063  0.032798721           12 
 1064000    0.8223961   -5.9934278    417.43781  0.032694064  0.032776881            5 
 1065000   0.84038546   -6.0030271    418.56713  0.032751731   0.03275519           10 
 1066000   0.82337565    -5.968896    420.11089   0.03284169   0.03273359            6 
 1067000   0.81595057   -6.0088924    417.49218  0.032606387  0.032711715            5 
 1068000   0.84840918   -5.9970458    418.90259  0.032685908  0.032689622            4 
 1069000   0.82180686   -6.0113672    418.79785  0.032647167  0.032667468            5 
 1070000   0.81683021   -6.0251933    418.62803  0.032603429  0.032645458            6 
 1071000   0.81651628   -5.9828185    418.90166  0.032594278  0.032623487           12 
 1072000    0.8267001    -5.971666    420.80861  0.032712112  0.032601711            4 
 1073000   0.84023686    -6.006295    419.64907  0.032591571  0.032579942            5 
 1074000   0.82321608   -6.0232995    419.39146  0.032541237  0.032557954            7 
 1075000   0.83655973   -6.0019236    420.18409   0.03257241  0.032536088            8 
 1076000   0.81571367   -6.0137225    419.17164  0.032463727  0.032514064            5 
 1077000   0.81280193   -6.0279604    418.75049  0.032400997  0.032492156            6 
 1078000   0.82102467   -6.0340776    418.93006  0.032384822  0.032470124           15 
 1079000   0.82613136   -6.0264244    420.44165  0.032471552  0.032448211            9 
 1080000   0.80521693   -6.0506472    419.31033  0.032354192  0.032426273            7 
 1081000   0.83439555   -6.0428523    419.19401  0.032315295  0.032404146           12 
 1082000     0.798257   -6.0141941    421.35295  0.032451706  0.032382273            4 
 1083000   0.81445821   -6.0180072    421.87531  0.032461935    0.0323606            9 
 1084000   0.81437695   -5.9991132    421.74446   0.03242193  0.032339049           12 
 1085000   0.81117551   -6.0293265    421.21956  0.032351733  0.032317524            6 
 1086000   0.83157263   -6.0531052    420.94048  0.032300528  0.032295812            7 
 1087000   0.81476788     -6.05768    422.14503  0.032363158  0.032274193           13 
 1088000   0.82180386   -6.0175192    421.54532  0.032287478  0.032252721           10 
 1089000   0.81001496    -6.030134    422.59032  0.032337796  0.032231385            7 
 1090000   0.79428948   -6.0202187    421.96247  0.032260128  0.032210067           11 
 1091000     0.795288   -6.0271078    422.65417  0.032283392  0.032188581            7 
 1092000   0.81709369   -6.0148867    421.66258  0.032178158  0.032167227            7 
 1093000   0.82485551    -6.022409     422.1503  0.032185903  0.032145829            5 
 1094000    0.8299912   -6.0237888    422.70612  0.032198821  0.032124301            8 
 1095000   0.81822783   -5.9866866    424.45934  0.032302841   0.03210282            6 
 1096000   0.81210459   -6.0242054    423.06478  0.032167334  0.032081313           13 
 1097000   0.81923451   -6.0569187    422.03925  0.032060107  0.032059756           10 
 1098000   0.81667788   -6.0321938    422.61055  0.032074267  0.032038359            3 
 1099000   0.80383303   -6.0250544    424.01703  0.032151731  0.032016944            5 
 1100000   0.81024004   -6.0570371    423.06595  0.032050451  0.031995392            3 
 1101000   0.81156442   -6.0206226    424.54029  0.032132931  0.031974011            7 
 1102000   0.80697495   -6.0482332    423.17339  0.032000407  0.031952733            8 
 1103000   0.80146997   -6.0315595    424.75874  0.032091171  0.031931517            8 
 1104000   0.81582048   -6.0304753    425.39953  0.032110472  0.031910392            6 
 1105000   0.80418078   -6.0499371    424.55677  0.032017856  0.031889294            3 
 1106000   0.79821584   -6.0610462     424.4915  0.031983989  0.031868112            6 
 1107000   0.83072845   -6.0295181    423.70717  0.031896053  0.031846768            6 
 1108000   0.80137492   -6.0319666    424.49643  0.031926627   0.03182549            5 
 1109000   0.80743074   -6.0793612    424.04314  0.031863776  0.031804145           13 
 1110000   0.81504221   -6.0346944    424.27569  0.031852529   0.03178247           18 
 1111000   0.80871286   -6.0519121    424.16257  0.031815375  0.031760902            8 
 1112000   0.80527115   -6.0738963    424.72516  0.031828924  0.031739385            8 
 1113000    0.8255127    -6.035289    425.45523  0.031854989  0.031717893            4 
 1114000   0.79513414    -6.047123    425.78527  0.031851082  0.031696625            3 
 1115000   0.81171037   -6.0480233    425.29088  0.031785567  0.031675374            9 
 1116000   0.81691476   -6.0444013    426.15726  0.031821779  0.031654211            5 
 1117000   0.82859201   -6.0559941    426.75987  0.031838247  0.031633302            3 
 1118000   0.80756332   -6.0255811    427.46659  0.031862447  0.031612404            6 
 1119000   0.80919863   -6.0553598    426.93908  0.031794689  0.031591562            6 
 1120000   0.80373934    -6.073922    425.84186  0.031684662  0.031570602            5 
 1121000   0.79338094   -6.0493366    426.37929  0.031696349  0.031549526            9 
 1122000   0.78613606   -6.0584905    426.69736  0.031691723  0.031528428            5 
 1123000   0.79716201   -6.0542192    427.20564   0.03170122   0.03150751            7 
 1124000   0.80512542    -6.064427    425.83005   0.03157103  0.031486413            7 
 1125000   0.79657539   -6.0839416    426.10996  0.031563701  0.031465209           11 
 1126000   0.81597194   -6.0733648     426.4236  0.031558881  0.031443938           15 
 1127000   0.79012336   -6.0682302    426.75574  0.031555437   0.03142288            5 
 1128000   0.79703089   -6.0698066    427.17562  0.031558482  0.031401839            8 
 1129000   0.81512736   -6.0579743     427.8886  0.031583157  0.031380683            8 
 1130000   0.79924826   -6.0870026    428.02096  0.031564967  0.031359767           10 
 1131000   0.79936239   -6.0628882    427.13713  0.031471937  0.031338783           10 
 1132000   0.80714134   -6.0893238    427.25787  0.031453024   0.03131773           10 
 1133000   0.81526177   -6.0489949    427.97435   0.03147796  0.031296905            6 
 1134000   0.80900613   -6.0746548    427.71295  0.031430993  0.031276063            9 
 1135000   0.79348776    -6.085377    427.02189  0.031352562  0.031255091           15 
 1136000    0.7940601   -6.0645938     427.4423  0.031355802  0.031233877            6 
 1137000    0.8056554   -6.0817834    427.92858  0.031363866  0.031212617            6 
 1138000    0.8037576   -6.1148683     426.7514  0.031250103  0.031191354            6 
 1139000   0.82526242   -6.0922167    427.37133  0.031268022  0.031170121            3 
 1140000   0.77675574     -6.08127    428.35599  0.031312572   0.03114895           12 
 1141000   0.79108483   -6.0656514    428.70895  0.031310908  0.031127938           13 
 1142000   0.80472696   -6.0735991    428.37906  0.031259418  0.031107067            4 
 1143000   0.77006033    -6.067152    429.10603  0.031285071  0.031086166            8 
 1144000   0.81053347   -6.0573373    429.01686  0.031251228  0.031065196           11 
 1145000   0.78482597   -6.0970613    428.63304     0.031196  0.031044134            6 
 1146000   0.79586572   -6.1041085     429.2853  0.031216208   0.03102294            9 
 1147000   0.78882626   -6.1133181    429.09919  0.031175472  0.031001694            5 
 1148000   0.78941185   -6.0729143    428.80319  0.031126828  0.030980587            5 
 1149000   0.79976121   -6.0751213    429.39317  0.031142527  0.030959523           15 
 1150000   0.79096272   -6.0795856    427.98284  0.031013249  0.030938536            3 
 1151000   0.77690037   -6.0758738    429.07767  0.031065572  0.030917687            5 
 1152000   0.80004758   -6.0777217    429.87314  0.031096147  0.030896664            6 
 1153000   0.79737708   -6.0866235    430.33387  0.031102477  0.030875732            5 
 1154000   0.78193158   -6.0610699     430.0112  0.031052224  0.030854675            7 
 1155000    0.7785551    -6.096686    429.53011  0.030990628  0.030833472            5 
 1156000   0.78445738    -6.093187     429.2976  0.030947059  0.030812263            7 
 1157000    0.7824976   -6.0879374    431.06493  0.031047604    0.0307911           13 
 1158000   0.78163833   -6.0943178    429.37878  0.030899452  0.030770011            9 
 1159000   0.78960418   -6.0722332    430.12474  0.030926426  0.030749028            4 
 1160000   0.78697769   -6.1191411    430.14116  0.030900945  0.030727721            6 
 1161000   0.77973414   -6.0844993    429.74254  0.030845718  0.030706436            9 
 1162000   0.77680519   -6.1089188    429.74731  0.030819514  0.030685425            7 
 1163000   0.76485201   -6.0959859     431.1564  0.030893981  0.030664466            7 
 1164000   0.79195496   -6.0954016    430.84563  0.030845191  0.030643318            5 
 1165000   0.78014985   -6.1094199    430.45924  0.030791076  0.030622291            5 
 1166000   0.78120067   -6.0942672    429.68762  0.030709521  0.030601332           12 
 1167000    0.7827405   -6.1023289    430.76347  0.030760031  0.030580327            6 
 1168000   0.77048896   -6.0826858    430.75891   0.03073337  0.030559539           25 
 1169000   0.78628052   -6.0873944    432.22121  0.030811321  0.030538715           11 
 1170000   0.77921943   -6.1461435    429.15092  0.030566305  0.030517689           15 
 1171000   0.77512156   -6.0931637     430.4688  0.030633988  0.030496521           11 
 1172000   0.78651411   -6.1133208    430.63211  0.030619462   0.03047531           12 
 1173000   0.79254088   -6.1024538    431.10811  0.030627175  0.030454186           10 
 1174000   0.78954461   -6.1029425    431.46862  0.030626677  0.030433103           13 
 1175000   0.79668635   -6.1520399    431.41924   0.03059711  0.030411949            6 
 1176000   0.77864059   -6.1117117    431.19611   0.03055528  0.030390731           10 
 1177000   0.79273747   -6.1268744    431.10189  0.030522649  0.030369528           11 
 1178000   0.78735447   -6.1216562    430.93481  0.030484919  0.030348589            9 
 1179000   0.78337086   -6.1130662     430.8183  0.030450827  0.030327687            5 
 1180000   0.79216703   -6.1521407     431.4847  0.030472083  0.030306772            5 
 1181000    0.7987317   -6.1203282    431.91289  0.030476495  0.030285916            7 
 1182000   0.76827615   -6.1182018    431.45675  0.030418553  0.030264959            5 
 1183000   0.77507576   -6.1269928    432.52581  0.030468147  0.030244122            8 
 1184000   0.77699735   -6.1239719     432.4902  0.030439907  0.030223239            8 
 1185000   0.77997656   -6.1324233    432.07123  0.030384756  0.030202542            5 
 1186000   0.78281248   -6.1235822    432.64073  0.030399152  0.030181698           10 
 1187000   0.77528702   -6.1351429    432.61756  0.030371915  0.030160981           10 
 1188000    0.7854047   -6.1208387    432.94687  0.030369449  0.030140043            6 
 1189000   0.78851423   -6.1193485    432.68573  0.030325605  0.030119167            7 
 1190000   0.77166096    -6.128576    432.47881  0.030285631  0.030098369            4 
 1191000   0.77824837   -6.1314349    433.08096  0.030302334  0.030077559            6 
 1192000   0.78906943   -6.1211706    431.87349  0.030192498  0.030056731            9 
 1193000   0.76618783   -6.1239573    434.01133  0.030316522  0.030035954            6 
 1194000   0.77157641   -6.1027081    434.28388  0.030310153  0.030015354            5 
 1195000   0.79005106   -6.1302802     432.3683  0.030151206  0.029994579            7 
 1196000   0.77765326   -6.1156996    433.69896  0.030218712  0.029973708           21 
 1197000    0.7659927   -6.1539151     433.2367  0.030161285  0.029952794            8 
 1198000   0.78286844   -6.1257444    433.24324  0.030136564  0.029931786           10 
 1199000   0.77783227   -6.1382047    433.30944   0.03011603   0.02991086           18 
 1200000    0.7689369   -6.1318522    432.98497  0.030068401  0.029890023           16 
 1201000   0.79456159   -6.1472242    432.92711   0.03003935  0.029869065           11 
 1202000   0.75399374   -6.1256859    433.15954  0.030030473  0.029848161            4 
 1203000   0.78472833   -6.1411623    433.17082  0.030006291  0.029827298            5 
 1204000    0.7667814   -6.1510838    433.53848  0.030006816   0.02980633            5 
 1205000   0.77582548   -6.1477836    432.66353  0.029921406  0.029785254            8 
 1206000   0.76887128   -6.1430961     433.3386  0.029943242   0.02976429            6 
 1207000   0.78196227   -6.1659745     433.6236  0.029938111  0.029743413            9 
 1208000   0.76297953   -6.1634025    432.67604  0.029847961  0.029722456            7 
 1209000    0.7677631   -6.1661645    434.13584  0.029923893  0.029701507            8 
 1210000   0.73972093   -6.1589053    433.92795  0.029884845  0.029680665            7 
 1211000   0.78588657   -6.1737103    433.21808  0.029811318  0.029659686            8 
 1212000   0.76830185   -6.1540481    434.90388  0.029902632  0.029638705           25 
 1213000   0.76643962   -6.1776388    432.14626  0.029688531  0.029617572            8 
 1214000     0.783615   -6.1440427    433.32167   0.02974476  0.029596409           18 
 1215000    0.7703658   -6.1522443    434.80194  0.029821807  0.029575282           10 
 1216000   0.75693052   -6.1362374    433.65212  0.029718484  0.029554177           14 
 1217000   0.75520484   -6.1795816    433.58432  0.029689422  0.029533143           10 
 1218000   0.73986503   -6.1628138    434.34293  0.029716949  0.029512106           12 
 1219000   0.77033886   -6.1653903      434.111  0.029676716  0.029490949            6 
 1220000   0.75386455   -6.1540944    433.45625  0.029607667  0.029469864            7 
 1221000   0.75101506   -6.1636117    434.99046  0.029688128  0.029448916            6 
 1222000   0.75321763   -6.1371439    434.25504  0.029613683  0.029428048           11 
 1223000   0.77185409   -6.1673447    433.83325  0.029560728  0.029407203           12 
 1224000   0.75340335    -6.168919    435.24469  0.029632672  0.029386258            7 
 1225000   0.77267489   -6.1220458     434.4114  0.029551796  0.029365376            7 
 1226000   0.74492296   -6.1597734     433.5383  0.029468346  0.029344516            8 
 1227000   0.75744605   -6.1579664    433.39626  0.029434682  0.029323456           14 
 1228000   0.77492964   -6.1968317    434.10598  0.029458875  0.029302404           10 
 1229000   0.76535172   -6.1578211    434.58226    0.0294672  0.029281375           20 
 1230000   0.76241052    -6.181239    434.47323  0.029435856  0.029260447           13 
 1231000   0.75538907   -6.1864409    434.60637  0.029420957  0.029239486           14 
 1232000   0.74201182   -6.1639743    434.15198  0.029366341  0.029218515           13 
 1233000   0.76396816   -6.1699663    435.48872  0.029432868  0.029197663            7 
 1234000   0.76403959   -6.1647246    434.24291  0.029324886   0.02917655            9 
 1235000   0.73799691   -6.1416526    436.04913  0.029423018  0.029155596           18 
 1236000   0.76838482   -6.1748702    434.82114   0.02931642  0.029134714            7 
 1237000   0.75374596   -6.1741872    434.90471   0.02929835  0.029113887            5 
 1238000   0.75826555   -6.1736169    434.72265  0.029262429  0.029093026            8 
 1239000   0.75174155   -6.1655426    436.04466  0.029327728  0.029072078            7 
 1240000   0.75344533   -6.1483573    435.08667  0.029239695  0.029051193            7 
 1241000   0.75795738   -6.1625674    435.50023  0.029243905  0.029030174           12 
 1242000   0.75622737   -6.1699857    434.81533  0.029174405  0.029009328           24 
 1243000   0.77058412   -6.1649621    435.30319  0.029183641  0.028988397            6 
 1244000   0.75533164   -6.1803228    434.83855  0.029129056  0.028967407            7 
 1245000   0.74116933   -6.2037805    434.76979  0.029101057  0.028946422            5 
 1246000   0.73783279   -6.1860042    434.40972  0.029053619  0.028925349            6 
 1247000   0.74312879   -6.1696819    436.95666  0.029200525  0.028904518            9 
 1248000   0.76192404   -6.1992196    434.11049  0.028987079  0.028883644            5 
 1249000   0.75569729   -6.1694415    436.06731  0.029094429  0.028862701            9 
 1250000   0.77142767    -6.165735    435.53871  0.029035914  0.028841904           15 
 1251000   0.75477976   -6.1993113    434.10932  0.028917488  0.028821065           12 
 1252000   0.75458599    -6.203384    433.68184  0.028865937  0.028800175            8 
 1253000   0.75920645   -6.1835454    435.68416  0.028976068  0.028779224            7 
 1254000   0.75342057   -6.1970583    434.87514  0.028899198  0.028758219           10 
 1255000   0.75172521   -6.1633613    436.53255  0.028986225  0.028737385           11 
 1256000   0.76743528   -6.2121243    436.54655  0.028964075  0.028716546            9 
 1257000   0.75189727   -6.1764178      435.056  0.028842217  0.028695664            7 
 1258000   0.75315367   -6.1689208     436.1807  0.028893793   0.02867473           14 
 1259000   0.74377484   -6.1767626    436.03069  0.028860914  0.028653805           18 
 1260000   0.75720632   -6.1724089    435.46377  0.028800514  0.028632873            8 
 1261000   0.74599106    -6.216648    435.43264  0.028775617  0.028611925            6 
 1262000   0.76777468   -6.2274741    435.87208  0.028781833  0.028590961            6 
 1263000    0.7370415   -6.2032878    436.75078  0.028817021  0.028569983            5 
 1264000   0.72467321   -6.2030552    435.60228  0.028718505  0.028549109            8 
 1265000   0.75231613   -6.1833185    436.06101  0.028726022  0.028528201            4 
 1266000   0.75617248   -6.1668372    436.49419  0.028731845   0.02850742           10 
 1267000    0.7502521   -6.1768532    436.70479   0.02872302  0.028486707           10 
 1268000   0.72029425   -6.1889735     435.8043  0.028641187  0.028465865           12 
 1269000    0.7474882   -6.2440128     435.7342  0.028614014  0.028444991            8 
 1270000   0.74233059    -6.198537    437.12898  0.028683004  0.028424116            7 
 1271000   0.75095241   -6.1940533     437.3709  0.028676298  0.028403455            6 
 1272000   0.73569006   -6.1953635    438.02654  0.028696707  0.028382805           10 
 1273000   0.74839168    -6.176052    438.31302  0.028692919  0.028362284            5 
 1274000   0.73974529   -6.1711768    438.58404  0.028688124  0.028341944            6 
 1275000   0.73487064   -6.1994968    437.86816  0.028618834  0.028321441            8 
 1276000   0.73594014   -6.1718251    438.90954  0.028664416  0.028301106            8 
 1277000   0.74410907   -6.1947652    439.21996  0.028662227   0.02828083            4 
 1278000   0.73321837   -6.1922096    438.07724  0.028565287  0.028260462           11 
 1279000   0.73531028   -6.1953424    439.35111  0.028625952   0.02824008           12 
 1280000   0.73344725   -6.2230021    437.37221  0.028474753  0.028219643           15 
 1281000   0.72619234     -6.23308    438.04417  0.028496238  0.028199288           12 
 1282000    0.7521751   -6.2216984    438.10495  0.028477961  0.028178881           13 
 1283000   0.74532249   -6.2381698    437.08818  0.028389723  0.028158461            8 
 1284000   0.73589017    -6.234554    437.21082  0.028375573  0.028138089           16 
 1285000   0.72041523   -6.2288621    437.53854  0.028374743  0.028117732            7 
 1286000   0.74317289     -6.20501    438.07831  0.028387656  0.028097277            7 
 1287000   0.73955957   -6.2361852    437.45173  0.028325028  0.028076797           13 
 1288000   0.73106085    -6.223551    438.98599  0.028402303  0.028056303           11 
 1289000   0.73518606   -6.2341831    438.29037  0.028335297  0.028035967            6 
 1290000   0.74603397   -6.2440215    438.01334  0.028295436  0.028015698           13 
 1291000    0.7661629   -6.2402407    438.50685  0.028305374  0.027995362            7 
 1292000   0.74363692   -6.2517005    439.12146  0.028323107  0.027975001            7 
 1293000   0.73520607   -6.2296002     438.4419  0.028257405  0.027954618            8 
 1294000   0.74383217   -6.2451764     437.7353  0.028190063  0.027934203            7 
 1295000   0.73252032   -6.2299884    439.07608  0.028254574  0.027913796            7 
 1296000   0.72544236   -6.2262758    438.19605  0.028176186  0.027893374           11 
 1297000   0.72326275   -6.2248023    438.58105  0.028179198  0.027873182           19 
 1298000   0.72367517   -6.2319318    439.02334  0.028185885  0.027852956           13 
 1299000   0.74494542   -6.2140569    438.93738  0.028158672  0.027832823            9 
 1300000   0.72540717   -6.2010272    439.00357  0.028141255  0.027812678            8 
 1301000   0.72152945   -6.2643476    438.25231  0.028071503  0.027792384            6 
 1302000   0.73434178   -6.2171247    439.46988  0.028127872  0.027772217            8 
 1303000   0.74681146    -6.238556    438.05575  0.028015845  0.027752098            6 
 1304000   0.73149019   -6.2151348    439.29665  0.028073661  0.027731825           11 
 1305000   0.73064411   -6.2152279    439.53661  0.028067472  0.027711788           10 
 1306000   0.73165146   -6.2563213    438.87811  0.028003963  0.027691769            8 
 1307000   0.74756775    -6.210598    440.03086  0.028056035  0.027671658           13 
 1308000   0.72411139   -6.2350976    439.71844  0.028014682  0.027651619           19 
 1309000   0.73185533    -6.224466    440.67786  0.028054358  0.027631493           15 
 1310000   0.72450016   -6.2326215    439.63817  0.027966804  0.027611477            6 
 1311000   0.74589409   -6.2117274    440.32267  0.027988982   0.02759142           12 
 1312000    0.7266719   -6.2550303    439.05526  0.027887148  0.027571284           10 
 1313000   0.71902909   -6.2519057    438.55543  0.027834186  0.027551179            9 
 1314000   0.73244765   -6.2477976    439.16159  0.027851446  0.027530965            5 
 1315000   0.71828678   -6.2665833    441.01257  0.027947565  0.027510857            7 
 1316000   0.71715564   -6.2506284    439.53162   0.02783255  0.027490679            7 
 1317000   0.71475181   -6.2560893    439.10438  0.027784382  0.027470524           10 
 1318000    0.7163345   -6.2812215    439.66089  0.027798488  0.027450431           10 
 1319000    0.7350393   -6.2686669    440.28381  0.027816768  0.027430377            6 
 1320000   0.72807739   -6.2519259    440.71181  0.027822715  0.027410361           10 
 1321000   0.72135991   -6.2565393    440.31871  0.027776856  0.027390316           22 
 1322000   0.70230496   -6.2591152    439.71245  0.027717628   0.02737032            9 
 1323000    0.7284171   -6.2515705    440.87819  0.027770105  0.027350405           14 
 1324000   0.72895497   -6.2529567    441.00037  0.027756821  0.027330437           10 
 1325000   0.71315737    -6.262275    438.96105  0.027607613  0.027310512            9 
 1326000   0.72802791   -6.2752998    441.03545   0.02771716  0.027290618            7 
 1327000   0.72359961   -6.2657647    440.64586  0.027671807  0.027270765           14 
 1328000   0.73171842   -6.2367129    441.36525  0.027696113  0.027250977            6 
 1329000   0.73761294   -6.2738865    441.42109  0.027678774  0.027231146           10 
 1330000   0.72569507   -6.2780517    440.39104  0.027593423  0.027211259            7 
 1331000   0.71356232   -6.2802041    439.90489  0.027542255  0.027191356            5 
 1332000   0.70941187   -6.2833371    442.18989  0.027664533  0.027171607            8 
 1333000   0.70375203   -6.2638729     441.0342   0.02757153  0.027151985           15 
 1334000   0.73364072   -6.2769806    440.50107  0.027517558  0.027132307           16 
 1335000   0.70148599   -6.2833808    441.23291  0.027542629  0.027112616           17 
 1336000   0.71883242     -6.28372    441.76426  0.027555156  0.027092892           25 
 1337000   0.71035771   -6.2815715    441.41713   0.02751291  0.027073251            6 
 1338000   0.73946222   -6.2663615    442.83386  0.027580584  0.027053643            6 
 1339000   0.72573319   -6.2722702    441.87316  0.027500196  0.027034033            6 
 1340000   0.71738342   -6.2650221    443.32657   0.02757006  0.027014405           11 
 1341000   0.71950432   -6.3014871     441.3467  0.027426467  0.026994686            6 
 1342000   0.73048985   -6.2711642    442.26341  0.027462954  0.026975076           12 
 1343000   0.73959371   -6.2585938    442.77466  0.027474228  0.026955535           11 
 1344000   0.71592998   -6.2931931    439.98218  0.027280641  0.026935817           14 
 1345000   0.70644997    -6.259083    441.41574  0.027349178  0.026916166           10 
 1346000   0.70356059   -6.2814111    442.63259  0.027404197  0.026896546            7 
 1347000   0.71428519   -6.2749485    441.62329  0.027321411  0.026876881           12 
 1348000   0.73126189   -6.2968224    441.17022  0.027273134  0.026857289           16 
 1349000   0.70459685   -6.3167428    440.61502   0.02721862  0.026837544           10 
 1350000   0.72059401   -6.3128559     441.2625  0.027238426  0.026817875           15 
 1351000   0.71536287     -6.27032    441.96812  0.027261789  0.026798022            5 
 1352000   0.71528463   -6.2967309    441.70567  0.027225448  0.026778296            6 
 1353000   0.69301832   -6.2915359    441.58661  0.027197993  0.026758468           20 
 1354000   0.72324978   -6.3158553    440.88465  0.027134703  0.026738642           22 
 1355000   0.70945339   -6.2667111     442.1662  0.027193493  0.026718773           13 
 1356000   0.70798574   -6.2722685    441.65062  0.027141754  0.026699035           20 
 1357000   0.71165297    -6.300049    441.57325  0.027117001   0.02667925           12 
 1358000   0.70923951   -6.2749283    442.55276  0.027157141  0.026659619           12 
 1359000   0.72541773   -6.3111926      441.442  0.027069046  0.026640016           16 
 1360000   0.70440276    -6.282366    442.17388  0.027093988  0.026620372           18 
 1361000   0.71052532   -6.2963818    442.22541  0.027077236  0.026600714           18 
 1362000   0.70455205   -6.2979159    442.11483  0.027050589  0.026581098            7 
 1363000   0.69462245   -6.2676418    441.84354  0.027014156  0.026561462           17 
 1364000   0.69919494   -6.2792819    442.60565  0.027040912  0.026541998           14 
 1365000   0.70505485   -6.3148105    442.18723  0.026995557  0.026522408            8 
 1366000   0.70045785   -6.3306709    441.44799  0.026930698  0.026502844           13 
 1367000   0.71203696    -6.293991    441.95528  0.026941922  0.026483325            4 
 1368000   0.70236265    -6.308119    442.70814  0.026968088  0.026463843           13 
 1369000   0.70241164   -6.2901825    441.77988  0.026891885  0.026444384            9 
 1370000   0.70582118   -6.3093067    442.54295  0.026918671  0.026424848            7 
 1371000   0.69947913     -6.30313    443.48466  0.026956276  0.026405312           14 
 1372000   0.70628112   -6.3189412    442.09663  0.026852322  0.026385914           16 
 1373000   0.70934114   -6.3234827    441.56847  0.026800709  0.026366469            8 
 1374000   0.70892037   -6.3282168    442.56914  0.026841893  0.026346871            9 
 1375000   0.71965672    -6.327725    441.23273  0.026741377   0.02632731           15 
 1376000   0.71642842    -6.306081    441.97648  0.026766987  0.026307812           15 
 1377000   0.70274528   -6.3076677    443.04112  0.026811978  0.026288266           12 
 1378000   0.70484986   -6.3199075     441.5654  0.026703278  0.026268656           16 
 1379000   0.69725489   -6.3105876    442.50389  0.026740627  0.026249153           11 
 1380000   0.71036814   -6.2965616    442.54388  0.026723664  0.026229776           19 
 1381000   0.70168652   -6.3177904    441.96713   0.02666951  0.026210242            7 
 1382000   0.69969418   -6.3198054    442.71091  0.026695062  0.026190684            9 
 1383000   0.69455102   -6.3258215    442.59359  0.026668691  0.026171165           10 
 1384000   0.69574375   -6.3147622    443.10719  0.026680346  0.026151639           17 
 1385000   0.69529212   -6.3128698      441.819  0.026583574  0.026132207            8 
 1386000    0.7085819   -6.3193896    442.25201  0.026590429  0.026112688           16 
 1387000   0.68493844   -6.3164454    442.46498  0.026584053  0.026093291           21 
 1388000   0.69918289    -6.309387    442.69744  0.026578857  0.026073882            7 
 1389000   0.69489977   -6.2985999    442.14054   0.02652631  0.026054348           17 
 1390000   0.69487561   -6.3175387    442.06509  0.026502703  0.026034761           10 
 1391000   0.69330857   -6.3254022    442.96585  0.026537614  0.026015349            8 
 1392000   0.68648982   -6.3432345     442.5532  0.026493846  0.025995976           15 
 1393000   0.68524075   -6.3471699    442.45028  0.026468669  0.025976551           31 
 1394000   0.69852256   -6.3426236    442.16321  0.026432521  0.025957118           33 
 1395000   0.71046722   -6.3564685    442.17625  0.026414352  0.025937732           13 
 1396000   0.67972094    -6.328671    443.15905  0.026454098  0.025918338           10 
 1397000   0.70073287   -6.3356464    443.09252  0.026431193  0.025898971           21 
 1398000   0.68494466   -6.3510621    441.86054  0.026338849  0.025879572           16 
 1399000   0.69250897    -6.369366    441.90659  0.026322766  0.025860118           10 
 1400000   0.69341779   -6.3511081    443.06368  0.026372838  0.025840757           17 
 1401000   0.69910264   -6.3386337     443.3181  0.026369147  0.025821368           11 
 1402000    0.7095804   -6.3364674    442.73973  0.026315961  0.025802143           16 
 1403000   0.68280956   -6.3315198    443.46061  0.026340022  0.025782886           12 
 1404000   0.69267328   -6.3488857    442.11251  0.026241246  0.025763606           15 
 1405000   0.67721843   -6.3423011    443.75508  0.026319993  0.025744295           16 
 1406000   0.70308193   -6.3708182    443.77334  0.026302355  0.025725059           31 
 1407000   0.69287667   -6.3486332    442.81726  0.026227035    0.0257058           16 
 1408000   0.68293434   -6.3599008    443.30097  0.026237037  0.025686599           15 
 1409000   0.69302597    -6.348227    443.14151  0.026208985  0.025667395           21 
 1410000   0.68651032   -6.3746348    444.01604  0.026242083  0.025648172           25 
 1411000   0.68295696   -6.3403653    443.99375  0.026222168  0.025629051           12 
 1412000    0.6962453   -6.3587121    442.85714  0.026136517  0.025609916           21 
 1413000   0.69535035   -6.3527251     443.6464  0.026164567  0.025590866           66 
 1414000   0.67879299   -6.3639998    443.43648  0.026133692  0.025571752           19 
 1415000   0.68617847   -6.3737648    444.13087  0.026156117  0.025552659           24 
 1416000   0.68911143   -6.3718411    442.71426  0.026054276  0.025533612           15 
 1417000   0.68849594   -6.3709599    442.79943  0.026040898  0.025514536           32 
 1418000   0.69972483   -6.3777905    443.66482  0.026073391  0.025495408           18 
 1419000   0.67866441   -6.3632197     443.5263  0.026046882  0.025476315           16 
 1420000   0.67161238   -6.3652079    443.82984  0.026046352   0.02545727           15 
 1421000   0.69434195    -6.339008     443.3136  0.025997748  0.025438334            8 
 1422000   0.69685579   -6.3468619    445.00423  0.026078541  0.025419401           20 
 1423000   0.68297836   -6.3634102    443.51069  0.025972751  0.025400473           18 
 1424000   0.68399496   -6.3486741    444.00867  0.025983654   0.02538161           23 
 1425000   0.68043466   -6.3639988     444.5349  0.025996193  0.025362794           21 
 1426000   0.68440956   -6.3813738     444.9465  0.026002016  0.025343937           18 
 1427000   0.66966882   -6.3786914    442.49103  0.025840401  0.025324921           10 
 1428000   0.67693125   -6.3686028    443.18369  0.025862727  0.025305949           13 
 1429000   0.68894034   -6.3427157    444.00437  0.025892487   0.02528703            9 
 1430000   0.67706346   -6.3610924    443.68462  0.025855747  0.025268079           22 
 1431000   0.68250071   -6.3767552     444.1569  0.025865182  0.025249147           21 
 1432000   0.67530422   -6.3847529    444.12896  0.025845494  0.025230205           13 
 1433000    0.6795357   -6.3815733    443.77202    0.0258067  0.025211336           17 
 1434000   0.67386009   -6.3484915    444.03797  0.025804159   0.02519249           10 
 1435000   0.68442066   -6.3749033    444.22463  0.025797017  0.025173621           11 
 1436000   0.68974676   -6.3742089    444.45655  0.025792511  0.025154776           18 
 1437000   0.67072002   -6.3698135    444.69799  0.025788563  0.025136046           10 
 1438000   0.67852339   -6.3825142    445.04163  0.025790544  0.025117303           13 
 1439000   0.67363291   -6.4026912    443.72675  0.025696476  0.025098483           10 
 1440000   0.67732191   -6.3774073    444.89509  0.025746243  0.025079708           21 
 1441000   0.67734264   -6.3621486    444.26756  0.025692087  0.025060984           25 
 1442000   0.69554218   -6.3828621     444.8574  0.025708356  0.025042151           65 
 1443000   0.68745998    -6.391781    443.48763  0.025611436  0.025023419            9 
 1444000   0.66648372   -6.3865439     444.3068  0.025640974  0.025004708           14 
 1445000   0.66564941   -6.3961144    444.70258  0.025646054  0.024985917           12 
 1446000    0.6725398   -6.3753829    444.72765  0.025629763  0.024967263            7 
 1447000   0.66659597   -6.3798824    444.52094  0.025600146  0.024948626           24 
 1448000   0.67888503   -6.3643093    443.74145  0.025537606  0.024929964           10 
 1449000   0.66108057     -6.37613    444.97827  0.025591113  0.024911396           13 
 1450000   0.67503443    -6.383724    444.85738  0.025566516  0.024892773           21 
 1451000   0.67569674   -6.3982645    444.78946  0.025544995  0.024874098           35 
 1452000    0.6773526    -6.386015    445.64889  0.025576727  0.024855456           19 
 1453000    0.6640621    -6.387142    445.05194  0.025524888  0.024836871            8 
 1454000   0.67580387   -6.3764516    445.55738  0.025536301  0.024818327           11 
 1455000   0.68248187   -6.3784656    445.32045   0.02550518  0.024799736           10 
 1456000   0.67672983   -6.3915113    445.89081  0.025520307  0.024781172            8 
 1457000   0.66730491   -6.3821906    445.74773  0.025494608  0.024762592           20 
 1458000   0.65992963   -6.3722001    444.96637  0.025432463  0.024744064           23 
 1459000   0.67651352   -6.4021228    445.46512  0.025443518  0.024725586           13 
 1460000   0.66818178    -6.404608    444.05253  0.025345464  0.024707077           33 
 1461000    0.6672701   -6.3924794    445.40846  0.025405456  0.024688574           35 
 1462000    0.6618719   -6.3955723    445.59399  0.025398654  0.024670128           30 
 1463000   0.66882982   -6.3953069    445.30533  0.025364851   0.02465167           25 
 1464000     0.657194   -6.4073604    444.76266  0.025316636  0.024633107           32 
 1465000   0.67065284   -6.4035507    445.58349  0.025346046  0.024614725           10 
 1466000   0.65837604   -6.3918971    445.13446  0.025303232  0.024596281           10 
 1467000   0.68056398    -6.435392    443.70287  0.025204662  0.024577753           68 
 1468000   0.65635705   -6.3996444    445.30197  0.025278268  0.024559224           30 
 1469000   0.66150342   -6.3999535    444.71426  0.025227721  0.024540755           31 
 1470000   0.66565247   -6.4213181    445.53641  0.025257166  0.024522286           17 
 1471000   0.66843475   -6.3873265    445.58836  0.025242939   0.02450392           27 
 1472000    0.6716131    -6.395677    445.58173  0.025225415  0.024485632           25 
 1473000   0.67186423   -6.3921901    446.00138  0.025232031  0.024467291           15 
 1474000   0.66260112   -6.4105386    445.38678  0.025180166  0.024448958           13 
 1475000   0.66638375   -6.4025353    445.29942  0.025158159  0.024430579            9 
 1476000   0.66668278   -6.4189488    445.24912  0.025138275  0.024412246           35 
 1477000   0.66691479   -6.4326382    445.14526  0.025115395  0.024393891           10 
 1478000    0.6773526    -6.444418    444.41866  0.025057435  0.024375547           27 
 1479000   0.67023745   -6.4222673    445.78723  0.025117604  0.024357246           17 
 1480000    0.6550946   -6.4236703    445.22899    0.0250692  0.024338938           17 
 1481000   0.64344488   -6.4504119    445.26153  0.025054103  0.024320578           16 
 1482000   0.65141681   -6.4504658     444.8739  0.025015401  0.024302193           24 
 1483000   0.65953386   -6.4278733    444.78604  0.024993596  0.024283835           13 
 1484000   0.65596881   -6.4215835    446.18224  0.025055157  0.024265468           23 
 1485000   0.66147274   -6.4204891    445.56533  0.025003666  0.024247245           13 
 1486000   0.65241435   -6.4363207    445.25976  0.024969704  0.024229037           11 
 1487000   0.66872921    -6.437262     445.2885  0.024954523  0.024210868           32 
 1488000   0.66915192   -6.4444362    445.56078  0.024953001  0.024192706           48 
 1489000   0.65516794   -6.4267983     446.2074  0.024972431  0.024174614           56 
 1490000   0.65566899   -6.4290532    444.97465  0.024886725  0.024156492           36 
 1491000   0.66796479   -6.4439425    445.46591  0.024897491  0.024138329           69 
 1492000   0.65850217   -6.4555381    446.40261  0.024933121  0.024120232           20 
 1493000   0.64069353   -6.4457534    445.07983  0.024842589   0.02410212           11 
 1494000   0.67374582   -6.4557924    446.58228  0.024909766  0.024084054           19 
 1495000   0.66579319   -6.4513303    445.58708   0.02483763  0.024065978           16 
 1496000   0.65184925   -6.4365075    445.97486  0.024842628  0.024047873           17 
 1497000   0.66485208   -6.4615498    445.17155  0.024781315  0.024029783           44 
 1498000    0.6500995   -6.4585697     445.9994  0.024810826  0.024011661           24 
 1499000   0.65514298   -6.4347803    445.79199  0.024782743  0.023993564           18 
 1500000   0.64425631   -6.4302552    446.23815  0.024791008  0.023975513           24 
 1501000   0.65853604   -6.4358029    446.06129  0.024764673  0.023957526           24 
 1502000   0.66203147   -6.4680308    445.96464  0.024742823  0.023939542           26 
 1503000   0.64834392   -6.4596264    445.70184   0.02471179  0.023921549           18 
 1504000   0.64118558   -6.4806559    445.27624  0.024671778  0.023903568           18 
 1505000   0.65285181   -6.4564327    444.97939  0.024638948  0.023885619           33 
 1506000   0.63262164   -6.4081175    446.35572  0.024698745  0.023867729           16 
 1507000   0.65310551   -6.4272299    445.84943  0.024654359  0.023849806           33 
 1508000   0.64693537   -6.4509783    445.89744  0.024640663  0.023831894           24 
 1509000   0.66041355    -6.433922    446.74222  0.024670986  0.023813976           24 
 1510000    0.6415038   -6.4604133     446.4986  0.024641203  0.023796023           28 
 1511000   0.65500831    -6.459502    446.63547  0.024632444  0.023778153           17 
 1512000    0.6512208   -6.4396528    446.66838  0.024617966  0.023760331            6 
 1513000   0.64867716   -6.4539713    446.01202  0.024565544  0.023742542           31 
 1514000   0.64888473   -6.4374488    446.68573  0.024586401  0.023724784           18 
 1515000   0.63849246   -6.4702321    445.52152  0.024506134  0.023706985           17 
 1516000   0.63882413   -6.4323848    446.74168   0.02455704  0.023689136            9 
 1517000   0.64105903   -6.4468136    445.61301  0.024478851  0.023671297           10 
 1518000   0.65720835    -6.449281    446.39641  0.024505732  0.023653433           21 
 1519000   0.65192816   -6.4731137    445.53905  0.024442564  0.023635603            8 
 1520000   0.63872364   -6.4826824    446.40525  0.024473972  0.023617791           19 
 1521000   0.65130269   -6.4651119    445.88663  0.024429467  0.023599888           23 
 1522000   0.64733254   -6.4802615    445.15428  0.024373318  0.023582038           36 
 1523000    0.6627436   -6.4983197    444.87043  0.024341783  0.023564195           62 
 1524000   0.65832696   -6.4768366    445.78786  0.024375976  0.023546348           32 
 1525000   0.64727289    -6.503636    445.72117  0.024356348  0.023528495           53 
 1526000   0.62732123   -6.4598058    447.25595    0.0244242  0.023510765           37 
 1527000   0.66807333   -6.4858063    445.21006  0.024296554  0.023492983           76 
 1528000   0.65126201   -6.4737706    446.80494  0.024367634  0.023475179          133 
 1529000   0.63994664   -6.4931933    446.23755  0.024320773  0.023457388           29 
 1530000   0.64541927   -6.4466801    446.51449  0.024319961  0.023439704           53 
 1531000   0.64831536    -6.485632    445.69667  0.024259562  0.023422035           25 
 1532000   0.62627063   -6.4654993    446.48341  0.024286521  0.023404383           38 
 1533000   0.63697353    -6.459167    447.33059  0.024316731  0.023386859           31 
 1534000   0.62732334   -6.4921284    446.74556  0.024269098  0.023369332           67 
 1535000   0.63261161   -6.4874059    446.81122  0.024256852  0.023351732           32 
 1536000   0.63871501   -6.4889468     445.5184   0.02417092  0.023334083           24 
 1537000   0.63826528   -6.5055529    446.41835  0.024203988  0.023316493           29 
 1538000   0.64407401   -6.5071616     445.6061   0.02414424  0.023298915           33 
 1539000   0.63876991   -6.4851867    446.58795  0.024181717  0.023281383           16 
 1540000   0.64015456   -6.4865831    446.53516  0.024163158  0.023263875           56 
 1541000   0.62936765   -6.4907671     446.6164  0.024151871  0.023246346           11 
 1542000    0.6434366   -6.4770632     447.0675  0.024160587  0.023228865           11 
 1543000   0.62814716   -6.4866233    444.98365  0.024032385   0.02321132           45 
 1544000    0.6339153   -6.4973445    446.74419  0.024111841  0.023193805           40 
 1545000   0.65183817   -6.4987827    446.78521  0.024098447  0.023176365           15 
 1546000   0.64026711   -6.5197983    447.33628  0.024112563  0.023158958           49 
 1547000   0.63826478   -6.5011994    446.39814  0.024046441  0.023141496           18 
 1548000   0.64514766   -6.4958444    446.21768  0.024021193   0.02312403           22 
 1549000   0.63078556   -6.5251436    446.53989   0.02402302  0.023106601           16 
 1550000   0.61952308   -6.5010226    447.32992  0.024049996  0.023089256           12 
 1551000   0.62986061   -6.5059782    446.53824  0.023991953  0.023071889           13 
 1552000   0.63274323   -6.5119597    446.50361  0.023974636  0.023054485           11 
 1553000   0.63618487    -6.515651     447.7535  0.024026266  0.023037051           18 
 1554000   0.62279327   -6.5262119    446.00415  0.023916996   0.02301964           20 
 1555000   0.64300683   -6.5024035    445.59157  0.023879505   0.02300222           26 
 1556000   0.63092634   -6.5070093    446.12566  0.023892762  0.022984801           15 
 1557000   0.62284382   -6.4986707    446.71078  0.023908734  0.022967388           40 
 1558000   0.63431198   -6.5054264    447.08073  0.023913176  0.022950031           20 
 1559000   0.63655967   -6.5229906    445.83682  0.023831346  0.022932675           21 
 1560000   0.63397198   -6.4906535    446.97188  0.023876703  0.022915328           19 
 1561000   0.62920242   -6.5188872    446.90507  0.023857841  0.022897989           19 
 1562000   0.63384106   -6.5087425    446.59137  0.023825831  0.022880714           40 
 1563000   0.64688035   -6.4990134    445.68546  0.023762287  0.022863413           38 
 1564000   0.61987456   -6.4897082    447.26523  0.023831267  0.022846099           63 
 1565000   0.63299371   -6.4952788    446.80078  0.023791309  0.022828761           62 
 1566000   0.62370875     -6.50374    445.48777  0.023706246   0.02281151           45 
 1567000   0.64245444   -6.4997222     447.0482  0.023774101  0.022794235           20 
 1568000   0.61358381   -6.5111843    446.51142  0.023730411  0.022777002           38 
 1569000   0.61582332   -6.5164898    446.17078  0.023697195  0.022759737           26 
 1570000   0.61559036   -6.5156183    446.43339   0.02369604  0.022742518           17 
 1571000   0.62974023   -6.5047285    446.20658  0.023668925  0.022725338           19 
 1572000   0.60765787   -6.5034175    446.90949  0.023691131  0.022708134           22 
 1573000   0.61710161   -6.5221973    446.68129   0.02366398  0.022690882           25 
 1574000   0.62675004   -6.5385426    444.97218  0.023558459  0.022673589           31 
 1575000   0.62888865   -6.5243014    446.31888  0.023614755  0.022656311           14 
 1576000   0.62109492   -6.5229632    446.24619  0.023595928  0.022639061           25 
 1577000   0.61480714   -6.5312986    445.78033  0.023556348  0.022621781           21 
 1578000   0.62389426   -6.5446524     446.6997  0.023589971  0.022604556           38 
 1579000   0.61889547   -6.5186329    446.23613  0.023550566  0.022587319           24 
 1580000   0.62591119   -6.5151515    446.24804  0.023536289  0.022570055           37 
 1581000   0.61861661   -6.5298655    446.55928  0.023537808  0.022552792           21 
 1582000    0.6187293     -6.53119    445.51389  0.023467862  0.022535498           17 
 1583000   0.61291226   -6.5512552    445.16272  0.023434551  0.022518206           33 
 1584000   0.62561222   -6.5354783    444.85444  0.023403538  0.022500974           54 
 1585000    0.6231119   -6.5239928    446.21897  0.023460514  0.022483718           80 
 1586000   0.61975711   -6.5342921     445.8603  0.023426876  0.022466507           23 
 1587000   0.62622855   -6.5441092     445.4779  0.023392034  0.022449246           76 
 1588000   0.61418707   -6.5454202    444.78066  0.023340714  0.022431983           48 
 1589000   0.62338112   -6.5669836    444.21303  0.023296257  0.022414684           41 
 1590000   0.62949432   -6.5571972    445.06586  0.023326303  0.022397434           48 
 1591000   0.62488915   -6.5409366    444.39412  0.023276457  0.022380161           37 
 1592000   0.61276244   -6.5496971    445.32252  0.023310433  0.022362883           27 
 1593000   0.61174669   -6.5543673    444.21059  0.023237633  0.022345651           28 
 1594000   0.61936632   -6.5575322    445.72801  0.023302384  0.022328455           21 
 1595000   0.61961006   -6.5674078    445.44614  0.023273048  0.022311232           42 
 1596000   0.61396387   -6.5422777     445.2338  0.023247379  0.022294076           74 
 1597000   0.62396274   -6.5504006    445.96791  0.023271129  0.022276882           49 
 1598000   0.61193082   -6.5520749    445.00116  0.023206151  0.022259759           53 
 1599000   0.61331066   -6.5606001    445.92372  0.023239719  0.022242625           52 
 1600000   0.61159804   -6.5740961    444.91861  0.023172844  0.022225488           40 
 1601000   0.62015318   -6.5826926     445.1764  0.023171788  0.022208333           54 
 1602000   0.61933218   -6.5676925    445.18711  0.023157882  0.022191249           88 
 1603000   0.61285789   -6.5705272    444.92646  0.023129885  0.022174198           36 
 1604000   0.60605679   -6.5688301    445.62993  0.023152012  0.022157141           73 
 1605000   0.59844082   -6.5825399    445.11231  0.023110712  0.022140066           36 
 1606000    0.6186299   -6.5667792    445.40974  0.023111755  0.022123002          107 
 1607000   0.61545223   -6.5639867    445.67967  0.023111371   0.02210603           40 
 1608000   0.61366326   -6.5883582    446.24369  0.023126228  0.022089051           30 
 1609000   0.61776387   -6.5651239     445.3121  0.023063606  0.022072124           19 
 1610000   0.61716818   -6.5524889    445.62096  0.023065267  0.022055188           21 
 1611000   0.62039838   -6.5572803    444.88978  0.023013128  0.022038292           44 
 1612000   0.59882079   -6.5600587    445.74403  0.023043012  0.022021356           43 
 1613000   0.60164757   -6.5764009    444.77476  0.022978651  0.022004358           69 
 1614000   0.59617573   -6.5831593     445.5688  0.023005411  0.021987385           47 
 1615000   0.61626555   -6.5684074     445.7374  0.022999866  0.021970479           32 
 1616000    0.6011167   -6.5669757    444.41757  0.022917573  0.021953555           60 
 1617000   0.59887809   -6.5876948    444.96936  0.022931837  0.021936623           64 
 1618000   0.61644944   -6.6075607    445.90739  0.022965976  0.021919673           48 
 1619000   0.60807349   -6.5868642    444.64201  0.022886659  0.021902802           31 
 1620000   0.61312512   -6.6025654    445.60254  0.022921942  0.021885891           31 
 1621000   0.61538748   -6.5770472    445.90967   0.02292359  0.021869048           28 
 1622000    0.6136101   -6.5760377    445.18638  0.022872296  0.021852213           23 
 1623000   0.62279958   -6.5459826    446.36359  0.022918648  0.021835457           35 
 1624000   0.61314275   -6.5782388    446.51513  0.022912311  0.021818784           33 
 1625000   0.60905137   -6.5652694    447.28742  0.022937817  0.021802089           18 
 1626000   0.60243175   -6.5653639    446.60279  0.022888622  0.021785405           20 
 1627000   0.60525672   -6.5524461    446.31575  0.022859852  0.021768709           35 
 1628000   0.59652121   -6.5794351    446.65565  0.022863209  0.021752046           33 
 1629000   0.59857961   -6.5662798     446.7898  0.022856037  0.021735375           16 
 1630000   0.60126592   -6.5879814    446.54283  0.022829388  0.021718737           23 
 1631000   0.61073323   -6.5966711    445.89657  0.022782371  0.021702071           66 
 1632000   0.58395752   -6.5716154    446.44587   0.02279646  0.021685445          104 
 1633000   0.59509256   -6.5827681    446.18885  0.022769384  0.021668854           26 
 1634000   0.60534415   -6.5826311    446.17364  0.022754673  0.021652287           33 
 1635000   0.60215554   -6.5838208    446.52621  0.022758726  0.021635705           23 
 1636000   0.59878273    -6.566113    446.69256  0.022753288  0.021619196           19 
 1637000   0.60920195   -6.5742077    445.94348  0.022701256  0.021602618           33 
 1638000   0.61234515   -6.5881498    445.58855   0.02266934  0.021586064           32 
 1639000    0.6031347   -6.5898283    447.06098  0.022730373  0.021569511           18 
 1640000   0.59655821   -6.6059821    445.77284  0.022651059  0.021552994           31 
 1641000   0.61324495   -6.5970074    445.95507   0.02264651  0.021536523           19 
 1642000   0.60912668   -6.5712404    447.17757  0.022694761  0.021520075           18 
 1643000   0.60031087    -6.605374    444.94753   0.02256784  0.021503638           31 
 1644000   0.59760069   -6.5954523    446.32322  0.022623845  0.021487156           35 
 1645000   0.58017608   -6.5655244    446.49335  0.022618711  0.021470713           29 
 1646000   0.58566222   -6.5880609    446.06071  0.022583066  0.021454261           19 
 1647000   0.60575749   -6.6009317       446.25  0.022578931  0.021437906           54 
 1648000   0.58880365   -6.6159875    445.66073  0.022535433  0.021421461           36 
 1649000   0.57960204   -6.6008914     445.8484  0.022531251  0.021404998           46 
 1650000   0.60146105    -6.596904    446.05118  0.022527837  0.021388545           83 
 1651000   0.60125785   -6.5935403    446.25752  0.022524607  0.021372086           32 
 1652000   0.57945434   -6.6188704    446.01453  0.022498715  0.021355585           33 
 1653000   0.58913073   -6.6151811    446.00718  0.022484734  0.021339109           60 
 1654000   0.58812749   -6.6028196    445.31466  0.022436249  0.021322674           30 
 1655000   0.59001787   -6.6227424     446.2054  0.022467543  0.021306234           27 
 1656000   0.59249091   -6.5858721    446.44876  0.022466222  0.021289833           23 
 1657000   0.60951149   -6.6162895    445.37823  0.022398825  0.021273424           43 
 1658000   0.58126574   -6.6248011     446.6257  0.022448015   0.02125703           29 
 1659000   0.58193129   -6.5950441    445.86466  0.022396256  0.021240684           18 
 1660000   0.57717993   -6.5739202    446.42414  0.022410851  0.021224417           25 
 1661000   0.57483988   -6.5961622    446.09285  0.022380737  0.021208165           27 
 1662000   0.59275735   -6.6077581    445.69748  0.022347447  0.021191901           38 
 1663000   0.59511219   -6.5831648    447.27129  0.022412873  0.021175667           36 
 1664000   0.59268328   -6.5823414    446.41906  0.022356724  0.021159457           22 
 1665000   0.58068319   -6.6243728    446.69767  0.022357241  0.021143248           31 
 1666000   0.59439131   -6.6122123    446.00067  0.022308957  0.021126986           29 
 1667000   0.57749524   -6.6004005    445.76965  0.022284026  0.021110741           65 
 1668000   0.58970407   -6.6216023    444.96425  0.022230428  0.021094523           58 
 1669000    0.5842842   -6.6141365    446.08021  0.022272828  0.021078259           55 
 1670000   0.58407231   -6.6233356     446.0666  0.022258812  0.021061987           25 
 1671000   0.57858922   -6.6169338    446.18775  0.022251533  0.021045736           19 
 1672000   0.57922964   -6.6243098     445.7306   0.02221544  0.021029521           67 
 1673000   0.58249516   -6.6395598    444.93464  0.022162514  0.021013297           16 
 1674000   0.59688945   -6.5840078    445.80003  0.022192355  0.020997079           33 
 1675000    0.5824638   -6.6230585    445.52551  0.022165448   0.02098088           39 
 1676000   0.58344829    -6.635146    445.45408  0.022148671   0.02096469           40 
 1677000   0.58111357   -6.6347551     446.0521  0.022165181  0.020948528           49 
 1678000   0.57921633   -6.6337631    445.69052  0.022134015  0.020932332           47 
 1679000   0.57251369   -6.6373708    445.66719  0.022119674  0.020916134           48 
 1680000   0.57770246   -6.6404933    445.27732  0.022087169  0.020899944           70 
 1681000   0.58198227   -6.6182137    445.73098  0.022096519  0.020883797           69 
 1682000    0.5861571   -6.6292227    445.18124  0.022056145  0.020867597           40 
 1683000   0.57864608   -6.6414657    445.47763  0.022057716  0.020851427           26 
 1684000   0.57924799    -6.670319    445.01154  0.022021553  0.020835273           72 
 1685000   0.57181228   -6.6387039    445.79826  0.022047392  0.020819104           31 
 1686000    0.5820789   -6.6334984    445.52122  0.022020622  0.020802997           55 
 1687000   0.57196496   -6.6384172    445.28685  0.021995992  0.020786875           39 
 1688000   0.58886804   -6.6441635    445.05926  0.021971725  0.020770772           29 
 1689000   0.57881648   -6.6558279     443.5757  0.021885519  0.020754642           30 
 1690000   0.58365523   -6.6510972     444.7065  0.021928329  0.020738526           26 
 1691000   0.58689197   -6.6434234    445.55188  0.021957022  0.020722496           18 
 1692000   0.58346184   -6.6737548    445.23374  0.021928376  0.020706466           39 
 1693000   0.57733864   -6.6360982    446.10147  0.021958135  0.020690452           35 
 1694000   0.58213256   -6.6464593    445.92029   0.02193626  0.020674475           19 
 1695000   0.56750448   -6.6235292    445.17295  0.021886576  0.020658541           18 
 1696000   0.56711602   -6.6491941    444.66728  0.021848824  0.020642605           45 
 1697000   0.57735749    -6.647004    446.07526  0.021905091  0.020626671           32 
 1698000   0.57681237   -6.6245828    445.01856   0.02184033  0.020610748           75 
 1699000   0.57899142   -6.6492588    445.27277  0.021839943  0.020594858           65 
 1700000   0.55365937   -6.6539331    444.88749   0.02180821  0.020578978           29 
 1701000   0.57654944   -6.6701821    445.00372  0.021801084  0.020563102           58 
 1702000   0.56612049   -6.6354296    445.15537    0.0217957   0.02054718           42 
 1703000   0.57935374   -6.6430363    445.45875  0.021797746  0.020531324           17 
 1704000   0.56377864   -6.6500458    445.68755  0.021796144  0.020515506           17 
 1705000   0.57054365   -6.6420049    445.27634  0.021763262  0.020499703           24 
 1706000    0.5589434   -6.6306908    445.81461  0.021776798  0.020483862           25 
 1707000   0.58540389   -6.6339518    445.05893  0.021727149  0.020468065           14 
 1708000   0.57377999   -6.6508287    445.30227  0.021726301  0.020452256           54 
 1709000   0.56637446    -6.648504    446.21592  0.021758139  0.020436477           25 
 1710000   0.57340064   -6.6603122    445.17006  0.021694448  0.020420719           60 
 1711000   0.56986454   -6.6381173    445.29858  0.021688028  0.020404933           27 
 1712000   0.58081808   -6.6260348    445.84291  0.021701855  0.020389168           43 
 1713000   0.56763627   -6.6765483    444.31508  0.021614861  0.020373347           30 
 1714000   0.57167423   -6.6584372    445.39601  0.021654804  0.020357568           56 
 1715000   0.57141644    -6.670951    445.21002   0.02163314  0.020341808           73 
 1716000   0.56073615    -6.674591    444.81874  0.021601531  0.020326025           78 
 1717000   0.55500752   -6.6950975    444.67797  0.021582119  0.020310255           84 
 1718000   0.56099276   -6.6685872    444.59091  0.021565333  0.020294504           59 
 1719000   0.56469978   -6.6761029    444.78857   0.02156237  0.020278793          136 
 1720000   0.57129482   -6.6634236    444.40062  0.021531038   0.02026309          111 
 1721000   0.56806187   -6.6673818    445.10817  0.021552788  0.020247419           90 
 1722000   0.56926004   -6.6766406    445.19947   0.02154469   0.02023173          121 
 1723000   0.57433373   -6.6732795    445.24657  0.021534463  0.020216083          178 
 1724000    0.5573596   -6.6680248    445.59224  0.021538681  0.020200442          147 
 1725000   0.57555546   -6.6832032    445.14955  0.021504809   0.02018483          121 
 1726000   0.57170874   -6.6829379      443.918  0.021432889  0.020169171           56 
 1727000    0.5673672   -6.6995236    444.35723  0.021441673  0.020153551          118 
 1728000   0.55842097   -6.6768452    444.00283  0.021412173  0.020137913           91 
 1729000   0.57436216   -6.6775133     444.7822  0.021437353  0.020122294           60 
 1730000   0.55984214   -6.6825651    443.84981  0.021380049  0.020106679           55 
 1731000   0.57018291   -6.6761404    444.87754  0.021417174  0.020091096           57 
 1732000   0.55212165   -6.6698955    445.61774  0.021440422  0.020075509          152 
 1733000   0.55911032   -6.6904849    445.03342  0.021399953  0.020059934           54 
 1734000   0.55343457   -6.6717021    444.12602  0.021344003  0.020044391           70 
 1735000   0.54909156    -6.692438    443.52739  0.021302949  0.020028806           68 
 1736000   0.56351201   -6.6849419    444.21795  0.021323826   0.02001324          145 
 1737000   0.54694108   -6.6790034    444.06913  0.021304411  0.019997681           88 
 1738000   0.55072703   -6.6902465    444.11947  0.021294566   0.01998214           67 
 1739000   0.55968175   -6.6849425    443.80987  0.021267485  0.019966609          141 
 1740000   0.55784184   -6.7096381    444.27713   0.02127764  0.019951073          129 
 1741000   0.57721518   -6.7120041    444.55203  0.021278577  0.019935533          118 
 1742000   0.55464958   -6.6934395    444.40782  0.021259463  0.019920019           83 
 1743000   0.54731471   -6.7015542    444.34187  0.021244113  0.019904478          154 
 1744000   0.54916446    -6.696003    443.63974  0.021198382  0.019888981           91 
 1745000   0.54888601   -6.6929859    443.84652  0.021196109   0.01987347          118 
 1746000   0.54148834   -6.7149094    444.01214  0.021191874  0.019857936          220 
 1747000   0.55244471   -6.7064987    444.44416  0.021200351  0.019842423          179 
 1748000   0.56393729   -6.7175954    444.47463  0.021189675  0.019826933          112 
 1749000   0.55776415   -6.6863765     444.3875  0.021173409  0.019811414          211 
 1750000   0.55667097   -6.7030998    443.56987  0.021122375  0.019795913          127 
 1751000   0.55449011   -6.7137111    443.76235  0.021119472  0.019780427          121 
 1752000   0.56322299   -6.7115927    443.77493  0.021108016  0.019764964          129 
 1753000   0.55731305   -6.7047646    443.64162  0.021089638  0.019749513          139 
 1754000   0.53479858   -6.7118549    444.02257  0.021095713  0.019734071          238 
 1755000   0.53241375   -6.7151962    443.94934  0.021080215  0.019718617          192 
 1756000   0.55155375     -6.70928    443.57335  0.021050368  0.019703188          225 
 1757000    0.5594428   -6.7242763    443.49664  0.021034749  0.019687769          287 
 1758000    0.5533059   -6.7166361    443.98259  0.021045819  0.019672396          351 
 1759000   0.54379373   -6.7208018    443.55522  0.021013607  0.019657024          299 
 1760000    0.5515494   -6.7221617    444.21386  0.021032853  0.019641627          244 
 1761000   0.54625477   -6.7156938    442.98192  0.020962612  0.019626203          281 
 1762000   0.54953123    -6.726297    443.14352  0.020958358  0.019610791          311 
 1763000   0.54644769   -6.7298493    443.71821  0.020973635  0.019595377          394 
 1764000   0.55500172   -6.7192439    443.39518  0.020946484   0.01958001          128 
 1765000    0.5472487   -6.7360547    442.42518  0.020888819  0.019564652          314 
 1766000   0.54155494   -6.7303341    443.95932  0.020949383  0.019549323          203 
 1767000   0.54224541   -6.7120911    443.42013  0.020912098  0.019534029          375 
 1768000   0.55628555   -6.7139381    443.34145  0.020896561  0.019518716          376 
 1769000   0.54020783   -6.7207437    443.90107  0.020911111  0.019503423          342 
 1770000   0.56046305   -6.7191172    443.17638  0.020865178  0.019488145          355 
 1771000   0.55386369   -6.7225047    443.08085  0.020848901   0.01947289          276 
 1772000   0.54125799   -6.7326686    443.06955  0.020836604  0.019457613          352 
 1773000   0.54084405   -6.7259765    443.88798  0.020863319  0.019442386          297 
 1774000   0.55237111   -6.7300811    443.25796  0.020821963  0.019427152          361 
 1775000   0.54538475   -6.7344423    443.66282   0.02082924  0.019411911          397 
 1776000   0.54314913      -6.7307    443.53691  0.020811604  0.019396715          241 
 1777000   0.54407681   -6.7342366    443.36865  0.020792002  0.019381513          183 
 1778000   0.55517622   -6.7244324    442.79995  0.020753653  0.019366343          195 
 1779000    0.5484237   -6.7441369     443.2523  0.020763177  0.019351179          293 
 1780000   0.53169612   -6.7295975    443.15788  0.020747092  0.019336037          262 
 1781000   0.53906477   -6.7524165    442.78532  0.020718011  0.019320903          212 
 1782000   0.53933958   -6.7418304     444.2888  0.020776693  0.019305771          233 
 1783000   0.54184352   -6.7588124    443.08232  0.020708652  0.019290636          263 
 1784000   0.54826744   -6.7467927    443.62688  0.020722481  0.019275531          199 
 1785000   0.53426923   -6.7383396    443.46724  0.020703419  0.019260421          157 
 1786000   0.54322378   -6.7380533    443.04027  0.020671905  0.019245318          260 
 1787000    0.5390965   -6.7343655    444.28395  0.020718334  0.019230224          227 
 1788000   0.53934456   -6.7626564     442.4936  0.020623303  0.019215136          341 
 1789000   0.53603056   -6.7556241    443.59173  0.020662928  0.019200072          319 
 1790000   0.52979773   -6.7417208    442.79815  0.020614439  0.019185025          290 
 1791000   0.53838062   -6.7467378    442.94651  0.020609832  0.019170014          335 
 1792000   0.52903932   -6.7440972    442.26668  0.020566717  0.019155006          195 
 1793000   0.53363865   -6.7425133    443.52167  0.020613574  0.019140004          293 
 1794000    0.5320945   -6.7590223    442.71009  0.020564385  0.019125019          209 
 1795000    0.5377989   -6.7469547    442.78134  0.020556237  0.019110041          167 
 1796000    0.5263639   -6.7602768    442.90148  0.020550366  0.019095078          137 
 1797000   0.53703779   -6.7580864    442.65016  0.020527275  0.019080133          151 
 1798000   0.54656376   -6.7634225    442.37865  0.020503274  0.019065203          144 
 1799000   0.52176562   -6.7459346    443.73379   0.02055465  0.019050284          272 
 1800000   0.52757279   -6.7547598    442.33867  0.020478642  0.019035389          250 
 1801000   0.53180071   -6.7663003    442.49228  0.020474379  0.019020494          353 
 1802000   0.52966405   -6.7631567    443.32963   0.02050174  0.019005601          152 
 1803000   0.52912155   -6.7586953    443.11748  0.020480564  0.018990724          216 
 1804000   0.53715374   -6.7667992    442.12355  0.020423298  0.018975854          228 
 1805000   0.52910564   -6.7500056    442.90633  0.020448122  0.018961004          570 
 1806000   0.52134208   -6.7540208    442.12059  0.020400544  0.018946155          505 
 1807000   0.53014953   -6.7685561    442.26318   0.02039583  0.018931293          475 
 1808000   0.51189403   -6.7808972    442.79757   0.02040918  0.018916447          266 
 1809000   0.52840726   -6.7841446    442.66265  0.020391683  0.018901605          269 
 1810000   0.52164143   -6.7682047    442.55489  0.020375455  0.018886799          241 
 1811000    0.5316718   -6.7669272    442.39681   0.02035693  0.018872011          204 
 1812000   0.52794601    -6.786089     442.7938  0.020363953  0.018857212          258 
 1813000   0.52931182   -6.7918485    442.55304  0.020341655  0.018842419          416 
 1814000   0.52869902   -6.7833194    442.06856  0.020308184  0.018827662          343 
 1815000   0.52966311   -6.7902039    441.81513   0.02028536  0.018812898          445 
 1816000   0.52505981   -6.8055623    441.93722  0.020279792  0.018798141          415 
 1817000   0.54037284   -6.7880599    441.75205  0.020260138  0.018783375          448 
 1818000   0.53041891   -6.7833619    441.38198  0.020232031  0.018768607          473 
 1819000   0.52667777   -6.7898357     441.4385  0.020223497  0.018753832          457 
 1820000   0.51650983   -6.7887027    441.64521   0.02022185  0.018739067          485 
 1821000   0.52599317   -6.7898922    441.79637  0.020217663  0.018724299          263 
 1822000   0.52511914   -6.8022039    441.76058   0.02020493   0.01870956          510 
 1823000   0.52381373   -6.7878499     441.6715  0.020189774  0.018694832          578 
 1824000   0.52158527   -6.8006166    441.67302  0.020178774  0.018680147          486 
 1825000   0.53708609   -6.7990042    441.08572  0.020140901  0.018665417          563 
 1826000   0.53074314   -6.7927089    441.03694  0.020127644  0.018650707          377 
 1827000   0.53402896   -6.7972019    440.96876  0.020113518  0.018635995          187 
 1828000   0.53105949   -6.8169974    442.10166   0.02015416  0.018621296          501 
 1829000   0.51369277   -6.7794835    442.18962  0.020147149  0.018606629          459 
 1830000   0.52155185    -6.797113    441.95888  0.020125632  0.018591979          573 
 1831000   0.53347258   -6.8254847    441.23929   0.02008189  0.018577328          678 
 1832000   0.52439178   -6.7951287    442.28525  0.020118507   0.01856269          551 
 1833000     0.521513   -6.7981491    441.78871  0.020084957  0.018548055          501 
 1834000   0.52382374   -6.7820433    441.69691  0.020069834  0.018533459          512 
 1835000   0.52244953   -6.7929888    441.60982  0.020054942  0.018518872          504 
 1836000   0.52200159   -6.8154559    442.16994  0.020069442  0.018504287          503 
 1837000   0.51929655   -6.8124472    441.50561   0.02002838  0.018489701          362 
 1838000   0.52725536   -6.7983012    441.36866  0.020011274  0.018475149          405 
 1839000   0.51838766   -6.8201392    441.53522   0.02000794   0.01846061          451 
 1840000    0.5100228   -6.7942282    441.53768  0.019997178  0.018446087          556 
 1841000   0.51482891   -6.8012226    441.64186  0.019991031  0.018431591          247 
 1842000   0.50381325   -6.8026125    441.66566  0.019981255  0.018417096          418 
 1843000   0.50768578   -6.8222605    441.93409  0.019982551  0.018402588          537 
 1844000   0.52471429   -6.8167947    441.85097  0.019967958  0.018388088          517 
 1845000   0.51391373   -6.8025808    441.43421  0.019938311  0.018373599          449 
 1846000   0.51545085   -6.7968325    440.32579  0.019877473  0.018359117          546 
 1847000   0.50828109   -6.8024172    441.09964  0.019901626  0.018344642          618 
 1848000   0.52100234   -6.8131151    442.26356  0.019943342  0.018330176          572 
 1849000   0.51480364   -6.8092479    441.70239  0.019907265  0.018315708          582 
 1850000   0.51121118   -6.8008159    441.47147  0.019886102  0.018301253          666 
 1851000    0.5236834   -6.8218256     441.2118  0.019863668  0.018286813          659 
 1852000   0.51208582   -6.8061391     441.5101  0.019866365  0.018272366          583 
 1853000    0.5190096   -6.8015358     440.4505  0.019807991  0.018257941          664 
 1854000   0.51077062   -6.8141697    440.89891  0.019817463  0.018243544          542 
 1855000   0.51209678   -6.8053512    441.16095  0.019818551  0.018229174          544 
 1856000   0.51819385   -6.8201096     441.0094  0.019801069  0.018214791          532 
 1857000    0.5139115   -6.8048956    441.11845  0.019795299  0.018200421          536 
 1858000   0.51220169   -6.8132232    441.58704  0.019805662  0.018186063          564 
 1859000   0.50938001   -6.8205281    440.49684  0.019746138  0.018171717          529 
 1860000   0.51334264   -6.8003317    441.38442  0.019775288  0.018157389          550 
 1861000   0.52308312   -6.8249139    441.50337  0.019769988  0.018143078          551 
 1862000    0.5001223   -6.8099718    440.92727  0.019733587  0.018128767          472 
 1863000   0.50343925   -6.8074528    441.26213  0.019737973  0.018114471          564 
 1864000    0.5151979   -6.8240816     440.4829  0.019692547  0.018100183          497 
 1865000   0.50630217   -6.8256509     441.1573  0.019712122  0.018085888          539 
 1866000   0.50461483   -6.8178326    441.54392  0.019718824  0.018071638          452 
 1867000    0.5216684    -6.826951    440.76308   0.01967341  0.018057391          480 
 1868000   0.50370075   -6.8199369    440.91374  0.019669599  0.018043194          502 
 1869000   0.51747232   -6.8297126    440.96433  0.019661331  0.018029013          538 
 1870000   0.49910894   -6.8113922    440.71179  0.019639563   0.01801484          391 
 1871000   0.49773962   -6.8132762    441.06215  0.019644671  0.018000662          567 
 1872000   0.49476418   -6.8141171    441.76899  0.019665643    0.0179865          463 
 1873000   0.49916741   -6.8073305    441.86623  0.019659469  0.017972359          204 
 1874000      0.50663     -6.82923    440.66426  0.019595529  0.017958216          571 
 1875000   0.51122907   -6.8037599    440.55124  0.019580055  0.017944085          582 
 1876000    0.5157266   -6.8246209    440.94552  0.019587132   0.01792998          506 
 1877000   0.49965736   -6.8364506    439.94373   0.01953222  0.017915883          622 
 1878000   0.51024396    -6.829898    440.50252  0.019546615  0.017901765          530 
 1879000   0.49252386   -6.8405035    440.52059  0.019537014  0.017887675          532 
 1880000   0.50476274   -6.8301233    440.01486  0.019504205  0.017873584          517 
 1881000    0.4987967   -6.8258468    440.52615  0.019516487  0.017859508          380 
 1882000   0.50247361    -6.817031    441.39743  0.019544697  0.017845445          470 
 1883000   0.50071726   -6.8299765     440.3801  0.019489295  0.017831401          499 
 1884000   0.50208755   -6.8437527    441.02626  0.019507531  0.017817343          572 
 1885000   0.49543781   -6.8223934    440.60713  0.019478653  0.017803319          290 
 1886000   0.50576034   -6.8479788    440.57748  0.019467015  0.017789291          473 
 1887000   0.50625344   -6.8128291     441.3727  0.019491817   0.01777529          563 
 1888000   0.50008784   -6.8431168    440.78821  0.019455694  0.017761299          521 
 1889000   0.50491754   -6.8404049     439.9225  0.019407204  0.017747305          527 
 1890000   0.50224538   -6.8393481    440.32263  0.019414578  0.017733328          556 
 1891000   0.50031446   -6.8473373    440.73884  0.019422653  0.017719351          614 
 1892000   0.49391286   -6.8472965     440.2244  0.019389729   0.01770537          546 
 1893000   0.50435219   -6.8532854    440.47957  0.019390719  0.017691399          547 
 1894000   0.49573087   -6.8621821    439.87588  0.019353919  0.017677442          318 
 1895000   0.49935129   -6.8522149     440.2967  0.019362212  0.017663506          639 
 1896000    0.4984226   -6.8296064    440.92742  0.019379721  0.017649588          549 
 1897000   0.50267633   -6.8412702    440.09613  0.019332988  0.017635682          547 
 1898000   0.50032128   -6.8486243    440.86447  0.019356536  0.017621772          584 
 1899000   0.50550759   -6.8321389    439.51417  0.019287088  0.017607891          645 
 1900000   0.48629422   -6.8378921    440.39723  0.019315668  0.017594034          541 
 1901000   0.49869792   -6.8474486    440.42235  0.019306608  0.017580169          502 
 1902000   0.50172235   -6.8457046      440.753  0.019310945  0.017566316          617 
 1903000   0.48742151   -6.8428594    440.32043  0.019281855  0.017552488          562 
 1904000   0.48503342   -6.8728368    439.57899  0.019239276  0.017538654          301 
 1905000   0.49880658   -6.8549347    440.02527    0.0192487  0.017524842          548 
 1906000   0.49535096     -6.87579    439.45585  0.019213705  0.017511037          586 
 1907000   0.49149557   -6.8604051    439.08439  0.019187397  0.017497239          627 
 1908000   0.48050874   -6.8651119    439.44723  0.019193188  0.017483451          689 
 1909000   0.48761759   -6.8628139    439.90071  0.019202929  0.017469689          588 
 1910000   0.48393861   -6.8502738    440.23482  0.019207453  0.017455943          577 
 1911000   0.49407646   -6.8681701    440.33473  0.019201759  0.017442192          605 
 1912000   0.48250151   -6.8652563    439.37336  0.019149815  0.017428457          568 
 1913000   0.49396688   -6.8516979    439.82076  0.019159294   0.01741473          649 
 1914000   0.49370577   -6.8737147    440.22811   0.01916702  0.017401006          622 
 1915000   0.49336868   -6.8551162    439.92704  0.019143909  0.017387296          655 
 1916000   0.47672607   -6.8711649     440.1812  0.019144972  0.017373586          646 
 1917000   0.48761882   -6.8779128    439.55584    0.0191078  0.017359906          620 
 1918000   0.47709926   -6.8632707    439.30985   0.01908715  0.017346218          655 
 1919000   0.48165781   -6.8735738    440.18224  0.019115088  0.017332561          656 
 1920000   0.49468534   -6.8741186     439.8625  0.019091254  0.017318885          683 
 1921000   0.49529091    -6.873873    439.63578  0.019071481  0.017305254          372 
 1922000   0.49976013   -6.8713194     439.4226  0.019052315  0.017291632          334 
 1923000    0.4834789   -6.8643024    439.48503  0.019045113  0.017278029          688 
 1924000   0.48464784   -6.8748088    439.92684   0.01905435  0.017264417          606 
 1925000   0.47615635   -6.8845415    438.92562  0.019001109  0.017250823          665 
 1926000   0.48470888   -6.8707882    439.24737  0.019005165  0.017237231          669 
 1927000   0.48795347   -6.8745203    439.15151  0.018991157  0.017223657          619 
 1928000   0.47598725   -6.8841447    440.05282  0.019020264  0.017210102          557 
 1929000   0.47410902   -6.8812842    439.15259  0.018971513  0.017196545          701 
 1930000   0.47891421   -6.8821011    438.52687  0.018934666  0.017182994          630 
 1931000   0.47750949    -6.881315    439.14944  0.018951728  0.017169459          687 
 1932000   0.48066781    -6.874613    439.00079  0.018935507  0.017155909          630 
 1933000   0.48226692   -6.8745137    439.07332  0.018928838  0.017142389          693 
 1934000   0.47776848   -6.8780733    439.77839  0.018949431  0.017128888          572 
 1935000   0.48352521   -6.8824667    439.10726  0.018910735  0.017115397          634 
 1936000   0.48319281   -6.8888362    439.22891  0.018906203  0.017101924          628 
 1937000   0.48448673   -6.8691424    439.37644  0.018902789  0.017088447          696 
 1938000   0.48442296   -6.8695659     439.7843  0.018910574  0.017075006          585 
 1939000   0.48273554   -6.8751139     439.0423  0.018868932  0.017061562          676 
 1940000   0.47389824    -6.883115    438.70094  0.018844542  0.017048112          602 
 1941000   0.48663673   -6.8956802    439.56931  0.018872115  0.017034696          363 
 1942000   0.47977454   -6.8827282    439.06935  0.018840944  0.017021272          675 
 1943000   0.48370943    -6.885776    439.52586  0.018850826  0.017007894          672 
 1944000   0.46855939   -6.8765055    439.17801  0.018826218  0.016994521          647 
 1945000   0.48067337   -6.8851702    438.65276  0.018794034  0.016981142          680 
 1946000   0.47352127   -6.8809731    439.85091  0.018835685  0.016967779          663 
 1947000   0.48071761   -6.8848202    438.86774   0.01878393  0.016954443          642 
 1948000   0.47394997    -6.892398    439.46254  0.018799732  0.016941112          617 
 1949000    0.4726193   -6.8846826    438.79793  0.018761669  0.016927802          719 
 1950000   0.47432282   -6.8915307    439.35636  0.018775913  0.016914489          688 
 1951000   0.47217125   -6.8881197    439.11295  0.018755892  0.016901186          665 
 1952000   0.47233223   -6.8821278    439.61095  0.018767544  0.016887887          651 
 1953000   0.47038431   -6.8870092    439.43959  0.018750622  0.016874626          679 
 1954000   0.47084093   -6.8910219    438.71909  0.018710299  0.016861357          396 
 1955000   0.47485554   -6.8856365    438.99363  0.018712431  0.016848101          633 
 1956000   0.47184124   -6.9150842      438.626  0.018687202  0.016834858          722 
 1957000     0.476129   -6.9076737    439.20243  0.018702198  0.016821614          680 
 1958000   0.46415505   -6.8948723    438.04964  0.018643584  0.016808393          653 
 1959000   0.47499651   -6.8910018    438.79426  0.018665742  0.016795174          692 
 1960000   0.47188531   -6.9030422    438.71627  0.018652903  0.016781994          682 
 1961000   0.45812944   -6.8951862    437.67079  0.018598963  0.016768803          719 
 1962000   0.46880896   -6.9012944    438.58327   0.01862824  0.016755624          657 
 1963000   0.46438112   -6.9135652    439.04344  0.018638285   0.01674246          715 
 1964000   0.47370966   -6.8943145    438.51387  0.018606325  0.016729306          716 
 1965000   0.46177304   -6.8987957    439.14808  0.018623752  0.016716167          701 
 1966000   0.46403109   -6.9069535    439.35051   0.01862286  0.016703048          747 
 1967000   0.47609144    -6.905757    438.98359  0.018597847  0.016689927          662 
 1968000   0.46631414   -6.9150081    438.27656  0.018558458  0.016676824          742 
 1969000   0.47050659   -6.9030021    438.35899  0.018552522  0.016663725          740 
 1970000   0.47556644   -6.9172764    438.91289  0.018566535   0.01665064          747 
 1971000   0.46710148   -6.8969984    437.93469  0.018515757  0.016637567          730 
 1972000   0.46850692   -6.9133532     439.2018  0.018559914  0.016624508          684 
 1973000   0.46264218   -6.9163073    438.54715  0.018522856  0.016611464          720 
 1974000   0.47330223   -6.9292378    437.88284  0.018485429  0.016598432          657 
 1975000    0.4759376   -6.9153382    438.12459  0.018486269   0.01658539          682 
 1976000   0.45685399   -6.9144704    438.59188  0.018496621  0.016572376          702 
 1977000   0.46265643   -6.9131922    438.66376  0.018490295  0.016559348          640 
 1978000   0.46141409   -6.9144202    438.36661  0.018468428  0.016546345          735 
 1979000   0.45859305   -6.9276869    438.13911  0.018449516  0.016533355          844 
 1980000   0.46602879   -6.9161491    438.41039  0.018451616  0.016520366          692 
 1981000   0.46467874   -6.9149051    438.05124  0.018427193  0.016507391          782 
 1982000     0.465779   -6.9262246    438.15001  0.018422049  0.016494437          817 
 1983000   0.46101829   -6.9166359    439.01903  0.018449279  0.016481492          689 
 1984000   0.45318792   -6.9106646    438.50721  0.018418482  0.016468554          841 
 1985000   0.45385399   -6.9112078    437.70835  0.018375666  0.016455614          806 
 1986000   0.46244947   -6.9298551    438.18019  0.018386212    0.0164427          704 
 1987000    0.4652324    -6.936794    438.30091  0.018382021  0.016429784          708 
 1988000   0.44573396   -6.9435012    438.32303  0.018373702  0.016416896          754 
 1989000   0.46300851   -6.9161422    437.99149  0.018350574  0.016404002          791 
 1990000   0.46135191   -6.9273335    438.40115  0.018358507  0.016391133          763 
 1991000   0.45651352   -6.9048761    438.30274  0.018345168  0.016378291          721 
 1992000   0.44984381   -6.9378952    437.54464  0.018304243  0.016365433          752 
 1993000   0.45893056   -6.9241628    438.04857   0.01831613  0.016352595          679 
 1994000   0.45780107    -6.930041    438.54962  0.018327885  0.016339798          690 
 1995000   0.45272758   -6.9322774    437.18564  0.018261723  0.016326984          706 
 1996000   0.45546843    -6.916517    438.45322  0.018305495  0.016314176          718 
 1997000   0.45492417   -6.9311956    437.79546  0.018268881  0.016301406          689 
 1998000   0.45402537   -6.9149893    437.16626  0.018233494  0.016288627          675 
 1999000     0.444844   -6.9263999    437.70448   0.01824681  0.016275873          717 
 2000000   0.45647891   -6.9239329    437.22962  0.018217901  0.016263134          702 
 2001000   0.45075865   -6.9275928    438.49733  0.018261591  0.016250396          744 
 2002000     0.455389   -6.9415098    437.90803   0.01822794   0.01623768          752 
 2003000   0.44850785   -6.9298691     437.5647  0.018204556  0.016224959          667 
 2004000   0.45934818   -6.9328785    437.95133  0.018211549  0.016212262          819 
 2005000   0.44647652   -6.9104125    438.27406  0.018215879  0.016199581          676 
 2006000   0.45832271   -6.9242892    437.83522  0.018188568  0.016186912          745 
 2007000   0.45623517   -6.9292315    438.77936  0.018218708   0.01617425          654 
 2008000   0.46532176   -6.9285757    438.28541  0.018189135   0.01616161          774 
 2009000   0.45710546   -6.9418649    437.61244  0.018152167  0.016148949          777 
 2010000   0.45945705    -6.936767    438.17569  0.018166488  0.016136316          731 
 2011000   0.44424945   -6.9397833    437.15149  0.018115013   0.01612369          795 
 2012000   0.45136941   -6.9307153     437.0934  0.018103603  0.016111067          701 
Loop time of 5169.4 on 48 procs for 2000000 steps with 4000 atoms

Performance: 66854.953 tau/day, 386.892 timesteps/s
99.4% CPU use with 48 MPI tasks x no OpenMP threads

MPI task timing breakdown:
Section |  min time  |  avg time  |  max time  |%varavg| %total
---------------------------------------------------------------
Pair    | 364.76     | 388.21     | 414.38     |  62.7 |  7.51
Neigh   | 35.465     | 36.874     | 38.334     |  12.1 |  0.71
Comm    | 337.94     | 364.82     | 393.38     |  71.5 |  7.06
Output  | 4.89       | 4.8925     | 4.9437     |   0.3 |  0.09
Modify  | 4307.5     | 4322.8     | 4335       |  10.6 | 83.62
Other   |            | 51.85      |            |       |  1.00

Nlocal:        83.3333 ave          94 max          77 min
Histogram: 5 2 15 3 12 6 2 2 0 1
Nghost:        2396.23 ave        2416 max        2381 min
Histogram: 3 9 4 5 8 3 8 4 3 1
Neighs:        16553.2 ave       19127 max       14301 min
Histogram: 4 5 6 5 7 6 5 4 3 3
FullNghs:      33105.6 ave       37309 max       30376 min
Histogram: 5 2 10 8 8 7 5 2 0 1

Total # of neighbors = 1589068
Ave neighs/atom = 397.26700
Neighbor list builds = 107210
Dangerous builds = 0

#clear
#
#next RN
#
#jump SELF
Total wall time: 1:26:12
