
units lj                  # Use reduced LJ style units
atom_style atomic         # Uncharged point particles
atom_modify map hash      # Needed for indexing of clusters etc
                          # Used to be able to find where atoms are in relation to each other.

lattice fcc 1.0 spacing 1 1 1
Lattice spacing in x,y,z = 1.5874011 1.5874011 1.5874011
region box block 0 10 0 10 0 10 units lattice
create_box 2 box
Created orthogonal box = (0.0000000 0.0000000 0.0000000) to (15.874011 15.874011 15.874011)
  3 by 4 by 4 MPI processor grid
create_atoms 1 box
Created 4000 atoms
  using lattice units in orthogonal box = (0.0000000 0.0000000 0.0000000) to (15.874011 15.874011 15.874011)
  create_atoms CPU = 0.002 seconds
set type 1 type/fraction 2 0.96 78393
Setting atom values ...
  3848 settings made for type/fraction
mass 1 1.0
mass 2 1.0
pair_style lj/cut  3.5
pair_modify tail  yes
pair_coeff 1  1  1.0  1.0   # Intearaction between 1 and 1 set with epsilon = 1 and sigma = 1
pair_coeff 1  2  1.5  0.8
pair_coeff 2  2  0.5  0.88

write_data data.0
System init for write_data ...
Neighbor list info ...
  update every 1 steps, delay 10 steps, check yes
  max neighbors/atom: 2000, page size: 100000
  master list distance cutoff = 3.8
  ghost atom cutoff = 3.8
  binsize = 1.9, bins = 9 9 9
  1 neighbor lists, perpetual/occasional/extra = 1 0 0
  (1) pair lj/cut, perpetual
      attributes: half, newton on
      pair build: half/bin/atomonly/newton
      stencil: half/bin/3d
      bin: standard
WARNING: Not all mixed pair coeffs generated from mixing. Use write_data with 'pair ij' option to store all pair coeffs. (../write_data.cpp:312)


#############################
#   M E L T   S Y S T E M   #
#############################

velocity all create 2.4 9622624 mom yes dist gaussian # Assign velocities
                                                    # Temperature 2.4, random number seed, zero linear momentum
                                                                                # Gaussian distribution

timestep 0.002   # simulation timestep
thermo 1000       # output thermodynamic data every 1000 steps bf 100

# Define a fix  in this case with index 1 applied to all
# particles in the simulation. This fix is for simulations
# in the anisotropic NPT ensemble. Note that we use the MTK
# correction.
fix 1 all npt temp 2.4 2.4 0.1 iso 5.68 5.68 0.5 mtk yes tchain 5 pchain 5 # Use NPT ensemble
                                                                         # Set temperature and pressure and damping
                                                                         # Numbers of thermostats in chain and in barostat
run 10000          # run for 10000 steps
Per MPI rank memory allocation (min/avg/max) = 3.642 | 3.644 | 3.648 Mbytes
Step Temp E_pair E_mol TotEng Press Volume 
       0          2.4   -2.8820212            0   0.71707882   -2.0430313         4000 
    1000    2.3527715   -1.7291047            0    1.7991702    5.6496682    4173.2954 
    2000    2.4441523   -1.7736848            0    1.8916272    5.5740616    4141.8759 
    3000    2.4504837   -1.7144836            0    1.9603231    5.7163304    4175.1878 
    4000    2.4165675    -1.722362            0    1.9015831    5.9962918    4096.1843 
    5000    2.3665126   -1.6999353            0    1.8489462    5.7746779    4162.1462 
    6000    2.4119782   -1.7146552            0    1.9024075    5.4493069    4223.6164 
    7000    2.4608694   -1.6823793            0    2.0080019    5.9559533    4163.1278 
    8000    2.3555518   -1.7096004            0    1.8228439    5.7949486    4150.3402 
    9000    2.4053805   -1.7252706            0    1.8818981     5.697548    4161.3321 
   10000    2.4120898   -1.7376805            0    1.8795497    5.5486332    4184.7506 
Loop time of 2.48442 on 48 procs for 10000 steps with 4000 atoms

Performance: 695534.068 tau/day, 4025.081 timesteps/s
99.6% CPU use with 48 MPI tasks x no OpenMP threads

MPI task timing breakdown:
Section |  min time  |  avg time  |  max time  |%varavg| %total
---------------------------------------------------------------
Pair    | 1.0618     | 1.1147     | 1.2017     |   3.0 | 44.87
Neigh   | 0.20473    | 0.21173    | 0.22312    |   0.8 |  8.52
Comm    | 0.78052    | 0.87435    | 0.95279    |   4.0 | 35.19
Output  | 0.00024801 | 0.00025377 | 0.00032284 |   0.0 |  0.01
Modify  | 0.23286    | 0.26837    | 0.30216    |   4.4 | 10.80
Other   |            | 0.015      |            |       |  0.60

Nlocal:        83.3333 ave          92 max          74 min
Histogram: 2 2 5 8 3 8 9 5 4 2
Nghost:        1594.81 ave        1631 max        1574 min
Histogram: 8 5 7 5 10 7 1 3 1 1
Neighs:        9127.71 ave       10537 max        7765 min
Histogram: 1 2 6 6 10 11 5 4 1 2

Total # of neighbors = 438130
Ave neighs/atom = 109.53250
Neighbor list builds = 908
Dangerous builds = 216

# Equilibrate just above the melting temperature to avoid step fn in T

fix 1 all npt temp 1.25 1.25 0.1 iso 5.68 5.68 0.5 mtk yes tchain 5 pchain 5
run 2000
Per MPI rank memory allocation (min/avg/max) = 3.643 | 3.645 | 3.649 Mbytes
Step Temp E_pair E_mol TotEng Press Volume 
   10000    2.4120898   -1.7376805            0    1.8795497    5.5486332    4184.7506 
   11000     1.265253   -2.6273979            0  -0.72999284    5.4831479    3269.1215 
   12000    1.2557779   -2.6109184            0   -0.7277224    5.4979585    3277.5333 
Loop time of 0.597703 on 48 procs for 2000 steps with 4000 atoms

Performance: 578213.814 tau/day, 3346.145 timesteps/s
99.7% CPU use with 48 MPI tasks x no OpenMP threads

MPI task timing breakdown:
Section |  min time  |  avg time  |  max time  |%varavg| %total
---------------------------------------------------------------
Pair    | 0.25356    | 0.28185    | 0.33376    |   2.4 | 47.16
Neigh   | 0.038097   | 0.04034    | 0.04765    |   0.7 |  6.75
Comm    | 0.17155    | 0.22362    | 0.24975    |   2.6 | 37.41
Output  | 5.3223e-05 | 5.4411e-05 | 6.8898e-05 |   0.0 |  0.01
Modify  | 0.039101   | 0.047087   | 0.053491   |   1.9 |  7.88
Other   |            | 0.004744   |            |       |  0.79

Nlocal:        83.3333 ave          92 max          78 min
Histogram: 7 3 12 6 4 6 4 4 1 1
Nghost:        1874.44 ave        1891 max        1850 min
Histogram: 1 0 3 3 7 8 11 9 3 3
Neighs:        11654.2 ave       13474 max       10642 min
Histogram: 7 5 8 9 6 7 4 1 0 1

Total # of neighbors = 559402
Ave neighs/atom = 139.85050
Neighbor list builds = 142
Dangerous builds = 10

#############################
# L I N E A R  Q U E N C H  #
#############################

# Define solid atoms. This closely follows ten Wolde  Ruiz-Montero and Frenkel  Faraday Discuss  1996  104  93-110
# Compute components of the per-atom q6 vector
compute q6 all orientorder/atom degrees 1 6 components 6 nnn NULL cutoff 1.3 # compute the Q6 parameter.
                                                                             # Use all neighbours within 1.3 unit cell.

# get number of connections
compute coord_number all coord/atom orientorder q6 0.5

# An atom is solid if it has 8 or more connections (of a possible 14)
variable is_solid atom c_coord_number>=8
group solid dynamic all var is_solid    # Must be dynamic to update
dynamic group solid defined

# do clustering
compute cluster solid cluster/atom 1.3 # Create a cluster where all atoms within are solid and max 1.3 units from another member

# define chunks one chunk per cluster
compute clus_chunks solid chunk/atom c_cluster nchunk every compress yes  # Says which atoms are in which chunk

# count the size of each chunk
compute size_chunks solid property/chunk clus_chunks count


# Find the maximum entry in the vector of chunk sizes
variable max_n equal max(c_size_chunks)


# Thermo style which includes this variable
# thermo_style custom step temp pe vol v_max_n

thermo ${N}  # Print the thermo information every 100 steps
thermo 1000  

# Reset the npt fix at a lower temperature (below freezing)
fix 1  all npt temp  ${temp} ${temp}  0.1  iso  5.68  5.68  0.5  mtk yes tchain  5  pchain  5
fix 1  all npt temp  0.45 ${temp}  0.1  iso  5.68  5.68  0.5  mtk yes tchain  5  pchain  5
fix 1  all npt temp  0.45 0.45  0.1  iso  5.68  5.68  0.5  mtk yes tchain  5  pchain  5

dump dmp2 all dcd ${N} traj.dcd
dump dmp2 all dcd 1000 traj.dcd


compute msd all msd com yes
variable twopoint equal c_msd[4]/6/(step*dt+1.0e-6)
fix 9 all vector 10 c_msd[4]
variable fit equal slope(f_9)/6/(10*dt)
thermo_style custom step temp pe c_msd[4] v_twopoint v_fit v_max_n

fix 1 all npt temp 1.25 ${temp} 0.1 iso 5.68 5.68 0.5 mtk yes tchain 5 pchain 5
fix 1 all npt temp 1.25 0.45 0.1 iso 5.68 5.68 0.5 mtk yes tchain 5 pchain 5
run 500000 # 5000000  # Run for this many steps
Neighbor list info ...
  update every 1 steps, delay 10 steps, check yes
  max neighbors/atom: 2000, page size: 100000
  master list distance cutoff = 3.8
  ghost atom cutoff = 3.8
  binsize = 1.9, bins = 8 8 8
  4 neighbor lists, perpetual/occasional/extra = 1 3 0
  (1) pair lj/cut, perpetual
      attributes: half, newton on
      pair build: half/bin/atomonly/newton
      stencil: half/bin/3d
      bin: standard
  (2) compute orientorder/atom, occasional
      attributes: full, newton on
      pair build: full/bin/atomonly
      stencil: full/bin/3d
      bin: standard
  (3) compute coord/atom, occasional
      attributes: full, newton on
      pair build: full/bin/atomonly
      stencil: full/bin/3d
      bin: standard
  (4) compute cluster/atom, occasional
      attributes: full, newton on
      pair build: full/bin/atomonly
      stencil: full/bin/3d
      bin: standard
Per MPI rank memory allocation (min/avg/max) = 9.812 | 9.817 | 9.823 Mbytes
Step Temp PotEng c_msd[4] v_twopoint v_fit v_max_n 
   12000    1.2557779   -2.6109184 5.0408212e-30 3.5005701e-32 8.3333333e+20            2 
   13000     1.233949   -2.6140002    1.0992884 0.0070467205  0.094396276            2 
   14000    1.2385536    -2.605971    2.2883682  0.013621239   0.09564301            2 
   15000    1.2677731   -2.6804413    3.5047987  0.019471103  0.098418323            1 
   16000    1.2425422   -2.6366875    4.7587257  0.024785029   0.10045654            5 
   17000     1.220605   -2.6001891    6.0459108  0.029636817   0.10150123            1 
   18000    1.2477176   -2.6724443     7.287143  0.033736772   0.10236373            1 
   19000    1.2061426   -2.6672076    8.5346054  0.037432479   0.10346613            2 
   20000    1.2261237   -2.6541985    9.7426886  0.040594535   0.10356202            1 
   21000    1.2086622   -2.6075545    11.153237  0.044258877   0.10395214            2 
   22000     1.262464   -2.6406865    12.376062  0.046879021   0.10443648            1 
   23000    1.2373817   -2.6357353    13.668439  0.049523329   0.10466561            1 
   24000    1.2321936   -2.6598158     15.07931  0.052358714   0.10509949            2 
   25000    1.2381664   -2.6721524    16.226636  0.054088786   0.10553205            2 
   26000    1.2327648   -2.6958487    17.353973  0.055621708   0.10551959            1 
   27000    1.2408565   -2.6785396    18.296471  0.056470587   0.10498553            1 
   28000    1.2323206   -2.6688267    19.522238  0.058101899   0.10424494            1 
   29000    1.2093665   -2.6760667    20.628419  0.059277066   0.10360663            1 
   30000     1.235072   -2.6643934    21.814521  0.060595889   0.10304372            1 
   31000     1.229986   -2.6838857    23.132766  0.062184853    0.1026723            4 
   32000    1.2073884   -2.6567616    24.232558   0.06310562   0.10238474            2 
   33000    1.2165933    -2.669216    25.284024  0.063848545   0.10193015            2 
   34000    1.1998668   -2.6531056    26.438848  0.064801098   0.10149476            2 
   35000    1.2086433   -2.6556938    27.592265  0.065695869   0.10106609            2 
   36000    1.2175666    -2.652434    28.676933  0.066381789   0.10070647            1 
   37000    1.1951736   -2.6701144    30.093249  0.067777587   0.10044103            1 
   38000    1.2298043   -2.6756791    31.157663  0.068328208   0.10023473            2 
   39000    1.2029417   -2.6629565    32.221502  0.068849363   0.10000986            2 
   40000    1.1962048   -2.6727742    33.206056  0.069179283  0.099708299            1 
   41000    1.1875268   -2.7165825     33.91525  0.068933433  0.099253451            2 
   42000    1.2017032    -2.670866    35.163202  0.069768257  0.098794568            3 
   43000    1.1791829   -2.6722084    36.502975  0.070742199  0.098454419            3 
   44000    1.2267925   -2.7068883    37.425768  0.070882136  0.098170278            1 
   45000    1.1832946   -2.6660106    38.650367  0.071574753  0.097884438            1 
   46000    1.1981861   -2.6858838    39.846653  0.072185965  0.097642884            1 
   47000    1.1956606   -2.6716536    41.107448  0.072885546     0.097471            4 
   48000    1.1781064   -2.6616243     42.25669  0.073362308  0.097320591            1 
   49000    1.2061995   -2.6826271    43.027826  0.073176575   0.09715714            4 
   50000     1.207747    -2.679435    44.381567  0.073969277  0.096988687            1 
   51000    1.2001007   -2.7120495    45.389697  0.074166171  0.096871833            2 
   52000    1.1960103   -2.6911732    46.940073  0.075224475  0.096783437            3 
   53000    1.1862552   -2.7025913     47.70108  0.075001697  0.096678832            5 
   54000    1.2156861   -2.7369399    48.701174  0.075156133  0.096504027            2 
   55000    1.1805559   -2.7001634    49.475165   0.07496237  0.096323369            1 
   56000    1.2085678   -2.7220923    51.023331  0.075927575  0.096134078            1 
   57000    1.1656741   -2.7038328    52.075289  0.076133463   0.09603053            3 
   58000    1.1701256   -2.7168196    53.036172  0.076201396  0.095920321            4 
   59000    1.1752357   -2.6980342    53.966882  0.076224409  0.095820083            2 
   60000    1.1950646   -2.7004721    55.429742  0.076985752  0.095706598            2 
   61000    1.1773895   -2.7121586    56.137831  0.076691025  0.095563323            2 
   62000    1.1529651   -2.7047328    57.254443  0.076954896  0.095371969            1 
   63000    1.1630097     -2.68577    58.583553  0.077491472   0.09520258            2 
   64000     1.191771   -2.7059093    59.459508  0.077421233  0.095046557            1 
   65000    1.1937544    -2.723318    60.311535   0.07732248   0.09488728            1 
   66000    1.1514189   -2.7703956    61.254214  0.077341179  0.094748872            2 
   67000    1.1542449   -2.7156721    62.604316  0.077866064  0.094603907            2 
   68000     1.163026    -2.707205    63.885795  0.078291414  0.094466751            2 
   69000    1.1531328   -2.7272459    64.546594  0.077954823  0.094333979            1 
   70000    1.1606763    -2.736563     65.47139  0.077942131  0.094172883            1 
   71000     1.156379   -2.7128472    66.824765  0.078432822  0.093996174            2 
   72000    1.1442798   -2.7199176    67.656925  0.078306626  0.093839339            1 
   73000    1.1505527   -2.7484932    68.766916  0.078501045   0.09367537            1 
   74000    1.1646616   -2.7219438    69.534723  0.078304868  0.093523979            2 
   75000    1.1522657   -2.7232651     70.12464  0.077916266  0.093337236            2 
   76000     1.115965   -2.7498469    71.007438  0.077859032  0.093104508            2 
   77000     1.153225   -2.7357006    72.155215  0.078090059  0.092878694            2 
   78000    1.1422875   -2.7256901    72.743398  0.077717305  0.092645919       -1e+20 
   79000    1.1305347   -2.7281767     73.90114  0.077954789  0.092420061            2 
   80000    1.1460604   -2.7358689    74.761826  0.077876901  0.092206492            1 
   81000    1.1503246   -2.7342408    75.716602  0.077897738  0.091982479            3 
   82000    1.1163122   -2.7493687    76.491372  0.077735134  0.091755805            1 
   83000    1.1375489   -2.7878552    77.317045  0.077627555  0.091522194            1 
   84000    1.1333208    -2.749073    78.499165  0.077876156  0.091302036            2 
   85000    1.1192476   -2.7810914     79.48089   0.07792244   0.09109403            3 
   86000    1.1436802   -2.7649218    80.556827   0.07805894  0.090893562            1 
   87000    1.1322756   -2.7799819    81.780354  0.078333672  0.090723419            1 
   88000    1.1540783   -2.7680527     82.17884  0.077820871  0.090540949            2 
   89000    1.1208587   -2.7503335    83.773454  0.078439563    0.0903629            3 
   90000    1.1396038   -2.7571432    84.637392  0.078367955  0.090202129            2 
   91000    1.1455398   -2.7952767    85.210771  0.078031841  0.090027086            1 
   92000    1.1219056   -2.7619636    86.529699   0.07837835  0.089869316            1 
   93000    1.1378126   -2.7409169    87.766662  0.078643962  0.089720561            4 
   94000    1.1409269   -2.7940709    88.690047  0.078625928  0.089583943            1 
   95000    1.1343332   -2.7919407     89.91424   0.07887214  0.089448373            2 
   96000    1.1245629   -2.7813088    90.600824  0.078646548  0.089329104            2 
   97000     1.130611   -2.7777471    91.811487  0.078875847  0.089203871            3 
   98000    1.1090636   -2.7819981    92.691516  0.078819316  0.089093566            2 
   99000    1.1106046   -2.7642418    93.882463  0.079025642  0.088980315            1 
  100000    1.0827875   -2.7561897    94.930871  0.079109059  0.088889282            2 
  101000    1.1165742   -2.7859978     95.61581  0.078890932  0.088792629            3 
  102000    1.1133314   -2.7985721    96.660339  0.078970864  0.088684954            2 
  103000     1.079571    -2.778013    97.653489  0.079007677   0.08857683            4 
  104000      1.09505    -2.792032    98.490361  0.078918558  0.088477118            3 
  105000    1.0984429    -2.786656    99.042538  0.078605189  0.088357274            3 
  106000    1.0844393   -2.7864035    100.54682  0.079046243  0.088240848            3 
  107000    1.0963186   -2.8182389    101.41581  0.078984279   0.08812609            1 
  108000    1.0850961   -2.7707118    102.56769  0.079141734  0.088008446            1 
  109000     1.105666   -2.8050831    102.54926  0.078401573  0.087889032            2 
  110000    1.1137976   -2.7900514    104.08513  0.078852374  0.087768698            1 
  111000    1.0997492    -2.809357    104.63569  0.078555321  0.087640514            1 
  112000    1.0827762   -2.8186309    105.13925  0.078228611  0.087516347            3 
  113000    1.0619885   -2.8076281    105.83847  0.078051972  0.087379778            2 
  114000    1.0776928   -2.8551122    107.01591  0.078228002  0.087238186            3 
  115000    1.0988832   -2.8012393    108.05518  0.078300854  0.087097788            2 
  116000    1.0819403   -2.8158481    108.70556  0.078093074  0.086958328            5 
  117000     1.093873   -2.8163416    110.12362  0.078435624  0.086833389            4 
  118000    1.0972301   -2.8174569    111.29107  0.078595387  0.086716953            2 
  119000    1.1018936   -2.8153468    112.54738  0.078814693  0.086615602            2 
  120000    1.0858346   -2.8068175    114.00084   0.07916725   0.08652429            3 
  121000    1.0766153    -2.848125    114.63426  0.078949211  0.086436102            3 
  122000    1.0556933   -2.8171269    115.13382  0.078643318  0.086340772            2 
  123000    1.0798172   -2.8396718    115.87935  0.078509047  0.086231158            1 
  124000    1.0741739   -2.8471552    116.74626  0.078458509  0.086120086            2 
  125000    1.0558158   -2.8422997    118.01862  0.078679083  0.086014879            2 
  126000     1.085209    -2.828959    118.46836  0.078352092  0.085904771            4 
  127000     1.062699   -2.8372289    119.23791  0.078240101  0.085786624            2 
  128000    1.0681785   -2.8395929    120.31282  0.078328656  0.085673812            4 
  129000    1.0514808   -2.8353338    121.13285  0.078251194   0.08555491            2 
  130000    1.0513713   -2.8671612    122.53239  0.078546401  0.085447655            2 
  131000    1.0642942   -2.8627401    122.97257  0.078226826  0.085342444            1 
  132000    1.0629742   -2.8742294    123.42757  0.077921442  0.085232031            2 
  133000    1.0472171   -2.8434165    124.33601  0.077904765   0.08511485            2 
  134000    1.0573912   -2.8295083    124.70147  0.077550665  0.084991852            2 
  135000    1.0524408   -2.8672766    125.83309  0.077674746  0.084865396            1 
  136000     1.064658   -2.8586419    126.26773  0.077369934  0.084736116            2 
  137000    1.0634692   -2.8548085    128.04654  0.077887187   0.08460423            3 
  138000    1.0586445   -2.8573134    129.23491  0.078040404  0.084486588            2 
  139000    1.0471127   -2.8272777    129.87039  0.077859943  0.084373346            3 
  140000    1.0516532   -2.8632343    129.64277  0.077168318  0.084255392            3 
  141000    1.0551697   -2.8560228    130.46813  0.077108822  0.084121276            5 
  142000    1.0241237   -2.8417304     131.2211  0.077007689  0.083978293            2 
  143000    1.0253637   -2.8886114    131.93017  0.076882385  0.083831927            1 
  144000    1.0441684   -2.8602463    132.24152  0.076528659  0.083686369            2 
  145000    1.0344983   -2.8870594    133.39836  0.076665725  0.083541462            2 
  146000    1.0325188   -2.9045793    133.60347  0.076257688   0.08339193            3 
  147000    1.0415885   -2.8733452    134.02423  0.075977457  0.083239308            2 
  148000    1.0044525   -2.9169459    134.56651  0.075769429   0.08308331            3 
  149000    1.0371402   -2.8468631     135.7127  0.075901959  0.082925894            3 
  150000    1.0495002     -2.89631    136.15429  0.075641272  0.082766797            2 
  151000    1.0106398   -2.8947807    137.10131  0.075662974  0.082607061            3 
  152000    1.0417703   -2.8955565    137.87312  0.075588334  0.082445762            3 
  153000    1.0199236   -2.9206096    138.18769  0.075265627  0.082279583            3 
  154000    1.0085796   -2.9041637    138.52724  0.074960626  0.082109791            3 
  155000    1.0066414   -2.8792286    139.20101  0.074839254  0.081932576            1 
  156000    1.0128115   -2.8677621     140.1309  0.074856249  0.081755514            1 
  157000    1.0073733   -2.9064522    140.18152  0.074406325  0.081584757            2 
  158000    1.0307566   -2.9173032    141.99245  0.074890533  0.081412844            3 
  159000     1.049469   -2.9122858    143.00186  0.074948565  0.081252791            1 
  160000     1.013854   -2.9212295    143.29554  0.074633093  0.081091472            1 
  161000   0.99073901   -2.9040204    144.01691  0.074542915  0.080931817            3 
  162000    1.0143666   -2.9244992    144.93326  0.074554144  0.080770515            2 
  163000    1.0323982   -2.9091872    145.15365  0.074209433  0.080599919            6 
  164000    1.0052043   -2.8902823    146.07435  0.074224773  0.080436456            1 
  165000    1.0035032   -2.9008748    146.66263  0.074072033   0.08027364            3 
  166000    1.0201738   -2.9133638    146.59025  0.073589482  0.080102847            4 
  167000   0.98893163   -2.9219899    147.97169  0.073838168   0.07993666            2 
  168000    1.0242079   -2.9110432    148.49839  0.073659918  0.079775042            3 
  169000   0.99998095   -2.8869942     149.7201  0.073826479  0.079615162            2 
  170000    1.0026554   -2.9069663    150.18793  0.073621532  0.079457804            1 
  171000   0.97763398   -2.9457857    151.11602  0.073643283  0.079298375            2 
  172000   0.98457176    -2.914291    151.15265  0.073232874  0.079139852            2 
  173000    0.9952079   -2.9644852    151.29279  0.072877068  0.078977146            3 
  174000   0.99419635   -2.9188446    152.70829  0.073136152  0.078816031            2 
  175000    1.0004971   -2.9136034    153.29147  0.072995938  0.078655449            2 
  176000   0.97111496   -2.9387714    153.98087  0.072907607  0.078498736            3 
  177000   0.99224091   -2.9412172    154.91319  0.072934646  0.078344777            6 
  178000   0.98298266   -2.9254449    155.81874  0.072948848  0.078194239            4 
  179000   0.98451191   -2.9386215    156.19498  0.072716471  0.078043047            2 
  180000     0.985361   -2.9338135    157.69058  0.073004897   0.07789425            2 
  181000   0.94742144   -2.9264905    157.62146  0.072569734  0.077752804            3 
  182000   0.97307045   -2.9639632     157.7933  0.072249679  0.077605413            4 
  183000   0.96287102   -2.9323635     159.1292  0.072463207  0.077454137            3 
  184000   0.98895164   -2.9540547    159.25792  0.072127681  0.077303533            3 
  185000   0.95796343   -2.9326024    160.50858  0.072301161  0.077152228            1 
  186000   0.96206126    -2.940512    160.88335  0.072080353  0.077003215            5 
  187000   0.97296493    -2.953287    160.92998  0.071715679  0.076856756            2 
  188000   0.98044663   -2.9751015    162.06435  0.071837036  0.076706382            2 
  189000   0.98890717   -2.9304641    162.74164  0.071755573  0.076557595            1 
  190000   0.99803595   -2.9785458    162.81616  0.071410594  0.076407493            4 
  191000   0.97677808   -2.9726664    164.07602  0.071586396  0.076260565            2 
  192000   0.95292892   -2.9566392    164.59359   0.07143819  0.076115087            1 
  193000   0.96221033   -2.9739851    165.47331  0.071447889  0.075971328            3 
  194000   0.97072262   -2.9686574    166.22318  0.071401711  0.075830089            4 
  195000   0.94035196   -2.9600124    167.68783  0.071661464  0.075697708            2 
  196000   0.95790926   -2.9840717    168.36671  0.071584484  0.075568488            3 
  197000   0.95294307   -2.9768506    168.93828  0.071462894  0.075442699            5 
  198000   0.96442522    -2.965969    169.67943    0.0714139  0.075321076            2 
  199000   0.95753424   -2.9909443    169.62222   0.07103108  0.075198154            2 
  200000   0.95800189   -2.9814213    170.93148   0.07122145  0.075072115            2 
  201000   0.92180038   -2.9994433    170.96476  0.070880912  0.074943605            2 
  202000   0.93712217   -2.9921296    172.50005  0.071163387  0.074816748            2 
  203000    0.9535454   -3.0107524    172.94609  0.070995931  0.074688732            3 
  204000   0.94509187   -2.9868881    173.36093  0.070817373  0.074564787            2 
  205000   0.92749447   -2.9865882    173.72161  0.070618542   0.07443886            7 
  206000   0.94275021   -3.0136107    174.16702  0.070455916  0.074314092            2 
  207000   0.94310085   -3.0041323    175.62993   0.07070448  0.074191113            2 
  208000   0.95544253   -2.9909744     176.4182  0.070680369  0.074069076            2 
  209000   0.92161358   -3.0012509    176.72579  0.070464829  0.073950126            3 
  210000    0.9368231   -3.0065891    178.02443  0.070644616  0.073831564            2 
  211000   0.93752049   -2.9851473    177.78422  0.070214936  0.073710428            3 
  212000   0.92375494   -3.0066977    179.18926  0.070436031  0.073593297            4 
  213000   0.94034647   -3.0098629    179.59541  0.070264245  0.073477969            1 
  214000   0.90344145   -3.0375015    180.15922   0.07015546  0.073362809            4 
  215000   0.92679719   -3.0103012    180.77489  0.070067785  0.073250571            2 
  216000    0.9432085   -3.0121789    181.84079  0.070154626  0.073136821            2 
  217000   0.93118669   -3.0302749    181.56753  0.069726395  0.073022078            1 
  218000   0.91318784   -3.0218298    182.57189  0.069790476  0.072909642            2 
  219000   0.90350034   -3.0137677    183.03326   0.06964736  0.072795199            4 
  220000   0.92015228   -3.0435105    183.98457  0.069691124  0.072679882            7 
  221000    0.9171477   -3.0199385    184.75909  0.069667831  0.072563288            4 
  222000   0.92017628   -3.0322687    184.61395   0.06929953  0.072449822            3 
  223000   0.91519858   -3.0110875    185.58597  0.069352007   0.07233287            2 
  224000   0.93758813   -3.0162379    186.11404  0.069238853  0.072218756            2 
  225000   0.92136946   -3.0248692    186.79217  0.069182287   0.07210525            3 
  226000   0.90378229    -3.052847    188.17805  0.069387185  0.071993565            4 
  227000   0.90388222   -3.0193045    186.99474  0.068647116  0.071878267            2 
  228000   0.91792072   -3.0468846    188.78304  0.068999651  0.071763802            3 
  229000   0.88871665   -3.0265749    188.91734  0.068747213   0.07164891            4 
  230000   0.89691326   -3.0332633     188.7009  0.068369892  0.071533573            7 
  231000   0.88236474   -3.0219984      189.563  0.068384919  0.071411874            3 
  232000   0.88999919   -3.0677019    189.36854  0.068020308  0.071287684            4 
  233000    0.8947834   -3.0615438    189.52295  0.067783602  0.071160896            4 
  234000    0.9027625   -3.0541987    190.90666  0.067986704  0.071035853            3 
  235000   0.88888002   -3.0729325    190.89447  0.067693074  0.070910316            3 
  236000    0.8731606   -3.0640768    192.32228  0.067910409    0.0707863            3 
  237000   0.89388003   -3.0508597    192.45062  0.067668995  0.070662868            3 
  238000   0.87487786   -3.0499657    194.01348  0.067931891  0.070539683            4 
  239000   0.88610568   -3.0642701    193.60585  0.067505527  0.070417834            2 
  240000   0.88105332   -3.0792003    194.18929  0.067426835  0.070295415            3 
  241000   0.88353453   -3.0814426    193.80127  0.067012889  0.070170454            3 
  242000   0.88426945   -3.0575149    194.72017    0.0670524  0.070043718            2 
  243000    0.8682662   -3.0845338    194.66485  0.066757494  0.069914482            3 
  244000   0.88372123   -3.1005955    194.75809  0.066515741  0.069781347            2 
  245000   0.88333046   -3.0839086    195.21056   0.06639815  0.069648092            3 
  246000    0.8705947   -3.0777715    196.00039  0.066395795  0.069518616            6 
  247000   0.88785733   -3.0867823     196.7776  0.066389203  0.069388543            3 
  248000   0.90303993   -3.1051773    197.80036  0.066465176  0.069260265            3 
  249000   0.86171904   -3.0753625    197.80131  0.066198564  0.069131921            4 
  250000   0.88182761   -3.0903707    197.71138  0.065903794  0.069004053            3 
  251000   0.86826485   -3.1058198     198.0968  0.065769189  0.068874189            4 
  252000   0.87921894   -3.0765857     198.1872  0.065538097  0.068743583            2 
  253000   0.87887419   -3.1027844    199.37363  0.065669837  0.068614333            6 
  254000   0.86243457   -3.0719748     199.8189  0.065557382  0.068487152            3 
  255000   0.87211458   -3.0809608    200.87143  0.065644257  0.068359132            4 
  256000   0.85714059   -3.1166753    201.64042  0.065638158  0.068231247            3 
  257000   0.86823024   -3.1327574    201.18632  0.065235511  0.068101174            4 
  258000   0.84749978   -3.1254583    201.27453  0.065011152  0.067970459            3 
  259000   0.86695988    -3.109214    202.21887  0.065063988  0.067843129            5 
  260000   0.85176173   -3.1180835    202.28028  0.064833423  0.067720108            4 
  261000   0.84353072   -3.1086594    203.68224  0.065032643   0.06759478            1 
  262000   0.85764012   -3.1167244    204.91988  0.065178079  0.067471424            5 
  263000   0.83854049   -3.1124885    204.10364  0.064671621  0.067348649            2 
  264000    0.8510385   -3.1431544     204.7453  0.064629199  0.067222685            4 
  265000   0.82485004   -3.1344347    204.61282  0.064343654  0.067095319            6 
  266000   0.85167507   -3.1228826    205.11967  0.064260549  0.066968985            7 
  267000   0.85235172   -3.1106759    205.77327  0.064223866  0.066842354            2 
  268000   0.85478191   -3.1337398    205.15065  0.063790623  0.066715407            4 
  269000   0.83655475   -3.1339981     206.5507  0.063987204  0.066588175            3 
  270000   0.83875898   -3.1388493     207.0743  0.063911821  0.066461767            6 
  271000   0.82426531   -3.1489356     207.2365  0.063725861  0.066336052            3 
  272000   0.82003733   -3.1377336    208.58946  0.063906084  0.066212565            4 
  273000   0.83078174   -3.1201763    209.96503  0.064091888  0.066093533            3 
  274000   0.80652092   -3.1297465    209.36605  0.063675806  0.065974035            3 
  275000    0.8337558   -3.1848161    210.41204  0.063761224  0.065854273            4 
  276000   0.82738933   -3.1702566    210.32527  0.063504006  0.065737032            2 
  277000   0.82140783    -3.147577    211.29312  0.063565919  0.065619507            2 
  278000   0.81384399   -3.1175088    211.81028  0.063492289  0.065502002            2 
  279000   0.81457175   -3.1414143    211.51853  0.063177578  0.065384965            6 
  280000   0.82643875   -3.1514183    211.45637  0.062933445  0.065266233            2 
  281000   0.82104254   -3.1776263    212.37574  0.062982129   0.06514552            5 
  282000   0.81942725   -3.1877992    212.83045  0.062893158  0.065025532            4 
  283000   0.81301542   -3.1609545    213.63577  0.062908059  0.064907289            4 
  284000    0.8192181    -3.165033    214.87915  0.063051394  0.064791569            8 
  285000   0.82973828   -3.1641765    215.53582  0.063022169  0.064676771            2 
  286000   0.81819208   -3.2028877    214.71082  0.062561429  0.064562451            4 
  287000   0.80286261   -3.1681657    215.93052  0.062697595   0.06444595            3 
  288000   0.82166866   -3.1874466    215.93741  0.062481891  0.064332617            3 
  289000   0.82801079   -3.1827604    216.15092  0.062327256  0.064217974            4 
  290000    0.8061919   -3.1644179    217.81671  0.062591009  0.064107644            2 
  291000   0.81700433   -3.1643317    217.26535  0.062218026  0.063997128            5 
  292000   0.80170068   -3.1779323    218.41718  0.062333669  0.063888426            3 
  293000   0.80103063    -3.184063    219.06006  0.062303771  0.063778924            3 
  294000   0.80779461   -3.1690834    218.76124  0.062007154  0.063668821            5 
  295000   0.79693897   -3.2054825    219.65567  0.062049624  0.063559779            3 
  296000   0.79288275   -3.1505605     220.1556  0.061980744  0.063450269            7 
  297000   0.78793578    -3.222637    220.31205   0.06181595  0.063339183            5 
  298000   0.79032114    -3.219438    219.35846  0.061341851  0.063227699            3 
  299000   0.80450613    -3.186918    221.07385  0.061614786   0.06311754            8 
  300000   0.79280713   -3.2039794    221.85267  0.061625743  0.063006492            2 
  301000   0.79144878    -3.244574    220.98939  0.061182002  0.062894959            6 
  302000   0.79999726   -3.2187726    221.84428  0.061215308   0.06278493            2 
  303000   0.79542041   -3.2021881    222.21385  0.061114921  0.062675164            2 
  304000   0.77341535    -3.220252    222.69057  0.061044565  0.062565837            5 
  305000   0.78202557   -3.2034561    223.03433  0.060938342  0.062457816            3 
  306000   0.79005509   -3.2152937    224.38005  0.061105679  0.062349393            5 
  307000   0.78003922   -3.2216251    223.80813  0.060751394  0.062239971            3 
  308000   0.79386694   -3.2224162    224.00753  0.060608098  0.062129835            4 
  309000   0.77000177   -3.2273742    223.92971  0.060390967  0.062019322            9 
  310000   0.78201714   -3.2329688    224.91771  0.060461751  0.061907783            4 
  311000   0.76451079   -3.2341407    225.56809   0.06044161  0.061796827            4 
  312000   0.76810532   -3.2167682    225.82764  0.060317213  0.061687443            6 
  313000   0.76498296   -3.2572526    226.15304  0.060211141  0.061578511            3 
  314000   0.78058458   -3.2234221    226.93242  0.060226226  0.061469214            3 
  315000   0.75744128   -3.2229776    227.13289  0.060088065  0.061360303            4 
  316000   0.76529946   -3.2342595    226.95138  0.059850048  0.061248492            3 
  317000   0.76730076   -3.2372849    226.95538  0.059662296  0.061136724            4 
  318000   0.76565401   -3.2552828      226.993   0.05948454  0.061023362            3 
  319000   0.74391604   -3.2338361    227.89078  0.059532597    0.0609104            3 
  320000   0.76867842    -3.227817    227.89763  0.059348341  0.060797757            8 
  321000   0.75947675    -3.258071    228.40954   0.05929635  0.060684333           13 
  322000   0.74222686   -3.2677824    228.40985  0.059112281  0.060571426            5 
  323000   0.76635191   -3.2730983    228.88638  0.059052214  0.060459714            3 
  324000   0.76174451   -3.2674675    229.73361  0.059087861  0.060348867            2 
  325000   0.75232165    -3.242029    229.98356  0.058970144  0.060239709            6 
  326000   0.75893904   -3.2722312    231.06388   0.05906541  0.060130798            4 
  327000   0.76581916   -3.2679598    230.11876  0.058643925  0.060019674            7 
  328000    0.7578832   -3.3019701    230.46584  0.058553312  0.059909288            5 
  329000   0.74611808   -3.2678141    231.49645  0.058636385  0.059800742            3 
  330000   0.75351184   -3.2797317    230.94704  0.058319961  0.059691698            6 
  331000   0.73974182   -3.2896246    231.70465  0.058334504  0.059583357            6 
  332000   0.73814784   -3.2959571    231.64234  0.058143158  0.059474785            4 
  333000   0.72799707   -3.2789438     232.5077   0.05818511   0.05936683            4 
  334000   0.73985648   -3.2895797    232.89619  0.058107833  0.059259118            4 
  335000   0.71921561   -3.2794088    233.65233   0.05812247  0.059150301            5 
  336000   0.71773768   -3.2774062    233.64305  0.057947185  0.059042659            5 
  337000   0.73542873   -3.2911697    233.66552  0.057780792  0.058934938            8 
  338000   0.72716283   -3.2933276    233.80947  0.057645332  0.058826719            7 
  339000   0.72663453   -3.2991143    234.94737  0.057755007  0.058717151            4 
  340000   0.71396318   -3.2919574    234.69622  0.057523583  0.058609039            3 
  341000   0.72341748   -3.2851949    235.11222  0.057456555  0.058501395            9 
  342000   0.73118064   -3.3096712     235.0105  0.057263767  0.058393559            4 
  343000   0.71505648   -3.3163551    235.81912  0.057293276  0.058284392            6 
  344000   0.70824028     -3.30434    236.19136    0.0572169  0.058175433            5 
  345000    0.7178864   -3.3192706    235.83638   0.05696531  0.058067112            4 
  346000   0.70356945   -3.2890191    236.12316   0.05686974   0.05795912            6 
  347000    0.7148955    -3.315507    237.11504  0.056944053  0.057850951            6 
  348000   0.72492942   -3.3147451    236.45994  0.056623549  0.057743074            8 
  349000   0.72003725   -3.3215475    236.76463  0.056534058  0.057633653            5 
  350000   0.70751509   -3.3405547    237.15073  0.056464459  0.057524271            3 
  351000   0.71602484   -3.3142125    237.37587  0.056357045   0.05741522            3 
  352000   0.69821467   -3.3338951    238.03221  0.056352322  0.057306763            4 
  353000   0.68693184    -3.342582    237.41683  0.056047411  0.057197699            4 
  354000   0.71313476   -3.3379289    238.62605  0.056173739  0.057090154           11 
  355000   0.70664784   -3.3377963     238.9036  0.056080658  0.056982423            7 
  356000   0.72273878   -3.3539297    238.84527  0.055909474   0.05687562            3 
  357000    0.6920998   -3.3366536    239.36127  0.055873312  0.056766568            6 
  358000   0.67785847    -3.337042    239.35387  0.055715518  0.056659218            9 
  359000   0.69181909   -3.3550253    239.90262  0.055687702  0.056550934            5 
  360000   0.69884232    -3.335854    239.48219  0.055435691  0.056443294            4 
  361000   0.69919325   -3.3435796    239.98996  0.055399343  0.056334677            7 
  362000   0.68026593   -3.3554606    240.33561  0.055325876  0.056226615            4 
  363000   0.69134966   -3.3442654    240.61907  0.055238538  0.056118632            2 
  364000   0.68772547   -3.3507013    239.91348  0.054925246  0.056009013            6 
  365000    0.6967333   -3.3523798     241.1355  0.055053767  0.055899812            4 
  366000   0.67444656   -3.3817939    240.58871   0.05477885  0.055789533           11 
  367000   0.68814364   -3.3912316    241.15624  0.054758456   0.05567995           13 
  368000   0.68020686    -3.365641    241.65057  0.054721597  0.055570809            7 
  369000   0.67935253   -3.3842092    240.60138  0.054336354  0.055460154            4 
  370000   0.65854022   -3.3521389    241.54898  0.054402924  0.055347633            6 
  371000   0.67893378   -3.3748663     241.0816  0.054151302  0.055235538           12 
  372000   0.67753239   -3.3823214    240.75894  0.053933454  0.055123427            3 
  373000   0.68067651   -3.3856654    241.80207   0.05402191  0.055012161            3 
  374000   0.67449835   -3.3900508    241.50966  0.053812314  0.054900019            7 
  375000   0.66626814   -3.3876534    241.47595  0.053661322  0.054788604           10 
  376000   0.65605618   -3.3720667    242.15299  0.053668659  0.054676676           13 
  377000   0.66211166   -3.4127723    242.28119  0.053554639  0.054564476            8 
  378000   0.66261295   -3.3960625    242.49457  0.053460002  0.054452298            9 
  379000   0.65763919   -3.4004607    243.14084  0.053461047  0.054340409            9 
  380000   0.67032764   -3.4085645    242.82762  0.053251671  0.054229593            4 
  381000   0.64602657   -3.4349205     241.8913  0.052907108  0.054119004           11 
  382000   0.65136044   -3.3879352    243.82208  0.053189808  0.054008053            9 
  383000   0.66378505   -3.4267649    242.79612  0.052827703  0.053898239            5 
  384000   0.63778364   -3.4000219    244.50022  0.053059943  0.053788464            3 
  385000   0.65612192   -3.3953996    244.67004  0.052958884  0.053680787            6 
  386000   0.66351836   -3.4139889    244.09996   0.05269861  0.053571628            6 
  387000   0.64936601   -3.3973379    244.11676  0.052566054  0.053462581            7 
  388000   0.65196414   -3.4208773    244.43506  0.052498938  0.053353184            8 
  389000   0.63758732   -3.4296298    244.31137  0.052337483  0.053244261            3 
  390000    0.6385833   -3.4275396    245.06929  0.052365233  0.053136341            5 
  391000   0.63678456   -3.4423066    244.64863  0.052141651  0.053027934           12 
  392000   0.63823316   -3.4441076    245.24697  0.052135835  0.052918347            6 
  393000   0.65342918   -3.4349309    245.39183   0.05203389  0.052809729            6 
  394000   0.63324256   -3.4325319     245.4824  0.051920981  0.052701333            9 
  395000   0.62402128   -3.4320255    245.85541  0.051868229  0.052593179            7 
  396000   0.63897582   -3.4475126    244.56636  0.051465986  0.052484359            7 
  397000   0.63503186   -3.4471777    246.06274   0.05165045  0.052375409            7 
  398000   0.63440966   -3.4567477    246.03299  0.051514445  0.052266749           15 
  399000   0.64336524   -3.4722174    245.86167  0.051349555  0.052157648            9 
  400000   0.64634082    -3.468079    246.56229  0.051367143  0.052048313           15 
  401000   0.61449573   -3.4430644    247.10609  0.051352055  0.051939807            5 
  402000    0.6184986   -3.4593209    246.67404  0.051134751  0.051832126            7 
  403000   0.62648823   -3.4632258    247.40745  0.051159522  0.051724526           12 
  404000   0.62753927   -3.4701007    247.31532  0.051013886  0.051617809            8 
  405000   0.62524774   -3.4663561    247.58501  0.050943417  0.051510555            6 
  406000   0.61928915   -3.4921816    247.95689  0.050894271  0.051404286            8 
  407000    0.6101595   -3.4655929    248.09908  0.050798338  0.051298121            9 
  408000   0.62113604   -3.4780971    248.03546  0.050660838  0.051191829            8 
  409000    0.6153321   -3.4833034    247.75047  0.050478906  0.051085739           11 
  410000   0.61890228   -3.4746987    248.13407  0.050433754  0.050980066           10 
  411000   0.60739035   -3.4940337    248.32497   0.05034975  0.050874571            9 
  412000   0.62483576   -3.4900466    249.32282  0.050429372  0.050769013           11 
  413000   0.59922652    -3.501822    248.96211  0.050234486    0.0506637           11 
  414000   0.60659934   -3.5127269     248.5388   0.05002794  0.050557687            9 
  415000   0.61400185   -3.4858081    249.38885  0.050078083  0.050452611            5 
  416000   0.60090969   -3.5128957    249.90518  0.050061134  0.050348402           14 
  417000   0.60470307   -3.5161396    249.42629  0.049845381  0.050243568            5 
  418000   0.58814421    -3.493574    250.15155  0.049870723  0.050139722           12 
  419000   0.58655958   -3.4966835    250.81198  0.049883051  0.050036467            8 
  420000   0.60048778   -3.5077536    250.77852  0.049757643  0.049933377            8 
  421000   0.57879529   -3.5132414    250.28495  0.049541755  0.049830256           15 
  422000   0.60259241   -3.5354153    250.11757  0.049391305  0.049726919           17 
  423000   0.59292333   -3.5117129    250.18065  0.049286969  0.049623797           11 
  424000   0.60245151   -3.4979847    250.77422  0.049287386  0.049520994            7 
  425000   0.59221935   -3.5098142    251.37629  0.049289469  0.049418462            6 
  426000   0.58614657   -3.5303822    250.83713  0.049068296   0.04931496            5 
  427000   0.58409602   -3.5358317    250.50338  0.048888247  0.049211315            6 
  428000   0.58393715   -3.5281441    251.16329  0.048902509  0.049107979           11 
  429000   0.58482899   -3.5662678    249.87571  0.048538406  0.049004179           15 
  430000   0.58565331   -3.5330108    250.72995  0.048591076  0.048899291            9 
  431000   0.57512818   -3.5447172    250.48226  0.048430445  0.048794638            7 
  432000    0.5816691   -3.5511434    251.51327  0.048517219  0.048689978            8 
  433000   0.58579519   -3.5223081     251.2999  0.048364107  0.048586033            5 
  434000   0.56442065   -3.5344593    250.55754  0.048110128  0.048481904            7 
  435000   0.57211127   -3.5476829    250.74453  0.048035351  0.048378043            8 
  436000   0.56050913   -3.5447441    250.42934  0.047864936  0.048273907            6 
  437000    0.5569264   -3.5578674    251.31292  0.047923897  0.048169096           10 
  438000   0.57530134   -3.5469824    251.25184  0.047802861  0.048064772           18 
  439000   0.56044001   -3.5634726    251.24294  0.047692281  0.047960795            4 
  440000   0.55972023   -3.5612346    251.87908   0.04770437  0.047856976           10 
  441000    0.5613307   -3.5668614    250.73765  0.047380508  0.047753331            5 
  442000   0.54791855   -3.5621267    251.07095  0.047336151  0.047650333            6 
  443000   0.55902179   -3.5758935    251.36852  0.047285274   0.04754674           13 
  444000    0.5517286   -3.5794097    251.50872   0.04720509  0.047443679            8 
  445000    0.5408176   -3.5786574    251.57652  0.047111707  0.047339874           13 
  446000   0.55775735   -3.5835711    251.58082   0.04700688  0.047237068            7 
  447000   0.54149602   -3.5743412    251.62993  0.046910875  0.047133927            9 
  448000   0.54416151   -3.5734348     251.9482  0.046865364  0.047030742           17 
  449000   0.54799166   -3.5828486    252.03237  0.046776609  0.046927701           14 
  450000   0.55099284     -3.60533    251.32646  0.046541937  0.046824131           12 
  451000   0.54579683   -3.6052048    251.46165  0.046463719  0.046720668            8 
  452000   0.55579945   -3.6065556    251.83349  0.046429477   0.04661775           37 
  453000   0.52957457   -3.6131716    251.87845  0.046335256  0.046514512           20 
  454000    0.5542731   -3.5911374    252.56422  0.046359071  0.046411624           10 
  455000   0.53741389   -3.5920286    252.50854  0.046246985  0.046309615           19 
  456000   0.52422164   -3.6178861    251.83804  0.046023034  0.046207477           15 
  457000   0.53233363    -3.625518    252.48276  0.046039891  0.046105248            4 
  458000   0.53487986   -3.6190341    252.31978  0.045909713   0.04600337           10 
  459000   0.53715436    -3.624674     252.4702  0.045837001  0.045901667           16 
  460000   0.53474869   -3.6132982    252.04005  0.045659429  0.045800235           16 
  461000   0.52977468   -3.6153207    252.71758   0.04568286  0.045698711            7 
  462000   0.53649886   -3.6301035    252.20156  0.045490902  0.045597624            8 
  463000   0.53373909   -3.6185329    252.22506   0.04539688  0.045496517            6 
  464000   0.52633106   -3.6310199     252.2546  0.045304346  0.045394997           16 
  465000    0.5300123   -3.6282425    252.67048  0.045281448  0.045293975           22 
  466000   0.53117445   -3.6399253    252.31386  0.045120503  0.045192908           21 
  467000   0.52689345   -3.6586277    252.82714  0.045115478  0.045091537            6 
  468000   0.51500844     -3.63507    252.94578  0.045040204  0.044990121           13 
  469000   0.51372205   -3.6501265    251.91746  0.044761453  0.044888519           10 
  470000   0.51766696   -3.6563063    252.69972  0.044804915  0.044787242           16 
  471000   0.52100154   -3.6385814    252.43382  0.044662743  0.044685935           25 
  472000   0.50851922   -3.6501341    252.65028  0.044606334  0.044585028           14 
  473000   0.51815133   -3.6900565    251.93555  0.044386108  0.044483862           15 
  474000   0.50846416    -3.658327    252.17185   0.04433401  0.044382675           13 
  475000   0.50337914   -3.6574846    252.92373  0.044372584  0.044281082           14 
  476000    0.5002271   -3.6875124    252.10802  0.044136558  0.044179196           13 
  477000   0.49699357   -3.6694982    252.75522  0.044157097  0.044077404            8 
  478000   0.49673567   -3.6753889    252.02547  0.043937494  0.043976309           11 
  479000   0.50269558   -3.6782272    252.70332  0.043963695  0.043875393           44 
  480000   0.50109334   -3.6695946    253.08162  0.043937782  0.043774606           20 
  481000   0.49993131   -3.6799278       252.26  0.043704088  0.043673661           10 
  482000   0.48443564   -3.7021975    252.52888  0.043659903  0.043573306           11 
  483000   0.50121861   -3.6740344    252.71598  0.043601791  0.043473357            8 
  484000   0.49465808   -3.6931421    252.85403  0.043535474  0.043374163           14 
  485000   0.48490456   -3.6883788    253.19532   0.04350435  0.043274858            8 
  486000    0.4895664   -3.6892308    253.36874  0.043444572  0.043175427           15 
  487000   0.48463051   -3.6781885    253.38498  0.043358141  0.043076193           23 
  488000   0.48331424   -3.7056167    252.64239  0.043142484  0.042976961           12 
  489000   0.49443549   -3.7002246    253.02216  0.043118977  0.042877913           13 
  490000   0.48582451   -3.6918501    253.64554  0.043136997  0.042779386            8 
  491000   0.47918973   -3.7173444     253.3237  0.042994518  0.042680958           24 
  492000   0.48699281   -3.7280489    252.51701  0.042770497  0.042581975           13 
  493000    0.4829692    -3.706208    252.57239  0.042693103  0.042483335           15 
  494000   0.48021603   -3.7179166    252.80498  0.042645914  0.042385154           18 
  495000   0.48638561   -3.7217835     252.9713   0.04258776  0.042287568           18 
  496000   0.46954165   -3.7203723     253.2325  0.042545784  0.042189878           18 
  497000   0.47725386   -3.7426491    253.13082  0.042443128  0.042092266           13 
  498000   0.47175924    -3.742997    253.40193  0.042403267  0.041994678           11 
  499000   0.46537362    -3.728938    253.22921  0.042289447  0.041897258           25 
  500000   0.46984607   -3.7311529    252.61711  0.042102852  0.041799412           22 
  501000   0.46843836   -3.7296991    253.13678  0.042105253  0.041702002           27 
  502000   0.47037391   -3.7441727    253.29601  0.042047811  0.041604775           23 
  503000   0.46993009   -3.7445483    253.09264  0.041930524  0.041507688           24 
  504000   0.46267216   -3.7312745    252.87517  0.041811371  0.041410372           18 
  505000   0.46281493   -3.7505622    252.94711  0.041740447  0.041313702            9 
  506000   0.46667981   -3.7581898    252.65975  0.041610631  0.041217267           32 
  507000   0.45710095   -3.7854026    253.07387  0.041596626  0.041120818           14 
  508000   0.45673394   -3.7650359    252.94869  0.041494207  0.041024446           13 
  509000   0.44903771   -3.7527601    253.12929  0.041442255  0.040928301           19 
  510000   0.44926798   -3.7546695    252.79469  0.041306322  0.040832769           23 
  511000   0.44645903   -3.7646272    253.44902  0.041332195  0.040737314           26 
  512000   0.45115498   -3.7638551     253.2567  0.041220166  0.040642299           24 
Loop time of 1216.25 on 48 procs for 500000 steps with 4000 atoms

Performance: 71038.218 tau/day, 411.101 timesteps/s
99.4% CPU use with 48 MPI tasks x no OpenMP threads

MPI task timing breakdown:
Section |  min time  |  avg time  |  max time  |%varavg| %total
---------------------------------------------------------------
Pair    | 79.309     | 84.098     | 90.725     |  27.7 |  6.91
Neigh   | 8.2469     | 8.5003     | 8.8717     |   5.3 |  0.70
Comm    | 75.172     | 81.972     | 87.293     |  32.6 |  6.74
Output  | 0.85031    | 0.85128    | 0.88563    |   0.5 |  0.07
Modify  | 1027.1     | 1030.1     | 1033.5     |   4.8 | 84.70
Other   |            | 10.72      |            |       |  0.88

Nlocal:        83.3333 ave          91 max          74 min
Histogram: 1 2 2 1 10 16 3 8 4 1
Nghost:        2193.02 ave        2213 max        2169 min
Histogram: 2 2 3 2 8 13 4 7 4 3
Neighs:        14551.1 ave       16624 max       13138 min
Histogram: 5 4 5 9 10 6 6 2 0 1
FullNghs:      29103.1 ave       31983 max       25592 min
Histogram: 1 2 2 3 10 10 10 6 3 1

Total # of neighbors = 1396949
Ave neighs/atom = 349.23725
Neighbor list builds = 27134
Dangerous builds = 0

#clear
#
#next RN
#
#jump SELF
Total wall time: 0:20:19
