
units lj                  # Use reduced LJ style units
atom_style atomic         # Uncharged point particles
atom_modify map hash      # Needed for indexing of clusters etc
                          # Used to be able to find where atoms are in relation to each other.

lattice fcc 1.0 spacing 1 1 1
Lattice spacing in x,y,z = 1.5874011 1.5874011 1.5874011
region box block 0 10 0 10 0 10 units lattice
create_box 2 box
Created orthogonal box = (0.0000000 0.0000000 0.0000000) to (15.874011 15.874011 15.874011)
  3 by 4 by 4 MPI processor grid
create_atoms 1 box
Created 4000 atoms
  using lattice units in orthogonal box = (0.0000000 0.0000000 0.0000000) to (15.874011 15.874011 15.874011)
  create_atoms CPU = 0.033 seconds
set type 1 type/fraction 2 0.65 78393
Setting atom values ...
  2613 settings made for type/fraction
mass 1 1.0
mass 2 1.0
pair_style lj/cut  3.5
pair_modify tail  yes
pair_coeff 1  1  1.0  1.0   # Intearaction between 1 and 1 set with epsilon = 1 and sigma = 1
pair_coeff 1  2  1.5  0.8
pair_coeff 2  2  0.5  0.88

write_data data.0
System init for write_data ...
Neighbor list info ...
  update every 1 steps, delay 10 steps, check yes
  max neighbors/atom: 2000, page size: 100000
  master list distance cutoff = 3.8
  ghost atom cutoff = 3.8
  binsize = 1.9, bins = 9 9 9
  1 neighbor lists, perpetual/occasional/extra = 1 0 0
  (1) pair lj/cut, perpetual
      attributes: half, newton on
      pair build: half/bin/atomonly/newton
      stencil: half/bin/3d
      bin: standard
WARNING: Not all mixed pair coeffs generated from mixing. Use write_data with 'pair ij' option to store all pair coeffs. (../write_data.cpp:312)


#############################
#   M E L T   S Y S T E M   #
#############################

velocity all create 2.4 5300450 mom yes dist gaussian # Assign velocities
                                                    # Temperature 2.4, random number seed, zero linear momentum
                                                                                # Gaussian distribution

timestep 0.002   # simulation timestep
thermo 1000       # output thermodynamic data every 1000 steps bf 100

# Define a fix  in this case with index 1 applied to all
# particles in the simulation. This fix is for simulations
# in the anisotropic NPT ensemble. Note that we use the MTK
# correction.
fix 1 all npt temp 2.4 2.4 0.1 iso 5.68 5.68 0.5 mtk yes tchain 5 pchain 5 # Use NPT ensemble
                                                                         # Set temperature and pressure and damping
                                                                         # Numbers of thermostats in chain and in barostat
run 10000          # run for 10000 steps
Per MPI rank memory allocation (min/avg/max) = 3.642 | 3.644 | 3.648 Mbytes
Step Temp E_pair E_mol TotEng Press Volume 
       0          2.4   -4.4517567            0  -0.85265669   -3.9326408         4000 
    1000    2.3895488   -4.1784862            0  -0.59505919     5.824043    3608.1999 
    2000    2.4416934   -4.2109045            0  -0.54927996    5.6339077    3606.4456 
    3000    2.3527674   -4.1703977            0  -0.64212887    5.5856489    3630.6168 
    4000     2.361452   -4.1678696            0  -0.62657706    5.6404728    3621.9976 
    5000    2.4317677   -4.1409109            0  -0.49417128    5.6380162    3637.3177 
    6000    2.4042448   -4.2362755            0   -0.6308099    5.5929498    3595.1855 
    7000    2.4605179   -4.1627244            0  -0.47287017    5.6211438    3636.4842 
    8000    2.4304612   -4.2016155            0  -0.55683511    6.1678031    3564.8746 
    9000    2.3614649   -4.2394138            0  -0.69810195    6.0838959    3547.7346 
   10000    2.4407771   -4.1787124            0  -0.51846211    5.5637907    3614.0595 
Loop time of 2.65435 on 48 procs for 10000 steps with 4000 atoms

Performance: 651007.796 tau/day, 3767.406 timesteps/s
99.7% CPU use with 48 MPI tasks x no OpenMP threads

MPI task timing breakdown:
Section |  min time  |  avg time  |  max time  |%varavg| %total
---------------------------------------------------------------
Pair    | 1.1836     | 1.2709     | 1.3804     |   3.1 | 47.88
Neigh   | 0.21725    | 0.2238     | 0.24465    |   1.1 |  8.43
Comm    | 0.74775    | 0.89468    | 0.98688    |   4.8 | 33.71
Output  | 0.00025643 | 0.00026073 | 0.00034191 |   0.0 |  0.01
Modify  | 0.20847    | 0.24898    | 0.28636    |   4.3 |  9.38
Other   |            | 0.01569    |            |       |  0.59

Nlocal:        83.3333 ave          90 max          75 min
Histogram: 2 0 7 3 7 4 10 5 6 4
Nghost:        1755.83 ave        1780 max        1733 min
Histogram: 3 2 8 2 8 12 2 9 1 1
Neighs:        10570.2 ave       11600 max        9275 min
Histogram: 2 3 3 4 5 9 9 3 6 4

Total # of neighbors = 507369
Ave neighs/atom = 126.84225
Neighbor list builds = 905
Dangerous builds = 197

# Equilibrate just above the melting temperature to avoid step fn in T

fix 1 all npt temp 1.25 1.25 0.1 iso 5.68 5.68 0.5 mtk yes tchain 5 pchain 5
run 2000
Per MPI rank memory allocation (min/avg/max) = 3.644 | 3.646 | 3.650 Mbytes
Step Temp E_pair E_mol TotEng Press Volume 
   10000    2.4407771   -4.1787124            0  -0.51846211    5.5637907    3614.0595 
   11000    1.2564289   -6.1054505            0   -4.2212783    5.6293419    2771.1537 
   12000    1.2507745   -6.1411329            0   -4.2654402    5.6141845    2767.0984 
Loop time of 0.662188 on 48 procs for 2000 steps with 4000 atoms

Performance: 521906.397 tau/day, 3020.292 timesteps/s
99.6% CPU use with 48 MPI tasks x no OpenMP threads

MPI task timing breakdown:
Section |  min time  |  avg time  |  max time  |%varavg| %total
---------------------------------------------------------------
Pair    | 0.30107    | 0.32411    | 0.35205    |   2.3 | 48.95
Neigh   | 0.041282   | 0.043655   | 0.047737   |   0.7 |  6.59
Comm    | 0.21387    | 0.24403    | 0.26909    |   3.0 | 36.85
Output  | 5.3306e-05 | 5.438e-05  | 7.8826e-05 |   0.0 |  0.01
Modify  | 0.040471   | 0.045426   | 0.049352   |   1.1 |  6.86
Other   |            | 0.004913   |            |       |  0.74

Nlocal:        83.3333 ave          97 max          76 min
Histogram: 8 1 11 12 8 4 1 2 0 1
Nghost:        2108.04 ave        2137 max        2082 min
Histogram: 2 2 5 9 13 4 4 4 3 2
Neighs:        13780.1 ave       16203 max       12402 min
Histogram: 6 7 5 7 14 3 4 0 1 1

Total # of neighbors = 661443
Ave neighs/atom = 165.36075
Neighbor list builds = 143
Dangerous builds = 14

#############################
# L I N E A R  Q U E N C H  #
#############################

# Define solid atoms. This closely follows ten Wolde  Ruiz-Montero and Frenkel  Faraday Discuss  1996  104  93-110
# Compute components of the per-atom q6 vector
compute q6 all orientorder/atom degrees 1 6 components 6 nnn NULL cutoff 1.3 # compute the Q6 parameter.
                                                                             # Use all neighbours within 1.3 unit cell.

# get number of connections
compute coord_number all coord/atom orientorder q6 0.5

# An atom is solid if it has 8 or more connections (of a possible 14)
variable is_solid atom c_coord_number>=8
group solid dynamic all var is_solid    # Must be dynamic to update
dynamic group solid defined

# do clustering
compute cluster solid cluster/atom 1.3 # Create a cluster where all atoms within are solid and max 1.3 units from another member

# define chunks one chunk per cluster
compute clus_chunks solid chunk/atom c_cluster nchunk every compress yes  # Says which atoms are in which chunk

# count the size of each chunk
compute size_chunks solid property/chunk clus_chunks count


# Find the maximum entry in the vector of chunk sizes
variable max_n equal max(c_size_chunks)


# Thermo style which includes this variable
# thermo_style custom step temp pe vol v_max_n

thermo ${N}  # Print the thermo information every 100 steps
thermo 1000  

# Reset the npt fix at a lower temperature (below freezing)
fix 1  all npt temp  ${temp} ${temp}  0.1  iso  5.68  5.68  0.5  mtk yes tchain  5  pchain  5
fix 1  all npt temp  0.45 ${temp}  0.1  iso  5.68  5.68  0.5  mtk yes tchain  5  pchain  5
fix 1  all npt temp  0.45 0.45  0.1  iso  5.68  5.68  0.5  mtk yes tchain  5  pchain  5

dump dmp2 all dcd ${N} traj.dcd
dump dmp2 all dcd 1000 traj.dcd


compute msd all msd com yes
variable twopoint equal c_msd[4]/6/(step*dt+1.0e-6)
fix 9 all vector 10 c_msd[4]
variable fit equal slope(f_9)/6/(10*dt)
thermo_style custom step temp pe c_msd[4] v_twopoint v_fit v_max_n

fix 1 all npt temp 1.25 ${temp} 0.1 iso 5.68 5.68 0.5 mtk yes tchain 5 pchain 5
fix 1 all npt temp 1.25 0.45 0.1 iso 5.68 5.68 0.5 mtk yes tchain 5 pchain 5
run 500000 # 5000000  # Run for this many steps
Neighbor list info ...
  update every 1 steps, delay 10 steps, check yes
  max neighbors/atom: 2000, page size: 100000
  master list distance cutoff = 3.8
  ghost atom cutoff = 3.8
  binsize = 1.9, bins = 8 8 8
  4 neighbor lists, perpetual/occasional/extra = 1 3 0
  (1) pair lj/cut, perpetual
      attributes: half, newton on
      pair build: half/bin/atomonly/newton
      stencil: half/bin/3d
      bin: standard
  (2) compute orientorder/atom, occasional
      attributes: full, newton on
      pair build: full/bin/atomonly
      stencil: full/bin/3d
      bin: standard
  (3) compute coord/atom, occasional
      attributes: full, newton on
      pair build: full/bin/atomonly
      stencil: full/bin/3d
      bin: standard
  (4) compute cluster/atom, occasional
      attributes: full, newton on
      pair build: full/bin/atomonly
      stencil: full/bin/3d
      bin: standard
Per MPI rank memory allocation (min/avg/max) = 9.845 | 9.851 | 9.855 Mbytes
Step Temp PotEng c_msd[4] v_twopoint v_fit v_max_n 
   12000    1.2507745   -6.1411329 5.9164568e-34 4.1086504e-36 8.3333333e+20            2 
   13000    1.2526521   -6.1666699   0.54395623 0.0034868988  0.044009156            2 
   14000    1.2422778   -6.1951655    1.0785548 0.0064199689  0.044790079            2 
   15000    1.2740134   -6.2227755    1.5478677  0.008599265  0.042959387            3 
   16000    1.1996324   -6.2358558    2.0889246  0.010879816  0.042619608            2 
   17000    1.2433919   -6.2262387    2.6572034  0.013025506  0.043519109            4 
   18000    1.2328254   -6.2325214    3.1524489   0.01459467  0.043750673            2 
   19000    1.2483348   -6.2087697    3.5847961  0.015722789  0.043085201            1 
   20000    1.2545395   -6.2489013    4.0467798  0.016861582  0.042414693           10 
   21000    1.2479884   -6.2128329    4.5404316  0.018017585   0.04202548            3 
   22000    1.2150493   -6.1977123    5.0411748  0.019095359   0.04162987            5 
   23000    1.2577118   -6.2080527    5.5262945  0.020022806  0.041558187            1 
   24000    1.2207797   -6.2206376    6.0308585   0.02094048  0.041360724            2 
   25000    1.2627906   -6.2411315    6.4459423  0.021486474  0.041183393            2 
   26000    1.2013506   -6.2171573    6.9607449  0.022310079  0.041047055            1 
   27000    1.2246719     -6.18548    7.5174296  0.023201943  0.040969313            2 
   28000    1.2034518   -6.2242489    8.1277946  0.024189864  0.041136297            1 
   29000    1.2283489   -6.2568375    8.6080203   0.02473569  0.041337959            3 
   30000    1.2355203   -6.2276428    9.0390883  0.025108578  0.041351887            2 
   31000    1.2439553   -6.3000531    9.5326169  0.025625314  0.041398986            3 
   32000    1.2072656   -6.2763219    10.011111  0.026070602   0.04141456            1 
   33000     1.220661   -6.2915011    10.358919  0.026158885  0.041347869            1 
   34000    1.1881865   -6.3075711    10.748508  0.026344382  0.041152975            3 
   35000    1.2110915   -6.3014826    11.152345  0.026553203    0.0409276            3 
   36000    1.2272254   -6.3008339    11.686752  0.027052667   0.04071675            2 
   37000    1.2256192   -6.3091682    12.031527  0.027098033  0.040499018            1 
   38000    1.2249248   -6.3122187    12.455791   0.02731533  0.040298577            2 
   39000    1.2284416   -6.2982651    12.909264  0.027583898  0.040088319            2 
   40000    1.1996758   -6.2926374    13.285051  0.027677189  0.039859991            3 
   41000    1.2192773   -6.3050688    13.617952  0.027678764  0.039604324            1 
   42000    1.2173267   -6.3098996    14.088485  0.027953343  0.039365008            1 
   43000    1.1971201   -6.3348252    14.561856   0.02822065  0.039193682            4 
   44000    1.2055658   -6.3200712    14.980315  0.028371808  0.039020065            2 
   45000    1.1809298   -6.3322936     15.40552   0.02852874    0.0388506            2 
   46000     1.194504   -6.2907767    15.900883  0.028805947  0.038709142            1 
   47000    1.1982193   -6.3364719    16.319237  0.028934818  0.038596652            2 
   48000    1.1947545   -6.3488403      16.8201  0.029201563   0.03848483            2 
   49000    1.1955167    -6.340616    17.227499  0.029298468  0.038394429            2 
   50000    1.1940003   -6.3423826    17.657465  0.029429108  0.038309408            2 
   51000    1.1965877   -6.3446285    18.027885  0.029457329  0.038237773            3 
   52000    1.1727249   -6.3564778    18.342231  0.029394601  0.038128097            4 
   53000    1.1646159   -6.3328913    18.843938  0.029628833  0.038021547            2 
   54000    1.1652019   -6.3603994    19.327455  0.029826319  0.037931359            2 
   55000     1.192022   -6.3567643    19.695488  0.029841648  0.037849075            5 
   56000    1.1937326   -6.3628774    20.166159  0.030009165  0.037766096            2 
   57000     1.183155   -6.3405625      20.5015  0.029972953  0.037685735            1 
   58000     1.165986    -6.398222    20.636144  0.029649633  0.037561613            2 
   59000    1.1780035   -6.3639733    21.042744   0.02972139  0.037422606            2 
   60000    1.1769007   -6.3631186    21.468351  0.029817154  0.037282378            4 
   61000    1.1771434   -6.4463345    21.759851  0.029726572  0.037142155            3 
   62000    1.1617216   -6.3843023    22.165311  0.029792085  0.037006208            2 
   63000     1.190671   -6.4251794    22.463838  0.029714071  0.036865991            2 
   64000    1.1450879    -6.409958    22.779412  0.029660692  0.036714175            1 
   65000    1.1884063   -6.3729016    23.266785  0.029829211  0.036575952            2 
   66000    1.1555216   -6.3854619    23.530019   0.02970962  0.036437079            3 
   67000    1.1795522   -6.4209788    23.744541  0.029533012  0.036271217            3 
   68000    1.1676349   -6.3817751    24.259003   0.02972917  0.036122122            3 
   69000    1.1864269   -6.4276757    24.616807  0.029730443  0.035988346            5 
   70000    1.1594691   -6.4122267    25.171635  0.029966232  0.035864543            3 
   71000    1.1390897   -6.4399266    25.356944  0.029761672  0.035740939            5 
   72000    1.1531154   -6.4271978    25.622651  0.029655845   0.03560966            4 
   73000    1.1481158   -6.4600168    25.862618  0.029523537  0.035466835            2 
   74000    1.1560111   -6.4408341    26.255524  0.029567031  0.035323745            2 
   75000    1.1298003   -6.4229334    26.572551  0.029525056  0.035181549            2 
   76000    1.1515621   -6.4412534    26.778191  0.029362051  0.035039734            3 
   77000    1.1291545   -6.4054403    27.386811  0.029639405  0.034909705            4 
   78000    1.1390794   -6.4352439    27.815991  0.029717938   0.03479564            1 
   79000    1.1529633   -6.4232794    28.448359  0.030008817  0.034713512            4 
   80000    1.1476159   -6.4727896    28.674611  0.029869386   0.03463697            5 
   81000    1.1364436   -6.5074337    29.014968   0.02985079  0.034555668            4 
   82000    1.1240225   -6.4711661    29.474296  0.029953553  0.034485556            2 
   83000    1.1237425   -6.4715181    29.799439  0.029919116   0.03441438            3 
   84000    1.1546266   -6.4423671    30.219132  0.029979297  0.034333763            4 
   85000     1.122955    -6.464681    30.387399  0.029791568  0.034254786            5 
   86000    1.1496434   -6.4540151    30.889096  0.029931295  0.034170271            1 
   87000    1.1291753   -6.4859612    31.284367  0.029965869  0.034094802            2 
   88000    1.1265718   -6.5075968     31.60432  0.029928334  0.034030844            2 
   89000    1.1318346   -6.4809229    32.091096  0.030047842   0.03397337            3 
   90000     1.130575   -6.4830732    32.360152  0.029963103  0.033917483            2 
   91000    1.1101012   -6.5295226    32.667002  0.029914836  0.033853085            5 
   92000    1.1067568    -6.499627    33.169678  0.030044998  0.033793833            2 
   93000    1.1061185   -6.4531998    33.556499  0.030068548  0.033727344            3 
   94000    1.1192953   -6.5303981    33.736774  0.029908487  0.033662003            3 
   95000    1.1030255   -6.4845985    34.305376  0.030092435  0.033604593            3 
   96000    1.1155671   -6.5513724    34.404969  0.029865425   0.03354863            2 
   97000    1.1306793   -6.5216857    34.861151  0.029949442  0.033484526            1 
   98000    1.1363206   -6.5082337    35.346541  0.030056582  0.033430316            3 
   99000    1.1226521   -6.5434868    35.660657  0.030017388  0.033381214            4 
  100000    1.0921172   -6.5366432    36.158454  0.030132045   0.03333328            2 
  101000    1.1141519   -6.5297529    36.603642  0.030201024  0.033295995            4 
  102000    1.1015388   -6.5197844    37.021954  0.030246694  0.033261239            2 
  103000    1.1210273   -6.5367775    37.492191  0.030333488  0.033225681            4 
  104000    1.0850684    -6.546061    37.845986  0.030325309  0.033195118            2 
  105000    1.0895205   -6.5587867    38.049096  0.030197695  0.033160245            2 
  106000    1.0867971   -6.6000585    38.258624  0.030077534  0.033113451            2 
  107000    1.1047055   -6.5480396    38.612465  0.030072013   0.03306605            3 
  108000    1.0882632   -6.6192964    38.734822   0.02988798  0.033016058            1 
  109000    1.1008636   -6.5116459    39.122394  0.029910087  0.032958846            2 
  110000    1.1103912   -6.5700631    39.320698  0.029788407  0.032902445            2 
  111000    1.0828449   -6.6247076    39.522131  0.029671269  0.032839997            3 
  112000    1.1060387   -6.5867335    39.917008  0.029700155  0.032777902            5 
  113000    1.0818736   -6.5909703    40.376031  0.029775834  0.032723033            5 
  114000     1.080944    -6.574363    40.701952  0.029752889  0.032664339            4 
  115000    1.0842983   -6.5655433    40.906449  0.029642354  0.032605617            3 
  116000    1.0823377   -6.6010048    41.111047  0.029533798  0.032541573            5 
  117000    1.0854464   -6.6182386    41.368986   0.02946509  0.032471938            2 
  118000    1.0655779   -6.5880914    41.897555  0.029588669  0.032402263            2 
  119000    1.0511611   -6.6117013    42.117618   0.02949413  0.032340243           10 
  120000    1.0969331   -6.5974835    42.339147  0.029402186  0.032276205            5 
  121000    1.0747061   -6.6342915    42.551843  0.029305677  0.032205677            5 
  122000    1.0659056   -6.6375042    42.794118  0.029230955  0.032139097            3 
  123000    1.0531094   -6.6003265    43.251986  0.029303513  0.032072363            3 
  124000     1.089835   -6.6440301    43.524199  0.029250134   0.03200407            2 
  125000    1.0597978   -6.6130491    43.731999  0.029154666  0.031938231            6 
  126000    1.0506932   -6.5779817    44.060083  0.029140266  0.031868599            5 
  127000    1.0580108   -6.6014992    44.378421  0.029119698  0.031797356            6 
  128000    1.0767364   -6.6701924    44.592063  0.029031291  0.031727113            2 
  129000    1.0530131   -6.6612367    44.691821  0.028870685  0.031654885            5 
  130000    1.0434717    -6.682914    44.986494  0.028837496  0.031580028            3 
  131000    1.0760593   -6.6911005    45.251199   0.02878575  0.031504908            9 
  132000    1.0338216   -6.6301999     45.59171  0.028782645  0.031430942            4 
  133000    1.0609244   -6.6583231     45.68052   0.02862188  0.031354149            3 
  134000    1.0707935   -6.6993608    45.813819  0.028491181   0.03127384            8 
  135000    1.0381323   -6.6907121    46.160747  0.028494288  0.031192465            7 
  136000    1.0483871   -6.6859339    46.377448  0.028417554   0.03111117            5 
  137000    1.0316458   -6.7010682    46.593115  0.028341311  0.031027825           10 
  138000     1.049091   -6.6686261    46.845505  0.028288349  0.030945925            3 
  139000    1.0495283   -6.6951157    47.199651  0.028297153  0.030863316           13 
  140000    1.0463508   -6.7341563    47.569727  0.028315314  0.030785259            5 
  141000    1.0520225   -6.6842827    47.852016  0.028281333   0.03070957            6 
  142000     1.036804   -6.6874507    48.181093  0.028275289  0.030635172            5 
  143000    1.0224804   -6.7265627    48.159694   0.02806509  0.030556886            3 
  144000    1.0594399   -6.7287022     48.28589  0.027943223  0.030476925            4 
  145000    1.0710743   -6.7028273    48.684922   0.02797984  0.030396961            9 
  146000    1.0259832   -6.7369583    48.940327  0.027933976  0.030319063            2 
  147000    1.0123514   -6.7154179    49.218267  0.027901512  0.030242659            7 
  148000    1.0459373   -6.7343924     49.61775  0.027937922  0.030165098            4 
  149000    1.0336893   -6.7022349    49.986606  0.027956714  0.030091289            4 
  150000    1.0638536    -6.727246    50.177023  0.027876124  0.030017851            4 
  151000    1.0164175   -6.7503942    50.349883  0.027786911  0.029946226            6 
  152000    1.0223594   -6.7473327    50.722338  0.027808299   0.02987288            4 
  153000    1.0208712   -6.7496841     50.77156  0.027653355  0.029799402            3 
  154000    0.9982031   -6.7653484    51.166121  0.027687295  0.029729422            4 
  155000    1.0531355   -6.7378567    51.397837  0.027633245  0.029659293            3 
  156000    1.0203592   -6.7732446    51.481982  0.027501059  0.029585939            4 
  157000    1.0202778   -6.8101272    51.576446  0.027376033  0.029508753           12 
  158000     1.019319   -6.7584134    51.949205   0.02739937  0.029433001            8 
  159000    1.0054885   -6.7246666    52.040636  0.027274966  0.029354375            3 
  160000    1.0156212   -6.7744352    52.453076   0.02731931  0.029279813            2 
  161000    1.0012996    -6.813664    52.564428  0.027207261  0.029208429            5 
  162000    1.0126033   -6.7708067    52.993948  0.027260261  0.029136417            2 
  163000    1.0126235   -6.7549875    53.302772  0.027250906  0.029064264            5 
  164000   0.99989993   -6.7756488    53.298462  0.027082552  0.028993148            2 
  165000    1.0065959   -6.7980591    53.450284  0.026995093  0.028921442            8 
  166000    1.0239552   -6.7990832     53.64199   0.02692871  0.028849145            3 
  167000    1.0110005   -6.8179502    53.974417  0.026933342  0.028777383            3 
  168000    1.0378207   -6.8270838    54.177332  0.026873676  0.028705058            4 
  169000   0.99350132   -6.8611982    54.337483  0.026793631  0.028632701            7 
  170000    0.9824959   -6.8465599    54.522151  0.026726544  0.028562023            5 
  171000    0.9920962   -6.8343079    54.824009  0.026717353  0.028490996            3 
  172000    1.0058414   -6.8632458    54.849421  0.026574332  0.028418744            3 
  173000    0.9966633   -6.8185049    55.023835  0.026504737  0.028344727            5 
  174000   0.98735893   -6.8736556    55.475535  0.026568743  0.028273825            3 
  175000   0.97084714   -6.8608989    55.561499  0.026457856  0.028203133            7 
  176000   0.99760982   -6.8802585    55.835632  0.026437326   0.02813289            4 
  177000   0.99677608   -6.9123288    55.775556  0.026259678   0.02805967            5 
  178000     1.000208   -6.8601897    55.910201  0.026175188  0.027983938            3 
  179000    1.0066043   -6.8864358    56.059612  0.026098516  0.027907288            3 
  180000   0.98119075   -6.8997232    56.136369   0.02598906  0.027829291            6 
  181000   0.96708478   -6.8480727    56.364734  0.025950614    0.0277511            3 
  182000   0.96192596     -6.90764    56.462593  0.025852835  0.027673019            5 
  183000   0.97801182   -6.8623552    56.776776  0.025854634  0.027592983            2 
  184000   0.99343381   -6.9090549    56.669731  0.025665639  0.027513759            5 
  185000   0.97144102   -6.8603004    57.146843  0.025741821  0.027435301            3 
  186000   0.97718418    -6.895197    57.024567  0.025548641  0.027357131            5 
  187000   0.97044254    -6.898615    57.459509  0.025605842  0.027278038            4 
  188000   0.96064514   -6.9070864    57.543205   0.02550674  0.027201222            7 
  189000   0.99060628   -6.9419074    57.640038  0.025414479  0.027123898            3 
  190000   0.96343745   -6.9403884    57.624222  0.025273781  0.027046179            3 
  191000   0.94752973   -6.9077055    57.941129  0.025279725  0.026968457            6 
  192000   0.97731857   -6.9204309    58.133806  0.025231687  0.026890097            6 
  193000   0.94631824   -6.9092447    58.527473   0.02527093  0.026812747            8 
  194000   0.98912375   -6.9744918     58.34365  0.025061705   0.02673552            7 
  195000   0.96834608   -6.9779092    58.484392   0.02499333  0.026657436            9 
  196000   0.95401081   -6.9886317      58.5149  0.024878784  0.026577795            5 
  197000    0.9572296   -6.9363474    59.029086  0.024970002  0.026497376            3 
  198000   0.96406474   -6.9537589    59.068338  0.024860412  0.026419422            5 
  199000   0.94001341    -6.958722    59.306086  0.024835044  0.026342101            4 
  200000   0.95929095   -6.9827526    59.378197  0.024740915  0.026264233            3 
  201000   0.96147006   -6.9708472    59.592428  0.024706645  0.026187222            8 
  202000   0.95171872   -6.9645434    59.611165  0.024592065  0.026110902            9 
  203000   0.94747534    -6.925266    60.028681  0.024642315   0.02603495            3 
  204000   0.93546102   -6.9991945    60.062184  0.024535206  0.025960736            3 
  205000   0.94080093   -7.0327149    60.027997  0.024401625  0.025885517            5 
  206000   0.94361234   -7.0019285    60.549831  0.024494268  0.025810384            4 
  207000   0.94443811   -7.0367356    60.374199  0.024305233  0.025735325            4 
  208000   0.95169292   -6.9750357     60.85348  0.024380401  0.025660127            2 
  209000   0.92507004   -6.9886287    60.841543  0.024258988   0.02558567            5 
  210000   0.92180211   -6.9773566    60.985386   0.02420055  0.025512492            4 
  211000   0.95751777   -7.0326215     60.94132  0.024068452  0.025438904            4 
  212000   0.92266126   -7.0052496    61.215642  0.024062752  0.025364994            4 
  213000   0.93342312   -7.0383233    61.331207  0.023994995  0.025289126            4 
  214000   0.91809345   -7.0446215    61.440404  0.023925391  0.025212154            3 
  215000   0.93908265   -7.0346494     61.54743  0.023855593   0.02513598            6 
  216000   0.94158343   -7.0675695    61.428563  0.023699291  0.025060396           11 
  217000    0.8982496   -7.0426113    61.673563  0.023684164  0.024984741           10 
  218000   0.91845272   -7.0793714    62.019568  0.023707786  0.024909863            5 
  219000   0.88898368   -7.0621094    62.035878  0.023605738  0.024834035            4 
  220000   0.92976767   -7.0519301    62.241621  0.023576371  0.024759402            6 
  221000   0.94088705   -7.0296893    62.401933  0.023530141  0.024685577            6 
  222000   0.91543714   -7.0477151    62.399076  0.023423077  0.024611938            9 
  223000   0.90428272   -7.1039415    62.228316  0.023254229  0.024537462            5 
  224000   0.90018534    -7.044866     62.62561  0.023298218  0.024462457            7 
  225000    0.9224588   -7.0823096    62.478746  0.023140276  0.024387999            5 
  226000     0.911449   -7.0733265     63.03143  0.023241678  0.024313168            7 
  227000   0.89756491   -7.0523966    63.103353  0.023165695  0.024240768            4 
  228000   0.90778218   -7.1393415    62.779879  0.022945862  0.024166698            7 
  229000   0.89250335   -7.0793513    63.315404   0.02304054   0.02409329            4 
  230000   0.90540708   -7.0809969     63.40056  0.022971217  0.024020443            7 
  231000   0.90192168    -7.098835    63.351667  0.022854137  0.023946778            9 
  232000   0.90312584   -7.1163686    63.427368  0.022782819  0.023871968           10 
  233000   0.89410676    -7.094928    63.265722  0.022627225  0.023796687            5 
  234000   0.88027943   -7.1245775    63.267654  0.022531216   0.02372115            3 
  235000   0.89852891   -7.1329582    63.447532  0.022499125  0.023645424            4 
  236000   0.88048983     -7.11652    63.512325  0.022426669  0.023569836            7 
  237000    0.8968296   -7.1581911    63.777387  0.022425241  0.023494622            7 
  238000   0.88732281   -7.1613912    63.691229   0.02230085  0.023419033           14 
  239000   0.86940433   -7.1288105    64.012808  0.022319668  0.023343619            9 
  240000   0.88324136   -7.1719096    64.214009  0.022296531  0.023268959            9 
  241000   0.88469958   -7.1827118    64.014501  0.022135028  0.023193746            6 
  242000   0.88068858   -7.1733943    64.120126  0.022079933  0.023118183           10 
  243000    0.8774357   -7.1684229    64.232003  0.022027436  0.023042858            4 
  244000   0.88498784   -7.1893746    63.919287  0.021830358  0.022967421            9 
  245000   0.86919681    -7.155002    64.144809  0.021817962  0.022891065           17 
  246000   0.89228795   -7.1581874    64.247216  0.021763962  0.022814612            8 
  247000   0.89745119   -7.2080601    64.150647  0.021643268  0.022736936            8 
  248000   0.88212903    -7.167798    64.396241  0.021638522  0.022660501            6 
  249000   0.85566713   -7.2233217    64.636013  0.021631865  0.022585025            7 
  250000   0.85428782   -7.1885415    64.553818  0.021517939  0.022509921            3 
  251000   0.87723778   -7.2144238     64.65478   0.02146573  0.022435093            8 
  252000   0.85049498   -7.2026135    64.969172  0.021484514  0.022360292           12 
  253000   0.86338095   -7.2046251    64.964402  0.021398024  0.022286192            9 
  254000   0.84715049   -7.2349273    64.968053  0.021314978  0.022212683           10 
  255000   0.83878122   -7.2686681    64.887011  0.021204906  0.022138622           11 
  256000   0.86556106   -7.2438726    65.093765  0.021189376   0.02206446            6 
  257000   0.86693853   -7.2286514     65.22136  0.021148301  0.021990577            8 
  258000   0.87572628   -7.2281339    65.247084  0.021074639  0.021917681            6 
  259000   0.85184251   -7.2977767     65.23484  0.020989331  0.021844679            5 
  260000    0.8571659   -7.2614804      65.4401  0.020974391  0.021771607            8 
  261000   0.85592566   -7.2462178    65.428375  0.020890286  0.021698311           11 
  262000    0.8418497    -7.242311    65.586593  0.020860876  0.021625328            5 
  263000   0.84844389   -7.2907811     65.44362  0.020736255  0.021552962            6 
  264000   0.84613392   -7.2432202    65.626803  0.020715531   0.02148083           13 
  265000   0.85575098   -7.2833458    65.452749  0.020582625  0.021407689           25 
  266000   0.84979924   -7.2775345    65.544917  0.020534122  0.021334367            6 
  267000   0.84537359   -7.2828455    65.577248  0.020467306  0.021260958            6 
  268000   0.82271645   -7.2587518    65.727969  0.020437801   0.02118869           10 
  269000   0.84568502   -7.2497241    66.034509  0.020456787  0.021117863            9 
  270000   0.84387828   -7.2702323    65.972807  0.020361978  0.021046844            5 
  271000   0.84224596    -7.312006    65.950122  0.020279865  0.020975804            8 
  272000   0.84216281   -7.2687286    66.057193  0.020238111  0.020904772            5 
  273000    0.8315133   -7.3000998    66.108314  0.020179583  0.020834523            6 
  274000    0.8320193   -7.3319042    65.972175   0.02006453  0.020763884            7 
  275000   0.83483965   -7.3172431    66.248526  0.020075311   0.02069249            9 
  276000   0.82915075   -7.3207237    66.200326  0.019988021  0.020621791           11 
  277000   0.81227523   -7.3589818    66.172901  0.019907612  0.020551464            9 
  278000   0.82494181   -7.3500268    66.363713  0.019893199  0.020481465           16 
  279000   0.81948315   -7.3373157    66.270331  0.019794006  0.020411349           22 
  280000   0.82400038   -7.3252263    66.462777  0.019780588  0.020341884           11 
  281000   0.82500436   -7.3819282    66.572819  0.019742829  0.020272655            9 
  282000   0.82421242   -7.3576967    66.647596  0.019694916  0.020203604           18 
  283000   0.80159596   -7.3837591    66.582936  0.019606283  0.020134642           16 
  284000    0.8302966   -7.3689887    66.642714  0.019554787  0.020065642           10 
  285000   0.80211733   -7.3966486    66.486188  0.019440406  0.019996934           29 
  286000   0.80169768   -7.3990963    66.773577   0.01945617  0.019928299           10 
  287000   0.81130935   -7.3861255    66.719585  0.019372702  0.019859464           21 
  288000   0.81490211   -7.4046828     66.75904  0.019316852  0.019790904           10 
  289000    0.8149209   -7.4164258    66.658318  0.019220968  0.019722294            7 
  290000   0.78280233   -7.3884966     66.89413  0.019222451   0.01965423           18 
  291000    0.7984782   -7.3952031    66.776007  0.019122568   0.01958667            8 
  292000    0.7943461   -7.4003967    66.886929  0.019088736  0.019519681            8 
  293000    0.8074059   -7.3958419    67.225349  0.019119837  0.019453435            7 
  294000   0.79671351   -7.3904513    67.175799  0.019040759  0.019387001           21 
  295000    0.7833397   -7.3802905    67.166656  0.018973632  0.019320747           18 
  296000   0.79030675   -7.4083069    67.100388  0.018890875  0.019254534            5 
  297000   0.79203599   -7.4257115    67.089029  0.018824082  0.019188185           12 
  298000   0.78549845   -7.4200705    67.156005  0.018779644  0.019121863           14 
  299000   0.79505349   -7.4670201    67.168786  0.018720398  0.019055882           14 
  300000   0.78011484   -7.4348643    67.499398  0.018749833   0.01899052            8 
  301000   0.79254469   -7.4290226     67.58958  0.018712508   0.01892584            5 
  302000   0.78629433   -7.4504107    67.689131  0.018678016  0.018861895           12 
  303000   0.78181849   -7.4295397    67.785811  0.018642962  0.018798266            8 
  304000   0.79018596   -7.4177793    67.887199   0.01860943  0.018735334            5 
  305000   0.78328672   -7.4041975     67.87624  0.018545421  0.018673171           15 
  306000    0.7726496   -7.4623835    67.823071  0.018470335  0.018611523           13 
  307000   0.77483709   -7.4633985    67.991185  0.018455805  0.018549758            6 
  308000   0.78838004   -7.4403065    68.098905  0.018425028  0.018488229            6 
  309000   0.77897533   -7.4513413    67.862107  0.018301539  0.018426817            9 
  310000   0.75873781   -7.4668842     67.94862  0.018265758  0.018365518            8 
  311000   0.77661555   -7.4664631    68.034435   0.01823002  0.018304795            6 
  312000   0.74938734   -7.4759765    68.181107  0.018210766  0.018244238            9 
  313000   0.77388772   -7.4937764    68.270267  0.018176322  0.018183986            4 
  314000   0.76713562   -7.5105975     67.94714  0.018032681  0.018123671           11 
  315000   0.74971682   -7.4777661    68.355475  0.018083459  0.018063505           16 
  316000   0.77201578   -7.5010686    68.250675  0.017998596  0.018003314           15 
  317000   0.75344083   -7.5171922    68.185971  0.017924808  0.017943266           11 
  318000   0.75896915   -7.5479667    68.243353  0.017883478   0.01788326           24 
  319000   0.74569426   -7.5591489     68.02699  0.017770896  0.017823286           25 
  320000    0.7570703   -7.5059767    68.253335  0.017774306  0.017763386           17 
  321000   0.77166271   -7.5141857    68.304516  0.017732221  0.017703821           28 
  322000   0.75242663   -7.5520674     68.29919  0.017675774  0.017644604           28 
  323000   0.75241497   -7.5874443    68.285013  0.017617392  0.017584951           57 
  324000   0.74734276   -7.5625977    68.297499  0.017566229  0.017525346           46 
  325000   0.75782894   -7.5754999    68.364125  0.017529263  0.017465919           18 
  326000   0.73676514   -7.5542266    68.396064  0.017483656  0.017406896           25 
  327000   0.75952205   -7.5766683    68.318798  0.017410499  0.017347568           18 
  328000   0.74145153   -7.5819798    68.326837  0.017359461  0.017288215           27 
  329000   0.76623272   -7.5679624    68.312751  0.017303129  0.017229271           24 
  330000    0.7263083    -7.606382    68.156922  0.017211344  0.017170225           49 
  331000   0.71862092    -7.636439    68.256535  0.017184425  0.017111271           33 
  332000   0.75320412    -7.602726    68.262425  0.017134143  0.017052437           52 
  333000   0.74518008   -7.6228383    68.272209  0.017085137  0.016993483           50 
  334000   0.72858162   -7.6224311    68.235178  0.017024745  0.016934603           52 
  335000   0.72504538   -7.6521767    68.255483  0.016978976  0.016875854           45 
  336000    0.7457749   -7.6085453      68.2538  0.016928026  0.016817378           74 
  337000   0.73721155   -7.6428661    68.347969   0.01690108  0.016759005           34 
  338000   0.73074199    -7.625378    68.294668  0.016837936   0.01670067           26 
  339000   0.72671013   -7.6523929    68.163556  0.016756036  0.016642126           43 
  340000   0.70081542   -7.6651837    68.254998  0.016729166  0.016583815           79 
  341000   0.71570692   -7.6860078    68.321672  0.016696401  0.016525454           77 
  342000   0.71276093   -7.6477207    68.193466  0.016616342  0.016467153           43 
  343000   0.70909738   -7.6908908    68.221474  0.016574702  0.016409219           73 
  344000   0.71755755   -7.6785253    68.140034  0.016506791  0.016351133           74 
  345000   0.72068794   -7.6698923    68.288585  0.016494827  0.016293416           32 
  346000   0.70574171   -7.6637913    68.074515  0.016395596  0.016235786           50 
  347000   0.70968702   -7.6877594    68.029511  0.016337539  0.016178436           38 
  348000   0.71386587   -7.6941331    68.174657  0.016325349  0.016121404           50 
  349000   0.71657602   -7.7076876    68.303754  0.016309397   0.01606463           36 
  350000   0.70235481   -7.6944175    68.182825  0.016234006  0.016007891           37 
  351000   0.70146826   -7.6963515    68.295131  0.016214418  0.015951658           37 
  352000   0.70139853   -7.6917665     68.15645  0.016135523  0.015895486           44 
  353000   0.71722076    -7.690257    68.440762  0.016156931   0.01583952           44 
  354000   0.70214342   -7.7072617      68.3011  0.016078413   0.01578388           33 
  355000   0.69828892   -7.7176509    68.200667  0.016009546  0.015727908           30 
  356000   0.69153963    -7.714476    68.240697  0.015973946  0.015672127           29 
  357000    0.6934488    -7.720088    68.154118  0.015908991  0.015616505           48 
  358000    0.6984109   -7.7318583    68.096612  0.015851167  0.015560968           51 
  359000   0.70340868   -7.7099555    68.116684  0.015811672  0.015505623           29 
  360000   0.69897467    -7.732742     68.24086  0.015796495  0.015450489           37 
  361000   0.67804896   -7.7222418    68.355848  0.015779282  0.015395407           90 
  362000   0.68660426    -7.765733    68.091946  0.015674942  0.015340632           45 
  363000   0.68686029   -7.7374784    68.159643  0.015647301  0.015285868           47 
  364000   0.68491203   -7.7647212     68.24746  0.015624418  0.015231491           39 
  365000   0.67581395   -7.7370122    68.269315  0.015586602  0.015177343           52 
  366000   0.69077274   -7.7605738    68.075031  0.015499779  0.015123042           57 
  367000   0.67273277    -7.782069     68.03073  0.015447486  0.015068995           37 
  368000   0.66813282   -7.7714375    68.180392    0.0154394  0.015015255           45 
  369000   0.68214305   -7.7780199    68.165673  0.015394235  0.014961562           55 
  370000   0.66750705   -7.7930547    68.098247  0.015337443  0.014908092           64 
  371000   0.67518609   -7.7818371     68.21416  0.015322138  0.014854951           56 
  372000   0.67057178   -7.7822314    68.083986  0.015251789  0.014801993           43 
  373000   0.67837246   -7.7875264    68.252571  0.015248564  0.014749204           72 
  374000   0.66009786   -7.7950154    68.081816  0.015169745   0.01469662           92 
  375000   0.67063856   -7.8071506    68.145989  0.015143553  0.014643998           97 
  376000   0.66925243   -7.8305039    68.106681  0.015094566  0.014591628           96 
  377000   0.67783698   -7.8109141    68.118517  0.015057143  0.014539508           60 
  378000    0.6565328   -7.8229971    68.074115  0.015007521  0.014487567          103 
  379000   0.65762861   -7.8129465    68.100932   0.01497382   0.01443591           82 
  380000   0.68159575   -7.8222692    68.041505  0.014921383  0.014384415           43 
  381000    0.6483482   -7.8303164    68.041701  0.014882262  0.014333176           49 
  382000   0.66659534    -7.846592    68.129435  0.014862442  0.014282183           65 
  383000   0.63976017   -7.8290887    68.090719  0.014815213  0.014231339           72 
  384000   0.65371201   -7.8615232    68.153058   0.01479016  0.014180631           65 
  385000   0.66753106   -7.8303758    68.075197  0.014734891  0.014130032           70 
  386000   0.65263288   -7.8432817    68.009851   0.01468261  0.014079609           78 
  387000   0.66226223   -7.8441845    68.185548  0.014682504  0.014029529           90 
  388000   0.65080129    -7.865047    68.077607  0.014621479  0.013979716           56 
  389000   0.65271738   -7.8675784    68.114414  0.014591777  0.013929888           87 
  390000   0.64040985   -7.8716949    68.020009   0.01453419  0.013880185           67 
  391000    0.6560529   -7.8683294     68.09135  0.014512223  0.013830805           44 
  392000   0.65037179   -7.8877536    68.001238  0.014456046  0.013781646           61 
  393000   0.66183064   -7.9008104    68.024163  0.014424123  0.013732554          130 
  394000   0.61850127   -7.8980036    67.933107  0.014368254  0.013683568           55 
  395000   0.62257616   -7.8500505    68.156141  0.014378933  0.013634769          112 
  396000   0.62955815   -7.8721464    68.160864  0.014343616  0.013586317           94 
  397000   0.62601871   -7.9043274    68.039518  0.014282015  0.013538013           65 
  398000    0.6221297   -7.8790588    68.048723  0.014248058  0.013489894           38 
  399000    0.6284199   -7.8887249    68.152534   0.01423403  0.013442012           57 
  400000   0.62317707   -7.8814707    68.069802  0.014181209  0.013394272           64 
  401000   0.62100725   -7.8944196    68.008963  0.014133201  0.013346831          122 
  402000   0.62920348   -7.9128073    67.992701  0.014094673  0.013299448           59 
  403000   0.63326481   -7.9087892    68.068233  0.014075317  0.013252347          132 
  404000   0.63340748   -7.9070835    67.982241   0.01402274  0.013205326           73 
  405000   0.62170341    -7.942648    68.006907  0.013993191  0.013158472           54 
  406000   0.60714903   -7.9152415    67.987052  0.013954649  0.013111685           89 
  407000   0.61887973   -7.9140742    67.932735  0.013909241  0.013065295           73 
  408000   0.60423912   -7.9166039    67.975786  0.013883943  0.013019013           79 
  409000   0.60097621   -7.9237491    68.009118  0.013856789  0.012973007           58 
  410000   0.60454438   -7.9331067    67.977906  0.013816648  0.012927198           56 
  411000   0.62402463   -7.9383288    68.023548  0.013792285  0.012881505           59 
  412000   0.61641208   -7.9225608    67.890723  0.013731942  0.012835915           55 
  413000   0.59321935   -7.9444067    67.952755   0.01371121  0.012790587           61 
  414000   0.62487153   -7.9375324    68.048174  0.013697297  0.012745464           65 
  415000   0.61195409   -7.9446677    67.979646  0.013650531  0.012700509           91 
  416000   0.60854824   -7.9625261    67.897892   0.01360134  0.012655592          113 
  417000   0.61085935   -7.9370651    67.953388  0.013579814  0.012610827          150 
  418000   0.60042281    -7.943745    67.849712  0.013526657  0.012566352           93 
  419000    0.5963773   -7.9685362     68.01187  0.013526625  0.012521872          105 
  420000   0.59292115   -7.9612745    67.919924  0.013476175  0.012477567          105 
  421000   0.59185298   -7.9801946    67.875349  0.013435342  0.012433465           77 
  422000   0.58236021   -7.9553515    67.894368  0.013407261  0.012389529          200 
  423000   0.59361368   -7.9602894    67.801658  0.013357301  0.012345852          186 
  424000   0.58091885    -7.971405    67.695758  0.013304984  0.012302374           80 
  425000   0.57955864    -7.968528    67.775484   0.01328931  0.012258977           71 
  426000   0.58954002   -7.9560498    67.940612  0.013290417  0.012215952           78 
  427000   0.58636232   -7.9780362    67.906352  0.013252606  0.012173005          148 
  428000   0.58602907   -7.9782897    67.747726  0.013190757  0.012130133           78 
  429000   0.58608327   -7.9956538    67.779445   0.01316617  0.012087409          101 
  430000    0.5776871   -7.9790943    67.812578  0.013141972  0.012044936          138 
  431000   0.57352813   -8.0215213    67.681913  0.013086217  0.012002426           88 
  432000   0.57908134   -7.9988998    67.687911  0.013057082  0.011960156           97 
  433000   0.56712178   -7.9876343    67.816409  0.013051657  0.011918137           77 
  434000   0.58001093   -7.9936881     67.82036  0.013022342  0.011876299           90 
  435000   0.57145098   -8.0077256    67.789294  0.012986455  0.011834751           73 
  436000   0.57502426   -8.0102031    67.758561  0.012950795  0.011793219           53 
  437000   0.56796725   -8.0063017    67.779296  0.012925114  0.011752004           58 
  438000    0.5804242    -8.021074    67.735483  0.012887268  0.011710929           66 
  439000   0.56645127   -8.0203383    67.760821  0.012862722  0.011669835           52 
  440000   0.55352102   -8.0283024    67.620551  0.012806922  0.011628998           65 
  441000   0.55992274   -8.0280191    67.717876  0.012796273  0.011588275          122 
  442000   0.57699846   -8.0296246    67.610295  0.012747039  0.011547824           49 
  443000   0.55676217   -8.0308277    67.643013  0.012724419  0.011507425          112 
  444000   0.56027482   -8.0367171    67.741624  0.012714269  0.011467223          116 
  445000   0.55378824   -8.0312152    67.669018  0.012672101  0.011427161           66 
  446000   0.56188081   -8.0326548     67.64844  0.012639843  0.011387427           95 
  447000   0.56408063   -8.0504387    67.597893  0.012602143  0.011347825           71 
  448000   0.55362533   -8.0390447    67.636621  0.012581217  0.011308242          120 
  449000   0.54894391   -8.0559911    67.574037  0.012541581  0.011268874           79 
  450000   0.55267096   -8.0524103    67.505908  0.012501094  0.011229613           89 
  451000   0.54396549   -8.0650088    67.520982  0.012476161  0.011190437           70 
  452000   0.53746101   -8.0834543    67.633839  0.012469366  0.011151514           74 
  453000   0.54278999   -8.0622623    67.503359  0.012417836  0.011112776          107 
  454000   0.54429036   -8.0693595    67.526312  0.012394698  0.011074185           69 
  455000   0.53343237   -8.0646911    67.574881  0.012376352  0.011035711           88 
  456000   0.53000453    -8.076378    67.569022   0.01234814  0.010997438           77 
  457000   0.52913858   -8.0732044    67.485131  0.012305822  0.010959329           78 
  458000   0.53735105    -8.085395    67.431726  0.012269237   0.01092132           71 
  459000   0.53233071   -8.0789843    67.366893  0.012230736  0.010883356           78 
  460000   0.53054986    -8.068758    67.486507  0.012225816  0.010845668          118 
  461000   0.53392413   -8.0915565    67.300548  0.012165681  0.010808073           82 
  462000   0.52359391   -8.0828327    67.358772  0.012149851  0.010770636          121 
  463000   0.52982991   -8.0858098    67.352378  0.012122458  0.010733403           73 
  464000   0.51905717   -8.1170583    67.363637  0.012098354  0.010696326           76 
  465000   0.52053229   -8.1011099    67.294653  0.012059974  0.010659355           74 
  466000   0.53231153   -8.0925685    67.317994  0.012038268  0.010622619           86 
  467000   0.52127382   -8.1118617    67.405093  0.012028032  0.010586041           96 
  468000   0.52347655   -8.1163062    67.424233   0.01200574  0.010549576           76 
  469000     0.515439   -8.1214466    67.385122  0.011973192  0.010513304          120 
  470000   0.53139755   -8.1180689    67.301718  0.011932929  0.010477139           59 
  471000   0.51251209    -8.114625    67.474703  0.011938199  0.010441167           82 
  472000   0.51140871   -8.1090668    67.394084  0.011898673  0.010405389           85 
  473000   0.50359021    -8.122579    67.351149  0.011865953   0.01036976           82 
  474000    0.5069103   -8.1108072    67.386484  0.011847131  0.010334224           75 
  475000   0.51229128    -8.137053    67.366475   0.01181868  0.010298888          102 
  476000   0.50706787   -8.1264878    67.435452  0.011805926  0.010263761           95 
  477000   0.52145586   -8.1138925     67.30933  0.011759142  0.010228751           68 
  478000   0.49980703   -8.1249145    67.400684  0.011750468  0.010193924           83 
  479000   0.50735913   -8.1316151    67.325234   0.01171281  0.010159168           68 
  480000   0.50025493   -8.1344567    67.378183  0.011697601  0.010124567           77 
  481000   0.49821542   -8.1182368    67.254244  0.011651809  0.010090106           70 
  482000   0.49949952   -8.1414457    67.365193  0.011646818  0.010055827           91 
  483000   0.49246098   -8.1480164    67.310833  0.011613325  0.010021701           96 
  484000   0.49888679    -8.118013    67.204173  0.011570966 0.0099876661           86 
  485000   0.48260807   -8.1634426    67.356146  0.011573221 0.0099538038          155 
  486000   0.48975216   -8.1624666    67.234703  0.011528584 0.0099201238           72 
  487000   0.48936495   -8.1669244    67.264234  0.011509965 0.0098865279           81 
  488000   0.48431149   -8.1590288    67.085574   0.01145587 0.0098530869          166 
  489000   0.48603785   -8.1668185    67.297482  0.011468555 0.0098197825           97 
  490000   0.48148597   -8.1594379    67.334881   0.01145151  0.009786589           88 
  491000   0.47010096    -8.162938    67.329724  0.011427312 0.0097535503          143 
  492000   0.48154253   -8.1578498    67.194271  0.011381143 0.0097206505          106 
  493000   0.47442725   -8.1872313    67.196839  0.011358492 0.0096878111          172 
  494000   0.48581005    -8.176276    67.144436  0.011326659 0.0096551773           69 
  495000    0.4700812   -8.1822092    67.254874  0.011322369 0.0096226323           90 
  496000   0.47237609   -8.1805459    67.238169  0.011296735 0.0095902364           87 
  497000   0.48651206   -8.2065106    67.111486  0.011252764 0.0095580256           89 
  498000   0.47101331   -8.1874689    67.128117  0.011232951 0.0095259304          245 
  499000   0.46591004   -8.2027858    67.240504  0.011229209 0.0094939965           87 
  500000   0.46251939   -8.1764862    67.396287  0.011232714 0.0094621981          175 
  501000   0.47452096   -8.1955846    67.228236  0.011182341 0.0094305411          101 
  502000   0.46132013   -8.1924141    67.105783  0.011139738 0.0093989857          108 
  503000   0.46581615   -8.1900971     67.21042  0.011134927  0.009367559          159 
  504000   0.47389236   -8.2109019    67.160598  0.011104596 0.0093362808          154 
  505000   0.45811934   -8.1968946    67.124067  0.011076579 0.0093050634          158 
  506000   0.46652021   -8.2035916    67.111827  0.011052672 0.0092740289          175 
  507000   0.46552866    -8.212033     67.11113  0.011030758  0.009243148          162 
  508000   0.45583734   -8.2133168    67.084732  0.011004713 0.0092123437          108 
  509000     0.461551   -8.2052952    67.080166  0.010982345 0.0091817458           80 
  510000   0.45548786   -8.2204985    67.038759  0.010954046 0.0091512314          207 
  511000   0.44060448   -8.2289903    67.056389  0.010935484 0.0091208605          131 
  512000   0.45755395   -8.2237063    67.066444  0.010915762 0.0090906143          196 
Loop time of 1307.7 on 48 procs for 500000 steps with 4000 atoms

Performance: 66070.033 tau/day, 382.350 timesteps/s
99.4% CPU use with 48 MPI tasks x no OpenMP threads

MPI task timing breakdown:
Section |  min time  |  avg time  |  max time  |%varavg| %total
---------------------------------------------------------------
Pair    | 92.611     | 100.35     | 107.29     |  36.5 |  7.67
Neigh   | 9.1938     | 9.5361     | 9.9443     |   5.7 |  0.73
Comm    | 85.306     | 91.826     | 100.67     |  37.3 |  7.02
Output  | 0.99594    | 0.99664    | 1.0174     |   0.3 |  0.08
Modify  | 1089.3     | 1092.7     | 1095.6     |   4.4 | 83.56
Other   |            | 12.32      |            |       |  0.94

Nlocal:        83.3333 ave          89 max          76 min
Histogram: 1 2 2 6 7 5 13 7 3 2
Nghost:        2427.23 ave        2449 max        2412 min
Histogram: 2 6 8 8 7 9 4 3 0 1
Neighs:        16793.0 ave       19640 max       14226 min
Histogram: 4 4 6 6 7 3 6 7 3 2
FullNghs:      33585.9 ave       36096 max       30542 min
Histogram: 1 2 4 3 9 7 10 8 2 2

Total # of neighbors = 1612121
Ave neighs/atom = 403.03025
Neighbor list builds = 26653
Dangerous builds = 0

#clear
#
#next RN
#
#jump SELF
Total wall time: 0:21:51
