
units lj                  # Use reduced LJ style units
atom_style atomic         # Uncharged point particles
atom_modify map hash      # Needed for indexing of clusters etc
                          # Used to be able to find where atoms are in relation to each other.

lattice fcc 1.0 spacing 1 1 1
Lattice spacing in x,y,z = 1.5874011 1.5874011 1.5874011
region box block 0 10 0 10 0 10 units lattice
create_box 2 box
Created orthogonal box = (0.0000000 0.0000000 0.0000000) to (15.874011 15.874011 15.874011)
  3 by 4 by 4 MPI processor grid
create_atoms 1 box
Created 4000 atoms
  using lattice units in orthogonal box = (0.0000000 0.0000000 0.0000000) to (15.874011 15.874011 15.874011)
  create_atoms CPU = 0.002 seconds
set type 1 type/fraction 2 0.21 78393
Setting atom values ...
  872 settings made for type/fraction
mass 1 1.0
mass 2 1.0
pair_style lj/cut  3.5
pair_modify tail  yes
pair_coeff 1  1  1.0  1.0   # Intearaction between 1 and 1 set with epsilon = 1 and sigma = 1
pair_coeff 1  2  1.5  0.8
pair_coeff 2  2  0.5  0.88

write_data data.0
System init for write_data ...
Neighbor list info ...
  update every 1 steps, delay 10 steps, check yes
  max neighbors/atom: 2000, page size: 100000
  master list distance cutoff = 3.8
  ghost atom cutoff = 3.8
  binsize = 1.9, bins = 9 9 9
  1 neighbor lists, perpetual/occasional/extra = 1 0 0
  (1) pair lj/cut, perpetual
      attributes: half, newton on
      pair build: half/bin/atomonly/newton
      stencil: half/bin/3d
      bin: standard
WARNING: Not all mixed pair coeffs generated from mixing. Use write_data with 'pair ij' option to store all pair coeffs. (../write_data.cpp:312)


#############################
#   M E L T   S Y S T E M   #
#############################

velocity all create 2.4 9580093 mom yes dist gaussian # Assign velocities
                                                    # Temperature 2.4, random number seed, zero linear momentum
                                                                                # Gaussian distribution

timestep 0.002   # simulation timestep
thermo 1000       # output thermodynamic data every 1000 steps bf 100

# Define a fix  in this case with index 1 applied to all
# particles in the simulation. This fix is for simulations
# in the anisotropic NPT ensemble. Note that we use the MTK
# correction.
fix 1 all npt temp 2.4 2.4 0.1 iso 5.68 5.68 0.5 mtk yes tchain 5 pchain 5 # Use NPT ensemble
                                                                         # Set temperature and pressure and damping
                                                                         # Numbers of thermostats in chain and in barostat
run 10000          # run for 10000 steps
Per MPI rank memory allocation (min/avg/max) = 3.642 | 3.644 | 3.648 Mbytes
Step Temp E_pair E_mol TotEng Press Volume 
       0          2.4   -6.9803555            0   -3.3812555   -3.6586826         4000 
    1000    2.4013562   -4.8835689            0   -1.2824351    5.7353217    4415.9375 
    2000    2.3955398   -4.8404997            0   -1.2480883    5.5080936    4457.4433 
    3000    2.3640413   -4.8476066            0   -1.3024312    5.7145448    4435.9225 
    4000    2.3613352   -4.8977576            0   -1.3566403     5.450823    4423.9939 
    5000    2.4096365    -4.863698            0   -1.2501469    5.7894606    4421.3314 
    6000    2.3821616    -4.872899            0     -1.30055    5.7180993    4428.3254 
    7000    2.4277947   -4.7826857            0   -1.1419041    5.6666671    4473.0749 
    8000    2.3935576   -4.8896708            0   -1.3002319    5.5376246    4434.5346 
    9000    2.4149944   -4.8613325            0   -1.2397465    5.8402706    4419.9405 
   10000    2.4032543   -4.8338259            0   -1.2298458    5.7036878    4444.5437 
Loop time of 2.45867 on 48 procs for 10000 steps with 4000 atoms

Performance: 702819.746 tau/day, 4067.244 timesteps/s
99.4% CPU use with 48 MPI tasks x no OpenMP threads

MPI task timing breakdown:
Section |  min time  |  avg time  |  max time  |%varavg| %total
---------------------------------------------------------------
Pair    | 0.94402    | 1.0373     | 1.1265     |   3.6 | 42.19
Neigh   | 0.19728    | 0.20569    | 0.25292    |   1.8 |  8.37
Comm    | 0.67005    | 0.82454    | 0.94518    |   7.6 | 33.54
Output  | 0.00024267 | 0.00024736 | 0.00030982 |   0.0 |  0.01
Modify  | 0.30936    | 0.37634    | 0.46703    |   8.5 | 15.31
Other   |            | 0.01451    |            |       |  0.59

Nlocal:        83.3333 ave          94 max          70 min
Histogram: 1 1 4 3 8 11 6 10 2 2
Nghost:        1530.12 ave        1560 max        1504 min
Histogram: 5 7 3 4 3 13 4 2 4 3
Neighs:        8586.38 ave        9912 max        7198 min
Histogram: 2 1 8 6 10 4 5 7 2 3

Total # of neighbors = 412146
Ave neighs/atom = 103.03650
Neighbor list builds = 909
Dangerous builds = 224

# Equilibrate just above the melting temperature to avoid step fn in T

fix 1 all npt temp 1.25 1.25 0.1 iso 5.68 5.68 0.5 mtk yes tchain 5 pchain 5
run 2000
Per MPI rank memory allocation (min/avg/max) = 3.643 | 3.645 | 3.649 Mbytes
Step Temp E_pair E_mol TotEng Press Volume 
   10000    2.4032543   -4.8338259            0   -1.2298458    5.7036878    4444.5437 
   11000    1.2458058   -6.6009371            0   -4.7326955    5.6074703    3611.7247 
   12000    1.2676176   -6.5845552            0   -4.6836042     5.769523    3613.9298 
Loop time of 0.493602 on 48 procs for 2000 steps with 4000 atoms

Performance: 700158.880 tau/day, 4051.845 timesteps/s
99.6% CPU use with 48 MPI tasks x no OpenMP threads

MPI task timing breakdown:
Section |  min time  |  avg time  |  max time  |%varavg| %total
---------------------------------------------------------------
Pair    | 0.22218    | 0.24442    | 0.26537    |   2.1 | 49.52
Neigh   | 0.031861   | 0.034143   | 0.036685   |   0.5 |  6.92
Comm    | 0.14299    | 0.16529    | 0.18752    |   2.8 | 33.49
Output  | 4.7628e-05 | 4.9294e-05 | 6.3278e-05 |   0.0 |  0.01
Modify  | 0.040721   | 0.045278   | 0.049273   |   1.2 |  9.17
Other   |            | 0.004425   |            |       |  0.90

Nlocal:        83.3333 ave          93 max          77 min
Histogram: 5 6 4 11 2 11 6 2 0 1
Nghost:        1758.88 ave        1786 max        1732 min
Histogram: 3 0 5 7 9 11 5 3 4 1
Neighs:        10560.5 ave       12108 max        9480 min
Histogram: 4 3 8 10 4 10 5 2 1 1

Total # of neighbors = 506902
Ave neighs/atom = 126.72550
Neighbor list builds = 142
Dangerous builds = 11

#############################
# L I N E A R  Q U E N C H  #
#############################

# Define solid atoms. This closely follows ten Wolde  Ruiz-Montero and Frenkel  Faraday Discuss  1996  104  93-110
# Compute components of the per-atom q6 vector
compute q6 all orientorder/atom degrees 1 6 components 6 nnn NULL cutoff 1.3 # compute the Q6 parameter.
                                                                             # Use all neighbours within 1.3 unit cell.

# get number of connections
compute coord_number all coord/atom orientorder q6 0.5

# An atom is solid if it has 8 or more connections (of a possible 14)
variable is_solid atom c_coord_number>=8
group solid dynamic all var is_solid    # Must be dynamic to update
dynamic group solid defined

# do clustering
compute cluster solid cluster/atom 1.3 # Create a cluster where all atoms within are solid and max 1.3 units from another member

# define chunks one chunk per cluster
compute clus_chunks solid chunk/atom c_cluster nchunk every compress yes  # Says which atoms are in which chunk

# count the size of each chunk
compute size_chunks solid property/chunk clus_chunks count


# Find the maximum entry in the vector of chunk sizes
variable max_n equal max(c_size_chunks)


# Thermo style which includes this variable
# thermo_style custom step temp pe vol v_max_n

thermo ${N}  # Print the thermo information every 100 steps
thermo 1000  

# Reset the npt fix at a lower temperature (below freezing)
fix 1  all npt temp  ${temp} ${temp}  0.1  iso  5.68  5.68  0.5  mtk yes tchain  5  pchain  5
fix 1  all npt temp  0.45 ${temp}  0.1  iso  5.68  5.68  0.5  mtk yes tchain  5  pchain  5
fix 1  all npt temp  0.45 0.45  0.1  iso  5.68  5.68  0.5  mtk yes tchain  5  pchain  5

dump dmp2 all dcd ${N} traj.dcd
dump dmp2 all dcd 1000 traj.dcd


compute msd all msd com yes
variable twopoint equal c_msd[4]/6/(step*dt+1.0e-6)
fix 9 all vector 10 c_msd[4]
variable fit equal slope(f_9)/6/(10*dt)
thermo_style custom step temp pe c_msd[4] v_twopoint v_fit v_max_n

fix 1 all npt temp 1.25 ${temp} 0.1 iso 5.68 5.68 0.5 mtk yes tchain 5 pchain 5
fix 1 all npt temp 1.25 0.45 0.1 iso 5.68 5.68 0.5 mtk yes tchain 5 pchain 5
run 500000 # 5000000  # Run for this many steps
Neighbor list info ...
  update every 1 steps, delay 10 steps, check yes
  max neighbors/atom: 2000, page size: 100000
  master list distance cutoff = 3.8
  ghost atom cutoff = 3.8
  binsize = 1.9, bins = 9 9 9
  4 neighbor lists, perpetual/occasional/extra = 1 3 0
  (1) pair lj/cut, perpetual
      attributes: half, newton on
      pair build: half/bin/atomonly/newton
      stencil: half/bin/3d
      bin: standard
  (2) compute orientorder/atom, occasional
      attributes: full, newton on
      pair build: full/bin/atomonly
      stencil: full/bin/3d
      bin: standard
  (3) compute coord/atom, occasional
      attributes: full, newton on
      pair build: full/bin/atomonly
      stencil: full/bin/3d
      bin: standard
  (4) compute cluster/atom, occasional
      attributes: full, newton on
      pair build: full/bin/atomonly
      stencil: full/bin/3d
      bin: standard
Per MPI rank memory allocation (min/avg/max) = 9.775 | 9.783 | 9.789 Mbytes
Step Temp PotEng c_msd[4] v_twopoint v_fit v_max_n 
   12000    1.2676176   -6.5845552 1.8640783e-30 1.2944988e-32 8.3333333e+20            2 
   13000    1.2531442   -6.5947933   0.52523533  0.003366893  0.043173412            2 
   14000    1.2488092   -6.6214322     1.032988 0.0061487376  0.043253033            2 
   15000    1.2119692    -6.605999    1.5177393 0.0084318849  0.042227753            2 
   16000     1.244334   -6.6125488    2.0097607  0.010467503  0.041787359            3 
   17000    1.2397443   -6.6013479    2.4709104  0.012112305  0.041078261            2 
   18000    1.2337908   -6.6220453    3.0639841  0.014185111   0.04128283            2 
   19000    1.2338915   -6.6326659    3.4968778  0.015337183  0.041410524            2 
   20000    1.2367796   -6.6400208    3.9992186  0.016663411  0.041389955            1 
   21000      1.25565   -6.6344516    4.4462738  0.017643943  0.041247644            1 
   22000    1.2277678   -6.6743625    4.9585229  0.018782283  0.041109082            2 
   23000    1.2143348   -6.6283639     5.556688  0.020132927  0.041212926            2 
   24000    1.2249907   -6.6398974    6.1451611  0.021337365  0.041642446            2 
   25000     1.222184   -6.6420408    6.6407303  0.022135767  0.042026714            1 
   26000    1.2208333   -6.6145235     7.085519  0.022709996  0.042096477            1 
   27000    1.2128518   -6.6292976    7.5031015   0.02315772  0.041962459            1 
   28000    1.2173632    -6.619129    7.9330197  0.023610177   0.04178461            2 
   29000    1.2341165   -6.6659916    8.3613432  0.024026848  0.041606463            2 
   30000    1.2184514   -6.6370703    8.7876946  0.024410262  0.041302099            2 
   31000    1.1870444    -6.668807    9.2863718  0.024963365  0.041055108            2 
   32000    1.2128222   -6.6663022    9.7450572  0.025377753  0.040868235            2 
   33000    1.2477773   -6.6559085    10.270502  0.025935611  0.040760231            2 
   34000    1.2062458   -6.6480015    10.722601  0.026280884  0.040631256            1 
   35000    1.2077544   -6.6725821    11.053599  0.026318092  0.040477446            1 
   36000    1.1928352   -6.6737731    11.575736  0.026795685  0.040306725            1 
   37000    1.1986103   -6.6827421    12.068016  0.027180215  0.040183913            1 
   38000    1.1981881   -6.7041102    12.515773   0.02744687  0.040074395            3 
   39000    1.2123998   -6.6728108    12.963116  0.027698965  0.039986224            1 
   40000    1.1945093   -6.7211173     13.37832    0.0278715  0.039896476            5 
   41000    1.2097446   -6.6688877    14.012217  0.028480115  0.039834111            2 
   42000    1.2047938   -6.6819626    14.528055  0.028825505  0.039823352            1 
   43000    1.1935973   -6.6627673    14.859707  0.028797882  0.039804853            2 
   44000    1.1943812   -6.6971213     15.30742  0.028991325  0.039746318            2 
   45000    1.1648846   -6.7443133    15.725428  0.029121163  0.039669605            2 
   46000    1.2010419    -6.621892    16.153555  0.029263687  0.039599061            2 
   47000    1.1875438   -6.7117502    16.683788  0.029581184  0.039534987            1 
   48000    1.1753707   -6.6994689    17.152611  0.029778838  0.039498372            2 
   49000    1.1915775   -6.6837555     17.60993  0.029948861  0.039434691            2 
   50000    1.2008581   -6.7097965     18.06945   0.03011575  0.039389953            3 
   51000    1.1939013   -6.6960429    18.573188  0.030348347  0.039355246            2 
   52000     1.207915   -6.6813824     18.97201  0.030403861  0.039318749            3 
   53000    1.1955683    -6.699565    19.367294   0.03045172  0.039262814            3 
   54000    1.1674594   -6.7335942     19.67148  0.030357221  0.039178933            2 
   55000    1.1862551   -6.7381634    20.139318  0.030514119  0.039082197            2 
   56000    1.1673238   -6.7366418    20.549306  0.030579325  0.038976553            3 
   57000    1.1946652   -6.7556815    21.101004  0.030849421  0.038901937            3 
   58000    1.1584608   -6.7432162    21.456751  0.030828664  0.038832011            3 
   59000    1.1741104   -6.7368363    22.009795  0.031087281  0.038771252            3 
   60000    1.1920503   -6.7623518    22.450338  0.031181024   0.03872102            2 
   61000     1.155641   -6.7544156    22.988873  0.031405564  0.038674525            1 
   62000    1.1725828   -6.7359431    23.278846  0.031288772  0.038628208            3 
   63000    1.1567326   -6.7268397    23.620753  0.031244382  0.038560842            3 
   64000    1.1598355   -6.7714705    23.947307  0.031181388  0.038490135            4 
   65000     1.165383   -6.7699274    24.186121  0.031007847  0.038400693            2 
   66000    1.1456777   -6.7662621    24.540833    0.0309859  0.038280517            1 
   67000     1.157803   -6.7662174    25.088699  0.031204849  0.038165314            3 
   68000    1.1348056   -6.7842277    25.448596  0.031187005  0.038064214            2 
   69000     1.158706   -6.7856417    25.814342  0.031176741  0.037961908            1 
   70000    1.1625692   -6.7524988    26.222171   0.03121687  0.037860962            2 
   71000    1.1459092   -6.7478719    26.516112  0.031122197  0.037764333            1 
   72000    1.1710104    -6.757786    26.948414  0.031190294  0.037659548            3 
   73000     1.142912   -6.8012125    27.517152  0.031412274   0.03757362            1 
   74000    1.1845472   -6.7722013    27.894951  0.031413233  0.037498226            2 
   75000    1.1445387   -6.7873472    28.235769  0.031373076  0.037414961            2 
   76000     1.146835   -6.8034114    28.601818  0.031361643  0.037322358            2 
   77000    1.1511904   -6.7512238    29.173379  0.031572921  0.037247942            2 
   78000    1.1488511   -6.8069167    29.377112  0.031385803  0.037173917            2 
   79000    1.1496981    -6.808701    29.768506  0.031401378   0.03709793            3 
   80000    1.1197611    -6.805554    30.247205  0.031507505  0.037017402            5 
   81000    1.1274083   -6.8328069    30.737275  0.031622711  0.036942553            2 
   82000    1.1161237   -6.8220689    31.088079  0.031593576  0.036876392            4 
   83000    1.1441092   -6.8127086    31.454852  0.031581177  0.036804035            1 
   84000    1.1297178   -6.8043395     31.84775   0.03159499  0.036738024            3 
   85000    1.1404758   -6.8397323    32.307481  0.031674001  0.036674106            2 
   86000    1.1179107   -6.8442962    32.565859  0.031556064  0.036599822            2 
   87000    1.1278515     -6.80077    32.927286  0.031539546  0.036523151            3 
   88000    1.1085769    -6.839795    33.085842  0.031331289  0.036444632            2 
   89000    1.1182434   -6.8586518    33.449397   0.03131966  0.036356625            3 
   90000    1.1213163   -6.8563199    34.042202  0.031520557  0.036276416            4 
   91000    1.1049814   -6.8439842    34.387563  0.031490442  0.036199606            1 
   92000       1.0958   -6.8348891    34.765704  0.031490674  0.036128927            2 
   93000     1.129545   -6.8744518    35.191324  0.031533444  0.036061547            2 
   94000    1.1230212   -6.8407811     35.50167  0.031473112  0.035990472            2 
   95000    1.1205454   -6.8481696    35.879718  0.031473437  0.035920644            1 
   96000     1.120811   -6.8639979    36.172681  0.031399897  0.035844103            1 
   97000    1.1150057   -6.8740422    36.534501  0.031387029  0.035770865            6 
   98000    1.1051652   -6.7988705    37.094987  0.031543356  0.035700826            2 
   99000    1.1173214   -6.8761915    37.475133  0.031544725  0.035632384            4 
  100000    1.1086589    -6.835148    37.781298  0.031484415  0.035567091            1 
  101000    1.1291834   -6.8685137    38.101581  0.031436948  0.035500436            4 
  102000    1.1021275   -6.8892379    38.422099  0.031390604  0.035433603            2 
  103000    1.1085639   -6.8773898     38.74684  0.031348576   0.03535909            2 
  104000     1.092193   -6.8914749    39.165328  0.031382474  0.035290349            4 
  105000    1.0888398   -6.9179994    39.690286  0.031500227   0.03522781            5 
  106000    1.0901898   -6.9262914    39.836823  0.031318257  0.035169831            2 
  107000    1.0843005   -6.9241268    40.378796  0.031447661  0.035111668            2 
  108000     1.102366    -6.930617    40.761581  0.031451837  0.035057044            3 
  109000    1.0909573    -6.928981    41.291871  0.031568709  0.035008514            2 
  110000    1.0977855    -6.934304    41.417501  0.031376894  0.034956013            1 
  111000    1.0894877   -6.9115975    41.958249  0.031500187  0.034907712            1 
  112000    1.0918747   -6.9347315    42.178541  0.031382843  0.034854197            2 
  113000    1.0930918   -6.9178463    42.398885  0.031267614  0.034798275            3 
  114000    1.0844179   -6.8895652    42.893445  0.031354858  0.034740679            3 
  115000    1.0939352   -6.9495483    43.051287  0.031196584  0.034677215            1 
  116000    1.0973273   -6.9057206       43.424  0.031195402  0.034613744            7 
  117000    1.0896867   -6.9326036    43.767879  0.031173703  0.034548157            3 
  118000    1.0515849     -6.95285    43.813852  0.030941986  0.034478597            3 
  119000    1.1043533   -6.9736526    44.177125  0.030936362  0.034407985            2 
  120000    1.0801417   -6.9419742    44.606854  0.030976982  0.034338537            2 
  121000    1.0818858   -6.9614752     44.88682  0.030913788  0.034272496            2 
  122000     1.063331    -6.932973    45.208786  0.030880318  0.034207037            3 
  123000    1.0591329   -6.9466918    45.324248  0.030707485  0.034136957            1 
  124000    1.0835173   -6.9359881    45.763196  0.030754836  0.034060457            8 
  125000    1.0745756   -6.9599094    46.142229  0.030761486   0.03398663            4 
  126000    1.0784438   -6.9375696    46.411737  0.030695593   0.03391414            3 
  127000    1.0625174   -6.9547526    46.558523  0.030550212  0.033841201            2 
  128000    1.0443398   -6.9400394    47.204286  0.030731957  0.033767763            1 
  129000     1.068488   -6.9829775    47.284334  0.030545435  0.033696198            2 
  130000    1.0723435   -6.9556923    47.635385  0.030535503  0.033625676            1 
  131000    1.0588041   -6.9774004    48.035304  0.030556809  0.033554611            3 
  132000    1.0415912   -6.9894359    48.509854  0.030624907  0.033487811            3 
  133000    1.0407145   -6.9601489    48.734449  0.030535369  0.033423074            2 
  134000     1.061149   -6.9621055    49.008286   0.03047779  0.033360724            2 
  135000    1.0409957   -7.0424551    49.217499  0.030381172  0.033294768            4 
  136000    1.0492261   -7.0092149    49.434949  0.030291023  0.033224818            1 
  137000    1.0580807   -6.9725916     49.72862  0.030248552  0.033151605            2 
  138000    1.0309596   -7.0014562    50.095356  0.030250819  0.033078075            1 
  139000    1.0355185   -6.9972252    50.096301  0.030033754  0.033003377            4 
  140000    1.0185143   -6.9903539    50.577544  0.030105681  0.032927393            1 
  141000    1.0280553   -7.0187231    50.900402   0.03008298  0.032854006            3 
  142000    1.0361974   -7.0332636    51.309234  0.030111053  0.032785646            2 
  143000    1.0550537   -6.9839887    51.630663  0.030087799  0.032719362            2 
  144000    1.0375741   -7.0632749    51.731852  0.029937414  0.032651876            2 
  145000    1.0226375    -7.015538    52.054068  0.029916131  0.032582593            3 
  146000    1.0545158   -7.0048049    52.390573  0.029903295  0.032509644            2 
  147000    1.0348345   -7.0461003    52.407419  0.029709421  0.032437556            3 
  148000    1.0208772    -7.014062    52.884827  0.029777493  0.032365171            1 
  149000    1.0402559   -7.0449514    53.084767  0.029689467  0.032293251            3 
  150000    1.0233883   -7.0346547    53.256631  0.029587017  0.032220018            5 
  151000    1.0220212   -7.0281762    53.322308  0.029427322  0.032144364            5 
  152000    1.0227115   -7.0193788    53.728599  0.029456469  0.032066796            2 
  153000    1.0278705   -7.0607382    53.842513  0.029325988  0.031988342            3 
  154000    1.0301961   -7.0346601    54.185999  0.029321428  0.031910079            2 
  155000    1.0184964   -7.0653343    54.371543  0.029232012  0.031832561            2 
  156000    1.0439364   -7.0648144    54.569903  0.029150589  0.031753452            3 
  157000    1.0525799   -7.0590633    54.507891  0.028932002  0.031671225            3 
  158000    1.0293879   -7.0711125    55.017924  0.029017892  0.031590553            2 
  159000    1.0153047   -7.0380142     55.47709  0.029076043   0.03151123            2 
  160000    1.0128418   -7.0550366    55.508892  0.028910881  0.031430763            3 
  161000    1.0183326   -7.0222805    55.542082   0.02874849  0.031348731            2 
  162000    1.0159768    -7.079388    55.755083  0.028680598  0.031266618            2 
  163000    1.0010834   -7.0924122    55.999041  0.028629366   0.03118307            3 
  164000    1.0001419   -7.1092997    56.137674  0.028525241  0.031099467            2 
  165000    1.0336575   -7.0757113    56.406163  0.028487961  0.031013784            3 
  166000    1.0066519   -7.0715997    56.742035  0.028484957  0.030930791            4 
  167000   0.99752904   -7.0935366    57.152782  0.028519352  0.030850041            2 
  168000    1.0088969    -7.119352    57.334854  0.028439907  0.030769524            3 
  169000    1.0076902   -7.0894259    57.421307  0.028314254  0.030688332            2 
  170000   0.99946701   -7.1145888    57.496805  0.028184708  0.030605835            2 
  171000   0.99531178   -7.1257596    57.593519  0.028067017  0.030521978            2 
  172000   0.99520099   -7.1220775    57.892104    0.0280485  0.030436328            2 
  173000   0.97161023   -7.0973761    58.007317  0.027941867  0.030349675            3 
  174000    1.0045184   -7.1157303    58.205678  0.027876282  0.030263896            2 
  175000    0.9822861   -7.0832904    58.462712  0.027839386  0.030178653            2 
  176000   0.98424653   -7.1004904    58.596906  0.027744747  0.030091334            4 
  177000   0.96700692   -7.1291182     58.67665  0.027625541  0.030005025            3 
  178000   0.97483114   -7.1341002    58.974405   0.02760974  0.029917196            3 
  179000   0.99720815   -7.1416246    59.173488  0.027548179  0.029829807            2 
  180000   0.98881562    -7.154932    59.136402  0.027377964  0.029742697            2 
  181000   0.97292193   -7.1674319    59.359485  0.027329413  0.029656165            5 
  182000   0.99130688   -7.1339953    59.860823  0.027408802  0.029570329            1 
  183000   0.98329363   -7.1778141    60.030854  0.027336454  0.029487331            2 
  184000   0.97375424   -7.1474699    60.314033  0.027316138  0.029404663            3 
  185000   0.96183939   -7.1441539    60.423927  0.027217985  0.029322166            1 
  186000   0.97187934   -7.1479645    60.594816  0.027148215  0.029240749            2 
  187000   0.96430381   -7.1662154    61.000584  0.027183861   0.02915938            2 
  188000   0.95902451   -7.1787352    61.343766  0.027191386  0.029080169            2 
  189000   0.98340575   -7.1440937     61.53382  0.027131314   0.02900522            4 
  190000    0.9570747   -7.1680696    61.832965  0.027119721   0.02892996            1 
  191000   0.98888811   -7.1903729    62.188759  0.027132967  0.028856007            3 
  192000   0.94999845   -7.1843265     62.25929  0.027022261  0.028782144            2 
  193000   0.98715888   -7.1844173    62.440453  0.026960472   0.02870736            2 
  194000    0.9511104    -7.211044    62.474423  0.026836092  0.028632446            2 
  195000   0.93250747   -7.1902918    62.888923  0.026875608  0.028559567            3 
  196000   0.95534197   -7.1748829    63.068655  0.026814904  0.028486446            4 
  197000   0.94371041   -7.1613262    63.041377  0.026667249  0.028412096            2 
  198000   0.93813515   -7.2295992    63.216818  0.026606405  0.028336081            3 
  199000   0.94755232   -7.1823758    63.509006  0.026595061  0.028261443            1 
  200000    0.9395609   -7.1934514    63.671736   0.02652989  0.028186531            2 
  201000   0.93890106   -7.2179421    63.841894  0.026468447  0.028111867            4 
  202000   0.94890366   -7.2197333    64.038193  0.026418396  0.028036533            2 
  203000   0.93917083   -7.2337917     64.22828  0.026366289  0.027961509            3 
  204000   0.94587135   -7.1550148    64.225426  0.026235877  0.027887362            2 
  205000   0.93449808   -7.2666707    64.326511  0.026148988  0.027811094            5 
  206000   0.94378701    -7.215314    64.395557  0.026049982  0.027734485            2 
  207000   0.92557564   -7.2375955    64.764217  0.026072551  0.027658005            3 
  208000   0.93774769   -7.2265729    65.088005  0.026076925  0.027582916            2 
  209000   0.91601623   -7.2408462    65.076341  0.025947504  0.027508099            1 
  210000   0.92650448   -7.2183944    65.419364  0.025960065  0.027433859            5 
  211000   0.91503687   -7.2486888    65.389426  0.025825208  0.027359733            4 
  212000   0.90949148   -7.2448054    65.481798    0.0257397  0.027285327            5 
  213000   0.89690951   -7.2732458    65.632361  0.025677762  0.027209544            2 
  214000   0.92083952   -7.2280977    66.010304  0.025704947  0.027135052            2 
  215000   0.91659149    -7.228749     66.24015  0.025674477  0.027063285            2 
  216000    0.9258596   -7.2870633    66.540199  0.025671373  0.026992135            3 
  217000   0.91435628   -7.2875395    66.524645  0.025547098  0.026920313            5 
  218000   0.92158109   -7.2974464    66.578024  0.025450315  0.026848234            1 
  219000   0.93807241   -7.2715626    66.641578  0.025358287  0.026775867            2 
  220000   0.94095279   -7.2644443    66.892537  0.025338082  0.026702899            1 
  221000   0.91829392    -7.276943    67.001227  0.025264414  0.026630228            3 
  222000   0.92187362   -7.2726651    67.531858  0.025349796  0.026559145            3 
  223000   0.89525876   -7.2809605     67.41582  0.025192758  0.026488578            4 
  224000   0.91638682   -7.2389578    67.685701  0.025180692  0.026417622            2 
  225000   0.88613405   -7.2680846    67.851363  0.025130134   0.02634653            4 
  226000   0.91110933   -7.2970365    67.886851  0.025032025   0.02627551            3 
  227000   0.89067637   -7.2779103    67.986164   0.02495821  0.026205789            4 
  228000   0.89531703   -7.3122847    68.385079  0.024994546  0.026136829            2 
  229000   0.90081186    -7.286151    68.485928  0.024922099  0.026068759            3 
  230000   0.90836524   -7.3425021    68.529084  0.024829378  0.026000573            4 
  231000   0.90694957    -7.341777    68.846504  0.024836401  0.025931846            4 
  232000   0.90823697   -7.3037053    69.053629  0.024803746  0.025863936            2 
  233000   0.89981676   -7.3287185    69.108742  0.024717004  0.025796343            3 
  234000   0.90059989   -7.3006422    69.248018  0.024660975   0.02572823            2 
  235000   0.89826037   -7.3602964    69.358123  0.024595079  0.025660569            2 
  236000   0.89218529   -7.3140841    69.698526  0.024611061  0.025594439            2 
  237000   0.89357253   -7.3581967    69.742552  0.024522698  0.025528037            2 
  238000   0.88408653   -7.3376486    70.073768  0.024535633  0.025462338            2 
  239000   0.89177278   -7.3496171     69.98741  0.024402862  0.025395023            5 
  240000   0.89415773   -7.3779942    70.045049  0.024321197  0.025328026            6 
  241000   0.89429482   -7.3466959    70.219262  0.024280519  0.025261678            4 
  242000   0.87829736   -7.3481091    70.201887  0.024174203  0.025194352            1 
  243000   0.88638586   -7.3600688    70.379533  0.024135642  0.025126897            3 
  244000   0.87257621   -7.3632615    70.440806  0.024057652  0.025060254            4 
  245000   0.87225135   -7.3580084     70.88732  0.024111333  0.024994735            2 
  246000   0.88827806   -7.3660321    70.884362  0.024012318  0.024929091            4 
  247000    0.8625197    -7.371878     71.10606  0.023989899  0.024864102            6 
  248000   0.87125739   -7.3667682    71.331411  0.023968888  0.024800211            3 
  249000   0.90117501   -7.3717802    71.217081  0.023834364  0.024735639            3 
  250000   0.85941764   -7.4014847    71.317111   0.02377237   0.02466996            6 
  251000   0.86930722   -7.3752137    71.505773  0.023740296  0.024603807            5 
  252000   0.86877217   -7.3587039    71.783758  0.023738015  0.024538783            2 
  253000   0.87228716   -7.3895771    71.686024  0.023611997  0.024473689            2 
  254000   0.86542196   -7.3696053    71.856157  0.023574855  0.024408912            1 
  255000   0.86965434   -7.3995897    71.791824   0.02346138  0.024342873            4 
  256000   0.85478658   -7.4018268    71.884345  0.023399852  0.024277128            2 
  257000   0.85292519   -7.4076893    72.179449  0.023404491  0.024212049            7 
  258000   0.85457308   -7.4174546    72.350317  0.023368966  0.024147186            4 
  259000   0.85559468   -7.4034163    72.397906  0.023294049   0.02408334            4 
  260000   0.85714296   -7.3918213    72.661467  0.023288932  0.024019138            6 
  261000   0.83759085   -7.4101802    72.591875  0.023177482  0.023954962            4 
  262000   0.84961874   -7.3893373    72.734925  0.023134518  0.023890623            3 
  263000   0.86298967   -7.4289588    72.658012  0.023022184  0.023826276            5 
  264000    0.8339587   -7.4125199    72.927182  0.023019944  0.023761912            3 
  265000   0.84069848   -7.4459915    73.377409  0.023074657  0.023697766            3 
  266000   0.86102515   -7.4234218    73.108946  0.022903805  0.023633697            4 
  267000   0.84979215   -7.4072932    73.212255  0.022850267  0.023569694            3 
  268000   0.83259291   -7.4181551    73.620258  0.022891871  0.023506547            3 
  269000   0.84787391   -7.4288051    73.747227  0.022846105  0.023443974            3 
  270000   0.83792955   -7.4274492    73.396342  0.022653192  0.023380742            5 
  271000   0.82931646   -7.4619561     73.55353  0.022617937  0.023316999            3 
  272000   0.82705948   -7.4479842    73.737519  0.022591152  0.023253478            7 
  273000   0.82942227    -7.445907    74.034296  0.022598991  0.023190699            6 
  274000   0.80960857   -7.4806577    73.864119  0.022464756  0.023126932            3 
  275000   0.82236458   -7.4584501    73.988448  0.022420742  0.023063728            4 
  276000   0.83159449   -7.4564839      74.2831  0.022428472  0.023001354            3 
  277000   0.83359184   -7.4657944    74.044405  0.022275693  0.022938326            2 
  278000   0.82265624   -7.4774208    74.236588  0.022253174  0.022875204            2 
  279000   0.82104393   -7.4869894     74.42279  0.022229029  0.022812588            1 
  280000   0.82386443   -7.5127694    74.265973  0.022102968  0.022749348            5 
  281000   0.82264948   -7.4752493    74.444933  0.022077382  0.022685785            5 
  282000   0.84039208   -7.4742773    74.416945  0.021990823  0.022622177            5 
  283000   0.81442345   -7.5022894    74.665754  0.021986382  0.022559147            4 
  284000   0.82453163   -7.5275997    74.754082  0.021934883  0.022496484            2 
  285000   0.79401981   -7.5085264    74.780109  0.021865529  0.022434197            3 
  286000   0.81038449   -7.5546109    75.050235  0.021867784  0.022372241            3 
  287000   0.79471352   -7.4959306    74.998846  0.021776669  0.022310978            4 
  288000   0.80204842   -7.5088727    75.290687    0.0217855  0.022250088            9 
  289000   0.80692539    -7.529125    75.327453  0.021720719  0.022189481            5 
  290000   0.79671023   -7.5316833    75.464973  0.021685337  0.022128685            5 
  291000   0.80304591   -7.5045185    75.378033   0.02158592  0.022068053            3 
  292000   0.81330097   -7.5259818    75.316932  0.021494558  0.022006613            3 
  293000   0.78554932   -7.5151265    75.373893  0.021437398  0.021945561            2 
  294000   0.79742071   -7.5064582     75.77757  0.021478903  0.021884484            3 
  295000   0.80019206   -7.5387762    75.775967   0.02140564  0.021823631            4 
  296000   0.77805468   -7.5306849    75.886603  0.021364472  0.021763084            5 
  297000   0.79711512   -7.5540435    75.837392  0.021278729  0.021702832            5 
  298000   0.81462833   -7.5376516    76.084224  0.021276349   0.02164284            3 
  299000    0.8085403   -7.5317263      76.0429  0.021193673  0.021583165            7 
  300000   0.78621948   -7.5724378    76.191905  0.021164418  0.021523197            2 
  301000   0.77196317   -7.5925594    76.232942  0.021105466  0.021463418            2 
  302000     0.794837   -7.5515645    76.203749  0.021027525  0.021404149            3 
  303000   0.77453213   -7.5794804     76.12886   0.02093753  0.021344139            5 
  304000    0.7939052   -7.5854801    75.956526  0.020821416   0.02128339            2 
  305000   0.78312478   -7.5770348     76.45804  0.020890175   0.02122344            3 
  306000   0.77528912   -7.5779726     76.03763  0.020707416  0.021163303            5 
  307000   0.78876426   -7.6170647    76.399951  0.020738315  0.021103165            7 
  308000    0.7780258   -7.5894567    76.487692  0.020694722  0.021043314            3 
  309000   0.78531578   -7.6124984    76.460985  0.020620546  0.020983755            4 
  310000   0.76946832   -7.5955539    76.686429  0.020614631   0.02092437            3 
  311000   0.76592593   -7.6142589     76.97053  0.020624472  0.020866014            6 
  312000   0.76784587   -7.6181199     76.72157  0.020491872   0.02080751            3 
  313000   0.77521805   -7.6100047    76.945152   0.02048593  0.020748931            4 
  314000   0.77732443   -7.6324538    76.808604  0.020384449  0.020690247            4 
  315000   0.77223704   -7.6257098    76.958111  0.020359289  0.020632007            3 
  316000    0.7649877   -7.6511228    76.952023  0.020293255  0.020573667            4 
  317000   0.75857564   -7.6434543    76.885009  0.020211622  0.020514795            4 
  318000   0.74611403   -7.6315065    77.064888  0.020195201  0.020455599            6 
  319000   0.77881262   -7.6413928    76.939839  0.020099227  0.020396704            3 
  320000   0.77441087   -7.6271319    77.020649  0.020057461  0.020337639            3 
  321000   0.75211118   -7.6231619    77.481525  0.020114622  0.020278764            2 
  322000   0.73630728   -7.6422587    77.128838  0.019960879  0.020220089            2 
  323000   0.74950719   -7.6587736    77.215563  0.019921456  0.020161705            3 
  324000   0.75362715   -7.6123408    77.648917  0.019971429  0.020103737            2 
  325000   0.75143038   -7.6501477    77.611373  0.019900352  0.020046564            6 
  326000   0.75041565   -7.6616066    77.458577   0.01980025  0.019989468            4 
  327000   0.75596146    -7.628174    77.647435  0.019787827  0.019932673            4 
  328000   0.73726829   -7.6631896    77.734303  0.019749569  0.019876218            2 
  329000   0.75330774   -7.6826123     77.83375  0.019714729  0.019819512            3 
  330000   0.73528537   -7.6820057    77.893971  0.019670195  0.019762939            3 
  331000   0.74356041   -7.6879639    77.666582   0.01955352  0.019706226            3 
  332000   0.73606279   -7.6672532    77.634556  0.019486585  0.019649219            4 
  333000   0.72919928   -7.7100803    77.731845  0.019452414  0.019592638            3 
  334000   0.72002227    -7.670691    77.987712  0.019458012  0.019536264            3 
  335000   0.72820802   -7.7175002    77.901295  0.019378431  0.019480295            4 
  336000   0.73200663   -7.7156262    78.001325  0.019345567  0.019424411            4 
  337000   0.73578278   -7.7075828    78.048422  0.019299808  0.019368913            4 
  338000      0.72816   -7.6957848    77.940902  0.019216199  0.019313381            5 
  339000    0.7194906    -7.691248    78.098626  0.019198286  0.019257364            3 
  340000   0.72296161   -7.7257094    77.874378  0.019086857  0.019201205            7 
  341000   0.73287122   -7.6926209    78.227315  0.019117135  0.019145211            5 
  342000   0.73994677   -7.7153002    78.147555  0.019041802  0.019089603            4 
  343000   0.71369682   -7.6899728    78.301245  0.019023626  0.019033963            4 
  344000    0.7208706   -7.7120771     78.24639  0.018955036  0.018978985            4 
  345000   0.71640905   -7.7141294    78.277805  0.018907682  0.018924088            4 
  346000   0.71542754   -7.7199839     78.27092  0.018851378  0.018869315            3 
  347000   0.70166505   -7.7177704    78.414106  0.018831438  0.018814384            2 
  348000   0.71350493   -7.7420777     78.35492  0.018763151  0.018759993            5 
  349000   0.71756946   -7.7234542    78.410971  0.018722772  0.018705326            4 
  350000   0.71377556   -7.7304244    78.381732  0.018662317  0.018650816            5 
  351000   0.70208241   -7.7154595    78.380606  0.018608881   0.01859672            3 
  352000   0.70936749   -7.7135585    78.434203  0.018568703   0.01854273            5 
  353000   0.70917568   -7.7321758    78.578082  0.018550066  0.018488536            2 
  354000    0.7003243   -7.7304144    78.698944  0.018526117  0.018434711            2 
  355000   0.68609533   -7.7560672     78.60947  0.018452927  0.018380971            6 
  356000   0.71189058   -7.7712473    78.520685   0.01838031  0.018327198            3 
  357000    0.7005035   -7.7903991    78.593867  0.018345907  0.018273687            6 
  358000   0.68767104   -7.7521272    78.714103   0.01832265  0.018220358            5 
  359000   0.69774651   -7.7882281    78.684508  0.018264742  0.018167074           20 
  360000   0.70639157    -7.758519    78.884829  0.018260377  0.018113945            6 
  361000   0.69203269   -7.7926364    78.696216  0.018166255  0.018060876            3 
  362000   0.69592204   -7.7905702    78.864311  0.018154768  0.018007693           10 
  363000   0.67791693    -7.776398    78.756951  0.018080108   0.01795451            2 
  364000   0.69410095   -7.7596058    78.865417  0.018055269  0.017901634            8 
  365000   0.68586915   -7.7942769    78.699629  0.017967952  0.017849155            5 
  366000     0.681257   -7.8056969    78.864606  0.017956422  0.017796524            3 
  367000   0.68533164   -7.8108115    78.789308  0.017890397   0.01774396            3 
  368000    0.6935952   -7.8182902    78.980459  0.017885068  0.017691749            5 
  369000   0.68785056   -7.8024831    78.992126  0.017839234  0.017639682            8 
  370000   0.68371242   -7.7862651    79.006795  0.017794323  0.017587725            2 
  371000   0.66856767   -7.8291317    78.926586  0.017728344  0.017536069           15 
  372000    0.6687011   -7.7999655    79.177981  0.017737003  0.017484513            3 
  373000   0.68712823   -7.7924453    78.971784  0.017643383  0.017433141            3 
  374000   0.68548371   -7.8057871    79.157178  0.017637517  0.017381923            5 
  375000   0.65034186   -7.7890955     79.03363  0.017563029  0.017330776            6 
  376000   0.67324145   -7.8222816    79.066532  0.017523611   0.01727961            3 
  377000   0.66024384   -7.8318042    79.158919  0.017497551  0.017228369            3 
  378000   0.65926511   -7.8210834    79.133407  0.017445636  0.017177417            5 
  379000   0.65563565   -7.8553463    79.073924  0.017386527  0.017126452            3 
  380000    0.6610886   -7.8551279    78.909839  0.017304789  0.017075601            5 
  381000   0.66084777   -7.8636486    79.145889  0.017310999  0.017024973            5 
  382000   0.65336652   -7.8639169    79.147893   0.01726612  0.016974402            4 
  383000   0.66396471    -7.856984    79.116351  0.017214176  0.016923912            8 
  384000   0.64765159   -7.8742471    78.854685  0.017112562  0.016873086            3 
  385000   0.65289022   -7.8551645     79.06178  0.017112939  0.016822331            5 
  386000   0.65294697    -7.885543    79.074732  0.017071401  0.016771803            4 
  387000   0.64608175   -7.8864533    78.921633  0.016994322  0.016721136            6 
  388000   0.65609904   -7.9065803    79.029253  0.016973637  0.016670545            8 
  389000   0.64907425   -7.8866279      79.1507   0.01695602  0.016620143            5 
  390000   0.64100082   -7.8853457    79.007295  0.016881901   0.01656993            8 
  391000   0.65418171   -7.8986676    79.165304  0.016872401  0.016520017            5 
  392000   0.62623939   -7.9187485    79.010036  0.016796351  0.016470151            7 
  393000   0.64314829   -7.8988144    79.159146   0.01678523  0.016420419            3 
  394000   0.64151698   -7.9064026    79.005283  0.016710085  0.016371022            8 
  395000    0.6340332   -7.9126838     79.16674  0.016701844  0.016321691            4 
  396000   0.63073893   -7.8995487    79.151452   0.01665645  0.016272424            5 
  397000   0.62816455   -7.9052998     79.09169   0.01660195  0.016223234            3 
  398000   0.62285622   -7.8992074     79.11508  0.016565134  0.016174164            4 
  399000   0.63481586   -7.9215356    79.137605  0.016528322  0.016125244            8 
  400000    0.6364238   -7.9069961    79.123222  0.016484005  0.016076445            6 
  401000   0.63803672   -7.9242871    79.040422   0.01642569  0.016027844            7 
  402000   0.62490617   -7.9292364    79.186999  0.016415215  0.015979374            6 
  403000   0.62534569   -7.9458232    79.182942  0.016373644  0.015930869            5 
  404000   0.61615248   -7.9617646    79.251128   0.01634718  0.015882483            3 
  405000   0.62205933   -7.9419521    79.127507   0.01628138  0.015834165            5 
  406000   0.62624377   -7.9291574    79.009234  0.016217002   0.01578616            6 
  407000    0.6179013   -7.9600168    79.156618  0.016207334  0.015738137            4 
  408000   0.62393506   -7.9582454    79.120359  0.016160204   0.01569004            3 
  409000   0.62457449   -7.9647276    78.876692  0.016071046  0.015641971            8 
  410000   0.61707105   -7.9638521    79.142181  0.016085809  0.015594157           10 
  411000     0.626415   -7.9719887    79.019766   0.01602185   0.01554647            8 
  412000   0.59848489   -7.9790424    79.095252   0.01599823   0.01549896            8 
  413000   0.61118971    -7.976867    79.131051  0.015966717  0.015451587            9 
  414000   0.60844428    -7.987578    79.103792  0.015922663  0.015404492            9 
  415000   0.60322656   -7.9856273    78.949669  0.015853347  0.015357269            3 
  416000   0.59793545    -7.964062    79.053189  0.015835975   0.01531029            4 
  417000   0.59115166    -7.982836    78.857952  0.015758983  0.015263349            9 
  418000   0.59147102   -7.9935777    78.974739  0.015744565  0.015216372            4 
  419000   0.59881854   -7.9989392    78.936933   0.01569947  0.015169415            4 
  420000   0.60276412   -8.0056358    79.023518  0.015679269  0.015122665            7 
  421000   0.58969261   -8.0120165    78.915086  0.015620563  0.015076118            6 
  422000   0.60841072   -8.0210493    78.912442  0.015583026  0.015029682            5 
  423000   0.58634404    -8.000693    78.951837  0.015553947  0.014983426            5 
  424000    0.5925537   -8.0017528    79.018548  0.015530375  0.014937295            5 
  425000   0.60057395   -8.0125746     79.00796  0.015491757  0.014891405            4 
  426000   0.58203771   -8.0102433    79.032292  0.015460151  0.014845626            4 
  427000   0.58646255   -8.0162255    79.009126  0.015419423  0.014799934            6 
  428000   0.58337114   -8.0299557    78.965659  0.015374934  0.014754465            5 
  429000   0.58546398   -8.0353694    78.863426  0.015319236  0.014709058            5 
  430000   0.58051529   -8.0216533    79.061561  0.015322008  0.014663798            4 
  431000   0.58611241   -8.0234851    79.060485   0.01528625  0.014618702            9 
  432000   0.57374505   -8.0287156    78.990721  0.015237408  0.014573688            4 
  433000   0.58070806   -8.0324446    78.888366  0.015182518  0.014528748            8 
  434000   0.57132677   -8.0317616    79.005894  0.015170102  0.014484111            3 
  435000   0.57286665   -8.0565514    78.912943  0.015117422  0.014439507            4 
  436000   0.57173351    -8.070564    79.060885  0.015111025     0.014395            9 
  437000   0.56459022   -8.0557908    78.922017  0.015049965  0.014350546           10 
  438000   0.58651906   -8.0519293    78.854104  0.015002683  0.014306213            6 
  439000   0.56113532   -8.0738862    78.855459  0.014968766   0.01426205            6 
  440000   0.56531708   -8.0556102    78.924545   0.01494783  0.014217964            6 
  441000   0.55799792   -8.0609991    78.962589  0.014921124  0.014174108            5 
  442000   0.56018431   -8.0773198    78.812916  0.014859147  0.014130412            6 
  443000   0.55327611   -8.0859739    78.905583  0.014843037  0.014086888            4 
  444000   0.56703265   -8.0789605    78.923749  0.014813016  0.014043355            6 
  445000   0.55092668   -8.0768631    78.899539  0.014775195  0.013999994           11 
  446000   0.54437572    -8.073677    78.997333  0.014760339   0.01395679            3 
  447000   0.56758379   -8.0869258    78.788144  0.014688319  0.013913674            4 
  448000   0.54512674   -8.0753371    78.916142  0.014679342   0.01387058            4 
  449000   0.54403821   -8.0992843     78.76472  0.014618545   0.01382758            9 
  450000   0.54738295   -8.0960737    78.745595  0.014582518  0.013784613            7 
  451000   0.54279694   -8.0963026     78.73754  0.014548695  0.013741853            5 
  452000   0.55282863   -8.0930113    78.693916  0.014508465  0.013699228            4 
  453000   0.55660093    -8.084574    78.828629  0.014501219  0.013656778            4 
  454000   0.54731649   -8.1086536    78.669644  0.014440096  0.013614487            8 
  455000    0.5376797   -8.1163195    78.850793  0.014441537   0.01357232            6 
  456000   0.54650284   -8.1047849    78.704445  0.014383122  0.013530392            5 
  457000   0.54738393   -8.1230625     78.77136  0.014363851  0.013488581            6 
  458000   0.52768464   -8.1196693     78.83321  0.014343743  0.013446942            9 
  459000   0.53357593   -8.0961049    78.809746  0.014308233   0.01340546            5 
  460000   0.52886644   -8.1225174    78.942708  0.014301215  0.013364128            3 
  461000   0.52630617   -8.1306328    78.848073  0.014253086  0.013323015            6 
  462000   0.53285975   -8.1332953      78.8279  0.014218597  0.013281908            8 
  463000   0.53228197   -8.1176568    78.701894  0.014165208  0.013240932            4 
  464000   0.52471282   -8.1209071     78.82999  0.014157685   0.01320011            7 
  465000    0.5301778   -8.1249074    78.730317  0.014109376  0.013159383            6 
  466000   0.52592892   -8.1206763    78.645199  0.014063877  0.013118834            5 
  467000   0.51549256   -8.1300475    78.678651  0.014039731  0.013078406            4 
  468000   0.52232069   -8.1544221    78.879571  0.014045508  0.013038134            6 
  469000   0.52308428   -8.1423483    78.676749  0.013979522  0.012998026            7 
  470000   0.51961994   -8.1561476    78.628871  0.013941289  0.012958018            6 
  471000    0.5095579   -8.1542319    78.729379  0.013929472  0.012918195            6 
  472000   0.50848756   -8.1544465    78.711347  0.013896777  0.012878532            4 
  473000   0.52157844   -8.1522308    78.730736  0.013870813   0.01283903            5 
  474000   0.51090881   -8.1654063    78.647173  0.013826859  0.012799533            6 
  475000   0.50885047   -8.1877471    78.558396  0.013782175  0.012760201            7 
  476000   0.50353409   -8.1688273    78.617663  0.013763596  0.012720981            6 
  477000   0.50318852   -8.1737097    78.697095  0.013748619  0.012681978            4 
  478000   0.50901951   -8.1749762    78.685644   0.01371786  0.012643066           10 
  479000   0.49816984   -8.1759925    78.639542  0.013681201   0.01260423           13 
  480000   0.49286775   -8.1712036    78.514276  0.013630951  0.012565507            5 
  481000   0.49625474   -8.1699303    78.579427  0.013613899   0.01252701            8 
  482000   0.50045077   -8.1917087    78.471544  0.013567003  0.012488559            4 
  483000    0.5087681   -8.1965798    78.539284  0.013550601  0.012450241            6 
  484000   0.49801347   -8.2011178    78.615277  0.013535688  0.012412061            6 
  485000   0.50627532   -8.2095551     78.33399  0.013459448  0.012374051            4 
  486000   0.48900782   -8.1872964      78.5912  0.013475857  0.012336097            6 
  487000   0.48905107   -8.1688986    78.430368  0.013420665  0.012298272            4 
  488000   0.49205733    -8.197589    78.490661   0.01340346  0.012260566            5 
  489000   0.48733297   -8.1993256    78.517623  0.013380645  0.012223006            5 
  490000   0.49595908   -8.1910786    78.546005  0.013358164  0.012185648            4 
  491000   0.47793058   -8.2114096    78.550956  0.013331798  0.012148405            5 
  492000    0.4834163   -8.1925907    78.364798   0.01327317  0.012111239            6 
  493000   0.48036301   -8.1987545    78.400815  0.013252335  0.012074141            8 
  494000   0.47453682   -8.2172767    78.521044   0.01324579  0.012037263            7 
  495000   0.47713348   -8.2131519    78.364851  0.013192736  0.012000445            4 
  496000    0.4733438   -8.2254508    78.411668  0.013174003  0.011963715            4 
  497000   0.47415317   -8.2387769    78.438923  0.013152066  0.011927145            9 
  498000   0.47242955   -8.2379929    78.355431  0.013111685  0.011890736            4 
  499000   0.47220837   -8.2411806    78.385986  0.013090512   0.01185442            6 
  500000   0.46955706    -8.219526    78.413935  0.013068989  0.011818214            8 
  501000   0.46331244   -8.2279951    78.311543  0.013025872  0.011782182            4 
  502000   0.46110219   -8.2470025    78.530259  0.013036232  0.011746271            6 
  503000    0.4666052   -8.2362686    78.407328  0.012989948  0.011710581            9 
  504000   0.47486533   -8.2481055     78.42255  0.012966691  0.011674961            5 
  505000   0.46233028   -8.2322155    78.438477  0.012943643  0.011639505            5 
  506000   0.45897041   -8.2408666    78.363852  0.012905773  0.011604158            5 
  507000   0.45741727   -8.2469383    78.365002  0.012880507  0.011568893            7 
  508000   0.46285627   -8.2203447    78.378657  0.012857391  0.011533831           12 
  509000   0.45339868   -8.2498536    78.266611  0.012813787  0.011498851            5 
  510000   0.45075215   -8.2483414    78.279081  0.012790699  0.011464008            5 
  511000   0.46051149   -8.2496198    78.267542  0.012763787  0.011429278            7 
  512000   0.45352245   -8.2580205    78.310503   0.01274585  0.011394597           10 
Loop time of 1147.85 on 48 procs for 500000 steps with 4000 atoms

Performance: 75271.437 tau/day, 435.599 timesteps/s
99.4% CPU use with 48 MPI tasks x no OpenMP threads

MPI task timing breakdown:
Section |  min time  |  avg time  |  max time  |%varavg| %total
---------------------------------------------------------------
Pair    | 68.98      | 75.182     | 80.064     |  28.4 |  6.55
Neigh   | 7.4672     | 7.7185     | 7.9734     |   4.7 |  0.67
Comm    | 69.044     | 74.697     | 81.262     |  30.8 |  6.51
Output  | 0.84903    | 0.84956    | 0.85795    |   0.1 |  0.07
Modify  | 976.3      | 978.58     | 981.51     |   3.5 | 85.25
Other   |            | 10.82      |            |       |  0.94

Nlocal:        83.3333 ave          93 max          76 min
Histogram: 4 3 6 5 15 8 2 2 1 2
Nghost:        1940.98 ave        1962 max        1916 min
Histogram: 2 2 2 3 8 13 8 6 2 2
Neighs:        12302.9 ave       14205 max       10901 min
Histogram: 3 4 6 6 11 12 3 0 1 2
FullNghs:      24604.5 ave       27871 max       22399 min
Histogram: 4 4 4 12 14 3 3 2 0 2

Total # of neighbors = 1181018
Ave neighs/atom = 295.25450
Neighbor list builds = 26830
Dangerous builds = 0

#clear
#
#next RN
#
#jump SELF
Total wall time: 0:19:11
