
units lj                  # Use reduced LJ style units
atom_style atomic         # Uncharged point particles
atom_modify map hash      # Needed for indexing of clusters etc
                          # Used to be able to find where atoms are in relation to each other.

lattice fcc 1.0 spacing 1 1 1
Lattice spacing in x,y,z = 1.5874011 1.5874011 1.5874011
region box block 0 10 0 10 0 10 units lattice
create_box 2 box
Created orthogonal box = (0.0000000 0.0000000 0.0000000) to (15.874011 15.874011 15.874011)
  3 by 4 by 4 MPI processor grid
create_atoms 1 box
Created 4000 atoms
  using lattice units in orthogonal box = (0.0000000 0.0000000 0.0000000) to (15.874011 15.874011 15.874011)
  create_atoms CPU = 0.002 seconds
set type 1 type/fraction 2 0.02 78393
Setting atom values ...
  77 settings made for type/fraction
mass 1 1.0
mass 2 1.0
pair_style lj/cut  3.5
pair_modify tail  yes
pair_coeff 1  1  1.0  1.0   # Intearaction between 1 and 1 set with epsilon = 1 and sigma = 1
pair_coeff 1  2  1.5  0.8
pair_coeff 2  2  0.5  0.88

write_data data.0
System init for write_data ...
Neighbor list info ...
  update every 1 steps, delay 10 steps, check yes
  max neighbors/atom: 2000, page size: 100000
  master list distance cutoff = 3.8
  ghost atom cutoff = 3.8
  binsize = 1.9, bins = 9 9 9
  1 neighbor lists, perpetual/occasional/extra = 1 0 0
  (1) pair lj/cut, perpetual
      attributes: half, newton on
      pair build: half/bin/atomonly/newton
      stencil: half/bin/3d
      bin: standard
WARNING: Not all mixed pair coeffs generated from mixing. Use write_data with 'pair ij' option to store all pair coeffs. (../write_data.cpp:312)


#############################
#   M E L T   S Y S T E M   #
#############################

velocity all create 2.4 9622624 mom yes dist gaussian # Assign velocities
                                                    # Temperature 2.4, random number seed, zero linear momentum
                                                                                # Gaussian distribution

timestep 0.002   # simulation timestep
thermo 1000       # output thermodynamic data every 1000 steps bf 100

# Define a fix  in this case with index 1 applied to all
# particles in the simulation. This fix is for simulations
# in the anisotropic NPT ensemble. Note that we use the MTK
# correction.
fix 1 all npt temp 2.4 2.4 0.1 iso 5.68 5.68 0.5 mtk yes tchain 5 pchain 5 # Use NPT ensemble
                                                                         # Set temperature and pressure and damping
                                                                         # Numbers of thermostats in chain and in barostat
run 10000          # run for 10000 steps
Per MPI rank memory allocation (min/avg/max) = 3.642 | 3.644 | 3.648 Mbytes
Step Temp E_pair E_mol TotEng Press Volume 
       0          2.4   -8.2581388            0   -4.6590388   -2.3989133         4000 
    1000    2.3941835   -4.4851858            0  -0.89480831    5.6199334    5114.0852 
    2000    2.3923909   -4.3810759            0  -0.79338678    5.6682714    5174.5799 
    3000     2.415912   -4.3970825            0  -0.77412048    6.0332801      5117.97 
    4000    2.4191997   -4.3832914            0  -0.75539912    5.3935766    5215.6345 
    5000    2.4304923   -4.3901581            0  -0.74533105    5.5102899    5200.0447 
    6000    2.3993039   -4.3878916            0  -0.78983556    5.4458306     5200.951 
    7000    2.4284189    -4.358066            0  -0.71634825    5.6730226    5199.9582 
    8000    2.4097967   -4.3961618            0   -0.7823705     5.586951    5177.4912 
    9000    2.4569869   -4.3971638            0  -0.71260478    5.6132731    5179.4728 
   10000     2.432062   -4.3189697            0  -0.67178866    5.7971608    5194.5139 
Loop time of 2.06287 on 48 procs for 10000 steps with 4000 atoms

Performance: 837666.248 tau/day, 4847.606 timesteps/s
99.6% CPU use with 48 MPI tasks x no OpenMP threads

MPI task timing breakdown:
Section |  min time  |  avg time  |  max time  |%varavg| %total
---------------------------------------------------------------
Pair    | 0.86074    | 0.90818    | 0.99954    |   3.0 | 44.03
Neigh   | 0.16649    | 0.17241    | 0.19031    |   1.1 |  8.36
Comm    | 0.63482    | 0.72827    | 0.81494    |   4.7 | 35.30
Output  | 0.00025835 | 0.00026537 | 0.00033222 |   0.0 |  0.01
Modify  | 0.19884    | 0.23956    | 0.28393    |   4.8 | 11.61
Other   |            | 0.01419    |            |       |  0.69

Nlocal:        83.3333 ave          89 max          75 min
Histogram: 2 0 4 2 7 11 4 9 3 6
Nghost:        1383.52 ave        1402 max        1362 min
Histogram: 1 5 4 7 3 7 7 3 6 5
Neighs:        7332.71 ave        8479 max        6427 min
Histogram: 2 4 7 8 9 4 7 5 1 1

Total # of neighbors = 351970
Ave neighs/atom = 87.992500
Neighbor list builds = 903
Dangerous builds = 191

# Equilibrate just above the melting temperature to avoid step fn in T

fix 1 all npt temp 1.25 1.25 0.1 iso 5.68 5.68 0.5 mtk yes tchain 5 pchain 5
run 2000
Per MPI rank memory allocation (min/avg/max) = 3.642 | 3.645 | 3.648 Mbytes
Step Temp E_pair E_mol TotEng Press Volume 
   10000     2.432062   -4.3189697            0  -0.67178866    5.7971608    5194.5139 
   11000    1.2687247   -5.8769215            0   -3.9743102    5.6924227    4289.5791 
   12000      1.26315   -5.9204744            0    -4.026223    5.8259709    4259.8593 
Loop time of 0.44498 on 48 procs for 2000 steps with 4000 atoms

Performance: 776663.900 tau/day, 4494.583 timesteps/s
99.6% CPU use with 48 MPI tasks x no OpenMP threads

MPI task timing breakdown:
Section |  min time  |  avg time  |  max time  |%varavg| %total
---------------------------------------------------------------
Pair    | 0.19529    | 0.20733    | 0.22234    |   1.3 | 46.59
Neigh   | 0.030515   | 0.031572   | 0.032942   |   0.3 |  7.10
Comm    | 0.13403    | 0.15392    | 0.17068    |   1.8 | 34.59
Output  | 4.8649e-05 | 5.1493e-05 | 0.00012514 |   0.0 |  0.01
Modify  | 0.040768   | 0.047666   | 0.05263    |   1.5 | 10.71
Other   |            | 0.004436   |            |       |  1.00

Nlocal:        83.3333 ave          92 max          77 min
Histogram: 4 1 8 9 7 8 9 0 0 2
Nghost:        1572.67 ave        1588 max        1558 min
Histogram: 1 5 3 8 6 9 4 7 3 2
Neighs:        8932.10 ave        9931 max        8039 min
Histogram: 2 2 7 6 8 12 6 3 0 2

Total # of neighbors = 428741
Ave neighs/atom = 107.18525
Neighbor list builds = 142
Dangerous builds = 13

#############################
# L I N E A R  Q U E N C H  #
#############################

# Define solid atoms. This closely follows ten Wolde  Ruiz-Montero and Frenkel  Faraday Discuss  1996  104  93-110
# Compute components of the per-atom q6 vector
compute q6 all orientorder/atom degrees 1 6 components 6 nnn NULL cutoff 1.3 # compute the Q6 parameter.
                                                                             # Use all neighbours within 1.3 unit cell.

# get number of connections
compute coord_number all coord/atom orientorder q6 0.5

# An atom is solid if it has 8 or more connections (of a possible 14)
variable is_solid atom c_coord_number>=8
group solid dynamic all var is_solid    # Must be dynamic to update
dynamic group solid defined

# do clustering
compute cluster solid cluster/atom 1.3 # Create a cluster where all atoms within are solid and max 1.3 units from another member

# define chunks one chunk per cluster
compute clus_chunks solid chunk/atom c_cluster nchunk every compress yes  # Says which atoms are in which chunk

# count the size of each chunk
compute size_chunks solid property/chunk clus_chunks count


# Find the maximum entry in the vector of chunk sizes
variable max_n equal max(c_size_chunks)


# Thermo style which includes this variable
# thermo_style custom step temp pe vol v_max_n

thermo ${N}  # Print the thermo information every 100 steps
thermo 1000  

# Reset the npt fix at a lower temperature (below freezing)
fix 1  all npt temp  ${temp} ${temp}  0.1  iso  5.68  5.68  0.5  mtk yes tchain  5  pchain  5
fix 1  all npt temp  0.45 ${temp}  0.1  iso  5.68  5.68  0.5  mtk yes tchain  5  pchain  5
fix 1  all npt temp  0.45 0.45  0.1  iso  5.68  5.68  0.5  mtk yes tchain  5  pchain  5

dump dmp2 all dcd ${N} traj.dcd
dump dmp2 all dcd 1000 traj.dcd


compute msd all msd com yes
variable twopoint equal c_msd[4]/6/(step*dt+1.0e-6)
fix 9 all vector 10 c_msd[4]
variable fit equal slope(f_9)/6/(10*dt)
thermo_style custom step temp pe c_msd[4] v_twopoint v_fit v_max_n

fix 1 all npt temp 1.25 ${temp} 0.1 iso 5.68 5.68 0.5 mtk yes tchain 5 pchain 5
fix 1 all npt temp 1.25 0.45 0.1 iso 5.68 5.68 0.5 mtk yes tchain 5 pchain 5
run 2000000 # 5000000  # Run for this many steps
Neighbor list info ...
  update every 1 steps, delay 10 steps, check yes
  max neighbors/atom: 2000, page size: 100000
  master list distance cutoff = 3.8
  ghost atom cutoff = 3.8
  binsize = 1.9, bins = 9 9 9
  4 neighbor lists, perpetual/occasional/extra = 1 3 0
  (1) pair lj/cut, perpetual
      attributes: half, newton on
      pair build: half/bin/atomonly/newton
      stencil: half/bin/3d
      bin: standard
  (2) compute orientorder/atom, occasional
      attributes: full, newton on
      pair build: full/bin/atomonly
      stencil: full/bin/3d
      bin: standard
  (3) compute coord/atom, occasional
      attributes: full, newton on
      pair build: full/bin/atomonly
      stencil: full/bin/3d
      bin: standard
  (4) compute cluster/atom, occasional
      attributes: full, newton on
      pair build: full/bin/atomonly
      stencil: full/bin/3d
      bin: standard
Per MPI rank memory allocation (min/avg/max) = 9.733 | 9.738 | 9.743 Mbytes
Step Temp PotEng c_msd[4] v_twopoint v_fit v_max_n 
   12000      1.26315   -5.9204744 1.0267025e-30 7.129878e-33 8.3333333e+20            3 
   13000     1.266504    -5.896472   0.54360393 0.0034846405   0.04501864            2 
   14000    1.2508026   -5.8766668    1.0834341  0.006449012   0.04417009            2 
   15000    1.2657384   -5.9085818    1.6801554 0.0093341962  0.045750187            3 
   16000    1.2318543   -5.9011025     2.274276  0.011845187  0.047184061            4 
   17000    1.2512998   -5.9389602    2.9078982  0.014254402  0.048317411            6 
   18000    1.2408846   -5.9064843    3.4725893  0.016076802  0.048846768            3 
   19000    1.2458736   -5.9034837    4.0765324  0.017879527  0.048907622            2 
   20000    1.2435013   -5.9129922    4.6498227  0.019374261  0.048927919            2 
   21000      1.22189   -5.9269841    5.1599603  0.020476032  0.048874482            3 
   22000    1.2385966   -5.9333914    5.7690125   0.02185232  0.048644091            2 
   23000     1.263269   -5.9244317    6.3531418  0.023018629  0.048601862            5 
   24000    1.2522122   -5.9269462    6.8849845  0.023906196   0.04849788            6 
   25000    1.2252387   -5.9053414     7.490612  0.024968706  0.048273622            4 
   26000    1.2661273   -5.9318082    8.0476518  0.025793755  0.048257582            5 
   27000    1.2544974   -5.9613415    8.4710193  0.026145121  0.048088459            3 
   28000    1.2376683    -5.936281    9.1147408  0.027127204  0.047827464            1 
   29000    1.2243496   -5.9260993     9.685283  0.027831272  0.047685791            4 
   30000    1.2248211   -5.9006024    10.230624  0.028418401  0.047599949            4 
   31000    1.2506359   -5.9114781    10.688516   0.02873257  0.047435588            5 
   32000    1.2431873   -5.9161098    11.164895  0.029075246  0.047185933            3 
   33000    1.2408946   -5.8458206    11.738632   0.02964301  0.046962454            3 
   34000    1.2754494   -5.9251217    12.250036  0.030024597  0.046768932            2 
   35000      1.23931   -5.9025497    12.889413  0.030689079   0.04668253            4 
   36000    1.2266818   -5.9239059     13.51279  0.031279606  0.046689029            2 
   37000    1.1962409   -5.9093594    14.212419  0.032009953   0.04674031            2 
   38000    1.2158855   -5.9354441    14.738537  0.032321353  0.046846861            4 
   39000    1.2336738     -5.91349    15.369718  0.032841277  0.046899694            7 
   40000    1.2315188   -5.9138471     15.86334  0.033048624  0.046942707            2 
   41000    1.2584226   -5.9650448    16.326358  0.033183654  0.046937464            2 
   42000    1.2576542   -5.9193688    16.735998  0.033206345  0.046868295            3 
   43000    1.2241429   -5.8788608    17.253111  0.033436261   0.04676218            3 
   44000    1.2113912   -5.9412472    17.819501  0.033749055  0.046646881            2 
   45000    1.2467934   -5.8844679    18.324915  0.033935028  0.046532985            3 
   46000    1.2260347   -5.9642725    18.636498  0.033761772  0.046400317            3 
   47000    1.2426825   -5.9355392     19.20504  0.034051489  0.046244593            2 
   48000    1.2608931   -5.9622553    19.617194  0.034057628  0.046069649            4 
   49000     1.256768   -5.9652269      20.1792  0.034318366  0.045915451            4 
   50000    1.2354436   -5.9181538    20.763368  0.034605613  0.045774904            3 
   51000    1.2392747    -5.955086    21.275671  0.034764168  0.045659109            4 
   52000    1.2237941    -5.950214    21.721293  0.034809764  0.045538246            2 
   53000    1.2499669    -5.923796    22.135071  0.034803571  0.045395296            3 
   54000    1.2191741   -5.9330105     22.65655  0.034963812  0.045262231            2 
   55000    1.2415763    -5.966946    23.253174  0.035232081  0.045144939            2 
   56000    1.2391669   -5.9437829    23.505522  0.034978455  0.045004956            2 
   57000    1.2390377   -5.9291024    24.106993  0.035244141  0.044857844            2 
   58000     1.234967   -5.9802916    24.651932  0.035419442  0.044748771            8 
   59000    1.2049708   -5.9045787    25.340255   0.03579132  0.044669659            3 
   60000    1.2291162   -5.9422257    25.820841  0.035862279  0.044608684            1 
   61000    1.2671549   -5.9415166    26.341239  0.035985299   0.04454521            8 
   62000    1.2221783   -5.9456152    26.832392  0.036065042  0.044486668            2 
   63000    1.2248339   -5.9600432    27.450633  0.036310361  0.044437343            7 
   64000    1.2339733   -5.9338369    28.049055  0.036522207  0.044413482            1 
   65000    1.2518583   -5.9636626    28.429052  0.036447503  0.044392373            3 
   66000    1.2233715   -5.9139776    28.929866  0.036527609  0.044360098            6 
   67000    1.2180185   -5.9692176    29.698768  0.036938767  0.044332007            3 
   68000    1.2094645   -5.9123198    30.130957  0.036925192  0.044315487            3 
   69000     1.226802   -5.9367606     30.61105  0.036969866  0.044295492            2 
   70000    1.2550454   -5.9352072    30.973364  0.036873052  0.044253767            7 
   71000    1.2461203   -5.9347675    31.532997   0.03701056  0.044198578            2 
   72000    1.2138269   -5.9489644    31.932041  0.036958381  0.044149239            5 
   73000    1.2099626    -5.955411    32.467645  0.037063522  0.044103182            2 
   74000     1.225567   -5.9375539    33.043293  0.037210915  0.044061902            1 
   75000    1.2394203   -5.9518836    33.508895  0.037232105  0.044019644            5 
   76000    1.2173325   -5.9710963    34.232985  0.037536167  0.043990444            5 
   77000    1.2059148   -5.9973048    34.560343  0.037402968  0.043965726            3 
   78000    1.2220807   -5.9529291    35.229349  0.037638194  0.043945649            3 
   79000    1.2311226   -5.9596305    35.889656  0.037858286  0.043932891            6 
   80000    1.2287819   -5.9677105     36.48599  0.038006239  0.043937183            3 
   81000     1.206101   -5.9542309    36.928856   0.03799265  0.043935466            4 
   82000    1.2289158   -5.9509561    37.378547  0.037986328  0.043932353            2 
   83000    1.2114825   -5.9334157    38.122958  0.038276062  0.043930255            6 
   84000    1.2127607   -5.9416705    38.340617  0.038036326  0.043925391            3 
   85000    1.1904166   -5.9478724    38.725736  0.037966408  0.043917778            2 
   86000    1.2379742     -5.94286    39.365047  0.038144425  0.043906711            4 
   87000    1.2334607   -5.9375516    40.316282  0.038617128  0.043902903            6 
   88000    1.2509838   -5.9478033    40.793268  0.038629989  0.043918269            2 
   89000    1.2039248   -5.9705025    41.098619  0.038481853  0.043922151            6 
   90000    1.2625772   -5.9927531     41.64689  0.038561935  0.043918139            3 
   91000    1.2440192   -5.9263018    41.985882  0.038448609  0.043906577            2 
   92000    1.2085064   -5.9724582    42.612293  0.038598091  0.043897327            2 
   93000    1.2203634   -5.9632032    43.247486  0.038752228   0.04389251            3 
   94000    1.2405002   -5.9325361    43.922935  0.038938772  0.043898199            3 
   95000    1.2167424   -5.9671422    44.169347  0.038745041  0.043898943            3 
   96000    1.2026124    -5.940134    44.752132  0.038847336  0.043894874            4 
   97000    1.2220295   -5.9663436    45.263686  0.038886328  0.043893746            2 
   98000     1.205275   -5.9263827    45.860618  0.038997124  0.043888898            2 
   99000    1.2312318   -5.9648137    46.175609  0.038868358  0.043880289            2 
  100000    1.2089894   -5.9335383     46.79467  0.038995558  0.043873268            2 
  101000    1.2202682   -5.9702066    47.410676  0.039117719  0.043873792            4 
  102000    1.2330391   -5.9610886    48.097259  0.039295146  0.043873871            3 
  103000    1.2496612   -5.9846775    48.449812  0.039198877  0.043876452            2 
  104000    1.2119377   -5.9694265    48.966798  0.039236217  0.043875283            3 
  105000    1.2157876   -5.9655505    49.679002   0.03942778  0.043876102            3 
  106000    1.2334121   -5.9647841    49.892418  0.039223599  0.043870732            5 
  107000    1.2096839   -6.0227546    50.213044  0.039106732  0.043857202            2 
  108000    1.2207992   -5.9741776    50.865304   0.03924792  0.043837049            2 
  109000    1.2030541   -5.9836283    51.185439  0.039132599  0.043813879            3 
  110000     1.215714   -5.9737444    51.326641  0.038883818  0.043782554            3 
  111000    1.1920223   -6.0129774     52.02762  0.039059774  0.043749787            4 
  112000    1.2133222   -5.9756184    52.460035  0.039032764  0.043721977            4 
  113000    1.1951969   -5.9708932    52.515079  0.038727934  0.043690039            4 
  114000    1.2157228   -5.9663422    53.254892  0.038929014  0.043648028            7 
  115000    1.1817483   -5.9577724    53.762146  0.038958076  0.043607804            2 
  116000    1.2116765   -5.9580186    54.242808  0.038967534  0.043568226            5 
  117000    1.1994907   -5.9832249    54.743403  0.038991028  0.043528346            3 
  118000    1.2417295   -5.9579017    55.244982  0.039014817  0.043487931            6 
  119000    1.2105344   -5.9989127    55.828055  0.039095276  0.043454734            4 
  120000    1.2104549   -5.9668388    56.203968  0.039030533  0.043425112            4 
  121000    1.2129279   -5.9425518    56.910353  0.039194458  0.043395057            5 
  122000    1.2027011   -5.9652692    57.422205  0.039222818  0.043366523            3 
  123000    1.2042796   -5.9708183     57.72216  0.039107154  0.043338905            3 
  124000    1.1945651   -5.9707452    58.464188  0.039290449   0.04331483            6 
  125000    1.1809925   -6.0142119    58.836654  0.039224436  0.043292265            4 
  126000    1.2280333   -5.9963443    59.436955  0.039310155  0.043266894            4 
  127000    1.2080218   -5.9947089    60.177266  0.039486395  0.043251538            5 
  128000    1.2148298   -5.9889678    60.607267  0.039457856   0.04323944            3 
  129000    1.2343007   -5.9902657    61.264581  0.039576603   0.04322841            2 
  130000    1.1723611   -5.9913678    61.862877   0.03965569  0.043221743            4 
  131000     1.203669   -5.9723603      62.6664  0.039864122  0.043219894            3 
  132000     1.212329   -5.9944781    63.250454  0.039930842  0.043221743            3 
  133000     1.226695   -6.0038097    63.661593  0.039888216  0.043222604            4 
  134000    1.2002764   -6.0161326    64.133125  0.039883784  0.043226889            2 
  135000    1.2007237   -6.0019789    64.839671  0.040024488  0.043233103            2 
  136000    1.2176569   -5.9849855    64.902384  0.039768617  0.043232908            3 
  137000    1.2137049   -5.9777038    65.332871  0.039740189  0.043222704            4 
  138000    1.2227743   -5.9705392    65.745912  0.039701638  0.043211795            2 
  139000     1.218222   -5.9813464    66.521322  0.039880888  0.043204105            2 
  140000    1.2063213    -5.980776    67.031678  0.039899808   0.04319711            3 
  141000    1.1803792   -6.0482814    67.520441  0.039905698  0.043191416            5 
  142000    1.1727887   -5.9792985    68.015263   0.03991506  0.043184379            1 
  143000    1.1782848   -5.9987351    68.474073  0.039903306   0.04317766            6 
  144000    1.2146088   -6.0105804    69.116483  0.039997965   0.04317241            4 
  145000    1.1988954   -5.9730583    69.806233  0.040118525  0.043170955            2 
  146000    1.1984959   -5.9992221    70.396207  0.040180484   0.04317177            4 
  147000     1.195074    -6.005181     70.55759  0.039998633  0.043165393            3 
  148000     1.209026   -5.9807032    70.905989  0.039924543  0.043157583            8 
  149000     1.183628   -6.0272126    71.813596  0.040164203  0.043145565            2 
  150000    1.2114601   -6.0097124    72.267378  0.040148543  0.043136245            2 
  151000    1.2024019   -6.0046778    72.486403  0.040003533  0.043130155            3 
  152000    1.1736237   -6.0067474    73.088133  0.040070248   0.04312497            6 
  153000    1.1891722   -5.9780513     74.39972  0.040522723  0.043125651            4 
  154000    1.1647888   -6.0026297    74.515711  0.040322355  0.043131352            2 
  155000    1.1836097   -6.0513741    74.831631  0.040232059  0.043137013            6 
  156000    1.1768163   -6.0432792    75.246498  0.040195779  0.043143953            2 
  157000    1.1515349   -6.0157143    76.169188  0.040429505  0.043143043            4 
  158000    1.1701246   -5.9992212    76.484817  0.040340093  0.043142369            5 
  159000    1.1922892   -6.0183678    77.187951  0.040454901  0.043139664            4 
  160000    1.1742597   -6.0002857    77.409504   0.04031745  0.043137337            3 
  161000    1.2179667   -6.0000924    77.812903   0.04027583   0.04313141            4 
  162000    1.2049065   -6.0183745    77.916961  0.040080741  0.043121518            5 
  163000    1.1691957     -5.99132    78.544256   0.04015555  0.043109446            3 
  164000    1.1931893   -5.9872152    79.055909  0.040170686  0.043096317            2 
  165000    1.1693569   -5.9991176    79.646899  0.040225707   0.04308711            2 
  166000    1.1866374    -6.027905    79.999019   0.04016015  0.043076064            5 
  167000    1.2074306   -6.0076212    80.292053  0.040065895  0.043060115            3 
  168000    1.2064459   -6.0132194    80.402643  0.039882263  0.043039078            2 
  169000    1.2202651   -6.0241645    81.161173  0.040020302  0.043019834            2 
  170000    1.1671283   -6.0243118    81.250853  0.039828849  0.043000513            3 
  171000    1.1778377   -6.0070765     82.12345  0.040021174  0.042981497            3 
  172000    1.1938887   -6.0519653    82.384859  0.039915145  0.042960798            4 
  173000      1.18126   -6.0007828    83.123294  0.040040122  0.042941807            5 
  174000    1.1745556   -6.0014279    83.480439  0.039981053  0.042922048            2 
  175000    1.1795559    -6.026433    83.889382  0.039947325   0.04290356            4 
  176000    1.1839027   -5.9847069    84.562486  0.040039056  0.042885442            3 
  177000    1.1938153   -5.9905234    84.668901  0.039862948  0.042864863            5 
  178000    1.1892116   -6.0080919    85.397317  0.039980017  0.042842397            3 
  179000    1.2017381   -6.0511334    85.745001  0.039918529  0.042820447            2 
  180000    1.1853555   -6.0384313     86.04699   0.03983657  0.042797855            2 
  181000    1.1669938   -6.0172615    86.577051   0.03986052  0.042773145            2 
  182000    1.1785887   -5.9778482     86.62833  0.039664986  0.042745638            5 
  183000    1.1919761   -6.0053083    87.509952  0.039849705  0.042718787            6 
  184000    1.1831347   -6.0259453    87.565361  0.039658225  0.042693326            4 
  185000    1.1618955   -5.9933795    87.794202  0.039546938  0.042666136            4 
  186000    1.2004091   -6.0307169    88.462859  0.039633897  0.042636321            3 
  187000    1.1693552   -6.0459787     88.97187  0.039648784  0.042607927            3 
  188000    1.1723835   -6.0258406    89.177745  0.039529142     0.042579            2 
  189000    1.1660367   -6.0333186     89.73029   0.03956362  0.042551021            6 
  190000    1.1688742   -6.0490903     90.41395  0.039655241  0.042520548            4 
  191000    1.1778767   -5.9991893    90.762008   0.03959948  0.042491512            4 
  192000    1.1773216   -6.0154863    91.380397   0.03966163  0.042464781            3 
  193000     1.157689   -6.0256014    91.936197  0.039696112  0.042438586            4 
  194000    1.1830228   -6.0583016    92.152137  0.039584251  0.042414799            7 
  195000    1.1573357    -6.075205    92.987713  0.039738339  0.042388406            3 
  196000    1.1511521   -6.0219661    93.135494  0.039598424  0.042362314            7 
  197000    1.1968163   -5.9917915     93.53651  0.039567052  0.042334235            5 
  198000     1.164475   -6.0383069    94.305547  0.039690886   0.04230962            4 
  199000    1.1942532    -6.041325    94.811857  0.039703458  0.042283652            3 
  200000    1.1667125   -6.0692198    95.291394  0.039704747  0.042259581            8 
  201000     1.159037   -6.0709801    95.449619  0.039572811  0.042236268            3 
  202000     1.178921   -6.0362941    95.763737  0.039506492  0.042211208            6 
  203000    1.1530026   -6.0283859    96.403272  0.039574414  0.042184296            3 
  204000    1.1956023     -6.00908    96.810143  0.039546627  0.042156933            4 
  205000    1.1610152   -6.0310986    97.383895  0.039586949  0.042131452            3 
  206000    1.1687131   -6.0146982    97.654637  0.039504303  0.042104358            2 
  207000    1.1852616   -6.0539359    97.609601  0.039295331  0.042074905            2 
  208000    1.2032256    -6.051483    98.224805  0.039352886  0.042045632            4 
  209000    1.1609322   -6.0508332    99.072034  0.039502406  0.042018182            6 
  210000    1.1525283   -6.0476542    99.106957  0.039328157  0.041989667            2 
  211000    1.1706854   -6.0298305    99.975895   0.03948495  0.041961236            4 
  212000    1.1755031   -6.0302999    100.07368  0.039337139  0.041931711            2 
  213000    1.1897722   -6.0845276    100.18631  0.039196521   0.04190192            7 
  214000      1.17004   -6.1147801     100.4688  0.039123366  0.041869651            3 
  215000    1.1877031   -6.0326977    101.03058  0.039159141  0.041836802            2 
  216000    1.1696276   -6.0472878    101.72633   0.03924627  0.041806279            2 
  217000    1.1637577   -6.0348843     102.2924  0.039282797  0.041776873            7 
  218000    1.1661302   -6.0035707    102.91001  0.039338689  0.041750106            3 
  219000     1.169067   -6.0448477    103.11649   0.03923763  0.041722929            3 
  220000    1.1798737   -6.0232512    103.79887  0.039317755  0.041697192            3 
  221000    1.1694188   -6.0537845    104.19475  0.039289122  0.041671806            3 
  222000    1.1774427   -6.0810564    104.72315  0.039310492  0.041646317            3 
  223000    1.1602099   -6.0643767    105.30577  0.039351932   0.04161986            2 
  224000    1.1570035   -6.0529642    105.92805  0.039407756  0.041596796            2 
  225000     1.192656   -6.0717723    106.06891   0.03928478  0.041572441            3 
  226000    1.1450881   -6.0448091    106.29522  0.039194401  0.041547456            4 
  227000    1.1717797   -6.0397698    106.93705  0.039257362  0.041521527           12 
  228000    1.1867902   -6.0226574    106.94454  0.039087917  0.041493099            3 
  229000    1.1700663   -6.0364045    107.68379  0.039186242  0.041464827            5 
  230000    1.1539727   -6.0519017    107.98119  0.039123621  0.041437771            3 
  231000    1.1522859   -6.0241674    108.48926  0.039137541  0.041411078           10 
  232000    1.1373677    -6.044074    109.41292  0.039300618   0.04138751            4 
  233000    1.1680945   -6.0388172    109.72493  0.039243536  0.041363918            2 
  234000     1.164755   -6.0281719    110.41306  0.039320891  0.041340036            9 
  235000    1.1862868   -6.0649432    110.77364  0.039281431  0.041317168            8 
  236000    1.1623526   -6.0868151     110.6465   0.03907009  0.041294007            4 
  237000    1.1564908   -6.0635479    111.34387  0.039150447  0.041270062            4 
  238000    1.1773985   -6.0590298    111.61862  0.039082151  0.041246898            3 
  239000    1.1466847   -6.0638162    111.68148  0.038940545   0.04122348            2 
  240000    1.1780441   -6.0165559    112.68221  0.039125768  0.041197878            5 
  241000    1.1628487   -6.0343335    112.67862   0.03896218  0.041172513            4 
  242000     1.166884   -6.0430798    113.24362  0.038995737    0.0411468            2 
  243000    1.1437136   -6.0838958    113.47549  0.038914778   0.04111994            7 
  244000    1.1778058   -6.0516022    114.06738  0.038957439  0.041092166            5 
  245000    1.1627259   -6.0601597    114.64592   0.03899521  0.041062943            5 
  246000    1.1581197   -6.0640532    114.50678   0.03878956  0.041034416            7 
  247000    1.1566558   -6.0669436    115.38612  0.038929191   0.04100674            3 
  248000    1.1538302   -6.0574199    115.90848  0.038947741  0.040980761            5 
  249000    1.1730593   -6.0673926    116.04831  0.038838122  0.040953714            7 
  250000    1.1571553   -6.0525494    116.85234  0.038950779  0.040926716            6 
  251000    1.1379904   -6.1271741    117.16033  0.038897853  0.040902089            4 
  252000    1.1813094   -6.0585666     118.2507  0.039104067  0.040879676            7 
  253000    1.1593718   -6.0388739    118.31345  0.038970174  0.040857251            2 
  254000    1.1443239   -6.0725155    118.64933  0.038926945  0.040835074            4 
  255000    1.1411874   -6.0528412     119.0437  0.038903169  0.040812025            4 
  256000    1.1287499   -6.0955551    119.37094  0.038857729  0.040787616            4 
  257000    1.1311187   -6.1046707    120.01848  0.038916499  0.040764377            3 
  258000     1.140333   -6.0941439    120.07795  0.038784868  0.040740331            5 
  259000    1.1495163   -6.0731664    120.06988  0.038632522  0.040716114            5 
  260000    1.1454823   -6.0956642    121.03412  0.038792989  0.040692214            4 
  261000    1.1437847    -6.065555    121.44722  0.038776252  0.040669663            4 
  262000    1.1503495   -6.0781984    122.26613  0.038888718  0.040648957            3 
  263000    1.1268279   -6.0915179    122.85743  0.038928211   0.04062772            4 
  264000    1.1695394   -6.0703845    123.13169  0.038867325  0.040605942            3 
  265000    1.1485388   -6.1025192    123.41525  0.038809828  0.040584668            5 
  266000    1.1362461    -6.067346    123.82917  0.038793599  0.040563017            4 
  267000    1.1566961   -6.0885328    123.79531  0.038637738  0.040541466            4 
  268000    1.1649793   -6.0960245    124.41664  0.038686765  0.040518363            5 
  269000    1.1608501   -6.0726361    124.90989  0.038695752  0.040494976            7 
  270000    1.1552741   -6.0841577    125.51716  0.038739864  0.040472521            2 
  271000    1.1428139   -6.0725119    125.91978  0.038720719  0.040450259            4 
  272000    1.1393421   -6.0913318    126.26528  0.038684216  0.040428605            5 
  273000    1.1470868   -6.0935825    126.35601  0.038570211  0.040407047            4 
  274000     1.161989   -6.0643551    127.34849  0.038731294  0.040384406            4 
  275000    1.1326242   -6.0707647    127.60066  0.038666868  0.040361324            7 
  276000    1.1756188   -6.0768452    127.37813  0.038459581  0.040337215            3 
  277000    1.1391357   -6.0955652    128.29733   0.03859727  0.040312453            3 
  278000    1.1460245   -6.0900564    128.22446   0.03843659  0.040289138            3 
  279000    1.1750393   -6.0931022    128.51418  0.038385358  0.040264217            8 
  280000    1.1456611   -6.0993471    129.31795  0.038487485  0.040238609            6 
  281000    1.1330081   -6.0791536    129.70808  0.038466217  0.040214323            4 
  282000    1.1508494   -6.0367877    130.10862  0.038448173  0.040190874            5 
  283000    1.1550665   -6.0696351    130.89454  0.038543741  0.040167205            4 
  284000    1.1286362   -6.0672204    130.63238  0.038331096  0.040144267            3 
  285000    1.1611797     -6.05094    131.49997  0.038450284  0.040120382            2 
  286000    1.1615537   -6.1212652    131.33579  0.038268004    0.0400964            5 
  287000    1.1106717   -6.0937874    132.57068  0.038493227  0.040072074            4 
  288000    1.1144583   -6.0776776     132.5732    0.0383603  0.040046411            3 
  289000    1.1437203   -6.0906767    133.46947  0.038486008  0.040022832            7 
  290000    1.1376473   -6.1245749    133.96005  0.038494267  0.040000352            4 
  291000    1.1312514   -6.0924874    133.48688  0.038226485  0.039977949            7 
  292000    1.1036425   -6.0921348    134.41807  0.038361321  0.039954591            3 
  293000    1.1286512   -6.1118574    134.74798  0.038324227  0.039931612            4 
  294000    1.1259149   -6.0905069    135.57068  0.038427063  0.039909674            6 
  295000    1.1155062   -6.0789544    135.69211  0.038331106  0.039887766            4 
  296000    1.1258878   -6.1562778    135.81582  0.038236436  0.039866084            3 
  297000    1.1171206   -6.0726991    136.32793  0.038251383  0.039844547            4 
  298000    1.1314648   -6.1048534    136.49272  0.038169106   0.03982223            2 
  299000    1.1247289   -6.1097858    136.78207  0.038122094  0.039798983            3 
  300000    1.1255824    -6.108056    137.42687   0.03817413  0.039775407            2 
  301000    1.1428861   -6.1337508    137.59769  0.038094599  0.039751644            3 
  302000     1.127079   -6.1062562    138.20943  0.038137259  0.039727435            2 
  303000    1.1264914   -6.1191124    138.22059  0.038014464  0.039703413            4 
  304000    1.1370671   -6.1217203    138.75874  0.038036936  0.039679645            7 
  305000     1.146335   -6.0673506    139.27847  0.038054226   0.03965612            6 
  306000    1.1659179   -6.1075877     139.5089   0.03799262    0.0396326            5 
  307000     1.135061   -6.1050533    140.07039  0.038021278  0.039607252            2 
  308000    1.1371329   -6.1023227    140.44406  0.037998934  0.039583521            3 
  309000    1.1498223   -6.1138279    141.10534  0.038054299  0.039560352            3 
  310000    1.1240439   -6.1224692    141.43399   0.03801989  0.039536061            7 
  311000    1.1429269   -6.0683798    141.53897  0.037925769  0.039513324            3 
  312000    1.1507323   -6.0743503    142.41783  0.038038951  0.039491261            2 
  313000    1.1282926   -6.1167342    142.99386  0.038070783  0.039469503            4 
  314000    1.1191199   -6.1238064    143.68523  0.038133023  0.039447672            5 
  315000     1.128404   -6.1029427    144.04741  0.038107779  0.039427578            8 
  316000    1.1507152   -6.1092852    144.41118  0.038083116  0.039408208            3 
  317000    1.1445422   -6.1074575    144.73925  0.038049225  0.039388288            2 
  318000    1.1182426   -6.1545503    145.26001  0.038066041   0.03936832            4 
  319000    1.1545462   -6.1005638    145.84611  0.038099821   0.03934999            2 
  320000    1.1547037   -6.0911555    146.62665  0.038184023  0.039333084            4 
  321000    1.1288085   -6.1132934    147.05791  0.038177028  0.039316345            6 
  322000    1.1138898   -6.1220679    147.18331   0.03809092  0.039298424            3 
  323000    1.1227701   -6.1214913    147.75048  0.038119318   0.03928061            3 
  324000    1.1406495   -6.1361291    148.53439  0.038203289  0.039263519            3 
  325000    1.0892917   -6.1415325    148.65719  0.038117227  0.039247079            8 
  326000    1.1249872   -6.1252215    149.51322  0.038219125   0.03923189            3 
  327000    1.1307414   -6.1221646    149.72593  0.038156456    0.0392156            4 
  328000    1.0908704   -6.1380536    149.97906  0.038104435  0.039199443            2 
  329000    1.1061211   -6.0919125    150.63012  0.038153525  0.039183124            3 
  330000    1.1233278    -6.153699    151.17014  0.038174278  0.039167664            3 
  331000    1.1191713   -6.1275421    151.45386  0.038130378   0.03915269            3 
  332000    1.1415384   -6.1575018    151.80574   0.03810385  0.039136796            2 
  333000     1.126177    -6.136211    151.82879  0.037995193   0.03912028            5 
  334000    1.1360374   -6.1071548    152.58054  0.038068996  0.039104658            2 
  335000    1.1330851   -6.1531575    153.21825  0.038113991  0.039089766            3 
  336000    1.1255766   -6.1468236    153.57513  0.038089069  0.039075781            3 
  337000     1.110754   -6.1472468    153.91103  0.038059107  0.039060629            5 
  338000    1.1371189   -6.1535736    154.19379   0.03801622  0.039045647            3 
  339000    1.1089201   -6.1417882    154.73909  0.038038124  0.039030845            4 
  340000    1.1341181   -6.1436556    155.58434  0.038133417  0.039015764            2 
  341000    1.1299677   -6.1027353    156.28195  0.038192069  0.039000496            4 
  342000    1.1124406   -6.1391314    156.32581  0.038091084  0.038986789            4 
  343000    1.1003992   -6.1028041    156.88595  0.038116121  0.038974336            5 
  344000    1.1397332   -6.0936342    157.82175  0.038232013   0.03896324            2 
  345000    1.1106278   -6.1273047    157.52403  0.038049283  0.038951939            2 
  346000    1.1091231   -6.1362007    158.28329   0.03812218  0.038939748            6 
  347000    1.1212429   -6.1599581    158.03279  0.037952159   0.03892732            5 
  348000    1.0938121   -6.1360732    158.83781  0.038035875  0.038915003            5 
  349000    1.1137091    -6.128172      159.541  0.038094796  0.038902867            4 
  350000    1.1151913   -6.1812367    159.22105  0.037909773  0.038889643            8 
  351000    1.1429892    -6.118581    159.72111  0.037920491  0.038875963            4 
  352000    1.1043288    -6.139365    160.20204  0.037926619  0.038861399            3 
  353000    1.1084876   -6.0871064    160.69452  0.037935439  0.038847565            4 
  354000    1.1122335   -6.1216298    160.70175  0.037829978  0.038832352            8 
  355000    1.1491405   -6.1683892    160.81883  0.037750899  0.038816395            7 
  356000    1.1334189   -6.1569491    161.34174  0.037767262  0.038800897            5 
  357000    1.1189571   -6.1566687    161.86726  0.037784142  0.038786156            8 
  358000    1.0987243    -6.139385    162.33665  0.037787861  0.038769854            4 
  359000    1.0985347     -6.17646    162.25202  0.037662958  0.038752827            6 
  360000     1.072807   -6.1484907     162.6815  0.037657754  0.038735913            4 
  361000    1.0976474   -6.1573887     163.1913  0.037671122  0.038719775            3 
  362000     1.093334   -6.1172349    163.38828  0.037612402  0.038702836            5 
  363000    1.1126978   -6.1675597    163.70299  0.037581035  0.038686291            5 
  364000    1.1079942   -6.1339878    164.56041  0.037674085  0.038669807            4 
  365000    1.1239305   -6.1698847    164.85408  0.037637917  0.038652802            4 
  366000    1.1266571   -6.1274279    165.61682  0.037708747  0.038635714            2 
  367000    1.1086207   -6.1724589    165.68016  0.037620382  0.038619437            5 
  368000    1.0923191   -6.1645849    166.49877  0.037703525  0.038603435            5 
  369000    1.1144781   -6.1453131    167.21538  0.037763185  0.038587648            3 
  370000    1.1142383   -6.1139788    167.71134  0.037772824  0.038572593            2 
  371000    1.0960893   -6.1495347    167.17916  0.037551472   0.03855631            4 
  372000    1.1056321   -6.1866205    167.47868  0.037517625  0.038540486            2 
  373000    1.1086452   -6.1509913    168.59514  0.037666475  0.038525327            3 
  374000    1.1066285    -6.183837    168.59427  0.037565568  0.038510684            5 
  375000    1.1093527   -6.1281919    169.20088  0.037600196   0.03849535            5 
  376000    1.1074005    -6.166002    169.25606  0.037512425  0.038479818            2 
  377000    1.1231274   -6.1521148    169.36688  0.037437419  0.038463916            2 
  378000    1.1133818   -6.1428232    170.27887  0.037539434  0.038447367            4 
  379000     1.112498   -6.1486751    170.89212  0.037575224  0.038431042            3 
  380000    1.1012691   -6.1839045    170.74314  0.037443672  0.038413524            9 
  381000    1.1091038   -6.1721322     171.1947  0.037444161  0.038396177           10 
  382000    1.0835669   -6.1499465    171.11498  0.037328748  0.038378865            5 
  383000     1.109774   -6.1513319    171.56373  0.037328924  0.038361292            9 
  384000    1.1015314   -6.1286928    172.20531  0.037370943  0.038343241            3 
  385000    1.0974048   -6.1406097    171.87717  0.037202851  0.038324186            6 
  386000    1.0983609   -6.1765915    172.07876  0.037149992  0.038304767            4 
  387000    1.1151732   -6.1865755    172.64038  0.037174931  0.038284814            5 
  388000    1.1103034     -6.16376    173.06282  0.037169849  0.038265085            7 
  389000    1.1161709   -6.1672951    173.42745   0.03715241  0.038244745            5 
  390000     1.110699   -6.1488755    173.56105  0.037085695  0.038224555           10 
  391000     1.093672   -6.2023324    173.87882  0.037058572  0.038204249            3 
  392000    1.1043914   -6.1772136    174.31732  0.037057253    0.0381842            6 
  393000    1.1077004    -6.211493    174.39721  0.036979901  0.038163869            5 
  394000    1.1043157   -6.1784572    174.71611  0.036953493  0.038143548            6 
  395000    1.0964948   -6.1626368    175.35605  0.036994948  0.038122565            5 
  396000    1.0857374    -6.154922    175.87551   0.03701084  0.038101772            5 
  397000    1.1055321   -6.1726379    175.72422  0.036885855    0.0380811            7 
  398000    1.1269599   -6.1506809    176.35281  0.036924792  0.038060367            8 
  399000    1.0893339   -6.1910518    176.58992  0.036881771  0.038038646            8 
  400000    1.1074476   -6.1895281    176.25466  0.036719721  0.038017355            6 
  401000    1.1052553   -6.1596499    177.54964  0.036897265  0.037996731           11 
  402000    1.1132652   -6.1858948    177.85797  0.036869397  0.037975304            2 
  403000    1.0830376   -6.1513696    178.44142  0.036898557  0.037953683            7 
  404000    1.0894649   -6.1644738    178.27054  0.036771975  0.037932419            2 
  405000    1.0882272   -6.1956995    178.77101  0.036784158  0.037910972            4 
  406000    1.0792483   -6.1723661    179.74189  0.036892834  0.037890138            5 
  407000    1.0737724   -6.1901936    179.56425  0.036765817  0.037869349            9 
  408000    1.0978405   -6.1772664    179.54172  0.036671103  0.037848517           14 
  409000    1.0762142   -6.1534077    179.97025  0.036668756  0.037827406            4 
  410000    1.0873521   -6.1579442     180.7325  0.036734247  0.037806455            2 
  411000    1.0584522   -6.1827233    180.89526   0.03667787   0.03778527            4 
  412000    1.0911604   -6.1612258    181.71672  0.036754999  0.037765121            4 
  413000     1.108305   -6.1296575    181.71486  0.036665629  0.037745184            4 
  414000    1.0715263   -6.1814635    181.69046  0.036572153  0.037723795            7 
  415000    1.0802328   -6.1689401    182.33288  0.036613027  0.037702374            2 
  416000    1.0721159   -6.1976527    182.98521  0.036655692  0.037681176            2 
  417000    1.0871706   -6.1894622    182.77183  0.036525146  0.037660388            2 
  418000     1.081595   -6.2084314    183.35838    0.0365547  0.037639363            4 
  419000    1.1134232   -6.2015615    183.31286  0.036458405   0.03761743            5 
  420000      1.08519    -6.191636    183.60614  0.036429789  0.037594284            6 
  421000    1.0523113   -6.2089178    183.46167  0.036314662  0.037571338            3 
  422000    1.1127812   -6.1947931    183.77888  0.036291248  0.037548211            4 
  423000    1.0961273   -6.1712476    184.61732  0.036370631  0.037525683            3 
  424000    1.0842436   -6.1666231    184.75432  0.036311777  0.037503818            3 
  425000    1.0673085   -6.1767748    184.65173  0.036206222  0.037481113            4 
  426000    1.0813892   -6.1714778    185.12319  0.036213457  0.037457522            4 
  427000    1.0702871   -6.2365731    184.99927  0.036104464   0.03743387            5 
  428000    1.0997691   -6.1673545    185.14312  0.036048115  0.037409933            2 
  429000    1.0993025   -6.1818701    185.32963  0.036000317  0.037384999            3 
  430000    1.0895141   -6.2282821    185.59757  0.035968522  0.037359499            6 
  431000    1.0703386   -6.1989932    186.45012  0.036049908  0.037334039            6 
  432000    1.0658154   -6.1827806    186.56722  0.035989047  0.037308311            5 
  433000    1.0806402   -6.1754772    186.81557  0.035953727  0.037281949            3 
  434000    1.0886306   -6.2027967    186.78302  0.035864636  0.037255671           10 
  435000     1.080125   -6.2097337    186.97008  0.035818023  0.037229254           16 
  436000    1.0757439    -6.200035    187.41771  0.035821427  0.037203516            4 
  437000    1.0643574   -6.2193566    188.69286   0.03598262  0.037178321            3 
  438000    1.0789998   -6.1946264    188.66657  0.035895465  0.037153787            8 
  439000    1.0789604   -6.2076857    188.80243   0.03583949  0.037129191            8 
  440000    1.0730586   -6.1886669    189.48049  0.035886456  0.037104711            6 
  441000    1.0426981   -6.2031467    189.20083  0.035752235  0.037080097            4 
  442000    1.1000989   -6.1656629    190.81148  0.035975016  0.037056827            4 
  443000    1.0292489   -6.2156565    190.89445  0.035909416  0.037033263            9 
  444000    1.0656898   -6.1867767    190.81668  0.035813941  0.037009714            4 
  445000    1.0813493   -6.2404905    190.96875  0.035761938  0.036985726            5 
  446000    1.0882044   -6.1893644    191.95276  0.035865613  0.036961755            4 
  447000    1.1051165   -6.2331745    191.97577  0.035789666  0.036938351            4 
  448000    1.0794436   -6.2041532     192.6671  0.035838375  0.036915296            6 
  449000    1.1083245   -6.1998608     192.9806   0.03581674  0.036892925            3 
  450000    1.0583185   -6.2063263    192.98071  0.035737169  0.036870475            3 
  451000     1.066915   -6.1739044    194.01006  0.035848126  0.036848928            6 
  452000    1.0733666   -6.1888807    193.72433  0.035716137  0.036826772            8 
  453000    1.0629268   -6.2676092    194.27951  0.035739424  0.036804614            3 
  454000    1.0843629   -6.1850907    195.24802  0.035838477  0.036782683            4 
  455000    1.0756554   -6.2147056    194.80018   0.03567769  0.036760659           10 
  456000    1.0616832   -6.2096398    194.97924  0.035632172  0.036738077            6 
  457000    1.0911547   -6.2143203    195.72567  0.035690312  0.036714938            7 
  458000    1.0631085   -6.2246325    195.14211  0.035506207  0.036692048            3 
  459000    1.0720403   -6.1529527    195.72718  0.035535072   0.03666911            5 
  460000     1.073766   -6.2032497    196.42385  0.035584032  0.036646504           11 
  461000     1.060586   -6.2125022    196.73078  0.035562326  0.036624307            5 
  462000    1.0695322   -6.2024098    197.90579  0.035697293  0.036602989            6 
  463000    1.0796682   -6.2147482    197.75069  0.035592278  0.036581615            9 
  464000    1.0530919   -6.2128083    198.18892  0.035594275   0.03656043            3 
  465000    1.0832325    -6.236577    198.98271  0.035659984  0.036539184            9 
  466000    1.0706832   -6.1806775    199.83976  0.035736724   0.03651826            7 
  467000    1.0875134   -6.2409313    199.13656  0.035534717  0.036497577            5 
  468000    1.0802474   -6.1968991    199.72077  0.035562815  0.036476939            9 
  469000    1.0560264   -6.2387165    200.62461  0.035647585  0.036457088            7 
  470000    1.0811844     -6.23533    200.22669  0.035501187  0.036436647            6 
  471000    1.0685668   -6.2308123    200.46337  0.035467687  0.036416029            4 
  472000    1.0337523   -6.2423754    200.81732  0.035455035  0.036395169            8 
  473000    1.0465869   -6.2329423    201.74204  0.035542995   0.03637408            9 
  474000     1.035527   -6.2586779    202.48257  0.035598202  0.036354187            2 
  475000    1.0371535   -6.2453236    202.73026  0.035566712  0.036334883            2 
  476000    1.0766928   -6.2124846    203.01432  0.035541723  0.036316097            3 
  477000    1.0615665   -6.2555759    203.49199  0.035550661  0.036297319            6 
  478000    1.0573104   -6.2197831    204.40677  0.035635769   0.03627927            7 
  479000    1.0546185   -6.2528858    204.54887  0.035586095  0.036261086            6 
  480000    1.0457369   -6.2096824    204.85529  0.035565154   0.03624313            4 
  481000    1.0844713   -6.1970921    205.18875  0.035548986  0.036225009            6 
  482000    1.0495421   -6.2352437      205.897  0.035597684  0.036207032            4 
  483000     1.066999    -6.249446    205.42523  0.035442585  0.036188927            6 
  484000    1.0736307   -6.2319571    206.07432  0.035481116  0.036170852            6 
  485000    1.0518596   -6.2288636     206.7425  0.035522767  0.036153471           12 
  486000    1.0644325   -6.2269531    207.53923  0.035586288   0.03613661           16 
  487000    1.0627952   -6.2553013    207.05847  0.035430949  0.036119035            4 
  488000    1.0381674   -6.2465949    206.82099  0.035317792   0.03610064           10 
  489000    1.0424632    -6.254181    207.71076  0.035397198  0.036081824            8 
  490000    1.0467813   -6.2620269    207.73549  0.035329165  0.036063447            3 
  491000    1.0609833    -6.246472    208.91398  0.035457226   0.03604439            4 
  492000    1.0453994    -6.271456    208.19415  0.035263237  0.036025629            6 
  493000    1.0645358   -6.2221267    209.13017  0.035349927  0.036006773            6 
  494000    1.0825928   -6.2597574    208.25189   0.03513021  0.035987539            3 
  495000    1.0383197   -6.2330685    209.56421  0.035280169  0.035968042            8 
  496000    1.0647652   -6.2332959    209.85928  0.035258615  0.035949288            5 
  497000    1.0547955   -6.2761089    209.49213  0.035126112  0.035930478            3 
  498000    1.0257292    -6.222257    210.72042  0.035261115   0.03591203            7 
  499000    1.0703028   -6.2283665    211.06925  0.035248705  0.035893447            4 
  500000    1.0553261   -6.2563844      211.309  0.035218167  0.035874818            4 
  501000    1.0631611   -6.2301505    211.67985  0.035209556  0.035856133            6 
  502000    1.0585844   -6.2450824    211.82644  0.035163752  0.035837415            4 
  503000    1.0661433   -6.2484565    212.66155  0.035232199  0.035819441            6 
  504000    1.0539702   -6.2427211    212.72084  0.035172096  0.035801489            8 
  505000     1.015503   -6.2429855    212.68389  0.035096352  0.035782915            5 
  506000     1.071735   -6.2523024    213.59743  0.035177442  0.035764414            3 
  507000    1.0587439   -6.2568781    213.68121  0.035121829  0.035745764            4 
  508000    1.0644965   -6.2499663    214.41188  0.035172552  0.035727536            5 
  509000    1.0367859   -6.2391992    214.61516  0.035136732  0.035709388            3 
  510000    1.0402705   -6.2348758      214.628  0.035069935  0.035690765            2 
  511000    1.0686573   -6.2470848     215.1809  0.035091471  0.035672099            8 
  512000    1.0411787   -6.2590356    214.56357  0.034922456  0.035653453            9 
  513000     1.027718   -6.2377783    214.98908  0.034923503  0.035634873            3 
  514000    1.0429411   -6.2564368    215.24297  0.034896721  0.035615951            4 
  515000    1.0390817    -6.229882    216.52292  0.035036071  0.035597086            7 
  516000      1.06681   -6.2535022    216.47704  0.034960761   0.03557812            4 
  517000    1.0523671   -6.2413947    216.00919   0.03481773  0.035559396            7 
  518000    1.0433018   -6.2577769    217.12851  0.034930583  0.035540746            4 
  519000    1.0538684    -6.226007    217.55101  0.034931119  0.035522143            5 
  520000    1.0508815   -6.2543933    217.27708  0.034820044  0.035504066            8 
  521000    1.0467252   -6.2784556    218.14033  0.034891288  0.035484858            6 
  522000    1.0649676   -6.2642639    217.58893  0.034736419  0.035465688            3 
  523000    1.0375757   -6.2543412    218.21205  0.034769287  0.035446725            4 
  524000    1.0474221   -6.2476532    218.66669  0.034775237  0.035427713            4 
  525000    1.0585301   -6.2997652    218.54323  0.034689401  0.035408718            5 
  526000    1.0278397   -6.2668649    219.01556  0.034698283  0.035390022            5 
  527000    1.0217123   -6.2664775    219.06598  0.034640415  0.035371142            9 
  528000    1.0458386   -6.2519079    219.52467  0.034647202  0.035351969            8 
  529000    1.0290966   -6.2810539    220.12103  0.034675651  0.035332258            4 
  530000    1.0345742   -6.2217896    220.27167  0.034633911  0.035312971            6 
  531000    1.0259562   -6.2636002    220.25418  0.034565942  0.035293754            2 
  532000    1.0481393    -6.307704    220.77574  0.034582665  0.035274131            8 
  533000    1.0521994    -6.254229    220.90281   0.03453765  0.035254291            3 
  534000    1.0541031   -6.2397586    221.32096  0.034538227  0.035234771            6 
  535000    1.0262537   -6.2782905    221.41519  0.034488348  0.035215528            4 
  536000     1.038918   -6.2859922    221.99575  0.034514264  0.035196422            4 
  537000    1.0303053   -6.2668804    222.42533  0.034516655  0.035177888            4 
  538000    1.0508098    -6.269002    223.48535   0.03461669  0.035159607           10 
  539000    1.0431768   -6.2730156    223.90045  0.034616643  0.035140775            4 
  540000    1.0475333   -6.2991734    224.15381  0.034591637  0.035122057           11 
  541000    1.0377976   -6.2846111    223.48502   0.03442468  0.035103582            5 
  542000    1.0371366    -6.246657    224.31048  0.034488082  0.035084714           10 
  543000    1.0380776   -6.2549341    225.33247   0.03458141   0.03506608            5 
  544000    1.0190109   -6.2828207    224.94839  0.034459006  0.035047433            7 
  545000    1.0350435   -6.2867218     225.0228  0.034407157  0.035028554            3 
  546000    1.0160757   -6.2798775    225.25324   0.03437931  0.035009715            9 
  547000    1.0580327   -6.2779464    225.97412  0.034426282  0.034990548            5 
  548000     1.039613   -6.2823412    225.08127  0.034227687  0.034971223            4 
  549000     1.042622   -6.2660396    225.51527  0.034231219  0.034951457            5 
  550000    1.0256352   -6.2686077    225.60781  0.034183002  0.034931585            4 
  551000     1.019597   -6.2938578    226.21141  0.034212253  0.034912122            6 
  552000    1.0294634   -6.2594208    226.67604  0.034220417  0.034892784            5 
  553000    1.0478522   -6.2629316    227.57687  0.034294285  0.034873642            6 
  554000    1.0208028   -6.2885187    226.74848  0.034107774  0.034854352            8 
  555000     1.034245   -6.2757142    228.13964  0.034255202  0.034834806            7 
  556000    1.0264751   -6.2504776    227.93562  0.034163012  0.034815293            4 
  557000    1.0493792   -6.2662311    228.32644   0.03416015   0.03479538            6 
  558000    1.0189816   -6.2443126    228.89477  0.034183806  0.034775367            7 
  559000    1.0590034   -6.3099135     228.5506  0.034071348  0.034755959            5 
  560000    1.0279127   -6.2657645    229.28386  0.034119622  0.034736537            3 
  561000    1.0349887    -6.302593    228.97622  0.034013104   0.03471661            3 
  562000    1.0340624   -6.2984349    229.10963  0.033972365  0.034697043            4 
  563000     1.025037   -6.2804481    229.49222  0.033968653  0.034677064            7 
  564000    1.0208495   -6.2653393     230.3507  0.034035269  0.034657479            5 
  565000    1.0265663   -6.3137037    229.97518  0.033919644  0.034637325            8 
  566000    1.0383556   -6.2587236    230.91707  0.033998391  0.034617882            6 
  567000    1.0444348   -6.3038078    231.11092  0.033966919   0.03459849            5 
  568000    1.0194033   -6.2829321    231.20631  0.033921113   0.03457913            4 
  569000    1.0387531    -6.294248      231.774   0.03394464  0.034560075           10 
  570000    1.0202075   -6.2623471    232.50289  0.033991651  0.034541119            8 
  571000    1.0268794   -6.3054523    232.57894   0.03394322  0.034522194            3 
  572000    1.0526446   -6.3103599    233.25088  0.033981771  0.034503546            7 
  573000    1.0527551   -6.3020932    232.88809  0.033869704  0.034484496           12 
  574000    1.0110856   -6.2884424    233.21057  0.033857516  0.034465044            2 
  575000    1.0003634   -6.2973078    233.40068  0.033826185  0.034445535           15 
  576000    1.0205108   -6.2834144     233.2251  0.033742057  0.034425599           13 
  577000    1.0313599   -6.2818994    233.86745   0.03377635  0.034405832           10 
  578000    1.0166649   -6.2957205    234.30672  0.033781246  0.034386581            3 
  579000     1.011192    -6.300183    234.50636  0.033751635  0.034366985            2 
  580000    1.0321559   -6.3078675     234.9371   0.03375533  0.034348135            7 
  581000    1.0217462   -6.3003091    235.14216  0.033726643  0.034329037           10 
  582000    1.0362595   -6.3096214     235.8714  0.033773109  0.034309851            3 
  583000    1.0157362      -6.3208    235.48424   0.03365984  0.034290713            8 
  584000    1.0226474   -6.3017966    235.82521  0.033650857  0.034271405           11 
  585000    1.0067173   -6.3293183    236.22737  0.033650622  0.034251556            8 
  586000    1.0158201   -6.3160957    236.23928  0.033594891  0.034232392            9 
  587000    1.0215759   -6.2936062    236.35837  0.033554567  0.034213002            6 
  588000    1.0079163   -6.2859319    236.44569  0.033509876  0.034193039            4 
  589000    1.0238293   -6.3077461    236.74408  0.033495202  0.034173148            7 
  590000    1.0385809   -6.3173835    236.74442  0.033438477  0.034153181            4 
  591000   0.99720426   -6.2963944    237.61242   0.03350429   0.03413313            5 
  592000    1.0030153   -6.2795371    238.07673  0.033513053  0.034113291            4 
  593000    1.0116458   -6.3053991     237.5265  0.033379216   0.03409329            4 
  594000    1.0213318   -6.3242143    237.92224  0.033378541    0.0340736            5 
  595000    1.0200817   -6.3027277    238.72408  0.033434745  0.034053816            6 
  596000     1.029813   -6.3127257     238.9978  0.033416919  0.034034194            9 
  597000    1.0228203   -6.3452357    238.99197   0.03336013  0.034014659           11 
  598000    1.0260698   -6.3441905    240.02318  0.033448046  0.033995441           10 
  599000    1.0519496   -6.3224771    240.75277  0.033493708  0.033977006            4 
  600000    1.0434822   -6.3103093    240.72494   0.03343402  0.033958418            3 
  601000    0.9946715    -6.320237    240.79792  0.033388508  0.033939579            5 
  602000    1.0109871   -6.3029944    241.33343  0.033407175  0.033920778            5 
  603000    1.0135729   -6.3439883    241.25268  0.033340613  0.033902083            4 
  604000    1.0147044   -6.3079225    242.30534  0.033430649  0.033883364            9 
  605000    1.0338532   -6.3171584    242.13054  0.033351314  0.033864484            4 
  606000   0.99374076   -6.3013509    243.02703  0.033419558  0.033845899            4 
  607000    1.0160038   -6.3796659    242.36844  0.033274086   0.03382689            9 
  608000   0.98555934   -6.3272816    243.24221  0.033339119  0.033808315           12 
  609000    1.0009871   -6.3028504    243.24083  0.033284186  0.033790168            6 
  610000    1.0004791   -6.2899798    244.21241  0.033362351  0.033772546            7 
  611000    1.0276751   -6.3409444    244.35821  0.033327633  0.033755022            5 
  612000    1.0393743   -6.3147917    244.42703  0.033282548  0.033737437            9 
  613000    1.0176657   -6.3102346    244.78529  0.033276957  0.033719497           10 
  614000    1.0009359   -6.3117392    244.87912  0.033235494  0.033701819            7 
  615000    1.0089997   -6.3220776    245.23611  0.033229826  0.033683468            2 
  616000     1.016112   -6.2822645    245.57076  0.033221152  0.033665298            7 
  617000   0.98538548   -6.3395098    246.55624   0.03330041  0.033647428            8 
  618000    1.0139494   -6.3227143    246.82664  0.033282988  0.033629614            5 
  619000    1.0085474   -6.3488085    245.57229  0.033060351  0.033611578            5 
  620000    1.0306363   -6.3345339    247.07567  0.033209095  0.033593821            3 
  621000   0.99018668   -6.3068294    247.24967  0.033178968  0.033576183            7 
  622000    1.0086334   -6.3645136    247.65534  0.033179976  0.033558936            8 
  623000    1.0001429   -6.3421689    247.64678  0.033125573   0.03354139           16 
  624000   0.99169649   -6.3151841    249.03721  0.033258174  0.033524227            6 
  625000    1.0094133   -6.3129734    249.38385   0.03325118  0.033507067            9 
  626000   0.98730254   -6.3252522    248.87349  0.033130123  0.033490218            3 
  627000   0.98109915   -6.3320882    249.66555  0.033182556  0.033473135            7 
  628000    1.0142305   -6.3199135    249.07928  0.033051921  0.033456094            5 
  629000   0.99983737   -6.3268603    250.13135  0.033138759   0.03343892            8 
  630000    1.0036327    -6.347389    250.55658  0.033142404  0.033421766            3 
  631000   0.99844665   -6.3466202    250.09542  0.033028978  0.033404524            3 
  632000    1.0108897   -6.3639128    250.44973  0.033023435  0.033387317            4 
  633000   0.99724786   -6.3072907    251.18467  0.033068019   0.03337008            9 
  634000    1.0235218   -6.3403354     250.7767  0.032962237  0.033352348            4 
  635000   0.99664948   -6.3213993    250.92603  0.032929926  0.033334294            8 
  636000   0.99066189   -6.3112207    251.27056  0.032923291  0.033316286            5 
  637000    0.9954022    -6.384697    251.80009   0.03294088  0.033298613            5 
  638000    1.0070103   -6.3515954    251.84217  0.032894745  0.033280688            9 
  639000   0.98665069   -6.3765415    252.34923  0.032909393  0.033262819           14 
  640000   0.98751706   -6.3529389    251.90876   0.03280062  0.033245028            8 
  641000    1.0141961   -6.3489871    251.83007  0.032739218  0.033227253            7 
  642000   0.99068149   -6.3610985    252.33051  0.032753181  0.033209065            8 
  643000     0.995482   -6.3512747    252.82054  0.032765752  0.033190591            7 
  644000   0.99068109   -6.3846243    252.84298  0.032717777  0.033172249            9 
  645000   0.98116248   -6.3632882    253.63338   0.03276917  0.033153841            4 
  646000    1.0059842    -6.326079    252.77154  0.032607268  0.033135207            4 
  647000   0.99720638   -6.3339471    253.10759  0.032600154  0.033116707            4 
  648000    1.0052924    -6.352363    254.33173  0.032707269  0.033098055            5 
  649000   0.99552401   -6.3560629    254.07127   0.03262343  0.033079266            5 
  650000   0.98415438   -6.3035511    254.87801  0.032676668  0.033060447            6 
  651000   0.99616941   -6.3763075    254.01385  0.032515853  0.033041688            6 
  652000   0.97339243   -6.3449616    254.89077  0.032578063  0.033022833            5 
  653000   0.99747022     -6.35139    254.97239   0.03253859  0.033004196            8 
  654000    0.9820646   -6.3434243     255.4384  0.032548216  0.032985603            4 
  655000   0.98814649   -6.3495826    255.41107  0.032495047  0.032967008            9 
  656000   0.99017451   -6.3866813    255.51518  0.032458737  0.032948225            2 
  657000   0.99287544   -6.3693628    255.52087  0.032410055  0.032929332            9 
  658000   0.99662999   -6.3899134    256.94235  0.032540825  0.032910502           20 
  659000    0.9912651   -6.3679071    255.65711  0.032328922  0.032891642            6 
  660000    1.0016962   -6.3432338     255.6105  0.032274052  0.032872595            7 
  661000    1.0083325   -6.3430536    256.97485  0.032397233  0.032853847            3 
  662000   0.98037791   -6.3371262    257.83374  0.032456413  0.032835069            4 
  663000     1.004464   -6.3216353    258.44873  0.032484758  0.032817008            5 
  664000   0.99505084   -6.3662893    257.80093  0.032354534  0.032798479            8 
  665000   0.98685562   -6.3557648    258.06534  0.032339015  0.032780085            8 
  666000   0.99940543   -6.3482146    258.91549  0.032396833  0.032761793            5 
  667000   0.98427589   -6.3564331    257.44622  0.032164695  0.032743342            8 
  668000   0.97005968   -6.3306711     259.3858  0.032358508  0.032724896            6 
  669000   0.99598791   -6.3764308    259.01859  0.032264399  0.032706767            5 
  670000    0.9659412   -6.3534517    259.70793  0.032301981  0.032688516            9 
  671000    1.0086104   -6.3706151    259.56736  0.032236383  0.032670153            8 
  672000    1.0093728   -6.3740396    259.25125  0.032149213  0.032651407           12 
  673000   0.98240817   -6.3573668    260.45084   0.03224998  0.032632868            7 
  674000   0.99447975    -6.391177    260.28597  0.032181748  0.032614884            4 
  675000   0.98963531   -6.3931055    260.44695  0.032153944  0.032596886            6 
  676000   0.97824462   -6.3815949     261.2327  0.032203242  0.032578747            9 
  677000   0.99254322   -6.3820537    261.26645  0.032159829  0.032560439           10 
  678000   0.97439997   -6.3656272    260.97407  0.032076459  0.032542347           12 
  679000   0.97633705   -6.4006425    261.28984  0.032067972  0.032523788            8 
  680000   0.98701523   -6.3976632    262.08735  0.032118547  0.032505019           12 
  681000   0.98368759    -6.402818    261.52628  0.032002726   0.03248637            7 
  682000    1.0058961    -6.367775    262.09907  0.032025791  0.032467561            5 
  683000   0.97094521   -6.3800144    262.05958  0.031974083  0.032448861            6 
  684000   0.99880932   -6.3480609     262.4955  0.031980445  0.032430087            7 
  685000   0.97428903   -6.3548608    262.91969  0.031985364  0.032411209            3 
  686000   0.97415147   -6.3655304    263.45831  0.032004168  0.032392094            6 
  687000    0.9755292   -6.3664813     262.9692  0.031898254  0.032372953            4 
  688000   0.98367936   -6.3776163    262.72728  0.031822588  0.032353901            6 
  689000   0.98263754   -6.3862634    263.49146  0.031868826   0.03233461           12 
  690000   0.97096161   -6.3947593     263.5499  0.031829698  0.032315167            9 
  691000   0.95768379   -6.4048789    263.50369  0.031778062  0.032295871           10 
  692000   0.97601912   -6.3520507    263.82426  0.031770745  0.032276603           12 
  693000   0.96198798   -6.4157165    264.23094  0.031773802  0.032257275           10 
  694000   0.99237223   -6.3766267    265.37976  0.031865965  0.032238126            7 
  695000   0.98163137   -6.3375157    264.86026  0.031757825  0.032219065            4 
  696000   0.97898392    -6.384577    264.76472  0.031700756   0.03219964            7 
  697000   0.97490316   -6.4024279    265.49973  0.031743153  0.032180336            6 
  698000   0.97376794   -6.3997188    265.06379  0.031645629  0.032160743            5 
  699000   0.96454399   -6.3930382    266.00962  0.031713116   0.03214148            3 
  700000   0.98471314   -6.3703365      265.679  0.031628452  0.032122326            6 
  701000   0.96663114   -6.3792478    266.55028  0.031686909   0.03210322            6 
  702000   0.99914511   -6.3795226    265.88202  0.031562443  0.032083934           15 
  703000   0.97791442   -6.3728741    265.84889  0.031513619  0.032064815            5 
  704000   0.96706267    -6.385682    266.97806  0.031602517  0.032045574            7 
  705000   0.95445004   -6.4007612    267.26862  0.031592036  0.032026384            5 
  706000   0.98532714   -6.3765929    266.78656  0.031490387  0.032007217           13 
  707000   0.97279308   -6.3897169    267.68086  0.031551256  0.031988248            4 
  708000   0.96611953   -6.3908107     267.8012  0.031520857  0.031969335           12 
  709000   0.99030466   -6.4074582    268.19777   0.03152301  0.031950601            4 
  710000   0.96727838   -6.4099746     268.1747  0.031475904  0.031931815            4 
  711000   0.97317819   -6.4009491    268.20457  0.031435134  0.031912656            6 
  712000   0.97595137   -6.3895904    269.25479  0.031513903  0.031893946            6 
  713000   0.94696907   -6.4142015    270.25281   0.03158635  0.031875241            6 
  714000   0.97819536   -6.4095392    269.54177  0.031459124   0.03185656            7 
  715000   0.95232285   -6.3951007    269.84337  0.031450277  0.031837831            6 
  716000   0.96049648   -6.3594696    270.61115  0.031495711  0.031819072            3 
  717000    0.9667466   -6.3972786    269.61072  0.031335509  0.031800155            6 
  718000   0.94771443   -6.4210713     270.3546  0.031378203  0.031781553           18 
  719000   0.97628973   -6.4031501    270.67664  0.031371887  0.031762656            7 
  720000   0.95576364   -6.3954289    270.70738  0.031331872  0.031743921            7 
  721000   0.98549969   -6.4000993    271.37391  0.031365454  0.031725146            8 
  722000   0.94586324   -6.4021585    270.86585  0.031263372  0.031706328            6 
  723000   0.98105105   -6.3630086    271.82746  0.031330965  0.031687559            5 
  724000   0.96075056   -6.4220193    271.21013  0.031216635  0.031668785            3 
  725000   0.96918409   -6.4185195    272.05272  0.031270427  0.031650151            4 
  726000   0.95781194   -6.3633204    272.23327   0.03124808  0.031631484            6 
  727000   0.95178994   -6.3976647    272.85774  0.031276678  0.031612961            4 
  728000   0.95142361   -6.4114754    272.58572  0.031202577  0.031594418            7 
  729000   0.98289872   -6.4011616    273.36941   0.03124936   0.03157598            6 
  730000   0.96309008   -6.4389621    272.78073  0.031139353   0.03155747            6 
  731000   0.98198973   -6.4085559    272.74276  0.031092426  0.031538894           23 
  732000   0.95969218   -6.3936838      272.582  0.031031649  0.031519965           17 
  733000   0.95089251   -6.4194393    273.57462  0.031102162    0.0315012            6 
  734000   0.95583915   -6.4281313    274.03357  0.031111895   0.03148227            7 
  735000   0.95789647   -6.4261703    273.18299  0.030973129  0.031463009            6 
  736000   0.97805113   -6.3872201    273.35034  0.030949993  0.031443542            5 
  737000   0.95648248   -6.4123429     273.7133  0.030949039  0.031424245            5 
  738000   0.95134665   -6.4246902    273.94641  0.030933425  0.031404815            8 
  739000   0.95075632    -6.408465    273.30624  0.030819378  0.031385036            5 
  740000   0.95516448   -6.4088271    275.15881  0.030986353  0.031365325            9 
  741000   0.96209292    -6.400441    274.84639  0.030909401  0.031345761           11 
  742000   0.96606564   -6.4250035    274.77869  0.030860141  0.031326194           16 
  743000   0.96376722   -6.4495381    274.69958  0.030809733  0.031306711            4 
  744000   0.94994049   -6.4242256     275.7677  0.030887959  0.031287469            8 
  745000   0.93997966   -6.4172311    275.76828  0.030846564  0.031268501            4 
  746000   0.95951564   -6.4000562    276.31189   0.03086594   0.03124974            6 
  747000   0.97596371    -6.431617    276.44974  0.030839998  0.031230757           10 
  748000   0.96475383   -6.4179111    277.03242  0.030863684  0.031211919            5 
  749000   0.98195264   -6.4209274    277.03631  0.030822909  0.031192979            4 
  750000   0.97387247   -6.4284012    276.52116  0.030724573  0.031173942            5 
  751000   0.94951737   -6.4052561    276.59662  0.030692035   0.03115483            7 
  752000   0.95387313   -6.4144229    276.92708  0.030687841  0.031135651            6 
  753000   0.96234912   -6.3989261    278.33292  0.030802669  0.031116566           13 
  754000   0.93287717   -6.4415586    277.38657  0.030657225   0.03109758            5 
  755000   0.95071702    -6.421573    277.68192  0.030649219  0.031078475            5 
  756000   0.94965056    -6.378731    278.26915  0.030673407  0.031059038            3 
  757000   0.95110591   -6.4261226    277.06538  0.030500372  0.031039496            5 
  758000   0.93557415   -6.4284094    278.19093  0.030583876  0.031019904            5 
  759000   0.95114522   -6.4078259    277.91003  0.030512739    0.0310005            9 
  760000   0.96998617   -6.4464372    278.40108  0.030526434  0.030980764            7 
  761000   0.96621248   -6.4691611    278.12962  0.030456595  0.030961159            9 
  762000   0.93153894   -6.4319851    278.90063  0.030500943  0.030941666            9 
  763000   0.93308655   -6.4040715    279.24387  0.030498457  0.030922089            9 
  764000   0.93990241   -6.4231729    279.05313  0.030437733   0.03090241            8 
  765000   0.91895463   -6.4256884    278.05317  0.030289016  0.030882628           10 
  766000   0.97262289   -6.4340779    279.49796  0.030406653  0.030862693            9 
  767000   0.96108472   -6.4374672    279.18573  0.030333087  0.030843016            5 
  768000   0.94609762   -6.4219999    278.93784  0.030266693  0.030823297            7 
  769000   0.94712419   -6.4343265    279.17863  0.030253428  0.030803516            7 
  770000   0.94782109   -6.4304609    279.77692  0.030278887  0.030783814            4 
  771000   0.95146312   -6.4329735    280.58138  0.030326565  0.030763982            8 
  772000   0.96703287   -6.4334234    280.06471   0.03023151  0.030744222            7 
  773000   0.94294669   -6.4425552    280.29922  0.030217682  0.030724409            7 
  774000   0.96127364   -6.4562407    280.54568  0.030205177  0.030704453           10 
  775000   0.93479347   -6.4543313    281.05251    0.0302207  0.030684637            6 
  776000   0.93850519   -6.4096899    282.08508  0.030292642   0.03066496           11 
  777000   0.94033054   -6.4471653    282.04723  0.030249596  0.030645623            7 
  778000   0.93439499   -6.4213222     281.5951  0.030162286   0.03062632            6 
  779000   0.96130291   -6.4354708    282.07979  0.030175416  0.030606984           15 
  780000   0.94655134    -6.403709    282.39709  0.030170629  0.030587703           22 
  781000    0.9366204    -6.417205    283.08081  0.030204952  0.030568651            7 
  782000   0.95172649   -6.4320063    282.47891  0.030102186  0.030549388            9 
  783000   0.95424551   -6.4138707    282.49534   0.03006549  0.030529938            9 
  784000   0.97479024   -6.4356409    283.01039  0.030081887  0.030510398            6 
  785000   0.93723364   -6.4341078    283.30905  0.030075271  0.030490967            8 
  786000   0.92299652   -6.4485028    282.93545  0.029997397  0.030471329            3 
  787000    0.9510335    -6.419155    282.54098  0.029917512  0.030451756            6 
  788000   0.95651876   -6.4528111    283.51186  0.029982219  0.030432089            5 
  789000   0.93379825   -6.4464025    283.96823   0.02999242  0.030412494           16 
  790000    0.9325777   -6.4664941    282.52827   0.02980256  0.030392969            6 
  791000   0.93734657   -6.4436957    283.84146   0.02990323  0.030373275            5 
  792000    0.9422958   -6.4741246    284.41859  0.029926198  0.030353758            7 
  793000   0.94277072   -6.4409668     283.5713  0.029799422  0.030333958            7 
  794000   0.94502314   -6.4650107    284.35828  0.029844488  0.030313892           15 
  795000   0.95740083   -6.4546299    283.72928  0.029741014  0.030293947           16 
  796000   0.93871149   -6.4444493    284.99221  0.029835868  0.030274146            5 
  797000   0.97454201   -6.4778027    284.87703   0.02978639  0.030254528            9 
  798000   0.93127588   -6.4669587    284.91721  0.029753259  0.030234786            7 
  799000   0.92156863    -6.461951    284.68898  0.029692217   0.03021509            7 
  800000   0.94264848   -6.4645519    285.05191  0.029692907  0.030195439            4 
  801000    0.9440009   -6.4830239    286.12822  0.029767813  0.030175702            9 
  802000   0.93655399   -6.4335736    285.43397  0.029658559  0.030155921           10 
  803000   0.92802635   -6.4330499    286.08406  0.029689088  0.030136227            4 
  804000   0.92773154   -6.4534215    286.46209  0.029691344  0.030116478            7 
  805000   0.91906336   -6.4470369    286.22382  0.029629795  0.030096533            7 
  806000   0.93941286   -6.4789009    286.93641  0.029666709  0.030076802            9 
  807000    0.9459969   -6.4413915    287.06131  0.029642845  0.030057188            8 
  808000     0.940409   -6.4545372    286.63773  0.029562472  0.030037512            7 
  809000   0.93869734   -6.4755719    286.45642  0.029507254  0.030017778            8 
  810000   0.94739753   -6.4956675    287.02438  0.029529257  0.029998028            9 
  811000   0.94596691   -6.4687192    288.17146  0.029610714  0.029978391           23 
  812000    0.9139437   -6.4734471    287.24646  0.029479316  0.029958857            9 
  813000   0.93876375   -6.4988961    287.84281  0.029504183  0.029939273           10 
  814000   0.94295445   -6.4897638    289.07906  0.029594498   0.02991971            9 
  815000   0.94353251   -6.4909187     288.5809  0.029507249  0.029900166           13 
  816000   0.92177249   -6.4545032    289.18702  0.029532988  0.029880813            5 
  817000   0.93606849   -6.4842454    288.95405  0.029473078  0.029861652           11 
  818000   0.95215394   -6.4600848    289.67229  0.029510217  0.029842459           11 
  819000   0.91079818    -6.482734    289.76916  0.029484042  0.029823361            6 
  820000   0.93090293   -6.4966345     289.6681  0.029437815  0.029804036            6 
  821000   0.92137055   -6.4793615    289.72545   0.02940778  0.029784728           13 
  822000   0.92337643   -6.4698657    290.40946  0.029441348  0.029765592            6 
  823000     0.925017   -6.4761433    290.04107  0.029368273  0.029746457            7 
  824000   0.91866047   -6.4920306    289.85327  0.029313639  0.029727022            5 
  825000   0.93092879   -6.4728853    290.00352  0.029293285  0.029707569           15 
  826000   0.91017658   -6.5038844    289.79766  0.029237052  0.029688157           10 
  827000   0.91433255   -6.4709698    291.51233  0.029374479    0.0296688            7 
  828000   0.94049211   -6.4800846    291.16822   0.02930437  0.029649633           10 
  829000   0.90842945   -6.5016647    290.67588  0.029219529  0.029630465            4 
  830000   0.93967041   -6.4577651    291.99297  0.029316563  0.029611528           11 
  831000   0.92206879   -6.4869911    291.52962  0.029234819  0.029592541           10 
  832000   0.90694804   -6.4721191    291.22773  0.029169444  0.029573539            9 
  833000   0.90647782   -6.4845741    291.96368  0.029208052  0.029554454            5 
  834000   0.90905036   -6.4942724    292.37524  0.029214153  0.029535447            5 
  835000   0.90604194   -6.4423347    292.63417  0.029205007  0.029516542            5 
  836000   0.90961054   -6.4503585    292.67282  0.029173926  0.029497612            7 
  837000   0.92818282   -6.4965965    292.35402   0.02910733  0.029478309            8 
  838000     0.912854   -6.5039545    293.29641   0.02916631  0.029458904            7 
  839000   0.91122097   -6.5032926    292.01181  0.029003954  0.029439405            4 
  840000   0.92615415   -6.4954985    292.11666  0.028979828  0.029419753           14 
  841000   0.91676316   -6.5088211    292.96117   0.02902905  0.029399971           18 
  842000   0.93021349   -6.5003103    292.54776  0.028953658   0.02938048            9 
  843000   0.91504547   -6.5060717    292.91564  0.028955678  0.029360972           21 
  844000   0.92400164   -6.5104834    293.16472  0.028945964  0.029341594            5 
  845000   0.94116474   -6.4602465    293.28849  0.028923914  0.029322246            9 
  846000   0.91831925   -6.5453526      294.238  0.028983255  0.029302988            7 
  847000   0.89616995   -6.5016286    294.79235  0.029003576  0.029284051            7 
  848000   0.92650472    -6.479734    293.42627  0.028835129  0.029264936           12 
  849000   0.92058889    -6.483004    294.55533  0.028911987  0.029245743           11 
  850000   0.92790031   -6.4873111    295.02523  0.028924042  0.029226436           12 
  851000   0.92216783   -6.4989411    294.66391  0.028854672  0.029207199            7 
  852000   0.90888749   -6.5185275      294.593   0.02881387  0.029187934            7 
  853000   0.92598304    -6.474356    295.16181   0.02883566  0.029168647            4 
  854000   0.90638012   -6.4988269    294.51525  0.028738802  0.029149428            6 
  855000   0.89989827   -6.5066246    295.11718  0.028763858  0.029130149            8 
  856000   0.91124737     -6.51944     294.8591   0.02870513  0.029110958            4 
  857000   0.91594504   -6.4678081    295.43455  0.028727592  0.029091816            5 
  858000   0.89695822    -6.515708    295.91206  0.028740487  0.029072693            5 
  859000   0.90240676   -6.4868412    296.29926  0.028744593   0.02905351           10 
  860000   0.91607356   -6.4998757    296.05342  0.028687347  0.029034433           12 
  861000   0.89462338   -6.5308034    297.13831  0.028759031  0.029015578            7 
  862000   0.91910083   -6.5239646    295.97515  0.028613221  0.028996631           10 
  863000   0.92095778   -6.5074956    296.75853   0.02865571  0.028977658            6 
  864000    0.8860538   -6.5408535    296.55076  0.028602504  0.028958321            4 
  865000    0.8837648   -6.5069951    296.36723  0.028551757  0.028939096           15 
  866000   0.94279863   -6.5060511     297.0299  0.028582554  0.028919907            5 
  867000   0.90391988   -6.5106434    298.28482  0.028670205   0.02890081           14 
  868000   0.89465891   -6.4804837    297.96708  0.028606671  0.028881843            4 
  869000   0.90159522   -6.5036484    297.33881  0.028513504  0.028862722            8 
  870000   0.90330999   -6.5104907    298.04571   0.02854844   0.02884367           10 
  871000   0.89971989   -6.5161224    298.04766  0.028515849  0.028824616            7 
  872000   0.92163035   -6.4986401    297.52202  0.028432915  0.028805501           17 
  873000    0.9054739   -6.5205824    298.17175  0.028462366  0.028786212            6 
  874000    0.9087574   -6.4922094    298.52377  0.028463365  0.028767099           11 
  875000   0.91805719   -6.5283222    298.27998  0.028407617  0.028747875           15 
  876000   0.89749996    -6.510862    298.92739  0.028436776  0.028728788           24 
  877000   0.88090732   -6.5274584    299.86681  0.028493616  0.028709841           14 
  878000   0.91990914   -6.5193678    299.18434  0.028396387   0.02869094           16 
  879000   0.88642494   -6.5142218    299.07264  0.028353492  0.028672029            6 
  880000   0.89858372    -6.524706    299.59157  0.028370414  0.028653097            9 
  881000   0.90721774   -6.5125036    300.23158   0.02839875  0.028634376            4 
  882000    0.9141223   -6.5123939    299.72657  0.028318837  0.028615533            8 
  883000   0.88811318   -6.4940215    300.42547  0.028352725  0.028596822           17 
  884000   0.91606596   -6.5192024    300.32745  0.028311411  0.028578146            5 
  885000   0.89537397   -6.5303827    300.62145  0.028307105  0.028559713            9 
  886000    0.8826461    -6.547177      300.673  0.028280004  0.028541148            7 
  887000   0.88756229   -6.5262923    300.69735  0.028250408  0.028522621            5 
  888000   0.89807857   -6.5394877    301.46592  0.028290721   0.02850407           17 
  889000   0.90215483   -6.5325906    301.37576  0.028250446  0.028485469            7 
  890000   0.90347401   -6.5338566    302.58552  0.028331978  0.028467144            9 
  891000   0.89051346   -6.5728196    301.90823  0.028236834  0.028448908            5 
  892000    0.9039076   -6.5494857     302.3297  0.028244553  0.028430589           32 
  893000   0.89502415   -6.5256658    302.42307  0.028221638  0.028412241           10 
  894000   0.88858232   -6.5370655    302.57286  0.028204032  0.028394026            4 
  895000   0.90040426   -6.5412074      302.481  0.028163967  0.028375819            6 
  896000   0.89213675   -6.5397434    303.04761  0.028185232  0.028357529           12 
  897000   0.87981138   -6.5468989    302.88288  0.028138506  0.028339278            6 
  898000   0.89625971   -6.5314317    302.60381  0.028081274  0.028321047            7 
  899000    0.9066788   -6.5263865    303.13892   0.02809964  0.028302884           14 
  900000   0.89660934   -6.5224591    303.38299  0.028091017   0.02828462           12 
  901000   0.90242143   -6.5245482     303.5621  0.028076406  0.028266423           12 
  902000   0.89925864   -6.5186264    304.35608  0.028118633  0.028248436            9 
  903000   0.88879135   -6.5322308    303.78092  0.028034415  0.028230207           14 
  904000   0.88065281   -6.5582015    304.08624  0.028031548  0.028212124           21 
  905000   0.90969125   -6.5554214    303.70799  0.027965745  0.028194099           15 
  906000   0.90635836   -6.5465153    304.60001  0.028016925  0.028176154            4 
  907000   0.88983671   -6.5732057    304.60323  0.027986331  0.028158271           12 
  908000   0.88574634    -6.565601    305.43857  0.028032174  0.028140252           10 
  909000   0.87872533   -6.5552316    305.22471   0.02798173  0.028122395           20 
  910000    0.8910774   -6.5419986    306.37263  0.028056102  0.028104669            9 
  911000   0.88128526   -6.5723308     305.3287  0.027929812  0.028086993           15 
  912000     0.891361   -6.5443007    306.92564  0.028045106  0.028069235            9 
  913000   0.90920346   -6.5498217    306.31339  0.027958506  0.028051617            7 
  914000   0.88625666   -6.5390212      306.982  0.027988876  0.028033887           10 
  915000   0.89180175   -6.5585262    307.16942  0.027975357   0.02801624            7 
  916000   0.90862812   -6.5470953    307.13184  0.027941398  0.027998671           10 
  917000   0.87935455   -6.5479358    307.51231  0.027945503  0.027981276            8 
  918000   0.88108734   -6.5546444    307.39896  0.027904771  0.027963814            6 
  919000   0.90468753   -6.5851473    307.85453  0.027915718  0.027946392            5 
  920000   0.88880323   -6.5472824    307.58911  0.027861332  0.027929055           14 
  921000   0.89584807   -6.5368378    308.16434  0.027883129  0.027911642            6 
  922000   0.89903343   -6.5536207    308.41878  0.027875884  0.027894132           13 
  923000   0.89101711   -6.5317619    307.63512   0.02777493  0.027876538           10 
  924000   0.88961162   -6.5249415    308.53665  0.027826177    0.0278591            8 
  925000   0.87091048   -6.5543077     309.2832  0.027863351  0.027841693            7 
  926000   0.89068742   -6.5582109    308.92359  0.027800899  0.027824466            8 
  927000   0.90086216   -6.5243197    308.96539  0.027774666   0.02780723           26 
  928000   0.88494148   -6.6094292    308.40785   0.02769467  0.027789763           16 
  929000   0.88905205   -6.5635463    308.95415  0.027713863  0.027772288           15 
  930000   0.89277185   -6.5640842    308.61223  0.027653426  0.027754816            6 
  931000   0.89434377   -6.5887708    308.48463  0.027612301  0.027737243            7 
  932000   0.88068543   -6.5238176    309.40378  0.027664859  0.027719848            6 
  933000    0.8900723   -6.5591756    309.69686  0.027661384  0.027702391            6 
  934000   0.86922357   -6.5829394    309.44847  0.027609606  0.027685032            9 
  935000   0.86956634   -6.5819522    310.33653  0.027659227  0.027667448            6 
  936000   0.88603645   -6.5633113     310.3632  0.027632051  0.027649885            8 
  937000    0.8730203   -6.5403468    310.52001  0.027616508  0.027632565           14 
  938000   0.88248701   -6.5497562    310.35896  0.027572757  0.027615379            5 
  939000   0.88083087   -6.5488041    310.72076  0.027575502  0.027598049           15 
  940000   0.87009802   -6.5946818    309.82999  0.027467197  0.027580631           16 
  941000   0.87278513   -6.5463957    310.14749  0.027466125  0.027563293            7 
  942000   0.87699787   -6.5606383    310.14729   0.02743695  0.027545669            6 
  943000   0.87187862   -6.5961714    310.60067  0.027447921  0.027528109           10 
  944000   0.86680617   -6.5589809    311.58615  0.027505839  0.027510694           10 
  945000   0.86601788   -6.5903296    312.24194  0.027534563  0.027493266           21 
  946000   0.88440056   -6.5639809    311.46048  0.027436617  0.027476018            5 
  947000   0.86908488   -6.6051735    312.06067   0.02746046  0.027458641           10 
  948000   0.87243812   -6.5839716    312.01326  0.027427326  0.027441371            8 
  949000   0.87593244    -6.591327    311.64003  0.027365651  0.027424117            5 
  950000   0.88311716   -6.5601117    312.34235  0.027398452  0.027407032           19 
  951000   0.88397875   -6.5729171    312.24193  0.027360842  0.027389879            5 
  952000   0.85971949   -6.5715895    312.61957  0.027365158  0.027372726           17 
  953000   0.86324116   -6.5806581    313.25932  0.027392385  0.027355595           20 
  954000   0.85814887   -6.5928199    312.17796  0.027269214  0.027338513            7 
  955000   0.86467804   -6.5734402    313.05327  0.027317039  0.027321248           23 
  956000   0.86954808   -6.5626022    313.85655  0.027358486  0.027304055            7 
  957000   0.90079264    -6.600632    313.06883  0.027261305  0.027286867           11 
  958000   0.86905746   -6.5994246    313.65818  0.027284114  0.027269662           34 
  959000   0.88192341   -6.6142349    313.17282  0.027213488  0.027252272           10 
  960000   0.87969333   -6.5691083    313.32118  0.027198019  0.027234755           11 
  961000   0.83962597   -6.5516002    313.27461  0.027165679  0.027217499            7 
  962000   0.87063335   -6.5641344    313.14332  0.027126067  0.027200274           20 
  963000   0.87070097   -6.5879366    313.60011  0.027137427  0.027182706           24 
  964000   0.88418933   -6.6135568    313.31748  0.027084844  0.027165177            9 
  965000   0.85531532   -6.6033253    313.45997  0.027069082  0.027147598           11 
  966000   0.87242366   -6.5758274    313.43944  0.027039289  0.027129852           12 
  967000   0.87008749    -6.599146    314.24078  0.027080384  0.027112258           13 
  968000   0.86247165   -6.5943553    313.31185  0.026972439  0.027094558           13 
  969000   0.86973928   -6.5785129    314.39612   0.02703785   0.02707691           12 
  970000   0.86753221   -6.5952052    313.25185  0.026911671  0.027059176            9 
  971000    0.8710844   -6.5934642    313.70239  0.026922622  0.027041459            6 
  972000   0.85465597   -6.5645104    313.74478  0.026898558  0.027023811            9 
  973000   0.87244636   -6.5878818    314.43978  0.026930437  0.027005992            9 
  974000   0.85405443   -6.6252304    313.71705  0.026840952  0.026988191           10 
  975000   0.86600184   -6.5884593     314.8294  0.026908496  0.026970297            5 
  976000   0.85692095   -6.6040782    312.94894  0.026720367  0.026952278           13 
  977000   0.86666932   -6.6192427    313.69079  0.026756294  0.026934167           33 
  978000    0.8704204   -6.5899565    314.02188  0.026757147  0.026916219            5 
  979000   0.86164942   -6.6314242     315.2794  0.026836858  0.026898308            4 
  980000   0.87658025   -6.5938582    315.02105  0.026787504  0.026880512            9 
  981000   0.84730908   -6.6200576    314.84613  0.026745339  0.026862591           18 
  982000   0.87040936   -6.5993224     314.5591  0.026693746  0.026844723           11 
  983000   0.86332268   -6.6482061    315.17657  0.026718936  0.026826768           17 
  984000   0.85035492   -6.6170624     315.6872  0.026735027  0.026808754           15 
  985000   0.85263866     -6.62256    315.52901  0.026694502  0.026790885           23 
  986000     0.856555   -6.6085378    315.15534  0.026635847  0.026773128           11 
  987000   0.85957641    -6.620645     315.5844  0.026645086  0.026755327            6 
  988000   0.86234289   -6.6049026    316.26767  0.026675748  0.026737542           17 
  989000   0.84097783   -6.6115393    315.55946  0.026589102  0.026719519           13 
  990000   0.84853392   -6.6244879    315.17126  0.026529567  0.026701432           10 
  991000   0.85701761   -6.5865427    316.85186  0.026644119  0.026683423            5 
  992000   0.87254819   -6.6410068    316.42748   0.02658161   0.02666544            9 
  993000   0.85271476   -6.6290469    316.87356  0.026592276  0.026647524           19 
  994000    0.8482069   -6.5930471    316.05346  0.026496769  0.026629632           13 
  995000   0.87112725   -6.6018754    317.17736  0.026564268  0.026611646           16 
  996000   0.85716471   -6.6493381    315.20905  0.026372913  0.026593596            9 
  997000   0.86758562   -6.5984441    316.31472  0.026438877  0.026575429           24 
  998000   0.85773822   -6.5986651    316.51835  0.026429388  0.026557352           11 
  999000   0.83693002   -6.6444305    316.43101  0.026395646   0.02653935            6 
 1000000   0.84808757   -6.6298694     316.9235  0.026410291  0.026521411           29 
 1001000   0.85655864   -6.6111638    317.14484  0.026402334  0.026503394            8 
 1002000   0.85971211   -6.6275911    316.52891  0.026324759  0.026485227           14 
 1003000   0.84356517   -6.6387987    316.97161  0.026335295  0.026467245           17 
 1004000   0.85525953   -6.6366633    316.78025  0.026293181  0.026449332           12 
 1005000   0.85004206   -6.6231675    317.29548  0.026309741  0.026431228           13 
 1006000   0.84836197    -6.609033    317.77901  0.026323642  0.026413159           12 
 1007000   0.85404967   -6.6167798    317.52931  0.026276838  0.026395102           10 
 1008000   0.85111728   -6.6145189    317.74937  0.026268962  0.026377031           11 
 1009000    0.8562413   -6.6500475    317.75272  0.026243205  0.026359092           16 
 1010000   0.86054025   -6.6103797    318.23772  0.026257237  0.026341188            9 
 1011000   0.84329142   -6.6251588    318.32361  0.026238346  0.026323263           10 
 1012000   0.85505209    -6.616515    318.30479  0.026210869  0.026305545            6 
 1013000    0.8481972   -6.6059366    319.35379  0.026271289  0.026287845           18 
 1014000   0.82535848   -6.6070517    319.21023  0.026233582  0.026270193           12 
 1015000   0.82483067   -6.6415102    318.47214  0.026147138  0.026252399            8 
 1016000   0.85422556   -6.6480843    319.40899  0.026198244   0.02623465           13 
 1017000   0.85285242   -6.6370084     318.9572  0.026135464   0.02621682           11 
 1018000   0.86662061   -6.6311323    319.54381   0.02615781  0.026199122           14 
 1019000   0.83920796    -6.617122    319.52633  0.026130711   0.02618155           19 
 1020000   0.83848439   -6.6412085    319.03335  0.026064816  0.026163852           12 
 1021000   0.84446257   -6.6395237    319.57392  0.026083408  0.026146066            7 
 1022000   0.83656823   -6.6214474    319.25338   0.02603175  0.026128198           12 
 1023000    0.8494088   -6.6242163    319.41288  0.026019296  0.026110552            7 
 1024000   0.85267551   -6.6469211    319.58218  0.026007664  0.026092978           30 
 1025000   0.85073606   -6.6527511    320.58545  0.026063857  0.026075497           25 
 1026000   0.83659778   -6.6470778    321.21867  0.026089886  0.026058042           22 
 1027000   0.84217135   -6.6299767     320.4343  0.026000835  0.026040714           10 
 1028000   0.84993746   -6.6276402    322.09852  0.026110451  0.026023298           18 
 1029000   0.86269718   -6.6193927    320.80512  0.025980331  0.026005935           17 
 1030000   0.83411718   -6.6111628    320.40122  0.025922429  0.025988492           11 
 1031000   0.83528271   -6.6171316     320.6918  0.025920773  0.025971264            5 
 1032000   0.83677843    -6.622798    321.56862  0.025966458  0.025954028            8 
 1033000   0.84371063   -6.6534878    321.42576  0.025929797  0.025936773           10 
 1034000   0.84438125   -6.6523385    321.68322  0.025925469  0.025919497           12 
 1035000   0.84534725   -6.6353833    321.83782  0.025912868  0.025902403           20 
 1036000   0.85685922   -6.6553969    321.13823  0.025831582  0.025885014           13 
 1037000   0.82425507   -6.6199801    322.26147  0.025896936  0.025867685           15 
 1038000   0.82824904   -6.6365208    322.39519  0.025882722   0.02585059           13 
 1039000   0.84337504   -6.6506787    321.86011  0.025814895  0.025833379           23 
 1040000   0.81444199   -6.6640213    322.00897     0.025802  0.025816129            7 
 1041000   0.82086873   -6.6306283    323.46666  0.025893905  0.025799002           10 
 1042000   0.84455586   -6.6605403    322.97356  0.025829619  0.025781998            7 
 1043000   0.82860344   -6.6621112     323.6481  0.025858748  0.025764995           20 
 1044000   0.83282372   -6.6473325    322.19948   0.02571835  0.025747944           21 
 1045000   0.82193322   -6.6712484    322.92179  0.025751339  0.025730904           11 
 1046000   0.82869875   -6.6566246    324.04439  0.025816156  0.025713972           16 
 1047000   0.84893524   -6.6315829    323.54548  0.025751789  0.025697075            8 
 1048000    0.8230314   -6.6850787    323.28775  0.025706723  0.025680182           11 
 1049000   0.84659067   -6.6498578     324.3215  0.025764339  0.025663214           18 
 1050000   0.83582662   -6.6761942    324.45251    0.0257502  0.025646212           19 
 1051000   0.81990699   -6.6771133    323.38001   0.02564066  0.025629257           15 
 1052000   0.84837569   -6.6383921    324.05399  0.025669676  0.025612359           12 
 1053000   0.85609613   -6.6398218    324.09857  0.025648826  0.025595485           22 
 1054000   0.83989519   -6.6749904    324.30453  0.025640776  0.025578626           10 
 1055000   0.84867023   -6.6630867    324.22719  0.025610363  0.025561695           15 
 1056000    0.8328474   -6.6682612    324.13099  0.025578518  0.025544744           10 
 1057000   0.81680185   -6.6969641    324.49269  0.025582836  0.025527675           44 
 1058000   0.83389799   -6.6877968    324.32149  0.025545171  0.025510615           13 
 1059000   0.82696139   -6.6607581    324.78456  0.025557488  0.025493738           11 
 1060000   0.84288835   -6.6729418    324.88349  0.025541155  0.025476805           11 
 1061000   0.82929254   -6.6789124    325.30876  0.025550484  0.025459875           20 
 1062000   0.82790424   -6.6253737    325.18807  0.025516955  0.025443044           12 
 1063000   0.82972682   -6.6661434    325.97392  0.025554556  0.025426203           10 
 1064000   0.83701926    -6.671761    325.42058  0.025487201  0.025409386           10 
 1065000   0.83984039   -6.6993435    324.75865  0.025411475  0.025392439           28 
 1066000   0.83324011   -6.6677789    325.47366  0.025443532  0.025375479            6 
 1067000   0.83148656    -6.662809    326.15122  0.025472604  0.025358578           18 
 1068000   0.82901567     -6.68522    325.86376  0.025426324  0.025341749           11 
 1069000   0.83471063   -6.6613928    326.46224  0.025449192  0.025325053           17 
 1070000   0.81109875   -6.6873484    326.49745  0.025428151  0.025308404           11 
 1071000   0.80515594   -6.6640141    326.66613  0.025417533  0.025291689           17 
 1072000    0.8169157   -6.6595932    326.95823  0.025416529  0.025274916           10 
 1073000   0.83659336   -6.6851934    327.09867  0.025403749  0.025258268           19 
 1074000   0.82991909   -6.6584842    326.98247   0.02537108  0.025241516           17 
 1075000   0.84815041    -6.667891    327.24357  0.025367719  0.025224877            5 
 1076000   0.83030612   -6.6758292    326.90825  0.025318173  0.025208313           13 
 1077000   0.82089421   -6.6557469     327.7519  0.025359943  0.025191662           14 
 1078000   0.82346729   -6.6709876    326.01806  0.025202385  0.025174905           18 
 1079000   0.81910001   -6.6713116    326.66794   0.02522922  0.025158164           25 
 1080000   0.81698133   -6.6840026    328.18009  0.025322538  0.025141468           12 
 1081000    0.8223481   -6.6414043    327.36217   0.02523606   0.02512481           13 
 1082000   0.81524763   -6.7204177    326.99411  0.025184389  0.025108079           15 
 1083000   0.82306345   -6.7211763    326.84186   0.02514942  0.025091245           59 
 1084000   0.80975372   -6.6935401    328.50998  0.025254457  0.025074576           12 
 1085000   0.81395234   -6.6849795    328.09789  0.025199531  0.025057871           13 
 1086000   0.81429036   -6.6833686    328.08102  0.025175032  0.025041184            9 
 1087000   0.81991707   -6.6818044    328.04247  0.025148917  0.025024568           22 
 1088000   0.81320945   -6.7114495    327.77612  0.025105401  0.025007732           25 
 1089000   0.83592838   -6.6833024    328.10224  0.025107303   0.02499097           11 
 1090000   0.80543759   -6.6931497    327.69282  0.025052968  0.024974189           15 
 1091000   0.82529317   -6.7118968    328.47622  0.025089843  0.024957433           19 
 1092000   0.81628714   -6.7023497    328.11518  0.025039314  0.024940598           21 
 1093000   0.82378085   -6.6962788    328.21884  0.025024309  0.024923822           18 
 1094000   0.81251791   -6.6933074    329.19783  0.025076008  0.024907015           10 
 1095000   0.82684531   -6.7038997    327.79344  0.024946229  0.024890253           18 
 1096000   0.82168983   -6.7010753    328.42333  0.024971361  0.024873456           13 
 1097000   0.80545135   -6.7094578    327.80588  0.024901692  0.024856555           14 
 1098000   0.80829555   -6.6772291    328.39518  0.024923739  0.024839642            8 
 1099000   0.81279072   -6.6847657    328.98476  0.024945766  0.024822932           18 
 1100000   0.82358838   -6.6930418    328.75299  0.024905529  0.024806139            4 
 1101000   0.83319471   -6.7034915    328.83041  0.024888768  0.024789363            9 
 1102000   0.78907468   -6.6800997    329.80484   0.02493987  0.024772753            9 
 1103000   0.81230842   -6.6891825    329.35942  0.024883607  0.024756066           19 
 1104000   0.82078625   -6.7021171    329.67121  0.024884602   0.02473947           21 
 1105000   0.81081571   -6.7215284    329.26728   0.02483162  0.024722918           21 
 1106000   0.81877916    -6.698808      330.199   0.02487937  0.024706328           22 
 1107000   0.81649948    -6.676907    330.76913  0.024899814  0.024689829           20 
 1108000   0.80812671   -6.7193856    330.13698  0.024829797  0.024673414           16 
 1109000   0.78420275   -6.6813975    330.32044  0.024821194   0.02465703           23 
 1110000   0.82647285   -6.7115382    330.57393  0.024817862  0.024640641           15 
 1111000   0.79565766    -6.697461    330.34282  0.024778189  0.024624401           22 
 1112000   0.78900154   -6.7221498    330.71679  0.024783932  0.024608207           10 
 1113000   0.79453593   -6.6975068    331.81639  0.024843994  0.024592023            9 
 1114000   0.79564349   -6.7089399    331.60266  0.024805705  0.024575991           16 
 1115000   0.80569676   -6.6922169    331.45893  0.024772716  0.024559908           16 
 1116000   0.81221445   -6.7061387    331.46169  0.024750723  0.024543844           26 
 1117000   0.80481518   -6.7062791    331.73483  0.024748943  0.024527692           10 
 1118000   0.80674609   -6.6898647    332.05513  0.024750681  0.024511508           24 
 1119000   0.83943838   -6.7224655    330.98915  0.024649177  0.024495384           22 
 1120000   0.79874277   -6.7117141    331.58013  0.024671141   0.02447916           10 
 1121000   0.81604187   -6.6982681    332.32586  0.024704569  0.024462926           16 
 1122000   0.80312251   -6.6904773    331.59192  0.024628039  0.024446778           26 
 1123000   0.81478806   -6.7165322    332.72076  0.024689876  0.024430606            8 
 1124000   0.80515904   -6.7116917    332.05314  0.024618412   0.02441445            7 
 1125000    0.7942793   -6.7102045    332.12718  0.024602013  0.024398299           18 
 1126000   0.78499717   -6.7027003    331.92655  0.024565316  0.024382166           14 
 1127000   0.81217383    -6.734636    331.40603   0.02450503     0.024366           18 
 1128000   0.80273123    -6.688525    332.84722  0.024589777   0.02434986           12 
 1129000   0.78756339   -6.6752028    332.87292  0.024569893  0.024333831           13 
 1130000   0.79069231   -6.7001378    332.65399  0.024532005  0.024317719           14 
 1131000   0.80837051   -6.7155372    332.97383  0.024533881  0.024301587            7 
 1132000   0.80024638   -6.7228677    333.66797  0.024563308  0.024285504           16 
 1133000   0.80317572   -6.7113329    332.84893  0.024481386  0.024269371           28 
 1134000   0.80187983    -6.703379    333.43717  0.024503025   0.02425328           22 
 1135000   0.79812135     -6.74047    333.01954  0.024450774  0.024237209           10 
 1136000    0.7956628    -6.723352    332.98749  0.024426899  0.024221084           18 
 1137000   0.79969351    -6.713283    333.70866  0.024458271  0.024205014           17 
 1138000   0.78516878   -6.7146541    333.41574   0.02441533  0.024188891           15 
 1139000   0.80400938   -6.7313198     334.2823  0.024457295  0.024172792           25 
 1140000   0.80208383   -6.7037354    333.57062  0.024383817  0.024156552           22 
 1141000   0.78670845   -6.7215457    333.16878  0.024333098  0.024140186           18 
 1142000     0.797283   -6.7126193    332.67867  0.024276027  0.024123852           16 
 1143000   0.81416316   -6.7059955    333.17084  0.024290671  0.024107639           20 
 1144000   0.81665107    -6.709337    333.52927  0.024295547  0.024091464           13 
 1145000   0.81122262   -6.7102713    333.53057  0.024274423  0.024075301           13 
 1146000   0.79882344   -6.7271737    333.47165  0.024248957  0.024059067           26 
 1147000   0.80162074   -6.7582391    332.88918  0.024185497  0.024042676           19 
 1148000   0.80524306   -6.7504999    332.69653  0.024150445  0.024026315           14 
 1149000   0.79753477   -6.7490399    333.77397   0.02420757  0.024009971           13 
 1150000   0.79783159    -6.722738    333.51588  0.024167817  0.023993675           36 
 1151000   0.80453609   -6.7459768    333.40484  0.024138781  0.023977448           13 
 1152000   0.79129352   -6.7295241    333.05662  0.024092638  0.023961266           14 
 1153000   0.79427446   -6.7414848    333.39787  0.024096406  0.023944985           15 
 1154000   0.79148196   -6.7246995    334.24412  0.024136635  0.023928578           21 
 1155000   0.79269861   -6.7544351    332.91409  0.024019776  0.023912217           12 
 1156000   0.80663718   -6.7367314    334.07584  0.024082745  0.023895879           20 
 1157000   0.77867777   -6.7242919     334.0786  0.024062129  0.023879528           16 
 1158000    0.7909093   -6.7284929    334.26584  0.024054824  0.023863383           13 
 1159000   0.77521128   -6.7614224    333.66118  0.023990594  0.023847086           20 
 1160000   0.80286151   -6.7417853    334.38971   0.02402225   0.02383081           30 
 1161000   0.79137874   -6.7418927    334.63759   0.02401935  0.023814587           22 
 1162000   0.79874261   -6.7525838    334.86692  0.024015126  0.023798439           19 
 1163000   0.76933419   -6.7382454    334.59178  0.023974762   0.02378218           19 
 1164000   0.79332082   -6.7619506    334.75224  0.023965653  0.023765939           20 
 1165000    0.7814518   -6.7729237    334.62985  0.023936327  0.023749624           24 
 1166000   0.77221823   -6.7546842    334.23947  0.023887898  0.023733362           26 
 1167000   0.79381198   -6.7688578      335.382  0.023949014  0.023717182           20 
 1168000   0.79840795   -6.7498225    335.42199  0.023931364  0.023700989           12 
 1169000   0.81113792   -6.7556556    335.00021  0.023880825   0.02368475           32 
 1170000   0.79046275   -6.7627971    334.86973   0.02385112  0.023668491           75 
 1171000   0.78608738   -6.7535642    334.91913  0.023834268  0.023652271           60 
 1172000   0.78881601   -6.7673556    335.08426  0.023825672  0.023636065           24 
 1173000   0.79409579    -6.766427    334.95568  0.023796226   0.02361985           23 
 1174000   0.79995892   -6.7539152    335.64986  0.023825232  0.023603581           20 
 1175000   0.79719956   -6.7693141    335.43987  0.023790062  0.023587394           10 
 1176000   0.77403308   -6.7757558    334.82647  0.023726365  0.023571111           20 
 1177000   0.77310372   -6.7644851    335.76389  0.023772578  0.023554931           11 
 1178000   0.79752876   -6.7410593    335.58009  0.023739395  0.023538811           24 
 1179000    0.7686922   -6.7620445    336.29739   0.02376996  0.023522776           13 
 1180000   0.79053975   -6.7573783    336.79352  0.023784853  0.023506695           19 
 1181000   0.77672424   -6.8009957    336.42521  0.023738725  0.023490669           41 
 1182000   0.76929527   -6.7725203    335.99856  0.023688562  0.023474493           42 
 1183000   0.77732732   -6.7469516    336.32692  0.023691668  0.023458468           22 
 1184000   0.79260709   -6.7685006    336.73222  0.023700185  0.023442442           16 
 1185000   0.78135347   -6.7530752    336.26519  0.023647341  0.023426435           33 
 1186000    0.7842528   -6.7973445    337.28332   0.02369894  0.023410408           53 
 1187000   0.78731618   -6.7369057    336.31372  0.023610904  0.023394418           13 
 1188000   0.80282189   -6.7499689     336.7933   0.02362467  0.023378517           15 
 1189000   0.80302276   -6.7449629    337.19951  0.023633271   0.02336258           10 
 1190000   0.77136823   -6.7903079    336.33408  0.023552806  0.023346492           16 
 1191000   0.76483021   -6.7884882    335.57188  0.023479701  0.023330441           16 
 1192000   0.76643047    -6.800532    336.77284  0.023543962  0.023314344           11 
 1193000   0.77542163   -6.7804233    337.15668  0.023551039  0.023298275           23 
 1194000     0.773149   -6.7726788    337.39126  0.023547687  0.023282202           25 
 1195000   0.77196706   -6.7417047    337.11721  0.023508871  0.023266147           35 
 1196000   0.75587176   -6.7835751    337.20562  0.023495375  0.023250176           37 
 1197000   0.78254139   -6.7863938    337.16907  0.023473202  0.023234171           53 
 1198000    0.7755904   -6.8120761     337.1068  0.023449276  0.023218121           57 
 1199000     0.789675   -6.7833741    336.91107  0.023416115  0.023201979           57 
 1200000   0.76641504   -6.7943215    336.92645   0.02339767  0.023185779           60 
 1201000   0.78345794   -6.7794557    337.10747  0.023390749  0.023169662           34 
 1202000   0.77733084   -6.7885964    336.53364  0.023331506  0.023153492           23 
 1203000   0.74645278   -6.7799462    337.45319   0.02337581  0.023137422           29 
 1204000   0.77661742   -6.8070666    337.27681  0.023344187  0.023121429           14 
 1205000   0.77124681   -6.7757239    337.11345  0.023313517  0.023105368           42 
 1206000   0.77763338   -6.8049109    337.88885  0.023347764   0.02308932           47 
 1207000   0.79176583   -6.7844697    337.80549  0.023322666  0.023073268           54 
 1208000    0.7905741   -6.7664565    338.13196   0.02332588  0.023057275           44 
 1209000   0.77376476   -6.7841191    337.18588  0.023241376  0.023041215           28 
 1210000   0.76130758   -6.7771664    337.76545  0.023262083  0.023025182           23 
 1211000   0.76085778   -6.7869193    337.41715  0.023218906  0.023009144           23 
 1212000   0.78509106   -6.7752239    337.98434  0.023238747  0.022993048           15 
 1213000   0.77081705     -6.77081    337.83828  0.023209555  0.022977091           29 
 1214000   0.77037991   -6.7786595    337.51686  0.023168373  0.022961081           59 
 1215000   0.76992622   -6.7617725    338.18661  0.023195241  0.022945052           18 
 1216000   0.77304174   -6.7836786    337.02347  0.023096455  0.022928937           46 
 1217000   0.78062696   -6.7622262    337.38262   0.02310207  0.022912854           18 
 1218000   0.77391741   -6.7900542    337.61224  0.023098812   0.02289676           22 
 1219000   0.76496318   -6.7948317    337.23522  0.023054089  0.022880674           13 
 1220000   0.76140157   -6.7764229    337.49146  0.023052695   0.02286456           39 
 1221000       0.7718   -6.7819777    338.14922  0.023078708  0.022848541           30 
 1222000   0.77050513   -6.7745283    337.87069  0.023040827  0.022832509            9 
 1223000   0.76799089   -6.7711331    337.85086  0.023020637  0.022816452           22 
 1224000   0.76946534   -6.8095431     338.8016  0.023066558  0.022800418           32 
 1225000   0.74687348   -6.8108922    338.41189  0.023021217  0.022784381           23 
 1226000   0.75842061   -6.7975634     338.6928  0.023021534  0.022768353           35 
 1227000   0.76230029   -6.8161049    337.78021  0.022940791    0.0227523           37 
 1228000   0.75132791   -6.7958913    338.00426  0.022937314  0.022736228           29 
 1229000   0.74888109   -6.7755676    338.54573  0.022955365  0.022720235           30 
 1230000   0.75964007   -6.7955341    339.33207  0.022989978  0.022704272           23 
 1231000   0.75165222   -6.7899838    339.06254  0.022953056  0.022688273           12 
 1232000   0.75141775   -6.7914174    338.94747  0.022926641  0.022672278            9 
 1233000   0.77097197   -6.8112235    338.78875   0.02289732  0.022656334           22 
 1234000   0.76184859   -6.7975276    338.71632  0.022873873   0.02264043           17 
 1235000   0.76572273   -6.7892645    339.05026  0.022877885  0.022624536           53 
 1236000   0.75067804   -6.8236522    339.50688  0.022890162  0.022608658           12 
 1237000   0.75332542   -6.8021988    339.46114  0.022868576  0.022592777           14 
 1238000   0.75041903    -6.791667    339.39916  0.022845931  0.022577043           12 
 1239000   0.76592883   -6.7950365    339.94345  0.022864101  0.022561275           21 
 1240000   0.76269019   -6.8214524    338.99762  0.022782098  0.022545477           15 
 1241000    0.7684791   -6.8118005    338.70133  0.022743844  0.022529556           27 
 1242000   0.76402063    -6.798744    338.31886   0.02269987  0.022513575           23 
 1243000   0.76243879   -6.7922727    339.10449  0.022734278  0.022497648           17 
 1244000    0.7500789    -6.808334    339.77823  0.022761135  0.022481817           27 
 1245000   0.74103948   -6.8177817    339.84721  0.022747471  0.022466042           19 
 1246000   0.76807198   -6.8360849    338.60735  0.022646292  0.022450129           12 
 1247000   0.75687898   -6.8564286    338.57471  0.022625949  0.022434159           30 
 1248000   0.76070928   -6.8399715    339.92765  0.022698161  0.022418226           41 
 1249000   0.77386027   -6.8007933    339.84729  0.022674626  0.022402313           18 
 1250000   0.75986622   -6.8086131    339.88248  0.022658832  0.022386473           45 
 1251000   0.74856594   -6.8088001    339.66808  0.022626438  0.022370682           21 
 1252000   0.75374648   -6.8543658    340.00355  0.022630695  0.022354866           20 
 1253000   0.76002824   -6.8249431    339.89877  0.022605665  0.022339029           31 
 1254000   0.75079786    -6.835791    340.90612   0.02265458  0.022323262           31 
 1255000   0.74726916   -6.8217941    339.78173  0.022561868  0.022307506           40 
 1256000    0.7543802   -6.8053076    339.91202  0.022552549  0.022291687           49 
 1257000   0.75219333   -6.8349949     340.4821  0.022572401  0.022275878           62 
 1258000   0.74691513   -6.8300444    340.12377  0.022530722   0.02226002           28 
 1259000   0.76391219    -6.847012    339.84812   0.02249458  0.022244147           29 
 1260000   0.73956744   -6.8355419    339.46671  0.022451502  0.022228252           24 
 1261000   0.74946063   -6.8217932    340.40983  0.022496023  0.022212315           26 
 1262000   0.74290427   -6.8263491    340.15411  0.022461312  0.022196376           20 
 1263000   0.75199433   -6.8186815    339.91029  0.022427441  0.022180469           23 
 1264000   0.74712202   -6.8227467     340.5588  0.022452453   0.02216458           14 
 1265000   0.74234318   -6.8173975    341.09486  0.022470017  0.022148722           91 
 1266000   0.75802927   -6.8603319    340.24787  0.022396516  0.022132862           41 
 1267000   0.73749771   -6.8478763    340.27972  0.022380934  0.022117047           22 
 1268000   0.75091494   -6.8254172    341.06959  0.022415194   0.02210125           68 
 1269000   0.72135363   -6.7854835    340.65212  0.022370115  0.022085528           54 
 1270000   0.74275348   -6.8163778    341.10133  0.022381977  0.022069833           26 
 1271000   0.73049497   -6.8394235    340.99509  0.022357402  0.022054184           36 
 1272000   0.75793377   -6.8326469    341.36618  0.022364136  0.022038546           51 
 1273000   0.74826931   -6.8365482    340.75665  0.022306668   0.02202283           56 
 1274000   0.73329022   -6.8348972    340.54338  0.022275208  0.022007168           19 
 1275000    0.7498722   -6.8320219    342.13366  0.022361677  0.021991573           21 
 1276000   0.74985989   -6.8548446    341.36441  0.022293914   0.02197595           32 
 1277000   0.73811593   -6.8533708    341.30158  0.022272356  0.021960307           59 
 1278000   0.74579537   -6.8743521    340.77145  0.022220361  0.021944561           31 
 1279000   0.75290109   -6.8204466    340.89995   0.02221136    0.0219288           61 
 1280000   0.73792013   -6.8373789    341.48321   0.02223198  0.021913106           41 
 1281000   0.74167397   -6.8393822    341.26197  0.022200232  0.021897362           76 
 1282000   0.72862408   -6.8265796    341.24701  0.022181943  0.021881622           63 
 1283000   0.73674713   -6.8505358    341.06144  0.022152601   0.02186594           25 
 1284000   0.74068494   -6.8077207    341.29938   0.02215079  0.021850263           28 
 1285000   0.75268051   -6.8435153    341.42222  0.022141519  0.021834582           18 
 1286000   0.74824341   -6.8434409    341.67185  0.022140477  0.021818906           54 
 1287000   0.74580574   -6.8334103    340.80969   0.02206745  0.021803171           26 
 1288000   0.72964135    -6.849262    341.26785  0.022079959  0.021787455           51 
 1289000   0.74023609   -6.8477868    341.40311  0.022071574  0.021771712           39 
 1290000   0.72489767   -6.8373677     341.6059  0.022067565  0.021755969           65 
 1291000   0.72723184   -6.8539502    341.79586  0.022062733  0.021740269           37 
 1292000   0.73652617   -6.8325559    341.89313   0.02205193  0.021724594           31 
 1293000   0.73147954    -6.850424    341.88802  0.022034546  0.021708982           49 
 1294000   0.73905285   -6.8318442    341.55693  0.021996196  0.021693302           46 
 1295000   0.74045519   -6.8652245    341.04441   0.02194623  0.021677552           66 
 1296000   0.73533163    -6.881608    341.48829  0.021957837  0.021661782           31 
 1297000   0.73358018   -6.8690918    341.42041  0.021936546  0.021645984           29 
 1298000   0.73609995   -6.8615342     341.6128  0.021931998  0.021630227           26 
 1299000   0.73484324    -6.840897    341.48611  0.021906987  0.021614494           14 
 1300000   0.75575563   -6.8529803    341.88897   0.02191596  0.021598843           42 
 1301000   0.72896012   -6.8715676    341.75241  0.021890367  0.021583193           10 
 1302000    0.7343147   -6.8475391    341.34144   0.02184725  0.021567523           23 
 1303000   0.73035193   -6.8595566    341.26015  0.021825285  0.021551849           60 
 1304000   0.73172342   -6.8563659    342.27846  0.021873624  0.021536191           44 
 1305000   0.72838038   -6.8757232     341.8595  0.021830108  0.021520552          138 
 1306000    0.7382013   -6.8603053    342.48212  0.021853121  0.021504984          140 
 1307000   0.72906295    -6.881565     341.9788   0.02180431  0.021489401          153 
 1308000   0.73442988   -6.8702728    342.63274  0.021829303    0.0214738          176 
 1309000   0.72858934    -6.853544    342.06302  0.021776357  0.021458226          109 
 1310000   0.71741607   -6.8758738    342.42077  0.021782492  0.021442691          127 
 1311000   0.73243268   -6.8631239    343.13298  0.021811148  0.021427207          119 
 1312000    0.7439804   -6.8723798    342.80385  0.021773619  0.021411828          148 
 1313000   0.72371024    -6.868701    343.61948  0.021808802  0.021396457          165 
 1314000    0.7212916   -6.8701155     343.2875  0.021771151  0.021381047          108 
 1315000   0.70726626   -6.8972856    342.41003  0.021698988  0.021365603          104 
 1316000   0.72358999   -6.8691208    343.25873  0.021736242  0.021350161           64 
 1317000   0.72535721   -6.8649526    342.87921  0.021695723  0.021334729           35 
 1318000   0.74455122   -6.8877773    342.29826   0.02164253  0.021319288           41 
 1319000   0.73200541   -6.8699575    343.15748  0.021680407  0.021303909           74 
 1320000   0.72227293   -6.8896355    343.35847  0.021676671  0.021288475           58 
 1321000   0.73830092   -6.8656779    342.26073  0.021591013  0.021273023           75 
 1322000   0.70765718    -6.861372    342.81262  0.021609469  0.021257658           65 
 1323000   0.71584738   -6.8868956    342.36383  0.021564867  0.021242278           38 
 1324000   0.73456096    -6.916477    342.20744  0.021538736  0.021226776           49 
 1325000   0.74060876    -6.887991    342.64968  0.021550294  0.021211299          105 
 1326000   0.71553595   -6.8591713    343.36071  0.021578727  0.021195874          227 
 1327000   0.72796678   -6.8853092     343.4728  0.021569505  0.021180495           83 
 1328000    0.7233003   -6.8989879    342.99857  0.021523505   0.02116516           93 
 1329000   0.73257739   -6.8863722    342.85199  0.021498118  0.021149834           95 
 1330000    0.7214621   -6.8900888    343.51427  0.021523451  0.021134522           65 
 1331000   0.71869604    -6.872539    343.60336  0.021512858  0.021119293           41 
 1332000   0.72676074   -6.8779061    342.71819  0.021441328  0.021104033           78 
 1333000   0.73775798    -6.882067     343.9257  0.021500732  0.021088788           49 
 1334000   0.73286764   -6.8754755    342.90918  0.021421113   0.02107348           83 
 1335000   0.72649769   -6.9212485    343.12797  0.021418724  0.021058155           97 
 1336000   0.72566401   -6.9085545    343.10822  0.021401461  0.021042782           71 
 1337000   0.71251658   -6.8752375    343.50839  0.021410395  0.021027398           92 
 1338000   0.72839438   -6.8873677    343.43906  0.021390076  0.021012141           86 
 1339000   0.72704636   -6.8831987    343.13547  0.021355207  0.020996879           65 
 1340000    0.7167943   -6.8933931    343.32477  0.021351043   0.02098161           51 
 1341000   0.70163767   -6.9131807    343.10807  0.021321655  0.020966272           43 
 1342000    0.7075334   -6.8917174    343.57956  0.021335045  0.020950946           36 
 1343000   0.70413899   -6.9008979     344.1973  0.021357489  0.020935659           42 
 1344000   0.71342631    -6.909416    343.73934  0.021313203  0.020920334           51 
 1345000   0.72639367   -6.8964982     343.4693  0.021280626  0.020905019           36 
 1346000    0.7312504   -6.9230791     343.2025  0.021248297  0.020889667           42 
 1347000   0.72466455   -6.8736672     343.7664  0.021267409   0.02087437          100 
 1348000   0.70577801   -6.8850128    344.01313  0.021266885  0.020859123           61 
 1349000   0.72311013   -6.8976247    344.00178  0.021250419   0.02084398           13 
 1350000   0.73152361   -6.8708452    344.65065  0.021274732  0.020828856           49 
 1351000   0.71235867   -6.8952141    344.49645  0.021249473  0.020813782           38 
 1352000   0.70550371     -6.88106    344.47965   0.02123272  0.020798649           24 
 1353000   0.72567023    -6.860704    343.67292  0.021167339  0.020783449           39 
 1354000   0.73357622   -6.9116108    344.55661  0.021206094  0.020768301           21 
 1355000   0.70948881   -6.9050628    343.50579  0.021125818  0.020753178           24 
 1356000    0.7405643   -6.9014683    343.47738  0.021108492  0.020738029           16 
 1357000   0.71844723   -6.8946375    343.39596  0.021087937  0.020722803           45 
 1358000   0.69800759     -6.87817     344.0996  0.021115587  0.020707589           14 
 1359000   0.72502779   -6.8722621    344.03665  0.021096189  0.020692358           26 
 1360000   0.72727012   -6.8879051    344.28294  0.021095769  0.020677147           24 
 1361000   0.71538143   -6.9105009    344.15103  0.021072191  0.020662011           27 
 1362000   0.70429041   -6.9072109    343.56018  0.021020569  0.020646875           21 
 1363000   0.72261487    -6.912708    343.91539  0.021026864  0.020631693           27 
 1364000   0.72578739   -6.9034724    344.55358  0.021050438  0.020616554           30 
 1365000   0.69793706   -6.9034895    344.85797    0.0210536  0.020601383           28 
 1366000   0.69933278   -6.9053408     343.7698  0.020971803  0.020586305           30 
 1367000   0.71554455   -6.8896213    344.68843  0.021012462  0.020571264           14 
 1368000   0.69686404   -6.8870249    344.46535  0.020983513  0.020556196           40 
 1369000   0.70142713   -6.8997674    344.20124  0.020952109   0.02054116           57 
 1370000   0.70937181   -6.8845831    344.17567   0.02093526  0.020526075           45 
 1371000   0.70424453   -6.9002819    344.35591  0.020930945  0.020511039           63 
 1372000   0.70861151   -6.9225017    343.73812  0.020878166  0.020495951           48 
 1373000     0.701551   -6.8860793    344.26185  0.020894747  0.020480896           87 
 1374000   0.69969288   -6.9123291    344.34892  0.020884821  0.020465784           90 
 1375000   0.70038821   -6.9270055    344.80559  0.020897308  0.020450702           75 
 1376000    0.7077618   -6.9314728    343.68631  0.020814336  0.020435634          110 
 1377000   0.71487486   -6.9206457     344.3507  0.020839427    0.0204205          165 
 1378000   0.69861666    -6.913522    344.11276  0.020809915  0.020405345          115 
 1379000   0.68795193   -6.9328883    343.63727  0.020766091  0.020390158           86 
 1380000   0.69666692   -6.8846077    344.13538  0.020781122  0.020375064           46 
 1381000   0.70264458   -6.9382452    344.30061  0.020776044   0.02035999          135 
 1382000   0.70635017   -6.9446702    344.86329   0.02079494  0.020344921          190 
 1383000   0.72151149   -6.9291429    343.98827  0.020727179  0.020329833          163 
 1384000    0.6967128   -6.9441028    344.03815  0.020715206  0.020314754          125 
 1385000   0.72205864   -6.9142951    343.79469  0.020685601  0.020299679          138 
 1386000   0.68743666    -6.916499    344.15599    0.0206924  0.020284631          116 
 1387000   0.70395273   -6.9325434    344.40818  0.020692633  0.020269625          165 
 1388000   0.71207636   -6.9323771    344.65917  0.020692793  0.020254605          174 
 1389000   0.69803834   -6.9286493    344.67725  0.020678981  0.020239636          269 
 1390000   0.71371425   -6.9354781    345.06125  0.020687125  0.020224679           71 
 1391000   0.69727653    -6.915316    345.48431  0.020697598   0.02020973           86 
 1392000   0.70370852   -6.9350019    345.01723  0.020654767  0.020194796           80 
 1393000   0.71815947   -6.9309067    344.97828   0.02063761  0.020179919          117 
 1394000   0.69446801   -6.9204118    345.33003  0.020643833  0.020165039          170 
 1395000   0.71170081   -6.9260189    345.50332  0.020639386  0.020150187           85 
 1396000   0.69528719   -6.9344165    345.33044  0.020614281  0.020135363           75 
 1397000    0.6926683     -6.95685    345.84484   0.02063021    0.0201205          165 
 1398000   0.69823206   -6.9322121    345.20202  0.020577135  0.020105666          169 
 1399000   0.69143393   -6.9337724    345.42309  0.020575595  0.020090817          174 
 1400000   0.69481126   -6.9588177    344.33006  0.020495837  0.020075944          183 
 1401000   0.70134894   -6.9377723    344.81139  0.020509838  0.020061118          102 
 1402000   0.69627647   -6.9246111    345.81235  0.020554705  0.020046366           34 
 1403000   0.69970207   -6.9371471     345.7826  0.020538287  0.020031566           55 
 1404000   0.68741761   -6.9318482     345.5759   0.02051139  0.020016804           46 
 1405000   0.69978365   -6.9295485    345.50265  0.020492446  0.020002019           52 
 1406000   0.69251533   -6.9422214    345.30886  0.020466386  0.019987281           44 
 1407000   0.67611439   -6.9702499    345.46407  0.020461032  0.019972506           39 
 1408000   0.69766931   -6.9324273    345.35725  0.020440178  0.019957747           87 
 1409000   0.68870181   -6.9297438    344.89506  0.020398336  0.019942986          222 
 1410000   0.68262554    -6.929496    345.01308  0.020390844   0.01992823          149 
 1411000   0.69641814   -6.9343013    345.09284  0.020381103  0.019913439          117 
 1412000   0.67825401   -6.9444597    345.80241  0.020408546  0.019898608          112 
 1413000   0.66890411   -6.9346466    345.42787  0.020372014  0.019883862          164 
 1414000   0.69200141    -6.953661    345.02466  0.020333844  0.019869102          118 
 1415000   0.68933687   -6.9579918    344.68922  0.020299718  0.019854291          101 
 1416000    0.6778695    -6.948301    345.51618   0.02033405  0.019839458           94 
 1417000   0.68990172   -6.9596504    344.82703  0.020279172  0.019824633          130 
 1418000   0.69348995   -6.9364603    344.66408  0.020255294   0.01980984          158 
 1419000   0.67972728   -6.9439945    345.60247  0.020296128  0.019795037          120 
 1420000   0.67571383   -6.9249685    345.29272  0.020263657   0.01978024          168 
 1421000   0.69200246   -6.9584928    344.76393  0.020218387  0.019765419           83 
 1422000   0.68260924   -6.9572884     344.6844  0.020199508  0.019750573           53 
 1423000   0.67806583   -6.9670943    345.49509  0.020232788  0.019735766          109 
 1424000   0.68964641   -6.9636242    345.19229   0.02020086  0.019720944           85 
 1425000   0.67300662   -6.9381819    345.34586  0.020195664  0.019706142          149 
 1426000   0.67618905   -6.9840463    345.44635  0.020187375  0.019691362          191 
 1427000    0.6807824   -6.9590927    345.89271  0.020199294  0.019676556          254 
 1428000   0.68372249     -7.00675    344.65699  0.020113036  0.019661756          209 
 1429000   0.68959546   -6.9817458    344.84033  0.020109653  0.019646912          473 
 1430000   0.68148979   -6.9868059    344.67739  0.020086095  0.019632103          344 
 1431000   0.67862413   -6.9590964    345.25421  0.020105649   0.01961726          508 
 1432000   0.69283876   -6.9653137    344.83233  0.020067058  0.019602495          491 
 1433000   0.68040037   -6.9895744    345.52838  0.020093532  0.019587738          625 
 1434000   0.68897853   -7.0057934     345.4862  0.020077069  0.019572954          631 
 1435000   0.67254433   -6.9959292    345.30514  0.020052563  0.019558142          681 
 1436000   0.68449463   -7.0098235    344.72861  0.020005142  0.019543254          675 
 1437000   0.68218769    -7.006316    345.16548  0.020016555  0.019528399          755 
 1438000   0.67515792   -6.9922207    345.02677  0.019994597  0.019513531          827 
 1439000   0.68806237   -7.0088964     344.7329  0.019963684  0.019498663          916 
 1440000   0.67891984   -7.0296822    344.73007  0.019949657  0.019483785          837 
 1441000   0.65631917   -7.0221328     343.7823  0.019881003  0.019468914          893 
 1442000   0.67955311   -7.0184085    344.89283  0.019931393  0.019454094          812 
 1443000   0.67814033    -7.009303     344.3576  0.019886671  0.019439212          933 
 1444000   0.66748339   -7.0367151    345.04597  0.019912625  0.019424379          986 
 1445000   0.67811569   -7.0161249    344.43163  0.019863416  0.019409555         1014 
 1446000   0.66918708   -7.0412851    344.69642  0.019864939  0.019394714          990 
 1447000   0.68391288   -7.0182824    344.30103   0.01982844  0.019379882         1103 
 1448000   0.67913923   -7.0367495    344.18257  0.019807928  0.019364995         1223 
 1449000   0.66413544   -7.0492918    344.12544  0.019790973  0.019350081         1212 
 1450000   0.68894938   -7.0409056    344.57176  0.019802975  0.019335153         1393 
 1451000   0.67293027   -7.0705563     344.4969  0.019785027  0.019320235         1286 
 1452000   0.67005396   -7.0690467     344.6479  0.019780068  0.019305329         1285 
 1453000   0.68424216   -7.0732842    343.39486   0.01969459  0.019290399         1413 
 1454000   0.69252961    -7.071964    343.63975   0.01969508  0.019275445         1422 
 1455000   0.67332801   -7.0843097    343.89004  0.019695879  0.019260507         1434 
 1456000   0.68660986   -7.0787317    343.47684  0.019658702  0.019245535         1515 
 1457000   0.68205207   -7.0951583    343.51455  0.019647366  0.019230594         1516 
 1458000   0.65605061   -7.0795897    342.68824  0.019586662  0.019215637         1685 
 1459000    0.6873893   -7.0854543    344.00705  0.019648563  0.019200632         1770 
 1460000   0.66277333   -7.1147572    343.35175  0.019597703   0.01918564         1745 
 1461000   0.65887426   -7.0952606    343.49104  0.019592234   0.01917063         1824 
 1462000   0.65229797   -7.0891231    343.74338  0.019593216  0.019155633         1853 
 1463000   0.65093622   -7.1176609    343.14037  0.019545475  0.019140604         1918 
 1464000   0.66544864   -7.1233591     343.2657  0.019539259  0.019125587         1873 
 1465000   0.68094579   -7.1188037    343.42535  0.019535003  0.019110571         1973 
 1466000   0.67879689   -7.1236908    343.17074  0.019507204  0.019095547         2036 
 1467000   0.66455871   -7.1461506    343.94879  0.019538104  0.019080502         2118 
 1468000   0.65363955   -7.1518919    343.13498  0.019478598  0.019065475         2179 
 1469000   0.67529222   -7.1461332    342.97215  0.019456101  0.019050415         2182 
 1470000   0.66334203   -7.1494277    343.29014  0.019460892  0.019035404         2275 
 1471000   0.66427138   -7.1420516    342.60579  0.019408894  0.019020394         2383 
 1472000   0.66630008   -7.1588128    342.30397  0.019378622  0.019005359         2266 
 1473000   0.66451216   -7.1502317     343.3874  0.019426759  0.018990318         2214 
 1474000   0.66219423   -7.1659939    342.76003  0.019378111  0.018975273         2442 
 1475000   0.67610601   -7.1713435    343.06764  0.019382352  0.018960209         2454 
 1476000   0.67375773   -7.1730714    342.57843    0.0193416  0.018945143         2394 
 1477000   0.66462709   -7.1877199    342.54682  0.019326722  0.018930092         2434 
 1478000   0.66684696   -7.2046712    342.44357  0.019307824  0.018915014         2485 
 1479000   0.66788009   -7.1896317    342.68709  0.019308491  0.018899937         2493 
 1480000   0.65724442   -7.1743777    342.87348  0.019305939  0.018884865         2485 
 1481000   0.65008329   -7.1887979    342.77288  0.019287243  0.018869792         2597 
 1482000   0.66877308    -7.197269    342.62004  0.019265634   0.01885471         2578 
 1483000   0.64757071   -7.1986217     342.3772  0.019238998  0.018839634         2580 
 1484000   0.66639767   -7.2072537    342.54581  0.019235501  0.018824542         2628 
 1485000   0.64793857   -7.1757356    342.81559  0.019237687  0.018809475         2576 
 1486000   0.66764543   -7.2114128    342.28268  0.019194856   0.01879441         2626 
 1487000   0.67332907   -7.1944864    342.94572  0.019219106  0.018779343         2663 
 1488000    0.6308157   -7.2247842    342.51789   0.01918223  0.018764272         2700 
 1489000   0.66574676   -7.1986467    342.47114  0.019166731  0.018749194         2741 
 1490000   0.64608157   -7.2281527    341.76407  0.019114321  0.018734088         2737 
 1491000   0.66239082   -7.2338354    341.72239  0.019099172  0.018718999         2728 
 1492000   0.66538212   -7.2356396    341.71114  0.019085743  0.018703908         2761 
 1493000   0.65199548   -7.2281222    342.51471  0.019117812   0.01868882         2827 
 1494000   0.65231033   -7.2342883    341.52967  0.019050071   0.01867371         2850 
 1495000   0.65941067   -7.2457797    341.36039  0.019027893  0.018658622         2921 
 1496000   0.65037502   -7.2267594    341.76685  0.019037815  0.018643508         2900 
 1497000   0.66576899   -7.2345938    341.77408    0.0190255  0.018628406         2862 
 1498000   0.65574457   -7.2599957      340.965   0.01896779  0.018613284         2970 
 1499000   0.66024012   -7.2514591    341.85546   0.01900464   0.01859817         2960 
 1500000   0.65308235   -7.2666382    341.39162  0.018966201  0.018583067         2993 
 1501000   0.65093109   -7.2835079    341.53411  0.018961476  0.018567977         3002 
 1502000   0.64778216   -7.2563549    341.35134  0.018938712  0.018552871         3005 
 1503000   0.65838817   -7.2656483    341.15984  0.018915493  0.018537751         3140 
 1504000   0.66074656   -7.2839098    340.92098  0.018889682  0.018522622         3160 
 1505000   0.63724108    -7.293501    341.07501   0.01888566  0.018507472         3144 
 1506000   0.65239441   -7.2916761    340.58313  0.018845901  0.018492325         3222 
 1507000   0.64645266   -7.2965386    340.64203  0.018836653  0.018477145         3203 
 1508000   0.64967044   -7.3023347    340.71672  0.018828289  0.018461956         3266 
 1509000   0.64750921   -7.3203869    340.80405  0.018820634   0.01844676         3233 
 1510000   0.65109487   -7.3195111    341.03201  0.018820751  0.018431563         3217 
 1511000   0.63695768   -7.3088277    341.00474  0.018806792  0.018416371         3239 
 1512000   0.64480198   -7.3334295    340.43266  0.018762823  0.018401198         3198 
 1513000    0.6448824   -7.3231547    340.66516  0.018763228   0.01838601         3190 
 1514000   0.64841712   -7.3472631    340.22462  0.018726586   0.01837078         3283 
 1515000    0.6554246   -7.3420956    340.22148  0.018714053   0.01835558         3258 
 1516000   0.65055333   -7.3365053    340.26297  0.018703989  0.018340379         3314 
 1517000   0.63542304   -7.3261752    340.31063  0.018694278  0.018325203         3231 
 1518000   0.64684828   -7.3190576    339.36282  0.018629931  0.018310046         3315 
 1519000   0.63861559    -7.306125    339.73562  0.018638118  0.018294903         3294 
 1520000    0.6435371   -7.3369416    340.24745  0.018653917  0.018279757         3320 
 1521000   0.64634881   -7.3548986    340.44885  0.018652687  0.018264607         3324 
 1522000   0.64832696   -7.3620565    339.96781  0.018614094  0.018249461         3419 
 1523000   0.64578888   -7.3457368    339.67694  0.018585957  0.018234329         3396 
 1524000   0.64381176   -7.3556605    340.37183  0.018611758  0.018219189         3420 
 1525000   0.63347855   -7.3365169    339.80765  0.018568724  0.018204057         3392 
 1526000   0.64280752   -7.3647828    340.39593  0.018588681  0.018188947         3451 
 1527000   0.64723465   -7.3530643    340.44626  0.018579254  0.018173826         3446 
 1528000   0.65433369   -7.3815026    339.62468  0.018522288    0.0181587         3478 
 1529000   0.63442772    -7.355084    339.51244  0.018504057  0.018143579         3506 
 1530000   0.64251215   -7.3734527    339.83444  0.018509501  0.018128434         3512 
 1531000   0.64017099   -7.3545161    339.34715  0.018470888  0.018113287         3481 
 1532000   0.63375883    -7.379357    340.12409  0.018501093  0.018098147         3505 
 1533000   0.63678289   -7.3986007      339.683  0.018465047  0.018083003         3504 
 1534000   0.63975576   -7.3916544    339.18462  0.018425935  0.018067852         3511 
 1535000   0.64029775   -7.4151246    339.51587  0.018431915    0.0180527         3495 
 1536000   0.63612559   -7.4038123    339.64917  0.018427147  0.018037534         3504 
 1537000   0.62746533   -7.3898166    339.19096  0.018390314  0.018022397         3463 
 1538000   0.65210138   -7.4108497    338.69789  0.018351641  0.018007271         3511 
 1539000   0.63022475   -7.4020926    339.03787  0.018358126  0.017992138         3479 
 1540000   0.63588186   -7.4173256    339.09397  0.018349241  0.017976998         3592 
 1541000   0.65166106   -7.4200486     339.2227  0.018344295  0.017961854         3591 
 1542000   0.62998713   -7.4168585    339.91421  0.018369769  0.017946712         3636 
 1543000   0.63735977   -7.4069407    338.86348  0.018301117  0.017931582         3632 
 1544000   0.64045799   -7.4191773      339.372   0.01831671  0.017916473         3657 
 1545000   0.63798338   -7.4359775    338.42977  0.018254033  0.017901324         3713 
 1546000   0.62761609   -7.4387816    338.22418  0.018231144  0.017886194         3651 
 1547000   0.63062249   -7.4646046    338.61168  0.018240233  0.017871055         3687 
 1548000   0.61635336   -7.4452479    338.99359  0.018249009  0.017855943         3679 
 1549000   0.63519316   -7.4626434    338.98103  0.018236552    0.0178408         3669 
 1550000   0.63430166   -7.4722672    338.61279  0.018204989  0.017825666         3742 
 1551000   0.62584252   -7.4629368    338.76271  0.018201306  0.017810535         3697 
 1552000   0.63296764   -7.4966458    338.39811  0.018170001  0.017795429         3747 
 1553000   0.63818201   -7.4564926    338.41771  0.018159354  0.017780308         3742 
 1554000    0.6230193   -7.4718836    338.11608  0.018131493  0.017765212         3720 
 1555000   0.64623042   -7.4493395    338.04195   0.01811586   0.01775013         3710 
 1556000   0.62932007   -7.4601375    338.25476  0.018115615  0.017735053         3732 
 1557000   0.63228799   -7.4881385    337.63981  0.018071067  0.017719967         3755 
 1558000   0.64047651   -7.4692988    338.19286  0.018089049  0.017704877         3756 
 1559000    0.6209213   -7.4617129    338.56148   0.01809715  0.017689821         3740 
 1560000   0.62131946   -7.4853978    337.93019  0.018051826  0.017674772         3762 
 1561000   0.63136584   -7.4712505    338.49335  0.018070326  0.017659725         3768 
 1562000   0.61917691   -7.4974473    338.60175  0.018064541  0.017644687         3756 
 1563000   0.63919355   -7.4702214    338.17702  0.018030338  0.017629677         3703 
 1564000   0.63407573   -7.4874774    338.26067  0.018023267  0.017614682         3753 
 1565000   0.63925426     -7.48974    338.54842  0.018027072  0.017599698         3767 
 1566000   0.61374216   -7.4638503    337.72083  0.017971521  0.017584703         3765 
 1567000   0.62048855   -7.4766337    338.70244  0.018012255  0.017569727         3773 
 1568000    0.6320974   -7.4914819    337.96698   0.01796168  0.017554748         3791 
 1569000    0.6137923   -7.4836528    337.76662  0.017939591  0.017539797         3791 
 1570000   0.61785321   -7.5187343    337.65726   0.01792236  0.017524828         3803 
 1571000   0.63663497   -7.4880825     337.5631  0.017905957  0.017509855         3779 
 1572000   0.62993957   -7.4988324    337.33301  0.017882369  0.017494907         3771 
 1573000   0.62533371   -7.5024604    337.96724  0.017904601  0.017479975         3795 
 1574000   0.61842029     -7.51352     338.0097  0.017895473  0.017465053         3775 
 1575000   0.63140905   -7.5146197    337.47587  0.017855866   0.01745013         3774 
 1576000   0.61588212   -7.5277481    337.82863  0.017863189  0.017435231         3796 
 1577000   0.62921256   -7.4894324    337.49954  0.017834472  0.017420332         3811 
 1578000   0.60539359   -7.5096906    337.85312  0.017841842  0.017405447         3792 
 1579000   0.62050588   -7.5109181     337.7844  0.017826916  0.017390573         3813 
 1580000   0.61379698   -7.5100144    337.96004  0.017824897  0.017375706         3795 
 1581000    0.6159165   -7.5070315    337.79958  0.017805165  0.017360849         3816 
 1582000   0.61539635   -7.5134393    337.45236  0.017775619  0.017346001         3806 
 1583000   0.62447298   -7.5173214    337.94845  0.017790506  0.017331168         3804 
 1584000   0.63188668   -7.5331933    337.87862  0.017775601  0.017316357         3775 
 1585000   0.60732579   -7.4996044    337.70613  0.017755317  0.017301554         3807 
 1586000   0.61519311   -7.5000993    337.88346  0.017753439  0.017286751         3830 
 1587000   0.61561695   -7.5177671    338.04993  0.017750994  0.017271967         3814 
 1588000   0.61962218   -7.5382657    337.50631  0.017711288  0.017257182         3813 
 1589000   0.62498526    -7.530565    337.85034  0.017718184  0.017242411         3808 
 1590000   0.61974238    -7.520318    337.46019  0.017686593  0.017227656         3819 
 1591000   0.62519305   -7.5153572    337.69284  0.017687662  0.017212901         3813 
 1592000   0.61696823   -7.5123301    337.19794  0.017650646  0.017198165         3819 
 1593000   0.61659929   -7.5324972    337.56255  0.017658639  0.017183429         3846 
 1594000   0.60730251   -7.5370712    337.54522  0.017646655  0.017168724         3830 
 1595000    0.6071976   -7.5324143    338.29646  0.017674841  0.017154035         3781 
 1596000   0.64305544   -7.5193501    337.69729  0.017632482  0.017139356         3812 
 1597000   0.61815833    -7.510359    337.67351    0.0176202  0.017124686         3830 
 1598000   0.60934906   -7.5250651    337.52592  0.017601477   0.01711004         3838 
 1599000   0.61898098   -7.5238484    337.44253  0.017586123  0.017095398         3851 
 1600000   0.60641549   -7.5159141     337.1963  0.017562307  0.017080784         3833 
 1601000   0.61564755   -7.5197869    337.77156   0.01758128  0.017066162         3844 
 1602000   0.60418339   -7.5456432    337.22606   0.01754193  0.017051562         3830 
 1603000   0.61102018   -7.5016117    337.86781  0.017564349  0.017036985         3821 
 1604000   0.59599276   -7.5305684    337.86718  0.017553366  0.017022404         3839 
 1605000   0.60955696   -7.5395739    336.98985  0.017496877  0.017007834         3825 
 1606000   0.61164288   -7.5329418    337.89532  0.017532966  0.016993283         3826 
 1607000   0.60916427   -7.5301482     337.3469  0.017493616  0.016978742         3822 
 1608000   0.60293319   -7.5309713    337.11544  0.017470742  0.016964219         3813 
 1609000   0.61231106   -7.5217402    337.66434  0.017488313  0.016949705         3843 
 1610000   0.61151264   -7.5461007    337.75799  0.017482297  0.016935208         3821 
 1611000   0.62053095   -7.5255488    337.12318  0.017438608  0.016920697         3814 
 1612000   0.60522611   -7.5243652    336.81997  0.017412116  0.016906217         3807 
 1613000    0.6034785   -7.5386222    337.89244  0.017456729  0.016891775         3816 
 1614000   0.60496949   -7.5298479    337.88601  0.017445581  0.016877316         3826 
 1615000   0.60670006   -7.5389056    337.07928  0.017393151  0.016862886         3816 
 1616000   0.60088239   -7.5476818    337.18545  0.017387864  0.016848469         3809 
 1617000   0.60251618   -7.5232296    336.81542  0.017358041  0.016834049         3820 
 1618000   0.61350379   -7.5276591    337.65355  0.017390479  0.016819646         3797 
 1619000   0.61340275    -7.542846     337.6016  0.017377064  0.016805262         3800 
 1620000   0.61275835   -7.5249367    337.18047  0.017344674  0.016790892         3815 
 1621000   0.60662287   -7.5366361    337.22938  0.017336489  0.016776537         3819 
 1622000   0.61747479   -7.5471294    337.54679  0.017342108  0.016762191         3813 
 1623000   0.59493167   -7.5402891    337.12621  0.017309828  0.016747855         3821 
 1624000   0.61228928   -7.5616485    337.61436  0.017324218  0.016733525         3827 
 1625000   0.60638948   -7.5339382     337.7649  0.017321277  0.016719224         3816 
 1626000   0.60092801   -7.5439098    337.26859  0.017285188  0.016704919         3847 
 1627000   0.62144856   -7.5114489    336.78853  0.017249976  0.016690638         3824 
 1628000   0.61619569   -7.5648383    337.48788  0.017275178  0.016676369         3834 
 1629000   0.59264154    -7.551144     337.4302  0.017261623  0.016662113         3842 
 1630000   0.59616195   -7.5406837    337.17506  0.017237989  0.016647861         3833 
 1631000   0.60646027   -7.5466197     337.6022  0.017249244  0.016633627         3823 
 1632000   0.60508574   -7.5793016    337.22776  0.017219555  0.016619392         3843 
 1633000    0.6130393   -7.5523001    337.12891  0.017203966  0.016605176         3835 
 1634000   0.61983732   -7.5648188    336.82558  0.017177967  0.016590971         3826 
 1635000   0.59133329   -7.5604285    337.84581   0.01721946  0.016576788         3832 
 1636000   0.60279761   -7.5359024    336.96804  0.017164224  0.016562609         3835 
 1637000   0.60327945    -7.566693    336.91536  0.017151057  0.016548442         3827 
 1638000   0.58543841   -7.5654099    336.66743  0.017127972  0.016534277         3846 
 1639000   0.59729107   -7.5418251    336.92928  0.017130836  0.016520132         3834 
 1640000   0.59947316     -7.57762    336.98855  0.017123402  0.016506003         3826 
 1641000   0.58799421   -7.5495749    336.41108  0.017083642  0.016491893         3833 
 1642000    0.5973687   -7.5494847    336.72568  0.017089204  0.016477783         3822 
 1643000   0.59132303   -7.5580583    336.71141  0.017078079  0.016463701         3845 
 1644000   0.59923984   -7.5707128    336.79814  0.017072088  0.016449614         3828 
 1645000   0.59817765    -7.558441    336.91011  0.017067382  0.016435545         3830 
 1646000   0.58247954   -7.5623186    337.07739  0.017065481  0.016421485         3842 
 1647000   0.59712141   -7.5687718    337.74352  0.017088824  0.016407439         3817 
 1648000   0.60003483   -7.5475356     337.2504  0.017053519  0.016393414         3835 
 1649000   0.59499072   -7.5430998    336.94571   0.01702778  0.016379401         3835 
 1650000   0.59678156    -7.562961    337.14204  0.017027376  0.016365396         3817 
 1651000    0.6024926   -7.5670393    337.28443  0.017024249  0.016351427         3803 
 1652000   0.59810892   -7.5548646    336.84446  0.016991751  0.016337457         3827 
 1653000   0.60037533   -7.5625831    336.91465  0.016985009  0.016323486         3841 
 1654000   0.58561826   -7.5683567    337.48588  0.017003521  0.016309538         3834 
 1655000   0.60460468   -7.5647254    336.66316  0.016951821  0.016295601         3845 
 1656000   0.58724842   -7.5679355    336.62931  0.016939881  0.016281672         3867 
 1657000   0.60101244   -7.5702733     337.3825  0.016967537  0.016267745         3844 
 1658000   0.59719757   -7.5730807    336.76451  0.016926242  0.016253847         3838 
 1659000   0.58583535   -7.5830994    337.00233  0.016927985  0.016239966         3833 
 1660000    0.5886988   -7.5721249    336.49244  0.016892191  0.016226076         3854 
 1661000   0.58781519   -7.5738168     336.5936  0.016887096  0.016212212         3855 
 1662000   0.58193014    -7.573291    337.01186  0.016897907  0.016198357         3827 
 1663000   0.58677575   -7.5796389    336.94841  0.016884566  0.016184506         3844 
 1664000   0.60553865    -7.585571    337.17958  0.016885996  0.016170679         3850 
 1665000   0.60458847   -7.5718948    336.51985  0.016842835  0.016156856         3850 
 1666000   0.59509462   -7.5734498     336.7433  0.016843902  0.016143053         3829 
 1667000   0.58797587   -7.5882253    336.66194  0.016829731  0.016129273         3871 
 1668000   0.58174419    -7.562973    336.21587  0.016797356  0.016115496         3844 
 1669000   0.60329686   -7.5850976    337.30897   0.01684187  0.016101728         3848 
 1670000   0.58236917   -7.5871164    336.54068  0.016793447  0.016087971         3871 
 1671000   0.58443752   -7.5757448    337.28759  0.016820646  0.016074227         3859 
 1672000   0.58931853   -7.5790786    336.57027  0.016774834  0.016060478         3844 
 1673000   0.58939356   -7.5823021    336.65585   0.01676907  0.016046749         3855 
 1674000   0.60582406   -7.5871212    336.91581  0.016771994  0.016033031         3854 
 1675000   0.58463183   -7.5677924    336.33631   0.01673315  0.016019326         3865 
 1676000   0.59381853    -7.590802    335.75245  0.016694135   0.01600563         3862 
 1677000   0.59331718   -7.5943302    336.71684  0.016732103  0.015991949         3855 
 1678000   0.57703735   -7.5804917    336.75488   0.01672402  0.015978276         3852 
 1679000   0.58215295   -7.5721407    336.82329  0.016717455  0.015964617         3840 
 1680000   0.58536543   -7.5856248    336.73494  0.016703122  0.015950958         3874 
 1681000   0.59827019   -7.5893126    336.23729  0.016668515  0.015937327         3843 
 1682000   0.57292736   -7.5906035    336.26674  0.016660065  0.015923707         3837 
 1683000   0.57786079   -7.5815396    336.84112  0.016678606  0.015910104         3857 
 1684000   0.56906168   -7.5908679    336.06712    0.0166304  0.015896506         3875 
 1685000     0.598371   -7.5957628    337.11243  0.016672227  0.015882914         3829 
 1686000   0.57031376   -7.5952506    336.82857  0.016648308  0.015869345         3854 
 1687000   0.58741553   -7.5998758     336.8671  0.016640343   0.01585578         3849 
 1688000   0.56723501   -7.5850778    336.08153  0.016591703  0.015842251         3866 
 1689000   0.56928453   -7.5938103    335.82137  0.016569043  0.015828715         3863 
 1690000    0.5726855   -7.5795919    336.74586  0.016604825  0.015815207         3868 
 1691000   0.57864939   -7.5962594    337.00674  0.016607862  0.015801704         3847 
 1692000   0.57810502   -7.6093697    337.06491  0.016600912  0.015788223         3847 
 1693000   0.57371331   -7.5984812    336.13224  0.016545198  0.015774734         3874 
 1694000   0.57833907   -7.5731316    336.32714  0.016545019   0.01576127         3844 
 1695000   0.57621124   -7.5891774    336.86049  0.016561479  0.015747824         3863 
 1696000   0.56659278    -7.575016    336.21756  0.016520124  0.015734395         3855 
 1697000   0.57340774   -7.5938083    336.58805  0.016528582  0.015720986         3849 
 1698000   0.57555401   -7.5980196    336.43842  0.016511505  0.015707573         3868 
 1699000   0.58100668   -7.6234271    336.55325  0.016507418  0.015694183         3857 
 1700000   0.57772158   -7.5877652    336.55927  0.016498003  0.015680806         3851 
 1701000    0.5639567   -7.5941203    336.49115  0.016484967  0.015667435         3877 
 1702000   0.56122924   -7.6224106    336.09245   0.01645576   0.01565407         3885 
 1703000    0.5636796   -7.5887483    335.77863  0.016430741  0.015640718         3868 
 1704000   0.55712913   -7.6236569    336.22776  0.016443063  0.015627384         3865 
 1705000   0.58193693   -7.6022577      336.374  0.016440567   0.01561407         3847 
 1706000   0.58074918    -7.610141    335.64896  0.016395514  0.015600766         3850 
 1707000   0.57651145    -7.592334    336.28717  0.016417066  0.015587476         3860 
 1708000   0.57006085   -7.5967136    336.83167   0.01643402  0.015574183         3866 
 1709000   0.55812268   -7.6186305    337.28133   0.01644633  0.015560924         3854 
 1710000   0.57145263    -7.603565    336.30605  0.016389184  0.015547662         3866 
 1711000   0.56352577   -7.6206471    336.32116  0.016380341  0.015534424         3868 
 1712000   0.57088734   -7.6025117    336.42055  0.016375611  0.015521172         3858 
 1713000   0.56990113   -7.6024906     335.7942  0.016335581  0.015507955         3866 
 1714000   0.56358151   -7.5984514    336.39178  0.016355104  0.015494749         3859 
 1715000   0.57947806   -7.6148629    336.30436   0.01634132  0.015481557         3853 
 1716000   0.55577646    -7.598964    336.39083  0.016335996  0.015468364         3863 
 1717000   0.57979716   -7.6440098    336.52637   0.01633306  0.015455195         3869 
 1718000   0.57171898    -7.608899     336.6511  0.016329603   0.01544204         3871 
 1719000   0.57182387   -7.6166372    336.14837  0.016295733  0.015428888         3871 
 1720000   0.55880731   -7.6238569    335.92503  0.016275437  0.015415752         3868 
 1721000   0.56543296       -7.617    336.39879  0.016288921  0.015402611         3872 
 1722000   0.57572409   -7.6427039    336.59226  0.016288824  0.015389508         3886 
 1723000   0.56561529   -7.6243894    336.53353   0.01627653  0.015376407         3860 
 1724000   0.57194698   -7.6232819    336.63716  0.016272098  0.015363317         3859 
 1725000    0.5664393   -7.5926493    336.53762  0.016257856  0.015350249         3851 
 1726000   0.57495566   -7.6047334    335.75179  0.016210496  0.015337201         3862 
 1727000   0.55853232   -7.6259727    336.26304  0.016225779  0.015324151         3857 
 1728000   0.56032683    -7.623092    336.59214   0.01623226  0.015311111         3838 
 1729000    0.5605296   -7.6239869    336.14604  0.016201371   0.01529809         3855 
 1730000   0.56307547   -7.6301523    335.87862  0.016179124  0.015285072         3864 
 1731000   0.56852909   -7.6313422    336.04167  0.016177627  0.015272071         3849 
 1732000   0.56392734   -7.6218494    336.04693   0.01616854  0.015259087         3844 
 1733000   0.55877847   -7.6129121     335.7734  0.016146057  0.015246102         3854 
 1734000   0.56499244   -7.6123654    335.89072  0.016142384  0.015233131         3865 
 1735000   0.56568898   -7.6442637    336.29044  0.016152279  0.015220178         3850 
 1736000   0.55229581   -7.6242319    335.55807  0.016107818   0.01520724         3872 
 1737000   0.56434977   -7.6292742    335.63421  0.016102198  0.015194307         3869 
 1738000   0.56511508    -7.639554    336.18412    0.0161193  0.015181396         3845 
 1739000   0.55983738   -7.6366046     335.6919  0.016086443  0.015168493         3858 
 1740000   0.57676858   -7.6352124    335.86109  0.016085301  0.015155596         3852 
 1741000   0.55270514   -7.6303618    335.68292  0.016067534  0.015142715         3849 
 1742000   0.56172433   -7.6499436    335.94043  0.016070629  0.015129849         3869 
 1743000   0.56558129   -7.6509004    336.33977  0.016080502  0.015116987         3856 
 1744000   0.55305622   -7.6205824    335.51298  0.016031775  0.015104133         3858 
 1745000   0.56498235   -7.6470446    335.53249  0.016023519  0.015091304         3863 
 1746000   0.56582154   -7.6417545    335.69249  0.016021978  0.015078493         3856 
 1747000   0.55481443   -7.6347358    335.67911  0.016012169  0.015065683         3843 
 1748000   0.56038037   -7.6279477    335.81197  0.016009342  0.015052882         3850 
 1749000    0.5512134   -7.6487926    335.76334  0.015997872  0.015040098         3868 
 1750000   0.54661798   -7.6242696    336.48167  0.016022937  0.015027325         3854 
 1751000   0.55912214   -7.6234899    335.93246  0.015987648  0.015014564         3854 
 1752000   0.54671036   -7.6333412    335.81426  0.015972901  0.015001812         3864 
 1753000   0.55436192   -7.6443817    335.93924   0.01596973  0.014989086         3877 
 1754000   0.54481389   -7.6507972     335.5529   0.01594227  0.014976373         3849 
 1755000   0.54657647   -7.6361356    336.26145   0.01596683  0.014963653         3859 
 1756000   0.56420162   -7.6463573    335.69182  0.015930705  0.014950953         3862 
 1757000    0.5505258    -7.657723    335.75301   0.01592454  0.014938273         3865 
 1758000   0.54977742   -7.6491705    335.38632    0.0158981  0.014925604         3866 
 1759000   0.55459205   -7.6348809    335.62716  0.015900472   0.01491295         3853 
 1760000   0.54942583   -7.6506147    335.82333  0.015900726  0.014900299         3880 
 1761000    0.5497706   -7.6519423    335.74676  0.015888073  0.014887667         3849 
 1762000   0.55529162   -7.6443793     335.9426  0.015888318  0.014875055         3865 
 1763000   0.55919806   -7.6407812    335.10158  0.015839553  0.014862445         3876 
 1764000   0.54214737   -7.6513715     335.6347  0.015855758  0.014849841         3876 
 1765000    0.5550404   -7.6268685    335.87945  0.015858331  0.014837268         3866 
 1766000   0.55982113   -7.6446352    335.46593  0.015829838  0.014824699         3866 
 1767000   0.54971956   -7.6386049    335.41543  0.015818498  0.014812142         3851 
 1768000   0.53921771   -7.6540909    335.10153  0.015794755  0.014799597         3854 
 1769000   0.53882233   -7.6724992    335.38497  0.015799179  0.014787056         3861 
 1770000   0.54079712   -7.6744063    335.86241  0.015812731  0.014774537         3849 
 1771000    0.5420126   -7.6542799    335.62097  0.015792442  0.014762026         3877 
 1772000   0.55697829   -7.6678552    335.39682  0.015772988  0.014749523         3856 
 1773000    0.5470881   -7.6479941    335.37404  0.015763021  0.014737023         3875 
 1774000   0.54814858   -7.6471803    335.51516  0.015760765  0.014724547         3842 
 1775000   0.54406286   -7.6517608    335.15894  0.015735161  0.014712088         3858 
 1776000   0.54728818   -7.6696418    335.63412  0.015748598  0.014699632         3874 
 1777000   0.52578697   -7.6615266    335.47341  0.015732199  0.014687186         3848 
 1778000   0.54655783   -7.6584817    334.75436   0.01568965  0.014674746         3863 
 1779000   0.54082161    -7.659964    335.30799  0.015706764  0.014662328         3879 
 1780000    0.5529834    -7.650652    335.11054  0.015688696  0.014649917         3863 
 1781000   0.54224377   -7.6693972    335.60229  0.015702896  0.014637511         3876 
 1782000   0.54013602   -7.6661948    335.64164  0.015695924   0.01462512         3876 
 1783000    0.5386434   -7.6647398    335.48175  0.015679648  0.014612741         3870 
 1784000    0.5438938   -7.6798152    336.03903  0.015696891  0.014600372         3864 
 1785000   0.54987144   -7.6695788     334.8106  0.015630747  0.014588026         3865 
 1786000   0.55094493    -7.668449     334.7909  0.015621076  0.014575693         3871 
 1787000   0.53499172   -7.6566612    334.51325  0.015599387  0.014563368         3881 
 1788000   0.54348786   -7.6671004    335.32702  0.015628589  0.014551049         3875 
 1789000   0.53320413   -7.6714967    336.01191  0.015651757  0.014538745         3866 
 1790000    0.5265612   -7.6783265    335.55521  0.015621751  0.014526447         3874 
 1791000   0.53256375   -7.6584259    334.95502  0.015585102  0.014514163         3877 
 1792000   0.54763609   -7.6673464     335.7472  0.015613244  0.014501897         3875 
 1793000   0.53872089   -7.6515682    335.09205  0.015574087   0.01448964         3861 
 1794000   0.54124443   -7.6756913    334.92242  0.015557526  0.014477398         3874 
 1795000   0.52178626   -7.6684722    334.85283  0.015545628  0.014465163         3869 
 1796000   0.54237704   -7.6542204    335.48193  0.015566162  0.014452946         3853 
 1797000   0.54255887   -7.6603305    335.55502  0.015560889  0.014440744         3864 
 1798000   0.53891763   -7.6731369    335.07767  0.015530111  0.014428559         3871 
 1799000   0.55096373   -7.6618603    334.72837  0.015505298  0.014416379         3868 
 1800000   0.54671553   -7.6850547    335.27143  0.015521825  0.014404212         3865 
 1801000   0.52459938   -7.6751691    335.23212  0.015511388  0.014392049         3870 
 1802000   0.54129595   -7.6643024    334.99848  0.015491976  0.014379907         3878 
 1803000   0.53557915   -7.6820981    335.53767  0.015508304  0.014367775         3851 
 1804000    0.5242636   -7.6891766    335.46891  0.015496531  0.014355662         3874 
 1805000   0.52413852   -7.6703652    334.83794  0.015458815   0.01434355         3874 
 1806000   0.53589787   -7.6766095    335.57033   0.01548405  0.014331461         3880 
 1807000   0.52732974   -7.6895292    335.15359  0.015456262  0.014319385         3863 
 1808000   0.54108745    -7.673594    334.65857  0.015424897  0.014307324         3887 
 1809000   0.53661654   -7.6571546    335.34886  0.015448169  0.014295271         3874 
 1810000   0.52223951   -7.6779364     335.1004  0.015428195  0.014283231         3858 
 1811000   0.53193337   -7.6697467    335.13078  0.015421074  0.014271204         3862 
 1812000    0.5341588    -7.675237    335.18972  0.015415274  0.014259177         3880 
 1813000    0.5281013   -7.6782043    335.27571  0.015410724  0.014247172         3876 
 1814000   0.52606067   -7.6816259    334.62817  0.015372481   0.01423517         3876 
 1815000   0.52609471   -7.6898123    334.65599  0.015365289  0.014223189         3866 
 1816000   0.53295163   -7.6916999    334.68261  0.015358049   0.01421121         3864 
 1817000   0.53212726   -7.6860563    334.82755  0.015356244  0.014199252         3868 
 1818000   0.52675605   -7.6898839    335.40741  0.015374377  0.014187296         3859 
 1819000   0.52218699   -7.6841531    334.70353  0.015333678  0.014175362         3851 
 1820000   0.52668369   -7.6890476     335.1874  0.015347409  0.014163431         3863 
 1821000   0.53574868   -7.6719368    334.75838  0.015319347  0.014151513         3868 
 1822000   0.52732753   -7.6723024    335.03458  0.015323572  0.014139611         3864 
 1823000   0.52902102   -7.6755169    334.70767  0.015300222   0.01412772         3874 
 1824000   0.52829799   -7.6991622    334.79747  0.015295937  0.014115843         3866 
 1825000   0.52111853   -7.6815271    334.58056  0.015277651  0.014103985         3852 
 1826000   0.53178149   -7.6977367    334.84239  0.015281234   0.01409214         3886 
 1827000   0.51653323   -7.6991648    334.94815  0.015277693  0.014080297         3848 
 1828000   0.53073416   -7.7057929    335.09175  0.015275882  0.014068459         3870 
 1829000    0.5222764   -7.6898178    335.30666  0.015277322  0.014056634         3876 
 1830000   0.52561482   -7.6818086    335.01576  0.015255727  0.014044832         3852 
 1831000   0.52996624   -7.6760949    335.00746  0.015247017  0.014033047         3871 
 1832000    0.5291959   -7.7042375    335.05172  0.015240708   0.01402127         3875 
 1833000   0.51942103   -7.6983514    334.96114  0.015228275  0.014009493         3876 
 1834000   0.51994079   -7.6796568    334.63742  0.015205263  0.013997741         3886 
 1835000   0.51975306   -7.6932436    334.40635  0.015186483  0.013986001         3881 
 1836000    0.5165578   -7.6928255    334.58408  0.015186278  0.013974262         3885 
 1837000   0.51806047   -7.6723157    335.04457  0.015198901  0.013962543         3878 
 1838000   0.51066176    -7.679036    335.19373  0.015197394  0.013950835         3876 
 1839000   0.53109717   -7.6907003     334.4089  0.015153566  0.013939139         3882 
 1840000   0.52607552   -7.7008802    334.62215  0.015154989  0.013927449         3895 
 1841000   0.51176502   -7.6750729    334.77686   0.01515376  0.013915765         3871 
 1842000   0.51461708   -7.7037116    334.63665   0.01513919  0.013904091         3882 
 1843000   0.51037496   -7.6920614    334.15994   0.01510942   0.01389244         3886 
 1844000   0.51865173   -7.6970459    334.51865  0.015117437  0.013880792         3888 
 1845000   0.50297844   -7.7001561    335.28195   0.01514372  0.013869164         3888 
 1846000   0.51875389   -7.6810706    334.54584  0.015102286  0.013857541         3877 
 1847000   0.51375412   -7.7035491    334.30499  0.015083243  0.013845939         3877 
 1848000   0.51264892   -7.7073264    334.54978  0.015086119  0.013834345         3857 
 1849000   0.51984984   -7.7046111    334.62536  0.015081367  0.013822775         3879 
 1850000    0.5093768   -7.7110745    334.58156  0.015071241  0.013811213         3871 
 1851000   0.51014552   -7.6979992    334.28473  0.015049736  0.013799661         3881 
 1852000   0.52166257   -7.6990238     334.5813  0.015054954  0.013788126         3886 
 1853000   0.53060591   -7.7015919     335.1582  0.015072774  0.013776594         3877 
 1854000   0.51845665   -7.7187367     334.9103  0.015053502  0.013765084         3861 
 1855000   0.51874303   -7.7054498    334.46618  0.015025435  0.013753572         3884 
 1856000   0.51563733   -7.6965332    334.19527  0.015005176  0.013742074         3876 
 1857000   0.51208267   -7.7060287      334.186  0.014996679  0.013730588         3874 
 1858000   0.51083504   -7.7198635    334.13984  0.014986538  0.013719116         3884 
 1859000   0.50505542    -7.699115    334.48465  0.014993933  0.013707651         3879 
 1860000    0.4984109   -7.6928047    334.63292  0.014992514  0.013696198         3861 
 1861000   0.51535833   -7.7255366    334.58318  0.014982231  0.013684764         3891 
 1862000   0.50988378   -7.7077787    334.25852  0.014959655  0.013673335         3888 
 1863000     0.513112   -7.7077548    334.55102  0.014964709  0.013661913         3893 
 1864000   0.51403972   -7.7087256    334.65755  0.014961443   0.01365051         3874 
 1865000   0.50757951   -7.7039662    334.77543  0.014958688   0.01363912         3881 
 1866000   0.50336641   -7.7253948    334.83863  0.014953494  0.013627745         3884 
 1867000   0.50283204   -7.7168045    334.64338  0.014936769  0.013616376         3881 
 1868000   0.49917102   -7.7095819    334.60624  0.014927116  0.013605019         3878 
 1869000   0.49906128   -7.6996798    334.61835   0.01491967  0.013593675         3889 
 1870000   0.50084667    -7.711069     334.5458  0.014908458  0.013582346         3891 
 1871000     0.511421   -7.7149651    334.58837  0.014902386  0.013571016         3893 
 1872000   0.49674049    -7.715353    334.40906  0.014886443  0.013559715         3886 
 1873000   0.50755798   -7.7130902    334.71583  0.014892144  0.013548416         3881 
 1874000   0.51023402   -7.7232505    334.76502  0.014886385   0.01353713         3887 
 1875000    0.4985588   -7.7136939    334.59508  0.014870892  0.013525856         3888 
 1876000   0.50871693   -7.7176294     334.2484  0.014847566  0.013514592         3896 
 1877000   0.50823663   -7.7084476    334.16634  0.014836012  0.013503344         3868 
 1878000   0.51297811   -7.7221686    334.31453  0.014834688  0.013492105         3886 
 1879000   0.49493901   -7.7240419    334.36117  0.014828862  0.013480879         3885 
 1880000   0.51257313   -7.7130456    334.31581  0.014818963  0.013469658         3895 
 1881000   0.50152588   -7.7265736    334.60922  0.014824084  0.013458444         3896 
 1882000   0.50267894   -7.7283617    334.04941  0.014791419  0.013447242         3857 
 1883000    0.4909456   -7.7174203    333.97663  0.014780343  0.013436053         3886 
 1884000   0.49205966   -7.7173116    334.41779  0.014792011  0.013424877         3868 
 1885000   0.50177655   -7.7363315    333.91669  0.014762011  0.013413726         3874 
 1886000   0.50133482    -7.717312    334.38192   0.01477474  0.013402579         3869 
 1887000   0.50081593   -7.7004229    333.93642  0.014747237  0.013391439         3881 
 1888000   0.49037979   -7.7316984    334.28539  0.014754828  0.013380305         3904 
 1889000   0.50282464   -7.7281304    334.51934  0.014757338  0.013369199         3865 
 1890000   0.49347208   -7.7300466    334.30233  0.014739962   0.01335811         3886 
 1891000   0.49275944   -7.7280259    334.76607  0.014752603  0.013347022         3876 
 1892000   0.49589794   -7.7204727    334.11858  0.014716287  0.013335951         3892 
 1893000    0.4855926   -7.7203673    334.47435  0.014724175  0.013324879         3879 
 1894000   0.49859755   -7.7280059    333.84215  0.014688584  0.013313825         3870 
 1895000   0.51013779   -7.7292982    334.27994  0.014700085  0.013302789         3870 
 1896000   0.50147741   -7.7140145    334.24775  0.014690917  0.013291757         3879 
 1897000   0.50389871   -7.7316044    333.80544  0.014663743   0.01328074         3880 
 1898000   0.51278947   -7.7284467    334.39358   0.01468184  0.013269737         3876 
 1899000   0.49241348   -7.7298304    334.15542  0.014663657  0.013258738         3895 
 1900000   0.49941477   -7.7275976    334.08901  0.014653027  0.013247754         3891 
 1901000   0.49824378   -7.7383821    334.42028   0.01465984  0.013236779         3884 
 1902000   0.49376678   -7.7273983    334.03423  0.014635218  0.013225818         3885 
 1903000    0.5017315   -7.7159092    334.46306  0.014646307  0.013214872         3895 
 1904000   0.50160625    -7.731367    334.20385  0.014627269  0.013203929         3883 
 1905000   0.49855829   -7.7228676    334.46574  0.014631047  0.013193004         3874 
 1906000   0.48876176   -7.7232889    333.50335  0.014581294  0.013182077         3885 
 1907000   0.50905142   -7.7261891    334.51171  0.014617712  0.013171175         3884 
 1908000   0.48952629   -7.7341394    334.16062  0.014594716  0.013160278         3888 
 1909000    0.5011855   -7.7341926       334.03  0.014581369  0.013149384         3883 
 1910000   0.48320762   -7.7343739     334.1026  0.014576902  0.013138513         3880 
 1911000   0.49032565   -7.7386349    334.08899  0.014568681  0.013127643         3873 
 1912000   0.48105876   -7.7344883    333.93904  0.014554526  0.013116791         3900 
 1913000    0.4974919   -7.7320443    333.73904  0.014538205   0.01310595         3879 
 1914000   0.49562337    -7.736594    334.13936  0.014548039  0.013095121         3898 
 1915000   0.49218715   -7.7359652    334.14105  0.014540516  0.013084299         3877 
 1916000   0.49552156   -7.7358785    334.37951  0.014543298  0.013073492         3867 
 1917000   0.49081048   -7.7246886    334.00847  0.014519582  0.013062699         3895 
 1918000   0.49084615   -7.7402307     333.9545  0.014509667  0.013051914         3898 
 1919000   0.50193329   -7.7344446    333.67941   0.01449016  0.013041138         3878 
 1920000   0.48327135   -7.7457685     333.9322  0.014493585  0.013030369         3872 
 1921000   0.48021524   -7.7409968    333.91945  0.014485487  0.013019622         3874 
 1922000   0.48510504   -7.7402319    334.26536  0.014492948  0.013008879         3880 
 1923000   0.47739964   -7.7399577    333.72285  0.014461902  0.012998144         3886 
 1924000   0.50038117   -7.7370588    333.85484  0.014460102  0.012987426         3881 
 1925000   0.47994375   -7.7272596    334.27514  0.014470785   0.01297672         3891 
 1926000   0.47845011   -7.7404791     333.9047  0.014447244  0.012966025         3881 
 1927000   0.49000604   -7.7439314    333.84558   0.01443719  0.012955335         3882 
 1928000   0.48733305   -7.7386051     333.7615  0.014426067  0.012944661         3883 
 1929000   0.47359552   -7.7368788    333.67501  0.014414853  0.012933998         3881 
 1930000   0.48734388   -7.7539903    333.57153  0.014402916  0.012923339         3886 
 1931000   0.48431398   -7.7499575    333.77499  0.014404238  0.012912692         3888 
 1932000   0.48567137   -7.7374659    333.98905  0.014406015  0.012902065         3880 
 1933000   0.47041239     -7.74187    333.61345   0.01438237  0.012891443         3878 
 1934000   0.48202611   -7.7277162    333.82326  0.014383974  0.012880836         3875 
 1935000   0.48032885   -7.7465583    333.79974  0.014375527  0.012870232         3883 
 1936000   0.48382314    -7.742792      334.043  0.014378573  0.012859647         3900 
 1937000   0.47439136   -7.7630071    333.86825  0.014363631  0.012849071         3886 
 1938000   0.48300191   -7.7315727    334.06583  0.014364716  0.012838506         3875 
 1939000   0.47305032   -7.7405528     333.6606  0.014339892  0.012827954         3877 
 1940000   0.48202585   -7.7301108    334.05639  0.014349501  0.012817412         3877 
 1941000   0.47925023   -7.7602815    334.15567  0.014346371  0.012806876         3884 
 1942000   0.47346213   -7.7476693    333.64224  0.014316952  0.012796351         3871 
 1943000   0.46425422    -7.745857    333.58202     0.014307  0.012785837         3877 
 1944000   0.48044142   -7.7407688    334.21631  0.014326831  0.012775342         3882 
 1945000   0.47272999   -7.7574294    333.02735  0.014268524  0.012764852         3890 
 1946000   0.48319164   -7.7547183    334.14023  0.014308848  0.012754371         3874 
 1947000   0.46989891    -7.752636    333.69807  0.014282574  0.012743907         3890 
 1948000   0.48065909   -7.7547331        333.6  0.014271047   0.01273345         3893 
 1949000   0.47282938   -7.7518651    333.19509  0.014246412  0.012723009         3892 
 1950000   0.48393172    -7.755253    334.00103  0.014273548  0.012712575         3874 
 1951000   0.47575013   -7.7527907    334.14686  0.014272461  0.012702146         3885 
 1952000   0.47366889   -7.7418942    333.37515  0.014232204  0.012691733         3882 
 1953000   0.48385596   -7.7658038    333.45016  0.014228117  0.012681327         3890 
 1954000   0.47714754   -7.7633952    333.84115  0.014237511  0.012670937         3878 
 1955000   0.47551847   -7.7538113    332.95502  0.014192456  0.012660554         3896 
 1956000   0.46592397   -7.7689472    333.94512  0.014227382  0.012650177         3877 
 1957000   0.48088288   -7.7588342    333.85734  0.014216375   0.01263981         3868 
 1958000   0.46861646   -7.7553537    333.28577  0.014184788  0.012629459         3880 
 1959000   0.47611173   -7.7519975     333.4516  0.014184601  0.012619119         3877 
 1960000   0.47726942   -7.7527622    333.29906  0.014170878  0.012608793         3883 
 1961000   0.47272314   -7.7598293     333.4434  0.014169786  0.012598469         3874 
 1962000   0.46979895   -7.7533118    333.69676  0.014173325   0.01258816         3876 
 1963000   0.46983418    -7.771481    333.69278  0.014165936  0.012577861         3867 
 1964000   0.47255808   -7.7739276    333.43131  0.014147629  0.012567575         3886 
 1965000   0.47491304   -7.7593944    333.07147  0.014125168  0.012557298         3871 
 1966000   0.46991901   -7.7603911     333.4236  0.014132909  0.012547036         3891 
 1967000     0.470114   -7.7659633    333.47548  0.014127922  0.012536782         3889 
 1968000   0.46526822   -7.7655158    333.70898  0.014130631  0.012526541         3875 
 1969000    0.4710262   -7.7552003    333.83595  0.014128828  0.012516305         3885 
 1970000   0.47658398   -7.7655331    333.52076  0.014108323  0.012506087         3877 
 1971000   0.45784602     -7.75949    332.84602  0.014072638  0.012495875         3898 
 1972000   0.46478676   -7.7787701    333.61672   0.01409807  0.012485675         3887 
 1973000   0.45783442   -7.7624256    332.97983  0.014064024  0.012475482         3884 
 1974000   0.46159748   -7.7667079    333.63856  0.014084708  0.012465296         3886 
 1975000    0.4695542   -7.7595664     333.3521   0.01406549   0.01245512         3879 
 1976000   0.45816222   -7.7683489    333.53337  0.014066016  0.012444966         3890 
 1977000   0.46249693   -7.7835764    333.53549   0.01405899  0.012434814         3890 
 1978000   0.47351941   -7.7688542    333.40788  0.014046507  0.012424676         3893 
 1979000   0.45435422   -7.7600931    333.27113   0.01403365  0.012414548         3890 
 1980000   0.45848036   -7.7792201     333.7066  0.014044891  0.012404426         3899 
 1981000   0.46431658   -7.7599612    333.13149  0.014013608  0.012394318         3901 
 1982000   0.46739868   -7.7789141    333.03211  0.014002359  0.012384227         3889 
 1983000   0.46480554   -7.7703725    333.29205  0.014006222  0.012374144         3887 
 1984000   0.46454318    -7.764086    333.32661  0.014000613  0.012364067         3872 
 1985000   0.45762507   -7.7745659     333.5664  0.014003627  0.012353999         3880 
 1986000   0.46502486   -7.7892229     333.3118  0.013985893  0.012343943         3881 
 1987000   0.47357112   -7.7739068    333.90544  0.014003751  0.012333902         3898 
 1988000    0.4688764   -7.7622721    333.39737   0.01397541  0.012323868         3909 
 1989000   0.45716058    -7.767983    333.07395  0.013954833  0.012313845         3872 
 1990000   0.46030846    -7.788478     333.6634  0.013972504  0.012303835         3886 
 1991000    0.4590688   -7.7688149    333.40416  0.013954636  0.012293842         3869 
 1992000   0.45006308   -7.7613923    333.10061  0.013934932  0.012283857         3882 
 1993000   0.45504481   -7.7489609    333.11055  0.013928356  0.012273879         3877 
 1994000   0.45004036   -7.7726239    333.33322  0.013930676  0.012263916         3884 
 1995000   0.46202051   -7.7715603    333.41753  0.013927215  0.012253955         3877 
 1996000   0.45167961   -7.7602306    332.98899  0.013902346  0.012244007         3878 
 1997000   0.45662625   -7.7757558    332.88388  0.013890998  0.012234067         3890 
 1998000   0.46021027   -7.7811183    333.07756  0.013892124  0.012224141         3883 
 1999000   0.45655221   -7.7689724    333.19111  0.013889908  0.012214227         3888 
 2000000   0.45332889   -7.7573111    332.99543   0.01387481  0.012204322         3874 
 2001000   0.45693566   -7.7925381    333.15166  0.013874382   0.01219442         3893 
 2002000   0.45116869   -7.7930351    333.26039  0.013871978  0.012184533         3879 
 2003000   0.44412864   -7.7766734    333.44479  0.013872724  0.012174655         3887 
 2004000   0.45125105   -7.7678172    333.06447  0.013849986   0.01216479         3883 
 2005000   0.46528058   -7.7854578    333.29509  0.013852664  0.012154926         3903 
 2006000   0.44411902   -7.7752787     333.6643  0.013861096  0.012145083         3883 
 2007000    0.4526647   -7.7903514    333.02107  0.013827482  0.012135239         3888 
 2008000    0.4604421   -7.7655482    333.43805  0.013837901  0.012125413         3885 
 2009000   0.46030756   -7.7885539    333.36763  0.013828092  0.012115596         3892 
 2010000   0.44584146   -7.7781759    332.93888  0.013803436   0.01210579         3891 
 2011000   0.45540375    -7.800298    332.97184  0.013797938  0.012095993         3889 
 2012000   0.44191471   -7.7753204    333.00922  0.013792629  0.012086207         3882 
Loop time of 4274.27 on 48 procs for 2000000 steps with 4000 atoms

Performance: 80855.993 tau/day, 467.917 timesteps/s
99.4% CPU use with 48 MPI tasks x no OpenMP threads

MPI task timing breakdown:
Section |  min time  |  avg time  |  max time  |%varavg| %total
---------------------------------------------------------------
Pair    | 268.99     | 290.83     | 305.55     |  57.3 |  6.80
Neigh   | 26.477     | 27.031     | 27.463     |   3.3 |  0.63
Comm    | 232.55     | 247.12     | 266.38     |  58.0 |  5.78
Output  | 4.4185     | 4.4202     | 4.4545     |   0.2 |  0.10
Modify  | 3635.8     | 3656.9     | 3673.8     |  17.4 | 85.56
Other   |            | 47.97      |            |       |  1.12

Nlocal:        83.3333 ave          89 max          78 min
Histogram: 4 4 2 8 7 7 5 6 3 2
Nghost:        1760.73 ave        1772 max        1743 min
Histogram: 1 1 0 6 6 8 7 8 9 2
Neighs:        10563.7 ave       11276 max        9647 min
Histogram: 1 2 2 7 7 8 7 6 6 2
FullNghs:      21127.9 ave       22420 max       19471 min
Histogram: 1 3 4 2 11 4 9 5 6 3

Total # of neighbors = 1014138
Ave neighs/atom = 253.53450
Neighbor list builds = 108016
Dangerous builds = 0

#clear
#
#next RN
#
#jump SELF
Total wall time: 1:11:17
