
units lj                  # Use reduced LJ style units
atom_style atomic         # Uncharged point particles
atom_modify map hash      # Needed for indexing of clusters etc
                          # Used to be able to find where atoms are in relation to each other.

lattice fcc 1.0 spacing 1 1 1
Lattice spacing in x,y,z = 1.5874011 1.5874011 1.5874011
region box block 0 10 0 10 0 10 units lattice
create_box 2 box
Created orthogonal box = (0.0000000 0.0000000 0.0000000) to (15.874011 15.874011 15.874011)
  3 by 4 by 4 MPI processor grid
create_atoms 1 box
Created 4000 atoms
  using lattice units in orthogonal box = (0.0000000 0.0000000 0.0000000) to (15.874011 15.874011 15.874011)
  create_atoms CPU = 0.003 seconds
set type 1 type/fraction 2 0.7 78393
Setting atom values ...
  2825 settings made for type/fraction
mass 1 1.0
mass 2 1.0
pair_style lj/cut  3.5
pair_modify tail  yes
pair_coeff 1  1  1.0  1.0   # Intearaction between 1 and 1 set with epsilon = 1 and sigma = 1
pair_coeff 1  2  1.5  0.8
pair_coeff 2  2  0.5  0.88

write_data data.0
System init for write_data ...
Neighbor list info ...
  update every 1 steps, delay 10 steps, check yes
  max neighbors/atom: 2000, page size: 100000
  master list distance cutoff = 3.8
  ghost atom cutoff = 3.8
  binsize = 1.9, bins = 9 9 9
  1 neighbor lists, perpetual/occasional/extra = 1 0 0
  (1) pair lj/cut, perpetual
      attributes: half, newton on
      pair build: half/bin/atomonly/newton
      stencil: half/bin/3d
      bin: standard
WARNING: Not all mixed pair coeffs generated from mixing. Use write_data with 'pair ij' option to store all pair coeffs. (../write_data.cpp:312)


#############################
#   M E L T   S Y S T E M   #
#############################

velocity all create 2.4 6229865 mom yes dist gaussian # Assign velocities
                                                    # Temperature 2.4, random number seed, zero linear momentum
                                                                                # Gaussian distribution

timestep 0.002   # simulation timestep
thermo 1000       # output thermodynamic data every 1000 steps bf 100

# Define a fix  in this case with index 1 applied to all
# particles in the simulation. This fix is for simulations
# in the anisotropic NPT ensemble. Note that we use the MTK
# correction.
fix 1 all npt temp 2.4 2.4 0.1 iso 5.68 5.68 0.5 mtk yes tchain 5 pchain 5 # Use NPT ensemble
                                                                         # Set temperature and pressure and damping
                                                                         # Numbers of thermostats in chain and in barostat
run 10000          # run for 10000 steps
Per MPI rank memory allocation (min/avg/max) = 3.642 | 3.644 | 3.648 Mbytes
Step Temp E_pair E_mol TotEng Press Volume 
       0          2.4   -4.1690742            0  -0.56997417    -3.744831         4000 
    1000    2.3901196   -3.7575896            0  -0.17330644    5.5350437    3691.7853 
    2000    2.4111728   -3.8270832            0  -0.21122809    5.7261196    3627.8073 
    3000    2.3972329   -3.8394335            0  -0.24448313    5.4353564    3638.4502 
    4000    2.3776472   -3.7158521            0  -0.15027292    5.6709781    3687.1849 
    5000     2.391527   -3.8136069            0  -0.22721331    5.6152019    3641.2951 
    6000    2.3872183   -3.7905214            0  -0.21058919    5.7263829    3656.9826 
    7000    2.4670901   -3.7557709            0 -0.056060915    5.7412108    3674.2014 
    8000    2.4108455     -3.77344            0  -0.15807575    5.9278611    3644.8561 
    9000     2.377716    -3.796715            0  -0.23103259     5.762749    3652.1618 
   10000    2.3635451   -3.7519052            0  -0.20747388     6.020442    3644.0154 
Loop time of 2.64529 on 48 procs for 10000 steps with 4000 atoms

Performance: 653236.658 tau/day, 3780.305 timesteps/s
99.6% CPU use with 48 MPI tasks x no OpenMP threads

MPI task timing breakdown:
Section |  min time  |  avg time  |  max time  |%varavg| %total
---------------------------------------------------------------
Pair    | 1.1888     | 1.2569     | 1.3627     |   3.3 | 47.51
Neigh   | 0.21713    | 0.22484    | 0.23766    |   0.9 |  8.50
Comm    | 0.79429    | 0.89368    | 0.97182    |   3.9 | 33.78
Output  | 0.00025005 | 0.00025558 | 0.00032385 |   0.0 |  0.01
Modify  | 0.21391    | 0.25424    | 0.30392    |   5.1 |  9.61
Other   |            | 0.01542    |            |       |  0.58

Nlocal:        83.3333 ave          93 max          74 min
Histogram: 1 6 3 12 4 5 7 4 3 3
Nghost:        1743.42 ave        1774 max        1714 min
Histogram: 2 2 6 7 6 9 5 6 4 1
Neighs:        10484.1 ave       12114 max        9233 min
Histogram: 4 5 6 10 5 5 5 2 5 1

Total # of neighbors = 503239
Ave neighs/atom = 125.80975
Neighbor list builds = 910
Dangerous builds = 213

# Equilibrate just above the melting temperature to avoid step fn in T

fix 1 all npt temp 1.25 1.25 0.1 iso 5.68 5.68 0.5 mtk yes tchain 5 pchain 5
run 2000
Per MPI rank memory allocation (min/avg/max) = 3.644 | 3.646 | 3.649 Mbytes
Step Temp E_pair E_mol TotEng Press Volume 
   10000    2.3635451   -3.7519052            0  -0.20747388     6.020442    3644.0154 
   11000    1.2630801   -5.5949929            0   -3.7008464    5.7049457    2785.6058 
   12000    1.2389707   -5.5903121            0   -3.7323207    5.4352931    2799.5344 
Loop time of 0.650709 on 48 procs for 2000 steps with 4000 atoms

Performance: 531112.766 tau/day, 3073.569 timesteps/s
99.7% CPU use with 48 MPI tasks x no OpenMP threads

MPI task timing breakdown:
Section |  min time  |  avg time  |  max time  |%varavg| %total
---------------------------------------------------------------
Pair    | 0.29914    | 0.32227    | 0.3407     |   1.8 | 49.53
Neigh   | 0.042305   | 0.044699   | 0.046514   |   0.5 |  6.87
Comm    | 0.21398    | 0.23435    | 0.26198    |   2.4 | 36.01
Output  | 5.1118e-05 | 5.3392e-05 | 6.9388e-05 |   0.0 |  0.01
Modify  | 0.040963   | 0.044505   | 0.047399   |   1.0 |  6.84
Other   |            | 0.004833   |            |       |  0.74

Nlocal:        83.3333 ave          92 max          73 min
Histogram: 1 3 1 5 8 10 9 9 1 1
Nghost:        2087.50 ave        2111 max        2073 min
Histogram: 6 8 5 11 4 2 7 1 2 2
Neighs:        13634.4 ave       14903 max       12306 min
Histogram: 5 2 6 3 3 11 6 4 2 6

Total # of neighbors = 654451
Ave neighs/atom = 163.61275
Neighbor list builds = 146
Dangerous builds = 11

#############################
# L I N E A R  Q U E N C H  #
#############################

# Define solid atoms. This closely follows ten Wolde  Ruiz-Montero and Frenkel  Faraday Discuss  1996  104  93-110
# Compute components of the per-atom q6 vector
compute q6 all orientorder/atom degrees 1 6 components 6 nnn NULL cutoff 1.3 # compute the Q6 parameter.
                                                                             # Use all neighbours within 1.3 unit cell.

# get number of connections
compute coord_number all coord/atom orientorder q6 0.5

# An atom is solid if it has 8 or more connections (of a possible 14)
variable is_solid atom c_coord_number>=8
group solid dynamic all var is_solid    # Must be dynamic to update
dynamic group solid defined

# do clustering
compute cluster solid cluster/atom 1.3 # Create a cluster where all atoms within are solid and max 1.3 units from another member

# define chunks one chunk per cluster
compute clus_chunks solid chunk/atom c_cluster nchunk every compress yes  # Says which atoms are in which chunk

# count the size of each chunk
compute size_chunks solid property/chunk clus_chunks count


# Find the maximum entry in the vector of chunk sizes
variable max_n equal max(c_size_chunks)


# Thermo style which includes this variable
# thermo_style custom step temp pe vol v_max_n

thermo ${N}  # Print the thermo information every 100 steps
thermo 1000  

# Reset the npt fix at a lower temperature (below freezing)
fix 1  all npt temp  ${temp} ${temp}  0.1  iso  5.68  5.68  0.5  mtk yes tchain  5  pchain  5
fix 1  all npt temp  0.45 ${temp}  0.1  iso  5.68  5.68  0.5  mtk yes tchain  5  pchain  5
fix 1  all npt temp  0.45 0.45  0.1  iso  5.68  5.68  0.5  mtk yes tchain  5  pchain  5

dump dmp2 all dcd ${N} traj.dcd
dump dmp2 all dcd 1000 traj.dcd


compute msd all msd com yes
variable twopoint equal c_msd[4]/6/(step*dt+1.0e-6)
fix 9 all vector 10 c_msd[4]
variable fit equal slope(f_9)/6/(10*dt)
thermo_style custom step temp pe c_msd[4] v_twopoint v_fit v_max_n

fix 1 all npt temp 1.25 ${temp} 0.1 iso 5.68 5.68 0.5 mtk yes tchain 5 pchain 5
fix 1 all npt temp 1.25 0.45 0.1 iso 5.68 5.68 0.5 mtk yes tchain 5 pchain 5
run 2000000 # 5000000  # Run for this many steps
Neighbor list info ...
  update every 1 steps, delay 10 steps, check yes
  max neighbors/atom: 2000, page size: 100000
  master list distance cutoff = 3.8
  ghost atom cutoff = 3.8
  binsize = 1.9, bins = 8 8 8
  4 neighbor lists, perpetual/occasional/extra = 1 3 0
  (1) pair lj/cut, perpetual
      attributes: half, newton on
      pair build: half/bin/atomonly/newton
      stencil: half/bin/3d
      bin: standard
  (2) compute orientorder/atom, occasional
      attributes: full, newton on
      pair build: full/bin/atomonly
      stencil: full/bin/3d
      bin: standard
  (3) compute coord/atom, occasional
      attributes: full, newton on
      pair build: full/bin/atomonly
      stencil: full/bin/3d
      bin: standard
  (4) compute cluster/atom, occasional
      attributes: full, newton on
      pair build: full/bin/atomonly
      stencil: full/bin/3d
      bin: standard
Per MPI rank memory allocation (min/avg/max) = 9.841 | 9.849 | 9.852 Mbytes
Step Temp PotEng c_msd[4] v_twopoint v_fit v_max_n 
   12000    1.2389707   -5.5903121            0            0 8.3333333e+20            2 
   13000    1.2658835   -5.6179126   0.62601761 0.0040129332  0.052416162            2 
   14000    1.2325754   -5.6241297    1.2597636 0.0074985927  0.051875834            2 
   15000    1.2647606   -5.5906016    1.8526118  0.010292288  0.051356428            2 
   16000     1.238451   -5.6034451    2.4899363  0.012968418  0.051479337            3 
   17000    1.2491457   -5.6527987    3.0481965  0.014942139  0.051087883            2 
   18000    1.2370804   -5.6256403    3.6374017  0.016839822  0.050542527            3 
   19000    1.2272841   -5.6693753    4.1694489  0.018287056  0.049858526            5 
   20000    1.2668446   -5.6242731    4.7773925  0.019905801  0.049454418            1 
   21000    1.2373375   -5.6254274     5.456298  0.021651976  0.049573616            2 
   22000    1.2534677   -5.6475159    6.0656091  0.022975791  0.049806525            3 
   23000    1.2484993   -5.6384869    6.7707953  0.024531866  0.050174048            4 
   24000    1.2272151   -5.6500927    7.2879455  0.025305366  0.050440928            3 
   25000    1.2293626   -5.6323347    7.9160307  0.026386768  0.050439837            2 
   26000    1.2303464    -5.641692    8.5010191  0.027246856  0.050438838            2 
   27000    1.2235945   -5.6689762    9.1376027  0.028202477  0.050487394            3 
   28000    1.2238013   -5.6505101      9.79765  0.029159672  0.050571142            2 
   29000    1.2437219   -5.6037808    10.491354  0.030147569  0.050793074            2 
   30000    1.2346816   -5.6709321    11.064478  0.030734662   0.05094686            5 
   31000    1.2400579   -5.6756989    11.510702  0.030942746  0.050972042            3 
   32000    1.2507314    -5.600278    12.051509  0.031384138  0.050829652            1 
   33000    1.2526836    -5.642177    12.513429  0.031599567  0.050629221            4 
   34000    1.2489486   -5.6387783    13.069851  0.032033948  0.050383394            3 
   35000    1.2441991   -5.6399835     13.71756  0.032660858  0.050212842            3 
   36000    1.2406997   -5.6634591    14.304568  0.033112426  0.050054428            1 
   37000     1.228546   -5.6492993    15.015422  0.033818517  0.049978251            1 
   38000    1.2831319   -5.6236295    15.770841  0.034585177  0.050012983            4 
   39000     1.229428    -5.632898    16.454636  0.035159479  0.050106567            2 
   40000    1.2145087   -5.6297894    17.077299  0.035577706  0.050206159            2 
   41000    1.2437177   -5.6262314    17.552754  0.035676329  0.050276655            2 
   42000    1.2558485   -5.6481705    18.121569  0.035955494  0.050281761            3 
   43000    1.2423659   -5.6527721    18.875862  0.036581128  0.050311545            2 
   44000    1.2350795   -5.6806195    19.488574  0.036910177  0.050351306            2 
   45000    1.2192597   -5.6384536    20.093852  0.037210837  0.050412454            2 
   46000    1.2557967   -5.6422532    20.798273  0.037678031  0.050476583            1 
   47000    1.2278589   -5.6302298    21.387323  0.037920785  0.050567646            4 
   48000    1.2141343   -5.6606471    21.794283  0.037837296  0.050587806            4 
   49000    1.2337252   -5.6889343    22.310877  0.037943668  0.050586989            2 
   50000    1.2350723   -5.6919647    23.033636  0.038389393  0.050582948            1 
   51000    1.2385159   -5.6537539    23.687129  0.038704459  0.050569573            2 
   52000    1.2437199   -5.6436388    24.270879  0.038895639  0.050575084            2 
   53000    1.2462274    -5.661429    24.978239  0.039273961  0.050561566            3 
   54000    1.2379136   -5.7055412     25.46474  0.039297439  0.050567057            1 
   55000    1.2417433   -5.6412712    26.067902  0.039496821  0.050559137            2 
   56000    1.2244609   -5.6578746    26.609294  0.039597163  0.050549386            3 
   57000    1.2265011   -5.6537023    27.190229  0.039751796  0.050520155            2 
   58000    1.2042715   -5.6792304    27.662355  0.039744762  0.050483119            2 
   59000    1.2111487   -5.7115683    28.224706  0.039865404  0.050435799            2 
   60000    1.2342058   -5.6542809    28.967772  0.040233016  0.050402475            6 
   61000    1.2264501   -5.6916559    29.633688   0.04048318   0.05039955            2 
   62000    1.2494667   -5.6740551    30.248136  0.040656097  0.050400044            2 
   63000    1.2237848   -5.6959634    30.840994  0.040794965  0.050404721            3 
   64000    1.2024216   -5.6798394    31.396924  0.040881411  0.050397446            2 
   65000      1.25339   -5.6606678    31.949481  0.040960872  0.050366312            4 
   66000     1.221395   -5.6866772    32.412381  0.040924723   0.05033698            2 
   67000    1.2337212   -5.6791917    33.260026  0.041368191  0.050314628            4 
   68000    1.2244502   -5.6754066    33.730133  0.041335947  0.050305559            2 
   69000    1.2227834   -5.6771717    34.366851  0.041505858  0.050288322            2 
   70000    1.2112069   -5.6690728    34.861647   0.04150196  0.050264788            2 
   71000    1.2045309   -5.7068296    35.377021  0.041522325  0.050229741            1 
   72000    1.2224344   -5.6704137    35.915399  0.041568749  0.050186887            1 
   73000    1.2265532   -5.6389642    36.620605  0.041804343  0.050144018            2 
   74000    1.2177826   -5.6751941    37.129556  0.041812563  0.050109283            2 
   75000    1.2291293   -5.6878804    37.483574  0.041648415  0.050065048            5 
   76000    1.2159772    -5.668155     38.07561  0.041749572  0.050015932            2 
   77000    1.2123028   -5.6668741    38.668797  0.041849348   0.04995401            7 
   78000    1.2250616   -5.6785357    39.392777    0.0420863  0.049910439            2 
   79000    1.2253931    -5.682462    39.859814  0.042046217  0.049874327            4 
   80000    1.2420344   -5.6770813    40.420278  0.042104456  0.049826676            2 
   81000    1.2207265   -5.6817901    41.139019  0.042324093  0.049789858            2 
   82000    1.1816622   -5.6887834    41.558408  0.042234154  0.049745454            2 
   83000    1.2191824   -5.6786382    42.223231  0.042392802  0.049711431            2 
   84000    1.2171063   -5.6954656    42.877428  0.042537131  0.049686517            1 
   85000    1.2212152   -5.7311852    43.365665  0.042515357  0.049657067            4 
   86000    1.2097642   -5.6558773    43.988995  0.042624995  0.049622761            4 
   87000    1.2450995   -5.7235453    44.163202  0.042301917  0.049583548            3 
   88000    1.2044886   -5.6615029     45.12807  0.042734915  0.049542624            1 
   89000    1.2301736   -5.6707006    46.067957  0.043134791  0.049524088            2 
   90000    1.2201095   -5.7016661    46.322209  0.042890934   0.04949777            3 
   91000    1.1961148   -5.7138205    46.802115  0.042859079  0.049474333            4 
   92000    1.2155511   -5.6524902    47.455396   0.04298496  0.049446151            1 
   93000    1.2393129   -5.7170995    47.616691  0.042667285  0.049409792            3 
   94000    1.2273086   -5.7026154    47.760454  0.042340828   0.04934717            5 
   95000    1.2489705   -5.7159516     48.38904  0.042446526  0.049268503            1 
   96000    1.1981031   -5.7194958    48.980051  0.042517405  0.049190606            1 
   97000     1.215648   -5.7216099    49.229074  0.042293018  0.049114836            2 
   98000    1.2054293   -5.7358607    49.739195  0.042295233  0.049040544            2 
   99000    1.1975039   -5.6952441    50.193432  0.042250363  0.048960044            1 
  100000    1.1966496   -5.7552045    50.737475  0.042281229  0.048877753            4 
  101000    1.2229711   -5.6763682    51.539243  0.042524128   0.04879868            2 
  102000    1.2123993   -5.7253456    51.948215  0.042441352  0.048730664            2 
  103000    1.2017561   -5.6625635    52.587009  0.042546123  0.048661191            3 
  104000    1.2009788   -5.7118066    53.098508  0.042546881  0.048592022            3 
  105000     1.225728   -5.7190043    53.664408    0.0425908  0.048526716            3 
  106000    1.2053651   -5.7186676     54.35437  0.042731423  0.048469496            2 
  107000    1.2178649   -5.7405089    54.954476  0.042799436  0.048417038            4 
  108000    1.2011798   -5.7154629     55.54612   0.04285966  0.048369716            2 
  109000    1.2075334   -5.6859056    56.112399  0.042899387  0.048322506            4 
  110000    1.2165699   -5.6685238    56.910308   0.04311387   0.04828648            5 
  111000    1.1964732   -5.6808591    57.448663  0.043129626  0.048253076            2 
  112000    1.1930628   -5.7089513    57.992483  0.043149168   0.04822534            2 
  113000    1.2078677   -5.7020111    58.568074  0.043191795  0.048203597            2 
  114000    1.1962009   -5.7099215    59.451871   0.04345897  0.048186957            2 
  115000    1.1954012   -5.7255818    59.901973  0.043407227  0.048172228            3 
  116000     1.223061   -5.7363292    60.386567  0.043381154  0.048156746            2 
  117000    1.1994939   -5.7070529    61.150796  0.043554698  0.048140291            2 
  118000     1.231203   -5.7525243    61.538633  0.043459486  0.048117193            1 
  119000    1.1980254   -5.7135282    62.004692  0.043420653  0.048093042            2 
  120000    1.2042324   -5.7122542    62.567578  0.043449707  0.048067245            2 
  121000    1.1859646   -5.7422525    63.311155  0.043602724  0.048053732            8 
  122000    1.2394781   -5.7458018    63.703446  0.043513283  0.048034692            1 
  123000    1.1965692   -5.7084239    64.311743  0.043571641  0.048018632            4 
  124000    1.2183463   -5.7205993    64.718104  0.043493349  0.048002747            2 
  125000    1.1737461   -5.7412551    65.410101  0.043606734  0.047986349            4 
  126000    1.1836807   -5.7301873    65.935341   0.04360803  0.047971256            3 
  127000    1.1934804   -5.7231294    66.608276  0.043706218  0.047963123            3 
  128000    1.2068617   -5.6834939    67.109083  0.043690809  0.047948065            5 
  129000    1.1897907   -5.7160668    67.434186  0.043562136  0.047924289            4 
  130000    1.2211768   -5.7160712    67.902735  0.043527394  0.047899389            2 
  131000    1.2256387   -5.6798965      68.6194  0.043651018  0.047876273            2 
  132000    1.2236339   -5.6696067    69.352894  0.043783392  0.047856379            4 
  133000     1.213295   -5.7268558    69.838681  0.043758572  0.047839109            3 
  134000    1.1876014   -5.7401574      70.2615  0.043694962  0.047819013            3 
  135000    1.2135744   -5.7056824       70.707  0.043646296  0.047795562            2 
  136000    1.2082087   -5.7503016    71.020172  0.043517262  0.047761036            2 
  137000     1.195441   -5.7413604    71.285949  0.043361283  0.047723033            2 
  138000    1.2031921   -5.7512431    71.539268  0.043200041  0.047685013            2 
  139000    1.2135141   -5.7437385    72.404344   0.04340788  0.047644584            2 
  140000    1.2079194   -5.7490591    72.965501  0.043431846  0.047606877            2 
  141000    1.1993704   -5.7229373    73.720696  0.043570151  0.047578671            2 
  142000    1.1848442    -5.700864    74.593121  0.043775305  0.047551824            1 
  143000    1.2110594   -5.7371079    74.534418  0.043434975  0.047525793            5 
  144000    1.1776734   -5.6837286    75.665886  0.043788128  0.047495584            3 
  145000    1.1799857   -5.7199134    75.967114  0.043659261  0.047472125            2 
  146000    1.2080498   -5.7797437    76.422359  0.043620068  0.047447973            3 
  147000    1.1894833   -5.7609227    76.914444  0.043602292  0.047420997            2 
  148000    1.1794973   -5.7542404    77.968345  0.043901095  0.047397911            2 
  149000    1.1804741   -5.7310169    78.744554  0.044040578   0.04738239            1 
  150000    1.1967162    -5.730926    79.061975  0.043923319  0.047368508            2 
  151000    1.2044547   -5.7787407    79.286872  0.043756552  0.047349234            2 
  152000    1.1868277    -5.731226    79.891399  0.043800109  0.047330818            4 
  153000    1.2040924   -5.7782924    80.156652  0.043658307  0.047309637            3 
  154000    1.1924542   -5.7708118    80.947088  0.043802537  0.047287969            2 
  155000    1.2014381   -5.7219756    81.461279  0.043796386  0.047269383            3 
  156000    1.2091575   -5.7105074    81.841437  0.043718716  0.047251174            1 
  157000    1.1970839   -5.7354955    82.466392   0.04377197  0.047232023            2 
  158000    1.1831437   -5.7486632     82.92672  0.043737721  0.047212876            2 
  159000     1.213846   -5.7576951    83.163431  0.043586704  0.047187016            4 
  160000    1.2461561   -5.7395557    83.632107  0.043558389  0.047156028            4 
  161000    1.1772717   -5.7588479    84.027589  0.043492541  0.047122309            2 
  162000    1.1983235   -5.7573682    84.125162   0.04327426  0.047084678            2 
  163000    1.2008545   -5.7184831    85.563158  0.043743945  0.047050556            1 
  164000    1.1775806   -5.7693602    85.694194  0.043543798  0.047022064            2 
  165000    1.1944302   -5.7952356    85.982094    0.0434253  0.046993196            6 
  166000    1.1913406   -5.7693895    86.729961  0.043539137  0.046962367            3 
  167000    1.2193655   -5.7624619     87.33518  0.043580429  0.046933118            2 
  168000    1.1930291   -5.7399295    87.625798  0.043465177  0.046898594            5 
  169000    1.2171395   -5.7169489    88.527871  0.043652796  0.046869595            1 
  170000    1.1628889   -5.7987239    88.332582  0.043300285  0.046844512            4 
  171000    1.1839653   -5.7937563     89.13591  0.043438552  0.046815007            4 
  172000    1.1812584   -5.7692507    89.611104  0.043416232  0.046782548            2 
  173000    1.1859342   -5.7720376     90.20545  0.043451565  0.046751536            1 
  174000    1.1945276   -5.7822447    90.752504  0.043463843  0.046719635            4 
  175000    1.1964982   -5.7800229    91.585768   0.04361227  0.046692646            3 
  176000    1.1826637   -5.7407611    92.408899  0.043754213  0.046668734            2 
  177000    1.1949079   -5.7668571    92.661618  0.043625997  0.046643037            4 
  178000    1.1996173   -5.7576223    93.155892  0.043612309  0.046620169            1 
  179000    1.1925741   -5.7668155    93.668455  0.043607288  0.046599602            2 
  180000    1.1838503   -5.7825895    94.317961  0.043665723  0.046577743            2 
  181000    1.2032226   -5.7845076     94.44328  0.043482173  0.046552728            2 
  182000    1.1901165   -5.7191274    95.475874  0.043716059  0.046529895            4 
  183000    1.1957594   -5.7637573    95.989125  0.043710895   0.04650648            2 
  184000    1.1766086    -5.748011    96.600306  0.043750138  0.046484213            2 
  185000    1.1774295   -5.7713616    97.309299  0.043833017   0.04646378            3 
  186000    1.1719386   -5.8219129    97.098325  0.043502834  0.046444518            2 
  187000    1.1737933   -5.7424661    98.053791  0.043695985    0.0464281            2 
  188000    1.1744615   -5.7905336    98.380008  0.043608159  0.046409107            3 
  189000    1.1798999   -5.7639871    99.811683  0.044008679  0.046392088            5 
  190000    1.1665324    -5.776604    100.15924   0.04392949  0.046377851            2 
  191000    1.1890303   -5.7673307    100.10007  0.043673679  0.046359615            5 
  192000    1.1884916   -5.7401305    100.99056  0.043832709  0.046339997            2 
  193000    1.1789061   -5.7772644     101.1571  0.043677506  0.046320064            5 
  194000    1.1803218   -5.7639903    101.84051  0.043745924  0.046300501            2 
  195000    1.1802732   -5.7860902    102.01269  0.043595169   0.04627995            1 
  196000    1.1592827   -5.7804264    102.57872  0.043613401  0.046257599            3 
  197000    1.1743906   -5.8057131    102.78473  0.043479159  0.046235052            2 
  198000    1.1560243   -5.7583283    103.52465   0.04357098  0.046212047            3 
  199000    1.1731039   -5.8048204    103.65947  0.043408489  0.046187724            1 
  200000     1.193276   -5.7869107     104.0915  0.043371456  0.046161319            2 
  201000    1.1567237   -5.7980804    104.79028  0.043445388  0.046134116           12 
  202000    1.1825774   -5.7690652    105.28992  0.043436435  0.046106309            6 
  203000    1.1675896   -5.7925631    105.98958  0.043509678  0.046082098            2 
  204000    1.1746699   -5.8168898    106.05775  0.043324245  0.046056821            3 
  205000     1.185614   -5.7713285    107.21236  0.043582262  0.046031967            1 
  206000     1.164547   -5.7905924    107.40567  0.043448895  0.046010187            4 
  207000    1.1464627   -5.7737441    108.40995  0.043643298  0.045991568            3 
  208000    1.2047558   -5.7960277    108.60605  0.043512039  0.045974038            4 
  209000    1.1633496   -5.8345708    109.34819  0.043599755  0.045954311            1 
  210000    1.1812516    -5.804084    109.46488  0.043438445  0.045935609            2 
  211000    1.1711128   -5.7806069    110.12143  0.043491874  0.045915826            3 
  212000    1.1790453   -5.7999949    110.53784  0.043450408  0.045897786            1 
  213000    1.1640288   -5.7800324    111.26733   0.04353182  0.045876112            3 
  214000    1.1761252   -5.7886407    111.50734   0.04342186  0.045852696            3 
  215000    1.1820281   -5.7620851    112.20716  0.043491149  0.045831292            4 
  216000    1.1624471     -5.79343    112.51359  0.043408019  0.045810135            3 
  217000    1.1609454   -5.7727977    113.13073  0.043444982  0.045787069            3 
  218000    1.1991727   -5.8144913    113.40696  0.043351283  0.045764405            3 
  219000    1.1769703   -5.8154545    113.58987  0.043222935    0.0457421            4 
  220000      1.14717   -5.8233286    114.31037  0.043299383  0.045718089            2 
  221000     1.168025   -5.8072357    114.67704  0.043241721  0.045693506            2 
  222000    1.1540732   -5.8174149    115.16714  0.043230907  0.045669161            4 
  223000    1.1763044   -5.8435007    115.38666  0.043119079  0.045643571            3 
  224000     1.145199   -5.7870651    116.34098  0.043281616  0.045620757            3 
  225000    1.1615982   -5.7784754    116.84082  0.043274377  0.045598846            1 
  226000    1.1484335   -5.8053075    117.38765  0.043284532  0.045578685            6 
  227000    1.1659904    -5.808255    118.30005  0.043428798  0.045559503            2 
  228000    1.1706104   -5.8455063    118.51722  0.043317698  0.045538989            2 
  229000    1.1756783    -5.842611    118.66623  0.043182761  0.045518109            1 
  230000    1.1520764   -5.8475992    119.05404  0.043135521  0.045493649            4 
  231000    1.1186572   -5.8130779    119.86541   0.04324149  0.045472824            2 
  232000    1.1642221   -5.8304795    120.31717  0.043217374   0.04545199            2 
  233000    1.1937129   -5.8077745    120.75599  0.043188838  0.045429109            3 
  234000    1.1625137    -5.845676    120.74282  0.042999581  0.045404032            2 
  235000    1.1745654   -5.8007554    121.55347  0.043104068  0.045381969            8 
  236000    1.1793402   -5.8087373    122.57263  0.043281296   0.04535997            4 
  237000    1.1493209   -5.8410182    123.02445  0.043257543  0.045338657            1 
  238000    1.1494058   -5.7885285    124.13985  0.043466335   0.04531999            4 
  239000    1.1557016   -5.8008432    124.31348  0.043345006   0.04530312            3 
  240000    1.1541428   -5.7937301    124.10994  0.043093729  0.045281929            3 
  241000    1.1681096   -5.8205709    125.29112  0.043323349    0.0452627            3 
  242000     1.143555   -5.8098429    125.59776  0.043249917  0.045243711            3 
  243000    1.1368091   -5.7955356    126.48161  0.043375038  0.045225587            2 
  244000    1.1848657    -5.864856    125.98525  0.043027748  0.045203832            3 
  245000    1.1726727   -5.8172914     127.4506  0.043350543  0.045184583            3 
  246000    1.1488595   -5.8183851    127.92302  0.043334355  0.045168822            2 
  247000      1.16641   -5.7957825    128.59359   0.04338515  0.045152031            2 
  248000    1.1849701   -5.8265905    128.97861  0.043339587  0.045136584            2 
  249000    1.1597531   -5.8228215    129.61763  0.043379394  0.045122395            3 
  250000    1.1528011   -5.8404145     129.1566  0.043052199  0.045105184            2 
  251000    1.1656671   -5.7788871    130.22497  0.043235383  0.045086862            2 
  252000    1.1525183   -5.8237593     130.4502  0.043138295  0.045070699            5 
  253000    1.1615456   -5.8017196    131.97199  0.043469035  0.045056374            3 
  254000    1.1686586   -5.8135413    131.81488  0.043246352  0.045041474            2 
  255000    1.1492589   -5.8301969    132.52041  0.043307322  0.045026933            3 
  256000    1.1690271   -5.8617056    133.03615   0.04330604  0.045012241            2 
  257000     1.158746   -5.8260773    133.42363  0.043263174   0.04499692            6 
  258000    1.1377303   -5.7978448    133.67954  0.043178146  0.044980566            2 
  259000    1.1774312   -5.8081722    134.56593  0.043296633  0.044964502            1 
  260000    1.1509161   -5.8429586     134.8721  0.043228236   0.04494835            5 
  261000    1.1259706   -5.8260929    135.52653  0.043271562  0.044930821            2 
  262000    1.1649238   -5.8560684    135.85424  0.043210637  0.044914711            3 
  263000     1.144095    -5.811725    136.41322  0.043223452  0.044898462            9 
  264000    1.1201963    -5.874416    136.75125   0.04316643  0.044884501            2 
  265000     1.141746   -5.8670376    137.18222  0.043139064  0.044867516            1 
  266000    1.1684432   -5.8090947    138.33733  0.043338761  0.044854435            1 
  267000    1.1318036    -5.846075    138.55056  0.043242996  0.044841636            4 
  268000    1.1402727   -5.8591733    139.24423  0.043297334  0.044829522            3 
  269000    1.1603559   -5.8884577    139.28755  0.043149798  0.044816419            2 
  270000    1.1510893   -5.8200573    140.16941  0.043262163  0.044804042            2 
  271000    1.1477505    -5.837192    141.18751  0.043415594  0.044792806            2 
  272000    1.1432802   -5.8630086    141.03554  0.043209417  0.044779988            4 
  273000    1.1463107   -5.8606373    141.34224  0.043144761  0.044765365            3 
  274000    1.1359742   -5.8566136    141.45711  0.043022235  0.044749615            4 
  275000    1.1278051   -5.8610268    142.20955  0.043093803  0.044732058            2 
  276000    1.1752054   -5.8497907    142.63992  0.043067609  0.044715632            1 
  277000    1.1116168   -5.8689077     142.5885  0.042896661  0.044698377            2 
  278000    1.1455247   -5.8705194    143.50996  0.043018573  0.044681244            3 
  279000    1.1304376   -5.8303426    143.94001  0.042992833  0.044663838            5 
  280000    1.1509159   -5.8190826    144.89082  0.043122268  0.044648147            3 
  281000    1.1295622   -5.8596406    145.16921  0.043051368  0.044632654            3 
  282000    1.1420414   -5.8691959    144.94971  0.042833838  0.044614246            1 
  283000    1.1486274   -5.8322465    146.25767  0.043067628  0.044597472            2 
  284000    1.1458089   -5.8216611    146.20649  0.042900966  0.044580271            1 
  285000    1.1549373   -5.8323729    146.59094  0.042862847  0.044562648            3 
  286000    1.1559068   -5.8686119    146.83294   0.04278349  0.044543249            1 
  287000    1.1304595   -5.8530923    146.94563   0.04266714  0.044520894            2 
  288000    1.1282719   -5.8185178    147.64415  0.042721108   0.04450104            3 
  289000    1.1301197   -5.8695729    147.42653  0.042510534   0.04447843            1 
  290000    1.1528401   -5.8542348     148.7489  0.042743936  0.044456347            4 
  291000    1.1304066   -5.8593357    148.48097  0.042520325  0.044433847            3 
  292000     1.147821    -5.895972    148.88731  0.042490671  0.044411342            5 
  293000    1.1254874   -5.8572824    149.51219  0.042523377  0.044387326            3 
  294000    1.1387572    -5.886819    150.38098  0.042624993  0.044364759            6 
  295000    1.1483823   -5.8348689    150.66579  0.042560959  0.044341354            4 
  296000     1.140064    -5.864907    150.56129  0.042387751  0.044316455            5 
  297000    1.1583565   -5.8507781    151.15306  0.042411071  0.044291074            5 
  298000    1.1271258   -5.8870788    151.19689   0.04228101  0.044265298            4 
  299000    1.1198629   -5.9187716    151.76155  0.042296975  0.044237789            3 
  300000    1.1263602   -5.8919541    152.01279  0.042225774  0.044210675            2 
  301000    1.1220244   -5.8395359    152.79016  0.042300707  0.044185199            4 
  302000    1.1341322   -5.8748996    152.92389  0.042197542  0.044157805            3 
  303000    1.1212648   -5.8685257    153.24841  0.042147528  0.044129098            5 
  304000    1.1430666    -5.874246    153.22672  0.042002938  0.044101363            2 
  305000    1.1231185   -5.8755519    154.46917  0.042204691  0.044074182            5 
  306000    1.1564416   -5.8988251    154.79115  0.042154452   0.04404846            5 
  307000    1.1530721    -5.900903    154.25052  0.041870391   0.04402276            3 
  308000    1.1292321    -5.845805    156.04872  0.042220974  0.043996212            4 
  309000    1.1438734    -5.880593    155.91063  0.042047097  0.043969566            2 
  310000    1.1286972   -5.8490425    157.12933  0.042239068   0.04394638            4 
  311000    1.1342704   -5.9364389    157.55346  0.042216898  0.043924268            4 
  312000    1.1194187    -5.889004    158.46987  0.042326355   0.04390077            5 
  313000    1.1230599   -5.8777628    158.65879  0.042241424   0.04387843            2 
  314000    1.1462121   -5.8811277    159.40444  0.042304787  0.043857637            4 
  315000    1.1529449   -5.8548543    159.30889   0.04214521  0.043837778            2 
  316000    1.1455012   -5.8711377    160.69748  0.042378028  0.043815565            3 
  317000    1.1206952   -5.8948406    160.70881  0.042247322  0.043793713            4 
  318000     1.115049   -5.9114878    161.02186  0.042196503  0.043771914            4 
  319000    1.1437112   -5.8705488    161.29842  0.042136472  0.043748869            4 
  320000    1.1522479    -5.893935     161.4649  0.042048151  0.043725299            5 
  321000    1.1265183   -5.9182336    162.05522  0.042070409  0.043701029            7 
  322000    1.1156518   -5.8887784    162.30035  0.042003197  0.043678895            2 
  323000    1.1340237   -5.8704768    163.43748  0.042166533  0.043656983            3 
  324000    1.1138555   -5.8678626     163.6261  0.042084902  0.043635915            2 
  325000    1.1160177   -5.9015489    163.53514  0.041932087   0.04361367            3 
  326000    1.0935705   -5.8855305    164.32315  0.042004896  0.043589897            3 
  327000    1.1443723   -5.8944925    164.46792  0.041913333  0.043566322            3 
  328000    1.1319822    -5.947243    164.88183  0.041890708  0.043543752            5 
  329000      1.13693   -5.9112615    165.46266  0.041910502  0.043520759            3 
  330000    1.1397659   -5.8596219    165.69275  0.041841602  0.043497302            4 
  331000    1.1311801   -5.9372726    165.90575  0.041768819  0.043472135            5 
  332000     1.114576   -5.8879042    166.36509  0.041758305  0.043446093            3 
  333000    1.1158797   -5.9124622    166.43855  0.041651289  0.043420239            3 
  334000    1.1168399   -5.9108498    167.07442  0.041685234  0.043394274            2 
  335000    1.1226934   -5.9163265    167.12442   0.04157324  0.043366901            3 
  336000    1.1235915   -5.9316358    167.40973  0.041520269  0.043341077            2 
  337000      1.10827   -5.8661967    168.33879  0.041626803  0.043314481            4 
  338000    1.1217146   -5.8896451    168.96208  0.041657318   0.04328745            3 
  339000    1.1053205   -5.9548701     169.0927  0.041566544  0.043262539            3 
  340000    1.1161701   -5.9300169    168.68617  0.041344649  0.043236571            4 
  341000    1.1293011    -5.898527    169.44058  0.041407766  0.043208761            4 
  342000    1.1148471   -5.9242568    169.99284  0.041421258  0.043181638            2 
  343000    1.1109331   -5.9050374    170.39152  0.041397357  0.043154384            3 
  344000    1.1225734   -5.9256024    171.04961  0.041436436  0.043125644            3 
  345000    1.1046752   -5.9991832    170.64281  0.041218071  0.043096869            2 
  346000    1.0890279   -5.9041557     171.6227  0.041334947  0.043069552            4 
  347000    1.1137926   -5.9128404    172.24574  0.041365452  0.043043972            1 
  348000    1.1288502   -5.9121965    173.22005  0.041479896  0.043019371            4 
  349000    1.1196511   -5.9217922     173.2353  0.041364684  0.042994557            4 
  350000    1.1077835   -5.9070007    173.74353  0.041367507  0.042969362            2 
  351000     1.097755   -5.9054247    174.66378  0.041468134  0.042944781            4 
  352000    1.0950178   -5.9465094    174.67375  0.041352687  0.042921026            3 
  353000    1.1111964   -5.9530955    174.90594  0.041290353   0.04289626            5 
  354000    1.1164316   -5.9746132    175.57485  0.041331179   0.04287156            5 
  355000    1.1318256   -5.9184876    177.03879  0.041558401   0.04284884            3 
  356000    1.0826262   -5.9302419    176.51146  0.041318225   0.04282589            4 
  357000    1.1084613   -5.9611545    176.46242  0.041191041  0.042801292            5 
  358000    1.1395389   -5.9194709    177.62484  0.041346563   0.04277565            6 
  359000    1.1079411   -5.9144633    178.71013  0.041483317  0.042752044            6 
  360000    1.1486832   -5.9221323     178.9841  0.041431505  0.042730012            5 
  361000    1.1142102   -5.9835086    179.25037  0.041378202  0.042709276            4 
  362000    1.0769969   -5.9385292    179.97575  0.041430882  0.042689377            2 
  363000    1.1241218   -5.9292541    181.02056  0.041556603  0.042669846            3 
  364000    1.0949155   -5.9383533    181.21442  0.041486818  0.042650903            3 
  365000    1.1262122   -5.9815028    181.29041  0.041390505  0.042632637            2 
  366000    1.1124373   -5.9587907    181.46539  0.041317257   0.04261242            4 
  367000    1.1199024   -5.9082122    182.52087   0.04144434  0.042593622            2 
  368000    1.1014537   -5.9609699    183.05008  0.041451559   0.04257595            4 
  369000    1.1056139   -5.8901509    183.81338  0.041511604  0.042558392            2 
  370000    1.0989664   -5.9338854    183.82324   0.04140163  0.042540924            3 
  371000    1.1028125   -5.9418376    183.99251  0.041328056  0.042523132            2 
  372000    1.1037942   -5.9839968     183.3801  0.041079772  0.042503694            5 
  373000    1.0829482   -5.9329288     184.9483  0.041319995   0.04248424            2 
  374000    1.0999875    -5.961299    185.20686  0.041267126  0.042465789            3 
  375000    1.1118092    -5.973971    185.60602  0.041245782    0.0424464            7 
  376000    1.1008991   -5.9655573    186.26205  0.041281482  0.042426952            3 
  377000    1.0998598     -5.93971     186.9059  0.041314302  0.042407916            5 
  378000     1.110461    -5.908019     187.4038  0.041314771  0.042388284            7 
  379000    1.1163665   -5.9961452     186.3571  0.040975615  0.042368001            5 
  380000    1.1379706   -5.9187227    187.79231  0.041182524  0.042347285            1 
  381000    1.0938094   -5.9235049    188.78794    0.0412922  0.042328854            5 
  382000    1.1085768    -5.964671    188.89839    0.0412082  0.042308647            2 
  383000    1.1084933   -5.9792139    188.43178  0.040999081  0.042288883            2 
  384000    1.0932933   -5.9728163    189.54405  0.041133692  0.042268378            5 
  385000    1.0956114   -5.9646925     189.3997  0.040995606  0.042247974            4 
  386000    1.1006068   -5.9404647    190.25826  0.041074755  0.042226627            2 
  387000    1.0825553   -6.0010665     189.0687  0.040712468  0.042204475            2 
  388000    1.0931921   -5.9395535    189.73826  0.040751343  0.042181508            4 
  389000    1.0909145   -5.9644121    189.46822  0.040588736  0.042157899            4 
  390000    1.0825391   -5.9098851    190.59306  0.040725013  0.042132871            2 
  391000    1.1111187   -5.9683196    191.12527  0.040734286  0.042109256            4 
  392000    1.1033379   -5.9717704    190.90024  0.040582534  0.042083982            3 
  393000    1.0862518   -5.9255112    192.43409  0.040804514  0.042060548            6 
  394000     1.093418    -6.010691    191.38468  0.040478994  0.042035096            4 
  395000    1.1078288   -5.9998575    191.77059  0.040457929   0.04200793            2 
  396000    1.0862478   -5.9631372    191.54061  0.040307367  0.041980556            2 
  397000    1.0965072    -5.955014    192.98781  0.040509617  0.041953076            2 
  398000    1.0930284   -5.9327198    193.03549  0.040417815  0.041926191            3 
  399000    1.0838005   -5.9749188    193.18623  0.040348002  0.041899374           10 
  400000    1.0753948   -5.9825676    194.03377  0.040423702  0.041871873            2 
  401000    1.1238059   -5.9703736    193.92657  0.040300618  0.041844618            7 
  402000    1.0984481   -5.9573547      194.658   0.04035199  0.041816425            3 
  403000    1.0839687   -5.9710423    194.95866  0.040314032  0.041789386            4 
  404000    1.0865052   -5.9637965    195.68702  0.040364484  0.041763503            9 
  405000    1.0950319   -5.9369589    196.41353  0.040414307  0.041736441            2 
  406000    1.1015863   -6.0106193    195.42315  0.040111484  0.041709322            7 
  407000    1.1070856    -5.949191    196.42777  0.040218627   0.04168153            4 
  408000    1.0945891   -5.9735138    196.69371   0.04017437  0.041655388            2 
  409000    1.0819259   -5.9977468    197.59233  0.040259235  0.041629317            3 
  410000    1.0924988   -5.9926192     197.4136  0.040124715  0.041603155            2 
  411000    1.1005103   -5.9641693    197.77504  0.040100373  0.041575774            2 
  412000    1.1059531   -6.0006708     197.5852  0.039964644  0.041548702            4 
  413000    1.0906094   -5.9809433    198.71647   0.04009614  0.041521636            4 
  414000    1.0911111   -5.9763745    198.69393  0.039994751  0.041494821            2 
  415000    1.1188178   -5.9815572    199.52614  0.040065489  0.041467049            3 
  416000    1.0534424   -6.0088964    199.31113  0.039926108  0.041440146            5 
  417000    1.0937201   -5.9804525    200.86351   0.04014059  0.041414486            3 
  418000    1.0851011   -5.9955446    200.38828  0.039949816  0.041388771            2 
  419000    1.0891433   -5.9805081    201.58575   0.04009263  0.041362777            4 
  420000    1.0775081   -5.9217002    202.04319  0.040087935  0.041338561            3 
  421000    1.1150677   -6.0026307     202.2374  0.040031155  0.041313787            4 
  422000    1.1045505   -5.9968417    202.74433    0.0400364  0.041288123            4 
  423000    1.0966243   -5.9996199    202.14692  0.039824058   0.04126286            4 
  424000    1.0821939   -5.9425949    203.59461  0.040014663   0.04123743            2 
  425000    1.0765698   -5.9825331    203.46503  0.039895104  0.041212262            4 
  426000    1.0717037   -5.9862806    203.07391  0.039724944  0.041186074            3 
  427000    1.0757912   -5.9595468    204.75529  0.039960048  0.041159844            2 
  428000    1.1118648   -6.0148246    203.44688  0.039611932  0.041133183            2 
  429000    1.0823282   -5.9699697    204.65231  0.039753752  0.041106033            2 
  430000    1.0880384   -5.9783022    205.49482  0.039824577  0.041079406            7 
  431000     1.088177   -5.9900092    205.42211   0.03971812  0.041052634            3 
  432000       1.0813   -5.9685578    206.74421  0.039881212  0.041026451            5 
  433000    1.1034722    -6.005507    205.73357  0.039594606  0.041000324            3 
  434000    1.0716033    -6.029361    205.84098  0.039523997  0.040972855            2 
  435000    1.0998322   -5.9712481    207.21854  0.039697038  0.040947018            4 
  436000     1.090552   -6.0292487    207.04703  0.039573209  0.040920597            6 
  437000    1.0822793   -5.9948991    207.98327  0.039661188  0.040894845            3 
  438000    1.0964503   -6.0275585    208.20721  0.039613244  0.040868173            4 
  439000    1.0536423   -6.0249192    207.88267  0.039461404  0.040841549            6 
  440000    1.0980247   -6.0018563    208.39826  0.039469367  0.040815328            4 
  441000    1.0420524   -6.0036037    209.17461  0.039526571  0.040789043            2 
  442000    1.1004121   -5.9522722    210.60197  0.039706253  0.040762823            6 
  443000    1.0875873   -6.0087586    209.62121  0.039432132   0.04073634            4 
  444000    1.0653229   -5.9828248    210.42107  0.039493443   0.04070959            5 
  445000    1.0596202   -6.0718164    209.96762  0.039319779  0.040682253            2 
  446000    1.0712764   -6.0053061    210.72789  0.039373672  0.040656037            3 
  447000    1.0937602    -6.017402    210.54925  0.039252283  0.040629649           13 
  448000    1.0973945   -6.0502369    210.83312   0.03921747  0.040602747            4 
  449000    1.0782782   -5.9824341    211.89842  0.039327844  0.040575919            3 
  450000    1.0598205   -6.0162373    211.77272  0.039217171  0.040548796            4 
  451000    1.0558041   -6.0390972    212.18447  0.039206296  0.040521209            4 
  452000    1.0738293   -6.0192502    212.71705  0.039217745  0.040493602            4 
  453000    1.0738221   -6.0391292    212.95309  0.039174593  0.040466686            2 
  454000    1.0868711    -6.020263    213.26479   0.03914552  0.040439807            3 
  455000    1.0650021   -5.9774922     214.5776  0.039299926  0.040413705            3 
  456000     1.062463   -6.0275201    214.13685  0.039133197  0.040386486            2 
  457000    1.0787936   -5.9880543     214.5632  0.039125309  0.040358712            2 
  458000    1.0785427   -6.0243816    214.31822  0.038995308  0.040330652            7 
  459000    1.0732064   -6.0446291    214.40612  0.038926312  0.040302807            5 
  460000     1.066805   -6.0188852    215.26877  0.038997966  0.040274687            4 
  461000    1.0576595   -5.9902232    215.10737  0.038884196  0.040247616            5 
  462000    1.0551947   -6.0601908    215.34894  0.038843604  0.040219869            1 
  463000    1.0819856   -6.0156305    216.31434  0.038933467  0.040191952            3 
  464000    1.0828723   -5.9928108    216.59209  0.038899441  0.040163953            3 
  465000    1.0678818   -6.0117422    216.88989  0.038869156  0.040135937            3 
  466000    1.0531965   -6.0283358    216.30222  0.038680655  0.040107059            4 
  467000    1.0849371   -6.0414944    216.39337  0.038614092  0.040077495            4 
  468000    1.0563735   -6.0529003    217.17832  0.038671353  0.040048543            5 
  469000    1.0577409   -6.0205125    217.88647  0.038714725  0.040019377            5 
  470000    1.0549538   -6.0237317    218.46282  0.038734543  0.039992102            3 
  471000    1.0689219   -6.0700006    217.95167  0.038561866   0.03996397            5 
  472000    1.0552387   -6.0167145    218.99665  0.038664662  0.039936113           11 
  473000    1.0782427   -6.0714565    218.57689  0.038508965  0.039907649            6 
  474000    1.0584016    -6.051349    219.15133  0.038528714  0.039879237            4 
  475000     1.084331   -6.0586208    219.49977  0.038508732  0.039849866            3 
  476000    1.0606175   -6.0155028    219.64918  0.038453988  0.039821413            2 
  477000    1.0454425   -6.0396794    219.68071   0.03837888  0.039792243            3 
  478000    1.0679308    -6.070874     219.8479  0.038327737  0.039763004            4 
  479000    1.0729833   -5.9985301    221.48439  0.038532426  0.039734648            7 
  480000    1.0561399    -6.022664    221.91434  0.038526795  0.039707674            2 
  481000    1.0574987    -6.029054    222.07038  0.038473731  0.039680864            3 
  482000    1.0591796   -6.0476438    221.90707  0.038365676  0.039653766            4 
  483000    1.0650383   -6.0727307    222.39022  0.038369603  0.039627317            4 
  484000    1.0642856   -6.0417543    223.35184  0.038455896  0.039601021            2 
  485000    1.0558902   -6.0761602    223.55681  0.038411823  0.039574857            3 
  486000    1.0538739   -6.0296245    223.88008  0.038388216  0.039548199            3 
  487000     1.071198   -6.0781341    223.83327  0.038301381  0.039522239            5 
  488000    1.0617809   -6.0310715    225.84341  0.038566156  0.039496897            3 
  489000     1.050483   -6.0595898    225.52992  0.038433865  0.039471471            3 
  490000    1.0711028    -6.029276    226.51276  0.038522579  0.039446591            4 
  491000    1.0522131   -6.0232662    226.93721   0.03851616  0.039422101            2 
  492000    1.0579951   -6.0256822    226.95726   0.03844127  0.039397744            6 
  493000    1.0657265   -6.0358705    228.48281  0.038621164  0.039373384            6 
  494000    1.0456097   -6.0523122    227.33299  0.038349019  0.039349034            5 
  495000    1.0463028   -6.0185815    228.40664  0.038452296  0.039325393            3 
  496000    1.0695321   -6.0795295    227.66485  0.038250143  0.039301287            3 
  497000    1.0655359   -6.0280781    228.23245  0.038268351  0.039277259            3 
  498000    1.0350036   -6.0562534    228.59384  0.038251981  0.039252949            3 
  499000     1.076321   -6.0209543    230.31885  0.038463402  0.039229613            3 
  500000    1.0664643   -6.0982514    230.04905  0.038341508  0.039206504            2 
  501000    1.0503275   -6.0512685    231.02008  0.038426493  0.039183625            4 
  502000    1.0375056   -6.0613233    230.97571  0.038342582  0.039160791            5 
  503000    1.0748696   -6.0454824    231.18756  0.038301451  0.039138205            4 
  504000    1.0412821   -6.0795654    230.56206  0.038122033   0.03911508            9 
  505000    1.0632355    -6.079028      231.986  0.038281519  0.039091657            5 
  506000    1.0686372   -6.0101665    232.73349  0.038328968  0.039068374            3 
  507000    1.0342812   -6.0552882    232.55335  0.038223759  0.039045949            4 
  508000    1.0496973    -6.098044    232.59185  0.038154831   0.03902253            2 
  509000    1.0555596   -6.1052608    232.57239  0.038076685  0.038998344            6 
  510000    1.0492917   -6.0575199    233.20078  0.038104702  0.038974674            1 
  511000    1.0682919   -6.0905736    234.05919  0.038170122  0.038951547            3 
  512000     1.042571   -6.0534639    233.87374  0.038065387  0.038928928            2 
  513000    1.0694283   -6.0927594    233.81698  0.037981965  0.038905502            3 
  514000    1.0443841   -6.0587433    234.66484  0.038045532  0.038882066            4 
  515000    1.0401881   -6.1142427    235.11321  0.038044209  0.038858856            3 
  516000    1.0573981   -6.0927532    235.81563  0.038083919  0.038836011            8 
  517000    1.0461674   -6.0731633    236.81764  0.038171766  0.038813476            5 
  518000    1.0352761   -6.0384085     236.9882  0.038125514  0.038791098            2 
  519000    1.0469424   -6.0685052    237.15938  0.038079541   0.03876868            7 
  520000    1.0616392   -6.1002549    236.81858  0.037951696  0.038746245            1 
  521000    1.0224646   -6.0629776    237.85978  0.038045391  0.038722912            4 
  522000    1.0349261   -6.1069404    236.32282  0.037727142  0.038699084            5 
  523000    1.0455453    -6.104016     236.7328  0.037720331   0.03867471            4 
  524000    1.0702544   -6.0688449    238.97816  0.038005432  0.038651566            5 
  525000    1.0496855    -6.079124    239.08091  0.037949352  0.038629155            3 
  526000    1.0441596   -6.0742128    239.18624  0.037893892  0.038606295            4 
  527000    1.0228416   -6.1249043    238.88937  0.037775043   0.03858384            4 
  528000    1.0564599   -6.0785195     239.5052  0.037800694  0.038560645            2 
  529000    1.0226645   -6.0996211    239.63075  0.037749016  0.038537793            3 
  530000     1.066429   -6.0888562    240.12669  0.037755769  0.038515244            7 
  531000    1.0372482   -6.0781112    239.82976  0.037638067  0.038492025            3 
  532000    1.0392495   -6.1017357    240.75058  0.037711557  0.038468783            2 
  533000    1.0458037   -6.0873558    241.21208  0.037712958  0.038445414            3 
  534000    1.0250954   -6.0868399    241.11915  0.037627833   0.03842195            3 
  535000     1.030842   -6.0950491    241.60718  0.037633516  0.038399114            5 
  536000    1.0410099   -6.0863193    241.92601  0.037612875  0.038376378            5 
  537000    1.0532638   -6.1115261    242.11972  0.037572893  0.038353786            4 
  538000    1.0338429   -6.0959232    242.90532   0.03762474  0.038330813            3 
  539000    1.0302479   -6.1098744     242.9345  0.037559447  0.038307931            4 
  540000    1.0272961   -6.0482173    244.66234  0.037756534  0.038285508            6 
  541000    1.0422859   -6.0949122    243.13572   0.03745159  0.038263225            6 
  542000    1.0420836   -6.0816045    244.19556  0.037545443  0.038241227            4 
  543000    1.0228139   -6.1080986    244.30758   0.03749349  0.038218776            3 
  544000    1.0361662   -6.0989265    245.49493  0.037606453  0.038196829            7 
  545000    1.0439151   -6.1189087    245.94654  0.037606505  0.038175143            2 
  546000    1.0375759   -6.0901377    245.98498  0.037543495   0.03815294            5 
  547000      1.04229   -6.0872298    246.30809  0.037524084  0.038130671            4 
  548000    1.0331222   -6.0958332     246.4219  0.037472916  0.038109036            2 
  549000    1.0316287   -6.1190876    246.13482  0.037361085   0.03808763            5 
  550000    1.0491038   -6.1120653    246.76089  0.037388013  0.038065959            4 
  551000    1.0294412   -6.0932199    246.98957  0.037354744  0.038043731            3 
  552000    1.0232418   -6.1084779    246.76781  0.037253595  0.038021182            5 
  553000    1.0318743   -6.1103659    247.08192  0.037233563  0.037998455            2 
  554000    1.0319295   -6.1058942    247.38927  0.037212585  0.037976037            4 
  555000    1.0222688   -6.1419501    246.87985  0.037069047  0.037953308            5 
  556000    1.0215164   -6.1204388    248.17192   0.03719603  0.037930332            4 
  557000    1.0271706   -6.1122053    248.98594  0.037251038  0.037907886            3 
  558000    1.0188034   -6.0994932    248.65368   0.03713466  0.037884412            4 
  559000    1.0084477    -6.130758    248.20754   0.03700172  0.037861007            3 
  560000    1.0417393   -6.0999539    249.31175  0.037099963  0.037836934            2 
  561000    1.0000662   -6.0846597    248.38201  0.036895723  0.037812968            4 
  562000    1.0408853   -6.1167928    248.86411  0.036901559  0.037788686            2 
  563000   0.99612396   -6.1436065    249.32603  0.036904386  0.037764276            7 
  564000    1.0052764   -6.1303188    249.25217   0.03682804  0.037739552            5 
  565000    1.0160048   -6.1581612    250.45901  0.036940857  0.037715255            3 
  566000    1.0271516   -6.1416352    250.41743  0.036869468  0.037691745            4 
  567000    1.0219607   -6.1845666    250.91088  0.036876966  0.037668066            4 
  568000    1.0195665   -6.1284867    251.98756  0.036970006   0.03764517            4 
  569000    1.0356272   -6.1113859    252.61791  0.036997351  0.037622365            3 
  570000    1.0395953   -6.1344202    252.58754  0.036928003  0.037599717            8 
  571000    1.0276677   -6.1448103    252.82106  0.036897411  0.037576924            8 
  572000    1.0174474   -6.1517705    252.19349  0.036741476  0.037554646            8 
  573000    1.0244664   -6.1186382    253.64519  0.036888479  0.037532454            4 
  574000    1.0510496   -6.1258297    254.03774  0.036881205  0.037509687            6 
  575000    1.0201982   -6.0760284    254.12355    0.0368295  0.037487141            3 
  576000    1.0128391    -6.133555    255.00398  0.036892936  0.037464924            4 
  577000    1.0046434   -6.1113054    255.37615  0.036882749  0.037442862            2 
  578000    1.0275844   -6.0872282    255.33601   0.03681315  0.037420931            3 
  579000     1.036605    -6.127922    255.48766  0.036771397  0.037398622            3 
  580000    1.0300373   -6.1100176    255.20019  0.036666695   0.03737557            2 
  581000     1.020241   -6.1755492    255.19767  0.036603223  0.037352719            3 
  582000    1.0401352    -6.122228     256.4384  0.036717983  0.037328815            5 
  583000    1.0075974   -6.1667795    256.33687   0.03664049  0.037305387            6 
  584000    1.0207572   -6.1882001    255.70432  0.036487489  0.037281648            4 
  585000    1.0070157   -6.1474972    256.91615  0.036597743  0.037258022            3 
  586000    1.0232074   -6.1405557    257.34407  0.036596142    0.0372348            2 
  587000    1.0161735   -6.1251195    258.38327  0.036681327   0.03721209            4 
  588000    1.0153801   -6.1008128    258.06776  0.036574229  0.037189361            3 
  589000    1.0310986   -6.1384687    258.52173  0.036576363  0.037166705            4 
  590000    1.0309936   -6.1329868    259.10987   0.03659744  0.037144428            5 
  591000    1.0277597    -6.140734    259.73792  0.036624072  0.037122376            2 
  592000    1.0306468   -6.1598681    259.11101   0.03647396  0.037100609            3 
  593000   0.99846313   -6.1708667    259.44015  0.036458706  0.037078361            8 
  594000    1.0294006   -6.1279794     260.6039  0.036560592  0.037057163            8 
  595000     1.021191   -6.1972543    260.59485  0.036497878  0.037035686            4 
  596000    1.0028597   -6.1634971     260.7295  0.036455467  0.037014588            2 
  597000    1.0131688   -6.1194488     261.8923  0.036556713   0.03699424            4 
  598000    1.0132398   -6.1593572     261.6913  0.036467573  0.036972799            6 
  599000    1.0363308   -6.2011084    261.46106  0.036374661  0.036951227            2 
  600000    1.0025433   -6.1607997    262.65528    0.0364799  0.036930288            4 
  601000    1.0249983   -6.1686887    262.70396  0.036425952  0.036909683            5 
  602000    1.0247901    -6.169396    263.20049  0.036434176  0.036889615            7 
  603000      1.00754   -6.1770058    263.38912  0.036399823  0.036869334            4 
  604000    1.0236536   -6.1553809    263.92241  0.036413136  0.036848721            5 
  605000    1.0197363    -6.153027    265.11842  0.036517688  0.036829274            4 
  606000     1.013857   -6.1581464    265.36544  0.036491396  0.036810016            5 
  607000    1.0204826   -6.1639228    265.66796  0.036472812  0.036790541            3 
  608000    1.0196221   -6.1523794    265.61489  0.036405549  0.036771588            2 
  609000    1.0110514    -6.199481    266.23973  0.036431271  0.036752163            4 
  610000    1.0008319   -6.1449635    266.62264  0.036423858  0.036732709            4 
  611000    1.0261025   -6.1601185    266.40754  0.036334907  0.036713522            7 
  612000   0.98633959   -6.1926065    266.51029  0.036289527  0.036693589            3 
  613000    1.0183273   -6.1471875    267.63414  0.036383108  0.036673603            3 
  614000    1.0239121     -6.17103    266.92735  0.036227925  0.036653955            3 
  615000   0.99567094   -6.1492518    268.40137  0.036368749  0.036635059            5 
  616000   0.98329351   -6.1860327    268.74534  0.036356242  0.036615792            4 
  617000    1.0080823   -6.1444802    268.81568  0.036306818  0.036595966            4 
  618000   0.99433133   -6.1818505    267.97097  0.036134165  0.036576648            3 
  619000   0.99120502   -6.1620692    269.06286  0.036222786  0.036556694            4 
  620000    1.0101287   -6.1979715    269.57465  0.036233151  0.036537607            7 
  621000    1.0040909   -6.1618779    269.69975  0.036191593  0.036518208           10 
  622000   0.97788964   -6.1715845    270.47062  0.036236685  0.036499253            3 
  623000    1.0138717   -6.2096529    270.73753  0.036214223  0.036480345            4 
  624000    1.0188512   -6.1669864    270.77129  0.036160696  0.036461502            5 
  625000   0.98124628   -6.1732278    271.42772  0.036190363  0.036442323            3 
  626000   0.99288068   -6.1870797    271.30418  0.036116105  0.036422646            3 
  627000    1.0097459   -6.1829812    271.69444  0.036110372  0.036403355            3 
  628000    1.0036676   -6.1843151    272.44502  0.036152471  0.036383879           10 
  629000    1.0071059   -6.1839056    272.62499  0.036118837  0.036364624            2 
  630000    1.0094179   -6.1977723    272.60738  0.036059177   0.03634527            4 
  631000   0.99030634   -6.1754167    273.29683  0.036093084  0.036326242            5 
  632000   0.99292433   -6.2121564    272.81895  0.035972963  0.036307203            3 
  633000    1.0127543   -6.1976806    274.06858  0.036080645   0.03628813            5 
  634000    1.0310887   -6.1905713    273.14674  0.035902569  0.036269309            5 
  635000   0.98862957   -6.1680003    274.28441   0.03599533  0.036250229            3 
  636000    1.0104402   -6.1916007    274.12022  0.035917219  0.036231227            3 
  637000    1.0064007   -6.1665135    274.77873  0.035946982  0.036211743            2 
  638000   0.99013003   -6.1891121    275.07993   0.03592998   0.03619253            5 
  639000     1.003367   -6.1946697    275.04291  0.035868924  0.036173387            6 
  640000    1.0076942   -6.1669392    275.93378  0.035928877  0.036154011            5 
  641000    1.0104176   -6.2231562    275.69284  0.035841502  0.036135311            3 
  642000   0.98635728   -6.1319258    277.54366  0.036025917  0.036116263            3 
  643000   0.98573467   -6.1993147     276.5209  0.035837338  0.036097447            2 
  644000   0.99814418   -6.1958802    277.28556  0.035880637  0.036078334            3 
  645000   0.98567006   -6.1996331    277.50635  0.035853534   0.03605923            3 
  646000   0.97738182   -6.1847891     278.8936  0.035976987  0.036041318            3 
  647000   0.99358646   -6.2262561    278.05045  0.035812783  0.036023491            4 
  648000    1.0028746   -6.2019281    279.00193  0.035879878  0.036004728            3 
  649000    1.0106751   -6.2405226    279.02423  0.035827456  0.035986397            3 
  650000     1.009032   -6.2428494    278.33105  0.035683468  0.035967994            4 
  651000    1.0260033   -6.1665226    279.77586  0.035813602  0.035949396            2 
  652000   0.99327704   -6.1916237    279.41513  0.035712567  0.035931078            1 
  653000    1.0269964    -6.206866    279.86687  0.035715527   0.03591218            5 
  654000    0.9930805   -6.2292132    278.97599  0.035547399  0.035893117            3 
  655000   0.98636556   -6.2305731    280.29578  0.035661041  0.035874231            3 
  656000   0.98565312   -6.2118183    280.52565   0.03563588  0.035855485            6 
  657000    1.0034521   -6.2062734    281.60547  0.035718604  0.035837508            2 
  658000   0.99854851   -6.2222581    280.89585  0.035574449  0.035818799            3 
  659000    1.0024834   -6.1776075    282.09026  0.035671504  0.035800319            4 
  660000    0.9824643   -6.2132851    281.34836  0.035523783  0.035781627            4 
  661000    0.9926535   -6.2330064    282.44794  0.035608666  0.035762465            6 
  662000   0.97528191   -6.1918716      281.841  0.035478474   0.03574359            3 
  663000   0.98384464   -6.1825774    282.28598  0.035480892  0.035724429            5 
  664000   0.98587072   -6.2127696    282.60647   0.03546768  0.035705345            2 
  665000    1.0034994   -6.2424699    282.54804  0.035407022  0.035685957            1 
  666000    1.0047598   -6.2443145     282.2676  0.035318769  0.035667103            5 
  667000   0.97753396   -6.2419898    282.61613  0.035309361  0.035647619            4 
  668000   0.98638221   -6.1890926    283.66014  0.035386744  0.035628849            6 
  669000   0.97427723   -6.2177741    283.64305   0.03533172  0.035609438            6 
  670000   0.98637124   -6.1991989    283.55965  0.035268613  0.035590431            4 
  671000   0.97886878   -6.2104604    284.88397  0.035380522  0.035571531            3 
  672000   0.99824672   -6.1935099    285.32448  0.035382501  0.035553121            6 
  673000   0.98914567   -6.2182825    285.30148  0.035327078   0.03553483           13 
  674000    1.0036124   -6.2268164    285.97599  0.035358061  0.035516393            4 
  675000   0.98423347   -6.2133635    286.55654   0.03537735  0.035497865            4 
  676000   0.97574482    -6.242817    285.44848  0.035188422  0.035479098            3 
  677000   0.98911672   -6.2362745    286.93975  0.035320009  0.035460557            8 
  678000   0.98591876   -6.2403345    287.25054  0.035306114  0.035442133            6 
  679000    0.9842067   -6.2435194    287.67815  0.035306597   0.03542357            8 
  680000   0.98043868   -6.2399946     286.7849  0.035145209  0.035405004            8 
  681000   0.96026269    -6.212136    287.08643  0.035130498  0.035386182           10 
  682000   0.96135573   -6.2164022    288.60056  0.035263998  0.035367663            4 
  683000   0.98963088     -6.26388    287.99947  0.035139028  0.035348898            6 
  684000   0.97695106   -6.2143422    288.73925  0.035177783  0.035330169            4 
  685000   0.98743388   -6.1758699    289.28396  0.035192696  0.035311395            4 
  686000   0.98151258   -6.2250688    288.79536  0.035082041  0.035292547            3 
  687000   0.97878535   -6.2611924    289.25831  0.035087131  0.035273486            3 
  688000   0.98587145   -6.2627884    288.92778  0.034996098  0.035254794            6 
  689000   0.99567115   -6.2151578    289.25602  0.034985005  0.035236255            3 
  690000    0.9811013   -6.2229894    289.99733  0.035023832  0.035217752            7 
  691000   0.96285602   -6.2817525    290.28474  0.035007808  0.035198722            3 
  692000   0.96449197   -6.2434209    289.89298  0.034910041  0.035178726            8 
  693000   0.96854207   -6.2599847    290.20992  0.034897777  0.035159054            7 
  694000   0.98445549   -6.2482883    290.21396  0.034847978  0.035139709            3 
  695000   0.98342991    -6.250519    290.01768  0.034774302  0.035120054            7 
  696000   0.96511834   -6.2723293    290.35475  0.034764697  0.035100446            2 
  697000   0.98637133   -6.2564113    290.90541  0.034780656  0.035080894            3 
  698000   0.96668846    -6.244315    291.79776  0.034837364  0.035061201            7 
  699000   0.96715139   -6.2817023    291.21308  0.034717821  0.035041698            4 
  700000    0.9687331   -6.2330877    292.52855  0.034824827   0.03502242            4 
  701000    0.9736217   -6.2546366    292.49281  0.034770899  0.035003458            4 
  702000   0.98006901   -6.2872888    293.41525   0.03483087  0.034984428            4 
  703000   0.98025124   -6.2233894    293.56108  0.034798611  0.034965637            7 
  704000   0.98231393   -6.2522432    293.27733  0.034715593  0.034946829            6 
  705000   0.95744403   -6.2528206    294.42115  0.034801554  0.034928076            3 
  706000   0.96745277   -6.2764866    293.82216  0.034681558  0.034908985            5 
  707000   0.95878551   -6.2239554    295.19783  0.034794653  0.034889715            5 
  708000   0.96905318   -6.2682936    294.04024  0.034609256  0.034870647            2 
  709000   0.95640048   -6.2665992    293.72337  0.034523198  0.034851122            7 
  710000   0.98156016   -6.2667942    294.29981  0.034542231  0.034831576            5 
  711000   0.95963532   -6.2514858    293.96591  0.034454514  0.034811834            4 
  712000    0.9573595   -6.2687455     294.6387  0.034484867  0.034792113            5 
  713000   0.96145549   -6.2784421    294.90739  0.034467904  0.034772742            2 
  714000   0.94224935   -6.2947899    294.66769  0.034391654  0.034753218           10 
  715000   0.95531487   -6.2679736    295.20022   0.03440562  0.034733509            6 
  716000   0.98849767   -6.2389114    296.09632  0.034461863  0.034714086            3 
  717000   0.97437633   -6.2704571    296.11277   0.03441571  0.034694499            4 
  718000   0.95721522   -6.2711737    296.15842  0.034373076  0.034674756            4 
  719000   0.95941705   -6.2734871    296.10633  0.034319232  0.034655274            4 
  720000   0.95783323   -6.2587395    297.22057  0.034400529  0.034635355            3 
  721000   0.98762209   -6.2658562    296.86606  0.034311843   0.03461564            7 
  722000   0.95732648   -6.2759447    296.54735  0.034227534  0.034595652            4 
  723000   0.96740773   -6.2837908    296.29513  0.034151122  0.034575577            3 
  724000   0.96876973   -6.2853536    296.39454  0.034115394  0.034555095            8 
  725000   0.98075307   -6.2741568     297.2231  0.034163575  0.034534469            5 
  726000   0.95645642   -6.2683263     297.3272  0.034128467  0.034513556            4 
  727000   0.97993832   -6.3102999    297.66047  0.034119723  0.034492813            8 
  728000   0.96144395   -6.3052833    297.15704  0.034015229  0.034471883            5 
  729000   0.96937108   -6.2645315     298.4655  0.034118142  0.034451203            5 
  730000   0.98499745   -6.2963545    298.13995  0.034034241  0.034430482            4 
  731000    0.9721777   -6.2335865    299.58971  0.034152953  0.034409892            2 
  732000   0.96786499   -6.2655514    299.39749  0.034084414  0.034389591            5 
  733000   0.96325777   -6.2806252    299.62065  0.034063285  0.034369108            5 
  734000   0.97178466   -6.3023513    298.67323  0.033909313  0.034348793            8 
  735000   0.95094885   -6.3254053     300.4484  0.034064444  0.034328597            3 
  736000   0.94938279   -6.2915794    299.53298  0.033914513  0.034307955            4 
  737000   0.96333447   -6.2667303    301.12027  0.034047973  0.034287284            2 
  738000   0.95306044   -6.2924831    300.69316  0.033953609  0.034266559            8 
  739000   0.96755233   -6.2860917    300.66414  0.033904391  0.034246389            7 
  740000   0.96212738   -6.2947472    300.33052  0.033821005  0.034226244            4 
  741000   0.98427679   -6.2775683    302.12953   0.03397768  0.034206269            5 
  742000   0.94886845   -6.2612621    301.75381  0.033889691  0.034186309            4 
  743000   0.96040894   -6.2652611    302.73231  0.033953826  0.034166374            6 
  744000   0.96085841    -6.289353    302.46968  0.033878772  0.034146234            3 
  745000   0.95559903   -6.3322794    301.26588  0.033698644  0.034125643            4 
  746000   0.94869229   -6.3096239    300.89826  0.033612406  0.034104884            6 
  747000   0.96387421   -6.2986822    302.56153   0.03375296  0.034084284            6 
  748000   0.95364529   -6.3173817    302.49485  0.033700406  0.034063659           14 
  749000   0.95494961   -6.3158506    303.07894  0.033720398  0.034043222            5 
  750000   0.94752005   -6.2823917    303.25023   0.03369447  0.034022537            5 
  751000   0.93843542   -6.3189464    303.72152  0.033701899  0.034002242            5 
  752000   0.95358983   -6.3169685    304.65712  0.033760762    0.0339818            5 
  753000   0.95661365   -6.2924854    304.17681  0.033662772  0.033961399            4 
  754000   0.94536224   -6.2592486    305.56317  0.033771349  0.033941506           10 
  755000   0.95245177    -6.316015    303.39294  0.033487079  0.033921231            3 
  756000   0.94980514   -6.3217218    304.18196  0.033529758    0.0339011            3 
  757000   0.95935772    -6.309278    305.46902  0.033627149  0.033880804            3 
  758000   0.96602403   -6.3161982    304.92281  0.033522736  0.033860497            3 
  759000   0.96116019   -6.2780354    305.78077  0.033572768  0.033840374            5 
  760000   0.96786277   -6.3436998    304.89489  0.033431457   0.03382009           15 
  761000   0.93830547   -6.2855865    305.97865  0.033506203  0.033799494            4 
  762000    0.9279176   -6.3240508    305.73213  0.033435273  0.033778732            3 
  763000   0.94959283   -6.2975909    305.55088  0.033371656  0.033757925            3 
  764000   0.91417518   -6.3629378    305.29068  0.033299594   0.03373721            7 
  765000   0.94587265   -6.3428167    305.82546  0.033314321  0.033716483            3 
  766000   0.94051414   -6.3229365    306.18217  0.033309636  0.033695726            3 
  767000   0.96110789   -6.3180482    307.11623  0.033367691  0.033674966            2 
  768000   0.95485162   -6.3139523    306.60261  0.033268512  0.033654697            4 
  769000   0.94532203   -6.3200674     307.0356  0.033272172  0.033634222            3 
  770000   0.94847161   -6.3404287    306.86415  0.033210406  0.033613946            5 
  771000   0.94564139   -6.3362388    307.96148  0.033285936  0.033593432            3 
  772000   0.95179625   -6.3478097    309.22499  0.033379208  0.033573282            5 
  773000   0.95910952   -6.3185299    308.44902  0.033252374  0.033553049            5 
  774000   0.95701282    -6.297767    308.98566  0.033267189  0.033532598            7 
  775000   0.94270588   -6.2932262     309.1085  0.033237473  0.033512178            3 
  776000   0.95921191   -6.3372407     307.8809  0.033062812  0.033491964            2 
  777000   0.93581408   -6.3348396     309.6169  0.033206446  0.033471766            6 
  778000   0.94527016   -6.3203666    309.51076  0.033152395  0.033451435            9 
  779000    0.9477333   -6.3292841    309.91574   0.03315316  0.033430855            3 
  780000   0.93670382   -6.3698356    308.14298  0.032921258  0.033409916            6 
  781000   0.93381814   -6.3171495    310.39321  0.033119207  0.033388832            2 
  782000   0.94963012   -6.3262463    311.33733  0.033177465  0.033368309            6 
  783000   0.94736323   -6.3409413    309.97846  0.032990471  0.033347881            6 
  784000   0.94902004   -6.3479876    309.66125  0.032914673  0.033327551           11 
  785000   0.93272158   -6.3644142    310.53727   0.03296574  0.033307109            5 
  786000   0.93159857   -6.3178495    312.55348  0.033137561  0.033286874            2 
  787000   0.93870726   -6.3384483    311.66551   0.03300143   0.03326663            5 
  788000   0.94671273   -6.3376779    311.58145  0.032950661  0.033246064            4 
  789000   0.94005058   -6.3494935     312.1963  0.032973839  0.033225787            6 
  790000   0.94256414   -6.3398513    312.36185  0.032949563  0.033205453            4 
  791000   0.92281724   -6.3781722     312.2403  0.032895101  0.033185005            5 
  792000   0.94230914   -6.3383921    312.25617  0.032855237  0.033164451            6 
  793000   0.93108378   -6.3618173    312.19505  0.032807382  0.033143843            3 
  794000   0.94311189   -6.2938136    313.35177  0.032887466  0.033123423            5 
  795000   0.94381754   -6.3501944    312.11732    0.0327167  0.033103014            8 
  796000    0.9297993   -6.3229052    313.88482  0.032860638  0.033082566            7 
  797000   0.92814957   -6.3578598    312.94405  0.032721042  0.033062003            4 
  798000   0.91395501   -6.3333732     312.8282   0.03266794  0.033041091            4 
  799000   0.92748089    -6.369486    313.06115  0.032651351  0.033019822            3 
  800000   0.94736303   -6.3761673    312.19057  0.032519851  0.032998549            3 
  801000   0.93025443   -6.3559405     312.2455  0.032484967  0.032977407            2 
  802000    0.9262251   -6.3160758     314.0787  0.032634944  0.032956329            5 
  803000   0.92473002   -6.3811342    313.25934  0.032509272  0.032934978            2 
  804000   0.93735994   -6.3453192    313.45193  0.032488799  0.032913296            4 
  805000   0.91722639   -6.3781603    313.03033  0.032404796  0.032891504            3 
  806000   0.92241746   -6.3693682    312.85405  0.032346366  0.032869771            3 
  807000   0.92288424   -6.3870253     313.0961  0.032331278  0.032848059            4 
  808000   0.91631542   -6.4055348    314.12912  0.032397805   0.03282645            4 
  809000   0.94191108   -6.3704665    314.06946  0.032351613  0.032804817            3 
  810000   0.95492962   -6.3728919    314.35805  0.032341363  0.032783221            4 
  811000   0.92513608   -6.3854384    313.67075  0.032230862  0.032761518            4 
  812000   0.92989694   -6.3514061    314.80642   0.03230772   0.03273993            5 
  813000   0.93932567   -6.3796471    314.58234  0.032245012  0.032718034            5 
  814000   0.92233966   -6.3928774    314.66809  0.032214178  0.032696293            4 
  815000   0.95109617   -6.3678062    315.92437  0.032303105  0.032674713            4 
  816000    0.9191791   -6.3561293    314.55202  0.032123368  0.032653209            3 
  817000   0.94053965   -6.4022724    315.40096  0.032170641  0.032631044            4 
  818000   0.91469354   -6.3393356     316.1724  0.032209902  0.032609444            4 
  819000    0.9403943    -6.364232     316.2464  0.032178103  0.032587886            7 
  820000   0.92942002    -6.370547    315.91767  0.032105454  0.032566181            6 
  821000   0.94093086   -6.3549654     316.8194  0.032157877  0.032544505            2 
  822000    0.9132105   -6.3731119    317.32419   0.03216993  0.032523262            8 
  823000   0.89949631   -6.3768736    317.02551  0.032100599  0.032501886            7 
  824000    0.9327555   -6.3737893    318.34553  0.032195139   0.03248077            5 
  825000   0.95028274   -6.3787389    317.15921  0.032036284  0.032459446            4 
  826000    0.9445278   -6.3658553    317.99577  0.032081898  0.032437963            3 
  827000   0.92676577    -6.394513    317.61878  0.032005117  0.032416416            5 
  828000   0.91495374   -6.3957576    317.92966  0.031997752   0.03239516            5 
  829000    0.9277678   -6.3625666    318.42854  0.032009302  0.032373841            4 
  830000   0.92456542    -6.403052    318.10492  0.031938245   0.03235251            5 
  831000   0.92330401   -6.4059465    318.55467  0.031944913  0.032331282            4 
  832000    0.9222027   -6.3900659    319.21452  0.031972609  0.032310131           11 
  833000   0.92595064   -6.3830288    319.51844   0.03196463  0.032288869           11 
  834000   0.90218028   -6.3750796    320.08467  0.031982881  0.032267817            4 
  835000    0.9107654   -6.3922048    319.64167  0.031900367  0.032246799            4 
  836000   0.92709438   -6.3707444    320.17287  0.031915159  0.032225805            5 
  837000   0.93049134    -6.384723    320.12223  0.031871986  0.032204833            6 
  838000   0.90523281   -6.4208517    319.95781  0.031817602  0.032183833            4 
  839000   0.91325906    -6.391619    319.78233  0.031762249  0.032162687            5 
  840000   0.93235917   -6.3745923    320.54225  0.031799827  0.032141692            5 
  841000   0.91017438   -6.3734766    320.83879  0.031791398  0.032120381            9 
  842000    0.9385086   -6.4068035    320.58689  0.031728711  0.032099232            7 
  843000   0.92289551   -6.3886253    320.54488   0.03168692  0.032077901            6 
  844000   0.92483839   -6.4065258    321.38514   0.03173234  0.032056648            6 
  845000   0.92322906   -6.3965003    320.61458  0.031618795   0.03203573            5 
  846000   0.91353118   -6.3725749    321.96687  0.031714625  0.032014613            4 
  847000    0.9045761   -6.4188453     321.8128  0.031662023  0.031993447            6 
  848000   0.93219872    -6.360623    321.69661  0.031613267  0.031972294            2 
  849000   0.92369507   -6.3873785    322.11845  0.031617437  0.031951125            5 
  850000   0.90056251   -6.3984644    321.79056  0.031548094  0.031929883            4 
  851000    0.9156255   -6.4275483    321.28525   0.03146154  0.031908395            4 
  852000   0.92876829   -6.4090414    321.43865  0.031439617  0.031886848            5 
  853000   0.90147146   -6.4805265    321.39086  0.031398091  0.031865202            4 
  854000   0.91090688   -6.4273014    323.17041  0.031534974  0.031843701            7 
  855000   0.92092095   -6.3877895    322.39956  0.031422959  0.031822416            6 
  856000   0.91848183   -6.3998832    323.09188  0.031453649  0.031801003            3 
  857000   0.91756928   -6.4250832    322.57601  0.031366784  0.031779636            3 
  858000   0.91514065   -6.4625958    321.68071  0.031243271   0.03175805            5 
  859000   0.92452455   -6.4238438    322.83943  0.031319308   0.03173646            6 
  860000   0.90991417   -6.4029489    323.43256  0.031340365  0.031715076            4 
  861000   0.89200485   -6.4025813    324.45074   0.03140251  0.031693731           10 
  862000   0.90671173   -6.3918284    323.81905  0.031305013  0.031672619            9 
  863000   0.92791235   -6.4224453    325.07155  0.031389682  0.031651512            7 
  864000   0.89507996   -6.4036794     325.2334  0.031368962  0.031630466            2 
  865000     0.899352   -6.4314188    324.46237  0.031258417  0.031609509            4 
  866000   0.90002885   -6.4219187    325.22446  0.031295657  0.031588551            4 
  867000   0.92288772   -6.3905709    326.23705  0.031356887  0.031567526            4 
  868000   0.91939529   -6.4490789    324.36552  0.031141083  0.031546303            5 
  869000   0.91562163   -6.4144717    325.39924  0.031204377  0.031524958            5 
  870000   0.91046706    -6.451497     325.1741  0.031146944   0.03150359            7 
  871000   0.91366571   -6.4444309    324.21805  0.031019714  0.031482295            4 
  872000   0.91482742   -6.4136477    325.75837  0.031131343  0.031461119            5 
  873000   0.90321463   -6.4217822    326.97587    0.0312119  0.031440183            4 
  874000   0.90181781   -6.4245245    326.65418  0.031145517  0.031419478            4 
  875000   0.89792157    -6.445544    326.09115    0.0310563  0.031398485            4 
  876000   0.91267286    -6.440413    327.27558  0.031133522  0.031377565            5 
  877000   0.91612788   -6.4173823    326.53094  0.031027265  0.031356751            9 
  878000   0.88786455   -6.4545961    327.01472  0.031037844  0.031335662            4 
  879000   0.88998464   -6.4277361    327.07628  0.031008369  0.031314543           10 
  880000    0.8924337    -6.437751    327.60366  0.031023074  0.031293807            3 
  881000    0.8989836   -6.4524046    327.12061  0.030942169  0.031272885            8 
  882000   0.88540231   -6.4557257     326.9174  0.030887887  0.031252106            4 
  883000   0.89437556   -6.4206858    329.26267  0.031074242  0.031231361            9 
  884000   0.89388105   -6.4377411    327.90829  0.030911415   0.03121082           11 
  885000    0.8920044   -6.4544026     328.5124  0.030933371  0.031190059            4 
  886000   0.90061953    -6.427455    328.92695  0.030937448  0.031169011            3 
  887000   0.90633411    -6.459923    328.49697  0.030862173  0.031148221            3 
  888000   0.91989727    -6.461896    329.18973  0.030892429  0.031127096            5 
  889000   0.87010217   -6.4140487    329.34032  0.030871796  0.031106194            8 
  890000   0.89667712   -6.4208454    329.60836  0.030862206  0.031085537            6 
  891000   0.91960314   -6.4291127    329.52056  0.030819357  0.031064718            5 
  892000   0.88298416   -6.4388771    330.26737  0.030854575  0.031044382            4 
  893000   0.90731766   -6.4698038    329.67472  0.030764718  0.031023848           10 
  894000   0.88964693   -6.4403656    331.15011  0.030867833  0.031003287            2 
  895000   0.90247878   -6.4282441    330.63275  0.030785172  0.030982891            4 
  896000   0.90187089   -6.4633744    329.35737  0.030632196   0.03096228           12 
  897000   0.89341302   -6.4548644    330.03151  0.030660676  0.030941453            5 
  898000   0.87796611   -6.4588835    330.66395  0.030685222  0.030920703            4 
  899000   0.88492032   -6.4337239    330.43646  0.030630001  0.030899931            5 
  900000   0.87791889   -6.4620699    331.41491  0.030686566  0.030879274           11 
  901000   0.89493175   -6.4513655    331.18201  0.030630967  0.030858698            6 
  902000   0.89344145   -6.4775697    332.53858  0.030722337  0.030838427            5 
  903000   0.89684469   -6.5077851    330.91925  0.030538875  0.030817805            4 
  904000   0.89799936   -6.4394816    332.30102  0.030632468  0.030797467            5 
  905000   0.90113664   -6.4936329    331.85917  0.030557934  0.030777134            3 
  906000   0.88437474    -6.469051    331.89612  0.030527605  0.030756834            9 
  907000   0.89959615   -6.4609493    331.79193  0.030484374  0.030736582            3 
  908000   0.88554586   -6.4787235    332.52759  0.030518318  0.030716337           10 
  909000   0.88971857   -6.4831262    332.53023  0.030484986  0.030696061            6 
  910000   0.89588866   -6.4579748     332.4136  0.030440806  0.030675622            3 
  911000    0.8911465   -6.4495093    333.59576  0.030515529  0.030655392            4 
  912000   0.89835495   -6.4540183    333.07893  0.030434844  0.030635164            4 
  913000   0.90941676   -6.4775927    333.75846  0.030463532   0.03061507            7 
  914000   0.88393544   -6.4251279    335.10447  0.030552924  0.030595277            3 
  915000   0.88972343    -6.460445    333.92256  0.030411891  0.030575421            9 
  916000   0.89171475   -6.4855293    334.29369  0.030412454  0.030555493            4 
  917000   0.91156139   -6.4756835    333.54141  0.030310925  0.030535047            6 
  918000   0.89220977   -6.4811959    334.16403  0.030334426  0.030514791            7 
  919000   0.89041755   -6.5099112    333.74493  0.030263414  0.030494164            7 
  920000   0.88293967    -6.478893    333.64512  0.030221479   0.03047377            6 
  921000   0.89113744   -6.4910535    333.21732  0.030149956  0.030452971            4 
  922000   0.88350078   -6.4434203    335.33156  0.030308348  0.030432723            3 
  923000   0.86126748   -6.4919124    334.46429  0.030197209  0.030412319            4 
  924000   0.89730819   -6.4826569    336.12859  0.030314628  0.030392053            6 
  925000   0.88262269   -6.4946694    334.78628  0.030160926  0.030371899            3 
  926000   0.90033791   -6.4957935     335.6692  0.030207811   0.03035162            9 
  927000   0.88465991   -6.4857351    335.77225  0.030184488  0.030331445           10 
  928000    0.8901522   -6.4547656    335.33592   0.03011278   0.03031114            4 
  929000   0.88019837   -6.5130556    334.86762  0.030038358  0.030290828            8 
  930000    0.8923882   -6.5045729    335.76775  0.030086716  0.030270359            3 
  931000   0.88170112   -6.4771095    336.00047   0.03007523  0.030250206            5 
  932000   0.88362139   -6.5025431     334.9243  0.029946736  0.030229619           16 
  933000   0.87111815   -6.4916703    335.53243  0.029968956  0.030208924           10 
  934000   0.87921652   -6.4800613    336.13806  0.029990905   0.03018807            4 
  935000   0.87080085   -6.4744446    335.95671  0.029942666  0.030167057            5 
  936000   0.87740079   -6.4772398    336.03366  0.029917526  0.030146064            8 
  937000   0.87506289   -6.5266571    335.41656  0.029830715  0.030125223           10 
  938000   0.86677155   -6.4970571    335.35085  0.029793075  0.030104548            7 
  939000   0.88111184   -6.4839301    335.71109  0.029793317  0.030083688            6 
  940000   0.88702073    -6.501427    336.80239  0.029858368  0.030062635            5 
  941000   0.87146641   -6.5005871    336.24969  0.029777691  0.030041668           19 
  942000   0.86889506   -6.4598837    336.38001  0.029757608  0.030020992            8 
  943000   0.86955344   -6.5123382    335.95994   0.02968893  0.030000106            8 
  944000   0.87545645   -6.5013217    337.17967  0.029765154   0.02997933            5 
  945000   0.87634133   -6.4197181    338.16322   0.02982039   0.02995868           10 
  946000    0.8976376   -6.4796223      338.165  0.029789024  0.029938411            6 
  947000   0.86853476   -6.5110213    337.40121  0.029690356   0.02991777            5 
  948000   0.88399145   -6.4710053    337.47622  0.029665632   0.02989702            5 
  949000    0.8613894   -6.4979648    336.94157  0.029587423  0.029876094            4 
  950000   0.87715668   -6.5119989    337.56316  0.029610803  0.029855214            5 
  951000    0.8708284   -6.4971703     337.7521  0.029596223  0.029834473            5 
  952000   0.85637478   -6.4813332    337.72494  0.029562757   0.02981371            5 
  953000   0.86253664   -6.4933665    339.06289  0.029648731  0.029792987            5 
  954000   0.86553204    -6.512619    338.39303   0.02955914  0.029772461            5 
  955000   0.86432328   -6.5349302    337.83934  0.029479873  0.029751757            7 
  956000   0.86437892   -6.5352363    339.33323  0.029579257  0.029731183            5 
  957000   0.85729311   -6.5249887    339.25399  0.029541448  0.029710518           13 
  958000   0.86329005    -6.569433    338.20174   0.02941908  0.029689839            5 
  959000   0.85750253    -6.543381    340.05642  0.029549567   0.02966936            4 
  960000   0.89155352   -6.5332318    338.67076  0.029398504  0.029648879            4 
  961000   0.86646656   -6.4859181     340.0464  0.029487201  0.029628441            7 
  962000   0.87128285   -6.4540401    340.38986  0.029486301  0.029608208           10 
  963000   0.86888423   -6.5107968    340.47702  0.029463224  0.029587851            5 
  964000   0.86300597   -6.5370489    339.20252  0.029322486  0.029567274            4 
  965000   0.86872865   -6.5335844     338.9285  0.029268437  0.029546786            6 
  966000   0.86700583   -6.5295127    340.02004  0.029332302  0.029526233            7 
  967000   0.87416266    -6.519639    338.91143  0.029206432  0.029505738            8 
  968000   0.87150946   -6.4836775    340.48416  0.029311652  0.029485442            6 
  969000   0.86608453      -6.4918    341.59579  0.029377003  0.029465269            8 
  970000   0.85662236   -6.5317438    341.02541  0.029297716  0.029444871           12 
  971000    0.8777385   -6.5547638    340.82424  0.029250278  0.029424409            4 
  972000   0.87857297   -6.5232825    341.46168  0.029274836  0.029404152           10 
  973000   0.86118211   -6.5241642    341.59475  0.029256145  0.029384054           12 
  974000   0.87723875   -6.5524355    342.08252   0.02926784  0.029363893            5 
  975000   0.85906841   -6.5368921    341.21882  0.029164002  0.029343644            5 
  976000    0.8505816   -6.5398146    341.94212  0.029195877  0.029323424            4 
  977000    0.8684488   -6.5063724     342.9084  0.029248414  0.029303321            6 
  978000   0.86062689    -6.545927    342.90837  0.029218504  0.029283262            6 
  979000   0.90101746   -6.5427103    341.98842  0.029110352  0.029262988            3 
  980000   0.85177945   -6.5579813    341.65506  0.029052301  0.029242634            6 
  981000   0.87347225   -6.5495878    342.12942  0.029062981  0.029222139            5 
  982000   0.86854127   -6.5438173    341.36511  0.028968526  0.029201663            7 
  983000   0.85603956   -6.5468269    342.58287  0.029042291  0.029181292            4 
  984000   0.86575309   -6.5578229    343.45465  0.029086607  0.029161177            2 
  985000   0.86617445   -6.5148899    343.29659  0.029043705  0.029141077            3 
  986000   0.85135556   -6.5576498    342.26892  0.028927394  0.029121069           14 
  987000   0.86782909   -6.5767695     342.7029  0.028934726  0.029101021            9 
  988000    0.8590686   -6.5633149     343.6311   0.02898373  0.029080809           17 
  989000   0.86470423   -6.5446118    344.25486  0.029006982  0.029060907            5 
  990000   0.85969043   -6.5497913    343.70622    0.0289315  0.029041034            5 
  991000   0.85233361   -6.5687583    342.84836  0.028830168  0.029020762            4 
  992000   0.85621335   -6.5450963     342.7571  0.028793439  0.029000411            7 
  993000   0.86626041   -6.5541037     343.8703  0.028857863  0.028979976            8 
  994000   0.86570514   -6.5104773    344.16129  0.028853226  0.028959634            8 
  995000   0.86182546   -6.5410434    344.86675  0.028883312  0.028939634            3 
  996000   0.86565111   -6.5662568    344.03036  0.028784334   0.02891934            8 
  997000   0.85901563   -6.5561292    343.80865  0.028736932  0.028898969            5 
  998000   0.84541011   -6.5527801    344.56331  0.028771151  0.028878655            9 
  999000   0.85455581   -6.5747518    344.45517  0.028733331  0.028858502            6 
 1000000   0.85872333   -6.5448261    344.80003  0.028733336  0.028838514            6 
 1001000   0.87362885   -6.5827711    344.16535  0.028651794  0.028818194           11 
 1002000   0.86510079    -6.583477    343.99015  0.028608629  0.028797782            9 
 1003000   0.86018762   -6.5442698    343.95608  0.028577275  0.028777494            9 
 1004000   0.85999949   -6.5664712    344.21597  0.028570383  0.028757367            8 
 1005000   0.84589367   -6.5608235    344.83432  0.028593227  0.028737053           10 
 1006000   0.83775454    -6.574506     345.1392   0.02859006   0.02871685            4 
 1007000   0.83762462   -6.5716973    345.21277  0.028567756  0.028696515            5 
 1008000   0.84008115   -6.5830378    345.22815  0.028540687  0.028675858           10 
 1009000   0.86085386   -6.5513752    345.65012  0.028547251  0.028655579            4 
 1010000   0.83428422   -6.5781441    344.93387  0.028459891  0.028635147            6 
 1011000   0.84365219   -6.5734345     345.3263  0.028464086  0.028614684            5 
 1012000   0.84964616   -6.5619116    344.21347  0.028344324  0.028594207            4 
 1013000   0.84471815   -6.5727338    344.95315  0.028377193  0.028573642            4 
 1014000   0.84866754   -6.5660402    345.76295  0.028415758   0.02855319            5 
 1015000   0.85947454   -6.5778463    345.15528  0.028337872  0.028532326            3 
 1016000   0.84685889   -6.5858033    345.44556   0.02833379  0.028511636            6 
 1017000   0.85765637   -6.5733938    346.19553  0.028367382  0.028491194           13 
 1018000   0.86885576   -6.5950729    345.56507  0.028287907   0.02847086            6 
 1019000   0.84961134   -6.5614076    346.45417  0.028332857  0.028450465            4 
 1020000   0.84676972   -6.5857818    346.24554  0.028288035  0.028430009            5 
 1021000   0.84924497   -6.5833429    346.36304  0.028269919  0.028409525            8 
 1022000   0.83905352   -6.5602659    346.59715  0.028261346  0.028388964            8 
 1023000   0.84880354   -6.6001795    346.27826  0.028207743    0.0283684            7 
 1024000   0.83787912   -6.5832165    345.75039  0.028137239  0.028347746            6 
 1025000   0.83411104   -6.5565089      346.927  0.028205447  0.028327267            9 
 1026000   0.86124578   -6.6163571    345.42216  0.028055731  0.028306992           17 
 1027000   0.84244573    -6.587224    347.28516  0.028179581  0.028286598           13 
 1028000   0.84185639   -6.6049437    347.07846  0.028135413  0.028266067            8 
 1029000   0.85262023   -6.5792051    346.74584  0.028081134   0.02824555           17 
 1030000   0.84366843   -6.6360289    346.01532  0.027994767  0.028225132           10 
 1031000   0.84816685   -6.5650958    346.71154  0.028023888  0.028204835            9 
 1032000   0.84699733   -6.6062529    346.81544  0.028005122  0.028184517            5 
 1033000   0.83107907   -6.5986677    347.29622  0.028016797  0.028164147            7 
 1034000   0.83634983   -6.5955601    347.35616  0.027994533   0.02814382            9 
 1035000   0.84732542   -6.5789416    348.02301  0.028021177  0.028123547            5 
 1036000   0.84662196   -6.6075378    348.00517  0.027992694  0.028103281            6 
 1037000   0.85693239   -6.5877549    349.06522  0.028050886  0.028082996           12 
 1038000   0.83060803   -6.5892622    347.93447  0.027933082  0.028062847           10 
 1039000   0.83906999   -6.6233046    347.76047  0.027892241  0.028042604           14 
 1040000   0.84783156    -6.598563    347.29064  0.027827776  0.028022393            5 
 1041000   0.82644313   -6.6056234    347.93738  0.027852816  0.028002125           10 
 1042000   0.83134769   -6.6209252    348.98388  0.027909779  0.027981754            4 
 1043000   0.83894968   -6.5990476    348.07687  0.027810552  0.027961331            9 
 1044000   0.83939843    -6.596273    348.39727  0.027809489  0.027940958            4 
 1045000   0.83178034   -6.5880933    347.66303  0.027724324  0.027920672            6 
 1046000   0.83370485   -6.5982757    348.41309  0.027757576  0.027900212            5 
 1047000   0.83628038   -6.6278926     347.4037  0.027650724  0.027879585            9 
 1048000   0.84042611   -6.5989228    348.16215  0.027684649  0.027859164            5 
 1049000   0.82503769   -6.6124375    348.86972  0.027714467  0.027838705            8 
 1050000   0.83303553    -6.623895    349.03618  0.027701284  0.027818289            8 
 1051000   0.82357184   -6.6150364    348.83755  0.027659178  0.027797934           12 
 1052000   0.82240057   -6.6079543    348.27898  0.027588639  0.027777677            5 
 1053000   0.82421883    -6.593505    349.11937  0.027628947  0.027757091            7 
 1054000   0.83209783    -6.611998    348.52179  0.027555486  0.027736752           17 
 1055000   0.84275555   -6.6174834    349.49611  0.027606328  0.027716371            7 
 1056000   0.82200588   -6.6316355    349.11514  0.027550122  0.027696032           12 
 1057000   0.84453037   -6.6296693    348.72308  0.027493147  0.027675689            8 
 1058000   0.84369544   -6.6207743    349.27866  0.027510921  0.027655206            7 
 1059000   0.82000448   -6.6325385    350.00391  0.027542014   0.02763491            8 
 1060000   0.83772046   -6.6554515    348.49023  0.027397031  0.027614392            5 
 1061000    0.8189488    -6.654363     349.9144  0.027483066  0.027593866            5 
 1062000   0.84249666    -6.673719    349.68753  0.027439386  0.027573382           21 
 1063000   0.83858567   -6.6050353    350.56953  0.027482716  0.027552869           10 
 1064000   0.83575445   -6.6028017    350.06724  0.027417547  0.027532502            8 
 1065000   0.82215636   -6.6295703    350.53045  0.027428048  0.027512241            7 
 1066000   0.82888536   -6.6608031    349.90517  0.027353437  0.027491943            7 
 1067000   0.82463149   -6.6430812    350.17026  0.027348505  0.027471675            6 
 1068000   0.85554918   -6.6432412    351.00482  0.027388017  0.027451366           12 
 1069000   0.84133957   -6.6476171    350.40428  0.027315581  0.027431183            6 
 1070000   0.82026326   -6.6218247    350.66704  0.027310517  0.027410878            5 
 1071000   0.83278248   -6.6399613    350.68324  0.027286278  0.027390503            5 
 1072000   0.81792572   -6.6388291    350.73336   0.02726472  0.027370155            7 
 1073000   0.84631617   -6.6302076    351.09094  0.027267082  0.027349827            5 
 1074000   0.82905286   -6.6364807    350.71252  0.027212331  0.027329673           15 
 1075000   0.82771982   -6.6326534    351.57565  0.027253926  0.027309469            8 
 1076000   0.83211903   -6.6030955    352.65763  0.027312394  0.027289465            7 
 1077000   0.82233812   -6.5962931    352.24541  0.027255138  0.027269853            7 
 1078000   0.81895926   -6.6130045    351.69832  0.027187563  0.027250028            8 
 1079000   0.83362525   -6.6195798    352.68073   0.02723824  0.027230216            8 
 1080000   0.83043905   -6.6619366    351.78552  0.027143945  0.027210524            7 
 1081000   0.81036955   -6.6247289    352.54289   0.02717722  0.027190732            5 
 1082000   0.81827676   -6.6637472    352.20752  0.027126272  0.027170957            6 
 1083000   0.81398229   -6.6308372    352.27035  0.027106059  0.027151222           11 
 1084000   0.82628944   -6.6323909    353.26798  0.027157747  0.027131527            6 
 1085000   0.82976042   -6.6208379     352.5091  0.027074431  0.027111838            7 
 1086000   0.81807427   -6.6446736    352.98714  0.027086183  0.027092078           11 
 1087000   0.82883148   -6.6606345    352.42209  0.027017947  0.027072348            5 
 1088000   0.81822669   -6.6627873    353.13986   0.02704809  0.027052557           12 
 1089000   0.82356053   -6.6862141    352.67253   0.02698749  0.027032711           13 
 1090000   0.82276473   -6.6617197    353.60078  0.027033699  0.027012781            9 
 1091000   0.81007522   -6.6482669    353.64067  0.027011966  0.026992872            4 
 1092000   0.81997391   -6.6736768    353.19734  0.026953399  0.026972967            4 
 1093000   0.84218695   -6.6923992    353.83012  0.026976984  0.026953119           10 
 1094000   0.82325219   -6.6878466    352.80181  0.026873995  0.026933282            9 
 1095000   0.83022302   -6.6743453    351.87699  0.026779071  0.026913356           24 
 1096000   0.80929037   -6.6815654    352.48614  0.026800954  0.026893449            6 
 1097000   0.82227752   -6.6660314     353.6432  0.026864418  0.026873622            9 
 1098000   0.82269791   -6.6742409    353.87383  0.026857455  0.026853971            7 
 1099000   0.81245078   -6.6704945    354.21381  0.026858797  0.026834326            4 
 1100000   0.81347043   -6.6711731    353.31362  0.026766184  0.026814776           11 
 1101000   0.81807632   -6.6503265    353.97117  0.026791642   0.02679522            4 
 1102000   0.79541867   -6.6734284    353.38976  0.026723364  0.026775655            7 
 1103000   0.81426572   -6.6776637     353.2874  0.026691402  0.026755879           11 
 1104000   0.82099535   -6.6699058    354.90847  0.026789588  0.026736219           10 
 1105000   0.79269219   -6.6594713    354.45307  0.026731001  0.026716509           24 
 1106000    0.8069104    -6.649011    354.49685   0.02671013  0.026696815            6 
 1107000   0.81138584   -6.6736189    354.20779  0.026664242  0.026676969            3 
 1108000   0.79917753   -6.6913163     354.3709  0.026652445   0.02665733            5 
 1109000   0.81689102   -6.6623638    354.20908  0.026616252  0.026637757           11 
 1110000   0.79445465   -6.6606543    355.24565  0.026670094  0.026618205            9 
 1111000   0.80311113   -6.6606147    355.20759  0.026643234  0.026598888            7 
 1112000   0.80626264   -6.6667532    357.20277  0.026768793  0.026579683            6 
 1113000   0.80564937   -6.7057994    354.47337  0.026540384  0.026560253            5 
 1114000    0.8017667   -6.6808427    356.36314  0.026657925  0.026540852            7 
 1115000   0.81618561   -6.6967812    355.53805   0.02657235  0.026521363            7 
 1116000   0.79184784    -6.688159    354.87929   0.02649935  0.026501855            6 
 1117000   0.79475867   -6.6540919    356.32157  0.026583227  0.026482464            8 
 1118000   0.81167082   -6.6998483    355.02763  0.026463002  0.026463044           10 
 1119000   0.80949866   -6.6822389    355.85479  0.026500953  0.026443669            5 
 1120000   0.81521547   -6.6806158    356.65796  0.026537051  0.026424342           11 
 1121000   0.80158063   -6.6737187    355.69069  0.026441472  0.026405009           11 
 1122000   0.81106107   -6.6957208    355.60842  0.026411796  0.026385607           10 
 1123000   0.80872505   -6.6849544    356.58427  0.026460691   0.02636633            8 
 1124000   0.80508598   -6.7172481    354.75221   0.02630132  0.026346923            7 
 1125000   0.82612334   -6.7469488    355.79273  0.026355017  0.026327466            9 
 1126000   0.80195038   -6.7330929    356.18411  0.026360577   0.02630789           14 
 1127000   0.79896976   -6.6995664    356.13121  0.026333275  0.026288203           16 
 1128000   0.79118449   -6.7108077    356.48764  0.026336262  0.026268663            5 
 1129000   0.80377182   -6.7137141    355.73054  0.026257052  0.026249166           10 
 1130000   0.80833901    -6.711479    356.23794  0.026271235   0.02622962           10 
 1131000    0.8113572   -6.7340666    355.96747  0.026228078  0.026210041            9 
 1132000   0.78983306    -6.699646    357.63965  0.026328007  0.026190576           12 
 1133000   0.81121656   -6.7251053    356.24289  0.026202037  0.026170932            8 
 1134000   0.80721099   -6.7130235    356.10949  0.026169128  0.026151328           15 
 1135000   0.80803489   -6.6919861    356.77511  0.026194942  0.026131825            5 
 1136000   0.79274201   -6.7017941    356.50931  0.026152385  0.026112296           10 
 1137000   0.80753566   -6.7115187    356.31331  0.026115018  0.026092682            8 
 1138000    0.8105137   -6.6994325    356.28213  0.026089787  0.026073199            7 
 1139000   0.81058999   -6.7198114    355.71868  0.026025657  0.026053633            5 
 1140000   0.80437678   -6.7048886    356.77989  0.026080401  0.026034088            5 
 1141000   0.80601203   -6.7203069    357.01912  0.026075016  0.026014582            4 
 1142000   0.82035275   -6.7123535    356.91824  0.026044822  0.025995115           12 
 1143000   0.79637718   -6.7274582    357.00504  0.026028364  0.025975554            9 
 1144000   0.79822697   -6.7258442    356.59404  0.025975673  0.025956025            4 
 1145000   0.80417283   -6.7343139    356.39348   0.02593839  0.025936431           10 
 1146000   0.79167726    -6.729665    356.32155  0.025910526  0.025916866           13 
 1147000   0.79021152   -6.7258391    357.19525  0.025951413  0.025897278           10 
 1148000   0.79528248   -6.7218296    355.79279  0.025827003   0.02587755           10 
 1149000   0.78185186   -6.7158267    356.88111  0.025883457  0.025857916            9 
 1150000   0.78088134    -6.728169    356.77307  0.025853121  0.025838258           11 
 1151000   0.79369554   -6.7128398     355.9845  0.025773567  0.025818701           15 
 1152000    0.8014865   -6.7555862    355.89151  0.025744467  0.025799031            6 
 1153000   0.77619353   -6.7201382    356.54696  0.025769512   0.02577924            5 
 1154000   0.77220144   -6.7295854    356.86445  0.025770107  0.025759538           12 
 1155000    0.8002293   -6.7408972    356.64783  0.025732167  0.025739817           10 
 1156000   0.78150725    -6.719654    356.56027  0.025703595  0.025720083            3 
 1157000   0.77528945   -6.7269359    358.12343  0.025793967  0.025700573            8 
 1158000   0.77585321   -6.7334785    357.06088  0.025695227  0.025681177            8 
 1159000   0.80311856   -6.7003818    357.54322  0.025707738  0.025661633            9 
 1160000    0.7901186   -6.7162172    357.15135  0.025657425  0.025642117           10 
 1161000   0.79329368   -6.7519617    357.68852  0.025673882   0.02562258           15 
 1162000    0.7856169   -6.7161482    358.67296  0.025722387  0.025603194            4 
 1163000   0.78660794   -6.7373416    357.57891  0.025621877  0.025583782           10 
 1164000   0.78245258   -6.7491678    357.79266  0.025615167  0.025564319            6 
 1165000   0.78373027   -6.7505318    356.98501  0.025535408  0.025544737            7 
 1166000    0.7952935   -6.7553198     357.0516  0.025518268  0.025524919            9 
 1167000   0.78650556   -6.7352678    357.80113  0.025549923    0.0255053            7 
 1168000   0.79600719   -6.7366916     357.9788  0.025540725  0.025485636           20 
 1169000   0.78793154   -6.7916255    356.54323   0.02541654  0.025466096           10 
 1170000   0.78465942   -6.7636112    357.52484  0.025464732  0.025446298           12 
 1171000   0.78282858   -6.7811515    356.96623  0.025403233  0.025426637           10 
 1172000   0.76376696   -6.7451839    357.50751  0.025420044  0.025406999            9 
 1173000   0.76153195   -6.7342968    357.52271  0.025399454  0.025387414            9 
 1174000   0.77892321   -6.7312335    358.51426  0.025448201  0.025367867           11 
 1175000   0.79202793   -6.7369416    359.23063  0.025477349  0.025348435           20 
 1176000   0.80256167   -6.7720693    358.78025   0.02542377  0.025328853           13 
 1177000   0.79461728   -6.7489138    358.40487  0.025375592  0.025309416            7 
 1178000   0.79615605    -6.744228    357.97618  0.025323725  0.025289943           16 
 1179000   0.79787651     -6.74897    358.93989  0.025370363  0.025270451            8 
 1180000   0.77917706   -6.7650088    357.73354  0.025263668  0.025250859           11 
 1181000   0.76343584   -6.7504578    358.22181  0.025276729   0.02523125            9 
 1182000   0.77633832   -6.7470222    357.36798  0.025195148  0.025211622           13 
 1183000   0.77264634   -6.7581708     358.1451  0.025228593   0.02519197           10 
 1184000   0.78898877   -6.7742876    357.69678   0.02517573  0.025172322            8 
 1185000   0.77466152   -6.7453498    357.87755  0.025167198  0.025152764           13 
 1186000   0.78788331    -6.757045    358.51824  0.025190995  0.025133187            8 
 1187000   0.77940997   -6.7922566     357.4649  0.025095823  0.025113641            9 
 1188000   0.77135493   -6.8030515    357.49424  0.025076757  0.025093855           14 
 1189000   0.78923866   -6.7764246    357.25999  0.025039248  0.025074061           11 
 1190000   0.79192553   -6.7547052    358.04765  0.025073365  0.025054403           13 
 1191000   0.77371405   -6.7503213    357.99631   0.02504872  0.025034878           14 
 1192000   0.77638486   -6.7679662    357.79426  0.025013581    0.0250153            4 
 1193000   0.77912185   -6.7643194    358.45602  0.025038839  0.024995683            8 
 1194000   0.77941259    -6.772463    358.70833  0.025035478  0.024976176           10 
 1195000   0.77808071   -6.7615328    359.02037  0.025036288  0.024956704            4 
 1196000   0.77161579   -6.7688598    357.62274  0.024917973  0.024937108            4 
 1197000   0.78848548   -6.7656935    357.15617  0.024864674   0.02491743            7 
 1198000   0.77127102   -6.7888928     357.2264  0.024848803  0.024897821           31 
 1199000   0.78413316   -6.7573046    359.05552  0.024955207  0.024878349            6 
 1200000    0.7740084   -6.7744232    358.30984  0.024882628  0.024858782            7 
 1201000   0.78762808   -6.7657353    359.10469  0.024917061  0.024839175           13 
 1202000   0.77609062   -6.7853738    359.74677  0.024940847  0.024819657            5 
 1203000   0.76761126   -6.8013685     357.8265  0.024787095  0.024800166           12 
 1204000    0.7779488   -6.7978629    358.89192  0.024840249  0.024780643            9 
 1205000   0.79047004   -6.7738196    358.63506  0.024801871  0.024761186           15 
 1206000   0.75778173   -6.7678476    358.33476  0.024760556   0.02474179           11 
 1207000    0.7541097   -6.7939063    358.36183   0.02474191  0.024722417           15 
 1208000   0.76789697   -6.7910563    358.83631   0.02475416  0.024702944           13 
 1209000   0.78683448   -6.8045144    358.37853  0.024702132  0.024683369            7 
 1210000    0.7764595   -6.7898273    359.53006  0.024761023  0.024663928            8 
 1211000   0.78298613   -6.7972373    358.95666  0.024701119  0.024644487           13 
 1212000   0.78054694   -6.7810461    360.05409  0.024756194  0.024625155           16 
 1213000   0.75809726   -6.7670784    358.91305  0.024657396  0.024605851            7 
 1214000   0.77145517   -6.7560494    360.09884  0.024718482   0.02458669            8 
 1215000   0.75783186   -6.7749138    361.21941  0.024774994  0.024567577           11 
 1216000   0.75873229   -6.7954297    359.31002  0.024623768  0.024548212            6 
 1217000   0.76858024   -6.8089012    359.46299  0.024614009  0.024528808           21 
 1218000   0.78538173   -6.8123902    359.16046  0.024573102  0.024509583           17 
 1219000   0.77971996   -6.7785305    359.50868  0.024576749   0.02449035           30 
 1220000   0.77663446   -6.8126358    359.46318  0.024553496   0.02447119           15 
 1221000   0.76058329   -6.7470921    360.30981  0.024591169  0.024451948            7 
 1222000   0.74475271   -6.8355983    358.88746   0.02447405  0.024432591           15 
 1223000   0.78055442   -6.8028639    360.02689  0.024531677  0.024413217           27 
 1224000   0.75775619   -6.7973506    358.60787  0.024415024  0.024393878           14 
 1225000   0.75883591   -6.8012276    359.85691  0.024480062  0.024374586           12 
 1226000   0.76660527   -6.8231507    360.01853   0.02447108  0.024355259           16 
 1227000   0.77303092   -6.7928285    359.32698  0.024404169    0.0243359           11 
 1228000   0.76974156   -6.8009667    359.03017  0.024364154  0.024316759            9 
 1229000   0.75396976   -6.8262423    359.80349  0.024396765  0.024297432           12 
 1230000   0.76185766   -6.8048385    360.16703   0.02440156  0.024278129           15 
 1231000   0.76641705   -6.7900833    360.20719  0.024384457  0.024258922            8 
 1232000   0.75758824   -6.8509486    359.68663  0.024329453  0.024239589            7 
 1233000   0.78276054   -6.8236564    359.52369  0.024298708  0.024220257            9 
 1234000   0.77333318   -6.8340148    359.08756  0.024249565  0.024201037           13 
 1235000   0.76271732   -6.8236722    360.42419   0.02432012  0.024181757           19 
 1236000   0.75393196   -6.7950717    360.67714  0.024317499  0.024162519           38 
 1237000   0.75606187   -6.8319786     360.9146  0.024313837  0.024143287            9 
 1238000    0.7586823   -6.7954357    360.68039  0.024278433   0.02412409            9 
 1239000   0.75140697   -6.8393499    360.44597  0.024243071  0.024105014            9 
 1240000   0.75974869     -6.80048    360.92099  0.024255443   0.02408579            5 
 1241000   0.75875316   -6.8497248    360.53402  0.024209913  0.024066704           19 
 1242000   0.74749188   -6.8348067    361.31577  0.024242873   0.02404771           19 
 1243000   0.74560922   -6.8357963     360.6512  0.024178815  0.024028613           15 
 1244000   0.76717873   -6.8467195     361.1699  0.024194125  0.024009523           10 
 1245000   0.73665793   -6.8504365    360.21033  0.024110464  0.023990429           18 
 1246000   0.76321599   -6.8503523    360.93336   0.02413947  0.023971341            9 
 1247000   0.75035362   -6.8019646    360.77739  0.024109689  0.023952433           12 
 1248000   0.76609286   -6.8331392    360.91689  0.024099685  0.023933411            7 
 1249000   0.75091326   -6.8109209    360.23617  0.024034972  0.023914466            8 
 1250000     0.761357   -6.8010072    361.35023  0.024090015  0.023895648           16 
 1251000     0.759285   -6.8489246    361.47082  0.024078791  0.023876791           13 
 1252000   0.75713666   -6.8256887    361.85292  0.024084992  0.023857991            7 
 1253000   0.74070297   -6.8476927    361.34989  0.024032315  0.023839169           11 
 1254000   0.75345407   -6.8395492    361.12353  0.023998108  0.023820262           12 
 1255000   0.76088521   -6.8166346    361.59567  0.024010337  0.023801441           12 
 1256000     0.762465   -6.8211726    361.61439  0.023992462  0.023782715           16 
 1257000   0.74964704   -6.8475525    360.88834  0.023925241  0.023763951           19 
 1258000   0.75741644   -6.8612111    361.57281  0.023951564   0.02374515           15 
 1259000   0.74011885   -6.8387119    362.11968  0.023968737  0.023726452           16 
 1260000    0.7415235   -6.8313551    362.29487  0.023961301  0.023707691            8 
 1261000   0.76286475   -6.8492769    361.31628  0.023877629  0.023688922            8 
 1262000   0.75877368   -6.8432952    361.43171   0.02386633  0.023670024           21 
 1263000   0.74952244   -6.8871158    360.85107  0.023809123  0.023650964           23 
 1264000   0.73350644    -6.856874    361.30016  0.023819895  0.023631983           11 
 1265000   0.74180637   -6.8732149    361.77217  0.023832159  0.023613077            6 
 1266000   0.75415247   -6.8792136    360.38786  0.023722213  0.023594131           15 
 1267000   0.72176227   -6.8630788    361.73032  0.023791786  0.023575236           15 
 1268000   0.73795601   -6.8641446    361.16954  0.023736168  0.023556377            7 
 1269000   0.75023026   -6.8872177    360.61141  0.023680812  0.023537581           29 
 1270000   0.75923334   -6.8324155    362.45294  0.023783002   0.02351877           12 
 1271000   0.72405917   -6.8352041    362.26904  0.023752232  0.023499968            4 
 1272000   0.73640142   -6.8659929    361.24809  0.023666673  0.023481105           18 
 1273000   0.72736635   -6.8571779    361.48852  0.023663821  0.023462232           32 
 1274000   0.74218412   -6.8878677    361.29201  0.023632392  0.023443449           11 
 1275000   0.74010483   -6.8553458    361.20061  0.023607883  0.023424751           17 
 1276000   0.76207295   -6.8321656     360.6339  0.023552371  0.023406038           11 
 1277000   0.75024781   -6.8870841    361.01508  0.023558802  0.023387281            8 
 1278000   0.74083263   -6.8447882    362.17861  0.023616237   0.02336854            8 
 1279000   0.74844279   -6.8716592    361.14966  0.023530731  0.023349774           11 
 1280000   0.76150324   -6.8600868    361.22463  0.023517228  0.023331043           24 
 1281000   0.75254829   -6.8776825    361.55942  0.023520649  0.023312249           15 
 1282000   0.75045384   -6.8993159     360.8884  0.023458684  0.023293405           10 
 1283000   0.75503354   -6.8963313    361.88035  0.023504829  0.023274556            8 
 1284000   0.73135278   -6.8962152    361.53512  0.023464117  0.023255724           19 
 1285000   0.73472512   -6.8799959     361.9441   0.02347238  0.023236858           29 
 1286000   0.75376053   -6.8940638    361.19386  0.023405512  0.023218092           24 
 1287000   0.73311012   -6.8793835    361.83926  0.023429115  0.023199402           25 
 1288000   0.73191941   -6.8591018    362.18441  0.023433256  0.023180823           10 
 1289000   0.73853078   -6.8876425    362.35274   0.02342596  0.023162184           23 
 1290000   0.73680434   -6.8886693    361.92367  0.023380082  0.023143568           12 
 1291000   0.71541504   -6.8969911    361.02252  0.023303803  0.023124937            7 
 1292000   0.71717673   -6.9026015    361.61831  0.023324195  0.023106175           13 
 1293000   0.72983217    -6.914292    361.51993  0.023299815    0.0230875            8 
 1294000   0.70819776   -6.9127461    361.97169  0.023310902  0.023068804           21 
 1295000    0.7325027   -6.8817582    362.35122  0.023317324  0.023050212            7 
 1296000   0.72525864   -6.8657021    361.92156  0.023271705  0.023031627           13 
 1297000   0.72889696   -6.8832559    361.83185  0.023247999  0.023013031            8 
 1298000   0.72928218   -6.9095342    362.34764  0.023263202  0.022994406           20 
 1299000   0.75378207   -6.8767087    362.56558  0.023259275  0.022975914           12 
 1300000   0.73375037   -6.8897942    362.26264  0.023221964  0.022957398           15 
 1301000   0.74410281   -6.8915061    362.89772  0.023244794  0.022939025           31 
 1302000   0.73027775    -6.910174    362.15407  0.023179344  0.022920585           26 
 1303000   0.74432158   -6.8863796    362.32738  0.023172639  0.022902136           19 
 1304000   0.73385873   -6.8622027    362.74639  0.023181646  0.022883704           11 
 1305000   0.73701814   -6.8394997     362.8067  0.023167733  0.022865421           11 
 1306000   0.72174284   -6.8932946    363.53815  0.023196666  0.022847067            8 
 1307000   0.71662398   -6.8692017    362.61512  0.023120066  0.022828742           17 
 1308000   0.74402081   -6.9068797    362.91208   0.02312131  0.022810331            8 
 1309000    0.7295683    -6.868264    363.24678  0.023124954  0.022791933           14 
 1310000   0.73365658   -6.9084389    361.60308   0.02300274   0.02277346           13 
 1311000   0.72817915   -6.9132208    361.66537  0.022989154  0.022754924           17 
 1312000   0.73074661   -6.9257844    362.16992  0.023003679  0.022736387           11 
 1313000   0.72570112    -6.911591    362.64279  0.023016171  0.022717942           10 
 1314000    0.7283856    -6.899847    362.76927  0.023006676  0.022699523           14 
 1315000   0.71507974   -6.9049325    362.21564  0.022954096  0.022681123           13 
 1316000   0.73113296   -6.9302884    362.63157  0.022962992  0.022662662           39 
 1317000   0.73946804   -6.9218591    361.69551  0.022886327  0.022644251           24 
 1318000   0.74146669    -6.938441    361.24998  0.022840793  0.022625692           21 
 1319000   0.71320989   -6.9207716    363.22482  0.022948245  0.022607214           13 
 1320000   0.72396305    -6.891208     363.2566  0.022932866  0.022588831           18 
 1321000   0.72557993   -6.9099693    362.38314  0.022860405  0.022570515           28 
 1322000    0.7180201   -6.9097062    362.12264  0.022826692  0.022552141           14 
 1323000   0.73106527   -6.9243693    362.03159  0.022803703  0.022533803           14 
 1324000   0.74687691    -6.923262     362.2351  0.022799289  0.022515484           23 
 1325000   0.71920216    -6.923898     362.0035  0.022767516  0.022497093           13 
 1326000   0.73939488   -6.9277023     362.1906  0.022762104  0.022478708           13 
 1327000   0.73505016   -6.9457668    361.85744  0.022724029  0.022460304           12 
 1328000    0.7358929   -6.9442119    362.74997  0.022762925   0.02244194           10 
 1329000    0.7136539   -6.9374367     361.7176  0.022681064   0.02242363           32 
 1330000   0.72345534   -6.9357658    362.07083  0.022686142  0.022405263           15 
 1331000   0.71119554   -6.9510249    362.48383  0.022694955  0.022386958           36 
 1332000   0.72876516   -6.9211213    363.72508  0.022755573  0.022368737           15 
 1333000   0.71952819    -6.941895    362.04266  0.022633324  0.022350588           18 
 1334000   0.72558083   -6.9139372    363.76579     0.022724   0.02233242           14 
 1335000   0.72461413   -6.9050714     363.3999  0.022684139  0.022314286           30 
 1336000   0.73445001   -6.9405982    363.43715  0.022669483  0.022296174           16 
 1337000   0.72014512   -6.9370907    362.99177  0.022624768  0.022278039           13 
 1338000   0.71095099   -6.9448959    363.39713  0.022633105  0.022259881           21 
 1339000   0.71165852   -6.9256407    363.33466  0.022612314  0.022241791           16 
 1340000   0.72706627   -6.9130073    361.97439  0.022510845  0.022223573           33 
 1341000   0.71857073    -6.960557    362.75894  0.022542813  0.022205373           26 
 1342000   0.72074047   -6.9382876    363.61633  0.022579255  0.022187176           12 
 1343000   0.70819734   -6.9560928    362.59035  0.022498781  0.022168975           18 
 1344000   0.70285744    -6.937483    363.12781  0.022515365  0.022150863           15 
 1345000    0.7233697   -6.9464453    362.77945  0.022477042  0.022132669           32 
 1346000   0.72115942   -6.9714289    363.79475  0.022523202  0.022114648           11 
 1347000   0.71635178   -6.9259834    363.49196  0.022487748  0.022096643            7 
 1348000   0.71507443   -6.9521557    362.31025  0.022398012  0.022078591           12 
 1349000   0.72044047   -6.9526657    362.57745  0.022397915  0.022060559           19 
 1350000    0.7030978   -6.9402049     363.3247   0.02242745  0.022042497           11 
 1351000   0.72062939   -6.9707195    363.50611   0.02242204  0.022024496           22 
 1352000   0.73569686   -6.9728123    362.96908  0.022372354  0.022006505           40 
 1353000   0.71197083   -6.9250872    363.47213  0.022386803  0.021988598           14 
 1354000   0.72639958   -6.9666904    363.30462   0.02235996  0.021970634           16 
 1355000    0.7182231   -6.9644206    363.34721  0.022346077  0.021952651           24 
 1356000    0.7155757    -6.955658    363.42704  0.022334503  0.021934762           17 
 1357000   0.73264691   -6.9667202    362.60302  0.022267441  0.021916921           26 
 1358000   0.71323569    -6.976996    363.13213  0.022283513  0.021899023           28 
 1359000   0.73034659   -6.9504563    363.55533  0.022293066  0.021881237           12 
 1360000   0.71055846    -6.968195    363.30886  0.022261572  0.021863442           21 
 1361000   0.73654348   -6.9455839    364.02808  0.022289253  0.021845628           12 
 1362000   0.71950831   -6.9658075    363.01418  0.022210853  0.021827781           16 
 1363000   0.72434366   -6.9783929    363.56148  0.022228019   0.02180994           30 
 1364000   0.69979025   -6.9896771     362.8982    0.0221712  0.021792147           25 
 1365000   0.71843176   -6.9385957     363.1311  0.022169176  0.021774463           14 
 1366000   0.70505177   -6.9388547    364.00048  0.022205984  0.021756746           30 
 1367000   0.71048509   -6.9557123    363.36288   0.02215087   0.02173908           11 
 1368000   0.71387145   -7.0025391    363.60151  0.022149215  0.021721352           36 
 1369000   0.70000362   -6.9810975    363.52362  0.022128294   0.02170366           48 
 1370000   0.70873912   -6.9793801    363.76395  0.022126761  0.021685865           16 
 1371000   0.72513783   -6.9600728    362.82475  0.022053534  0.021668197           35 
 1372000    0.7005716   -6.9594257    364.79459  0.022157106  0.021650528           23 
 1373000   0.70829337   -6.9741919    363.75985  0.022078165  0.021632917           23 
 1374000   0.70487017   -6.9885809     363.6871  0.022057685  0.021615283           17 
 1375000   0.69557712   -7.0033707    363.28459  0.022017248   0.02159759           12 
 1376000   0.71989451   -6.9856078    362.65516  0.021963127  0.021579946           65 
 1377000   0.68591565   -6.9894728    364.08173  0.022033511  0.021562297           24 
 1378000   0.70835474   -6.9617823     364.1431  0.022021232  0.021544749           23 
 1379000   0.69707715   -6.9960659    363.01916  0.021937343  0.021527221           52 
 1380000   0.68877925   -6.9858403    363.14662  0.021929144  0.021509518           38 
 1381000   0.68652217    -6.985958    363.67382  0.021945077  0.021491909           24 
 1382000    0.6826812   -6.9855021    363.91034   0.02194346  0.021474333           19 
 1383000   0.69823918   -6.9825609    363.47477  0.021901348  0.021456817           21 
 1384000   0.70036643   -6.9712405    363.14843  0.021865874  0.021439383           28 
 1385000   0.68415251   -6.9975764    364.46025  0.021929016  0.021421849           40 
 1386000   0.69228284   -6.9828518    363.01693  0.021826415  0.021404355           39 
 1387000   0.71621404    -6.988786    363.23229  0.021823618  0.021386866           38 
 1388000   0.69966721   -7.0039428    363.51233  0.021824708  0.021369341           55 
 1389000    0.6992654   -6.9949415    363.98729   0.02183749  0.021351907           61 
 1390000   0.69536339   -6.9782049    365.25246  0.021897629  0.021334507           34 
 1391000   0.70783702   -6.9894684    363.52602  0.021778458  0.021317106           34 
 1392000   0.69200198   -7.0151212    363.55815  0.021764736  0.021299622           49 
 1393000   0.69703515   -7.0004182    362.98264  0.021714683  0.021282101          102 
 1394000   0.70046912   -7.0122545    363.55596  0.021733378  0.021264594           44 
 1395000   0.69845153    -7.021113     363.7779  0.021731058  0.021247115           49 
 1396000   0.69666744   -7.0216413    363.84887  0.021719727  0.021229642           68 
 1397000    0.7002407   -7.0060404     363.6019  0.021689448  0.021212183           37 
 1398000    0.6883981   -7.0261175    364.14575  0.021706351  0.021194707           74 
 1399000   0.69246705   -7.0268175    364.32176   0.02170132  0.021177251           61 
 1400000   0.69988295   -7.0033651    364.20112  0.021678638  0.021159848           33 
 1401000   0.69867844   -7.0242299     363.3514  0.021612622  0.021142479           15 
 1402000   0.70105931    -7.029397    364.03431  0.021637798  0.021125152           32 
 1403000   0.67496849   -7.0372006    362.79108  0.021548532  0.021107741           42 
 1404000    0.6960662   -7.0156131    362.80768  0.021534169  0.021090302           39 
 1405000   0.70395543   -7.0465853    363.52935  0.021561646  0.021072871           43 
 1406000   0.70346155   -7.0501187    362.77718  0.021501729  0.021055393           27 
 1407000   0.70057822   -7.0339689    362.96163  0.021497372   0.02103793           62 
 1408000   0.68703786   -7.0126072    363.73926  0.021528129  0.021020541           53 
 1409000   0.67971733   -7.0191636    363.75138  0.021513566  0.021003171           69 
 1410000   0.69416072   -7.0661864    364.07184  0.021517248  0.020985846           51 
 1411000   0.69240225   -7.0527452    362.86137  0.021430508  0.020968542           32 
 1412000   0.69578893    -7.039325    363.97169   0.02148086  0.020951241           24 
 1413000   0.69592126    -7.040524     363.7907  0.021454984  0.020933955           70 
 1414000   0.69696831   -7.0136676    364.24144  0.021466375  0.020916773           26 
 1415000    0.6912837   -7.0208785     363.9932  0.021436584  0.020899529           70 
 1416000    0.6797444   -7.0179435    364.27767  0.021438187  0.020882264           52 
 1417000   0.68752393   -7.0334555     364.1537  0.021415767  0.020865035           50 
 1418000   0.69160698     -7.03743    363.82236  0.021381192  0.020847803           56 
 1419000    0.6851318   -7.0361521    364.35442   0.02139737  0.020830652           51 
 1420000   0.69368988   -7.0265832    363.68137  0.021342803  0.020813484           13 
 1421000   0.69698148   -7.0338241    363.78526  0.021333876  0.020796322           31 
 1422000   0.68829338   -7.0197431    363.91097  0.021326241  0.020779221           80 
 1423000   0.67577128   -7.0191776    363.72069  0.021300111  0.020762141           65 
 1424000   0.67789493   -7.0389393    363.24161  0.021257117  0.020745049           81 
 1425000   0.68401725   -7.0056954    364.83016  0.021335097  0.020727955           31 
 1426000   0.68874626   -7.0313388    364.85058  0.021321329  0.020710992           45 
 1427000   0.66575712   -7.0078085    364.33737  0.021276417  0.020693941           62 
 1428000   0.69349569   -7.0413276    363.35547  0.021204218  0.020676916           56 
 1429000   0.68086997   -7.0268453    365.16053  0.021294642  0.020659913           54 
 1430000   0.68543438    -7.034102    363.86355   0.02120417  0.020642879           45 
 1431000    0.6758477   -7.0154989    364.92896  0.021251395  0.020625876           28 
 1432000   0.67751442   -7.0437306    363.22547  0.021137422  0.020608867           29 
 1433000   0.69888121    -7.048733    364.24679  0.021182065  0.020591858           25 
 1434000   0.68663402   -7.0474428    363.57794  0.021128425  0.020574848           39 
 1435000   0.69042502   -7.0606204    363.92897  0.021134087  0.020557793           38 
 1436000   0.68376245   -7.0510135    364.32929    0.0211426  0.020540799           70 
 1437000   0.68256561   -7.0769627    364.16242   0.02111821  0.020523743           79 
 1438000   0.66290993   -7.0727562    364.22136   0.02110694  0.020506766           28 
 1439000   0.67521386   -7.0801556    364.05918  0.021082881  0.020489787           42 
 1440000   0.67751185   -7.0739558    363.89936  0.021058991  0.020472822           69 
 1441000   0.66608596   -7.0758043    364.26136  0.021065311  0.020455812           89 
 1442000   0.68733225   -7.0770735    363.81237  0.021024755  0.020438765           63 
 1443000   0.67701168   -7.0790221    362.80617  0.020952077  0.020421744           65 
 1444000   0.67871307   -7.0959343    362.95002  0.020945869  0.020404715          146 
 1445000   0.67827301    -7.087828    362.96414  0.020932188  0.020387676           82 
 1446000   0.68201912   -7.0977715     362.6494  0.020899573  0.020370662           85 
 1447000   0.67091465    -7.110972    362.80358   0.02089401  0.020353628          109 
 1448000   0.68124473   -7.0797177    364.10762  0.020954628  0.020336638           63 
 1449000   0.67883063   -7.0825884    363.43116  0.020901263  0.020319645           75 
 1450000      0.65633     -7.09854    363.55886  0.020894187  0.020302676           82 
 1451000   0.66207773   -7.0876459    362.84256  0.020838649   0.02028561           69 
 1452000   0.68494943   -7.1104239    362.91037  0.020828189  0.020268642           61 
 1453000   0.65010333    -7.063494    363.39476  0.020841636  0.020251681          108 
 1454000   0.66531212   -7.0901183    363.65013  0.020841937  0.020234723           92 
 1455000   0.67054828   -7.1066201    364.07425  0.020851904  0.020217709          111 
 1456000   0.67145439   -7.0771847    363.47115  0.020803065  0.020200793          124 
 1457000   0.66712944   -7.0916647    362.82468  0.020751812   0.02018388          108 
 1458000   0.66004376   -7.0582819    364.45846  0.020830959  0.020167024           49 
 1459000   0.68582217    -7.082295    363.27465  0.020749066   0.02015027           91 
 1460000   0.68068399   -7.0746501    363.74941  0.020761953  0.020133506           78 
 1461000   0.67034735   -7.0725904    364.34081  0.020781475   0.02011678           77 
 1462000   0.67560236   -7.0991404      363.288   0.02070725   0.02009999           76 
 1463000   0.69063417      -7.0885    363.49326  0.020704788  0.020083127           66 
 1464000   0.67213748   -7.0617503    363.16002  0.020671677  0.020066311           53 
 1465000    0.6619775   -7.0881988    363.16486  0.020657842  0.020049549           77 
 1466000   0.66482082   -7.0968604    363.30511  0.020651723   0.02003279           24 
 1467000   0.66289076   -7.0509959    364.52864  0.020707148  0.020016043           40 
 1468000   0.66391779   -7.0910354    362.82304  0.020596222  0.019999333           74 
 1469000   0.67594538   -7.0849886    364.16747  0.020658468   0.01998262           77 
 1470000   0.66829755   -7.1016823    364.08618  0.020639806  0.019965865           84 
 1471000   0.66702075   -7.1197306     362.5001  0.020535922  0.019949134          114 
 1472000   0.65718316   -7.1053371    363.52381  0.020579926  0.019932332          174 
 1473000   0.65425242   -7.1002833    363.38992   0.02055838   0.01991555           55 
 1474000   0.65832406   -7.1285849    362.64727  0.020502446  0.019898785           63 
 1475000   0.66091515   -7.1121439    363.35622    0.0205286  0.019882073           65 
 1476000    0.6679494   -7.0925498      363.123  0.020501525  0.019865408           71 
 1477000   0.66760261   -7.1112316    363.05782  0.020483966  0.019848807          109 
 1478000   0.65946348   -7.0922895    364.29598  0.020539917  0.019832209           69 
 1479000   0.64878583   -7.1001535    364.08819  0.020514322  0.019815575           96 
 1480000   0.66721835   -7.1044366    363.72529  0.020480027  0.019798949           86 
 1481000   0.67409252   -7.1219644    363.78252   0.02046942  0.019782342           69 
 1482000   0.67144229   -7.1095391    362.96479  0.020409626  0.019765754           38 
 1483000   0.66317754   -7.1179237    363.47669  0.020424628  0.019749151           66 
 1484000   0.64928418   -7.0852326    363.37367  0.020405081  0.019732581           68 
 1485000   0.65943817   -7.1176849     364.3589  0.020446627  0.019716029           41 
 1486000   0.65539991    -7.144872    362.86644  0.020349172  0.019699472           79 
 1487000   0.66580401   -7.0890378    362.59364  0.020320199  0.019682956           38 
 1488000   0.64809342   -7.1032998    363.35783  0.020349341  0.019666413           67 
 1489000   0.66255634   -7.1216328    363.50129  0.020343703  0.019649822           60 
 1490000   0.66467783    -7.113186    362.94443  0.020298906  0.019633282           49 
 1491000   0.65489365   -7.0867005    362.20042  0.020243708   0.01961672           65 
 1492000   0.66225101   -7.0986251    363.15862  0.020283658  0.019600188           57 
 1493000   0.66025818   -7.1202077    362.85611  0.020253188  0.019583647           71 
 1494000   0.65390121    -7.123643    362.60406  0.020225572  0.019567072           73 
 1495000   0.65532175   -7.1200233    362.77852  0.020221768  0.019550562           55 
 1496000   0.66093918   -7.1486618    362.42057  0.020188312  0.019534044           75 
 1497000    0.6588131   -7.1463383     362.9074  0.020201926  0.019517482          109 
 1498000   0.66296782   -7.1330636    363.05058  0.020196405  0.019501012           55 
 1499000   0.65260678   -7.1263523    361.95413  0.020121977  0.019484557           59 
 1500000   0.66428794   -7.1065421    363.78413  0.020210229  0.019468208           57 
 1501000   0.65726769   -7.1279687    363.33052  0.020171581  0.019451822           67 
 1502000    0.6512767   -7.0936023    363.51092   0.02016816  0.019435487           73 
 1503000   0.66240074   -7.1471375    363.34733  0.020145671  0.019419147          177 
 1504000   0.63642903   -7.1141974     363.1007  0.020118611   0.01940278          105 
 1505000   0.66461047   -7.1457246    362.64557  0.020080043  0.019386423           92 
 1506000   0.66461074   -7.1134884    364.04566  0.020144182  0.019370115          108 
 1507000   0.64711989   -7.1254076    363.57145  0.020104593  0.019353815           65 
 1508000   0.64535341   -7.1473923    363.01036  0.020060254  0.019337516           68 
 1509000   0.66591435   -7.1399043    363.01569  0.020047255  0.019321212           82 
 1510000    0.6628893   -7.1487754    363.20052  0.020044179  0.019304915           80 
 1511000   0.65236298   -7.1318387    362.79338  0.020008459  0.019288654          208 
 1512000   0.64990251   -7.1485125    362.40849  0.019974013  0.019272393           75 
 1513000   0.62979095   -7.1413608    364.06796  0.020052212  0.019256155           88 
 1514000   0.65424801   -7.1436432    363.42321  0.020003479  0.019239909          101 
 1515000   0.64755747   -7.1401919    363.02649  0.019968454   0.01922376          162 
 1516000   0.65079565   -7.1199493     364.2326  0.020021581  0.019207649           95 
 1517000    0.6461955   -7.1391201    363.17311  0.019950182  0.019191466          201 
 1518000   0.66035745   -7.1392322    363.06828  0.019931285  0.019175329          216 
 1519000   0.66751802   -7.1557511      362.968  0.019912662  0.019159167          232 
 1520000   0.63805196   -7.1563007    362.71983  0.019885956  0.019143058          130 
 1521000   0.64377267   -7.1514493     363.6547  0.019924102  0.019126999          146 
 1522000   0.64500515   -7.1597216    362.75399  0.019861695   0.01911091          130 
 1523000   0.64714153   -7.1479997    363.09836  0.019867496   0.01909488          246 
 1524000   0.64586316   -7.1680434    363.44318  0.019873315  0.019078826           85 
 1525000   0.66214521   -7.1517033    362.98641  0.019835323   0.01906275          213 
 1526000   0.65030694   -7.1615921    362.93184  0.019819345  0.019046678          117 
 1527000   0.65665418   -7.1716766    363.00632   0.01981043    0.0190306          136 
 1528000   0.63951273     -7.15616    363.56339  0.019827846  0.019014571          151 
 1529000   0.64847111   -7.1830658    363.49063  0.019810913  0.018998543          112 
 1530000   0.64055548   -7.1807775    362.79055  0.019759834   0.01898251          199 
 1531000    0.6443932    -7.156242    362.73051  0.019743659  0.018966483          194 
 1532000   0.63328327   -7.1667683    363.42753  0.019768686  0.018950466          198 
 1533000   0.63511672   -7.1742489    362.70686  0.019716616  0.018934423          131 
 1534000   0.65422082   -7.1554249    362.99897  0.019719631  0.018918407           74 
 1535000    0.6384996   -7.1656915    362.84377  0.019698359  0.018902444           40 
 1536000    0.6377687   -7.1706032    363.27206  0.019708771    0.0188865          173 
 1537000   0.64428791   -7.1658987    363.44758  0.019705464  0.018870524          117 
 1538000    0.6296183   -7.1961067    362.86726  0.019661208  0.018854613          109 
 1539000   0.63606153   -7.1954833    362.59672  0.019633784  0.018838708          110 
 1540000   0.65350722   -7.1885963    362.91842  0.019638443  0.018822754          171 
 1541000   0.63234499   -7.1691964    362.60483  0.019608741  0.018806838          177 
 1542000   0.63621224   -7.1870244    362.70796  0.019601597  0.018790888          159 
 1543000   0.64127581   -7.1987911    362.16512  0.019559577  0.018774955          256 
 1544000   0.63937072   -7.1877214    363.12196  0.019598552  0.018759045          100 
 1545000   0.63785439   -7.2014293    362.27892  0.019540395   0.01874312           76 
 1546000   0.64589756   -7.1990753    362.06805  0.019516389  0.018727217          129 
 1547000   0.63395289    -7.208127    362.06049  0.019503366  0.018711332           95 
 1548000   0.64048251   -7.1998739    362.00912  0.019488002  0.018695453          201 
 1549000   0.62482076   -7.2039788    363.11129  0.019534715   0.01867957          110 
 1550000   0.64525313   -7.1793404    363.00075  0.019516169  0.018663745          163 
 1551000   0.63339604   -7.1827276    361.74591  0.019436166  0.018647974           89 
 1552000    0.6168596   -7.2023596    361.78759   0.01942588   0.01863218           83 
 1553000   0.64278108   -7.1941854    361.56251  0.019401294  0.018616363          159 
 1554000   0.63665657   -7.2013602    362.74867  0.019452417  0.018600564          142 
 1555000   0.64132111   -7.2069968    362.62423  0.019433238  0.018584786          211 
 1556000   0.64472191   -7.2314425    361.74364  0.019373588     0.018569          257 
 1557000    0.6458453   -7.2018277    362.65426  0.019409883  0.018553261           95 
 1558000   0.63310865    -7.234676    363.09398  0.019420944    0.0185376           64 
 1559000    0.6342571    -7.185647    362.81491   0.01939357  0.018521915          111 
 1560000   0.63062957   -7.2233302    362.75407  0.019377888  0.018506195           62 
 1561000   0.63001394   -7.1813569    362.82054  0.019369023  0.018490501          226 
 1562000   0.61597097   -7.1987275    362.32878  0.019330388  0.018474858          131 
 1563000   0.64880856   -7.2293013    363.46278  0.019378481  0.018459211          173 
 1564000   0.62630363   -7.2130664    362.13957  0.019295587   0.01844357          150 
 1565000   0.63931891   -7.2185573    362.25808  0.019289568  0.018427904          140 
 1566000    0.6282036    -7.218929     362.6166  0.019296328  0.018412264          120 
 1567000   0.63483496   -7.2328117    362.29647  0.019266989  0.018396574          265 
 1568000   0.63233347   -7.2315181    362.14378  0.019246587  0.018380916          242 
 1569000   0.64076679   -7.2395876     362.2365  0.019239245  0.018365259          314 
 1570000   0.63310564   -7.2124474    362.55599  0.019243949   0.01834965          171 
 1571000   0.62974754   -7.2288842    361.93288  0.019198646  0.018334031          231 
 1572000   0.62482442   -7.2260369    362.04553  0.019192405  0.018318396          152 
 1573000   0.63320367    -7.225785    362.31752  0.019194613  0.018302729          198 
 1574000   0.63023201   -7.2464121     361.5353  0.019141005  0.018287101          124 
 1575000   0.62135906   -7.2402139    362.14547  0.019161136  0.018271475           90 
 1576000   0.62427562   -7.2563771    362.16169  0.019149836  0.018255878           96 
 1577000    0.6181731     -7.23432    362.09911  0.019134386  0.018240297          122 
 1578000   0.62034678   -7.2330019    361.71427  0.019101937  0.018224713          141 
 1579000   0.61008257   -7.2384486    360.82351  0.019042828  0.018209134          155 
 1580000   0.61741711   -7.2451588    361.83191  0.019083961  0.018193588          219 
 1581000   0.62603048   -7.2277597    362.13028  0.019087618  0.018178112          162 
 1582000   0.62041337   -7.2479991    361.90107  0.019063478  0.018162619          106 
 1583000   0.63005967    -7.264277     360.9938  0.019003674  0.018147113          159 
 1584000   0.63839615   -7.2351242    361.62095  0.019024671  0.018131644          169 
 1585000    0.6127427   -7.2140776    362.77474   0.01907333    0.0181162          228 
 1586000   0.63568374   -7.2383313    361.12334  0.018974535  0.018100774          205 
 1587000    0.6125159    -7.232362    362.39811  0.019029516  0.018085344          100 
 1588000   0.62188972   -7.2465411    361.45675  0.018968134  0.018069933          232 
 1589000   0.63852206   -7.2341274    362.15242   0.01899268  0.018054534          329 
 1590000   0.62158854   -7.2683418    361.49556  0.018946308  0.018039158          307 
 1591000   0.62605332    -7.241839    362.23038  0.018972888  0.018023775          178 
 1592000   0.61779134   -7.2437705    361.23103  0.018908659  0.018008396          152 
 1593000   0.62302017   -7.2418345     361.8592   0.01892965  0.017993039          192 
 1594000   0.63157973   -7.2670353    361.12446  0.018879363  0.017977641          396 
 1595000   0.62616079   -7.2771106    361.88479  0.018907251  0.017962286          323 
 1596000   0.61573569   -7.2710752    361.38269  0.018869188  0.017946936          200 
 1597000   0.61043538   -7.2603609    361.15656  0.018845573  0.017931568          108 
 1598000   0.61779038   -7.2419142    361.92773  0.018873995  0.017916269          104 
 1599000   0.60606598   -7.2674327    361.63715  0.018847047  0.017900964          212 
 1600000   0.61951753   -7.2566522    361.29179  0.018817281  0.017885662          151 
 1601000   0.61097301   -7.2321466    362.35205  0.018860715  0.017870405          124 
 1602000   0.62804163   -7.2499895    361.39474  0.018799144   0.01785516          343 
 1603000   0.61794837   -7.2569645    361.75541  0.018806166  0.017839937          120 
 1604000   0.61222203   -7.2443538    361.31208  0.018771409  0.017824725          179 
 1605000   0.60976267   -7.2654557    361.26096  0.018757059  0.017809535          377 
 1606000   0.60540391   -7.2621278    361.86858  0.018776908  0.017794375          252 
 1607000   0.60896571   -7.2491741    361.98647  0.018771337  0.017779243          240 
 1608000   0.61113125   -7.2547327     361.9628  0.018758437  0.017764146          247 
 1609000   0.61893692   -7.2472428    362.50226  0.018774718  0.017749054          342 
 1610000   0.61157373   -7.2468709    361.48811  0.018710565  0.017733956          220 
 1611000   0.62334842   -7.2685952    361.38261  0.018693493  0.017718859          156 
 1612000   0.61261165    -7.260455    361.43565  0.018684639  0.017703778          197 
 1613000   0.62310887   -7.2653085    362.32199  0.018718846  0.017688708          155 
 1614000   0.61885675    -7.261035    361.21191  0.018649933  0.017673644          184 
 1615000   0.60200588   -7.2885374    361.50522   0.01865352  0.017658592          144 
 1616000   0.59703771   -7.2622841    361.96307  0.018665587  0.017643543          203 
 1617000   0.60424783    -7.267796    361.17882  0.018613627  0.017628546          205 
 1618000   0.61221118   -7.2690875    361.27772  0.018607217  0.017613564          377 
 1619000   0.61201727   -7.2564634    362.30014   0.01864835  0.017598575          383 
 1620000   0.60912078   -7.2630675    362.05458  0.018624207  0.017583619          104 
 1621000   0.61313267   -7.2697434    361.58581  0.018588619  0.017568673          156 
 1622000   0.60787181   -7.2717756    361.34228  0.018564647  0.017553701          180 
 1623000   0.60216718   -7.2614521    361.79118  0.018576257   0.01753878          113 
 1624000    0.6109854   -7.2612831    361.26533  0.018537835  0.017523852           69 
 1625000   0.60452744     -7.28335    360.87576  0.018506449  0.017508937          150 
 1626000   0.59862093   -7.2673858    361.73471  0.018539089  0.017494036          219 
 1627000   0.60296484   -7.2750045     361.4814   0.01851472  0.017479153          250 
 1628000   0.60790348   -7.2568857    361.69698  0.018514383  0.017464253          182 
 1629000   0.60831581   -7.2734262    362.24599  0.018531102  0.017449423          227 
 1630000   0.61081749   -7.2832798     361.6335   0.01848842  0.017434597          286 
 1631000   0.60508028   -7.2764085    361.88897  0.018490137  0.017419761          209 
 1632000   0.59735493   -7.2531525    361.33388  0.018450464  0.017404942          218 
 1633000   0.59738358   -7.2875071    361.62263    0.0184539  0.017390139          129 
 1634000   0.60240304   -7.2769489    361.42503  0.018432529  0.017375345          329 
 1635000   0.59146899   -7.2793743     361.4468  0.018422365  0.017360545          106 
 1636000   0.59018325   -7.2735325    361.45825  0.018411688  0.017345754          228 
 1637000   0.59581805   -7.2643113    361.47836  0.018401464  0.017330981          212 
 1638000   0.60774939   -7.2703344      360.787  0.018355057  0.017316191          283 
 1639000   0.59319949   -7.2879509    361.36053  0.018373018  0.017301444          256 
 1640000   0.59435318   -7.2905276    361.19123  0.018353213  0.017286679          361 
 1641000    0.5958842    -7.288871    360.83032  0.018323701  0.017271914          452 
 1642000   0.59812929   -7.2922481    361.09241  0.018325843  0.017257173          245 
 1643000   0.60043883   -7.2850901    361.27599     0.018324  0.017242475          314 
 1644000    0.5852749   -7.2984847    361.45464   0.01832191  0.017227745          460 
 1645000   0.59250233   -7.2769971    360.66438  0.018270738  0.017213074          288 
 1646000   0.59641582   -7.2886976    361.13876  0.018283655  0.017198404          282 
 1647000   0.59405813   -7.2987636    361.14822  0.018273033  0.017183723          387 
 1648000   0.60018884   -7.2667737     361.0635  0.018257661  0.017169078          257 
 1649000   0.59431143   -7.3113138    360.96959  0.018241843  0.017154485          482 
 1650000   0.59405246   -7.3042366    361.20185  0.018242518  0.017139889          396 
 1651000   0.60135802   -7.2977265    360.84162  0.018213286  0.017125305          292 
 1652000   0.59189505    -7.297072    361.16936  0.018218794  0.017110705          368 
 1653000   0.60902246   -7.2995069     361.2348  0.018211071  0.017096129          345 
 1654000   0.59242276   -7.3227272    361.32532  0.018204621  0.017081566          325 
 1655000   0.58727776   -7.3062995    360.86891   0.01817064   0.01706702          522 
 1656000   0.59533442   -7.3066964    360.78645  0.018155518  0.017052488          410 
 1657000   0.59368379   -7.3068089    360.40467   0.01812536  0.017037938          228 
 1658000   0.59011671   -7.3056902    361.40032  0.018164471  0.017023411          141 
 1659000   0.58861485   -7.2904534    360.66469  0.018116571  0.017008855          500 
 1660000   0.59421441   -7.3019195    361.55588  0.018150395  0.016994344          406 
 1661000   0.57748337   -7.2874116    360.42514  0.018082738  0.016979826          352 
 1662000   0.58431425   -7.3025101    361.05631  0.018103505  0.016965307          268 
 1663000   0.58807949   -7.3252341    359.89224  0.018034287  0.016950796          272 
 1664000   0.59865796   -7.3061868    361.60058  0.018109004  0.016936326          244 
 1665000   0.57883615   -7.3117552     360.5476  0.018045425  0.016921879          456 
 1666000   0.58821214    -7.308149    360.77245  0.018045841  0.016907455          320 
 1667000   0.58662539   -7.2922202    361.27832  0.018060304   0.01689306          475 
 1668000   0.59716332   -7.3165364    359.85899  0.017978567  0.016878644          392 
 1669000   0.57432741    -7.286813    360.40353  0.017994984  0.016864228          443 
 1670000   0.58127587   -7.3194926    360.84847   0.01800641  0.016849837          583 
 1671000   0.57548488   -7.3155503    360.70409  0.017988434  0.016835453          467 
 1672000   0.57962487    -7.315344    361.77673  0.018031137  0.016821096          550 
 1673000   0.58832826   -7.3405626    360.59489  0.017961491  0.016806738          476 
 1674000   0.57865922    -7.341716    360.92611   0.01796725  0.016792394          597 
 1675000   0.59240386   -7.2912661    361.03107  0.017961745   0.01677809          629 
 1676000   0.58980887    -7.313633    360.84159  0.017941607  0.016763824          577 
 1677000   0.58586559    -7.331392    361.11061  0.017944276  0.016749551          634 
 1678000   0.57364524   -7.3062821    361.00267  0.017928222  0.016735344          489 
 1679000   0.57282172   -7.2980059     361.4374  0.017939121  0.016721145          473 
 1680000   0.58334634   -7.3213226    361.06764  0.017910101  0.016706965          271 
 1681000   0.59938092   -7.3169435    360.78247   0.01788531   0.01669279          481 
 1682000   0.57283545   -7.3380879    360.61518  0.017866388  0.016678618          482 
 1683000   0.57227062   -7.3282908    360.77143  0.017863509  0.016664457          460 
 1684000   0.57463851   -7.3404677    360.19626  0.017824439  0.016650313          450 
 1685000   0.57808158   -7.3399991    360.70883   0.01783921  0.016636153          558 
 1686000   0.58709123   -7.3286494    360.76859  0.017831583  0.016622012          389 
 1687000   0.57695646   -7.3396313    360.81126  0.017823121  0.016607881          531 
 1688000   0.58379703   -7.3417476    361.35114  0.017839215    0.0165938          296 
 1689000   0.57406067   -7.3454133    360.50076  0.017786696  0.016579715          423 
 1690000    0.5749401    -7.323505    361.15148  0.017808258   0.01656565          273 
 1691000   0.58231065   -7.3410412    360.78504  0.017779669  0.016551593          434 
 1692000    0.5803659   -7.3314924    361.81887  0.017820079   0.01653753          576 
 1693000   0.58476469   -7.3289104    360.99719  0.017769108  0.016523486          518 
 1694000   0.57108973   -7.3438343    360.59995  0.017739077  0.016509454          556 
 1695000    0.5817685   -7.3576701    360.54498  0.017725908   0.01649544          482 
 1696000   0.57824508   -7.3457127    361.33154  0.017754105  0.016481433          474 
 1697000   0.57506337   -7.3334484    360.12546  0.017684417  0.016467427          435 
 1698000   0.57997799   -7.3358159    360.43973  0.017689425  0.016453451          498 
 1699000   0.57745014   -7.3279565    360.66422  0.017690025  0.016439471          530 
 1700000   0.56381818   -7.3373175    360.42609  0.017667946  0.016425485          507 
 1701000   0.57538009   -7.3357437    360.30988  0.017651865  0.016411498          543 
 1702000   0.56945182   -7.3395344    360.64617   0.01765796  0.016397541          497 
 1703000   0.56601125   -7.3530822    360.04645  0.017618245  0.016383583          666 
 1704000    0.5631069   -7.3672398    359.58397  0.017585288  0.016369644          589 
 1705000   0.57561874   -7.3421641    360.30609  0.017610268  0.016355694          577 
 1706000   0.57766101   -7.3337958    359.96748  0.017583406  0.016341769          564 
 1707000   0.58357468   -7.3681304    360.15695  0.017582355  0.016327841          620 
 1708000    0.5670729   -7.3587737    360.55745  0.017591601  0.016313929          653 
 1709000   0.59154078   -7.3362464    360.25886  0.017566748  0.016300021          561 
 1710000    0.5647005   -7.3426223    359.54551  0.017521711  0.016286128          628 
 1711000   0.56880002   -7.3739861     360.2022  0.017543454  0.016272223          616 
 1712000   0.56958628   -7.3476298     360.0985  0.017528159   0.01625835          598 
 1713000   0.56421045   -7.3646145     360.5695   0.01754084  0.016244496          677 
 1714000   0.55602776   -7.3680303    359.91004  0.017498543  0.016230646          654 
 1715000   0.57284164    -7.372702    359.77499  0.017481778  0.016216807          625 
 1716000   0.56770711   -7.3719876    360.05266  0.017485075  0.016202998          670 
 1717000   0.56707223   -7.3572123     360.5104  0.017497108  0.016189169          625 
 1718000   0.56051776   -7.3503969    360.23855  0.017473736  0.016175383          619 
 1719000   0.57886494   -7.3657821    359.16153   0.01741136  0.016161579          603 
 1720000   0.56031216   -7.3637532    359.95233  0.017439551  0.016147777          680 
 1721000    0.5778977   -7.3706215    359.62598  0.017413615  0.016133986          651 
 1722000   0.55924035   -7.3627168    360.20724  0.017431632  0.016120219          643 
 1723000    0.5651084   -7.3695237    359.96624  0.017409859  0.016106443          651 
 1724000   0.58283913   -7.3711439    359.55321  0.017379795  0.016092687          643 
 1725000   0.56922486   -7.3623775    360.40583   0.01741091  0.016078973          667 
 1726000   0.57008975   -7.3702974     359.9001  0.017376405  0.016065261          589 
 1727000   0.56104385   -7.3617946    360.09155  0.017375581  0.016051556          563 
 1728000   0.57346612   -7.3695025    360.15038  0.017368363  0.016037862          713 
 1729000   0.55919267   -7.3680461    359.26983  0.017315878  0.016024167          605 
 1730000   0.57472062   -7.3628508    359.74546   0.01732878  0.016010484          710 
 1731000   0.56216788   -7.3813792    359.27778  0.017296254  0.015996825          623 
 1732000   0.56091153   -7.3773366     359.4185  0.017293038  0.015983164          659 
 1733000   0.56252127   -7.3767099    359.89031  0.017305747  0.015969502          553 
 1734000   0.55742115   -7.3816431    358.89181   0.01724778  0.015955874          641 
 1735000   0.56608345   -7.3625788    360.41403  0.017310953  0.015942276          635 
 1736000   0.56801453   -7.3871669    359.84586  0.017273707  0.015928692          600 
 1737000   0.57048585   -7.3785882    358.85777  0.017216358  0.015915105          627 
 1738000   0.56324768   -7.3920675    359.61658  0.017242836  0.015901537          729 
 1739000   0.55056645   -7.4001999     358.6741  0.017187756  0.015887974          658 
 1740000   0.56048011    -7.390367    359.45081  0.017215077  0.015874413          725 
 1741000   0.55768737    -7.388872    359.74087  0.017219073   0.01586091          741 
 1742000   0.55756015   -7.3930768    359.08111  0.017177627  0.015847396          637 
 1743000   0.55386731   -7.3859345    358.51529   0.01714072  0.015833892          612 
 1744000   0.56886228   -7.3876075    359.32478  0.017169571   0.01582038          641 
 1745000   0.55325124   -7.3924611    359.42854  0.017164687  0.015806877          673 
 1746000   0.54931731   -7.3940769    359.13842  0.017141009  0.015793409          644 
 1747000   0.57189676   -7.4031088    359.36925  0.017142208  0.015779932          635 
 1748000   0.56229748   -7.4008553    360.12318  0.017168344  0.015766504          656 
 1749000   0.55565573   -7.4054331    359.31857  0.017120191  0.015753052          710 
 1750000   0.55989637   -7.3983064    360.08553   0.01714693  0.015739621          741 
 1751000   0.55580374   -7.4075629    359.02882  0.017086847  0.015726222          740 
 1752000   0.55365004   -7.4082958    358.82591  0.017067442  0.015712806          780 
 1753000   0.55919548   -7.3937959    359.34793  0.017082522  0.015699418          730 
 1754000   0.54658954   -7.4066427    358.78381  0.017045981  0.015686038          752 
 1755000   0.53379511   -7.4000428    359.25793  0.017058781  0.015672669          738 
 1756000   0.55959081   -7.4121009    359.15014  0.017043951  0.015659317          796 
 1757000   0.55174004    -7.429723    358.75649   0.01701558  0.015645945          809 
 1758000   0.54957192   -7.4268362    358.41609  0.016989765  0.015632595          832 
 1759000   0.55527704   -7.3929275    359.95928  0.017053216  0.015619272          798 
 1760000   0.54785708   -7.4043078    358.87999  0.016992424  0.015605965          765 
 1761000   0.54903326   -7.4012705    359.18945  0.016997419  0.015592688          806 
 1762000   0.55275224   -7.3973048     359.5167  0.017003249  0.015579416          750 
 1763000   0.56785964   -7.4061869    359.13236  0.016975438  0.015566136          741 
 1764000   0.54221848   -7.4231703    358.32395  0.016927624  0.015552857          766 
 1765000   0.54299173   -7.4170846    358.88954  0.016944737  0.015539605          815 
 1766000   0.55714446   -7.3995829    359.20204  0.016949889  0.015526368          788 
 1767000   0.54201281    -7.401446    359.26527  0.016943278  0.015513135          766 
 1768000   0.55517354   -7.4091003    358.37867  0.016891905  0.015499932          885 
 1769000   0.54566337    -7.415623    359.26554  0.016924135  0.015486757          632 
 1770000    0.5367731   -7.4071564    358.95082  0.016899756   0.01547357          749 
 1771000   0.55496939   -7.4154442    358.91748  0.016888645  0.015460382          752 
 1772000   0.53687925   -7.4105833    359.13804  0.016889487  0.015447236          783 
 1773000   0.54604418   -7.4286043    359.06704  0.016876624  0.015434084          809 
 1774000     0.541687   -7.4238788    358.45971  0.016838581  0.015420969          625 
 1775000   0.53940236   -7.4148542    358.84236  0.016847059  0.015407846          666 
 1776000   0.54649579   -7.4057446    358.65774  0.016828911  0.015394754          703 
 1777000   0.54963471   -7.4251205    358.82562  0.016827313  0.015381639          690 
 1778000   0.54500292   -7.4027772    358.46881  0.016801125  0.015368537          702 
 1779000    0.5506099   -7.4383385    358.67895  0.016801525  0.015355468          733 
 1780000   0.55767578   -7.4129701    358.70754  0.016793424  0.015342397          741 
 1781000    0.5396853   -7.4255187    358.28805  0.016764367  0.015329326          741 
 1782000   0.54272573   -7.4282281    357.76344  0.016730427  0.015316285          736 
 1783000    0.5322343   -7.4084958    359.01459  0.016779519  0.015303286          754 
 1784000   0.54185345   -7.4205489    358.82238  0.016761135  0.015290278          759 
 1785000   0.54678833   -7.4306697    359.10441  0.016764912  0.015277299          564 
 1786000   0.54860475   -7.4208808    358.42111  0.016723643   0.01526432          622 
 1787000   0.53354653   -7.4138612    359.23187  0.016752093  0.015251366          622 
 1788000   0.53153506   -7.4117612    359.20501  0.016741471  0.015238413          494 
 1789000   0.53925169   -7.4273305    358.84149   0.01671518  0.015225458          522 
 1790000   0.52953395   -7.4283766    357.93383  0.016663586  0.015212527          616 
 1791000    0.5365685   -7.4266581    358.45332  0.016678453  0.015199599          565 
 1792000   0.54817491   -7.4351726    358.75573  0.016683209  0.015186697          569 
 1793000   0.53694037   -7.4310803    359.06443  0.016688252    0.0151738          655 
 1794000   0.51879045   -7.4325414    358.69037  0.016661574  0.015160922          580 
 1795000   0.53568157   -7.4418581    358.55148  0.016645844  0.015148045          661 
 1796000   0.54562389   -7.4306935    358.84389  0.016650143    0.0151352          804 
 1797000   0.54791984   -7.4386537    358.86591  0.016641899  0.015122341          622 
 1798000   0.54743728   -7.4270914    358.51118  0.016616202   0.01510949          627 
 1799000   0.53138654   -7.4432252    358.61066  0.016611574  0.015096665          758 
 1800000   0.53860543   -7.4659949    357.58365  0.016554799  0.015083846          813 
 1801000   0.52560531   -7.4379972    358.65221  0.016595049  0.015071017          657 
 1802000   0.53469397   -7.4349245    358.45861  0.016576887  0.015058199          825 
 1803000   0.54123529   -7.4404198    357.55131  0.016525758  0.015045385          675 
 1804000   0.53405368   -7.4467504    358.88285  0.016578107  0.015032604          748 
 1805000   0.53293675   -7.4449188    357.72199  0.016515327  0.015019836          678 
 1806000   0.54121103   -7.4431518    358.51607  0.016542823  0.015007077          811 
 1807000   0.53163087   -7.4354778     358.1939  0.016518811  0.014994327          871 
 1808000   0.54977747   -7.4683741    358.03393  0.016502301  0.014981609          763 
 1809000   0.54052705   -7.4377699    357.82646  0.016483622    0.0149689          879 
 1810000   0.53533836    -7.443019     358.5104  0.016506004   0.01495619          875 
 1811000   0.54034054   -7.4561436    358.39979    0.0164918  0.014943509          827 
 1812000   0.53004578   -7.4413484    358.70394  0.016496686  0.014930839          787 
 1813000   0.52892108   -7.4539835    358.27571  0.016467903  0.014918178          861 
 1814000   0.51924204   -7.4359143    358.22221  0.016456368  0.014905527          764 
 1815000   0.53044557   -7.4613497    358.48477  0.016459356  0.014892895          881 
 1816000   0.52286296   -7.4461167    358.04539   0.01643013  0.014880272          747 
 1817000   0.52149857   -7.4667353    357.74056  0.016407107  0.014867656          897 
 1818000    0.5325645   -7.4454323    358.04353   0.01641197  0.014855058          905 
 1819000    0.5270518   -7.4346869    358.72554  0.016434192  0.014842478          926 
 1820000   0.52146945   -7.4454109    358.35833  0.016408349  0.014829895          863 
 1821000   0.52683848   -7.4364397     358.4711  0.016404499  0.014817336          887 
 1822000   0.51433448   -7.4439008    358.79136  0.016410143  0.014804791          834 
 1823000    0.5192389   -7.4500765    357.77095  0.016354496   0.01479225          902 
 1824000   0.51746396   -7.4531712    358.61247  0.016383976  0.014779745          839 
 1825000   0.51964624   -7.4596034    358.13952  0.016353403  0.014767214          861 
 1826000   0.52278141   -7.4573674    357.66973  0.016323007  0.014754721          852 
 1827000   0.53215176   -7.4554335    358.51867  0.016352795  0.014742236          915 
 1828000   0.52784293   -7.4665966    357.17856  0.016282757  0.014729758          971 
 1829000   0.52371903   -7.4574564    358.89906  0.016352244  0.014717281          897 
 1830000   0.52582005   -7.4568297    358.37335  0.016319369  0.014704833          938 
 1831000   0.51904164   -7.4518912    358.62708  0.016322004  0.014692398          892 
 1832000   0.51452585   -7.4660548    357.53971  0.016263633  0.014679981          841 
 1833000   0.51927784   -7.4695684     357.5855  0.016256842  0.014667584          899 
 1834000   0.52283231   -7.4682862    358.18238  0.016275099  0.014655201         1000 
 1835000   0.51380467   -7.4797754    358.18042  0.016266141  0.014642807         1003 
 1836000   0.53827924   -7.4752861    357.88527  0.016243885   0.01463044          930 
 1837000   0.52099341   -7.4606249    358.14966  0.016247036  0.014618082          957 
 1838000    0.5197921   -7.4824474    357.89876  0.016226821  0.014605763          981 
 1839000   0.51765924   -7.4553822    357.49699  0.016199791  0.014593424          964 
 1840000   0.51082603   -7.4729091    358.11253  0.016218865  0.014581105          901 
 1841000   0.52114425   -7.4749473    357.42772  0.016179057  0.014568796          877 
 1842000   0.52939244   -7.4568317    357.85802   0.01618974  0.014556518          851 
 1843000   0.50881905   -7.4502369     358.6127   0.01621508  0.014544239          851 
 1844000   0.53582696   -7.4673629    357.88657  0.016173471  0.014531988          866 
 1845000   0.51790615   -7.4807241    358.06223  0.016172639  0.014519724          901 
 1846000    0.5140383    -7.493112    357.43285  0.016135466  0.014507462          922 
 1847000   0.51220234   -7.4690447    358.30347  0.016166011  0.014495238          758 
 1848000   0.51242366    -7.462791    357.90644   0.01613936  0.014483026          960 
 1849000   0.51419543   -7.4915768    357.10831   0.01609466  0.014470811          853 
 1850000   0.52424223   -7.4778035    357.53215  0.016105052  0.014458605          941 
 1851000   0.52329287   -7.4622156    357.80332  0.016108559  0.014446419          857 
 1852000   0.51649702   -7.4775647     358.2461  0.016119785  0.014434257          852 
 1853000   0.52012344   -7.4682811    357.40667  0.016073335   0.01442209          908 
 1854000   0.50317628   -7.4764611    357.49551  0.016068658   0.01440993          886 
 1855000   0.51862181   -7.4739735    357.29972    0.0160512   0.01439779          895 
 1856000   0.51182863   -7.4854541    357.40662  0.016047352  0.014385661          953 
 1857000   0.50472652   -7.4854432    357.67092  0.016050571   0.01437353          932 
 1858000   0.49979139   -7.4903684    358.14519  0.016063204  0.014361414          957 
 1859000   0.51596299   -7.4970449    357.54583  0.016027696  0.014349321          894 
 1860000   0.50070696   -7.4859029    357.66655  0.016024487  0.014337241          950 
 1861000   0.49449993   -7.4757765    357.77565  0.016020762  0.014325177          946 
 1862000   0.51469023   -7.4918958    357.69848  0.016008704  0.014313129          923 
 1863000   0.50600043   -7.4865196    357.16305  0.015976161  0.014301077          933 
 1864000   0.51029804   -7.4894237    357.89474  0.016000302   0.01428905          876 
 1865000   0.49947056     -7.47266    358.22665  0.016006553  0.014277034          939 
 1866000   0.50737314   -7.4907029    357.36158  0.015959342  0.014265013          942 
 1867000   0.49981262   -7.4846878    357.30388  0.015948218  0.014253028          903 
 1868000   0.51150575   -7.4849204    357.43022  0.015945317   0.01424104          850 
 1869000   0.50585917    -7.490738    358.01898  0.015963037  0.014229072          956 
 1870000   0.50884523   -7.4977203    357.76417  0.015943145  0.014217091          939 
 1871000   0.50275511   -7.5003636    357.58131  0.015926479  0.014205143         1008 
 1872000   0.50880154   -7.4778351    357.53566  0.015915939  0.014193207          955 
 1873000   0.50840654   -7.5011705     357.3751  0.015900298  0.014181287         1049 
 1874000   0.49927797   -7.4923441    357.48343  0.015896631  0.014169363          987 
 1875000   0.51297331    -7.492638    357.26839  0.015878595  0.014157456         1058 
 1876000   0.49352612   -7.4991798     357.5968  0.015884719  0.014145556         1013 
 1877000   0.50097895   -7.5108475    357.44639  0.015869579   0.01413366          927 
 1878000   0.50559384   -7.4971896    357.66958  0.015871032  0.014121794          945 
 1879000   0.51058662   -7.4804837    357.16768  0.015840326  0.014109946          996 
 1880000   0.50096656   -7.4940709    357.63067  0.015852423  0.014098111          927 
 1881000   0.48718858   -7.4884572    357.32366  0.015830394  0.014086274         1031 
 1882000   0.50069765   -7.5083591    356.62168    0.0157909  0.014074444          954 
 1883000   0.49726356   -7.4956785    357.38365  0.015816235  0.014062643          895 
 1884000   0.50070941   -7.5136371    357.20444  0.015799913  0.014050859          965 
 1885000   0.51438127   -7.5095063    357.21208  0.015791869  0.014039088          933 
 1886000   0.50311715   -7.5096714    357.01426  0.015774755  0.014027317          988 
 1887000   0.49247624   -7.5041665    357.36708  0.015781977  0.014015556         1039 
 1888000   0.50123318   -7.5321288    357.18918  0.015765766  0.014003799          977 
 1889000   0.49698087   -7.5058302    357.68717  0.015779388  0.013992067          985 
 1890000    0.5055162    -7.508859    357.03832   0.01574243  0.013980336         1041 
 1891000   0.49728343   -7.5028945     356.9924  0.015732082  0.013968611         1035 
 1892000   0.49888107   -7.4934619    357.44092  0.015743522  0.013956895         1015 
 1893000   0.48018237   -7.5039452    356.80833  0.015707357  0.013945201          984 
 1894000   0.50365343   -7.4916387    357.29437  0.015720449  0.013933528         1014 
 1895000   0.48808231   -7.5073029    356.85657  0.015692901  0.013921857          960 
 1896000   0.49992438   -7.5213084    356.88643  0.015685937  0.013910196          986 
 1897000    0.4922335   -7.5078636    356.78027  0.015673004  0.013898558          919 
 1898000   0.48800675    -7.518945    356.74897  0.015663372  0.013886925          882 
 1899000   0.49310281   -7.5019909    357.28951  0.015678845  0.013875303          883 
 1900000   0.50078188   -7.5322036    357.44518   0.01567742  0.013863702          895 
 1901000   0.48982691   -7.5116357    357.09296  0.015653733  0.013852106          914 
 1902000   0.49009339   -7.5128508    357.55383  0.015665695  0.013840514          903 
 1903000    0.4922144   -7.4963064    357.43631  0.015652317  0.013828936          941 
 1904000   0.49488546   -7.5191831    357.30644  0.015638412  0.013817378          950 
 1905000    0.4922205   -7.5188613     357.2118  0.015626063  0.013805826         1029 
 1906000   0.49359965   -7.5010185    357.03442  0.015610109  0.013794294          987 
 1907000    0.4894883   -7.5067781    357.41198  0.015618423  0.013782783          899 
 1908000   0.49791164   -7.5045998    356.78673  0.015582928  0.013771279          951 
 1909000    0.4947124   -7.5179351    356.52993  0.015563556  0.013759783         1000 
 1910000   0.47312616   -7.5115601    357.32873  0.015590259  0.013748303          965 
 1911000   0.49819767   -7.5123326    357.15846  0.015574676  0.013736831          939 
 1912000   0.47836109   -7.5188703    357.00251  0.015559733  0.013725365          886 
 1913000    0.5002519   -7.5160552    356.73142   0.01553979  0.013713901         1018 
 1914000   0.49111585   -7.5219382    357.09872  0.015547663  0.013702453          969 
 1915000   0.47971806    -7.508035    357.27891  0.015547385  0.013691013         1007 
 1916000   0.47397135   -7.5250738    356.44066  0.015502812  0.013679592          971 
 1917000   0.49590562   -7.5280158    356.38444  0.015492281  0.013668171          986 
 1918000   0.48554217   -7.5318348    356.22643  0.015477339  0.013656745         1045 
 1919000   0.48700019   -7.5152613    356.87879  0.015497603   0.01364534         1057 
 1920000   0.49132178   -7.5247585    356.64813  0.015479519   0.01363395         1019 
 1921000   0.48604231   -7.5228587    356.50812  0.015465388  0.013622565         1006 
 1922000    0.4908894   -7.5372749    356.84542  0.015471966  0.013611194         1011 
 1923000   0.48101279   -7.5473184    357.05891  0.015473172  0.013599823         1012 
 1924000   0.47601549   -7.5397034    356.32283  0.015433248  0.013588477          991 
 1925000   0.47927801   -7.5270048    356.71563  0.015442235  0.013577123         1050 
 1926000   0.47373221   -7.5270517    356.39423  0.015420311  0.013565799          968 
 1927000   0.47839491   -7.5530174    356.36034  0.015410843  0.013554476         1025 
 1928000   0.48688515   -7.5348316    356.11775  0.015392365  0.013543148         1140 
 1929000   0.49311576   -7.5398681    357.15224  0.015429075  0.013531849         1053 
 1930000   0.48131587   -7.5443154    356.37144  0.015387368   0.01352057         1080 
 1931000    0.4765977   -7.5459703    356.53305  0.015386373  0.013509289         1045 
 1932000   0.47277424   -7.5354226    356.68198  0.015384833  0.013498031         1055 
 1933000   0.48185742   -7.5431801    356.49296  0.015368726  0.013486781         1016 
 1934000    0.4799343   -7.5296053    356.37237  0.015355583  0.013475535         1032 
 1935000   0.46787717   -7.5456156      356.219  0.015341042  0.013464297         1038 
 1936000   0.47265516   -7.5381186    356.48623  0.015344621  0.013453073         1066 
 1937000   0.47540518   -7.5345063    356.49009  0.015336865  0.013441871         1003 
 1938000   0.48087983   -7.5361249    356.50636  0.015329651  0.013430667         1039 
 1939000   0.48706868   -7.5340145    356.46434  0.015319939  0.013419487         1031 
 1940000   0.48460887    -7.540377    356.44928  0.015311395   0.01340831         1016 
 1941000   0.48261093   -7.5405561    357.08871  0.015330959  0.013397161         1087 
 1942000    0.4808127   -7.5451518    356.79265  0.015310361  0.013386008         1135 
 1943000   0.46798722   -7.5289567    356.42096   0.01528654  0.013374881         1139 
 1944000   0.47233745   -7.5400069     356.1991  0.015269166  0.013363764         1101 
 1945000   0.46681869   -7.5371928    355.96143  0.015251132  0.013352657         1080 
 1946000   0.46874634   -7.5454535    355.79269  0.015236069  0.013341566         1061 
 1947000   0.46314223   -7.5520988     356.7885  0.015270865  0.013330476         1179 
 1948000   0.47610973   -7.5401005    356.15369   0.01523587  0.013319417         1070 
 1949000   0.46212188   -7.5564753    356.63464  0.015248616  0.013308356         1126 
 1950000    0.4689159   -7.5347748    356.35972  0.015229048  0.013297309         1067 
 1951000   0.47449058   -7.5386279     356.3943  0.015222719  0.013286276         1059 
 1952000   0.47219141   -7.5659984    356.28112  0.015210089   0.01327524         1031 
 1953000   0.46645321   -7.5647838    356.68507  0.015219537  0.013264222          989 
 1954000   0.47711942   -7.5500705    355.89323  0.015177978  0.013253207         1025 
 1955000   0.47123995   -7.5549133    356.07843  0.015178109  0.013242214         1079 
 1956000   0.48335135   -7.5616716    356.49006  0.015187886  0.013231226         1129 
 1957000   0.47320946   -7.5442757    356.53798  0.015182166  0.013220265         1073 
 1958000   0.47115134    -7.542536      356.092  0.015155431  0.013209299         1085 
 1959000   0.46346468   -7.5625217    356.23478  0.015153768  0.013198355         1077 
 1960000   0.46812742   -7.5511134    355.95745  0.015134245  0.013187426         1010 
 1961000   0.47578237   -7.5736374    356.11449  0.015133201  0.013176506         1100 
 1962000   0.46454058   -7.5623606    356.26936  0.015132066  0.013165585         1075 
 1963000   0.46357855   -7.5653156    355.77699  0.015103455  0.013154681         1056 
 1964000   0.45985973   -7.5587382    356.04982  0.015107341  0.013143782         1002 
 1965000    0.4673215   -7.5477351    356.00879  0.015097913   0.01313291         1188 
 1966000   0.46746086   -7.5560151    356.70968  0.015119943  0.013122025         1019 
 1967000   0.47613535   -7.5632398    355.89614  0.015077789  0.013111167         1075 
 1968000   0.47193334   -7.5838535    355.34524    0.0150468  0.013100291         1129 
 1969000    0.4668139   -7.5596895    355.65204  0.015052143  0.013089432         1030 
 1970000   0.45549071   -7.5680081    355.92917  0.015056226    0.0130786         1039 
 1971000   0.47317717   -7.5657797    355.54373   0.01503229  0.013067754         1065 
 1972000   0.46502171   -7.5598665    355.95945  0.015042235  0.013056923         1082 
 1973000   0.47235666   -7.5681949    356.26602  0.015047559  0.013046099         1067 
 1974000    0.4684608   -7.5688553    355.63901  0.015013467  0.013035278          985 
 1975000   0.46528274   -7.5882699    355.34176  0.014993323  0.013024478         1113 
 1976000   0.45003337   -7.5631802    355.90683  0.015009566  0.013013691         1090 
 1977000   0.46065182   -7.5785197     355.8665  0.015000274  0.013002905         1132 
 1978000   0.47509179   -7.5635831    355.37526  0.014971994  0.012992138         1125 
 1979000   0.47463877   -7.5771938    355.91277  0.014987063  0.012981386         1111 
 1980000   0.46252663   -7.5761678    356.07143  0.014986171  0.012970641         1017 
 1981000   0.45731347   -7.5535082    355.39154  0.014950006  0.012959907         1052 
 1982000    0.4731434   -7.5778915    355.46385  0.014945503  0.012949187          970 
 1983000   0.46015033   -7.5775089    356.16746  0.014967535  0.012938477         1024 
 1984000   0.45163289   -7.5685921    355.29393    0.0149233  0.012927779         1005 
 1985000   0.44853284    -7.588123    355.57552  0.014927604   0.01291709         1059 
 1986000   0.46218506   -7.5632112    355.41757   0.01491346  0.012906412         1033 
 1987000   0.46262595   -7.5835628     355.2675   0.01489966   0.01289575         1051 
 1988000   0.45782432   -7.5685372    355.25512  0.014891647  0.012885101         1026 
 1989000   0.45842817   -7.5933462    355.39012  0.014889816  0.012874473         1117 
 1990000   0.45775779   -7.5616271    355.42849   0.01488394   0.01286385         1058 
 1991000   0.46086534   -7.5840881    355.32378  0.014872082  0.012853232         1112 
 1992000   0.46670047   -7.5837317    355.86057  0.014887072  0.012842631         1084 
 1993000   0.45638568   -7.5731829    355.33362  0.014857569  0.012832033         1078 
 1994000   0.44613095   -7.5861018    355.78805   0.01486911  0.012821444         1024 
 1995000   0.46451548   -7.5770535    355.42937  0.014846674  0.012810861          992 
 1996000   0.44368511   -7.5823018     355.9527  0.014861085  0.012800292         1018 
 1997000    0.4570786    -7.584424    355.40921  0.014830964  0.012789731         1018 
 1998000   0.47215375   -7.5879194    355.36917  0.014821871   0.01277918         1029 
 1999000   0.45833086   -7.5993425    355.22481  0.014808438  0.012768655         1079 
 2000000   0.45330646   -7.5715881    355.42997  0.014809582  0.012758137         1108 
 2001000   0.45354794   -7.5973139    355.15712  0.014790818  0.012747621         1073 
 2002000   0.44515861   -7.5771127    355.27771   0.01478845   0.01273712         1074 
 2003000   0.45248602   -7.5860884    355.06575  0.014772248  0.012726631         1121 
 2004000   0.46503709   -7.5736778    355.20648  0.014770728  0.012716146         1050 
 2005000   0.44651299   -7.5900548    355.72187  0.014784783   0.01270568         1040 
 2006000    0.4540094   -7.6137082    355.25752  0.014758122   0.01269522         1116 
 2007000   0.44000399   -7.6045922    355.47619  0.014759849  0.012684752         1082 
 2008000   0.45163056   -7.5846919      354.869  0.014727299  0.012674314         1078 
 2009000   0.45586946   -7.6048021    355.24183  0.014735434  0.012663899         1071 
 2010000    0.4604517   -7.5832473    355.15493    0.0147245  0.012653483         1143 
 2011000   0.45519498   -7.5971488    355.20513  0.014719258  0.012643065         1092 
 2012000   0.44943063   -7.6132905    355.52815  0.014725321  0.012632662         1135 
Loop time of 5139.95 on 48 procs for 2000000 steps with 4000 atoms

Performance: 67238.041 tau/day, 389.109 timesteps/s
99.4% CPU use with 48 MPI tasks x no OpenMP threads

MPI task timing breakdown:
Section |  min time  |  avg time  |  max time  |%varavg| %total
---------------------------------------------------------------
Pair    | 362.25     | 395.45     | 421.13     |  63.0 |  7.69
Neigh   | 36.282     | 37.667     | 39.138     |  10.3 |  0.73
Comm    | 325.04     | 353.43     | 384.53     |  66.2 |  6.88
Output  | 4.8384     | 4.8402     | 4.8926     |   0.3 |  0.09
Modify  | 4283       | 4300.7     | 4320.2     |  12.3 | 83.67
Other   |            | 47.85      |            |       |  0.93

Nlocal:        83.3333 ave          90 max          75 min
Histogram: 1 0 3 2 15 7 9 3 3 5
Nghost:        2409.54 ave        2429 max        2389 min
Histogram: 2 1 3 10 9 7 3 7 3 3
Neighs:        16794.4 ave       19282 max       14117 min
Histogram: 2 2 7 4 7 8 6 6 3 3
FullNghs:      33587.4 ave       36430 max       30320 min
Histogram: 1 1 2 12 7 10 6 3 3 3

Total # of neighbors = 1612193
Ave neighs/atom = 403.04825
Neighbor list builds = 106838
Dangerous builds = 0

#clear
#
#next RN
#
#jump SELF
Total wall time: 1:25:43
