
units lj                  # Use reduced LJ style units
atom_style atomic         # Uncharged point particles
atom_modify map hash      # Needed for indexing of clusters etc
                          # Used to be able to find where atoms are in relation to each other.

lattice fcc 1.0 spacing 1 1 1
Lattice spacing in x,y,z = 1.5874011 1.5874011 1.5874011
region box block 0 10 0 10 0 10 units lattice
create_box 2 box
Created orthogonal box = (0.0000000 0.0000000 0.0000000) to (15.874011 15.874011 15.874011)
  3 by 4 by 4 MPI processor grid
create_atoms 1 box
Created 4000 atoms
  using lattice units in orthogonal box = (0.0000000 0.0000000 0.0000000) to (15.874011 15.874011 15.874011)
  create_atoms CPU = 0.003 seconds
set type 1 type/fraction 2 0.32 78393
Setting atom values ...
  1310 settings made for type/fraction
mass 1 1.0
mass 2 1.0
pair_style lj/cut  3.5
pair_modify tail  yes
pair_coeff 1  1  1.0  1.0   # Intearaction between 1 and 1 set with epsilon = 1 and sigma = 1
pair_coeff 1  2  1.5  0.8
pair_coeff 2  2  0.5  0.88

write_data data.0
System init for write_data ...
Neighbor list info ...
  update every 1 steps, delay 10 steps, check yes
  max neighbors/atom: 2000, page size: 100000
  master list distance cutoff = 3.8
  ghost atom cutoff = 3.8
  binsize = 1.9, bins = 9 9 9
  1 neighbor lists, perpetual/occasional/extra = 1 0 0
  (1) pair lj/cut, perpetual
      attributes: half, newton on
      pair build: half/bin/atomonly/newton
      stencil: half/bin/3d
      bin: standard
WARNING: Not all mixed pair coeffs generated from mixing. Use write_data with 'pair ij' option to store all pair coeffs. (../write_data.cpp:312)


#############################
#   M E L T   S Y S T E M   #
#############################

velocity all create 2.4 8172548 mom yes dist gaussian # Assign velocities
                                                    # Temperature 2.4, random number seed, zero linear momentum
                                                                                # Gaussian distribution

timestep 0.002   # simulation timestep
thermo 1000       # output thermodynamic data every 1000 steps bf 100

# Define a fix  in this case with index 1 applied to all
# particles in the simulation. This fix is for simulations
# in the anisotropic NPT ensemble. Note that we use the MTK
# correction.
fix 1 all npt temp 2.4 2.4 0.1 iso 5.68 5.68 0.5 mtk yes tchain 5 pchain 5 # Use NPT ensemble
                                                                         # Set temperature and pressure and damping
                                                                         # Numbers of thermostats in chain and in barostat
run 10000          # run for 10000 steps
Per MPI rank memory allocation (min/avg/max) = 3.642 | 3.644 | 3.648 Mbytes
Step Temp E_pair E_mol TotEng Press Volume 
       0          2.4   -6.3097323            0   -2.7106323   -4.0355096         4000 
    1000     2.454489    -5.002045            0   -1.3212319    5.7038201    4104.3262 
    2000    2.3704455   -4.9983954            0   -1.4436161    5.6898579    4095.4891 
    3000    2.3828974    -4.990535            0   -1.4170825     5.560055    4107.5492 
    4000    2.3900543   -4.9783076            0   -1.3941224    5.4971961    4124.5966 
    5000    2.3770611   -4.9991247            0   -1.4344244    5.9668532    4070.1199 
    6000    2.3688504   -4.9505612            0    -1.398174    5.9982663     4094.117 
    7000    2.3864979   -4.9672434            0   -1.3883915    5.8464386    4093.7782 
    8000    2.4042076   -5.0572098            0      -1.4518    5.3226015     4093.198 
    9000     2.369106   -5.0368712            0   -1.4841005    5.5891534    4084.3858 
   10000    2.4660347   -5.0090916            0   -1.3109643    5.8322713    4088.4876 
Loop time of 2.47428 on 48 procs for 10000 steps with 4000 atoms

Performance: 698386.039 tau/day, 4041.586 timesteps/s
99.6% CPU use with 48 MPI tasks x no OpenMP threads

MPI task timing breakdown:
Section |  min time  |  avg time  |  max time  |%varavg| %total
---------------------------------------------------------------
Pair    | 1.0635     | 1.1344     | 1.2524     |   3.2 | 45.85
Neigh   | 0.20376    | 0.214      | 0.23434    |   1.0 |  8.65
Comm    | 0.75157    | 0.84817    | 0.96355    |   5.2 | 34.28
Output  | 0.00024383 | 0.00025107 | 0.00039224 |   0.0 |  0.01
Modify  | 0.21115    | 0.26232    | 0.31517    |   6.0 | 10.60
Other   |            | 0.01512    |            |       |  0.61

Nlocal:        83.3333 ave          92 max          74 min
Histogram: 3 3 3 7 4 6 11 5 2 4
Nghost:        1611.88 ave        1635 max        1597 min
Histogram: 6 4 6 13 4 4 8 1 1 1
Neighs:        9333.42 ave       10681 max        8038 min
Histogram: 3 6 5 3 7 7 7 5 3 2

Total # of neighbors = 448004
Ave neighs/atom = 112.00100
Neighbor list builds = 908
Dangerous builds = 205

# Equilibrate just above the melting temperature to avoid step fn in T

fix 1 all npt temp 1.25 1.25 0.1 iso 5.68 5.68 0.5 mtk yes tchain 5 pchain 5
run 2000
Per MPI rank memory allocation (min/avg/max) = 3.643 | 3.645 | 3.649 Mbytes
Step Temp E_pair E_mol TotEng Press Volume 
   10000    2.4660347   -5.0090916            0   -1.3109643    5.8322713    4088.4876 
   11000    1.2513951   -6.8538208            0   -4.9771974    5.7812101    3292.2026 
   12000    1.2700968   -6.9528374            0   -5.0481686    5.3837318    3280.7753 
Loop time of 0.583603 on 48 procs for 2000 steps with 4000 atoms

Performance: 592183.889 tau/day, 3426.990 timesteps/s
99.6% CPU use with 48 MPI tasks x no OpenMP threads

MPI task timing breakdown:
Section |  min time  |  avg time  |  max time  |%varavg| %total
---------------------------------------------------------------
Pair    | 0.25228    | 0.27908    | 0.29808    |   2.2 | 47.82
Neigh   | 0.037041   | 0.040418   | 0.043383   |   0.7 |  6.93
Comm    | 0.1882     | 0.21262    | 0.24028    |   2.8 | 36.43
Output  | 5.3243e-05 | 5.4543e-05 | 7.1617e-05 |   0.0 |  0.01
Modify  | 0.043874   | 0.046601   | 0.050533   |   0.8 |  7.99
Other   |            | 0.004835   |            |       |  0.83

Nlocal:        83.3333 ave          90 max          75 min
Histogram: 2 3 2 2 12 2 9 5 8 3
Nghost:        1880.75 ave        1907 max        1857 min
Histogram: 3 1 4 7 12 7 7 4 2 1
Neighs:        11646.5 ave       12870 max        9600 min
Histogram: 1 0 2 5 5 11 6 6 7 5

Total # of neighbors = 559032
Ave neighs/atom = 139.75800
Neighbor list builds = 143
Dangerous builds = 8

#############################
# L I N E A R  Q U E N C H  #
#############################

# Define solid atoms. This closely follows ten Wolde  Ruiz-Montero and Frenkel  Faraday Discuss  1996  104  93-110
# Compute components of the per-atom q6 vector
compute q6 all orientorder/atom degrees 1 6 components 6 nnn NULL cutoff 1.3 # compute the Q6 parameter.
                                                                             # Use all neighbours within 1.3 unit cell.

# get number of connections
compute coord_number all coord/atom orientorder q6 0.5

# An atom is solid if it has 8 or more connections (of a possible 14)
variable is_solid atom c_coord_number>=8
group solid dynamic all var is_solid    # Must be dynamic to update
dynamic group solid defined

# do clustering
compute cluster solid cluster/atom 1.3 # Create a cluster where all atoms within are solid and max 1.3 units from another member

# define chunks one chunk per cluster
compute clus_chunks solid chunk/atom c_cluster nchunk every compress yes  # Says which atoms are in which chunk

# count the size of each chunk
compute size_chunks solid property/chunk clus_chunks count


# Find the maximum entry in the vector of chunk sizes
variable max_n equal max(c_size_chunks)


# Thermo style which includes this variable
# thermo_style custom step temp pe vol v_max_n

thermo ${N}  # Print the thermo information every 100 steps
thermo 1000  

# Reset the npt fix at a lower temperature (below freezing)
fix 1  all npt temp  ${temp} ${temp}  0.1  iso  5.68  5.68  0.5  mtk yes tchain  5  pchain  5
fix 1  all npt temp  0.45 ${temp}  0.1  iso  5.68  5.68  0.5  mtk yes tchain  5  pchain  5
fix 1  all npt temp  0.45 0.45  0.1  iso  5.68  5.68  0.5  mtk yes tchain  5  pchain  5

dump dmp2 all dcd ${N} traj.dcd
dump dmp2 all dcd 1000 traj.dcd


compute msd all msd com yes
variable twopoint equal c_msd[4]/6/(step*dt+1.0e-6)
fix 9 all vector 10 c_msd[4]
variable fit equal slope(f_9)/6/(10*dt)
thermo_style custom step temp pe c_msd[4] v_twopoint v_fit v_max_n

fix 1 all npt temp 1.25 ${temp} 0.1 iso 5.68 5.68 0.5 mtk yes tchain 5 pchain 5
fix 1 all npt temp 1.25 0.45 0.1 iso 5.68 5.68 0.5 mtk yes tchain 5 pchain 5
run 5000000 # 5000000  # Run for this many steps
Neighbor list info ...
  update every 1 steps, delay 10 steps, check yes
  max neighbors/atom: 2000, page size: 100000
  master list distance cutoff = 3.8
  ghost atom cutoff = 3.8
  binsize = 1.9, bins = 8 8 8
  4 neighbor lists, perpetual/occasional/extra = 1 3 0
  (1) pair lj/cut, perpetual
      attributes: half, newton on
      pair build: half/bin/atomonly/newton
      stencil: half/bin/3d
      bin: standard
  (2) compute orientorder/atom, occasional
      attributes: full, newton on
      pair build: full/bin/atomonly
      stencil: full/bin/3d
      bin: standard
  (3) compute coord/atom, occasional
      attributes: full, newton on
      pair build: full/bin/atomonly
      stencil: full/bin/3d
      bin: standard
  (4) compute cluster/atom, occasional
      attributes: full, newton on
      pair build: full/bin/atomonly
      stencil: full/bin/3d
      bin: standard
Per MPI rank memory allocation (min/avg/max) = 9.813 | 9.819 | 9.824 Mbytes
Step Temp PotEng c_msd[4] v_twopoint v_fit v_max_n 
   12000    1.2700968   -6.9528374 1.0807394e-30 7.5051347e-33 8.3333333e+20            1 
   13000    1.2561046   -6.9092129   0.50465007 0.0032349363  0.040920374            1 
   14000    1.2436121   -6.9052214   0.97036395 0.0057759757  0.040425937            2 
   15000    1.2311689   -6.9341442    1.4186403  0.007881335  0.038836305            1 
   16000    1.2675584   -6.9742546    1.8768856 0.0097754457  0.038675933            1 
   17000    1.2866652   -6.9477826     2.272078  0.011137637  0.037850257            1 
   18000    1.2427376   -6.9685539     2.745578  0.012711009  0.037332008            1 
   19000    1.2475199   -6.9202974    3.2344918  0.014186367  0.037380871            2 
   20000    1.2512218   -6.9307237    3.7137013  0.015473755   0.03762507            2 
   21000    1.2393024   -6.9225015    4.1936463  0.016641453   0.03797833            6 
   22000    1.2174919   -6.9369723     4.602123  0.017432284  0.038158945            1 
   23000    1.2412909   -6.9668646     5.041155  0.018265054  0.038085013            1 
   24000    1.2654355   -6.9999167    5.4869464  0.019051897   0.03801865            1 
   25000    1.2481313   -6.9413826    6.0200812  0.020066937   0.03797325            1 
   26000     1.220413   -6.9588635    6.4800763  0.020769475  0.038088883            2 
   27000     1.261659    -6.951808    7.0011625  0.021608526  0.038281667       -1e+20 
   28000    1.2664051    -6.926648    7.4426563  0.022150763   0.03843235            2 
   29000    1.2446221   -6.8768921    7.9138807  0.022741036  0.038464166            1 
   30000    1.2568399   -6.9622567    8.4434254  0.023453959  0.038590032            3 
   31000    1.2478788   -6.9477049    8.9487597  0.024055805  0.038749699            2 
   32000    1.2460677   -6.9715391    9.3132164  0.024253167  0.038831176            1 
   33000    1.2576183   -6.9809186     9.742737  0.024602871  0.038838158            1 
   34000    1.2429852    -6.952999    10.184686  0.024962464  0.038836617            1 
   35000    1.2644101   -6.9385216    10.776087  0.025657349  0.038829205            4 
   36000    1.2583968   -6.9107554    11.133812  0.025772712  0.038830934            1 
   37000    1.2519425   -6.9797223    11.532289  0.025973623   0.03879478            1 
   38000    1.2255786   -6.9461979      11.9104  0.026119297  0.038686268            1 
   39000    1.2530331   -6.9514511    12.329302  0.026344661  0.038576283            3 
   40000    1.2322502   -6.9625266    12.655874  0.026366403  0.038421449            1 
   41000    1.2838009   -6.9732183     13.10802  0.026642317  0.038259314            1 
   42000     1.274139   -6.9499716    13.459571  0.026705498   0.03811949            1 
   43000    1.2329817    -6.925563    13.924148  0.026984784  0.037964778            2 
   44000    1.2327458   -6.9507662     14.30361  0.027090171  0.037807081            1 
   45000    1.2240419    -6.963484    14.723969   0.02726661  0.037673512            1 
   46000    1.2297661   -6.9269949    15.235393  0.027600349  0.037557294            1 
   47000    1.2273928   -6.8764225    15.763741  0.027949895  0.037465477            1 
   48000    1.2316077   -6.9650801    16.127021    0.0279983   0.03738818            1 
   49000    1.2589543    -6.909263    16.574771  0.028188386  0.037307615            1 
   50000    1.2399005   -6.9494491    16.970511  0.028284185  0.037235515            2 
   51000    1.2486188   -6.9260966    17.550402  0.028677127  0.037183421            1 
   52000    1.2425606   -6.9494259    18.008764  0.028860198  0.037161921            2 
   53000    1.2507013   -6.9332439    18.499369  0.029087058  0.037142484            1 
   54000    1.2489077   -6.9529688    19.049392  0.029397209  0.037155586            1 
   55000    1.2154864   -6.9650613      19.4192   0.02942303  0.037159533            1 
   56000    1.2093847   -6.9744423    19.950459  0.029688183  0.037188915            3 
   57000    1.2731572   -6.9314103    20.669934  0.030219202  0.037245551            1 
   58000    1.2184417   -6.9232024    21.017191  0.030197113  0.037307056            1 
   59000     1.229649   -6.9231078    21.331646  0.030129444  0.037341731            1 
   60000    1.2147695   -6.9324321    21.766318  0.030230997   0.03736209            2 
   61000    1.2970655   -6.9905348    22.282209  0.030440176  0.037383511            1 
   62000    1.2308995   -6.9492228    22.817082  0.030668121  0.037421177            1 
   63000    1.2381155   -6.9408197    23.180102   0.03066151  0.037449257            2 
   64000    1.2533736   -6.9531866    23.708139  0.030869973  0.037471412            3 
   65000    1.2340142   -6.9580739    24.112948  0.030914035  0.037502063            1 
   66000    1.2595155   -6.9343048    24.472915  0.030900145  0.037512816            1 
   67000    1.1962647    -6.955931    24.987063  0.031078436    0.0375178            1 
   68000    1.2399942   -6.9589163    25.511895  0.031264577  0.037543363            1 
   69000    1.2464471   -6.9115019    26.055025  0.031467421  0.037570245            1 
   70000    1.2336794   -6.9347035    26.347198  0.031365712  0.037593164            2 
   71000    1.2381266   -6.9458893    26.800798  0.031456335  0.037599175            1 
   72000    1.2347087   -6.9341107     27.34765  0.031652373  0.037621456            1 
   73000    1.2801896   -6.9663321    27.855934  0.031799012  0.037643839            1 
   74000     1.259232   -6.9777042    28.250084  0.031813157  0.037671206            1 
   75000    1.2240806   -6.9696851    28.632878  0.031814309  0.037686616            5 
   76000    1.2601664   -6.9936756     29.11646  0.031925942  0.037693742            4 
   77000    1.2248096   -7.0110378    29.671163  0.032111648  0.037704708            1 
   78000    1.2213436   -6.9487605     30.05805  0.032113301   0.03771932            1 
   79000    1.2417766   -6.9330879    30.548952  0.032224633  0.037730247            2 
   80000    1.2305939   -6.9734088    30.698209    0.0319773  0.037727746            1 
   81000    1.2543178   -6.9206528    31.142924  0.032040045  0.037715503            2 
   82000     1.206333   -6.9348391    31.748368  0.032264601  0.037706541            1 
   83000    1.2697543   -6.9624746    32.076336  0.032205156  0.037692683            1 
   84000    1.2042344   -6.9763676    32.321254  0.032064736  0.037672798            1 
   85000    1.2237726   -6.9951346    32.633089  0.031993225  0.037645804            1 
   86000    1.2408904   -6.9454715    33.253887  0.032222758  0.037612172            2 
   87000    1.2435347   -6.9125722    33.671685  0.032252571  0.037588487            1 
   88000    1.2405426   -6.9513086    34.098913  0.032290637  0.037567689            2 
   89000     1.218052   -6.9595115    34.588327  0.032386074  0.037540959            1 
   90000       1.2499   -6.9582092    34.926823  0.032339651  0.037520139            2 
   91000    1.2443657   -6.9700877    35.300317  0.032326297   0.03749078            1 
   92000     1.231043   -6.9833346    35.647747  0.032289626  0.037455423            1 
   93000    1.2368574   -6.9646119    36.104382  0.032351597  0.037418451            1 
   94000    1.2249289   -6.9704566    36.730136  0.032562177  0.037394457            1 
   95000    1.2278671   -6.9798113    36.932521  0.032396948  0.037363043            1 
   96000        1.234   -6.9726737    37.450558  0.032509165  0.037337287            1 
   97000    1.2261857   -6.9825892    38.117696  0.032747162  0.037316758            1 
   98000    1.2332691   -6.9692292    38.659041  0.032873334  0.037306603            1 
   99000     1.248824   -6.9569526    39.284055  0.033067386  0.037312673            1 
  100000    1.2367321   -6.9625844     39.58899  0.032990824   0.03731789            2 
  101000    1.2548439   -6.9839027    39.840821  0.032871965  0.037312228            1 
  102000    1.2449906   -7.0138734    40.224348   0.03286303  0.037304467            1 
  103000    1.2444982   -6.9892629    40.799431  0.033009248  0.037297641            2 
  104000    1.2333123   -6.9523831    41.200212   0.03301299  0.037294039            4 
  105000    1.2052744   -6.9371399     41.72552  0.033115492   0.03728168            1 
  106000    1.2257799   -6.9891691    42.104003  0.033100631  0.037275101            1 
  107000    1.2650153   -6.9587827    42.317169  0.032957296  0.037260589            2 
  108000    1.2413174   -6.9505456     42.71678  0.032960478  0.037239706            1 
  109000    1.2410031   -6.9784888    43.091867  0.032944852  0.037216798            2 
  110000    1.2403225    -6.996908     43.57974  0.033014955  0.037198429            1 
  111000    1.2465329   -6.9447208    44.076708  0.033090621  0.037182021            2 
  112000    1.2349953    -6.948049    44.416458  0.033047959  0.037165986            1 
  113000    1.2329961   -6.9493183     44.76827  0.033014948  0.037148022            1 
  114000    1.2171681    -6.991925    45.389117  0.033179179  0.037125819            2 
  115000    1.2286632   -6.9285753    45.935075  0.033286286  0.037112163            2 
  116000    1.2252019   -6.9565542    46.377857  0.033317426  0.037099672            1 
  117000    1.2325721   -6.9531133    46.811148  0.033341273  0.037088555            2 
  118000    1.2294609   -6.9610424    46.946504  0.033154311  0.037074746            3 
  119000    1.2047852   -6.9339391    47.424067  0.033210131  0.037052602            1 
  120000     1.206352   -6.9662333    47.898229  0.033262659  0.037034833            3 
  121000    1.2523918   -6.9550715    48.209858  0.033202382  0.037012543            1 
  122000    1.2312812   -6.9629138    48.420036  0.033073795  0.036982914            2 
  123000    1.2315503   -6.9817374    48.974826  0.033180776  0.036956067            1 
  124000    1.2561092    -6.981132    49.376838  0.033183359  0.036928692            1 
  125000    1.2147622   -6.9940866     49.59145  0.033060966  0.036899978            4 
  126000     1.207589   -6.9719179    50.182299  0.033189351  0.036869736            2 
  127000    1.2515426   -6.9447805    50.787905  0.033325397  0.036847781            2 
  128000     1.230414   -7.0162852     51.35681  0.033435423  0.036833094            3 
  129000    1.2327518   -6.9774188    51.637697  0.033357685  0.036819983            1 
  130000    1.2449359   -7.0085925     52.16431   0.03343866  0.036809589            1 
  131000    1.2525294   -7.0012505    52.624367   0.03347606  0.036796671            1 
  132000    1.2329691   -7.0186943    52.649346  0.033238223  0.036781262            4 
  133000    1.1981866   -6.9496259    53.133612  0.033291737  0.036761969            3 
  134000    1.2442437   -6.9981509    53.600843  0.033333857   0.03673951            2 
  135000    1.2052058   -7.0159444    53.947515  0.033300935  0.036717013            2 
  136000     1.245902   -7.0012019    54.300184  0.033272172  0.036694307            1 
  137000    1.2394769   -6.9678516     55.07095  0.033498145  0.036675772            1 
  138000    1.1996199   -6.9811813    55.355561  0.033427271  0.036658895            1 
  139000    1.2033091   -7.0110309    55.745546  0.033420591  0.036641984            3 
  140000    1.2449166   -6.9650253    56.403922  0.033573763  0.036628861            1 
  141000    1.2219925   -7.0130947    56.773024  0.033553796  0.036615845            2 
  142000    1.2345155   -6.9979522    57.113633   0.03351739  0.036603544            2 
  143000    1.2545329   -6.9861127    57.729232  0.033641743  0.036590192            5 
  144000    1.2522339   -7.0170224    57.852509  0.033479461  0.036577384            3 
  145000    1.2489444   -6.9792758    58.485839  0.033612551  0.036562938            1 
  146000    1.2460263    -6.958265    58.977289  0.033662836  0.036553148            2 
  147000    1.2383032   -6.9910354    59.436063  0.033693913  0.036543557            2 
  148000    1.2124125   -6.9745813    59.757673  0.033647338  0.036534892            2 
  149000    1.2514536   -6.9279834    60.496151  0.033834536  0.036526368            1 
  150000    1.2301188   -6.9379807    60.704983  0.033724991  0.036522337            2 
  151000    1.2219306   -7.0099237    61.003649  0.033666473  0.036513658            1 
  152000    1.2086697   -7.0001657    61.547362  0.033743071  0.036500803            1 
  153000    1.2432081   -6.9672217    62.173491  0.033863557  0.036491029            1 
  154000    1.2432151   -6.9578297    62.375282  0.033752858  0.036483896            2 
  155000    1.2335672   -6.9736827    62.940259  0.033838849  0.036479219            2 
  156000    1.2386847   -6.9944269    63.243366  0.033783849  0.036473056            2 
  157000    1.2197905    -6.946105    63.963896  0.033951112  0.036465927            4 
  158000    1.2677327   -6.9784515    64.312533  0.033920112  0.036459537            1 
  159000    1.2382297   -6.9779156    64.630296   0.03387332  0.036454038            2 
  160000    1.2286774   -6.9588079    65.297363  0.034009043  0.036446452            2 
  161000    1.2089558   -6.9642439    65.472108  0.033888255  0.036438559            1 
  162000    1.2033317   -6.9961323    65.705283  0.033799014  0.036432144            1 
  163000    1.2423199   -6.9819188    66.174306  0.033831445  0.036422163            1 
  164000     1.235468   -6.9953526    66.667118  0.033875568  0.036413787            1 
  165000    1.2198813   -6.9514761    67.363098  0.034021767  0.036409373            2 
  166000    1.2061295   -6.9910451    67.438114  0.033854475  0.036402531            1 
  167000    1.2379606   -6.9223227    67.853374  0.033858969  0.036392705            1 
  168000    1.2200373   -6.9915109    68.322199  0.033889979  0.036382412            1 
  169000    1.2361642   -6.9789837     68.80378  0.033926913  0.036372896            3 
  170000    1.2164605   -6.9675311    68.903399  0.033776176  0.036362484            1 
  171000    1.2433702   -7.0223043     69.17531  0.033711165  0.036346587            1 
  172000    1.2539757   -6.9932605    69.937893  0.033884638  0.036334493            3 
  173000    1.1938705   -7.0145411    70.108876  0.033771135  0.036322121            2 
  174000    1.2119029   -6.9945161    70.574536  0.033800065  0.036309859            3 
  175000     1.217775   -6.9783433    70.975169    0.0337977  0.036296324            1 
  176000     1.226327    -6.956172    71.235255  0.033728814  0.036284947            2 
  177000    1.2136533   -7.0074843    71.681432   0.03374832  0.036269365            2 
  178000    1.2201078   -7.0222945    72.329648  0.033862195  0.036256936            1 
  179000    1.2286735   -7.0200265    72.689168  0.033840395  0.036246249            2 
  180000    1.2448994     -6.96156    73.193843  0.033886038  0.036233977            1 
  181000    1.2285869   -6.9644593    73.517963  0.033848049  0.036221118            3 
  182000    1.2653405    -6.943905    73.885156  0.033830199  0.036207687            2 
  183000    1.2110752    -7.035041    74.073968  0.033731315  0.036191868            1 
  184000    1.1978003   -7.0284392    74.743034  0.033851012   0.03617512            1 
  185000     1.193594   -7.0609166    75.144319  0.033848792  0.036161031            2 
  186000    1.2023858   -6.9661954    75.397223  0.033780118  0.036148393            1 
  187000    1.2401373   -6.9966165    75.607228  0.033693061  0.036134111            1 
  188000    1.2279339   -6.9570798    76.519151  0.033918063  0.036121006            2 
  189000    1.2174686   -6.9644229    76.904982  0.033908722  0.036107487            1 
  190000    1.2228799   -6.9891453     77.16394  0.033843833  0.036095485            1 
  191000    1.2268128   -6.9800589    77.872447  0.033975762     0.036083            2 
  192000    1.2137675   -6.9974868    77.916512   0.03381793  0.036071113            1 
  193000    1.2474206   -6.9646747    78.210528  0.033769658  0.036055164            2 
  194000    1.2025185   -6.9963454    78.640221  0.033780163  0.036041602            3 
  195000    1.2291179   -6.9845503    79.040096  0.033777819  0.036028898            2 
  196000    1.2138121   -6.9991384    79.391108  0.033754723  0.036017267            1 
  197000    1.2173634   -6.9861284     80.14495  0.033902263  0.036004781            1 
  198000    1.2383606   -6.9564412     80.21052  0.033758636  0.035990563            3 
  199000    1.2257521   -7.0172569    80.824655   0.03384617  0.035975375            1 
  200000    1.2417584   -7.0069837    81.359051  0.033899605  0.035963968            2 
  201000    1.2234698   -6.9831063     81.73786  0.033888002  0.035955184            2 
  202000    1.2306599   -6.9689968    82.280838   0.03394424  0.035946599            1 
  203000    1.2136897   -6.9579781    82.814444  0.033996077  0.035938717            3 
  204000    1.2055497    -6.995679    83.108256  0.033949451   0.03593099            1 
  205000     1.204352   -6.9988561    83.698528  0.034023792  0.035921772            2 
  206000    1.2102597   -6.9985015    84.335176  0.034116172   0.03591571            4 
  207000    1.1887288   -6.9811989    84.677963  0.034089357   0.03591082            3 
  208000    1.2235534   -7.0402441    84.796959  0.033973141  0.035906906            1 
  209000    1.2571694    -7.006813     85.38145   0.03404364  0.035900797            2 
  210000    1.1885412   -7.0155276    85.974396  0.034116824  0.035896423            1 
  211000    1.2080063   -6.9957311    86.484562   0.03415662  0.035893316            2 
  212000     1.204199   -7.0215819    86.782831  0.034112748  0.035892965            2 
  213000       1.2196   -7.0026338     87.39218  0.034190994  0.035889776            2 
  214000    1.2086792   -7.0574919    87.963925  0.034253865  0.035889017            4 
  215000    1.2198759   -6.9701442    88.712347  0.034384631  0.035890432            3 
  216000    1.2275706    -7.024608    89.381776   0.03448371   0.03589513            1 
  217000    1.2201602   -7.0152097    89.690634  0.034443408  0.035901781            1 
  218000    1.2182409   -7.0220031     90.07377  0.034431869  0.035908089            1 
  219000    1.2235745   -7.0415919    90.219101  0.034329947  0.035911812            1 
  220000    1.2462321   -7.0332431    91.047034  0.034487513  0.035916476            1 
  221000    1.2083158   -6.9982981    91.192309   0.03438624  0.035920809            1 
  222000    1.2188047   -6.9870712    91.802078  0.034460239  0.035924439            2 
  223000    1.2133497    -6.970596    92.675912  0.034632254  0.035928985            1 
  224000    1.2048815   -7.0004151    92.627646   0.03445969  0.035936353            1 
  225000    1.2189733   -7.0097996    93.322595  0.034563924  0.035943912            1 
  226000    1.2048938   -7.0072238    93.819865  0.034594345  0.035951504            2 
  227000    1.1999526   -7.0216316    94.282188   0.03461167   0.03595937            3 
  228000    1.2094603   -7.0240749    94.585973  0.034570896  0.035963824            1 
  229000    1.2259781   -7.0229281    94.770051  0.034486918  0.035965773            2 
  230000    1.2315807    -7.023007    95.304182  0.034530501  0.035967434            1 
  231000    1.2109626   -7.0076422    95.843201  0.034575469  0.035970878            1 
  232000    1.2299473   -6.9971092    96.371257  0.034616112  0.035976884            2 
  233000    1.2170986   -6.9926214    96.595397   0.03454771  0.035981148            2 
  234000      1.22659   -7.0322946    96.531911  0.034377461  0.035983053            1 
  235000     1.206763   -7.0195124    96.947584  0.034378576  0.035982897       -1e+20 
  236000    1.1881009    -7.027728    97.556724  0.034447996  0.035982816            1 
  237000    1.2007964   -7.0092711    98.208196  0.034531714  0.035982886            2 
  238000    1.2109327   -7.0218845    98.591123  0.034520701  0.035983111            1 
  239000    1.1993631   -6.9695669    98.781189  0.034442535  0.035982839            2 
  240000     1.233941   -6.9702959    99.412867  0.034518356  0.035980793            2 
  241000    1.2005966   -7.0096396    99.625331  0.034448593  0.035978153            1 
  242000    1.2071116    -6.986919    100.04409  0.034450445  0.035975295            1 
  243000    1.1904746   -6.9798608    100.13693  0.034340509   0.03597029            1 
  244000    1.1934684   -6.9786586    100.96089  0.034481178   0.03596769            1 
  245000    1.2342271   -7.0261595    101.04789  0.034370031  0.035964382            2 
  246000    1.1992855   -7.0439057    101.08964  0.034244457  0.035959939            3 
  247000    1.2266954   -7.0217073    102.12446  0.034454947  0.035956928            2 
  248000    1.2376798   -7.0262543     103.0006  0.034610416  0.035956147            1 
  249000    1.2178647   -6.9982313    102.88333  0.034432171  0.035954827            1 
  250000    1.1959738   -7.0227386    103.26682  0.034422273  0.035953121            1 
  251000    1.2421673   -7.0569512    103.87867   0.03448827  0.035952404            1 
  252000    1.2048506   -7.0775708    103.60486  0.034260865  0.035949013            1 
  253000     1.196637   -7.0364532    104.61756  0.034459013  0.035944384            1 
  254000    1.2041645   -7.0186683    104.61691  0.034323133   0.03594062            1 
  255000    1.2086126   -6.9753987    105.43654  0.034456387  0.035937435            1 
  256000    1.2097251   -7.0237114    105.63684  0.034386991  0.035934537            1 
  257000    1.1950537   -6.9701216    106.12343  0.034410971  0.035930199            1 
  258000     1.199713   -7.0220749    106.32905  0.034344008  0.035925341            1 
  259000    1.2007301   -7.0251332    106.39357  0.034232167   0.03591974            1 
  260000    1.2456047   -6.9945703    107.37745  0.034415848  0.035913767            4 
  261000    1.1775349   -6.9681041    107.52835  0.034332166  0.035908058            1 
  262000    1.2087977   -7.0395254    107.83442  0.034298479  0.035901138            4 
  263000    1.2324648   -6.9983546    108.21452  0.034288505  0.035894737            3 
  264000    1.1869737   -6.9925548    108.99536    0.0344051  0.035888283            1 
  265000    1.1743079   -7.0145935    109.08389   0.03430311  0.035881008            2 
  266000    1.2043478   -7.0557949    109.54404  0.034318308  0.035874259            1 
  267000    1.2080111   -7.0351074    109.69074  0.034235562  0.035866264            2 
  268000    1.2062809   -7.0243946    110.39127  0.034325644  0.035859223            1 
  269000    1.2044262   -7.0046478    111.29075  0.034476689  0.035852582            2 
  270000    1.2097514    -7.024876    111.19127  0.034318292  0.035845037            1 
  271000    1.1834021   -7.0051076    111.59517  0.034315856  0.035839342            3 
  272000    1.1875059   -7.0427789     112.3231  0.034412715  0.035834452            1 
  273000    1.1701308   -7.0172174    112.73961    0.0344138  0.035830639            2 
  274000    1.2059509   -7.0093451    113.29318  0.034456563  0.035825657            3 
  275000    1.1996806   -7.0283804    113.79213  0.034482464  0.035822385            1 
  276000    1.2185781   -6.9812709    114.03065  0.034429544  0.035819591            1 
  277000    1.2173334   -7.0296878    114.63031  0.034485653  0.035817234            1 
  278000     1.182038   -7.0294628    115.05773  0.034489728  0.035815294            3 
  279000    1.1944577   -6.9976796    116.08568  0.034673141  0.035813683            1 
  280000    1.1848418   -7.0580492    116.15278   0.03456928  0.035814078            2 
  281000     1.207306   -6.9720415    116.89736  0.034667071  0.035813753            1 
  282000    1.1886895   -7.0030018    116.83695  0.034526284  0.035812433            3 
  283000    1.1977377   -7.0397364     117.0156  0.034456892  0.035810737            2 
  284000    1.2155483   -7.0186504    117.52471  0.034484949  0.035809615            2 
  285000      1.21266   -7.0651291    118.08948  0.034529088  0.035808729            2 
  286000    1.1994281   -6.9788886    118.71337  0.034590142  0.035807187            2 
  287000    1.2031571   -7.0334011     118.8622  0.034512833  0.035805988            2 
  288000    1.2441871   -7.0049706    119.68474     0.034631  0.035804853            1 
  289000    1.2245057   -7.0516143    120.12228  0.034637336  0.035804557            1 
  290000    1.1764317   -7.0006383    120.39467   0.03459617  0.035802751            1 
  291000    1.1787475   -7.0167102    120.35887  0.034467031  0.035800944            1 
  292000    1.2280356   -7.0619676    120.71584  0.034450866   0.03579861            1 
  293000    1.2176907   -7.0240176    121.40746  0.034529995  0.035795723            1 
  294000    1.1917014   -7.0855617    121.60449  0.034468393  0.035793272            1 
  295000    1.1882437   -7.0525181    122.20062  0.034519948  0.035791924            1 
  296000    1.2169826   -7.0457076    122.73861  0.034554789  0.035790356            3 
  297000    1.2206424   -7.0356908    123.30567  0.034597551  0.035790368            2 
  298000    1.2154016   -7.0062635    123.97591  0.034668879   0.03579052            1 
  299000    1.2135144   -7.0282278    123.94316    0.0345438   0.03578952            1 
  300000      1.19183   -7.0047332    125.13938  0.034760938  0.035789672            1 
  301000    1.2411098   -7.0424963    124.88305  0.034574489  0.035789402            1 
  302000    1.2011069   -7.0300315    125.41367  0.034606422  0.035788258            1 
  303000    1.2023338    -7.021602    125.97012  0.034645248  0.035786711            1 
  304000    1.2158986   -7.0238993    126.75314  0.034745927  0.035785114            2 
  305000    1.2280203   -7.0577996    126.54733  0.034575772  0.035784031            1 
  306000    1.1934313   -7.0071056    127.69713  0.034775907  0.035784576            2 
  307000    1.1780296   -7.0132265    127.71368  0.034667122  0.035784792            2 
  308000    1.2174743   -7.0450741    128.07269  0.034651702  0.035785188            1 
  309000    1.2002552   -7.0408793    128.34152   0.03461206  0.035784671            1 
  310000    1.1944241    -7.054121    128.67341  0.034589625  0.035784573            1 
  311000    1.2128254   -7.0599915     129.0711  0.034584967  0.035784158            1 
  312000    1.2119144   -7.0682232    129.64848  0.034628334  0.035783582            1 
  313000     1.225159   -6.9818055     130.7581  0.034813127  0.035782632            1 
  314000    1.1878599   -7.0247049    130.64979  0.034673511  0.035782289            4 
  315000    1.2235548    -7.034335    131.07986  0.034677211  0.035780883            1 
  316000    1.2299771   -7.0624026     130.9675  0.034537843  0.035779507            1 
  317000    1.2105952   -7.0344964    132.00764  0.034702325  0.035777279            2 
  318000    1.2138496   -7.0667408    132.12882  0.034624954  0.035774506            2 
  319000     1.200831   -7.0377176    132.48149   0.03460854  0.035771425            1 
  320000    1.1914574   -7.0326405    132.62681  0.034538232  0.035769582            2 
  321000    1.1996619   -7.0051169    134.02206  0.034792851    0.0357701            4 
  322000     1.192126   -7.0133969    133.83533  0.034636471  0.035770064            1 
  323000     1.204182   -7.0044968    134.24609  0.034635214  0.035769981            1 
  324000    1.1967436   -7.0714183    134.59861  0.034618985  0.035769718            1 
  325000    1.1895438   -7.0420342    136.01837  0.034876505   0.03576939            2 
  326000    1.1859408   -7.0030431    136.07069  0.034782896  0.035768968            1 
  327000    1.2039184   -7.0520748    135.92351  0.034639019  0.035768837            3 
  328000    1.1909418   -7.0615619    136.25687  0.034618106  0.035767961            1 
  329000    1.1832157   -7.0151888    136.94761  0.034687846  0.035765926            1 
  330000    1.2124388   -7.0350969    137.37495  0.034690644  0.035764915            1 
  331000    1.2192549   -7.0263068    137.87463  0.034711638  0.035764106            5 
  332000    1.1911669    -7.048323    138.67363  0.034807638   0.03576315            2 
  333000    1.2081575   -7.0374166    138.37554  0.034628513  0.035760943            3 
  334000    1.2116976     -7.04529    138.98715  0.034677432  0.035758825            1 
  335000    1.2025652   -7.0590907    139.60125  0.034726679  0.035757689            1 
  336000    1.1964042   -7.0285105     139.6914  0.034645685  0.035756323            1 
  337000    1.1906923   -7.0540107    140.46515  0.034734212  0.035755386            2 
  338000    1.1847833   -7.0058241    141.26246  0.034828024  0.035755623            1 
  339000    1.1939773   -7.0335978    141.46187  0.034774305  0.035754588            2 
  340000     1.216342   -7.0657693    141.64226  0.034716241  0.035753398            1 
  341000    1.2145312   -7.0597827    141.95557     0.034691  0.035753288            1 
  342000     1.206456   -7.0396854    142.95458  0.034832988  0.035752626            1 
  343000     1.224337   -7.0257535    143.20978  0.034793435  0.035752431            1 
  344000      1.21914    -7.060674    143.30892  0.034716309  0.035752801            2 
  345000    1.2121397   -7.0443078    143.76869  0.034726737  0.035751778            2 
  346000    1.1835237   -7.0202195    144.31063  0.034756894  0.035749457            2 
  347000    1.2004248   -7.0604623    143.98199  0.034577808  0.035747543            3 
  348000    1.2051079    -7.042393    145.07078  0.034739172  0.035746168            3 
  349000    1.1867392   -7.0241063    144.92123  0.034603923  0.035743854            2 
  350000    1.1718249   -7.0114488    145.90147  0.034738446  0.035740777            2 
  351000    1.1958053   -7.0353902    146.10033  0.034686688  0.035739057            2 
  352000    1.1664344   -7.0507481    146.81162  0.034756538  0.035737593            1 
  353000    1.1862666   -7.0720418     147.6027  0.034844829  0.035737499            1 
  354000    1.2059407   -7.0259563    148.06547  0.034855336  0.035738151            2 
  355000    1.1864901   -7.0271089    148.48303  0.034855172  0.035739225            1 
  356000     1.182702   -7.0456979    148.82236  0.034836695  0.035739047            2 
  357000    1.1754925    -7.034153    148.93277  0.034764885   0.03573914            1 
  358000    1.1990289   -7.0564495    149.11705  0.034710674  0.035737392            1 
  359000    1.2030807   -7.0574625    149.27496  0.034650641   0.03573566            1 
  360000    1.1907836   -7.0374482    149.91692   0.03470299  0.035733583            3 
  361000    1.1758763   -7.0074597    150.33255  0.034702804  0.035731369            1 
  362000    1.1914728   -7.0332983    150.71257  0.034694422   0.03572968            2 
  363000    1.1847489   -7.0329364    151.82384  0.034853958  0.035728492            1 
  364000    1.2066056   -7.0614551     151.8521  0.034764675  0.035728308            2 
  365000    1.2139701    -7.064441    152.07891  0.034721212  0.035727298            2 
  366000     1.208566   -7.0522916    152.07536  0.034625536  0.035724692            1 
  367000    1.1501848   -7.0538345    153.02148  0.034746022  0.035722425            1 
  368000     1.200437   -7.0397231     153.1475  0.034680139  0.035720034            3 
  369000    1.1746758    -7.064545    153.25584  0.034610624  0.035716915            1 
  370000     1.179691   -7.0157915    154.09345  0.034705732  0.035713554            1 
  371000    1.1898621   -7.0349378    154.48092  0.034699219  0.035710307            1 
  372000    1.1905195   -7.0461935    154.05572   0.03451069  0.035705538            1 
  373000    1.2002774   -7.0215078    154.63926   0.03454854  0.035700503            1 
  374000    1.1750609   -7.0345777    155.36431  0.034617715  0.035694667            1 
  375000    1.1887466   -7.0695149    155.27981  0.034506625  0.035689284            3 
  376000     1.181927   -7.0642344    155.78562  0.034526955  0.035683508            2 
  377000    1.1878118   -7.0396929    156.41981  0.034575555  0.035677521            1 
  378000    1.1786922   -7.0710612    156.60307  0.034524485  0.035673267            2 
  379000    1.2076578   -7.0557679    156.97192  0.034514495  0.035668778            2 
  380000    1.2179706   -7.0238554     157.1993  0.034473532  0.035664643            1 
  381000    1.1911989    -7.066348     157.3653  0.034419357  0.035660834            1 
  382000    1.1730497   -7.0495136    158.42386  0.034560179  0.035656541            2 
  383000    1.1854005   -7.0683624    158.37152  0.034458554  0.035652597            2 
  384000    1.1865524   -7.0058377    159.32941  0.034576695  0.035648798            2 
  385000    1.2015928   -7.0406146    159.24564  0.034468753  0.035644536            1 
  386000    1.1864921   -7.0433984    160.10113  0.034564147  0.035639786            1 
  387000    1.2001501   -7.0881747    160.21984  0.034500397  0.035635231            2 
  388000    1.2009749   -7.0241424    160.74572  0.034524425   0.03563056            1 
  389000    1.1776812   -7.0707169    161.17088  0.034526753  0.035625464            2 
  390000    1.1698029   -7.0747569    161.66653   0.03454413  0.035620432            1 
  391000    1.1606718   -7.0531106    161.53923  0.034428651   0.03561512            2 
  392000    1.2001047   -7.0600986    162.26616  0.034495357  0.035609151            3 
  393000    1.1681904   -7.0372462    162.82574  0.034526238  0.035604989            2 
  394000     1.193338   -7.0426161    163.67266  0.034617738  0.035601222            1 
  395000    1.1869552   -7.0768912    163.25151  0.034441248  0.035596693            3 
  396000    1.1989944   -7.1031804    164.15491  0.034544383  0.035591809            1 
  397000    1.1858858   -7.0404747    164.46897  0.034523294  0.035588326            1 
  398000    1.2125491   -7.0558157     165.2958  0.034609673  0.035584023            3 
  399000    1.2182968   -7.0381371     165.3273  0.034529512  0.035579363            2 
  400000    1.2134839   -7.0155944    165.78162  0.034537837  0.035575142            1 
  401000    1.2058161   -7.0818092    165.96575  0.034489973  0.035570588            3 
  402000    1.1700275   -7.0573768    166.03777  0.034419108  0.035566511            1 
  403000    1.1807594   -7.0757622    165.85154  0.034295191   0.03556101            1 
  404000    1.1874526   -7.0715625    166.88696  0.034423878  0.035555085            1 
  405000    1.1749525   -7.1186508    167.04925  0.034372274  0.035548997            1 
  406000     1.216862   -7.0883002    167.08065  0.034294058  0.035542333            1 
  407000    1.1764132   -7.1101757    167.89762  0.034377072  0.035536164            1 
  408000    1.1864375   -7.0755718    168.68576  0.034453792  0.035530499            2 
  409000    1.1867393     -7.07415    169.09644  0.034453227  0.035526255            1 
  410000     1.174929   -7.0691038     169.7537  0.034502785  0.035521919            3 
  411000    1.1948811   -7.1212371    169.78673  0.034425533  0.035517175            1 
  412000    1.1804545   -7.0534213    170.52127  0.034490549   0.03551175            3 
  413000    1.1834679   -7.0871263    170.07315  0.034316616  0.035505836            1 
  414000     1.184475   -7.0863971    170.85663  0.034391432  0.035500208            7 
  415000    1.2066408   -7.0708631    171.89212   0.03451649  0.035494472            1 
  416000    1.1482814   -7.0624472    171.61587  0.034378179  0.035489104            1 
  417000    1.1769592   -7.0668983    172.31096  0.034434645  0.035484782            2 
  418000    1.1937675   -7.0520439    172.44696  0.034379377  0.035478817            2 
  419000    1.1916089   -7.0536924    172.66635  0.034340961  0.035472877            1 
  420000    1.1648583   -7.0433654    174.02094  0.034527964  0.035467049            1 
  421000     1.170136   -7.0961386    173.27883  0.034299055   0.03546125            1 
  422000    1.2073909   -7.0670872    173.49697  0.034260856  0.035454665            1 
  423000    1.1846251   -7.0793521     174.0878  0.034296257  0.035447788            3 
  424000    1.1695149   -7.0918702    174.64891   0.03432565  0.035441201            2 
  425000    1.1915546   -7.0376631    174.93559  0.034301096  0.035434182            1 
  426000    1.2060262   -7.0972076    175.47204  0.034325516   0.03542752            4 
  427000    1.1938524   -7.0853844    175.87292  0.034323365  0.035420754            2 
  428000    1.1756507   -7.0981815    175.88021  0.034244589  0.035413706            2 
  429000    1.1657658   -7.1011976    176.48129  0.034281524  0.035406787            2 
  430000    1.1953277    -7.096822    176.75985  0.034255784    0.0353998            1 
  431000    1.1865201   -7.1025217    176.84668  0.034193094  0.035393388            3 
  432000    1.1740812   -7.1132067    177.12251   0.03416715  0.035386024            1 
  433000    1.1968648   -7.0745219    177.73245   0.03420563  0.035377695            1 
  434000    1.1773586   -7.0797128    178.49185  0.034272628  0.035369626            1 
  435000    1.1496926   -7.0923126    178.47796   0.03419118  0.035361823            2 
  436000    1.1784507   -7.0633845    178.93446  0.034200012  0.035355075            1 
  437000    1.1627535   -7.0522124    179.95337  0.034316051  0.035348204            1 
  438000     1.190037   -7.0310033    180.21219  0.034286947  0.035341297            1 
  439000    1.2112094   -7.0849639    180.28608   0.03422287  0.035334524            2 
  440000    1.1760506   -7.1078517    180.15932  0.034121083  0.035326784            1 
  441000    1.1608797   -7.0758461    181.21367  0.034242946   0.03531829            6 
  442000    1.1460996   -7.1308886    180.43305  0.034018298  0.035310295            1 
  443000     1.177864   -7.0531005    181.10652  0.034068193  0.035302063            1 
  444000    1.1828707   -7.0762375     181.7781  0.034117511  0.035293331            1 
  445000    1.1709701     -7.06937    182.03614  0.034089165  0.035285284            1 
  446000    1.1684228   -7.1148309    182.32638  0.034066961  0.035277256            1 
  447000    1.1735791   -7.0695094    182.90483   0.03409859  0.035269041            2 
  448000    1.1828634   -7.0530486    183.81972  0.034192656   0.03526129            1 
  449000    1.1789521   -7.0937315    183.59023   0.03407391  0.035253273            2 
  450000    1.1764148   -7.0625058    184.13975  0.034099954  0.035245723            1 
  451000    1.1659929   -7.0616508    184.77042  0.034140875  0.035237793            1 
  452000    1.1650556   -7.0714284    184.69186   0.03405086  0.035229328            2 
  453000    1.1771084     -7.11088    185.09069  0.034049061    0.0352205            1 
  454000    1.1967601   -7.0465387     185.4388  0.034037959  0.035212115            2 
  455000    1.1780023   -7.1188124    185.18933   0.03391746  0.035203592            2 
  456000    1.1941522   -7.0940736    185.87382   0.03396817  0.035194778            1 
  457000    1.1913338   -7.1265987    185.84307  0.033888234  0.035185838            5 
  458000    1.1612783   -7.0977819    186.94332  0.034014432   0.03517719            3 
  459000    1.1863004   -7.1099701     187.8421  0.034103503  0.035169208            2 
  460000    1.2240453   -7.1254091    187.48264  0.033964247  0.035160884            1 
  461000    1.1805225   -7.0689038    188.65677  0.034102814  0.035152631            1 
  462000    1.1928241   -7.0948375    188.20778  0.033948012  0.035144101            1 
  463000    1.1764342    -7.068846    188.66034  0.033956144  0.035134773            1 
  464000    1.1651699   -7.0913288    188.90194  0.033926354  0.035125594            2 
  465000    1.1708171    -7.025279    190.37048  0.034116573  0.035116566            2 
  466000    1.1568136   -7.0984945    189.23386  0.033840104  0.035107298            3 
  467000    1.1765981   -7.1354234    189.66418  0.033844429  0.035097439            1 
  468000    1.1427053   -7.0805116    190.10371  0.033850376  0.035087333            2 
  469000    1.1557281   -7.0383562      190.911  0.033921641  0.035077796            1 
  470000     1.189242   -7.0966356    190.94722  0.033855891  0.035067652            3 
  471000    1.1951301   -7.1084733     190.9942  0.033792321  0.035057158            1 
  472000     1.179396   -7.0995769    191.86487  0.033874447  0.035047107            1 
  473000    1.1761677    -7.072311    191.86103  0.033802155  0.035036835            2 
  474000     1.147107   -7.0935715     191.4799  0.033663837  0.035025072            2 
  475000    1.1552773   -7.1055816     192.4112  0.033756351  0.035013585            1 
  476000     1.170231   -7.0425704     192.8502   0.03376229  0.035002726            2 
  477000    1.1535191   -7.1226597    192.96789  0.033712069  0.034992518            1 
  478000    1.1811041   -7.0359425    193.76379  0.033780299  0.034982527            2 
  479000    1.1966828   -7.1013208    194.17828  0.033781886  0.034972599            1 
  480000    1.1675997   -7.1515407    193.95481   0.03367271  0.034962341            2 
  481000    1.1507126   -7.1058775    194.18828  0.033643153  0.034951749            2 
  482000    1.1593214   -7.0972653    195.44022  0.033789803   0.03494201            3 
  483000    1.1508643   -7.0936863    195.39142  0.033711426  0.034932771            2 
  484000    1.1650461   -7.0872686    196.49063  0.033831032  0.034922156            1 
  485000    1.1668008    -7.114227    195.75367  0.033634652  0.034911339            1 
  486000    1.1840924   -7.1106359    196.68573  0.033725263  0.034901599            1 
  487000    1.1749627   -7.1130476    197.50621  0.033796408  0.034892269            1 
  488000    1.1693453   -7.0859637    198.21276  0.033847808  0.034883119            3 
  489000    1.1503399    -7.102341    198.02649  0.033746845   0.03487479            3 
  490000     1.192298   -7.1245602    198.27167  0.033719671  0.034866371            4 
  491000    1.2004418   -7.0785209    199.34193  0.033832642  0.034857671            2 
  492000    1.1668213   -7.1417416    198.92532  0.033693313  0.034848398            4 
  493000     1.184796   -7.1247765    199.92783  0.033794427  0.034840058            2 
  494000     1.166563   -7.1022925    200.73226  0.033861718  0.034831591            2 
  495000    1.1829463   -7.0817664     200.5384  0.033760673  0.034822796            1 
  496000    1.1803669   -7.1052722    200.91946  0.033756629   0.03481401            1 
  497000    1.1737151   -7.0697139    201.52632  0.033790463  0.034805243            2 
  498000    1.1546101   -7.0900113    201.97367  0.033797468  0.034796549            1 
  499000    1.1699884   -7.1279662     202.0421  0.033741166  0.034788399            2 
  500000    1.1865333   -7.1280117    202.58661  0.033764434  0.034780622            1 
  501000    1.2118996   -7.1342515    202.65309  0.033708099  0.034772774            2 
  502000    1.1560485   -7.1164871    203.77969  0.033827971  0.034764794            1 
  503000    1.1239428   -7.0824651     203.6642  0.033741584  0.034756633            1 
  504000    1.1662154   -7.0718623    204.39826  0.033796009  0.034748701            1 
  505000    1.2196952   -7.1001097    205.14821   0.03385284  0.034741545            2 
  506000    1.1871669    -7.085786    205.43701    0.0338335  0.034734483            1 
  507000    1.1717062   -7.1024026     206.3839  0.033922403  0.034728244            3 
  508000    1.1433886   -7.1120177    207.07073  0.033968296  0.034721952            2 
  509000    1.1663253   -7.1192166    206.51919  0.033811263  0.034716416            3 
  510000    1.1708019   -7.0672344    207.65979  0.033931338   0.03470973            2 
  511000    1.1678261   -7.1175809    207.79388  0.033886804   0.03470349            1 
  512000    1.1835523   -7.1548849    207.65788  0.033798482  0.034697327            1 
  513000    1.2040223   -7.0764919    208.71841  0.033904874   0.03469099            2 
  514000     1.173302   -7.1036674    209.41357  0.033951616  0.034685088            2 
  515000    1.1693084    -7.085177    209.77966  0.033944928   0.03467945            1 
  516000    1.1705309   -7.1051421    209.79409  0.033881474  0.034672807            4 
  517000    1.1615588    -7.126556    210.21636  0.033884003  0.034666706            1 
  518000    1.1615441    -7.129162    210.28154  0.033829077  0.034660143            1 
  519000    1.1564971   -7.0741317    211.07409  0.033891151  0.034653316            3 
  520000    1.1621459   -7.0918211    210.46856  0.033728936  0.034646857            1 
  521000    1.1676129   -7.0955775    210.70355  0.033701783  0.034640187            1 
  522000    1.1712919   -7.0982163    210.87312  0.033664291  0.034633367            2 
  523000    1.1728171   -7.1094124    211.33356  0.033673288  0.034626145            1 
  524000    1.1796459   -7.0559373    212.31374  0.033764907  0.034619198            2 
  525000     1.176961   -7.1024345    212.17284  0.033678228  0.034612952            1 
  526000    1.1734541    -7.074685    213.71353   0.03385829  0.034606013            1 
  527000    1.1528434   -7.1223586    213.42294  0.033748093  0.034599683            2 
  528000    1.1620354   -7.1467703    213.57865  0.033708752  0.034592364            1 
  529000    1.1488699   -7.1009921    214.72302  0.033825303  0.034585555            1 
  530000    1.1579642   -7.1182829    214.43977  0.033716945  0.034578381            1 
  531000    1.1643232   -7.1315779    214.39039  0.033645699  0.034571682            1 
  532000    1.1656117   -7.0878656    215.77416  0.033799211  0.034564569            4 
  533000    1.1690017   -7.1478657    214.97339  0.033610599  0.034557802            1 
  534000    1.1899493   -7.0760204    215.84843  0.033684211  0.034550034            3 
  535000    1.1355537   -7.0672458    216.66712  0.033748773   0.03454359            1 
  536000    1.1449788   -7.0930127     216.5131  0.033661862  0.034536639            2 
  537000    1.1755693   -7.1085915    217.36769  0.033731795    0.0345299            1 
  538000    1.1915296   -7.1572028    217.77711  0.033732514   0.03452376            3 
  539000    1.1671252   -7.0924489    217.85202  0.033681512  0.034517257            1 
  540000    1.1748485    -7.138326    219.04803  0.033803708  0.034510706            1 
  541000    1.1563421   -7.1481245     218.6361  0.033677772  0.034504764            3 
  542000     1.178441   -7.1191002    220.17732  0.033852602  0.034499383            1 
  543000    1.1495978    -7.151915    219.85669  0.033741051  0.034494295            1 
  544000    1.1770426   -7.1782255     220.0067  0.033702007  0.034488325            4 
  545000    1.1854087   -7.0821367    221.00252  0.033792435  0.034482903            2 
  546000    1.1669682     -7.10424    221.85323  0.033860384  0.034476922            2 
  547000    1.1939663   -7.1231483    221.53755  0.033750388  0.034471748            1 
  548000    1.1829922   -7.1494458    220.98786   0.03360521  0.034465475            3 
  549000    1.1640664   -7.1212866    221.81023  0.033668827  0.034458816            2 
  550000    1.1606342   -7.1167505      222.629  0.033731667  0.034452368            2 
  551000    1.1559586   -7.1123511    223.06564  0.033736486  0.034446079            1 
  552000    1.1415733   -7.1414063    223.31355  0.033712795  0.034440944            1 
  553000    1.1414635   -7.1202812    223.20954  0.033636158  0.034435399            3 
  554000    1.1600046   -7.1391036    223.87771  0.033675949  0.034429513            1 
  555000    1.1301792   -7.0793022    226.12583  0.033952827  0.034424091            2 
  556000    1.1843718    -7.103692    224.66892    0.0336734  0.034418484            1 
  557000    1.1839749   -7.1075568     225.1649  0.033687149  0.034413383            1 
  558000     1.162612   -7.1099903     226.0939  0.033765517  0.034407722            1 
  559000    1.1421185   -7.1513939    225.93743  0.033681787  0.034401944            1 
  560000    1.1655975   -7.1498853    225.99078  0.033629581  0.034395573            1 
  561000     1.146002   -7.0967328    226.58914  0.033658517  0.034389014            2 
  562000    1.1678822   -7.1132383    226.73506  0.033620264  0.034382654            1 
  563000    1.1667539    -7.101814    228.07106  0.033758298  0.034376922            2 
  564000    1.1570617   -7.1508621    227.98383  0.033685554  0.034371395            2 
  565000    1.1614528   -7.1217859    229.10179  0.033790824  0.034366568            3 
  566000    1.1627321   -7.0805116     228.6444  0.033663781  0.034361595            2 
  567000    1.1684051   -7.0846884    229.89469  0.033788168  0.034356448            2 
  568000     1.142763   -7.1696481     229.2837   0.03363904  0.034351236            1 
  569000    1.1603595   -7.1321119    230.46826  0.033753406  0.034345758            2 
  570000    1.1704073   -7.1494546    231.38922  0.033828834  0.034340342            2 
  571000    1.1773677   -7.1046783    231.60563  0.033801172  0.034335068            2 
  572000    1.1609943   -7.1317914    230.75544  0.033618216  0.034329928            1 
  573000     1.150489   -7.1298662    231.74762  0.033703843  0.034324517            2 
  574000    1.1540141   -7.1468441    231.46086  0.033603493  0.034319188            1 
  575000    1.1659383    -7.135035    232.17854  0.033649063   0.03431361            3 
  576000    1.1839213   -7.0996461    232.36627  0.033617805  0.034308055            1 
  577000    1.1377375   -7.1038295     233.2621  0.033688923  0.034302355            2 
  578000    1.1451374   -7.1328515    232.85916  0.033572543   0.03429666            2 
  579000    1.1713813   -7.1341485    233.65441  0.033629017  0.034290839            1 
  580000    1.1492005   -7.1523593    233.60313  0.033563668  0.034284949            1 
  581000    1.1623145   -7.1368471    234.13778  0.033582585  0.034278476            1 
  582000    1.1686677   -7.1386284     234.3002  0.033548139  0.034272165            2 
  583000    1.1545971   -7.1505873    234.24912  0.033483293  0.034265491            1 
  584000    1.1505788   -7.1634827    234.55591  0.033469736  0.034258829            1 
  585000    1.1333329   -7.1869098    235.05589  0.033483745  0.034252419            2 
  586000    1.1558363   -7.1293152    235.49266  0.033488717  0.034245654            4 
  587000    1.1434026   -7.1727843    234.93524  0.033352532  0.034238827            2 
  588000    1.1793639   -7.1901453    234.85994  0.033285139  0.034231792            2 
  589000    1.1653691    -7.087751    237.03241  0.033535995  0.034225119            1 
  590000    1.1383494    -7.111143    236.26637  0.033370956  0.034218356            2 
  591000    1.1481471   -7.1117908    238.24971   0.03359415  0.034212517            4 
  592000    1.1626217   -7.1247696    238.09955  0.033516266  0.034206104            1 
  593000    1.1478869   -7.1111759    238.52585  0.033519652  0.034199806            2 
  594000    1.1592586   -7.0812711    239.67455  0.033624375  0.034193543            1 
  595000    1.1380863   -7.1238709    239.12705  0.033491184  0.034187833            3 
  596000    1.1228767   -7.1466979    238.91438  0.033405254  0.034181535            3 
  597000     1.149786    -7.085082    240.29356  0.033541815  0.034174958            1 
  598000    1.1431525   -7.1865324    239.54761  0.033381774   0.03416834            2 
  599000     1.157677    -7.074407    239.70767  0.033348312  0.034161355            2 
  600000    1.1718671    -7.107696    240.12957   0.03335133  0.034154335            2 
  601000    1.1647958   -7.0920406     240.6208  0.033363949  0.034146916            2 
  602000    1.1687111   -7.1834362    240.75477  0.033327072  0.034140229            1 
  603000    1.1597032    -7.136305    241.57281  0.033384855  0.034132958            1 
  604000    1.1627404   -7.1322154    240.84146  0.033228678  0.034125443            2 
  605000    1.1603632   -7.1261743    241.10794   0.03321046  0.034117877            2 
  606000    1.1269224    -7.136677    241.70649  0.033237966  0.034109816            3 
  607000    1.1442775   -7.1112816    242.39666   0.03327796  0.034102019            2 
  608000    1.1403525    -7.144257    242.66159  0.033259538  0.034094538            1 
  609000    1.1564146   -7.1765882    243.11212  0.033266574  0.034086263            2 
  610000     1.152463   -7.1341706    243.15149  0.033217417  0.034078468            1 
  611000    1.1248589   -7.1786721     243.9068  0.033266066  0.034070853            3 
  612000    1.1751518   -7.1497724    243.85678  0.033204899  0.034062933            1 
  613000    1.1891424   -7.1281164    244.97332  0.033302518  0.034055659            3 
  614000    1.1684166   -7.1487107    244.78692  0.033222981  0.034048422            2 
  615000    1.1738868   -7.1333385    245.85544  0.033313745  0.034041358            1 
  616000    1.1464541   -7.1499174    246.06052  0.033287409  0.034034526            1 
  617000      1.17354   -7.0750959    246.41302  0.033281066  0.034027361            1 
  618000    1.1337822   -7.1533167    245.93021   0.03316211  0.034019962            1 
  619000    1.1578648   -7.1433288    246.96325   0.03324761  0.034012162            1 
  620000    1.1415564   -7.1588989    246.92922  0.033189412  0.034004608            2 
  621000    1.1505907   -7.1714753    248.06525  0.033288413  0.033997252            1 
  622000    1.1418149   -7.1690392    247.55243  0.033166188  0.033990151            1 
  623000    1.1586091   -7.1659423    248.06973  0.033182147  0.033982928            2 
  624000     1.154278   -7.1620068    248.80294  0.033226888  0.033976243            1 
  625000    1.1657404   -7.1546374    248.91338  0.033188451   0.03396937            2 
  626000    1.1634295   -7.1252528    250.18963  0.033305329  0.033962856            2 
  627000    1.1224397   -7.1552629    250.64812  0.033313147  0.033956638            1 
  628000    1.1667199   -7.1222091    251.65159  0.033393258   0.03395079            1 
  629000    1.1495333   -7.1345721    252.04213  0.033391909  0.033944495            1 
  630000     1.170006   -7.1760194     252.1492  0.033353069  0.033938518            1 
  631000    1.1618741   -7.1392292    253.26789  0.033447951  0.033932604            2 
  632000    1.1415438   -7.1750899    253.34396  0.033405058  0.033926593            2 
  633000    1.1328927   -7.1996159    251.90931  0.033163417  0.033920452            2 
  634000    1.1629516   -7.1604206      252.744   0.03322082  0.033913955            1 
  635000    1.1514073   -7.1433146    254.35683  0.033380161  0.033908218            2 
  636000    1.1433515   -7.1642314    254.03411  0.033285392  0.033902157            1 
  637000    1.1625267   -7.1330826    254.05973   0.03323649  0.033896087            3 
  638000    1.1398689   -7.1359459     254.7022  0.033268312  0.033890068            3 
  639000    1.1381481   -7.1698996    254.33221  0.033167998  0.033883847            1 
  640000    1.1533771   -7.1458473    255.68077  0.033291767  0.033877488            1 
  641000    1.1494114   -7.1286175    256.02255  0.033284263  0.033871675            1 
  642000    1.1171496   -7.1944127    255.98909  0.033228075  0.033865645            6 
  643000    1.1454494   -7.1773378     256.3076  0.033217677  0.033859033       -1e+20 
  644000    1.1395618   -7.1947175    256.00642  0.033127124  0.033852512            1 
  645000    1.1309791   -7.1599063    256.77704  0.033175328  0.033846269            1 
  646000    1.1123329   -7.1663815    257.40761  0.033205316  0.033839823            1 
  647000    1.1198318   -7.1640522    258.50291  0.033295069  0.033833901            2 
  648000    1.1389456   -7.1449079    258.54248  0.033248775  0.033827895            2 
  649000    1.1493477   -7.1244649    259.65062  0.033339833  0.033821745            2 
  650000    1.1560622   -7.1299269    259.69771  0.033294578  0.033815833            1 
  651000    1.1556382   -7.1661382     259.8066  0.033257373  0.033810162            2 
  652000    1.1232707   -7.1447333    259.82757  0.033209045  0.033804471            1 
  653000     1.127364   -7.1937947    260.37368  0.033227881  0.033798644            1 
  654000    1.1343952   -7.1423815     260.5739  0.033202587  0.033792918            1 
  655000    1.1450215    -7.153079    261.06636   0.03321455  0.033787402            1 
  656000    1.1394438   -7.1570927    261.04966  0.033161796  0.033780765            1 
  657000    1.1497123   -7.1214978    260.90358  0.033092793  0.033774649            2 
  658000    1.1409379   -7.1648467    261.91689  0.033170832  0.033768491            1 
  659000     1.131172   -7.1714977    261.82214  0.033108515  0.033762552            3 
  660000     1.157252   -7.1408306    262.49154  0.033142871  0.033756124            1 
  661000    1.1606435   -7.1892706    262.40969  0.033082412   0.03374979            3 
  662000    1.1597788   -7.1839757    263.14167  0.033124581  0.033743356            2 
  663000    1.1346432   -7.1824968    262.92454  0.033047328  0.033736783            1 
  664000    1.1605089   -7.1579741    263.91263  0.033121565  0.033730642            2 
  665000    1.1367321   -7.1281536    265.27737  0.033242778  0.033724949            1 
  666000    1.1263473   -7.1701476    265.16792  0.033179169   0.03371909            2 
  667000    1.1330893   -7.1600627    265.33287  0.033150034     0.033713            1 
  668000     1.176064   -7.1756838    265.83212   0.03316269   0.03370718            1 
  669000    1.1648107    -7.149394     266.0332  0.033138167  0.033701333            2 
  670000    1.1380381   -7.1647217    266.07721  0.033094181  0.033695013            1 
  671000    1.1529673   -7.1848333    265.96806  0.033031304  0.033688671            3 
  672000    1.1367718   -7.1580284    266.79521  0.033084724  0.033682507            2 
  673000    1.1427453   -7.1644522    267.90652   0.03317317  0.033676195            2 
  674000    1.1323955   -7.1338841    267.22105    0.0330392  0.033669888            2 
  675000    1.1376479   -7.1518004    268.13625  0.033103241  0.033663502            2 
  676000    1.1474715    -7.163216    267.92833   0.03302864  0.033657194            2 
  677000     1.137603    -7.176441    268.28794  0.033024119  0.033650572            1 
  678000    1.1618159   -7.1564823    268.18685  0.032962986  0.033644042            4 
  679000    1.1482763   -7.1696378    269.07829  0.033023845  0.033637876            1 
  680000    1.1261435   -7.1847639    269.40222  0.033014977  0.033631561            1 
  681000    1.1297256   -7.1537613    270.12766  0.033055269  0.033625334            1 
  682000    1.1558326   -7.2032032    269.77143  0.032963273  0.033619153            3 
  683000    1.1679146   -7.1776769    270.30798  0.032980476  0.033612508            2 
  684000    1.1431712   -7.1706513    270.12011   0.03290937   0.03360589            2 
  685000    1.1279465   -7.1804749    270.82567  0.032947161  0.033599264            1 
  686000     1.111641    -7.150022    271.22788  0.032947993  0.033592542            2 
  687000    1.1614639   -7.1600889    271.39508  0.032920316  0.033585792            1 
  688000    1.1227554   -7.1235122     272.1653  0.032965758  0.033579212            1 
  689000    1.1348342    -7.173796    272.62362  0.032973345  0.033572316            2 
  690000     1.153968   -7.1436932    272.29948  0.032886411  0.033565529            3 
  691000    1.1255085   -7.1678684    272.70415  0.032887621  0.033558873            3 
  692000    1.1204944   -7.1452643     273.0076  0.032876637  0.033551997            2 
  693000    1.1461513   -7.2084695    273.36735  0.032872456  0.033545061            2 
  694000    1.1247129    -7.137466    274.15606  0.032919796  0.033537559            1 
  695000    1.1332955   -7.1478058    273.58349  0.032803775  0.033530345            1 
  696000    1.1444995   -7.2043306    273.47272  0.032743382  0.033523371            1 
  697000    1.1312466   -7.1828706    273.75181  0.032729771  0.033515898            2 
  698000    1.1531694   -7.1416915    275.10791  0.032844784  0.033508376            2 
  699000    1.1312351   -7.1996707    274.96237  0.032780445  0.033500708            2 
  700000    1.1533731   -7.2070456    275.40495  0.032786303  0.033492909            2 
  701000    1.1627577   -7.1623104    275.65086  0.032768766  0.033485189            2 
  702000    1.1541354   -7.1679554    276.14026  0.032780183  0.033477846            1 
  703000    1.1234958    -7.145757    276.86042  0.032818921  0.033470808            1 
  704000    1.1480214   -7.2101604    275.42029  0.032601834  0.033463495            1 
  705000    1.1332385   -7.1684399    277.30846  0.032778778  0.033456507            1 
  706000    1.1380954   -7.1854767    277.63478  0.032770866   0.03344951            3 
  707000    1.1498156   -7.1915833    277.30927  0.032686147  0.033442681            1 
  708000    1.1140725   -7.1817435     278.6297  0.032795397  0.033435743            2 
  709000    1.1444733   -7.2132072    277.90383  0.032663825  0.033428858            1 
  710000    1.1363317   -7.2017975    279.58652   0.03281532  0.033421625            2 
  711000    1.1704905   -7.1747258    279.52187  0.032761588  0.033414743            2 
  712000    1.1342986   -7.1630988    279.37849  0.032698794  0.033408115            1 
  713000    1.1408084   -7.1516657    280.72385  0.032810174  0.033401332            2 
  714000    1.1445405   -7.2195959    280.83838  0.032777589  0.033394325            3 
  715000    1.1355236   -7.1945597    281.55431  0.032815187  0.033387361            1 
  716000    1.1032937   -7.2184313    280.65863   0.03266511  0.033379917            2 
  717000    1.1308747    -7.178983    281.53443  0.032721343  0.033373016            1 
  718000    1.1280142   -7.1283021    282.40112   0.03277636  0.033366488            2 
  719000    1.1348958   -7.1633263    282.86058  0.032784026  0.033359975            2 
  720000    1.1455548   -7.2081027    282.58574  0.032706683  0.033353348            4 
  721000    1.1245777   -7.1863864    283.50081  0.032767084  0.033346511            3 
  722000     1.144094   -7.1600914    284.61274  0.032850039  0.033339902            3 
  723000     1.145609   -7.1925988    284.29408  0.032767875  0.033333544            2 
  724000    1.1470309   -7.1616129     284.7353    0.0327734  0.033327104            1 
  725000     1.130531   -7.1673308    285.20671  0.032782381  0.033320717            1 
  726000    1.1337376   -7.1709551    284.70466  0.032679598  0.033314206            2 
  727000    1.1329236   -7.1893572    284.71128  0.032635405  0.033307603            3 
  728000    1.1505395   -7.1288181    286.00232  0.032738361  0.033300752            2 
  729000    1.1066735   -7.2076411    285.34971  0.032618851  0.033293958            2 
  730000     1.121858   -7.1882105      286.587  0.032715411  0.033286994            2 
  731000    1.1491966    -7.185356    286.18303  0.032624605   0.03327994            2 
  732000    1.1274945   -7.1426845    288.23149  0.032813239    0.0332728            2 
  733000    1.1238275   -7.2129958    286.38807  0.032558898  0.033265931            2 
  734000    1.1316364   -7.2202162    286.72269   0.03255253   0.03325852            2 
  735000    1.0967492   -7.1319037    287.59134  0.032606728  0.033251498            2 
  736000    1.1309123   -7.2216324    288.02972  0.032612061  0.033244332            1 
  737000    1.1206476   -7.1939948    288.85573  0.032661208  0.033237311            1 
  738000    1.1457691    -7.202691    288.53767  0.032581037  0.033230562            1 
  739000    1.1229705   -7.1591345    289.95348  0.032696603  0.033223938            1 
  740000    1.1535604   -7.1703464    290.87666   0.03275638  0.033217383            1 
  741000    1.1444421   -7.2291431    289.91781  0.032604342  0.033210949            1 
  742000    1.1150111    -7.154367    291.18185  0.032702365  0.033204523            1 
  743000    1.1173412   -7.2119873    291.11543    0.0326509  0.033197841            2 
  744000    1.1214981   -7.2129058    290.54919  0.032543592  0.033191305            1 
  745000    1.1363392   -7.1782245     292.1632  0.032680448  0.033184557            1 
  746000    1.1436954   -7.1875172    291.76975  0.032592689  0.033177891            1 
  747000    1.1469838   -7.1752567    292.95408  0.032681178   0.03317133            3 
  748000    1.1464378   -7.1585834    293.47401  0.032695412  0.033164586            2 
  749000    1.1265271   -7.1868891    292.60853  0.032555467  0.033157815            1 
  750000    1.1306753   -7.1833271    293.40542  0.032600603  0.033151318            2 
  751000    1.1357418   -7.1793682    293.44695  0.032561801  0.033144832            4 
  752000    1.1151429   -7.1694475    294.79459   0.03266784  0.033138496            1 
  753000    1.1135543   -7.2303327    294.66578  0.032610202  0.033132489            2 
  754000    1.1373933   -7.1287289    295.55783  0.032665543  0.033126333            4 
  755000    1.1536213   -7.2019056      295.686  0.032636424  0.033120007            1 
  756000    1.1392747   -7.1310596    297.60633   0.03280493  0.033114338            1 
  757000     1.133664   -7.2115575    295.81305  0.032564184  0.033108739            3 
  758000    1.1286504   -7.2075647    296.08191  0.032550782  0.033102602            3 
  759000    1.1246973   -7.1873708    297.38092  0.032650518  0.033096768            3 
  760000    1.0856514   -7.1615935    298.85678  0.032769384  0.033091018            2 
  761000    1.1412889   -7.1502151    297.23412  0.032548633  0.033085109            1 
  762000    1.1307046   -7.1617546    298.54291  0.032649049  0.033079612            3 
  763000    1.1355835    -7.164302    297.95363  0.032541899  0.033073625            2 
  764000    1.1284455   -7.1711626    299.27076  0.032642971  0.033067598            1 
  765000     1.125635   -7.2140022    298.80288  0.032549334  0.033061403            2 
  766000    1.1206791   -7.1805661    299.50464  0.032583185  0.033055008            1 
  767000    1.1289023   -7.2541922    297.65241  0.032339462   0.03304841            1 
  768000    1.1513438   -7.1983365     300.1608  0.032569531   0.03304217            2 
  769000    1.1538468   -7.1767023     300.1094  0.032521608  0.033035909            2 
  770000    1.1323771   -7.2124902    299.67669  0.032432542  0.033029547            1 
  771000    1.1170737    -7.201995    300.80609  0.032512548    0.0330234            2 
  772000    1.1434125   -7.2167288    301.11798    0.0325041  0.033017191            4 
  773000    1.1220368   -7.2020041    300.10106  0.032352422  0.033010634            1 
  774000    1.1241165   -7.2470577    299.77496  0.032275512  0.033003494            3 
  775000    1.1221094   -7.1964025    301.11182  0.032377615  0.032996047            1 
  776000     1.092426   -7.1928039    301.91065  0.032421676  0.032989029            1 
  777000    1.1352114   -7.1861017    302.14707  0.032405305  0.032982217            2 
  778000    1.1307609   -7.2102656    302.48173    0.0323995  0.032975185            2 
  779000    1.1277302   -7.1770834    302.61083  0.032371719  0.032968593            1 
  780000    1.1231965   -7.1958344    303.64754  0.032440977  0.032962021            2 
  781000    1.1207259   -7.1854648    303.15085  0.032346442  0.032955345            1 
  782000    1.1249244   -7.2104459    303.95531  0.032390805  0.032948175            1 
  783000    1.1342072   -7.2122958    303.90489  0.032344071  0.032941329            1 
  784000    1.1349809   -7.2072895    305.07911  0.032427626  0.032934545            4 
  785000    1.1187065   -7.2169135    304.54267   0.03232937  0.032928227            1 
  786000    1.1089932   -7.1674215     306.4294  0.032488274  0.032922235            7 
  787000    1.1444808   -7.2393399    305.25219  0.032322342  0.032915874            1 
  788000    1.1088822   -7.1985396     306.2568  0.032387563  0.032909433            4 
  789000    1.1318233   -7.2110559    306.99825  0.032424826  0.032903552            2 
  790000    1.1342942   -7.2305449    307.84633  0.032473241   0.03289796            2 
  791000    1.1506904    -7.199341    308.08807  0.032457656  0.032891834            1 
  792000    1.0977926    -7.229509    307.65271  0.032370866  0.032885691            2 
  793000    1.1129942   -7.1915878    308.26159   0.03239403  0.032879738            1 
  794000    1.1182291   -7.1824461    309.64052  0.032497955  0.032874143            4 
  795000    1.1118391   -7.1695943    310.91895  0.032591085  0.032868888            1 
  796000    1.1173492   -7.1493434    310.96539  0.032555003  0.032863385            1 
  797000    1.1401323   -7.2031689    310.15993  0.032429938  0.032858016            1 
  798000    1.1203889   -7.1882679    310.69412  0.032445083  0.032852343            4 
  799000    1.1378626   -7.2220764    310.27215  0.032360466  0.032846594            1 
  800000    1.1300827   -7.2319678    311.04172  0.032400179  0.032840812            1 
  801000    1.1514855   -7.1780194    312.41853  0.032502968  0.032834686            1 
  802000    1.0807402    -7.227163    310.16433  0.032228214  0.032828708            3 
  803000    1.1359781   -7.2143104     311.3567   0.03231182  0.032822341            2 
  804000    1.1272806   -7.2163629    311.80287  0.032317876  0.032816102            1 
  805000    1.1286058   -7.1974376     312.8511  0.032386242  0.032810034            1 
  806000    1.1309773   -7.2120188    312.30251  0.032289341  0.032804131            1 
  807000    1.1129332   -7.2198192    313.62895  0.032386302  0.032798012            3 
  808000     1.116979   -7.2356985    313.07062  0.032288637  0.032791773            1 
  809000    1.1143814   -7.2174686      314.396  0.032385249  0.032785517            2 
  810000    1.1077681   -7.2233441    313.96789  0.032301223  0.032779893            3 
  811000    1.1230467   -7.1919636    314.79793  0.032346685  0.032774335            3 
  812000    1.1389806    -7.195146    316.41731  0.032473041  0.032768818            2 
  813000    1.1146319   -7.2203202    316.29523  0.032420586  0.032763252            1 
  814000    1.1220773   -7.2167317    316.46899  0.032398545  0.032757543            3 
  815000    1.1583724   -7.2459796     315.5716  0.032267034  0.032751344            2 
  816000    1.1033014   -7.2217569    315.48758  0.032218912  0.032745342            2 
  817000    1.1167816   -7.1999707    317.31968  0.032366348  0.032739317            2 
  818000    1.1154934   -7.2264451     316.5967  0.032253127  0.032733077            1 
  819000    1.1180819    -7.190501    316.49792  0.032203695  0.032726814            2 
  820000    1.1299863   -7.2201239    317.66861  0.032283395  0.032720978            1 
  821000    1.1351283   -7.2122267      318.244  0.032302477  0.032714959            2 
  822000    1.1213757     -7.22569    317.89476  0.032227774  0.032708588            5 
  823000    1.1551949   -7.2378711    317.94804   0.03219401  0.032702278            1 
  824000    1.1096782   -7.1778606    319.46361  0.032308213  0.032696484            2 
  825000    1.1264911   -7.2043565    319.81874  0.032304924  0.032690693            1 
  826000    1.0919406   -7.1633057    319.81091  0.032265024  0.032684942            2 
  827000    1.1278297   -7.2334535    320.11415  0.032256565  0.032678969            2 
  828000    1.1265609   -7.1945737    320.31057  0.032237376  0.032672696            2 
  829000    1.1099391    -7.235089    319.87922  0.032155129  0.032666466            1 
  830000    1.1230338   -7.2287389    320.27685   0.03215631  0.032660104            3 
  831000    1.1236016   -7.2330236    321.12247  0.032202414  0.032654254            2 
  832000      1.12146   -7.2319915      320.963  0.032147737  0.032648426            3 
  833000      1.10521   -7.2446645     321.8452  0.032197399  0.032642505            1 
  834000    1.1313348   -7.2262817    323.66231  0.032340359  0.032637117            3 
  835000    1.1252068   -7.2224555    323.64304  0.032299705  0.032631834            2 
  836000    1.0972853   -7.1577453    324.43346  0.032339859  0.032626731            3 
  837000    1.1039781   -7.2352579    323.77411  0.032235575  0.032621565            1 
  838000    1.1143724   -7.2055538     323.5857  0.032178371   0.03261611            2 
  839000    1.1186365   -7.2232431    324.33307   0.03221425  0.032610523            2 
  840000    1.0969749   -7.2509404    325.09687  0.032251674    0.0326048            2 
  841000    1.1339476   -7.2216833    325.16668  0.032220242  0.032599311            3 
  842000    1.0971117   -7.2055013    326.73746  0.032337437  0.032594227            1 
  843000    1.1259339   -7.1811027     327.0796  0.032332899   0.03258923            2 
  844000    1.1117482   -7.2041557    328.04001  0.032389416  0.032584195            3 
  845000    1.1259457   -7.1898754    327.29698  0.032277809  0.032579148            1 
  846000    1.1169074    -7.207988     328.2695  0.032335451  0.032573756            3 
  847000    1.1121964   -7.1997302    327.45913  0.032217545  0.032568294            1 
  848000    1.0927987    -7.225361    328.19713  0.032252076  0.032562761            2 
  849000     1.109972    -7.166393    329.38915  0.032331091   0.03255772            2 
  850000    1.0960389   -7.2050937     329.1823  0.032272774  0.032552534            1 
  851000    1.1342381   -7.2581295    328.54356  0.032172303  0.032547397            1 
  852000    1.1194344   -7.2655369    330.15734  0.032292385    0.0325422            2 
  853000    1.1253645   -7.2234064    329.43225   0.03218369  0.032536567            1 
  854000    1.1269487   -7.2423493    330.18143  0.032219109  0.032530966            2 
  855000    1.1213092   -7.2042127    329.87051  0.032151122  0.032525753            1 
  856000    1.1377285   -7.2142806    330.86219  0.032210104   0.03252028            1 
  857000    1.1111742   -7.2474216    330.55031  0.032142193  0.032514908            2 
  858000    1.1411013   -7.2264795    329.64682   0.03201698  0.032509518            4 
  859000    1.1120264    -7.244827    329.94867   0.03200899  0.032503983            1 
  860000      1.13068   -7.2146357    330.99372  0.032073035  0.032497917            4 
  861000    1.1152794   -7.2448681     332.0512  0.032138134  0.032491948            1 
  862000    1.1060952   -7.2024255    330.94613  0.031994019  0.032485852            4 
  863000    1.1138763   -7.2403567    331.66847  0.032026697  0.032479632            1 
  864000    1.1015975   -7.2154057    332.81342  0.032100059  0.032473675            2 
  865000    1.0926504   -7.2523457    331.77447  0.031962859   0.03246762            2 
  866000    1.1231532   -7.2218611    332.67313  0.032012426  0.032461317            1 
  867000    1.1407208   -7.2445264    332.65538  0.031973796   0.03245549            2 
  868000    1.1148383   -7.2245833    332.63905  0.031935392   0.03244937            1 
  869000    1.1272576    -7.221727    333.20743  0.031953149  0.032442969            1 
  870000    1.1000318   -7.2322997    333.56263  0.031950443  0.032436882            1 
  871000     1.108271   -7.2842801    334.59561  0.032012592  0.032430307            1 
  872000    1.1235555   -7.2749153    334.46133  0.031963048   0.03242414            1 
  873000    1.1281581   -7.2408955     334.9462  0.031972718  0.032418036            1 
  874000       1.1351   -7.2487064    335.38757   0.03197822  0.032411821            2 
  875000    1.0928171   -7.2381133    335.31878  0.031935122  0.032405507            2 
  876000    1.0796242   -7.2744489    334.99705   0.03186806  0.032398855            3 
  877000    1.0806636    -7.233801    336.25739  0.031951482  0.032392073            1 
  878000    1.0943988   -7.2226954    335.65305   0.03185773  0.032385102            1 
  879000     1.125197   -7.2699854    335.10607  0.031769631  0.032378331            2 
  880000    1.1372212   -7.2197131    336.56868  0.031872034  0.032371515            1 
  881000    1.1041042   -7.2409234    336.20742  0.031801686  0.032364962            4 
  882000    1.1073959   -7.2261279    336.88773  0.031829907  0.032358324            1 
  883000    1.1091686   -7.2305417    336.41272   0.03174903  0.032351563            1 
  884000    1.0732594   -7.2313383    336.77818  0.031747566  0.032344478            1 
  885000    1.1083575   -7.2411791    337.98959  0.031825761  0.032337498            2 
  886000    1.1232111   -7.2264334    337.83856  0.031775635  0.032330473            1 
  887000    1.0992772   -7.2782184    337.79624  0.031735836  0.032323469            1 
  888000    1.0986008   -7.3010479    337.50898   0.03167314  0.032316212            2 
  889000    1.1329127   -7.2172449    339.08314  0.031785071  0.032309002            2 
  890000     1.104543   -7.2360978    338.90372  0.031732558   0.03230209            3 
  891000    1.1245097   -7.2746074    338.44227  0.031653785  0.032294992            1 
  892000    1.1326873   -7.2109098    339.39545  0.031707347   0.03228774            1 
  893000    1.1197104   -7.2367047    339.99144  0.031727458  0.032280646            1 
  894000    1.1061111   -7.2479412    339.96315  0.031689331    0.0322738            2 
  895000    1.1272089   -7.2615672    340.41158  0.031695678  0.032266652            1 
  896000    1.1211402   -7.2287416    340.91905    0.0317075  0.032259726            2 
  897000    1.1222842   -7.2273258    341.85241  0.031758864   0.03225288            1 
  898000    1.0960511   -7.2526438    341.86786  0.031724931    0.0322463            2 
  899000    1.1000559   -7.3060591    341.61144  0.031665873  0.032239383            4 
  900000    1.1124357   -7.2476404    342.59791  0.031722029  0.032232491            1 
  901000    1.1232261   -7.2135011    344.35546  0.031849377  0.032225902            1 
  902000    1.0927569   -7.2535068    343.20597  0.031707869  0.032219282            2 
  903000    1.1221981   -7.2388594    343.76352  0.031724208  0.032212718            4 
  904000    1.1403371   -7.2771191    343.65509   0.03167912   0.03220606            1 
  905000    1.1032149   -7.2138522    344.99228  0.031767245  0.032199612            1 
  906000    1.1248249   -7.2467461    345.00146  0.031733026   0.03219309            1 
  907000     1.101518   -7.2314989    346.59845  0.031844768  0.032186621            2 
  908000    1.1056399   -7.2477482    345.41301  0.031700901  0.032180341            2 
  909000    1.1200055   -7.2540981     345.8405  0.031705216  0.032173897            1 
  910000    1.1258378   -7.2090237    345.21031  0.031612665  0.032167348            2 
  911000    1.0850693   -7.2678927    346.28087  0.031675893  0.032160617            3 
  912000    1.0845134   -7.2508977    346.48375    0.0316597   0.03215373            3 
  913000    1.1310784    -7.314664    345.46762  0.031532277  0.032146543            1 
  914000    1.1042961   -7.2661178    347.74172  0.031705116  0.032139628            1 
  915000    1.1341719   -7.2881852    347.35392  0.031635148  0.032132887            3 
  916000     1.113316   -7.2842791    347.59015  0.031622103  0.032126039            1 
  917000    1.0991625   -7.2489578    348.46809  0.031667402  0.032119073            2 
  918000    1.1116606   -7.2443568    349.09115  0.031689465  0.032112301            3 
  919000    1.1155246   -7.2247851    348.90524  0.031638125  0.032105813            2 
  920000    1.1010021   -7.2362168    350.39484  0.031738663  0.032099412            1 
  921000    1.0869196   -7.2440727    349.77585  0.031648195   0.03209311            3 
  922000    1.1252209   -7.2497041    349.37028  0.031577212   0.03208654            1 
  923000    1.1009355   -7.2417596    349.97547   0.03159764  0.032079875            3 
  924000    1.1088932   -7.2092395    351.61895  0.031711666  0.032073574            2 
  925000     1.113978   -7.2364774    350.62626  0.031587952  0.032067467            3 
  926000    1.0949551   -7.3285071    350.33018  0.031527194  0.032061026            2 
  927000    1.1027315   -7.2577766    352.24093  0.031664952  0.032054634            1 
  928000    1.0795409   -7.2644687      353.536  0.031747127  0.032048425            2 
  929000    1.0974731   -7.2419502    353.90315  0.031745887   0.03204217            1 
  930000    1.1117583   -7.2795072    351.83067  0.031526045  0.032035599            3 
  931000    1.0879737   -7.2767546    352.88422  0.031586486  0.032029104            1 
  932000    1.0954562   -7.2505891    353.90945  0.031644264  0.032022946            1 
  933000    1.1163769   -7.2698042    353.60144  0.031582836  0.032016787            1 
  934000    1.1217634   -7.2729694    352.98863  0.031494346  0.032010673            1 
  935000    1.0935857   -7.3008792    353.88057  0.031540158  0.032004214            3 
  936000    1.1100903   -7.2572081    355.17204  0.031621442  0.031997936            1 
  937000    1.0917276   -7.2553975    354.22037  0.031503057  0.031991707            2 
  938000    1.1217452   -7.2625938    355.32647  0.031567739  0.031985544            1 
  939000    1.1012667   -7.2386842    355.33174  0.031534589  0.031979126            2 
  940000    1.0809258   -7.3121914    355.10732  0.031481145  0.031972745            1 
  941000    1.0905698   -7.2391095    356.17801  0.031542509  0.031966219            2 
  942000    1.0708627   -7.2607111    357.57844  0.031632912  0.031960117            2 
  943000    1.0795449   -7.2424284    357.39089  0.031582794  0.031953901            2 
  944000    1.1184926   -7.2704135    356.47473  0.031468462  0.031947598            3 
  945000    1.0843359   -7.2460388    357.89694  0.031560576   0.03194119            2 
  946000    1.0953409   -7.2721721    358.05103  0.031540788  0.031934932            2 
  947000    1.0931705   -7.2543621    358.68498  0.031563268  0.031928792            1 
  948000    1.1117142   -7.2960916    359.07968  0.031564669    0.0319223            4 
  949000    1.0900871   -7.2796452     358.1356  0.031448507  0.031915907            1 
  950000    1.0920346    -7.310882    356.38611  0.031261939  0.031909102            2 
  951000     1.077831   -7.2808892    358.54843  0.031418544  0.031901887            3 
  952000    1.0966402   -7.2714086    358.02725   0.03133992  0.031894906            1 
  953000    1.1097163   -7.2657486    357.93099  0.031298618   0.03188799            1 
  954000    1.1096776    -7.243013    357.86725  0.031260242  0.031880886            1 
  955000    1.1158857    -7.301709    357.23034  0.031171932  0.031873593            3 
  956000    1.1054287   -7.2620884    359.38296  0.031326967  0.031866319            1 
  957000    1.1125177    -7.230926    360.63634  0.031403373  0.031859155            2 
  958000    1.1255647   -7.2528517    358.44484  0.031179961  0.031852189            1 
  959000    1.0975201   -7.2803382    358.67256  0.031167237  0.031844776            2 
  960000    1.0912002   -7.2289364    360.86039  0.031324687  0.031837575            2 
  961000    1.0899906   -7.2918937    360.61914  0.031271171  0.031830078            2 
  962000    1.0870762   -7.2402251    361.84311   0.03134469  0.031822841            1 
  963000    1.0919263   -7.2220769     361.7445  0.031303608  0.031815616            2 
  964000    1.0937237   -7.2936956    361.43018  0.031243964  0.031808619            2 
  965000    1.0952927   -7.2311921    362.73356  0.031324142  0.031801512            3 
  966000    1.1023611   -7.3012037    362.58709   0.03127908  0.031794437            1 
  967000      1.10812   -7.2461761    362.21738  0.031214873  0.031787446            1 
  968000    1.1063377   -7.2793764    363.55226  0.031297543  0.031780494            2 
  969000    1.0860925    -7.289372    363.28642  0.031242382  0.031773465            1 
  970000    1.1065668   -7.2375133    364.10314  0.031280339  0.031766362            2 
  971000    1.1007782   -7.2776595    363.37153  0.031185336  0.031759245            3 
  972000    1.1009597   -7.2544018    364.45756  0.031246361   0.03175219            1 
  973000    1.1046972   -7.3070298     364.3094  0.031201558  0.031745053            2 
  974000    1.0999913   -7.2588165     365.1203  0.031238903  0.031737902            1 
  975000    1.1054009   -7.2910312    364.54578  0.031157759  0.031730974            2 
  976000    1.0823979   -7.2502803    366.59237  0.031300578  0.031723934            1 
  977000    1.1148609   -7.2594394    366.63803  0.031272435  0.031716949            1 
  978000    1.1092924   -7.2609139    366.53098  0.031231337  0.031709974            2 
  979000    1.0744569   -7.2597383    366.16125  0.031167964  0.031702861            2 
  980000    1.0909782   -7.2543874     366.2861  0.031146777  0.031695645            1 
  981000    1.0959954   -7.2702213     366.3047  0.031116607  0.031688302            1 
  982000    1.0964223     -7.28559    367.67325  0.031201056  0.031681251            1 
  983000    1.0947284   -7.2862161    367.93465  0.031191476  0.031674345            1 
  984000    1.1018562   -7.2514658    367.48174  0.031121421  0.031667444            2 
  985000     1.085102   -7.2456386    368.89348  0.031209262  0.031660675            1 
  986000     1.108713   -7.2788676    368.86642  0.031175323  0.031653763            2 
  987000    1.1033016   -7.2994992    368.18354  0.031086081  0.031646919            1 
  988000    1.1009536   -7.2488307    370.97258   0.03128986  0.031640017            1 
  989000    1.0860137   -7.2525042    370.03834  0.031179503  0.031633008            1 
  990000    1.0700234   -7.2833265    369.02318  0.031062557  0.031625946            1 
  991000     1.071154   -7.2635876    370.00195  0.031113518  0.031618919            2 
  992000    1.0949621   -7.2624906     370.5403  0.031127377  0.031611898            2 
  993000    1.0682813   -7.2648498    370.19357  0.031066933  0.031604723            3 
  994000    1.1020802   -7.2761557    370.75963  0.031083134  0.031597535            2 
  995000    1.0757913   -7.2674218    371.57637  0.031120299  0.031590303            2 
  996000    1.0888228   -7.2800235    371.42632    0.0310765  0.031583307            1 
  997000    1.0960223   -7.2280653    373.12969  0.031187704  0.031576818            1 
  998000    1.0929431   -7.2141737    373.27703  0.031168757  0.031570265            1 
  999000    1.0779314   -7.2624464    373.52877  0.031158556  0.031563787            2 
 1000000    1.0760377   -7.3118413    372.77105  0.031064254  0.031556972            1 
 1001000    1.1010301   -7.3101979    373.04737  0.031056225  0.031549995            2 
 1002000    1.0814541   -7.2931216    373.59997  0.031071189   0.03154295            2 
 1003000    1.0964909   -7.2879686    372.75641  0.030970124  0.031535784            1 
 1004000    1.0858361   -7.3132591    372.90688  0.030951767  0.031528556            1 
 1005000    1.1079929   -7.2989249    373.24082  0.030948659  0.031521311            6 
 1006000    1.0808633   -7.2673332    375.40303  0.031097003  0.031513888            1 
 1007000    1.0830597   -7.2991619    373.40967  0.030901164  0.031506845            2 
 1008000    1.0952189    -7.283331    374.45728  0.030957116  0.031499596            2 
 1009000    1.0933259   -7.2509599    374.76474  0.030951828  0.031492383            5 
 1010000    1.0830666   -7.2741482    374.67665  0.030913915  0.031485122            2 
 1011000    1.0889578   -7.3008949    375.41017  0.030943799  0.031477574            1 
 1012000    1.0857988   -7.2906632    375.46088  0.030917398  0.031469939            2 
 1013000    1.0909097   -7.3088018    376.87609  0.031003298  0.031462499            2 
 1014000    1.1033176   -7.2879504    376.21686  0.030918545  0.031455181            1 
 1015000    1.0865697   -7.3322379    375.59769  0.030837249   0.03144773            3 
 1016000     1.092849   -7.3210178    376.76199  0.030902394  0.031440394            2 
 1017000    1.0968657   -7.2619248    377.70123   0.03094897   0.03143305            2 
 1018000    1.0800722   -7.3019827    377.66013  0.030915204  0.031425873            2 
 1019000    1.0818531   -7.2680155    377.82016  0.030897952  0.031418501            3 
 1020000    1.0656852   -7.2892894    378.00488  0.030882751  0.031411155            2 
 1021000    1.0664178   -7.2426397    378.60397  0.030901401  0.031403821            1 
 1022000    1.0859906    -7.339477    376.79671  0.030723802  0.031396344            2 
 1023000     1.115312   -7.2723511    378.93534  0.030867982  0.031388963            1 
 1024000    1.0955769    -7.276542    378.62142   0.03081229  0.031381402            2 
 1025000    1.0948181   -7.2716694    378.93609  0.030807812  0.031373993            1 
 1026000    1.0635576   -7.3320192     377.9693  0.030699261  0.031366645            1 
 1027000    1.0785297   -7.2994829    379.41879  0.030786984   0.03135906            3 
 1028000    1.0900931   -7.3097955    379.88565  0.030794881  0.031351623            2 
 1029000    1.0942001    -7.309316    380.33796  0.030801584  0.031344276            1 
 1030000    1.1019123   -7.2983438    380.12057  0.030754091  0.031336794            1 
 1031000    1.0668604   -7.2801223    380.86461  0.030784401  0.031329555            1 
 1032000    1.0962687   -7.2760799    380.90737  0.030758024  0.031322298            1 
 1033000    1.0836128    -7.287811    381.81071  0.030801122  0.031315029            2 
 1034000    1.0970629    -7.315849    381.92322  0.030780401  0.031307473            1 
 1035000    1.0776243   -7.3133054    381.52977  0.030718983  0.031300069            1 
 1036000    1.0815664   -7.2980575    382.01881  0.030728669  0.031292294            2 
 1037000    1.0767948   -7.3437198    382.07103  0.030703233  0.031284475            4 
 1038000    1.0862962   -7.2713103     382.1581  0.030680644  0.031276805            2 
 1039000    1.0815422   -7.3013119    383.61154  0.030767689  0.031269346            2 
 1040000    1.0994436   -7.2880474     383.4023  0.030721338   0.03126172            1 
 1041000    1.0837541   -7.2879589    383.00672   0.03066016  0.031254195            1 
 1042000     1.078401     -7.26314    384.17808  0.030724414  0.031246519            1 
 1043000    1.0984217   -7.2884718    383.33801  0.030627837  0.031238854            2 
 1044000    1.0756224    -7.322533    384.66216  0.030704195  0.031231379            2 
 1045000    1.0853449   -7.2815707    385.60985  0.030750387  0.031223726            2 
 1046000    1.1076665   -7.2900576    385.09503  0.030679974  0.031216395            1 
 1047000    1.0756087     -7.28303    386.64044  0.030773674   0.03120901            1 
 1048000     1.073985   -7.3177801    386.03805   0.03069641  0.031201662            2 
 1049000    1.0755944   -7.2898176    387.17819  0.030757721  0.031194632            3 
 1050000    1.0755615   -7.3098066    387.15516    0.0307266  0.031187431            1 
 1051000    1.0550597   -7.2860125    387.19536  0.030700552  0.031179947            1 
 1052000    1.0695827   -7.2835932    386.79556  0.030639699  0.031172638            1 
 1053000    1.0570235   -7.3438568    387.11439  0.030635833  0.031165203            2 
 1054000    1.0774018   -7.2977862    386.30341  0.030542648   0.03115766            1 
 1055000    1.1071112   -7.3076386    386.72479  0.030546982  0.031150151            2 
 1056000    1.0752699   -7.2685171    387.71879  0.030596495  0.031142715            1 
 1057000    1.0964918   -7.3000331    388.21283  0.030606499  0.031135339            1 
 1058000    1.0676449   -7.2988942    388.63351  0.030610705   0.03112821            3 
 1059000    1.0830655   -7.2746997    389.14734  0.030622233  0.031120897            2 
 1060000    1.0969872   -7.2883469    389.82916  0.030646946  0.031113696            2 
 1061000    1.0705182   -7.2929069    389.28287  0.030575154  0.031106402            3 
 1062000    1.0776061   -7.2675417    389.70793  0.030579718  0.031099214            2 
 1063000    1.1082851   -7.3197014    390.19901  0.030589449  0.031091878            1 
 1064000    1.1013377   -7.2941535    390.02383  0.030546979  0.031084365            3 
 1065000    1.0618044   -7.3183762    391.34119  0.030621377  0.031076969            1 
 1066000    1.0735747   -7.3306907    390.19193  0.030502808  0.031069592            1 
 1067000    1.1003438   -7.2728847    390.72391  0.030515769  0.031062133            1 
 1068000    1.0768051   -7.3012721    392.21307  0.030603392  0.031054814            1 
 1069000    1.0844492   -7.2948427    391.96349  0.030555308  0.031047832            1 
 1070000    1.0826806   -7.3303315    393.07974  0.030613687  0.031040846            1 
 1071000    1.0530553   -7.2972984     393.0642  0.030583894  0.031033763            1 
 1072000    1.0696138   -7.2831326    393.74279  0.030608115  0.031026666            1 
 1073000    1.0900194   -7.2875703    394.80714  0.030662251  0.031019822            2 
 1074000    1.0571123   -7.3086258    393.01041   0.03049429  0.031012974            1 
 1075000    1.0718186   -7.2857582    394.49551  0.030581047  0.031006196            1 
 1076000    1.0898915    -7.294804    394.63489  0.030563421   0.03099955            1 
 1077000    1.0913169   -7.3417405    395.35154  0.030590494  0.030992775            3 
 1078000    1.0918742   -7.3277527    395.51938  0.030575091  0.030985878            1 
 1079000    1.0837873   -7.3038012    397.14908  0.030672619  0.030979183            3 
 1080000    1.0893566   -7.3061016    395.97311   0.03055348  0.030972629            4 
 1081000    1.0758811   -7.2917605    396.81802   0.03059035   0.03096584            2 
 1082000    1.0711886   -7.2994558    396.55767  0.030542027  0.030958907            2 
 1083000       1.0888   -7.2921015    395.14832   0.03040538  0.030951843            3 
 1084000    1.0791035   -7.2687295    396.80993  0.030505068  0.030944697            1 
 1085000    1.0624109   -7.3124263    397.61194  0.030538552  0.030937561            2 
 1086000     1.080956   -7.3051848    398.80587  0.030602047  0.030930603            1 
 1087000    1.0813908   -7.3144189    397.73822  0.030492043  0.030923693            2 
 1088000    1.0942081   -7.3485052    397.25226  0.030426797  0.030916632            2 
 1089000    1.0987412   -7.3275176    397.87346  0.030446393  0.030909221            3 
 1090000    1.0689963   -7.3164055    397.20372  0.030367257  0.030901925            2 
 1091000    1.0687793   -7.2814223    397.51839  0.030363458   0.03089484            3 
 1092000    1.0829092   -7.3329364    397.80714  0.030357688  0.030887823            3 
 1093000    1.0936363   -7.3030951    399.18279  0.030434796  0.030880569            2 
 1094000    1.0905335   -7.2916515    399.31574  0.030417104  0.030873297            4 
 1095000    1.0919537   -7.3009779    400.92177   0.03051155  0.030865976            1 
 1096000    1.0759626   -7.3452069    399.16318  0.030349998   0.03085854            2 
 1097000    1.0803599   -7.3017319    400.46433  0.030421174  0.030851142            2 
 1098000    1.0571616   -7.3245996    399.91525  0.030351795  0.030843975            1 
 1099000    1.0729184   -7.3393504    398.34152  0.030204847  0.030836736            1 
 1100000    1.0748437   -7.3384717    401.03061  0.030381107  0.030829238            2 
 1101000    1.0719701   -7.2985921    401.37838  0.030379835  0.030822136            3 
 1102000     1.078551   -7.3481937    400.92661  0.030318104  0.030814973            1 
 1103000    1.0480231   -7.3115086    401.82091  0.030358183  0.030807821            3 
 1104000    1.0806359    -7.325648    400.46518   0.03022835  0.030800405            2 
 1105000    1.0845116   -7.2871753    403.35196    0.0304187  0.030793337            4 
 1106000    1.0674631   -7.3124404    403.43218  0.030397241  0.030786245            1 
 1107000    1.0584202   -7.2969397    402.95537  0.030333888  0.030779124            2 
 1108000    1.0782663   -7.3265871    402.80421  0.030295142  0.030772109            1 
 1109000    1.0792429   -7.3585414    402.90768    0.0302756   0.03076514            2 
 1110000    1.0623493   -7.2805621    404.63796  0.030378225  0.030758039            1 
 1111000    1.0680493   -7.3113772    402.99311  0.030227506  0.030750904            2 
 1112000    1.0897319   -7.3251591    403.37318  0.030228805  0.030743606            1 
 1113000    1.0708803   -7.3042312    405.71647  0.030377094  0.030736473            2 
 1114000     1.077537    -7.286723    405.39554  0.030325818  0.030729473            2 
 1115000    1.0788156    -7.301119    406.31562  0.030367386  0.030722199            3 
 1116000    1.0636077   -7.3496545    403.39739  0.030122266  0.030715026            2 
 1117000    1.0770255   -7.2814423    405.66627  0.030264568  0.030707709            2 
 1118000     1.070931   -7.3556219    405.03359  0.030190339  0.030700416            3 
 1119000    1.0937623   -7.3508063    405.40607  0.030191098  0.030693173            3 
 1120000    1.0625026   -7.3320718     406.6944      0.03026  0.030685937            2 
 1121000    1.0570985   -7.3382358    406.39303  0.030210603  0.030679055            2 
 1122000    1.0834343   -7.3455566    406.64466  0.030202366  0.030671899            2 
 1123000    1.0596099   -7.3452388     406.2333  0.030144947  0.030664582            3 
 1124000    1.0680182   -7.3553963    406.68734   0.03015179  0.030657192            2 
 1125000    1.0595854   -7.3405255    408.03046  0.030224479  0.030649865            1 
 1126000    1.0546594   -7.3015648    408.92214  0.030263628  0.030642649            1 
 1127000    1.0672379   -7.3318841    408.47435  0.030203664  0.030635476            2 
 1128000    1.0693443   -7.3341201    408.58875  0.030185339  0.030628325            1 
 1129000    1.0789776   -7.3147514      409.131  0.030198627  0.030621302            3 
 1130000    1.0469194    -7.318764    410.74076  0.030290617  0.030614349            1 
 1131000    1.0666715   -7.3133254    410.59695  0.030253238  0.030607583            1 
 1132000    1.0555652   -7.3161818    412.16438  0.030341901  0.030600889            2 
 1133000    1.0938861   -7.3238934    410.80526  0.030215156  0.030594151            1 
 1134000    1.0864048   -7.3259573    412.98221  0.030348487  0.030587656            1 
 1135000    1.0749977   -7.3377461    411.11394  0.030184577  0.030581013            1 
 1136000    1.0755179    -7.298294     412.7867  0.030280715  0.030574294            1 
 1137000    1.0792997   -7.3290545    411.46114  0.030156929  0.030567477            2 
 1138000    1.0799783   -7.3191382     413.4006  0.030272452  0.030560859            3 
 1139000     1.076294   -7.3129963    412.59249  0.030186749  0.030554297            2 
 1140000    1.0639854   -7.3365767    413.83647  0.030251204  0.030547641            2 
 1141000    1.0623179   -7.3302951    413.48068  0.030198706   0.03054076            3 
 1142000    1.0510985   -7.3364115    414.24378  0.030227946  0.030534099            2 
 1143000     1.051854   -7.3258193    413.56332   0.03015189  0.030527494            2 
 1144000    1.0601777   -7.3253529    415.19316  0.030244257  0.030520662            1 
 1145000    1.0623151   -7.3164549    414.09126  0.030137646  0.030513905            3 
 1146000    1.1000471    -7.357478    413.89919  0.030097382  0.030507256            2 
 1147000    1.0588763    -7.314954    414.98885  0.030150309   0.03050063            1 
 1148000    1.0550524   -7.3199804     415.5044  0.030161469  0.030493908            1 
 1149000    1.0833692   -7.3384293    414.98087  0.030097249  0.030487041            2 
 1150000    1.0612356   -7.3425587    414.84556  0.030061272  0.030480077            2 
 1151000    1.0574375   -7.3219378    414.77882  0.030030323  0.030473069            1 
 1152000    1.0664062   -7.3471991    416.42688  0.030123472  0.030466229            2 
 1153000    1.0752625   -7.3602273    416.29931  0.030088126  0.030459364            1 
 1154000    1.0785894   -7.3117597    417.29868   0.03013422  0.030452784            1 
 1155000    1.0633641   -7.3209414    417.39962  0.030115413  0.030446133            1 
 1156000    1.0708731   -7.3317507      417.096  0.030067474  0.030439623            2 
 1157000    1.0833643   -7.3561566    418.46078  0.030139785  0.030432947            1 
 1158000    1.0566212      -7.3784    417.01737  0.030009885  0.030426172            2 
 1159000    1.0270734   -7.3364677    418.52983   0.03009274  0.030419517            1 
 1160000     1.071256   -7.3383294    418.39125  0.030056842  0.030412818            3 
 1161000     1.093175   -7.3419931    419.77497  0.030130274  0.030406268            2 
 1162000    1.0522439   -7.3334769    420.09569  0.030127344  0.030399771            2 
 1163000    1.0464766   -7.3253019    420.33881   0.03011886  0.030393295            1 
 1164000    1.0866014   -7.3656546    419.92409  0.030063294  0.030386744            1 
 1165000    1.0537422   -7.3132517    420.29448  0.030063983  0.030380137            2 
 1166000    1.0607382   -7.3271162    420.53274  0.030055228  0.030373624            1 
 1167000    1.0739085   -7.3393969     420.8689  0.030053478  0.030366982            2 
 1168000    1.0478194   -7.3166857    421.78784   0.03009331  0.030360319            2 
 1169000    1.0914864    -7.338895    421.73891   0.03006408  0.030353849            3 
 1170000    1.0610379   -7.3357259    421.01754  0.029987004  0.030347323            6 
 1171000    1.0810571   -7.3636599    419.05475  0.029821716  0.030340701            2 
 1172000    1.0637268   -7.3594155    420.82661  0.029922256  0.030333853            1 
 1173000    1.0621229   -7.3133607    423.13174   0.03006051  0.030327149            2 
 1174000    1.0741456   -7.3495766    422.90452  0.030018776  0.030320604            3 
 1175000    1.0477107   -7.3566525    422.55691  0.029968575  0.030314025            1 
 1176000    1.0771258    -7.350997    423.31686  0.029996943  0.030307532            1 
 1177000    1.0705787   -7.3182892    424.45181  0.030051814  0.030300916            3 
 1178000    1.0774809   -7.3284577    424.79317  0.030050451  0.030294333            1 
 1179000    1.0469487   -7.3235631    423.31252  0.029920308  0.030287804            1 
 1180000    1.0686492   -7.2980683    426.01063  0.030085496  0.030281324            2 
 1181000    1.0536846   -7.3718547    424.63201  0.029962744  0.030274931            1 
 1182000    1.0414259   -7.2893684    426.31144  0.030055798  0.030268717            1 
 1183000    1.0695979   -7.3196771    426.03514  0.030010928  0.030262433            3 
 1184000    1.0635934   -7.3269597    426.34243  0.030007209   0.03025625            6 
 1185000    1.0557102   -7.3504373    426.98055  0.030026762  0.030250132            4 
 1186000    1.0612121    -7.358262    426.86158  0.029993085  0.030243874            2 
 1187000    1.0659017   -7.3639008    426.96827  0.029975307  0.030237561            2 
 1188000     1.059578   -7.3214025    429.25734  0.030110644  0.030231436            2 
 1189000    1.0605287   -7.3281122    427.32634  0.029949982  0.030225318            5 
 1190000     1.037695   -7.4072334    425.62802  0.029805884    0.0302188            3 
 1191000    1.0695155   -7.3486155    427.69738  0.029925649  0.030212344            6 
 1192000    1.0857302   -7.3477558    428.62421  0.029965339  0.030206067            2 
 1193000    1.0491953   -7.3562455    428.33271  0.029919859    0.0301999            3 
 1194000    1.0589132   -7.3741027    428.73315  0.029922749  0.030193834            1 
 1195000    1.0526924   -7.3739744    429.78247  0.029970883  0.030187727            1 
 1196000    1.0352061   -7.3781916    428.89742  0.029884157  0.030181466            4 
 1197000    1.0453994   -7.3396973    430.83141  0.029993833  0.030175326            2 
 1198000    1.0381389   -7.3664369    429.64212  0.029886068  0.030169066            3 
 1199000    1.0458152   -7.3615223    430.58479   0.02992666  0.030162715            2 
 1200000    1.0499866   -7.3664358    430.26515  0.029879524  0.030156408            2 
 1201000    1.0613405   -7.3550537    431.29816  0.029926323  0.030149965            2 
 1202000    1.0528815   -7.3712214    431.48982  0.029914713   0.03014356            2 
 1203000    1.0317753   -7.3422338    430.55253  0.029824919   0.03013712            1 
 1204000    1.0690948   -7.3556955     430.5523  0.029800131  0.030130538            3 
 1205000    1.0687441   -7.3459421    430.23658  0.029753567  0.030123991            1 
 1206000     1.070107   -7.3259776    431.86163  0.029841185  0.030117478            2 
 1207000    1.0494346   -7.3406167    432.58531  0.029866426   0.03011086            1 
 1208000    1.0641779   -7.3763657    431.79225  0.029786993  0.030104235            2 
 1209000     1.066955   -7.3766937    431.92938  0.029771807  0.030097646            2 
 1210000    1.0660127    -7.326227    432.60378  0.029793648  0.030091352            2 
 1211000    1.0521579   -7.3395906    432.73015  0.029777742   0.03008504            5 
 1212000    1.0284697   -7.3489471     432.0619  0.029707226   0.03007885            3 
 1213000    1.0349532   -7.3199287    433.61692  0.029789566  0.030072534            1 
 1214000    1.0661487   -7.3455536    433.89926  0.029784408  0.030066097            3 
 1215000    1.0760199   -7.3517522    433.83077  0.029755197  0.030059612            3 
 1216000    1.0655369   -7.3600372    433.90147  0.029735572  0.030053115            5 
 1217000    1.0486306   -7.3462366    434.50453  0.029752433  0.030046379            3 
 1218000    1.0407708    -7.374801    432.68845  0.029603753   0.03003937            3 
 1219000    1.0465434    -7.352334    432.93482   0.02959631  0.030032229            2 
 1220000    1.0621321   -7.3882703    434.21102  0.029659223  0.030025283            1 
 1221000    1.0876626   -7.3569641    434.65357  0.029665136  0.030018297            1 
 1222000    1.0470929   -7.3331914    435.27226  0.029683051  0.030011349            1 
 1223000    1.0313423   -7.3977424    434.53426  0.029608494  0.030004397            1 
 1224000    1.0779649   -7.3757071    434.03212  0.029550117  0.029997174            2 
 1225000    1.0677247   -7.3939442    433.77573  0.029508553  0.029989908            4 
 1226000     1.054271   -7.3672035    435.64848  0.029611778  0.029982562            1 
 1227000    1.0265002   -7.3831465    435.20075  0.029557236  0.029975299            1 
 1228000     1.064058   -7.3627046     435.2228  0.029534663  0.029968127            2 
 1229000    1.0622972   -7.3560148     435.7093   0.02954362  0.029961137            1 
 1230000    1.0515571   -7.3560081    436.13873  0.029548694  0.029953945            1 
 1231000    1.0350401   -7.3628323    436.19069  0.029528208  0.029946862            2 
 1232000    1.0662949   -7.3759913    436.05792   0.02949526  0.029939498            2 
 1233000    1.0568357   -7.3492678    437.15849  0.029545721  0.029932348            2 
 1234000    1.0491559   -7.3630374      436.527  0.029479133  0.029925196            3 
 1235000    1.0411632   -7.3708708    436.86017  0.029477745  0.029917755            3 
 1236000    1.0516711   -7.3530663    437.39607  0.029490027  0.029910164            3 
 1237000     1.028758   -7.3608237    436.14709  0.029382046  0.029902618            1 
 1238000    1.0577441   -7.3614924    437.29783  0.029435772  0.029895131            1 
 1239000    1.0487952   -7.3161101    437.55764  0.029429489  0.029887827            3 
 1240000     1.084771   -7.3573495    437.03681  0.029370754  0.029880282            2 
 1241000    1.0634797   -7.3796467    436.70549  0.029324838  0.029872664            1 
 1242000    1.0670718   -7.3809153    438.17538  0.029399851  0.029865138            2 
 1243000    1.0463429    -7.409778    438.18952  0.029377146  0.029857476            1 
 1244000    1.0440058   -7.3877794    438.79524  0.029394108  0.029850061            1 
 1245000    1.0340744   -7.4394268     437.8273  0.029305709  0.029842792            2 
 1246000    1.0525637   -7.3386135    439.51166  0.029394841  0.029835255            1 
 1247000    1.0501775   -7.3534555     439.5862   0.02937625  0.029827938            3 
 1248000    1.0529902   -7.4158911    438.73374  0.029295789  0.029820638            5 
 1249000    1.0559339   -7.3844339    439.20493  0.029303772  0.029813271            2 
 1250000    1.0495102   -7.3707422    441.12499  0.029408333   0.02980588            1 
 1251000    1.0564512   -7.3514542    441.14228  0.029385976  0.029798653            1 
 1252000    1.0446387   -7.3715306    439.84961  0.029276465  0.029791284            1 
 1253000    1.0367276   -7.3755253    441.22316  0.029344451  0.029784004            1 
 1254000    1.0529428   -7.3714252    440.67127  0.029284375  0.029776742            3 
 1255000    1.0618453   -7.3351461    441.63683  0.029325154  0.029769386            2 
 1256000    1.0699868    -7.425082    441.20904  0.029273424  0.029761915            1 
 1257000    1.0575325   -7.3975881    442.44447  0.029332039  0.029754485            2 
 1258000    1.0616095   -7.3840925    443.52188  0.029380093  0.029747199            2 
 1259000    1.0538424   -7.3958317    442.83963  0.029311598  0.029739851            1 
 1260000    1.0657538   -7.3984679    441.27176   0.02918464  0.029732397            1 
 1261000    1.0387902   -7.3970265    443.52744  0.029310563  0.029724966            2 
 1262000     1.069969   -7.3762573    443.97487  0.029316883  0.029717596            2 
 1263000    1.0393585   -7.3492165    444.53947  0.029330923  0.029710371            1 
 1264000    1.0639135   -7.3520506    443.42218  0.029234057  0.029703189            1 
 1265000    1.0736213   -7.3977109    444.92996  0.029310274  0.029696044            2 
 1266000    1.0296912   -7.3500419    445.78806  0.029343606  0.029688935            2 
 1267000    1.0487451   -7.3664069    445.17775  0.029280305  0.029681724            5 
 1268000    1.0382204   -7.3402458    446.44325  0.029340382  0.029674682            2 
 1269000    1.0511261   -7.3564428    445.99473  0.029287808  0.029667686            1 
 1270000    1.0609924   -7.3760975    446.66164  0.029308507  0.029660479            2 
 1271000    1.0412103   -7.3728685    446.55591  0.029278515  0.029653608            3 
 1272000    1.0407505   -7.3655152    447.96986   0.02934813  0.029646685            1 
 1273000    1.0629201   -7.4199133      446.879  0.029253666  0.029639639            4 
 1274000    1.0544282   -7.4015428    447.06907  0.029243137  0.029632459            2 
 1275000    1.0471383   -7.3425268    447.81022  0.029268642  0.029625491            1 
 1276000    1.0267828   -7.3933416    447.68794  0.029237718  0.029618449            3 
 1277000    1.0530874   -7.4005936    446.86002  0.029160795  0.029611228            2 
 1278000    1.0489067    -7.437379    447.60128  0.029186312  0.029603879            1 
 1279000    1.0469395   -7.3496028    448.53183  0.029224122  0.029596572            2 
 1280000    1.0393141   -7.3477441    449.16517  0.029242524  0.029589412            2 
 1281000    1.0243355   -7.3804807    447.76686  0.029128731  0.029582243            3 
 1282000    1.0432185   -7.3951296    448.69679  0.029166458   0.02957494            2 
 1283000    1.0412743    -7.373609    449.30157  0.029183007  0.029567516            1 
 1284000    1.0392566   -7.3826704      448.517  0.029109359  0.029560218            1 
 1285000    1.0509769   -7.3755025    449.15536  0.029128104  0.029552734            1 
 1286000    1.0577915    -7.449225     449.0864  0.029100985  0.029545327            2 
 1287000     1.042661   -7.3352214    451.14049  0.029211376  0.029537979            2 
 1288000    1.0486312   -7.3623467    448.84595   0.02904024  0.029530754            2 
 1289000    1.0357244   -7.3814576    450.29585  0.029111446  0.029523228            2 
 1290000    1.0533113   -7.3867303    450.33209   0.02909122  0.029515888            1 
 1291000    1.0630811   -7.3937104    451.08171  0.029117074  0.029508393            1 
 1292000     1.071732   -7.3855296    451.13321  0.029097859  0.029500895            1 
 1293000    1.0329752    -7.399654    450.15193  0.029012112  0.029493493            2 
 1294000    1.0438185   -7.4068582    450.93032  0.029039819  0.029486117            2 
 1295000    1.0388063   -7.3812243    451.91078  0.029080488   0.02947879            1 
 1296000    1.0410173   -7.3811125    451.56901  0.029036073  0.029471481            1 
 1297000    1.0465289   -7.3962232    452.16848  0.029052203  0.029464229            3 
 1298000    1.0483667   -7.3892548    451.68313   0.02899866  0.029456967            1 
 1299000    1.0425479   -7.3710188     453.7636  0.029109803  0.029449695            3 
 1300000    1.0521014   -7.4070806    452.25134  0.028990471  0.029442329            4 
 1301000     1.052741   -7.3917675    453.28674  0.029034508  0.029434907            3 
 1302000    1.0435128   -7.4120811    450.75782  0.028850347  0.029427505            2 
 1303000    1.0375285    -7.403148    452.81664  0.028959877  0.029420083            1 
 1304000     1.031042   -7.4127598    452.69799  0.028930086  0.029412806            2 
 1305000    1.0445221   -7.3881248    453.89879  0.028984597  0.029405515            2 
 1306000    1.0598506   -7.3711334    456.57349  0.029133071   0.02939825            4 
 1307000    1.0410013    -7.394742    453.85849  0.028937675  0.029390981            1 
 1308000    1.0469984   -7.3757999    453.69986  0.028905445  0.029383654            2 
 1309000    1.0355095   -7.4018394    454.68617  0.028946153  0.029376344            3 
 1310000    1.0666874   -7.3799195    455.95634  0.029004857  0.029368985            1 
 1311000    1.0395104   -7.3986531    455.00104  0.028922009  0.029361669            2 
 1312000    1.0204176   -7.3984858    455.59955   0.02893798  0.029354172            1 
 1313000    1.0448372   -7.3908352    457.46784  0.029034516  0.029346751            1 
 1314000    1.0176847   -7.4208371    456.40989  0.028945326  0.029339468            2 
 1315000    1.0587498   -7.3803783    456.75063  0.028944907  0.029332309            1 
 1316000    1.0383491   -7.3803989    457.56732  0.028974627  0.029325107            1 
 1317000     1.046261   -7.4186948    457.43755  0.028944416  0.029317899            4 
 1318000    1.0568285   -7.4066359    456.89655  0.028888249  0.029310806            1 
 1319000    1.0409594   -7.3777531    457.89829  0.028929637  0.029303816            1 
 1320000    1.0371199   -7.3471453    459.39377  0.029002132  0.029296748            3 
 1321000    1.0475155   -7.4161974    458.80444     0.028943  0.029289683            3 
 1322000    1.0285868   -7.4440277     457.7571  0.028855087  0.029282486            2 
 1323000    1.0142445   -7.3969959    459.92364  0.028969743  0.029275271            1 
 1324000    1.0084456    -7.332818    460.96006  0.029013095  0.029268389            2 
 1325000    1.0249365   -7.4020533    460.90859  0.028987961  0.029261526            1 
 1326000    1.0563351   -7.3473025    459.82741  0.028898153   0.02925431            1 
 1327000     1.023886   -7.4082965     460.5754  0.028923349   0.02924721            1 
 1328000     1.043389   -7.4123938    459.68573  0.028845741   0.02923996            2 
 1329000    1.0549023   -7.4175161    459.37885  0.028804794  0.029232731            4 
 1330000    1.0399368   -7.3960374    460.58207  0.028858526  0.029225641            2 
 1331000    1.0472446   -7.3955265    461.00894   0.02886357  0.029218562            2 
 1332000    1.0351999   -7.3958403    461.65106  0.028882073  0.029211518            1 
 1333000    1.0173793   -7.3852625    461.88578   0.02887508  0.029204491            4 
 1334000    1.0381563   -7.4321545    462.41426  0.028886448  0.029197524            2 
 1335000    1.0326951   -7.4031284    462.01014  0.028839584    0.0291905            1 
 1336000    1.0334192   -7.4109188    461.29962  0.028773679  0.029183485            1 
 1337000    1.0266499   -7.4058478    463.15079  0.028867539  0.029176434            2 
 1338000     1.045156   -7.3829442    463.84637  0.028889286  0.029169532            2 
 1339000     1.049984   -7.4110113    463.95226    0.0288743  0.029162451            1 
 1340000    1.0124543   -7.4261094    462.65862  0.028772302   0.02915542            2 
 1341000    1.0211441   -7.4143401    463.01831  0.028773199  0.029148324            1 
 1342000    1.0290838   -7.3783161    465.23794  0.028889589  0.029141225            1 
 1343000    1.0486016   -7.3971562    464.22738  0.028805372  0.029134301            4 
 1344000    1.0511292   -7.4160927    464.56095  0.028804622  0.029127416            1 
 1345000    1.0355584   -7.3845758     465.3832  0.028834151  0.029120563            2 
 1346000    1.0533894   -7.4286384     464.3916  0.028751337  0.029113576            1 
 1347000    1.0441609   -7.3959159    464.39798  0.028730387  0.029106656            2 
 1348000    1.0319589   -7.4053231    466.03323  0.028810165  0.029099537            2 
 1349000    1.0200769   -7.4316836    463.93384   0.02865912  0.029092447            1 
 1350000    1.0373605   -7.4283539    466.92758   0.02882269  0.029085366            2 
 1351000    1.0473329   -7.3876996    467.40147  0.028830586  0.029078464            2 
 1352000    1.0450253   -7.3677629    466.76118  0.028769796  0.029071556            1 
 1353000    1.0216352   -7.4255032    466.69806  0.028744645  0.029064536            2 
 1354000    1.0305655   -7.3716461    467.24547  0.028757107  0.029057736            2 
 1355000    1.0230255   -7.4255476    466.73345  0.028704394  0.029050871            2 
 1356000    1.0412503   -7.3966433    468.25679  0.028776843  0.029044015            1 
 1357000    1.0447909   -7.4021551    468.13124  0.028747927  0.029037299            1 
 1358000    1.0282935   -7.4061337    468.10604  0.028725211  0.029030515            1 
 1359000    1.0371204   -7.3958565    467.93065  0.028693319  0.029023798            2 
 1360000    1.0470485   -7.4135435    469.35257  0.028759348  0.029016904            3 
 1361000    1.0290288   -7.3876636    469.02786  0.028718336   0.02901006            2 
 1362000    1.0157718   -7.4072289    468.18956  0.028645959  0.029003038            5 
 1363000    1.0309794   -7.4267553    469.16372  0.028684503  0.028995956            1 
 1364000    1.0117006   -7.4286963    468.48927  0.028622267  0.028988911            2 
 1365000    1.0174106   -7.3993808    469.85193  0.028684489  0.028981962            2 
 1366000    1.0408029   -7.4110122     469.6832  0.028653197  0.028975034            2 
 1367000    1.0377386   -7.4509845    469.46675  0.028619041  0.028968135            3 
 1368000    1.0144196   -7.4105908    469.42718  0.028595711  0.028961145            1 
 1369000    1.0154778    -7.433148    468.25519  0.028503481  0.028954055            1 
 1370000    1.0244843   -7.4214044    470.07414  0.028593318  0.028947007            1 
 1371000    1.0152342   -7.4511414    469.82021  0.028557027  0.028939996            1 
 1372000     1.031719   -7.4326341    470.03533  0.028549279  0.028932965            1 
 1373000    1.0206223   -7.4088626    470.77425  0.028573334  0.028925952            2 
 1374000    1.0272556   -7.4022708    471.95646  0.028624239   0.02891891            2 
 1375000    1.0473307   -7.4460511    471.99235  0.028605597   0.02891192            2 
 1376000    1.0311034   -7.4388669    471.31258   0.02854364  0.028904934            2 
 1377000    1.0288672   -7.4152661    471.83991  0.028554824  0.028898081            1 
 1378000    1.0585202   -7.4206743    472.76319  0.028589937  0.028891283            2 
 1379000    1.0403035   -7.4306263     473.2462  0.028598392  0.028884579            3 
 1380000    1.0232856   -7.4283308    472.73785  0.028546972   0.02887781            4 
 1381000    1.0357233   -7.4425998    473.30456  0.028560497  0.028870974            2 
 1382000    1.0250125   -7.4510617    473.34374  0.028542193  0.028864109            2 
 1383000    1.0367636   -7.3845507    476.61644  0.028718754   0.02885742            2 
 1384000    1.0436274   -7.3885573     476.6059  0.028697369  0.028850758            3 
 1385000    1.0320835   -7.4175106    475.70246   0.02862229  0.028844197            2 
 1386000    1.0257153   -7.4621187    474.45832  0.028526835  0.028837414            1 
 1387000    1.0255819   -7.4317583    475.51609  0.028569821  0.028830525            1 
 1388000    1.0263898   -7.3606719    478.71642  0.028741379  0.028823934            1 
 1389000    1.0293049   -7.4222762    476.80067  0.028605752  0.028817513            1 
 1390000    1.0312115   -7.4244124    474.82024  0.028466441  0.028810913            1 
 1391000    1.0311036   -7.3997765    477.20523  0.028588859  0.028804298            2 
 1392000    1.0215357   -7.4212326    475.82685  0.028485803  0.028797588            2 
 1393000    1.0355755   -7.4517246    477.03412  0.028537576  0.028790977            4 
 1394000    1.0380198   -7.4126106    477.23423  0.028529067  0.028784366            2 
 1395000    1.0195461   -7.4375959     476.1717  0.028445144  0.028777693            3 
 1396000    1.0265308   -7.4456108    478.32682  0.028553416  0.028771044            1 
 1397000    1.0231679   -7.4503181    476.55811   0.02842747  0.028764277            1 
 1398000    1.0593168   -7.4299824    476.69845  0.028415502  0.028757586            1 
 1399000    1.0452211   -7.4569331    477.08049  0.028417947  0.028750831            1 
 1400000    1.0233601   -7.4764543    477.41371  0.028417483  0.028743835            2 
 1401000    1.0140717   -7.4263842    477.80632  0.028420552  0.028736868            3 
 1402000    1.0477197   -7.3683206    478.66556  0.028451353  0.028730117            2 
 1403000    1.0065164   -7.4163621    477.91259   0.02838635  0.028723494            1 
 1404000     1.023947   -7.4127637    479.53784  0.028462598  0.028716683            4 
 1405000    1.0317851   -7.4153957    479.58094  0.028444896  0.028709852            1 
 1406000    1.0453164   -7.4297702    480.53681  0.028481319  0.028703067            2 
 1407000    1.0284746   -7.4297905    481.98539  0.028546872  0.028696486            2 
 1408000    1.0431744   -7.4460182    479.87142  0.028401481  0.028689848            2 
 1409000    1.0320023   -7.4192232    481.67445  0.028487961  0.028683199            1 
 1410000    1.0365413   -7.4187723    482.47685   0.02851518   0.02867669            1 
 1411000    1.0294242   -7.4522706    480.93368  0.028403832  0.028670218            2 
 1412000    1.0375571   -7.3993142    483.03303  0.028507615  0.028663623            2 
 1413000    1.0197859    -7.397188    482.78752   0.02847296  0.028657002            2 
 1414000    1.0396245   -7.4172238    482.27269  0.028422483  0.028650367            1 
 1415000    1.0259583   -7.4520853    482.03264  0.028388259   0.02864394            6 
 1416000    1.0305319   -7.4271394    483.00632  0.028425513   0.02863742            2 
 1417000    1.0373234    -7.383381    483.79884  0.028452061  0.028631041            1 
 1418000    1.0281806    -7.434847    483.34063  0.028405067  0.028624617            2 
 1419000    1.0338175    -7.427019    483.11564  0.028371837   0.02861801            2 
 1420000    1.0193511   -7.4337014    483.44588  0.028371237  0.028611527            2 
 1421000    1.0355319   -7.4166749    485.11609   0.02844922  0.028604913            2 
 1422000     1.012257   -7.3852248    484.12876  0.028371352  0.028598358            2 
 1423000    1.0330821   -7.4264221    485.01597  0.028403371  0.028591679            5 
 1424000    1.0409371   -7.4367624    483.69095  0.028305884  0.028585058            1 
 1425000    1.0173285   -7.4273481    485.29316  0.028379717  0.028578401            1 
 1426000     1.022108   -7.4215459    483.83253  0.028274458  0.028571583            1 
 1427000   0.99734164   -7.3984698    486.13659  0.028389196   0.02856482            1 
 1428000    1.0226047   -7.4271181     485.4212  0.028327568  0.028558113            1 
 1429000    1.0399252   -7.4372466    483.37228   0.02818826  0.028551291            2 
 1430000    1.0546555   -7.4557288    485.16374  0.028272945  0.028544509            2 
 1431000    1.0221857   -7.4110449    486.65001   0.02833974    0.0285379            3 
 1432000    1.0283063    -7.405511    487.55229  0.028372457  0.028531301            2 
 1433000    1.0118099   -7.4326084    486.65573  0.028300519  0.028524754            1 
 1434000    1.0317767    -7.426407    486.23129  0.028256119  0.028517998            1 
 1435000    1.0167686   -7.4411667    487.09052  0.028286325  0.028511341            2 
 1436000    1.0103713   -7.4698092    487.47612  0.028289004  0.028504712            1 
 1437000    1.0425458   -7.4915934    485.52743  0.028156311  0.028497962            3 
 1438000    1.0305084   -7.4136744     489.0022  0.028338097  0.028491291            1 
 1439000    1.0045828   -7.4134494    487.84728  0.028251522  0.028484704            2 
 1440000     1.035019   -7.4575211    488.74565  0.028283892   0.02847806            5 
 1441000    1.0005143   -7.4498049    487.70717  0.028204208   0.02847138            1 
 1442000    1.0181245   -7.4830705    487.18907  0.028154708   0.02846475            3 
 1443000    1.0245444    -7.444053    489.08807  0.028244864  0.028458008            1 
 1444000     1.023199   -7.4831418    488.82452  0.028210095  0.028451356            1 
 1445000    1.0045281   -7.4230258    488.00048  0.028143049  0.028444529            1 
 1446000    1.0368001   -7.4607704    490.00653  0.028239196  0.028437686            6 
 1447000    1.0596442   -7.4008293     490.7224  0.028260908   0.02843101            2 
 1448000    1.0182396   -7.4350388    489.22632   0.02815529  0.028424234            1 
 1449000    1.0294344   -7.3908715    489.82656  0.028170379  0.028417274            1 
 1450000     1.016157   -7.4491735    488.50176  0.028074814  0.028410428            1 
 1451000    1.0265462    -7.437566    489.04714  0.028086787  0.028403461            1 
 1452000    1.0373889    -7.426271    489.90476  0.028116664  0.028396524            2 
 1453000    1.0249335   -7.4726022    488.77315  0.028032413  0.028389687            2 
 1454000    1.0314064   -7.4664651     488.7274  0.028010511  0.028382691            1 
 1455000   0.99790133   -7.4379678    491.79397  0.028166894  0.028375712            4 
 1456000    1.0197759    -7.438343    491.01938  0.028103216  0.028368722            1 
 1457000    1.0227096   -7.4484852    490.50406  0.028054453  0.028361779            1 
 1458000   0.98447817   -7.4730995     489.9504  0.028003566  0.028354722            1 
 1459000    1.0002352   -7.4580823    490.79434  0.028032576  0.028347666            1 
 1460000    1.0585358   -7.4485687     491.8328  0.028072648  0.028340706            2 
 1461000    1.0217211   -7.4687346    489.94218  0.027945595  0.028333822            3 
 1462000    1.0185631   -7.4811237    492.03976  0.028046042   0.02832685            1 
 1463000     1.012105   -7.4700089    492.43462  0.028049363  0.028319889            4 
 1464000    1.0237667   -7.4341465    493.63077  0.028098291  0.028312954            2 
 1465000    1.0302149   -7.4607467    491.66635  0.027967369  0.028306054            1 
 1466000    1.0153661   -7.4881142    492.16239  0.027976488   0.02829907            2 
 1467000    1.0125244   -7.4620785    492.33425  0.027967181  0.028292226            2 
 1468000    1.0234915   -7.4831241    492.06252  0.027932705   0.02828532            8 
 1469000    0.9918147   -7.4441882     493.2537  0.027981263   0.02827854            3 
 1470000    1.0017209   -7.4655847    494.29099  0.028021031  0.028271663            3 
 1471000    1.0105661   -7.4737512    493.66931  0.027966764   0.02826484            1 
 1472000    1.0151095    -7.497508    494.79292  0.028011375  0.028257908            2 
 1473000    1.0039103   -7.4583653    494.05552   0.02795064  0.028250957            4 
 1474000    1.0090109   -7.4695205    495.08746  0.027990019  0.028244121            2 
 1475000     1.038931   -7.4666612    494.50073  0.027937895  0.028237178            2 
 1476000    1.0110764   -7.4604804    495.07872  0.027951599  0.028230323            3 
 1477000    1.0046512   -7.4229739    496.41197  0.028007897   0.02822352            1 
 1478000    1.0140252   -7.3842806    495.50159  0.027937618  0.028216796            1 
 1479000    1.0112129   -7.4070053    497.80225  0.028048358  0.028210009            2 
 1480000    1.0035485   -7.4270999    496.70052  0.027967372  0.028203162            1 
 1481000    1.0018438   -7.4281192    495.92414  0.027904802  0.028196423            1 
 1482000    1.0135478   -7.4328599    496.97802  0.027945233  0.028189634            2 
 1483000    1.0014096   -7.4394155    497.32932  0.027946129  0.028182916            2 
 1484000    1.0204067   -7.4791987    496.88225  0.027902193   0.02817619            1 
 1485000    1.0188504   -7.4511334    497.67643   0.02792797  0.028169325            2 
 1486000    1.0169237   -7.4365479    498.75055  0.027969412  0.028162703            2 
 1487000    1.0249358    -7.444759    498.55234  0.027939494  0.028156087            2 
 1488000    1.0000575   -7.4526209    499.74121  0.027987299   0.02814933            1 
 1489000    1.0124227   -7.4417064    499.21762    0.0279392  0.028142652            6 
 1490000    0.9927184   -7.4315668    498.58178  0.027884887  0.028136031            1 
 1491000    1.0262104   -7.4581394    500.27535   0.02796084  0.028129503            1 
 1492000    1.0020297   -7.4258331      499.356  0.027890751  0.028122817            3 
 1493000   0.99880979   -7.4543798     499.4484  0.027877227  0.028115941            3 
 1494000   0.99903159    -7.468264    499.25527  0.027847795  0.028109197            1 
 1495000   0.99295008   -7.4806266    499.71203  0.027854628  0.028102324            3 
 1496000    1.0203311   -7.4158188    500.99346   0.02790739  0.028095577            1 
 1497000    1.0045454   -7.4626903    500.23137  0.027846324  0.028088799            2 
 1498000    1.0095074   -7.4841523    499.08942  0.027764209  0.028082073            4 
 1499000    1.0195614    -7.422318    501.73935  0.027893003  0.028075211            1 
 1500000    1.0087127   -7.4446769    500.86019  0.027825566  0.028068569            1 
 1501000   0.98877717   -7.4891927    501.33454  0.027833363   0.02806187            2 
 1502000    1.0319861   -7.4732414    500.97304  0.027794776  0.028055149            1 
 1503000    1.0073989   -7.4583614    501.36295  0.027797901   0.02804845            2 
 1504000   0.99266883   -7.4862315    503.23671   0.02788324  0.028041706            2 
 1505000    1.0098257   -7.4590564    502.44206  0.027820712  0.028035087            1 
 1506000    1.0154231   -7.4577414    503.09629   0.02783844  0.028028467       -1e+20 
 1507000    1.0145987   -7.4960823    502.07585  0.027763539  0.028021753            1 
 1508000    1.0082589   -7.4666377    502.39791  0.027762926  0.028015008            1 
 1509000    1.0264332   -7.5009417    503.33173  0.027796097   0.02800836            2 
 1510000    1.0151787   -7.4397951    504.49047  0.027841638  0.028001729            2 
 1511000   0.99177557   -7.4664737    505.21231  0.027863022  0.027995167            5 
 1512000    1.0250165    -7.493563     503.5187  0.027751251  0.027988592            2 
 1513000    1.0017726   -7.4771172    503.85165  0.027751248  0.027982013            2 
 1514000    1.0143858   -7.4584162    505.54422   0.02782608  0.027975433            1 
 1515000    1.0032782   -7.4737031    505.07682  0.027782003  0.027968856            2 
 1516000    1.0087996   -7.4634914    505.81007  0.027803984  0.027962353            2 
 1517000    1.0034564   -7.4865384    505.23578  0.027754108  0.027955767            1 
 1518000    1.0186107   -7.4800689     505.5631  0.027753793  0.027949242            4 
 1519000    1.0310506   -7.5111376    505.35823  0.027724283  0.027942704            2 
 1520000    1.0227059   -7.4802698    505.71801  0.027725768  0.027936228            1 
 1521000   0.99676647   -7.4644622    506.31204  0.027740085  0.027929833            2 
 1522000    1.0110694   -7.4101906    506.11307  0.027710965  0.027923341            1 
 1523000    1.0061373    -7.469177    506.82005  0.027731454  0.027916894            1 
 1524000    1.0152087   -7.4824217    506.03024   0.02767007  0.027910234            2 
 1525000    1.0193503   -7.4795093     507.7031  0.027743339  0.027903599            1 
 1526000   0.99075641   -7.4902655    507.93751  0.027737959  0.027897071            2 
 1527000   0.98779146   -7.4965039    507.01399  0.027669395  0.027890412            1 
 1528000    1.0387523   -7.5164108    506.94965  0.027647777  0.027883712            3 
 1529000     1.006566   -7.4706025    507.66123  0.027668478  0.027877165            2 
 1530000    1.0085149   -7.4840196    507.70993  0.027653047  0.027870502            1 
 1531000    1.0043897   -7.4859763    508.27039   0.02766549  0.027863909            2 
 1532000   0.99112349   -7.4338102    509.96374  0.027739542  0.027857379            2 
 1533000   0.99005762   -7.4654232    508.89804  0.027663516  0.027850987            2 
 1534000    1.0152519    -7.456083     508.3774  0.027617199   0.02784456            2 
 1535000    1.0156946   -7.4454673    509.83119  0.027678132  0.027838032            1 
 1536000    1.0176579   -7.4821106    509.79264  0.027658021  0.027831514            1 
 1537000    1.0108891   -7.4935824    510.31803  0.027668512  0.027824844            3 
 1538000    1.0155916    -7.472702    509.99795  0.027633179  0.027818223            1 
 1539000   0.99747485   -7.4924566     510.5359  0.027644352  0.027811685            2 
 1540000   0.99289253   -7.5007091    508.76496  0.027530572   0.02780513            2 
 1541000   0.98822657   -7.4813127    511.52043  0.027661715  0.027798615            1 
 1542000    1.0183417   -7.4803372    510.89215  0.027609822  0.027792116            7 
 1543000    1.0156293   -7.4786268    510.80387  0.027587161  0.027785532            3 
 1544000    1.0241738   -7.5036568    510.69787  0.027563573  0.027778947            2 
 1545000    1.0378821   -7.4698218    511.42261  0.027584823  0.027772531            2 
 1546000   0.97994316   -7.4923675    510.76912  0.027531755  0.027765981            1 
 1547000   0.99624283   -7.4345236    513.04226  0.027636407  0.027759384            3 
 1548000    1.0097702   -7.5005926    511.49555   0.02753529   0.02775275            1 
 1549000   0.99502578   -7.4571611    512.45218  0.027568979  0.027746059            2 
 1550000    1.0479102   -7.4854377    511.14401  0.027480861  0.027739313            1 
 1551000    1.0092064   -7.4670922    510.86287  0.027448037  0.027732458            4 
 1552000    1.0273031   -7.5021703    512.02702   0.02749286  0.027725697            2 
 1553000    1.0140829    -7.463215    512.65105  0.027508642  0.027718857       -1e+20 
 1554000    1.0012075    -7.457804    512.75018  0.027496256  0.027712099            2 
 1555000    1.0145948   -7.4957903    514.48748  0.027571676  0.027705389            2 
 1556000    1.0180749   -7.5112915    512.67902  0.027457102   0.02769862            5 
 1557000    1.0146897   -7.5171374    512.57972  0.027434153  0.027691889            2 
 1558000   0.98432962   -7.5101885    512.91894  0.027434689   0.02768503            2 
 1559000   0.99961576   -7.5005572    511.95241  0.027365427  0.027678075            2 
 1560000    1.0283328   -7.4898473    512.50967  0.027377654  0.027671117            1 
 1561000    1.0230711   -7.4787231    511.35974  0.027298726  0.027664274            1 
 1562000    1.0304922   -7.5102816    514.00045  0.027422132  0.027657325            1 
 1563000   0.99517198   -7.4932057    514.14354  0.027412217  0.027650458            4 
 1564000    1.0083302   -7.4891443     513.4975  0.027360267  0.027643609            1 
 1565000    1.0076005   -7.4724241    515.37496  0.027442756  0.027636962            1 
 1566000   0.99517175   -7.4800627    514.59574  0.027383766  0.027630259            2 
 1567000   0.99816334   -7.5006962    516.30446  0.027457161  0.027623544            3 
 1568000     1.012084    -7.521279    515.04214  0.027372563  0.027616712            1 
 1569000    1.0011078   -7.4871064    515.23845  0.027365544  0.027610017            1 
 1570000   0.97411044   -7.4805601    515.16875  0.027344414  0.027603407            3 
 1571000    1.0243513   -7.5027974    519.03593  0.027532141  0.027596859            2 
 1572000    1.0174628   -7.5310494    516.64348  0.027387801  0.027590323            1 
 1573000    1.0084366    -7.499595    516.36197  0.027355476  0.027583667            3 
 1574000    0.9926996   -7.5033399    516.76329  0.027359344  0.027577026            3 
 1575000    1.0086844    -7.466104    517.70055  0.027391563  0.027570486            1 
 1576000    1.0092563   -7.4887145    517.07165  0.027340929  0.027563968            3 
 1577000   0.99801984   -7.4739991    518.01987  0.027373699  0.027557299            1 
 1578000    1.0021893   -7.4944207    518.64581  0.027389407  0.027550654            1 
 1579000    1.0156103   -7.4840738    519.01311  0.027391445  0.027544024            2 
 1580000    1.0102417   -7.4620802    520.00201  0.027426266  0.027537516            2 
 1581000   0.99333554    -7.504015    518.93926  0.027352902  0.027531001            2 
 1582000    1.0062653   -7.5069541    517.76813  0.027273922  0.027524443            1 
 1583000    1.0121222   -7.5167993    518.72027  0.027306816  0.027517864            1 
 1584000   0.98973158   -7.5181737    519.77215  0.027344915  0.027511286            2 
 1585000   0.99712197   -7.5037988    519.76604  0.027327342   0.02750475            3 
 1586000    1.0031072   -7.4947222    520.24032  0.027335032  0.027498272            1 
 1587000    1.0136186   -7.4743502    520.59299  0.027336326  0.027491741            2 
 1588000   0.98573517   -7.4870076    521.24551  0.027353354  0.027485288            1 
 1589000     1.014066   -7.5057154    521.36977  0.027342656  0.027478884            1 
 1590000    1.0043104   -7.5540703    520.11493  0.027259692  0.027472422            3 
 1591000    1.0056569   -7.4827382    520.96382  0.027287022  0.027465853            1 
 1592000    1.0228765   -7.5501757     520.7588   0.02725915  0.027459297            1 
 1593000   0.98912715   -7.4911455    523.36818  0.027378541  0.027452749            3 
 1594000    1.0116653   -7.5040464    520.54817  0.027213936  0.027446166            2 
 1595000    1.0010421   -7.4728481    522.31692  0.027289285  0.027439586            7 
 1596000   0.97770421    -7.487301     523.2315  0.027319941  0.027433103            2 
 1597000   0.98435391   -7.4771303    521.25757  0.027199831   0.02742648            1 
 1598000   0.98163183   -7.4640663    524.05454  0.027328668  0.027419918            1 
 1599000    1.0010901   -7.5172124    521.39596  0.027173023  0.027413301            2 
 1600000       1.0026    -7.503947    522.56641     0.027217  0.027406626            3 
 1601000    1.0238508   -7.5264113    521.78056  0.027159096  0.027399911            2 
 1602000   0.98052464   -7.4887579    523.75317  0.027244755   0.02739321            4 
 1603000   0.97256732   -7.5153526    522.04618  0.027139019  0.027386447            2 
 1604000    1.0158355   -7.5058322    523.04542  0.027174014  0.027379617            2 
 1605000     0.996807   -7.4698039    522.32631  0.027119746   0.02737274            5 
 1606000   0.98289496   -7.5358496    522.04518  0.027088272  0.027365814            2 
 1607000   0.98944117   -7.4790139    523.96236  0.027170834  0.027358968            5 
 1608000    1.0024944   -7.5082285    523.42908    0.0271263  0.027352125            3 
 1609000    1.0130208   -7.5066076     523.2212  0.027098674  0.027345268            1 
 1610000   0.98631929    -7.548837    521.77043  0.027006751  0.027338405            2 
 1611000    1.0073723   -7.4898398    523.44243  0.027076476  0.027331458            1 
 1612000   0.97829923    -7.518586    522.55341  0.027013721  0.027324576            1 
 1613000   0.99329341   -7.5025636     523.9271  0.027067943  0.027317613            2 
 1614000   0.97871698   -7.5157903    524.52122  0.027081847  0.027310759            1 
 1615000   0.99895085   -7.5140393    524.92945  0.027086143  0.027303978            3 
 1616000    1.0318473   -7.4863626     525.4749  0.027097509  0.027297173            1 
 1617000   0.97071267   -7.5030277    524.62469  0.027036935  0.027290349            4 
 1618000   0.99073677    -7.478873    523.94856  0.026985401  0.027283598            1 
 1619000   0.99051531   -7.5166191    525.59687  0.027053576  0.027276822            1 
 1620000   0.99631917   -7.4776461    526.10426  0.027062976  0.027270074            1 
 1621000   0.98001647    -7.520266    525.70515  0.027025763  0.027263237            2 
 1622000   0.98602239   -7.4965411    524.61666  0.026953178  0.027256378            1 
 1623000   0.98958418   -7.4940726     527.0257  0.027060264   0.02724944            4 
 1624000   0.96272128   -7.4999006    524.42947  0.026910379  0.027242478            1 
 1625000    0.9915557   -7.5554473    525.74581  0.026961324  0.027235501            2 
 1626000   0.99156941   -7.5190151    525.69443  0.026942109  0.027228529            4 
 1627000   0.98022017   -7.5171886      524.771  0.026878252  0.027221589            1 
 1628000   0.99948496   -7.4999088    526.92852  0.026972181  0.027214529            1 
 1629000    1.0000638   -7.5357926    526.05556  0.026910966  0.027207556            1 
 1630000   0.97682643   -7.5037489    526.54807  0.026919635  0.027200567            2 
 1631000    1.0088216   -7.5507032    527.77598  0.026965868  0.027193559            3 
 1632000   0.99142334   -7.5334916     527.7168  0.026946323  0.027186488            1 
 1633000   0.99079349   -7.5466802    527.25005  0.026906004  0.027179567            1 
 1634000   0.99681874   -7.4950351     529.2015  0.026989061  0.027172734            3 
 1635000     1.008893    -7.527454    527.49173  0.026885409  0.027165787            2 
 1636000   0.99056341   -7.4979658    529.73651  0.026983319  0.027158852            1 
 1637000    1.0083258   -7.5288382    527.94478  0.026875625  0.027151884            2 
 1638000    1.0074687   -7.5059198    529.07646  0.026916792  0.027144969            1 
 1639000   0.97783138   -7.5064293    529.98415   0.02694652  0.027138114            3 
 1640000   0.99491014   -7.5382833    527.85888  0.026822097  0.027131134            3 
 1641000   0.99030259   -7.4610362    529.35553  0.026881756  0.027124081            1 
 1642000   0.97156627   -7.4920438    528.50032  0.026821982  0.027117087            6 
 1643000   0.98178483   -7.5062197    527.76986  0.026768607  0.027110027            1 
 1644000   0.99044835   -7.4996478    528.16671  0.026772441  0.027102885            2 
 1645000    1.0234823   -7.5194562    529.83936    0.0268409  0.027095854            4 
 1646000   0.99820933   -7.5224086    529.66168  0.026815597  0.027088928            3 
 1647000   0.99816989   -7.4990489    529.48543  0.026790398   0.02708202            1 
 1648000    1.0139949   -7.4920664    531.41157   0.02687154  0.027075058            2 
 1649000    0.9871459   -7.5513498    529.83422  0.026775532  0.027068134            2 
 1650000   0.98524067   -7.5033325    530.87299  0.026811767  0.027061286            1 
 1651000   0.99100059   -7.5391392    530.07631  0.026755316  0.027054354            2 
 1652000    1.0104255   -7.5267541    530.19187  0.026744949  0.027047366            2 
 1653000   0.99776766    -7.509424    531.12727  0.026775926   0.02704032            7 
 1654000   0.99992804   -7.5256657    530.03781  0.026704847  0.027033309            1 
 1655000   0.97621953   -7.5181049    530.59211  0.026716622  0.027026204            1 
 1656000   0.97475668   -7.5284442    530.55184  0.026698462  0.027019159            2 
 1657000   0.98264637   -7.5046197    530.78762  0.026694208  0.027012071            1 
 1658000   0.97758671   -7.5406223    531.86306   0.02673216  0.027004944            1 
 1659000   0.99408075   -7.5214397    532.18251  0.026732093  0.026997851            1 
 1660000   0.98547343   -7.5083376    531.02198   0.02665773   0.02699085            2 
 1661000    1.0077831   -7.5229587     531.1888   0.02665005  0.026983754            2 
 1662000   0.96529826   -7.5196639    533.19624  0.026734669  0.026976694            3 
 1663000   0.98465925   -7.4746239    532.19119  0.026668229  0.026969638            1 
 1664000   0.98070298   -7.5147621     533.9495  0.026740259  0.026962595            2 
 1665000   0.97014603   -7.5526663    532.57478  0.026655394  0.026955574            1 
 1666000   0.98323522   -7.5267494     531.5512  0.026588195  0.026948405            2 
 1667000    1.0086514   -7.4706685    532.43369  0.026616361  0.026941253            3 
 1668000   0.99420992   -7.5336283     533.4529  0.026651324  0.026934073            1 
 1669000   0.96201208    -7.576188    532.07524  0.026566569  0.026926856            2 
 1670000   0.97948628   -7.5540701    531.86822   0.02654033   0.02691962            2 
 1671000   0.95829746   -7.5428112    532.58982  0.026560434  0.026912364            3 
 1672000    0.9970989   -7.5362193    533.19295  0.026574609  0.026905174            2 
 1673000   0.98300436   -7.5513745    533.42186  0.026570127  0.026898018            2 
 1674000   0.98547307   -7.5189379    534.92648  0.026629156  0.026890904            2 
 1675000   0.99277397   -7.5031597    534.23234  0.026578723  0.026883737            5 
 1676000   0.97420909   -7.5370713    533.69267  0.026536031  0.026876593            1 
 1677000   0.98083528   -7.5315357    533.31301  0.026501342  0.026869395            2 
 1678000   0.97313846   -7.5490855     534.2733  0.026533239  0.026862058            1 
 1679000   0.98916929   -7.5091793    533.92081  0.026499941   0.02685468            1 
 1680000   0.99417787    -7.509241    535.69326  0.026572086  0.026847368            1 
 1681000   0.98404005   -7.5418774     535.5981  0.026551562  0.026840112            2 
 1682000   0.96954656   -7.5084744    536.16133  0.026563681  0.026832941            4 
 1683000   0.97538262    -7.538896    535.52169  0.026516225   0.02682567            1 
 1684000   0.98891002     -7.53007    535.29156  0.026489092  0.026818617            5 
 1685000   0.96253707   -7.4892774     536.5687  0.026536533  0.026811502            3 
 1686000    1.0035961   -7.5335949    536.09155   0.02649721   0.02680439            1 
 1687000   0.99392547   -7.5038785    538.21344  0.026586319   0.02679735            1 
 1688000   0.96614129   -7.5233957    537.00883  0.026511099  0.026790248            1 
 1689000   0.99578243   -7.5264043    536.62666  0.026476547  0.026783188            2 
 1690000   0.99774006   -7.5418858    536.91433  0.026475065  0.026776134            2 
 1691000   0.98645966   -7.5231209    536.88014  0.026457724  0.026769043            2 
 1692000   0.98190602   -7.5433356    538.14723  0.026504493  0.026761958            3 
 1693000   0.99192915   -7.5494645     537.4349  0.026453775  0.026754787            1 
 1694000   0.98590094   -7.5303059    536.38835  0.026386676  0.026747664            2 
 1695000   0.96847179   -7.5610662    536.68864  0.026385872  0.026740415            2 
 1696000   0.98328717    -7.555629    538.10842  0.026440076  0.026733251            2 
 1697000   0.99630373    -7.508409      538.969  0.026466755  0.026726161            1 
 1698000   0.97952158   -7.5167147    539.41358  0.026472987  0.026719208            2 
 1699000   0.99273498   -7.5406206    538.74319  0.026424524  0.026712271            3 
 1700000   0.99986131    -7.582808    537.75965  0.026360767  0.026705283            3 
 1701000   0.98936459   -7.5563825    539.20156   0.02641591  0.026698162            1 
 1702000   0.98937192   -7.5486851    538.25979  0.026354279   0.02669106            7 
 1703000   0.99882001   -7.5384118     539.5837  0.026403587  0.026683961            1 
 1704000   0.96650617   -7.5513855    538.89616  0.026354468  0.026676899            2 
 1705000   0.98315597   -7.5510575    540.78374  0.026431268  0.026669847            2 
 1706000   0.99334993   -7.5807763    538.41447  0.026300043  0.026662717            2 
 1707000   0.97154712   -7.5092526    540.78718  0.026400468  0.026655673            1 
 1708000    0.9698766   -7.5761547    540.52962  0.026372445  0.026648589            3 
 1709000   0.97070221    -7.551545      540.723  0.026366442  0.026641488            2 
 1710000   0.97204505   -7.5873128    538.93989  0.026264127  0.026634311            2 
 1711000   0.98379407   -7.5517825    539.89378  0.026295236  0.026627193            1 
 1712000   0.98928856   -7.5268802    541.91752  0.026378384  0.026620161            1 
 1713000   0.95092941   -7.5631181    541.83273   0.02635886  0.026613129            2 
 1714000   0.96905595    -7.555881    542.29489  0.026365952  0.026606198            3 
 1715000   0.96928766   -7.5148669     540.0343  0.026240734  0.026599099            2 
 1716000   0.97045372   -7.5300844    541.72631   0.02630761  0.026591988            2 
 1717000   0.98645893   -7.5678739    540.63663  0.026239402  0.026584949            1 
 1718000   0.98273736   -7.5233892    540.62062  0.026223352  0.026577875            1 
 1719000    0.9908455   -7.5742294    541.23889  0.026238069  0.026570711            2 
 1720000   0.98495952   -7.5590129    542.05521  0.026262365  0.026563676            2 
 1721000   0.98492499   -7.5699295    541.88797  0.026239007  0.026556656            2 
 1722000   0.96186714   -7.5563329    543.61816  0.026307499  0.026549613            4 
 1723000   0.99186951   -7.5775123    540.86654  0.026159148  0.026542509            3 
 1724000    1.0159315   -7.5162553    543.38057  0.026265496  0.026535529            2 
 1725000    0.9879125   -7.5458305     544.2138  0.026290522  0.026528521            5 
 1726000   0.97966045   -7.5215183    544.50913  0.026289548   0.02652151            1 
 1727000   0.95799623   -7.5552669    545.05134  0.026300489  0.026514507            1 
 1728000   0.95946107   -7.5353068    545.50588  0.026307189   0.02650748            1 
 1729000   0.98244585   -7.5968426    543.60534  0.026200373  0.026500376            3 
 1730000   0.96529217   -7.5431481    544.67581  0.026236792  0.026493368            1 
 1731000    0.9676429   -7.5530144    545.07162   0.02624069  0.026486419            3 
 1732000   0.97711738   -7.5678541    544.04121  0.026175963  0.026479297            2 
 1733000   0.98965383   -7.5752949    545.72751  0.026241946  0.026472265            1 
 1734000   0.98982457   -7.5608219    544.41754  0.026163857  0.026465292            3 
 1735000   0.96952496   -7.5366482    545.84769  0.026217468  0.026458304            2 
 1736000   0.98006129   -7.5705606    544.73232  0.026148825  0.026451246            5 
 1737000    1.0002463   -7.5352198    546.22712  0.026205485  0.026444317            3 
 1738000   0.98011478   -7.5411861    546.55148  0.026205959  0.026437354            1 
 1739000   0.96082087   -7.5318346    546.16597  0.026172416  0.026430358            3 
 1740000   0.94821151   -7.5569943    546.12978  0.026155641  0.026423224            4 
 1741000   0.98714786    -7.565306    545.20348   0.02609628  0.026416121            2 
 1742000    0.9742449    -7.561863    546.56476   0.02614642  0.026408956            3 
 1743000    0.9728896   -7.5880788    545.48234  0.026079668  0.026401818            2 
 1744000   0.96868053   -7.5573679     546.6415  0.026120102  0.026394786            2 
 1745000    1.0034544   -7.5622812    546.72331  0.026109041  0.026387681            1 
 1746000   0.98270334   -7.5522983    546.72098  0.026093976  0.026380674            2 
 1747000   0.96702056   -7.5134887    548.07352  0.026143557  0.026373693            1 
 1748000   0.97000345   -7.5604736    545.82843  0.026021569  0.026366584            1 
 1749000   0.93935413   -7.5226546    548.85987  0.026151128  0.026359577            1 
 1750000   0.96491628   -7.5422387    546.75633  0.026036016  0.026352554            1 
 1751000   0.96811349   -7.5174218    546.64927  0.026016052  0.026345507            3 
 1752000   0.98804148   -7.5883052    546.72405  0.026004759  0.026338475            2 
 1753000   0.95956357   -7.5831564    547.53945  0.026028686  0.026331306            2 
 1754000   0.97746219   -7.5614417     547.2524  0.026000209  0.026324152            4 
 1755000   0.99338318   -7.5332207     550.8026   0.02615397  0.026317103            3 
 1756000   0.96609135   -7.5534669    548.89917  0.026048746  0.026309957            2 
 1757000    0.9704093   -7.5403221    548.13234   0.02599755  0.026302906            2 
 1758000   0.96680017   -7.5513708    549.94317  0.026068599  0.026295727            3 
 1759000   0.98838544   -7.5526884    549.04157  0.026011066  0.026288644            1 
 1760000   0.97739879   -7.6051115     548.4018  0.025965994  0.026281492            3 
 1761000   0.97008061   -7.5593655    548.30528  0.025946682  0.026274289            1 
 1762000   0.97234675   -7.5779348    549.00046  0.025964835  0.026267148            2 
 1763000   0.95042721   -7.5834942    549.51203  0.025974288  0.026260106            1 
 1764000   0.97005985   -7.5948092    549.65896  0.025966504   0.02625305            1 
 1765000   0.98712299   -7.5527386    550.77245  0.026004365  0.026246059            2 
 1766000   0.98652372   -7.5524958    551.23094  0.026011275   0.02623918            1 
 1767000   0.95610624   -7.5400395    552.46977  0.026054979  0.026232151            3 
 1768000    0.9916707   -7.5806851    551.31909  0.025986005  0.026225229            2 
 1769000   0.97482377   -7.5541317    551.87428   0.02599747  0.026218299            1 
 1770000   0.97164336   -7.5655899    551.71803  0.025975425  0.026211357            2 
 1771000     1.004257    -7.568386    551.41769  0.025946626  0.026204496            5 
 1772000   0.97704336   -7.5503316    551.59903  0.025940511  0.026197551            2 
 1773000   0.95799711   -7.5587254    553.22391  0.026002252  0.026190564       -1e+20 
 1774000   0.96231106   -7.5495945     552.8133  0.025968306  0.026183702            1 
 1775000   0.96736762   -7.5285921     551.4731  0.025890756  0.026176799            5 
 1776000   0.97347468   -7.5694125    553.53433  0.025972895  0.026169873            1 
 1777000   0.96651175   -7.5511045    552.06869  0.025889546  0.026163018            2 
 1778000   0.95251313   -7.5456105    553.60167  0.025946835  0.026156162            2 
 1779000   0.95778996   -7.5701798    554.51257  0.025974919  0.026149423            2 
 1780000   0.95434217   -7.5769678    554.77109  0.025972429  0.026142625            6 
 1781000   0.97882988   -7.5698779    553.85956  0.025915195  0.026135728            1 
 1782000   0.98715324   -7.5535552    554.87061  0.025947933  0.026128849            2 
 1783000   0.97130581   -7.6317412    554.46336  0.025914347  0.026122008            3 
 1784000    0.9742448    -7.554438    555.39321  0.025943255  0.026115239            2 
 1785000   0.96102102    -7.572834    555.38395  0.025928289  0.026108509            1 
 1786000   0.97443989   -7.5723797    555.07377  0.025899299  0.026101778            1 
 1787000   0.95410561     -7.54837     556.1392   0.02593449  0.026095171            3 
 1788000   0.96238617    -7.557887    555.41658  0.025886306  0.026088496            3 
 1789000   0.96265728   -7.5674909    557.57012   0.02597215  0.026081822            4 
 1790000   0.96086095   -7.5829119    557.80957  0.025968788  0.026075135            3 
 1791000   0.95972508   -7.5764255    556.22908   0.02588075  0.026068476            1 
 1792000   0.97882321   -7.5998606    556.61567  0.025884285  0.026061734            2 
 1793000    0.9626416   -7.5675033     558.0031  0.025934333  0.026054999            3 
 1794000   0.97174977   -7.5781419    557.18928  0.025882074  0.026048275            1 
 1795000    0.9752411   -7.5985305    556.31449  0.025827042  0.026041521            3 
 1796000   0.96889879   -7.5910099      557.131  0.025850547  0.026034711            1 
 1797000   0.97406476   -7.5953706    557.70768  0.025862905  0.026027962            2 
 1798000    0.9531158   -7.5776591    556.71556  0.025802538  0.026021244            1 
 1799000     0.972272    -7.585593    558.39207  0.025865855   0.02601458            1 
 1800000    0.9637095   -7.5719929    556.40958  0.025759703  0.026007851            2 
 1801000   0.97511424    -7.611325    559.35304  0.025881596   0.02600114            1 
 1802000   0.98974466   -7.5719909    558.81773  0.025842477  0.025994433            2 
 1803000   0.96125294   -7.5686406    557.83869  0.025782894  0.025987747            2 
 1804000   0.97383218    -7.581911    558.53802  0.025800906  0.025980966            2 
 1805000   0.96305518   -7.5716876    559.09552  0.025812351  0.025974251            5 
 1806000    0.9731545   -7.5619717    558.69197  0.025779438  0.025967463            1 
 1807000   0.95592031   -7.5650741    559.20063  0.025788629  0.025960613            1 
 1808000   0.96289518   -7.5729322    559.46109   0.02578637  0.025953796            2 
 1809000   0.95343443   -7.5882479    557.33405  0.025674131  0.025946899            1 
 1810000   0.95378135   -7.5718268    558.70946  0.025723272  0.025940066            1 
 1811000    0.9642442   -7.5947012    558.17045  0.025684265  0.025933292            2 
 1812000   0.96853669   -7.6138812    559.06269  0.025711125  0.025926431            2 
 1813000   0.94184969   -7.6069856    559.50663  0.025717348  0.025919569            4 
 1814000   0.98030395   -7.5920549    559.42399  0.025699375  0.025912642            6 
 1815000   0.97933918   -7.6136481    557.94588   0.02561735  0.025905762            2 
 1816000   0.94472895    -7.552612    561.32725  0.025758409  0.025898897            2 
 1817000   0.93692345   -7.5487214    561.57011  0.025755371  0.025892109            1 
 1818000   0.96739662   -7.5933756    561.55307  0.025740423  0.025885355            2 
 1819000    0.9511431   -7.5608645    560.06279  0.025657998  0.025878676            1 
 1820000   0.96239699   -7.5753241    558.95903  0.025593362  0.025871859            2 
 1821000   0.95712419   -7.5565207    560.72738  0.025660232  0.025865051            2 
 1822000   0.95986027   -7.5815542    560.90273  0.025654168  0.025858181            4 
 1823000   0.97053223   -7.5754138    560.56952  0.025624864  0.025851219            2 
 1824000   0.98086774   -7.6115559    560.01453  0.025585459  0.025844205            2 
 1825000     0.974742   -7.6022003    559.70326  0.025557226  0.025837127            2 
 1826000   0.95118232   -7.5946731    562.44736  0.025668463  0.025830077            2 
 1827000   0.97047685   -7.6079338    560.60088  0.025570191  0.025823067            2 
 1828000   0.95793447   -7.5921426     561.3515  0.025590422  0.025816108            2 
 1829000   0.95832807   -7.6174654    560.69762  0.025546638  0.025809078            2 
 1830000   0.94866791   -7.6364856    561.67251  0.025577073   0.02580204            2 
 1831000    0.9375461   -7.5686279    561.06128  0.025535285  0.025795048            1 
 1832000   0.95596156   -7.5625571    563.03361  0.025611063  0.025788125            1 
 1833000   0.96539291    -7.576276    562.97778  0.025594553  0.025781195            1 
 1834000   0.97188911    -7.589803    561.00458  0.025490939  0.025774218            1 
 1835000   0.94104252    -7.570857    562.60909  0.025549913  0.025767247            2 
 1836000   0.95106032   -7.6030006    561.22173  0.025473027  0.025760277            2 
 1837000   0.95174225   -7.5817638    563.28813    0.0255529  0.025753206            1 
 1838000     0.942892   -7.5916931    561.24525  0.025446375  0.025746159            1 
 1839000   0.98238846   -7.6078977    561.13395  0.025427495  0.025739023            2 
 1840000   0.95972923   -7.5743117    563.57275  0.025524128  0.025731955            3 
 1841000   0.96023492   -7.5728934    564.21902  0.025539518  0.025724965            1 
 1842000   0.94773633   -7.6104313    563.47817  0.025492136  0.025717959            2 
 1843000   0.95798734   -7.5907697    562.15205  0.025418342  0.025710904            2 
 1844000   0.94347649   -7.5552241     565.2572  0.025544884  0.025703895            1 
 1845000   0.97087273   -7.5945238    563.05505  0.025431574  0.025696942            2 
 1846000    0.9455724   -7.5864239    563.94518   0.02545798  0.025689917            2 
 1847000   0.96605782   -7.5738548    563.55043  0.025426387  0.025682893            1 
 1848000   0.96430416   -7.5891707    563.68475  0.025418685  0.025675814            2 
 1849000   0.95357283   -7.5953159    564.58837  0.025445663  0.025668814            1 
 1850000   0.94670681   -7.5859958    565.27761  0.025462955  0.025661821            1 
 1851000   0.96544582   -7.6036542    563.72517  0.025379307  0.025654776            2 
 1852000   0.95122221   -7.5913277    564.28425   0.02539076  0.025647686            3 
 1853000   0.92958357   -7.6286523     563.6695  0.025349411  0.025640563            2 
 1854000   0.94905315   -7.5824418    564.60043  0.025377581   0.02563342            3 
 1855000   0.95152003   -7.5858215    565.45971  0.025402503  0.025626372            2 
 1856000   0.95866154   -7.5672256    563.93153  0.025320202   0.02561926            1 
 1857000   0.94317169   -7.5974517    564.06738  0.025312663  0.025612076            4 
 1858000    0.9746817   -7.6134007    563.96876  0.025294616  0.025604889            2 
 1859000   0.93537708   -7.5785666    565.85332  0.025365489  0.025597803            3 
 1860000   0.95895385   -7.6224563    563.52179  0.025247392  0.025590681            2 
 1861000   0.96824931   -7.6159977    564.17533   0.02526309  0.025583534            1 
 1862000   0.95686827   -7.5668102    566.12403  0.025336736  0.025576544            1 
 1863000   0.93134937   -7.6159927    564.74932  0.025261644  0.025569541            2 
 1864000   0.94953543   -7.5905649    567.67517  0.025378897  0.025562448            1 
 1865000   0.97864856   -7.5735661    567.51626  0.025358189  0.025555459            1 
 1866000    0.9412401    -7.583747    567.58898  0.025347847  0.025548447            1 
 1867000   0.95993017   -7.5882277    568.16493  0.025359977  0.025541564            1 
 1868000   0.96135879   -7.6080456    567.31534    0.0253085  0.025534602            2 
 1869000   0.95687013   -7.5673407    567.02607  0.025282061  0.025527704            5 
 1870000   0.96505527   -7.6237829     565.9867  0.025222224  0.025520696            4 
 1871000   0.95733505   -7.6135503    566.97862  0.025252923  0.025513693            2 
 1872000   0.94102402   -7.6157435    567.90334  0.025280597  0.025506849            3 
 1873000   0.94938193   -7.5786791    569.26352  0.025327617   0.02550003            2 
 1874000   0.97897506   -7.6067773    568.79157  0.025293115  0.025493202            1 
 1875000   0.94399736   -7.6083389    569.04937  0.025291083   0.02548624            2 
 1876000   0.94726426   -7.6022043    568.51227  0.025253743    0.0254793            2 
 1877000   0.95632464   -7.6398453    568.27031  0.025229547  0.025472409            2 
 1878000   0.95370042   -7.6265787    569.23961  0.025259124  0.025465457            3 
 1879000   0.97046219   -7.6362417     569.3665  0.025251308  0.025458512            1 
 1880000   0.94768382     -7.59704    569.93044  0.025262874  0.025451574            2 
 1881000    0.9417693   -7.5916726    568.44013  0.025183419  0.025444608            2 
 1882000   0.95018697   -7.6130979    569.28919  0.025207633  0.025437655            6 
 1883000   0.94636727   -7.6316316    569.94254  0.025223161  0.025430689            3 
 1884000   0.95507558   -7.6050965    569.24644  0.025178983  0.025423675            2 
 1885000   0.93089824   -7.6062801    569.10844  0.025159524  0.025416655            2 
 1886000   0.94349621   -7.6272992     569.5831  0.025167157  0.025409758            2 
 1887000   0.93677463   -7.6340168    569.31886  0.025142151  0.025402797            1 
 1888000   0.94761199   -7.6060409    571.92373  0.025243809  0.025395859            2 
 1889000   0.96184859   -7.5959206    570.86718  0.025183835  0.025388899            1 
 1890000   0.95558939   -7.6095401    571.57383  0.025201668  0.025381955            4 
 1891000   0.95773734   -7.6125394    570.84599  0.025156266  0.025375076            4 
 1892000   0.94476139   -7.6054975    571.52856  0.025173034  0.025368128            3 
 1893000   0.95360943   -7.6087177    573.27516  0.025236624  0.025361272            3 
 1894000   0.94834059   -7.5995551    570.79778  0.025114299  0.025354415            2 
 1895000   0.95272901   -7.6298303    572.59247  0.025179968  0.025347666            1 
 1896000   0.92867463   -7.6043945    572.14889  0.025147191  0.025340831            3 
 1897000   0.94443154   -7.6436851    572.80784  0.025162882   0.02533399            1 
 1898000   0.96175108   -7.6360328    571.69102  0.025100589  0.025327161            2 
 1899000   0.96926714   -7.5778649    573.77209  0.025178695  0.025320345            2 
 1900000   0.94629438   -7.6138557    573.25189  0.025142627  0.025313541            2 
 1901000   0.93714718   -7.6413247    574.00717   0.02516251   0.02530674            3 
 1902000    0.9442231   -7.6024644    574.23448  0.025159239  0.025299962            1 
 1903000   0.95523651   -7.5956591    575.52444  0.025202507  0.025293258            1 
 1904000   0.94719655   -7.6001397    575.38512  0.025183172  0.025286536            3 
 1905000   0.94163371   -7.6563493    573.10784  0.025070334  0.025279734            2 
 1906000   0.94220951    -7.604124    573.87604  0.025090768  0.025272912            2 
 1907000   0.93888553    -7.618189     574.6311  0.025110606  0.025266178            1 
 1908000   0.95006432    -7.620694    575.22675   0.02512346  0.025259434            1 
 1909000   0.94366991   -7.6243194    573.43049  0.025031888  0.025252626            1 
 1910000   0.94608774   -7.6019803    574.02629  0.025044777  0.025245844            3 
 1911000   0.94243376   -7.6025416    575.11018  0.025078937  0.025239162            1 
 1912000   0.92186636   -7.6239003    575.98583  0.025103985  0.025232382            1 
 1913000   0.94091757   -7.6156409    575.09896  0.025052228  0.025225607            2 
 1914000   0.93957703   -7.5993734    574.95003  0.025032655  0.025218791            2 
 1915000   0.94335698   -7.6529468    575.49618   0.02504335     0.025212            3 
 1916000   0.94947446   -7.6166732     575.5867  0.025034216  0.025205055            2 
 1917000   0.93821426   -7.6344515    576.09788  0.025043378  0.025198211            2 
 1918000   0.96201962   -7.6629186    574.66147  0.024967912  0.025191367            2 
 1919000    0.9456467   -7.6477219    574.44991  0.024945714  0.025184534            3 
 1920000   0.92868358    -7.621834    576.03169  0.025001376  0.025177709            1 
 1921000   0.96627537   -7.6146627    576.25503  0.024998049  0.025170928            1 
 1922000   0.93432493   -7.6173078    576.43334  0.024992774  0.025164175            2 
 1923000   0.94280247   -7.6089496    578.15961  0.025054585  0.025157421            2 
 1924000   0.94290985   -7.5992432     578.9786  0.025077036  0.025150648            3 
 1925000   0.94980055   -7.6475385    576.84617  0.024971696   0.02514386            2 
 1926000   0.94199074   -7.5947681    577.10759  0.024970041  0.025137055            4 
 1927000    0.9437961   -7.6408894    575.89058  0.024904454  0.025130187            2 
 1928000   0.93464753   -7.6442256    576.23745  0.024906529  0.025123366            3 
 1929000   0.93193932   -7.6229061    577.49532  0.024947957  0.025116556            2 
 1930000   0.95266152    -7.607341    577.08074  0.024917131  0.025109715            2 
 1931000   0.94123878   -7.6874458     576.6126  0.024884024  0.025102846            1 
 1932000   0.93884677   -7.6191716    577.92216  0.024927629  0.025095935            1 
 1933000   0.93431164   -7.6395984    578.47478  0.024938558  0.025089074            3 
 1934000   0.95478408   -7.6294396    578.07657  0.024908504  0.025082271            2 
 1935000   0.92665251   -7.6115929    578.09559  0.024896451  0.025075398            2 
 1936000   0.93935836   -7.6285629    577.52121  0.024858867  0.025068556            2 
 1937000   0.95617111   -7.6589104    575.20721  0.024746481  0.025061576            1 
 1938000   0.94206636   -7.6449025     576.2231  0.024777395  0.025054513            1 
 1939000   0.92487721   -7.6567613    576.76372  0.024787851  0.025047484            2 
 1940000   0.93424667   -7.6386716    577.27341  0.024796968  0.025040387            2 
 1941000   0.91729715   -7.6363157    577.58539  0.024797587  0.025033349            2 
 1942000   0.95063061   -7.6391057    576.44109  0.024735714  0.025026286            2 
 1943000   0.93130486   -7.6481473    576.77092   0.02473713  0.025019204            2 
 1944000   0.94014404   -7.6457383    577.93452  0.024774285  0.025012148            2 
 1945000   0.93722055   -7.6864064    578.49759  0.024785672  0.025005092            3 
 1946000   0.94088918   -7.6511723    577.75451  0.024741115  0.024998121            2 
 1947000    0.9494137   -7.6318208    579.51086  0.024803581  0.024991208            2 
 1948000   0.93929202   -7.6503227    577.36901  0.024699222  0.024984195            2 
 1949000   0.92887435   -7.6157894    577.53088   0.02469347  0.024977179            2 
 1950000   0.94762635   -7.6627734    578.16694  0.024707989  0.024970106            3 
 1951000   0.93556082   -7.6367685    578.57385  0.024712705   0.02496307            1 
 1952000    0.9407634   -7.6233087    579.19093  0.024726389  0.024956004            1 
 1953000   0.94315673   -7.6434431     578.5675  0.024687127  0.024948992            2 
 1954000   0.95008438   -7.6562407    578.81995  0.024685259  0.024941987            1 
 1955000   0.91242226   -7.6683253     579.4292  0.024698602  0.024934928            3 
 1956000   0.92773171   -7.5932101    580.73181  0.024741471  0.024927918            1 
 1957000   0.93426365    -7.628942    580.54403  0.024720832  0.024921043            3 
 1958000   0.94247692   -7.6417886    579.83989  0.024678238  0.024914036            2 
 1959000   0.94031842   -7.6457747    579.64271  0.024657253  0.024907031            2 
 1960000   0.92560164    -7.653334    580.16073  0.024666698  0.024900015            3 
 1961000   0.94411038   -7.6200485    580.18195  0.024655021  0.024893049            2 
 1962000   0.94155679   -7.6248518    580.43321  0.024653127  0.024886023            2 
 1963000   0.91525213   -7.6242285    579.92212  0.024618871  0.024878994            3 
 1964000   0.92479379   -7.6299789    580.44927  0.024628703   0.02487194            1 
 1965000   0.92314085   -7.6423373     579.1385  0.024560581  0.024864926            3 
 1966000   0.94722445   -7.6696004     579.4582   0.02456164  0.024857839            1 
 1967000   0.95955277   -7.6345903    579.84966  0.024565737  0.024850661            2 
 1968000   0.93860415   -7.6644197    581.21134  0.024610914  0.024843561            2 
 1969000     0.936566   -7.6604224    579.77532  0.024537638  0.024836414            1 
 1970000   0.93697289   -7.6597494    580.73684  0.024565856  0.024829292            5 
 1971000   0.93725579   -7.6424744    581.14076   0.02457047  0.024822168            2 
 1972000   0.92539961   -7.6708206    580.89439  0.024547599  0.024815004            3 
 1973000    0.9635547   -7.6602731    581.71059  0.024569631  0.024807855            2 
 1974000   0.93488139   -7.6644914    581.36933  0.024542778  0.024800717            3 
 1975000   0.92320393   -7.6671076    582.66574  0.024585052  0.024793579            2 
 1976000   0.94880436   -7.6759799    580.68814   0.02448921  0.024786474            4 
 1977000   0.93625117   -7.6767915    582.47149  0.024551993  0.024779392            1 
 1978000   0.92454953   -7.6747095    581.58103  0.024502066   0.02477227            2 
 1979000   0.94285663   -7.6412948    583.27086  0.024560841  0.024765206            2 
 1980000   0.94688148   -7.6710387    583.07695  0.024540276  0.024758259            4 
 1981000   0.92552458   -7.6617073    583.48917  0.024545228  0.024751202            1 
 1982000   0.94305248   -7.6602755    582.94869   0.02451012   0.02474426            1 
 1983000   0.93002335   -7.6685388    583.20591  0.024508569  0.024737331            3 
 1984000   0.93404158   -7.6399523    583.34383  0.024502009  0.024730344            2 
 1985000    0.9527766   -7.6257436    586.04794  0.024603188  0.024723417            1 
 1986000   0.94491759     -7.61838    583.74029   0.02449397  0.024716466            2 
 1987000    0.9299046   -7.6410021    582.75655  0.024440386  0.024709496            1 
 1988000   0.93418496   -7.6062377    584.93613  0.024519456  0.024702496            4 
 1989000   0.93023543   -7.6542341    584.15839  0.024474543  0.024695527            3 
 1990000   0.94893654   -7.6583746    584.34502  0.024470059  0.024688558            2 
 1991000   0.92090526   -7.6831449    585.57609  0.024509295  0.024681577            5 
 1992000   0.94979476   -7.6223463    584.95143   0.02447086  0.024674589            2 
 1993000   0.94660884   -7.6481403    585.50376  0.024481676  0.024667664            4 
 1994000   0.92595293   -7.6658158    584.50349  0.024427595  0.024660642            1 
 1995000   0.93498653   -7.6745224    584.35043  0.024408957  0.024653548            1 
 1996000   0.91194529   -7.6456492    584.93927  0.024421312  0.024646477            1 
 1997000   0.92405491   -7.6831721     584.2663  0.024381001  0.024639473            1 
 1998000   0.92148851   -7.6559704     583.7837  0.024348669  0.024632467            1 
 1999000   0.94783285   -7.6658735    584.85588  0.024381186  0.024625432            2 
 2000000   0.94519231    -7.665853    587.51625  0.024479844  0.024618503            3 
 2001000   0.93795042   -7.6596442     587.3776  0.024461836  0.024611563            2 
 2002000   0.93908802   -7.6629701    585.77997  0.024383116  0.024604627            2 
 2003000   0.91848973   -7.6703571    585.11121  0.024343119  0.024597646            1 
 2004000   0.92905212   -7.6395385     586.6955  0.024396852  0.024590686            2 
 2005000   0.92773302   -7.6450549    587.37917  0.024413099  0.024583718            2 
 2006000   0.92237174   -7.6631203    587.61873  0.024410881  0.024576759            1 
 2007000   0.94306133   -7.6684588    585.23282  0.024299652  0.024569726            2 
 2008000   0.92303864   -7.6719041    586.40558  0.024336221  0.024562694            1 
 2009000   0.92054191   -7.6658454    586.36568  0.024322452  0.024555642            1 
 2010000   0.93519787   -7.6443757    586.70106  0.024324256  0.024548591            2 
 2011000   0.95093511   -7.6355803    587.67674  0.024352592  0.024541651            2 
 2012000   0.93412612   -7.6767167     585.6491  0.024256507  0.024534653            1 
 2013000   0.93903402   -7.6761613    586.99466   0.02430016  0.024527577            1 
 2014000   0.92090787   -7.6855103    585.61702  0.024231092  0.024520465            2 
 2015000   0.93111622   -7.6650207    585.38184   0.02420934  0.024513399            3 
 2016000   0.91440466   -7.6735417    588.58947  0.024329922  0.024506375            1 
 2017000   0.92966455   -7.6847923     587.4615  0.024271257  0.024499353            2 
 2018000   0.92062195   -7.6770617    587.58653  0.024264392  0.024492307            3 
 2019000   0.92844353    -7.712076    585.99718  0.024186775  0.024485227            4 
 2020000   0.93346247   -7.6798529    587.49399  0.024236551  0.024478188            1 
 2021000   0.93023753   -7.6596327     588.4614  0.024264448  0.024471127            4 
 2022000   0.92395501   -7.6800292    586.79241  0.024183663  0.024464051            2 
 2023000   0.91528511   -7.6923819    586.78923  0.024171578  0.024456981            3 
 2024000   0.91462772   -7.6580211    588.64943  0.024236225  0.024449952            1 
 2025000   0.91605816   -7.6428831    588.77863  0.024229573  0.024442924            3 
 2026000   0.92338484   -7.6587448     588.1479  0.024191671  0.024435845            2 
 2027000   0.92205268   -7.6736391    589.24617  0.024224888   0.02442871            2 
 2028000   0.92399382   -7.6999741    587.80337  0.024153656  0.024421552            2 
 2029000   0.93115214   -7.6597042    586.43771  0.024085662  0.024414366            1 
 2030000   0.92698818   -7.6792393     587.7389  0.024127213  0.024407238            2 
 2031000   0.92238477   -7.6386496    589.50053  0.024187614  0.024400084            2 
 2032000   0.94134435   -7.7051644    586.49748  0.024052554  0.024392888            1 
 2033000   0.92606688   -7.6616432    589.40327  0.024159832  0.024385726            1 
 2034000   0.94517169   -7.6753652    588.21079  0.024099098  0.024378555            5 
 2035000   0.92210069   -7.6323902    590.59898  0.024185053  0.024371432            2 
 2036000   0.94402538   -7.6579529    589.57403  0.024131223  0.024364309            1 
 2037000    0.9120499   -7.6601785    589.22222  0.024104984  0.024357179            2 
 2038000   0.93589081   -7.6721869    589.18865  0.024091783  0.024350008            3 
 2039000   0.94040782   -7.6423101    588.79274  0.024063787  0.024342774            2 
 2040000   0.93516554   -7.6464857    589.78985  0.024092723  0.024335598            2 
 2041000   0.89918958   -7.6710815    589.61686  0.024073855  0.024328378            4 
 2042000   0.91391943   -7.6867971    589.77237  0.024068412  0.024321237            1 
 2043000   0.93788016   -7.6989924    589.23742  0.024034811  0.024314085            2 
 2044000   0.92251367   -7.6762287    588.90287  0.024009412  0.024306905            2 
 2045000   0.93257462   -7.6473228    590.28712   0.02405408  0.024299838            1 
 2046000   0.94014776   -7.6680499    590.98703   0.02407083  0.024292684            3 
 2047000   0.94153631   -7.6585608    591.05944  0.024062019  0.024285547            2 
 2048000   0.91265275   -7.6601855     590.3863   0.02402288  0.024278301            2 
 2049000   0.92092195   -7.6898266    589.58076  0.023978394  0.024271108            1 
 2050000   0.94361977   -7.6972314    588.22779  0.023911699  0.024263901            3 
 2051000    0.9163371   -7.6691595    590.13831  0.023977666  0.024256741            2 
 2052000   0.90811731    -7.665801    589.81253  0.023952751  0.024249562            2 
 2053000    0.9355042   -7.6678043    591.06966  0.023992112  0.024242451            2 
 2054000   0.91474282   -7.6548408    591.90007  0.024014122  0.024235365            1 
 2055000   0.90014412   -7.6601851    592.56357  0.024029342  0.024228285            1 
 2056000   0.93459075   -7.6733654    592.48166  0.024014335  0.024221255            1 
 2057000    0.9272765   -7.6639844    592.25537  0.023993493  0.024214097            1 
 2058000    0.9099924   -7.6838161    589.44874  0.023868187  0.024206888            1 
 2059000   0.92157029   -7.6833057    590.96421   0.02391793  0.024199649            1 
 2060000   0.90841169   -7.6892734    592.08739  0.023951755  0.024192458            3 
 2061000   0.91574408   -7.6676735    593.32836  0.023990311  0.024185343            2 
 2062000   0.91451935   -7.6754089    591.95539  0.023923189  0.024178231            1 
 2063000   0.93388591   -7.6434634    594.61536   0.02401904  0.024171146            3 
 2064000   0.92090619    -7.679838    593.08261  0.023945519  0.024164053            3 
 2065000   0.93578848   -7.6546905    593.36926  0.023945491  0.024156956            1 
 2066000   0.93908774    -7.675804    591.35113  0.023852498  0.024149899            3 
 2067000   0.92447128   -7.6903593     591.8501  0.023861075  0.024142763            3 
 2068000   0.90982127   -7.7201351    593.92857  0.023933292  0.024135624            2 
 2069000   0.92017224   -7.7099743    594.49618  0.023944586  0.024128482            2 
 2070000   0.92051419   -7.6918023    594.31621  0.023925773  0.024121401            3 
 2071000    0.9233629   -7.6750653    594.36022  0.023915991  0.024114329            1 
 2072000   0.90828605   -7.6549458    594.36458  0.023904624  0.024107246            1 
 2073000   0.92071969   -7.6757282    593.86332  0.023872943  0.024100191            4 
 2074000   0.90795123   -7.7139427    593.57709  0.023849931  0.024093106            1 
 2075000   0.92231692   -7.7295186    592.90084  0.023811279  0.024085945            1 
 2076000   0.91860741   -7.7103281    593.48133  0.023823111  0.024078822            2 
 2077000   0.94914425   -7.6962816    593.43522  0.023809791  0.024071678            1 
 2078000   0.92700269   -7.7178144    593.71534  0.023809566  0.024064574            1 
 2079000   0.91929468   -7.7124903    593.60739  0.023793787    0.0240574            4 
 2080000   0.89805891   -7.6913783    595.00798  0.023838461  0.024050339            1 
 2081000   0.93668072   -7.6661089    595.56089  0.023849147  0.024043271            3 
 2082000   0.92542834   -7.7050367    593.11358  0.023739737  0.024036202            2 
 2083000   0.90858726   -7.6741035    594.77872  0.023794956  0.024029112            2 
 2084000   0.92390953   -7.6876935    595.04463  0.023794171  0.024022015            1 
 2085000   0.90801467   -7.7072959    594.48191  0.023760268   0.02401495            3 
 2086000   0.92248335   -7.6734738    594.62554  0.023754616  0.024007824            3 
 2087000   0.90088508   -7.6750614    596.52562  0.023819103  0.024000753            2 
 2088000   0.90337849   -7.6566187    596.23055  0.023795919  0.023993675            1 
 2089000   0.90566592   -7.7304635    594.42296  0.023712421   0.02398664            2 
 2090000   0.91630552   -7.6877511    596.27431  0.023774893  0.023979511            2 
 2091000   0.92996708   -7.6861513     595.7033  0.023740766  0.023972488            3 
 2092000   0.92335945   -7.6692953    596.65034  0.023767142  0.023965422            3 
 2093000   0.93156501   -7.7122975    596.61146  0.023754239  0.023958404            1 
 2094000   0.92138987   -7.7075643    596.88008  0.023753585   0.02395131            1 
 2095000    0.8940724   -7.6901172    597.92975     0.023784  0.023944305            1 
 2096000   0.92008751   -7.7068691    596.32322  0.023708779  0.023937348            1 
 2097000    0.9202103   -7.6965649    597.24588  0.023734139  0.023930379            3 
 2098000   0.91030696   -7.6826885    598.40414  0.023768833  0.023923382            1 
 2099000   0.89734746   -7.7108421     597.4257  0.023718664  0.023916359            2 
 2100000   0.90489742   -7.6721888    599.79971  0.023801576  0.023909364            2 
 2101000   0.90363194   -7.7036694    596.73712  0.023668774    0.0239023            2 
 2102000   0.90497972   -7.7041294    596.23377  0.023637558  0.023895251            2 
 2103000   0.91512658   -7.7140323    596.09185  0.023620695  0.023888154            1 
 2104000   0.90321121   -7.6520692    597.62489  0.023670187  0.023881053            2 
 2105000   0.92339474   -7.6867968    598.16539   0.02368034  0.023874045            3 
 2106000   0.91050573    -7.686692    599.09057  0.023705705  0.023867071            3 
 2107000   0.91435054   -7.6877764    599.89886  0.023726422  0.023860028            1 
 2108000   0.92877998   -7.7146137    597.38719  0.023615876  0.023852977            2 
 2109000   0.91675833   -7.6694119    599.14799  0.023674253  0.023845962            3 
 2110000    0.9384737   -7.6998767    599.46874  0.023675701  0.023838924            1 
 2111000   0.91600888   -7.7171266    597.42907  0.023583968  0.023831854            2 
 2112000   0.91171606   -7.7287564    597.06144  0.023558295  0.023824715            3 
 2113000   0.93207064    -7.715334    597.65355  0.023570498   0.02381766            2 
 2114000   0.91046046   -7.6924297     598.4379  0.023590267  0.023810567            2 
 2115000   0.92342572   -7.7219483    599.21577  0.023609762  0.023803445            2 
 2116000   0.89473554   -7.6997583    599.52888  0.023610936  0.023796377            3 
 2117000   0.91006971   -7.7286813    597.13255  0.023505454  0.023789314            3 
 2118000   0.91348803   -7.6824607    598.84624  0.023561782  0.023782204            4 
 2119000    0.9184642    -7.693354    598.34263  0.023530857  0.023775157            1 
 2120000   0.93243049   -7.6751697    599.17964  0.023552659  0.023768114            2 
 2121000   0.92252538   -7.7161414    598.51775  0.023515549  0.023761022            4 
 2122000   0.91651547   -7.7415853    599.03616  0.023524826    0.0237539            2 
 2123000   0.92026423   -7.7246347    598.06645  0.023475681  0.023746801            2 
 2124000   0.89955299   -7.7172343    600.38084  0.023555432  0.023739683            2 
 2125000   0.90104431   -7.6885184     600.4342  0.023546439  0.023732639            1 
 2126000   0.93994481   -7.7301968    598.99558  0.023478974  0.023725616            3 
 2127000   0.92535421   -7.6882243    599.76341  0.023498018  0.023718552            1 
 2128000    0.9127488   -7.7061893    599.26636  0.023467511  0.023711504            3 
 2129000   0.91473784   -7.6998346    599.43141  0.023462949  0.023704493            7 
 2130000   0.93380094   -7.7092411    601.30656  0.023525296  0.023697464            2 
 2131000   0.88272888   -7.7119246    599.93278  0.023460534  0.023690448            3 
 2132000   0.91815185   -7.6979237    600.74508   0.02348128  0.023683439            2 
 2133000   0.90013104   -7.7167383    600.40662  0.023457049  0.023676385            3 
 2134000   0.90100267   -7.7101151    600.28208  0.023441193  0.023669388            2 
 2135000   0.90342867   -7.6926569    602.66153  0.023523089  0.023662368            1 
 2136000   0.92251528   -7.7489743    599.37759  0.023383957  0.023655338            2 
 2137000   0.90876751   -7.7013841    599.66911  0.023384383  0.023648242            1 
 2138000   0.91953029   -7.7331777    599.54301   0.02336853  0.023641148            2 
 2139000   0.89566127   -7.7239513    601.32777  0.023427138  0.023634047            2 
 2140000   0.89850803   -7.7398703    600.10406  0.023368538  0.023627034            1 
 2141000   0.90004681   -7.7167442    600.57593   0.02337599  0.023619962            4 
 2142000   0.89809914   -7.7196381    601.18381  0.023388726  0.023612885            3 
 2143000    0.9191076   -7.7348948    600.83551  0.023364268  0.023605884            3 
 2144000      0.91509   -7.6808817     603.3393  0.023450688  0.023598908            2 
 2145000   0.91187605   -7.7347935    600.68937  0.023336805   0.02359189            3 
 2146000   0.90777876   -7.6958752    602.43255  0.023393622  0.023584842            2 
 2147000    0.9074597   -7.6843482    601.08835  0.023330552  0.023577796            1 
 2148000   0.92414788   -7.7285256    601.33368  0.023329208  0.023570725       -1e+20 
 2149000   0.93582113   -7.7055037    601.76029  0.023334896  0.023563695            2 
 2150000   0.92601471   -7.7262302    601.22214  0.023303184  0.023556627            2 
 2151000    0.9038434   -7.7218102    601.16764  0.023290239  0.023549596            2 
 2152000   0.90764369    -7.733617    601.66668  0.023298741    0.0235426            2 
 2153000   0.91192436   -7.7244847    603.35173   0.02335314  0.023535503            3 
 2154000   0.91224779   -7.6887779    605.62841  0.023430378   0.02352845            2 
 2155000   0.90317067    -7.718256    604.60121  0.023379784  0.023521448            1 
 2156000    0.9111674   -7.6950193    602.00434  0.023268566  0.023514434            1 
 2157000   0.90237969   -7.7283831    604.16987  0.023341441  0.023507441            1 
 2158000   0.90473551   -7.7388067    602.79168  0.023277405  0.023500421            2 
 2159000   0.90005285   -7.7508728    602.13633  0.023241328  0.023493354            3 
 2160000   0.90045376   -7.7175813    602.54136  0.023246194  0.023486299            2 
 2161000   0.90341704   -7.7376113    604.19773  0.023299311  0.023479303            2 
 2162000   0.90836438   -7.6932414     604.0724  0.023283703   0.02347229            6 
 2163000    0.9309233   -7.7267151    604.08431  0.023273398  0.023465325            2 
 2164000   0.91830265   -7.7243432    603.47156  0.023239047  0.023458242            3 
 2165000   0.90635271   -7.7322768    603.88262  0.023244135  0.023451251            2 
 2166000    0.8987147   -7.7323743    604.54325   0.02325882  0.023444213            1 
 2167000    0.9093761   -7.7195366    604.64845  0.023252132  0.023437118            2 
 2168000    0.9084514   -7.7473458    603.57849   0.02320028  0.023430083            2 
 2169000   0.88839583   -7.7008332    605.13467  0.023249373  0.023423044            2 
 2170000   0.92250269   -7.7505983    604.05283  0.023197113  0.023415999            1 
 2171000   0.92510991   -7.7358594    605.96455  0.023259809  0.023408946            1 
 2172000   0.92357337   -7.7417543     604.7652  0.023203085  0.023401897            3 
 2173000    0.9173648    -7.735235    604.67195  0.023188831  0.023394808            5 
 2174000   0.89253016   -7.7316336    606.23917  0.023238239  0.023387783            2 
 2175000   0.88566409   -7.7095604    605.85282  0.023212752  0.023380816            3 
 2176000   0.91486481   -7.7136184    604.34773  0.023144444  0.023373867            3 
 2177000    0.9012276   -7.7163202    607.32552    0.0232478  0.023366941            2 
 2178000    0.8841317   -7.7309536     606.8009  0.023217053  0.023360013            1 
 2179000   0.90344059   -7.7309624    604.86723  0.023132447  0.023353043            1 
 2180000   0.91199396   -7.7396768    606.06964    0.0231678  0.023346036            3 
 2181000   0.90169215   -7.7563588    604.53137  0.023098402  0.023339047            2 
 2182000   0.90726011   -7.7452248    605.95337  0.023142124  0.023332059            1 
 2183000   0.89735544   -7.7151604    607.52513  0.023191523  0.023325006            2 
 2184000   0.91163231   -7.7523596     606.3925  0.023137687  0.023318081            1 
 2185000    0.9224246   -7.7209249    606.38627   0.02312686  0.023311112            2 
 2186000   0.90633394   -7.7084165    608.32464  0.023190174  0.023304137            1 
 2187000   0.92023724   -7.7001752     607.2044  0.023136885  0.023297177            1 
 2188000   0.90766593   -7.7532402    605.81099   0.02307324  0.023290222            3 
 2189000   0.88302395   -7.7362779    605.65557  0.023056783  0.023283243            1 
 2190000   0.92734225   -7.7279449    607.18925  0.023104614  0.023276258            2 
 2191000   0.90771271   -7.7515687    605.77975  0.023040459  0.023269294            3 
 2192000    0.9157511   -7.7521298    606.53981  0.023058843  0.023262278            4 
 2193000   0.88137457   -7.6989163    607.69276   0.02309214  0.023255282            9 
 2194000   0.90175691   -7.7161478    606.54742  0.023038112  0.023248304            1 
 2195000   0.89416018   -7.7284627    608.20854  0.023090681  0.023241358            1 
 2196000   0.88350572   -7.7197409    605.95082  0.022994491  0.023234404            2 
 2197000   0.90871123   -7.7172123    608.54039  0.023082248  0.023227433            1 
 2198000   0.89194246   -7.7194878    608.77554  0.023080662  0.023220524            1 
 2199000   0.89798377   -7.7042651    609.17436   0.02308528  0.023213604            1 
 2200000   0.90452161   -7.7207188    608.96236  0.023066756   0.02320666            2 
 2201000   0.92024853   -7.7099204    609.31892  0.023069776  0.023199718            1 
 2202000   0.88811607   -7.7247804    607.41401  0.022987209  0.023192787            2 
 2203000   0.90191825   -7.7521336    607.63744  0.022985226  0.023185834            4 
 2204000   0.90187717    -7.730083     608.3558  0.023001958  0.023178847            2 
 2205000   0.88089866   -7.7419708    607.10699  0.022944331  0.023171903            2 
 2206000   0.88959355   -7.7423585    608.36973  0.022981631  0.023164907            2 
 2207000   0.88615609   -7.7143858    609.19044  0.023002207  0.023157935            4 
 2208000    0.9023358   -7.7245385    608.59311  0.022969245  0.023150916            2 
 2209000    0.9157304   -7.7763794    606.74456  0.022889111  0.023143934            4 
 2210000   0.90674506   -7.7588138    608.68951  0.022952093  0.023136937            2 
 2211000   0.90933154   -7.7387807    610.09272    0.0229946  0.023129968            2 
 2212000    0.9129543    -7.746574    609.06036  0.022945312  0.023122987            2 
 2213000   0.89540245   -7.6961619    610.53482  0.022990466  0.023116042            1 
 2214000   0.89629604   -7.7610737    608.86621  0.022917277  0.023109067            2 
 2215000   0.89146588   -7.7177416     610.0185  0.022950282  0.023102088            1 
 2216000   0.91402543   -7.7335762    611.19841  0.022984296   0.02309514            3 
 2217000   0.89953221   -7.7296854     609.3389  0.022904033   0.02308815            5 
 2218000   0.90699825   -7.7250305     610.2149  0.022926619  0.023081179            4 
 2219000   0.90735105   -7.7721259    608.53074  0.022853039  0.023074216            2 
 2220000   0.88113342   -7.7697285    608.60071  0.022845372  0.023067192            3 
 2221000   0.90226902   -7.7467727    610.70195  0.022913926  0.023060187            2 
 2222000   0.88629098   -7.7433442    609.29462  0.022850833  0.023053174            4 
 2223000   0.89664494   -7.7537826    609.29843  0.022840697  0.023046139            2 
 2224000   0.89412387   -7.7490507    609.61623  0.022842335  0.023039197            2 
 2225000   0.89849679   -7.7465523    609.94956  0.022844553  0.023032253            1 
 2226000    0.9158138   -7.7356873     610.3391  0.022848873  0.023025298            1 
 2227000   0.90409448   -7.7755052    609.20228  0.022796074  0.023018297            2 
 2228000   0.89867663   -7.7443564    611.20246  0.022860654  0.023011254            2 
 2229000    0.8751177   -7.7521165    610.87051  0.022837988  0.023004254            2 
 2230000   0.88890556   -7.7483816    609.58773  0.022779811  0.022997189            2 
 2231000   0.88749008   -7.7372713    610.91462  0.022819163  0.022990089            3 
 2232000   0.89355779   -7.7036461    611.48752  0.022830328  0.022983044            3 
 2233000    0.9191685   -7.7405452    609.55748  0.022748077  0.022976026            1 
 2234000   0.87766585   -7.7518203    610.81764  0.022784902  0.022968999            3 
 2235000   0.87933926   -7.7839846    609.03445  0.022708219  0.022961941            2 
 2236000    0.9002813   -7.7618535    608.80658  0.022689571  0.022954842            5 
 2237000   0.89996397   -7.7571658    610.33207  0.022736256  0.022947745            3 
 2238000   0.89918184   -7.7638607    609.51108  0.022695527  0.022940594            3 
 2239000   0.89631926   -7.7486369    610.81698  0.022733995  0.022933484            2 
 2240000   0.89007566   -7.7488402    611.28794  0.022741367    0.0229264            3 
 2241000   0.90675543   -7.7784535    608.80852   0.02263902  0.022919314            2 
 2242000   0.88696663   -7.7312344    610.17436  0.022679689  0.022912225            3 
 2243000    0.8999064   -7.7812377    612.02247   0.02273824  0.022905165            3 
 2244000   0.88938237   -7.7507175    610.48897  0.022671159  0.022898064            3 
 2245000   0.88629661   -7.7200432    611.53342   0.02269983  0.022890932            2 
 2246000   0.91023099   -7.7382009    611.46506  0.022687187  0.022883935            2 
 2247000   0.89997055    -7.779037    609.33152  0.022597965  0.022876847            1 
 2248000    0.8929336   -7.7682905        609.5  0.022594158  0.022869702            2 
 2249000   0.88718932   -7.7702127    610.98128  0.022638998  0.022862542            1 
 2250000   0.88950299   -7.7607283    609.69366  0.022581247  0.022855383            2 
 2251000   0.88413824    -7.804726    609.71818  0.022572123  0.022848218            3 
 2252000   0.90126872   -7.7474375    611.26292  0.022619261  0.022841069            2 
 2253000   0.90470254   -7.7596298    610.35743   0.02257573  0.022833888            3 
 2254000   0.88902504   -7.7486854    610.73033    0.0225795  0.022826708            1 
 2255000   0.89001739   -7.7244486    612.02105  0.022617186  0.022819538            2 
 2256000   0.85688349   -7.7388737     610.1305  0.022537326  0.022812348            1 
 2257000   0.88457343   -7.8103643    609.02708    0.0224866  0.022805124            2 
 2258000   0.87657737   -7.7624966    610.45238  0.022529244  0.022797938            2 
 2259000   0.88030404   -7.7611758    610.22196   0.02251077  0.022790821            5 
 2260000   0.90406869   -7.7667402    612.19227  0.022573461  0.022783711            2 
 2261000   0.89471024   -7.7373395     612.9703  0.022592153  0.022776625            1 
 2262000   0.89105663   -7.7974634    611.74032  0.022536852  0.022769478            3 
 2263000   0.88072581   -7.7367925    612.67545  0.022561329  0.022762386            2 
 2264000   0.88628466   -7.7879392    612.09003  0.022529815  0.022755251            2 
 2265000   0.89150406   -7.7425466    612.27629  0.022526721  0.022748099            1 
 2266000   0.89395762     -7.77119    612.97422  0.022542447     0.022741            2 
 2267000   0.91394519   -7.7664966    612.39689  0.022511281  0.022733905            3 
 2268000   0.90560052   -7.7754861    612.46856  0.022503989  0.022726804            1 
 2269000   0.88487949   -7.7593177    614.07305  0.022552999  0.022719719            3 
 2270000   0.89776274   -7.7587488    612.22539  0.022475235  0.022712609            1 
 2271000   0.90141165   -7.8087339    611.35043  0.022433232   0.02270549            3 
 2272000   0.88829363    -7.727073    613.61053  0.022506255   0.02269837            2 
 2273000    0.8735794   -7.7862724    612.82449  0.022467535  0.022691231            2 
 2274000   0.89700628   -7.7950664     612.5519  0.022447665  0.022684066            2 
 2275000   0.87991247   -7.7739137    613.83233  0.022484701  0.022676952            4 
 2276000   0.88672738   -7.7717936    612.51815  0.022426704   0.02266984            2 
 2277000   0.87815789   -7.7738165    612.95868  0.022432977  0.022662693            3 
 2278000    0.8905621   -7.7737214    613.38077  0.022438571  0.022655569            2 
 2279000   0.91198301   -7.8094319    613.39881  0.022429385  0.022648489            2 
 2280000   0.88719639   -7.7971584     612.4463  0.022384733  0.022641417            4 
 2281000    0.8903474   -7.7798013    613.96391  0.022430364  0.022634317            2 
 2282000   0.90198224   -7.7637037    613.58589   0.02240673  0.022627247            1 
 2283000   0.86656389   -7.7427184     615.1325  0.022453369  0.022620234            5 
 2284000   0.87778272   -7.7606356    615.21868  0.022446683  0.022613248            3 
 2285000   0.87369233   -7.7473959    615.77235  0.022457051  0.022606265            2 
 2286000   0.86818133   -7.7463094    617.83029  0.022522247  0.022599307            2 
 2287000   0.87660249   -7.7606629    614.10066    0.0223765  0.022592381            1 
 2288000   0.87814645   -7.7846592    613.51035   0.02234522  0.022585443            2 
 2289000    0.8862567   -7.7735429    616.09312  0.022429486  0.022578429            2 
 2290000   0.88662023   -7.7694107    616.12303   0.02242078  0.022571414            1 
 2291000   0.88389314    -7.775873    614.92114  0.022367275  0.022564395            2 
 2292000   0.89163761   -7.7739037    615.87474  0.022392188  0.022557408            3 
 2293000   0.87524238   -7.7649819    614.63928  0.022337523  0.022550398            6 
 2294000   0.89197335   -7.7478991    617.05205  0.022415433  0.022543374            1 
 2295000   0.88063446   -7.7813707    615.48255  0.022348676  0.022536367            1 
 2296000   0.89002668   -7.7512506    617.36338  0.022407208  0.022529419            2 
 2297000   0.89072687   -7.7480164     616.7616   0.02237562  0.022522475            2 
 2298000   0.87030534    -7.769143    616.14607  0.022343562   0.02251547            1 
 2299000   0.87976974    -7.753864    615.39281  0.022306539  0.022508476            3 
 2300000   0.86106606   -7.7661941    615.45514  0.022299099   0.02250147            1 
 2301000   0.89192158   -7.7427721    617.81227  0.022374774  0.022494467            1 
 2302000   0.89220258   -7.7665609    615.20356  0.022270618   0.02248745            3 
 2303000   0.88665131   -7.7630891    618.60933  0.022384185  0.022480426            1 
 2304000   0.87385752   -7.7713481    616.71469  0.022305942  0.022473416            4 
 2305000   0.84670497   -7.7564043    616.91455   0.02230349  0.022466493            1 
 2306000   0.88163944   -7.7755056    616.73386  0.022287289  0.022459522            2 
 2307000   0.88721425   -7.8000059    617.48847  0.022304886  0.022452481            3 
 2308000   0.88648841   -7.7720237    617.35348  0.022290348  0.022445474            2 
 2309000   0.89297379    -7.810603    617.23211  0.022276314  0.022438462            1 
 2310000   0.90868265   -7.8011781    616.28817  0.022232618  0.022431428            2 
 2311000   0.87181212   -7.8010331    617.89268  0.022280855   0.02242446            3 
 2312000   0.89344839   -7.7635787     617.2935  0.022249622  0.022417526            2 
 2313000   0.87783564    -7.766157    617.06956  0.022231934  0.022410568            2 
 2314000   0.86296743   -7.7204599    619.20008  0.022299052  0.022403655            2 
 2315000   0.86443705   -7.7656349    618.07985  0.022249095  0.022396726            2 
 2316000   0.88269662   -7.8146642     617.4091  0.022215353  0.022389744            1 
 2317000   0.87998658   -7.7588313    620.05804  0.022301037  0.022382815            1 
 2318000   0.88324543   -7.8005233    618.53407  0.022236629  0.022375889            2 
 2319000   0.88371917   -7.7702689    618.27838  0.022217852  0.022368918            1 
 2320000   0.87560133   -7.7782866    618.21055  0.022205839  0.022361968            2 
 2321000   0.87526828   -7.7721329    618.87674   0.02222019  0.022355047            1 
 2322000   0.88539279   -7.7646832    618.94882  0.022213208  0.022348158            2 
 2323000   0.87631555   -7.7305576     619.2388  0.022214048  0.022341244            3 
 2324000   0.85914564   -7.7367696    619.79738  0.022224519  0.022334398            1 
 2325000   0.88131811   -7.7857807    618.88075  0.022182106  0.022327502            2 
 2326000   0.87591243   -7.7938287    618.65336  0.022164423  0.022320569            3 
 2327000   0.86009587   -7.7726665    618.96123  0.022165923  0.022313708            4 
 2328000   0.87866209   -7.7802668    619.21478  0.022165478  0.022306869            3 
 2329000   0.88021346   -7.7823789    619.38744  0.022162138  0.022299979            2 
 2330000   0.88098068   -7.8124703    618.96492  0.022137515  0.022293072            2 
 2331000   0.85218661   -7.7702607    620.97898  0.022200021  0.022286207            2 
 2332000   0.88762728   -7.7825663    621.73056  0.022217359  0.022279343            1 
 2333000   0.88215029   -7.7983849    620.40996  0.022160664   0.02227253            1 
 2334000    0.8645837   -7.7941037    619.95177   0.02213481   0.02226569            3 
 2335000   0.88120815    -7.757796    621.76392  0.022190004  0.022258873            2 
 2336000   0.88967464   -7.8270956    621.61831  0.022175311  0.022252084            2 
 2337000   0.88671775   -7.7502113    621.98557  0.022178918  0.022245305            3 
 2338000   0.90387955   -7.7795501    622.39364  0.022183976  0.022238539            3 
 2339000   0.88211019   -7.8011813    620.15518  0.022094741  0.022231734            1 
 2340000   0.88239677   -7.7845893    620.51954  0.022098274  0.022224892            2 
 2341000   0.88456921   -7.7665363    622.14421  0.022146669  0.022218078            2 
 2342000   0.86495936   -7.7727475    622.54075  0.022151322  0.022211349            2 
 2343000   0.87662217   -7.7994759    621.89845  0.022119023  0.022204589            1 
 2344000   0.88015888   -7.7795651    621.32361   0.02208915  0.022197821            1 
 2345000   0.86027127   -7.7828405    621.46216  0.022084654  0.022191057            4 
 2346000   0.87710621   -7.7980926    621.42391  0.022073881   0.02218429            2 
 2347000   0.86723968   -7.7804322    621.45471   0.02206557  0.022177474            8 
 2348000    0.8815454   -7.7649815    622.42297  0.022090537  0.022170666            2 
 2349000   0.87585915   -7.7566935    622.36166  0.022078958  0.022163857            1 
 2350000   0.87257155    -7.834596    622.05171  0.022058571  0.022157042            4 
 2351000   0.86636197   -7.7869969    622.03233  0.022048502  0.022150199            2 
 2352000   0.85071589   -7.8136519    622.86167  0.022068512  0.022143369            2 
 2353000   0.88104937   -7.8140387     620.5512  0.021977306  0.022136539            3 
 2354000   0.86314547   -7.8081862    621.69907  0.022008605  0.022129714            3 
 2355000   0.87233155   -7.8072325    622.48432  0.022027046  0.022122885            3 
 2356000   0.88029435   -7.7463586    622.94767  0.022034086   0.02211611            1 
 2357000   0.86238699   -7.8010012    623.72673  0.022052282  0.022109325            2 
 2358000   0.86730109    -7.798281    621.20463  0.021953797  0.022102511            2 
 2359000   0.89832928   -7.8076069    621.88857  0.021968651  0.022095672            2 
 2360000   0.86721915   -7.7780192    622.41711  0.021978005    0.0220889            2 
 2361000   0.86836557   -7.7478882    623.00792   0.02198955  0.022082125            3 
 2362000   0.87954364   -7.7851842    622.52176  0.021963088  0.022075298            2 
 2363000   0.87207751   -7.7877213    624.34984  0.022018262  0.022068537            3 
 2364000   0.85040145   -7.7892012    623.80939  0.021989897    0.0220617            2 
 2365000   0.85903464   -7.7947185    622.96247  0.021950757  0.022054905            4 
 2366000    0.8865295   -7.8180408    623.32018  0.021954078  0.022048149            2 
 2367000   0.85567573   -7.7796028    623.29452  0.021943899  0.022041354            3 
 2368000   0.87502223   -7.7555423    624.24475  0.021968073  0.022034559            2 
 2369000   0.87224733   -7.7704118     625.8388  0.022014873  0.022027797            3 
 2370000   0.88075997   -7.7896067    624.37846  0.021954235  0.022021073            2 
 2371000   0.87211262   -7.7920422    624.34524  0.021943809  0.022014291            3 
 2372000   0.88385073   -7.7942849    623.71435  0.021912393  0.022007537            4 
 2373000   0.86243997   -7.8041218    624.51539  0.021931289   0.02200077            4 
 2374000   0.88132061   -7.8259909    622.34836  0.021845983  0.021993943            2 
 2375000   0.85786814   -7.8276369    622.87852  0.021855387  0.021987092            1 
 2376000   0.87656816   -7.8230461    624.39393  0.021899338  0.021980285            2 
 2377000   0.87458043   -7.8184166    622.46083  0.021822354  0.021973414            2 
 2378000    0.8998719    -7.810876    625.22268  0.021909962  0.021966625            2 
 2379000   0.85587478   -7.8080633    623.48404   0.02183985  0.021959848            3 
 2380000   0.86103798   -7.8156828    623.22293  0.021821531  0.021953067            2 
 2381000   0.86976658   -7.7783214    625.94061  0.021907483  0.021946322            2 
 2382000   0.85558077   -7.8035564    624.14363  0.021835419  0.021939562            3 
 2383000   0.86433499   -7.8070948    625.77633  0.021883352  0.021932783            3 
 2384000   0.85423105   -7.8201211    624.10013  0.021815581  0.021926031            3 
 2385000   0.86501038   -7.8109483    625.03487  0.021839094  0.021919306            2 
 2386000   0.89169965   -7.8336942    623.68198   0.02178269   0.02191255            1 
 2387000   0.83749811   -7.8114119    624.53158  0.021803225  0.021905779            2 
 2388000   0.87062304   -7.8234627     623.5177  0.021758714   0.02189897            2 
 2389000   0.86366871   -7.8161221    624.58578  0.021786863  0.021892174            1 
 2390000    0.8661338   -7.8369634    623.82543  0.021751235  0.021885381            2 
 2391000   0.85594544   -7.8277879    623.27699  0.021723023   0.02187857            1 
 2392000   0.86856147   -7.8035928    624.49396  0.021756339  0.021871773            2 
 2393000    0.8677196   -7.8163947    625.18987  0.021771482  0.021864953            1 
 2394000   0.85771832   -7.8088603    625.84119  0.021785059  0.021858183            1 
 2395000   0.87541605   -7.7951734    625.94957  0.021779735  0.021851444            1 
 2396000   0.87067159   -7.8342123     626.8719  0.021802723  0.021844679            2 
 2397000   0.87154204   -7.8125542     627.2835  0.021807937  0.021837907            2 
 2398000   0.83889118   -7.8163748    627.01743  0.021789597  0.021831133            1 
 2399000   0.86436977    -7.825131    625.79697  0.021738119  0.021824395            1 
 2400000   0.87393193   -7.8449855    625.80189  0.021729232  0.021817664            3 
 2401000   0.84891076   -7.8291001    626.98184  0.021761136  0.021810916            2 
 2402000   0.87310824    -7.834845    626.60333  0.021738944  0.021804158            3 
 2403000   0.85662986   -7.8168908    626.59446   0.02172959  0.021797429            2 
 2404000   0.86851216   -7.8426418    627.31975  0.021745693  0.021790688            1 
 2405000   0.84955042   -7.8381025    626.02854  0.021691911  0.021783938            1 
 2406000   0.87513095   -7.8158189    627.53616  0.021735112  0.021777187            3 
 2407000   0.86316958   -7.8426473     627.9601   0.02174076  0.021770444            3 
 2408000   0.86861058   -7.8173774    626.50917  0.021681519  0.021763684            1 
 2409000   0.86540928    -7.849331    625.70283  0.021644625  0.021756841            2 
 2410000   0.86545202   -7.8049184    627.97624  0.021714254  0.021750058            2 
 2411000    0.8719057   -7.8217912    626.05319   0.02163878  0.021743336            2 
 2412000   0.86833693   -7.8126724    626.66668  0.021651005  0.021736621            1 
 2413000   0.85574696    -7.791038    625.91444  0.021616053  0.021729905            2 
 2414000   0.87656125   -7.8065782    627.39164  0.021658093  0.021723207            2 
 2415000   0.87148436   -7.8420734    627.61181  0.021656722  0.021716471            2 
 2416000   0.87639505   -7.8114969    626.88915  0.021622832  0.021709772            4 
 2417000   0.87002123   -7.8174431    627.60845  0.021638686   0.02170303            2 
 2418000   0.86309939   -7.8236641    627.10996  0.021612557  0.021696286            3 
 2419000    0.8814238   -7.8428309    627.26445  0.021608945  0.021689592            2 
 2420000   0.88509225   -7.8178418    628.09705  0.021628686  0.021682855            3 
 2421000   0.86748207   -7.8051677    628.31687  0.021627319  0.021676114            2 
 2422000    0.8530101   -7.8038621     626.8548  0.021568084  0.021669398            2 
 2423000   0.87576861   -7.8131237    627.44397  0.021579446  0.021662683            1 
 2424000   0.89001467   -7.8320538    626.61309  0.021541979  0.021655945            4 
 2425000   0.86108865   -7.7981981    628.39071  0.021594183  0.021649274            3 
 2426000   0.87592125   -7.8300845    627.41546  0.021551781  0.021642567            1 
 2427000   0.86652865    -7.824096    627.46762  0.021544692  0.021635878            1 
 2428000   0.85290379   -7.8398544    627.81539  0.021547755  0.021629163            1 
 2429000   0.87054326   -7.8318717    628.32466  0.021556356  0.021622462            3 
 2430000   0.87528631   -7.8063721    629.90132  0.021601554  0.021615761            3 
 2431000   0.84786389   -7.8205434    627.85916  0.021522664  0.021609083            5 
 2432000   0.86443698   -7.8147708    629.93835  0.021585058  0.021602373            2 
 2433000   0.85402358   -7.8387307    627.48033  0.021491997  0.021595655            1 
 2434000   0.87199125   -7.8325281    629.97333   0.02156852  0.021588948            2 
 2435000   0.87546556   -7.8590546    627.44391  0.021473098  0.021582253            2 
 2436000    0.8538344   -7.8122557    630.19293  0.021558324  0.021575534            2 
 2437000   0.83361411   -7.8497596    627.99572  0.021474344  0.021568828            3 
 2438000   0.84097384   -7.8224936    630.58118   0.02155391  0.021562112            1 
 2439000   0.86389694   -7.8365477    628.97717  0.021490268  0.021555406            9 
 2440000   0.85622411   -7.7984869    629.67401   0.02150526  0.021548681            2 
 2441000   0.85136737   -7.8283796    629.15679  0.021478792  0.021541974            7 
 2442000   0.87579233   -7.8616441    627.55305  0.021415269  0.021535224            4 
 2443000   0.86028246   -7.8464376    628.45453  0.021437254  0.021528442            2 
 2444000   0.86888843   -7.8250697    631.91149  0.021546355  0.021521705            3 
 2445000   0.85963829    -7.819391    630.64867  0.021494501  0.021514994            1 
 2446000    0.8881351   -7.8125876    629.22525  0.021437219  0.021508307            2 
 2447000   0.83761736   -7.8512385    631.02875  0.021489877  0.021501642            3 
 2448000   0.87909256   -7.7822192    630.79987  0.021473307  0.021494965            2 
 2449000    0.8525786   -7.8354179    629.31535  0.021414025  0.021488347            1 
 2450000   0.87622624   -7.8607447    630.28476  0.021438257  0.021481692            5 
 2451000   0.87673763   -7.8417337    630.03115  0.021420888  0.021475002            2 
 2452000   0.84352485   -7.8411835    629.26935  0.021386261  0.021468331            1 
 2453000    0.8648312   -7.8401665    630.87891  0.021432223  0.021461626            2 
 2454000   0.85296246   -7.8241204    631.98896  0.021461185   0.02145496            3 
 2455000   0.84642556   -7.8352493    629.72747  0.021375678  0.021448299            1 
 2456000   0.83546315   -7.8508518    629.49303   0.02135902   0.02144162            4 
 2457000   0.88401714   -7.8392554    629.96267  0.021366255  0.021434916            1 
 2458000   0.84067809   -7.8619118    629.15766   0.02133027  0.021428279            2 
 2459000   0.85539198   -7.8118293    631.61353  0.021404824  0.021421676            3 
 2460000   0.85261171   -7.8426248    631.51007  0.021392618  0.021415106            2 
 2461000   0.85881348   -7.8634999    630.76324  0.021358636  0.021408473            3 
 2462000    0.8582181   -7.7825124    632.44588  0.021406914  0.021401869            4 
 2463000   0.86704155   -7.8198204    631.67668  0.021372198  0.021395273            2 
 2464000   0.85485958   -7.8382488    631.91656  0.021371637  0.021388701            1 
 2465000   0.87349175   -7.8197089    632.00045  0.021365803  0.021382142            2 
 2466000   0.84676132    -7.842831    632.27666  0.021366473  0.021375535            1 
 2467000   0.87645022   -7.8436538    630.91432  0.021311793  0.021368953            2 
 2468000   0.87375372   -7.8068243    634.45159  0.021422595  0.021362416            2 
 2469000    0.8652441   -7.8365995    632.72042  0.021355489  0.021355818            2 
 2470000   0.86064766   -7.8230523    632.51754  0.021339998  0.021349203            2 
 2471000   0.86540231   -7.8631157    631.16717  0.021285821  0.021342596            1 
 2472000   0.86031548   -7.8419039     632.3775  0.021318012  0.021336008            1 
 2473000   0.87221765   -7.8539692    632.77768  0.021322876  0.021329408            4 
 2474000    0.8392437   -7.8367557    633.13911  0.021326432  0.021322848            1 
 2475000   0.86147233   -7.8336504    633.62539  0.021334188  0.021316323            2 
 2476000   0.84409472   -7.7914099    634.23565  0.021346111  0.021309733            2 
 2477000   0.85346262   -7.8364171    633.24195  0.021304062  0.021303149            2 
 2478000    0.8616143   -7.8361229    633.33805  0.021298697  0.021296554            2 
 2479000   0.85865501   -7.8372986     633.7456  0.021303805  0.021289997            2 
 2480000   0.85955877   -7.8443287    634.96026   0.02133603    0.0212834            2 
 2481000   0.85878078   -7.8119411    633.98726  0.021294749   0.02127679            3 
 2482000   0.85089451   -7.8156952    634.17021  0.021292312  0.021270228            2 
 2483000   0.86837275   -7.8177998    633.72815    0.0212689  0.021263666            1 
 2484000   0.84353461   -7.8362897    633.92159  0.021266827  0.021257065            1 
 2485000   0.85022098   -7.8460508    633.49177  0.021243856  0.021250471            3 
 2486000   0.85626477   -7.8324527    633.02976  0.021219823  0.021243824            3 
 2487000    0.8430605    -7.881188    632.80602  0.021203794  0.021237128            3 
 2488000    0.8455765   -7.9028044    631.41142   0.02114856  0.021230409            1 
 2489000   0.83028155   -7.8428617    634.61741  0.021247402  0.021223694            1 
 2490000   0.86724592   -7.8419254    633.15949  0.021190077  0.021217065            5 
 2491000   0.85710564   -7.8350704    634.23838  0.021217663   0.02121042            3 
 2492000   0.85896223   -7.8491834    634.12856  0.021205476  0.021203819            2 
 2493000   0.86629099   -7.8484669    633.36908  0.021171583  0.021197191            3 
 2494000   0.86003743   -7.8330169    634.59665  0.021204112  0.021190551            1 
 2495000   0.85416482   -7.8728439    631.28014  0.021084841  0.021183873            3 
 2496000   0.84796965   -7.8342192    632.96791  0.021132743  0.021177172            1 
 2497000   0.85543432   -7.8477542    633.52697  0.021142937   0.02117052            2 
 2498000   0.84237786   -7.8255569    634.18987  0.021156587  0.021163866            3 
 2499000    0.8605354    -7.860655     634.0172  0.021142364  0.021157216            1 
 2500000   0.84749743   -7.8860298    633.34749  0.021111583   0.02115053            1 
 2501000   0.85393557    -7.892233    632.07148  0.021060625  0.021143784            3 
 2502000   0.84197466   -7.8803025     632.0418  0.021051219  0.021137069            3 
 2503000   0.85085129   -7.8403222    633.28541  0.021084213  0.021130355            2 
 2504000   0.84545392   -7.8686453    632.67282  0.021055405  0.021123628            1 
 2505000    0.8597416   -7.8476007    633.72338  0.021081949  0.021116905            2 
 2506000    0.8352423   -7.8582515    632.85962  0.021044813  0.021110188            2 
 2507000   0.83605953   -7.8646451    632.47569  0.021023657  0.021103501            3 
 2508000   0.85748241   -7.8575062    633.91581  0.021063125  0.021096785            1 
 2509000   0.85841148   -7.8435949    632.10563  0.020994607  0.021090093            2 
 2510000   0.85896793   -7.8766711    633.29121  0.021025604  0.021083393            1 
 2511000    0.8685045   -7.8674449    632.06526  0.020976545  0.021076689            2 
 2512000   0.84873289   -7.8651762    633.89209  0.021028798  0.021069982            2 
 2513000    0.8388649   -7.8882501    632.44121  0.020972317  0.021063261            3 
 2514000   0.82751194   -7.8710071     633.3685  0.020994713  0.021056526            1 
 2515000   0.85256654   -7.8775997    633.09662  0.020977357  0.021049786            3 
 2516000   0.84927094    -7.871577    633.70971  0.020989325  0.021043083            2 
 2517000   0.86660521   -7.8831415    632.61242  0.020944657  0.021036359            1 
 2518000   0.86373544   -7.8544756    634.38031  0.020994847  0.021029661            2 
 2519000   0.85967616   -7.8727089    634.49531  0.020990317  0.021022963            2 
 2520000   0.81579204   -7.8700793    633.45615  0.020947624  0.021016272            3 
 2521000   0.84754636   -7.8477406    636.69771  0.021046467  0.021009654            3 
 2522000   0.84025461   -7.9001792    634.14328  0.020953717  0.021002968            2 
 2523000   0.85974237   -7.8686159     633.4441  0.020922318  0.020996257            1 
 2524000   0.83865645   -7.8622408    635.40535  0.020978782   0.02098959            2 
 2525000   0.83380329   -7.8583108    635.22391  0.020964485  0.020982917            1 
 2526000   0.83614416    -7.853452     635.0345  0.020949937  0.020976213            2 
 2527000   0.85795594   -7.8727251    635.20412  0.020947241  0.020969512            1 
 2528000   0.83996405   -7.8681224    635.37074  0.020944447  0.020962825            2 
 2529000   0.85422559    -7.849224    633.87204  0.020886781   0.02095614            2 
 2530000   0.83576039   -7.8566324    634.78504  0.020908598   0.02094946            2 
 2531000   0.83474829   -7.8665046    635.73681  0.020931674  0.020942787            2 
 2532000   0.85556358   -7.8793091    634.43651  0.020880612  0.020936075            2 
 2533000   0.84006021   -7.8465541    635.29507  0.020900614  0.020929334            3 
 2534000   0.83981955    -7.869618    635.61532  0.020902898  0.020922648            1 
 2535000   0.85704777   -7.8477731    636.64283   0.02092843   0.02091599            4 
 2536000   0.84901792   -7.8569442    635.64103  0.020887258  0.020909326            2 
 2537000   0.84403626   -7.8892547    636.39379  0.020903751   0.02090264            2 
 2538000   0.81879938   -7.8885476    633.37558  0.020796414  0.020895909            2 
 2539000   0.82837309   -7.8800622    635.12479  0.020845634   0.02088919            2 
 2540000   0.82573906   -7.8618564    636.17655  0.020871934  0.020882522            1 
 2541000   0.83672003    -7.884915    636.04268   0.02085933  0.020875877            2 
 2542000   0.83326985   -7.8609151    636.99507  0.020882345  0.020869222            4 
 2543000   0.83035443   -7.8639327    635.20886    0.0208156  0.020862592            2 
 2544000   0.84554015   -7.8818321    636.19108  0.020839593  0.020855978            3 
 2545000   0.83900184   -7.8668166    636.25184  0.020833394   0.02084937            1 
 2546000     0.860659   -7.8647641    637.21348  0.020856686  0.020842771            1 
 2547000   0.85685247   -7.8511556    635.45187  0.020790861  0.020836186            2 
 2548000   0.84064328   -7.8714957    636.46079  0.020815698  0.020829602            2 
 2549000   0.85631782   -7.9057609    637.34117  0.020836314  0.020822983            2 
 2550000   0.84396214   -7.8974235    636.51771  0.020801232  0.020816343            2 
 2551000   0.83463665   -7.8956453    636.61776  0.020796346  0.020809684            3 
 2552000   0.85181186   -7.8667219    636.04158  0.020769383  0.020803052            2 
 2553000   0.85334812   -7.9054748    636.50073  0.020776235  0.020796386            2 
 2554000   0.84123312   -7.8653637    636.75107  0.020776268  0.020789704            2 
 2555000   0.85336984   -7.9125121    637.43259  0.020790365  0.020783048            3 
 2556000   0.83568892   -7.8775944    636.18436  0.020741535  0.020776381            1 
 2557000    0.8509701   -7.8961593    636.48752  0.020743303  0.020769695            1 
 2558000   0.84832839   -7.8805362    637.15426  0.020756915  0.020763013            2 
 2559000   0.84686432   -7.8647983    635.75377  0.020703197  0.020756365            2 
 2560000   0.84217678   -7.8850261    637.17744  0.020741453  0.020749756            2 
 2561000   0.84162067   -7.8787514    637.98031  0.020759479  0.020743111            1 
 2562000   0.85191729    -7.871492    637.14648  0.020724255  0.020736493            1 
 2563000   0.84881976   -7.8784264    638.13332  0.020748255  0.020729864            3 
 2564000   0.83839827   -7.8723084    638.30998  0.020745904  0.020723244            2 
 2565000   0.84896188   -7.8887876     636.3046  0.020672664  0.020716588            4 
 2566000    0.8354491   -7.8591906    637.82339  0.020713932  0.020709954            2 
 2567000    0.8622676   -7.8760692    636.87375  0.020675034   0.02070336            3 
 2568000   0.84214762   -7.8628709    636.49038  0.020654542  0.020696729            1 
 2569000   0.85095838   -7.9058026    635.98859  0.020630226  0.020690087            4 
 2570000   0.84335174   -7.8782137    636.49686  0.020638679  0.020683422            1 
 2571000   0.83261484   -7.9103232    638.11691  0.020683162  0.020676738            2 
 2572000   0.84513553   -7.8786103    636.55492  0.020624512  0.020670055            2 
 2573000    0.8488996   -7.8921243    637.12574  0.020634983  0.020663373            2 
 2574000   0.83693108   -7.9088548    637.41894  0.020636459  0.020656708            3 
 2575000    0.8370262   -7.8952314    638.68929  0.020669556  0.020650047            5 
 2576000   0.84480522   -7.9110971    637.61332  0.020626725  0.020643384            3 
 2577000   0.85968917   -7.8917921    637.77252  0.020623869  0.020636714            2 
 2578000   0.82938616    -7.871701     636.3384  0.020569511  0.020630069            1 
 2579000   0.84941134   -7.8857077    637.89296  0.020611767  0.020623415            2 
 2580000   0.84858006   -7.8697597    638.94333  0.020637705   0.02061678            1 
 2581000   0.84203662   -7.8840768    639.79818  0.020657309  0.020610157            1 
 2582000   0.83184431   -7.8954559    637.24288  0.020566837  0.020603497            2 
 2583000     0.835809   -7.9024408    636.75345  0.020543085  0.020596837            2 
 2584000   0.84078076   -7.8676759    637.19178   0.02054927  0.020590165            1 
 2585000   0.83210805   -7.8940772    638.54133  0.020584827  0.020583523            5 
 2586000   0.84171545   -7.9081948    638.60637  0.020578963   0.02057689            2 
 2587000   0.83825788   -7.9030778    638.09409  0.020554506   0.02057025            3 
 2588000   0.82686234   -7.9016879    638.47581  0.020558855  0.020563586            1 
 2589000   0.82977009   -7.9175876    638.42729  0.020549353  0.020556893            2 
 2590000   0.83380795   -7.9284615    638.41178   0.02054092  0.020550275            2 
 2591000   0.83172512   -7.8876115    639.38771   0.02056438   0.02054363            1 
 2592000   0.84564891   -7.8529248    639.09955  0.020547182   0.02053705            3 
 2593000   0.83055482   -7.8607266    641.32077  0.020610643  0.020530494            5 
 2594000   0.83085998   -7.8999029     639.7749  0.020553036  0.020523923            2 
 2595000   0.82611508   -7.8455048    639.56967  0.020538525  0.020517334            1 
 2596000   0.84974541   -7.8711072    639.37384  0.020524327  0.020510745            2 
 2597000   0.82920055   -7.8676674     638.8863   0.02050078  0.020504145            2 
 2598000   0.82919972   -7.9037964    638.69418  0.020486726   0.02049752            2 
 2599000   0.81454916   -7.8825841    639.78017  0.020513665  0.020490904            2 
 2600000   0.85125672   -7.8787088    638.64049  0.020469247  0.020484312            1 
 2601000   0.84669268   -7.9033021    638.96723  0.020471845  0.020477679            2 
 2602000    0.8516303   -7.8638696    639.36211  0.020476624  0.020471061            2 
 2603000   0.83049367   -7.8624867    639.22316  0.020464309  0.020464448            4 
 2604000   0.84946095   -7.9060727      638.555  0.020435068  0.020457838            3 
 2605000    0.8199635   -7.8835369    639.07748  0.020443937  0.020451212            2 
 2606000   0.82990288   -7.8857935    639.81325  0.020459621   0.02044459            2 
 2607000   0.83000837   -7.8552834    640.46774  0.020472693  0.020438008            2 
 2608000    0.8341978   -7.8659444    640.24267  0.020457652  0.020431464            4 
 2609000   0.83321304   -7.8738875    639.25843  0.020418373  0.020424854            3 
 2610000   0.83223348   -7.8930223    639.06853  0.020404487  0.020418261            2 
 2611000   0.86339489   -7.8990634    639.84248  0.020421374  0.020411653            1 
 2612000   0.81860158   -7.8724798    639.17467  0.020392249  0.020405048            1 
 2613000   0.83601766   -7.9041887    638.97586  0.020378105   0.02039841            3 
 2614000   0.82174071   -7.9047605    638.89469  0.020367722  0.020391765            3 
 2615000   0.83915789   -7.8714123    639.84374  0.020390177  0.020385163            2 
 2616000   0.82146991   -7.8977533    639.45745  0.020370077  0.020378571            3 
 2617000   0.83219543   -7.8943086    639.81753  0.020373759  0.020371981            4 
 2618000   0.84780375   -7.9156677    640.61076  0.020391226  0.020365357            1 
 2619000   0.81774709    -7.909286     637.8872   0.02029678  0.020358752            1 
 2620000   0.83677409   -7.8891709     639.2138  0.020331228   0.02035212            2 
 2621000   0.82255991   -7.9043935    640.68102   0.02037012  0.020345525            2 
 2622000   0.82342199   -7.9375285    639.49246  0.020324576  0.020338905            1 
 2623000   0.82350577   -7.9197902    638.40443  0.020282261  0.020332272            3 
 2624000   0.84363398   -7.9519235    640.24316  0.020332926  0.020325633            1 
 2625000   0.82362908    -7.916946    639.45466  0.020300148  0.020318977            2 
 2626000   0.82566184   -7.8951031    639.46835  0.020292852  0.020312342            2 
 2627000    0.8161556   -7.9212526    640.44057  0.020315968  0.020305739            2 
 2628000   0.82962704   -7.8628703    640.27185  0.020302887  0.020299087            2 
 2629000   0.83769328   -7.9193547    641.13741  0.020322601   0.02029245            3 
 2630000   0.82483999   -7.8975631     640.2903  0.020288032  0.020285802            2 
 2631000   0.83188165   -7.8894176    639.48983  0.020254967  0.020279183            6 
 2632000   0.80763655   -7.8760483    641.53119  0.020311904  0.020272625            1 
 2633000   0.85227194   -7.9110844    639.34345  0.020234949  0.020266027            4 
 2634000   0.83309589   -7.9292641    640.79505  0.020273192  0.020259436            2 
 2635000   0.83254708   -7.9275973    639.70566  0.020231045  0.020252836            4 
 2636000   0.84399736   -7.9177948    641.15567  0.020269211  0.020246233            2 
 2637000   0.83539058   -7.9195805    643.21572  0.020326625  0.020239657            2 
 2638000   0.84502345   -7.9030299    640.33558  0.020227937  0.020233099            4 
 2639000   0.82204212   -7.9205093    641.35092  0.020252334  0.020226532            2 
 2640000     0.815552   -7.9077323    641.00618  0.020233781  0.020219988            1 
 2641000   0.83734034   -7.9034014    643.73148  0.020312113  0.020213456            3 
 2642000   0.83314349   -7.9230581    642.25527  0.020257863  0.020206957            1 
 2643000   0.81547909   -7.9140998    643.72331  0.020296485  0.020200477            1 
 2644000   0.82489426   -7.9027849    643.29136  0.020275194  0.020194034            2 
 2645000   0.82741814   -7.8954894    644.40438  0.020302596  0.020187607            3 
 2646000   0.82322708   -7.9397767    641.60997  0.020206915  0.020181166            3 
 2647000   0.81008849   -7.9000725    644.10359  0.020277786  0.020174722            3 
 2648000   0.83770067   -7.9295901     642.1732  0.020209378  0.020168235            3 
 2649000   0.84307511   -7.9213361    642.47091  0.020211115  0.020161731            2 
 2650000   0.83066165   -7.9445741    642.01453  0.020189136  0.020155263            2 
 2651000   0.82271848   -7.9179946    642.78232  0.020205656  0.020148734            3 
 2652000   0.82404624   -7.9368107    642.45119  0.020187632  0.020142256            2 
 2653000   0.81673045   -7.8984952    643.19627  0.020203426  0.020135773            1 
 2654000    0.8349891   -7.9209315    641.84048  0.020153243  0.020129317            1 
 2655000   0.82516003   -7.9181738    643.01403  0.020182487  0.020122841            1 
 2656000   0.80607754   -7.9069631    643.58523   0.02019281  0.020116357            3 
 2657000    0.8166931   -7.9408967    642.96626  0.020165797  0.020109892            1 
 2658000   0.81686258   -7.9045435    644.73616  0.020213699  0.020103451            3 
 2659000   0.82567272   -7.9425058    641.86506  0.020116117  0.020096938            3 
 2660000   0.82016944   -7.9325998    641.95299  0.020111309  0.020090456            2 
 2661000   0.82247204   -7.9588254    642.40484  0.020117902  0.020083963            2 
 2662000   0.83515155   -7.9128925    641.91701  0.020095073  0.020077475            1 
 2663000    0.8236009   -7.9250573    643.17453  0.020126878  0.020070991            1 
 2664000   0.80920212   -7.9072919    643.71699  0.020136292  0.020064524            3 
 2665000   0.84060365    -7.931223    643.58631   0.02012465  0.020058061            3 
 2666000   0.82495362   -7.9003699    644.66709  0.020150884  0.020051631            4 
 2667000    0.8386547   -7.9131258    643.11683  0.020094889  0.020045193            2 
 2668000   0.83095283   -7.9326808    644.93579  0.020144171  0.020038771            2 
 2669000   0.85380782   -7.9123244    643.52732  0.020092648  0.020032379            3 
 2670000   0.82667656   -7.8789999    644.58023  0.020117985  0.020025983            5 
 2671000   0.81841321   -7.9275749     644.7096  0.020114489  0.020019612            1 
 2672000   0.81642596   -7.9377071    644.91979  0.020113516  0.020013202            3 
 2673000   0.82662583   -7.9237776    643.74579  0.020069391  0.020006782            2 
 2674000   0.82716496   -7.9131586    643.73293  0.020061485  0.020000343            1 
 2675000   0.83448608   -7.9356594     644.7234  0.020084841  0.019993905            2 
 2676000   0.82473933   -7.9088902    645.31999  0.020095914   0.01998746            1 
 2677000   0.82464657   -7.9334738    645.38721    0.0200905  0.019981033            1 
 2678000   0.82164394   -7.9277345    643.08689  0.020011417  0.019974559            2 
 2679000   0.82593763   -7.9385693    644.34699  0.020043144  0.019968123            1 
 2680000   0.80683927   -7.9265186    645.43772  0.020069581  0.019961734            3 
 2681000   0.82443544   -7.9260927    646.30108  0.020088931  0.019955312            3 
 2682000   0.82051661   -7.9332743    642.70679  0.019969761  0.019948883            4 
 2683000   0.82305894   -7.9321392    644.47609  0.020017272  0.019942416            3 
 2684000   0.81911037   -7.9431503     643.9258  0.019992729  0.019935941            5 
 2685000    0.8363515   -7.9280493    645.03142  0.020019597  0.019929482            2 
 2686000    0.8165457   -7.9469189    643.48593  0.019964195  0.019923004            2 
 2687000   0.78912367   -7.9233967    644.81065  0.019997849  0.019916553            1 
 2688000   0.82991072   -7.9435517    643.42651  0.019947498  0.019910109            1 
 2689000   0.82154438   -7.9514092    644.88896  0.019985402   0.01990365            1 
 2690000   0.81305891   -7.9442193     643.9029  0.019947426  0.019897242            2 
 2691000   0.82140134   -7.9113876    645.21585  0.019980672  0.019890839            5 
 2692000   0.80815579   -7.9209877    646.84206   0.02002359   0.01988443            1 
 2693000   0.83453912     -7.91395    644.27807  0.019936813   0.01987799            3 
 2694000   0.82584466   -7.9492766    646.25515   0.01999057  0.019871537            1 
 2695000   0.83026236   -7.9390264     644.0261  0.019914227   0.01986508            2 
 2696000   0.81457961   -7.9373427    645.65062  0.019957054  0.019858598            1 
 2697000   0.82326243   -7.9565139    645.62187  0.019948766  0.019852223            2 
 2698000   0.80791334   -7.9380558    644.91257  0.019919464    0.0198458            2 
 2699000    0.8218429   -7.9376786    644.91657  0.019912207  0.019839344            3 
 2700000   0.83590157   -7.9546869     644.9298  0.019905241  0.019832897            3 
 2701000   0.82941777   -7.9372698    645.41581  0.019912866   0.01982648            2 
 2702000   0.82874635     -7.94896    643.89099  0.019858469  0.019820056            4 
 2703000   0.82080641   -7.9635164    643.63149  0.019843121  0.019813605            2 
 2704000   0.81216571   -7.9208223     645.5625  0.019895294  0.019807188            7 
 2705000    0.8341668   -7.9296776    645.17519  0.019876007  0.019800782            2 
 2706000   0.80312707   -7.9137109    646.10797  0.019897388  0.019794356            2 
 2707000   0.81203219   -7.9540064    645.27197  0.019864301  0.019787901            2 
 2708000   0.82371213   -7.9704002    644.83511  0.019843522  0.019781434            1 
 2709000   0.82701676   -7.9572311    646.37299  0.019883505  0.019774982            2 
 2710000   0.82284392   -7.9692806    644.63529  0.019822733  0.019768523            2 
 2711000   0.80435453   -7.9769163    645.28871  0.019835507  0.019762071            2 
 2712000   0.83020014   -7.9743791    643.85957  0.019784279  0.019755613            5 
 2713000   0.81896291   -7.9890222    644.52842  0.019797531  0.019749151            2 
 2714000   0.81774746    -7.949646    643.75117  0.019766371  0.019742676            3 
 2715000   0.81370514    -7.961391    645.24118  0.019804824  0.019736225            2 
 2716000   0.84077899   -7.9726247    644.72781  0.019781781  0.019729778            1 
 2717000   0.81925913   -7.9658678    645.76456  0.019806298  0.019723351            2 
 2718000   0.82661781   -7.9379327    646.09706  0.019809206  0.019716885            2 
 2719000   0.81654803   -7.9606395    645.83523  0.019793896  0.019710479            3 
 2720000   0.81877029   -7.9259166     646.1794  0.019797163  0.019704084            1 
 2721000   0.81458871   -7.9444203    646.08025  0.019786851  0.019697671            1 
 2722000   0.81339727    -7.948165    644.98281  0.019745984  0.019691211            1 
 2723000    0.8148695   -7.9606576    646.62169  0.019788888  0.019684802            3 
 2724000   0.80685757   -7.9322773    645.61057   0.01975069  0.019678402            1 
 2725000   0.82847064   -7.9748135     645.7605  0.019748028  0.019672026            3 
 2726000   0.82030016   -7.9877732    645.21054  0.019723971  0.019665582            4 
 2727000   0.79962559   -7.9651025    647.78583  0.019795435  0.019659179            1 
 2728000    0.8334324   -7.9460851    647.26579  0.019772293  0.019652786            3 
 2729000   0.81647311   -7.9017097    647.77047  0.019780459  0.019646428            3 
 2730000    0.8097583   -7.9544461    648.04683  0.019781649    0.0196401            2 
 2731000   0.80701824   -7.9201545    647.32684  0.019752436  0.019633735            1 
 2732000   0.81889351   -7.9468659    646.37209  0.019716084   0.01962741            2 
 2733000    0.8161748   -7.9599688    647.27868  0.019736513    0.0196211            4 
 2734000   0.83446482   -7.9538504    647.55011  0.019737567  0.019614771            4 
 2735000   0.80204096   -7.9621465      646.659  0.019703199  0.019608399            4 
 2736000   0.81605893   -7.9402819    647.60492  0.019724809  0.019602039            3 
 2737000   0.82003244   -7.9649106     648.1549  0.019734347  0.019595716            2 
 2738000   0.80701527     -7.92328    649.25494   0.01976062   0.01958938            1 
 2739000   0.80173626   -7.9557099    648.71669   0.01973703  0.019583053            1 
 2740000   0.82362521   -7.9597294    647.65051    0.0196974  0.019576702            2 
 2741000   0.80589697   -7.9482534     648.2394  0.019708117  0.019570355            2 
 2742000   0.80454054   -7.9408521    648.73287  0.019715927  0.019564033            4 
 2743000   0.80796953   -7.9865676    645.82897  0.019620518  0.019557678            2 
 2744000   0.80489152   -7.9548763    646.34832   0.01962914  0.019551304            1 
 2745000   0.81769553   -7.9626756    648.69181  0.019693133  0.019544923            3 
 2746000   0.81048652   -7.9642371    648.10718   0.01966822  0.019538627            1 
 2747000   0.80564534    -7.936299    648.31139  0.019667255  0.019532326            3 
 2748000   0.80582664   -7.9464203    649.04748   0.01968242  0.019526063            2 
 2749000   0.80993824   -7.9592194    647.98864  0.019643162  0.019519763            1 
 2750000   0.80295617   -7.9389293    649.43058  0.019679715  0.019513459            3 
 2751000   0.79576235   -7.9608744    648.28751  0.019637935   0.01950717            1 
 2752000   0.81265759   -7.9707265    648.68398  0.019642805  0.019500854            5 
 2753000   0.81002759   -7.9637542    648.71169  0.019636508   0.01949454            4 
 2754000   0.81840012   -7.9703836    647.87637  0.019604102  0.019488203            4 
 2755000   0.81783469   -7.9709745     647.3118  0.019579909  0.019481851            4 
 2756000   0.82607263   -7.9809596    649.08789  0.019626509  0.019475538            3 
 2757000   0.82066818   -7.9782077    647.65756  0.019576157  0.019469207            1 
 2758000   0.81452371   -7.9863013    647.21026  0.019555543  0.019462854            2 
 2759000   0.81671035   -7.9382907     647.2401  0.019549357  0.019456477            2 
 2760000   0.81140882   -7.9510705    646.89579  0.019531878   0.01945012            1 
 2761000   0.79810303   -7.9703319    648.21226  0.019564538  0.019443792            2 
 2762000   0.79330943   -7.9814166    648.03817  0.019552202  0.019437469            3 
 2763000   0.80344947   -7.9639059     648.4091  0.019556313  0.019431154            2 
 2764000   0.81791166   -7.9550989    647.94805  0.019535337  0.019424871            2 
 2765000   0.82370778   -7.9421967     649.8089  0.019584355  0.019418593            1 
 2766000   0.79315018   -7.9559621    650.47772  0.019597425  0.019412316            2 
 2767000   0.80332118    -7.955352    648.16201    0.0195206  0.019406015            2 
 2768000   0.82082941   -7.9682692    648.47257  0.019522898  0.019399732            1 
 2769000   0.81527044   -7.9692432    647.90118  0.019498651  0.019393438            2 
 2770000   0.79371902   -7.9881181    648.52145  0.019510272  0.019387113            1 
 2771000   0.82607267   -7.9631207    647.90807  0.019484785  0.019380816            8 
 2772000   0.81640268   -7.9733793    649.04545  0.019511948  0.019374487            2 
 2773000    0.8054961   -7.9960766    647.85344   0.01946909  0.019368168            3 
 2774000    0.8054485   -7.9790216     649.0537  0.019498129  0.019361866            2 
 2775000   0.80014793   -7.9754218    650.49414  0.019534358   0.01935554            2 
 2776000   0.81001138   -7.9829299    646.79369  0.019416237  0.019349211            2 
 2777000   0.80059291   -7.9594516     649.7807  0.019498881  0.019342894            2 
 2778000   0.80126006   -7.9764529    649.54002  0.019484642  0.019336565            2 
 2779000   0.78376339   -7.9657464    648.43545  0.019444508  0.019330221            2 
 2780000   0.79769196   -7.9642067    649.41303  0.019466817  0.019323923            3 
 2781000    0.7919915    -7.986725    647.94966  0.019415967  0.019317613            1 
 2782000   0.81090234   -7.9909621    648.15578  0.019415162  0.019311301            6 
 2783000   0.80727229   -7.9563703    647.76056  0.019396352  0.019304956            2 
 2784000   0.80677706   -8.0005783    648.43859   0.01940968  0.019298634            1 
 2785000   0.80027429   -7.9690037    649.09365  0.019422311  0.019292313            5 
 2786000   0.79022733   -7.9597409    647.73446  0.019374685  0.019286001            4 
 2787000   0.79014839   -7.9891683    647.66263  0.019365585  0.019279659            2 
 2788000   0.81287885   -7.9539352    650.12103  0.019432121  0.019273349            2 
 2789000   0.80320823   -8.0057507     647.0291  0.019332769  0.019267024            2 
 2790000   0.80908505   -7.9358571     649.3108   0.01939399  0.019260702            2 
 2791000   0.79964329   -7.9701494      649.659  0.019397438  0.019254417            3 
 2792000   0.79400566   -7.9653527    649.94013  0.019398882  0.019248145            3 
 2793000   0.81052973   -7.9423184    650.78437  0.019417125  0.019241889            1 
 2794000   0.80329844   -7.9584589    650.65018  0.019406173  0.019235614            2 
 2795000   0.81171467    -7.992403    648.83104  0.019344992  0.019229345            5 
 2796000     0.803959   -7.9677023     650.3943  0.019384665  0.019223055            1 
 2797000   0.79709618   -7.9561365    651.05606  0.019397451  0.019216751            2 
 2798000   0.81520665   -7.9940171    648.85943  0.019325096  0.019210462            1 
 2799000   0.79399659   -8.0145622    649.45541  0.019335936  0.019204174            2 
 2800000   0.79740582   -7.9638043    650.25523  0.019352834   0.01919787            1 
 2801000   0.78304913   -7.9830911    650.80147  0.019362176  0.019191568            3 
 2802000   0.81681867    -7.978292    650.32381   0.01934106  0.019185271            1 
 2803000   0.81113986   -8.0051643    649.14278  0.019299048  0.019178964            2 
 2804000   0.81177212   -7.9677643    650.84026  0.019342614  0.019172657            2 
 2805000   0.78616954    -8.020843    648.25847  0.019259016  0.019166336            2 
 2806000   0.80390803   -8.0029798    649.27249  0.019282267  0.019160014            1 
 2807000   0.80848912   -7.9821452    648.66914  0.019257485  0.019153716            3 
 2808000   0.78098596    -7.951137    650.95372  0.019318427  0.019147405            2 
 2809000   0.81540377   -7.9865167    650.71899  0.019304586  0.019141106            3 
 2810000   0.80337457   -7.9983368    649.59582  0.019264407  0.019134813            1 
 2811000   0.78456745   -7.9845066    647.88446   0.01920682  0.019128512            2 
 2812000   0.80817098   -7.9733899    652.18704  0.019327496  0.019122232            1 
 2813000   0.80439044   -7.9879949      648.631   0.01921528  0.019115937            1 
 2814000   0.80050277   -7.9942943    647.64316  0.019179198  0.019109591            2 
 2815000   0.80945259    -7.979846    651.07933  0.019274107  0.019103277            2 
 2816000   0.80304182   -8.0002254    649.82565  0.019230162  0.019096964            4 
 2817000   0.80273929   -8.0093284    649.95297  0.019227102  0.019090642            3 
 2818000   0.80492132   -8.0055482    650.98119  0.019250686  0.019084304            3 
 2819000   0.80137922   -7.9928326    649.25155  0.019192726  0.019077967            1 
 2820000   0.82358288    -8.025923    648.66577   0.01916861  0.019071651            2 
 2821000   0.81519019   -8.0035462    649.91635  0.019198758   0.01906531            1 
 2822000   0.80760062   -7.9966236     649.5694  0.019181709  0.019058982            1 
 2823000   0.79633205   -7.9862484    650.11735   0.01919109  0.019052664            2 
 2824000   0.81385147   -7.9833329    650.53538  0.019196629  0.019046366            2 
 2825000   0.79267381   -8.0170259    648.51214  0.019130152   0.01904004            3 
 2826000   0.82317138   -7.9970768    650.85141  0.019192363  0.019033726            1 
 2827000   0.81022624   -7.9623548    650.96794  0.019189009  0.019027436            2 
 2828000   0.79991922   -7.9910905    650.07003  0.019155765  0.019021144            4 
 2829000   0.78749867   -8.0020316    649.63383  0.019136144  0.019014848            3 
 2830000   0.79989724   -7.9854598    649.17559  0.019115889  0.019008542            1 
 2831000   0.78533276   -7.9987015    649.74068  0.019125771  0.019002237            4 
 2832000   0.80983689   -8.0217321    650.31899  0.019136034  0.018995941            4 
 2833000   0.79806439   -7.9993366    651.19033   0.01915491  0.018989604            3 
 2834000   0.79572188   -8.0006761    648.39691  0.019066011  0.018983306            2 
 2835000   0.81569322   -7.9913849    651.57463  0.019152694  0.018977033            2 
 2836000   0.78793732   -8.0180331    651.30567  0.019138037  0.018970758            2 
 2837000   0.79597863   -8.0148635    650.07706  0.019095202  0.018964462            4 
 2838000   0.80546635   -7.9940702    649.87155  0.019082439  0.018958185            2 
 2839000   0.80259572   -8.0226088    649.71999  0.019071269  0.018951913            2 
 2840000   0.79266253   -8.0107294    650.81296  0.019096624  0.018945656            2 
 2841000   0.78762196   -7.9775579    651.55938  0.019111797  0.018939394            3 
 2842000   0.82167699   -7.9904981    650.65424  0.019078532  0.018933151            2 
 2843000   0.79499488   -8.0077553    651.20279    0.0190879  0.018926898            1 
 2844000   0.79258284   -7.9686697    652.43351   0.01911725  0.018920662            2 
 2845000   0.80977607   -7.9891688    651.50495  0.019083332   0.01891442            6 
 2846000   0.79115149   -7.9379534    651.46447  0.019075441  0.018908183            2 
 2847000   0.79414518   -7.9856654     652.1815  0.019089729  0.018901966            2 
 2848000   0.78626505   -7.9916988    650.65331  0.019038311  0.018895738            1 
 2849000   0.80327855   -7.9574177    654.12489  0.019133172  0.018889513            1 
 2850000   0.80574635   -7.9730336    652.41996  0.019076607  0.018883324            3 
 2851000    0.7996822   -7.9903907    652.55292  0.019073802  0.018877116            3 
 2852000    0.7885362   -7.9956036    653.56909  0.019096806  0.018870951            3 
 2853000   0.77859364   -7.9918856      651.895  0.019041214  0.018864771            2 
 2854000   0.79515564   -7.9989051    650.93578  0.019006534  0.018858542            2 
 2855000   0.79205332   -7.9816447    650.36465  0.018983206  0.018852312            3 
 2856000   0.79652529   -7.9768565    651.39309  0.019006568  0.018846106            2 
 2857000   0.80023143   -8.0047683    652.26131  0.019025239  0.018839899            3 
 2858000   0.79602473   -7.9732412    652.75335   0.01903293  0.018833681            2 
 2859000     0.789735   -8.0063648    651.76996  0.018997609  0.018827476            2 
 2860000   0.79764134   -7.9718788    652.78405  0.019020514  0.018821259            1 
 2861000   0.77265027   -8.0113729    650.66842  0.018952243  0.018815021            5 
 2862000   0.78762938   -8.0091034    650.22579  0.018932733  0.018808766            2 
 2863000   0.79584081   -8.0177226    649.55671  0.018906645  0.018802515            2 
 2864000   0.79569552   -7.9977817    652.30087   0.01897989  0.018796247            3 
 2865000   0.78581587   -8.0010237    651.46073  0.018948829  0.018790021            2 
 2866000   0.77673054   -7.9935052    652.30065  0.018966639  0.018783789            2 
 2867000   0.77525249   -7.9663298     651.8279  0.018946283  0.018777566            1 
 2868000   0.78481923   -7.9986285     652.1285  0.018948411   0.01877134            3 
 2869000     0.780796   -8.0102456    652.93171  0.018965136  0.018765115            2 
 2870000   0.79258572   -8.0056082    652.96508  0.018959497  0.018758905            6 
 2871000   0.78678357   -8.0177964    653.00389   0.01895402  0.018752703            2 
 2872000   0.80131773   -7.9924544    652.19278  0.018923885  0.018746482            2 
 2873000    0.8023072   -7.9997595    652.64489  0.018930412  0.018740254            1 
 2874000   0.78694575   -8.0139518     652.0284   0.01890595  0.018734041            2 
 2875000   0.81622428   -8.0223162    653.44671  0.018940484  0.018727832            3 
 2876000   0.78601168   -7.9943239    652.91897  0.018918607   0.01872165            2 
 2877000   0.77621084   -7.9872961    654.23488  0.018950147  0.018715463            1 
 2878000   0.79032066   -7.9946665    652.52115  0.018893941  0.018709286            2 
 2879000   0.79013402   -8.0171652    653.38348  0.018912339  0.018703133            3 
 2880000   0.77641354   -8.0060344    652.71824  0.018886523  0.018696971            4 
 2881000   0.78703595   -7.9931908    652.78674  0.018881949  0.018690812            4 
 2882000   0.79506597   -7.9900965    652.85971  0.018877507  0.018684684            2 
 2883000   0.80136082   -8.0136185    651.87605  0.018842526  0.018678479            3 
 2884000   0.78003272   -7.9587763    654.16922  0.018902254  0.018672339            3 
 2885000   0.80123557    -8.003713    652.96849  0.018861019   0.01866618            3 
 2886000   0.79232063   -8.0086857    652.96706  0.018854443  0.018660022            6 
 2887000   0.79270761   -8.0132507    652.38181  0.018831019  0.018653817            2 
 2888000   0.80644613   -7.9650339    653.11389  0.018845622  0.018647663            1 
 2889000   0.79023229   -7.9915703    652.72842   0.01882798  0.018641544            2 
 2890000    0.7925831   -7.9840012    654.18343  0.018863421  0.018635386            3 
 2891000   0.78888616   -8.0015031     652.7897  0.018816721  0.018629238            2 
 2892000   0.79092632   -8.0469215    651.95308  0.018786108  0.018623071            3 
 2893000   0.79192866   -8.0018916    653.36319  0.018820232  0.018616915            2 
 2894000   0.79251765   -8.0176718    653.69395  0.018823254  0.018610724            2 
 2895000   0.77563219   -8.0180842    651.36627  0.018749749  0.018604565            1 
 2896000   0.79309077   -8.0387642     652.4888  0.018775576  0.018598397            2 
 2897000    0.7911829   -8.0203049    653.51476  0.018798606  0.018592249            5 
 2898000   0.79254088   -8.0258619    654.18986  0.018811533  0.018586091            3 
 2899000   0.79926737   -8.0035293    653.80965  0.018794114  0.018579931            2 
 2900000   0.79937045   -8.0033399     654.0007  0.018793124  0.018573779            2 
 2901000   0.79758075   -7.9991994    653.02406  0.018758591  0.018567622            1 
 2902000   0.78473257   -8.0549463    652.67677  0.018742154   0.01856145            2 
 2903000   0.79406716   -8.0538882    652.21424  0.018722421  0.018555284            1 
 2904000   0.78118504   -8.0484801    653.59766  0.018755672  0.018549104            2 
 2905000   0.78820505   -8.0709653    652.31541  0.018712433  0.018542923            3 
 2906000   0.77864332   -8.0374115    653.13386  0.018729464  0.018536759            3 
 2907000   0.79010126   -8.0422144    652.86928  0.018715436  0.018530621            2 
 2908000   0.80445515   -8.0195247    655.74456  0.018791396  0.018524507            2 
 2909000    0.8026929    -8.045293    654.73509  0.018756018   0.01851839            3 
 2910000   0.76853415    -8.043193    653.07396  0.018702003  0.018512238            1 
 2911000   0.79629389   -8.0343105    653.99508  0.018721948   0.01850608            2 
 2912000    0.7918476   -8.0719558    654.68417  0.018735238  0.018499906            2 
 2913000   0.77211118   -8.0550561    653.03682   0.01868168  0.018493713            2 
 2914000    0.7710124   -8.0629114    653.52485  0.018689226  0.018487542            2 
 2915000   0.77476678   -8.0329768    652.78961  0.018661795  0.018481348            3 
 2916000   0.78275305   -8.0061074    652.48269  0.018646625  0.018475183            2 
 2917000   0.79019606   -8.0511804    651.08714  0.018600364  0.018469016            6 
 2918000   0.79474102   -8.0422031    653.16975  0.018653466  0.018462845            1 
 2919000   0.77542248   -8.0735915    651.48199  0.018598892  0.018456672            2 
 2920000   0.78804134   -8.0418297    652.80027  0.018630145  0.018450488            3 
 2921000   0.76104595   -8.0500085    651.72858  0.018593192  0.018444303            2 
 2922000   0.78922825   -8.0419932    654.09447  0.018654303  0.018438139            1 
 2923000   0.76829357     -8.04241    653.59094  0.018633565  0.018431985            2 
 2924000   0.78482139   -8.0217392    653.57746  0.018626809  0.018425806            2 
 2925000   0.77588835   -8.0827986      652.825  0.018599003  0.018419638            2 
 2926000   0.78450668   -7.9938409     654.2648  0.018633652  0.018413465            2 
 2927000   0.79284692   -8.0185479     655.4982  0.018662402  0.018407344            1 
 2928000   0.77219767   -8.0206444    653.76851    0.0186068  0.018401255            3 
 2929000   0.78185377    -8.035579    654.04463  0.018608303  0.018395135            1 
 2930000   0.78841868   -8.0329037     653.4632  0.018585415  0.018388995            5 
 2931000   0.78693693   -8.0562722    655.27741  0.018630655  0.018382843            1 
 2932000   0.78183939   -8.0449197    653.02682  0.018560335  0.018376694            2 
 2933000   0.77263595   -8.0512299    652.56528  0.018540893  0.018370559            3 
 2934000   0.78342161   -8.0517049      653.827   0.01857041  0.018364411            2 
 2935000   0.76797086   -8.0496991    653.62645  0.018558389  0.018358264            4 
 2936000    0.7969904   -8.0490138     653.6992  0.018554133  0.018352118            2 
 2937000   0.78140456   -8.0750079    653.38785  0.018538981  0.018345969            5 
 2938000    0.7760898   -8.0556219    654.44076  0.018562536  0.018339806            1 
 2939000   0.77878186   -8.0462695     654.7533  0.018565082  0.018333637            3 
 2940000   0.77961843   -8.0558772    653.96271  0.018536358  0.018327474            2 
 2941000   0.78191022   -8.0731182      653.314  0.018511674  0.018321317            2 
 2942000   0.76969132   -8.0640819    654.62506  0.018542518  0.018315181            2 
 2943000   0.78118977   -8.0420933    654.14011  0.018522486  0.018309046            2 
 2944000   0.77966602   -8.0422005    654.66362  0.018531013  0.018302951            2 
 2945000   0.77553083   -8.0431635    654.35947  0.018516114  0.018296862            1 
 2946000   0.79704419   -8.0524512    653.95712  0.018498447  0.018290738            2 
 2947000   0.76986756   -8.0413001    652.90373  0.018462383  0.018284643            4 
 2948000    0.7754094   -8.0478699    654.44789  0.018499771  0.018278524            4 
 2949000   0.79958962   -8.0437966     653.7962  0.018475082  0.018272416            3 
 2950000   0.75941083     -8.05945    654.66682  0.018493413   0.01826631            4 
 2951000   0.78618764   -8.0521054    655.00877  0.018496803  0.018260222            2 
 2952000   0.78082981   -8.0635489    653.81819  0.018456927  0.018254117            1 
 2953000   0.77746395   -8.0413434    653.65844  0.018446169  0.018248018            3 
 2954000    0.7711427   -8.0347283    654.90865  0.018475193  0.018241934            2 
 2955000   0.79681665   -8.0535096    653.74339   0.01843608  0.018235836            4 
 2956000    0.7859919   -8.0737615    654.41123   0.01844867  0.018229727            1 
 2957000    0.7613593   -8.0411148    652.92313  0.018400494  0.018223615            2 
 2958000   0.77127874   -8.0498955     654.5994  0.018441498  0.018217531            2 
 2959000   0.77889341   -8.0372672    654.86905  0.018442859  0.018211446            3 
 2960000   0.75846771   -8.0381338     653.5529  0.018399575  0.018205357            2 
 2961000   0.78701779   -8.0402332    654.23124  0.018412452  0.018199252            4 
 2962000   0.77020358   -8.0697325    655.36327  0.018438084  0.018193122            1 
 2963000   0.77328759   -8.0376047    655.41331  0.018433269  0.018187018            1 
 2964000   0.78691354   -8.0761168    653.24616   0.01836612  0.018180907            2 
 2965000   0.75613382   -8.0607371    654.54447  0.018396416  0.018174808            3 
 2966000   0.77037853    -8.046417    655.80642  0.018425669  0.018168717            3 
 2967000   0.78106883   -8.0467692    653.94131  0.018367074  0.018162645            2 
 2968000   0.79486781    -8.046203     654.9326  0.018388719  0.018156554            6 
 2969000   0.79246371   -8.0443758    655.60655  0.018401441  0.018150476            1 
 2970000   0.77620491   -8.0577596    653.91261  0.018347716  0.018144402            3 
 2971000   0.79009775   -8.0737974    654.67543  0.018362937  0.018138307            2 
 2972000   0.77623091   -8.0557917    654.81758  0.018360744  0.018132252            2 
 2973000   0.77693811   -8.0612664    654.41274  0.018343221  0.018126178            5 
 2974000   0.78666024   -8.0657092    652.79743  0.018291791    0.0181201            1 
 2975000   0.78691309    -8.064412    653.86385  0.018315514  0.018114031            3 
 2976000   0.78405037   -8.0410464    655.29084  0.018349318  0.018107943            3 
 2977000   0.78130784   -8.0412185    654.50591  0.018321182  0.018101817            7 
 2978000   0.76966567   -8.0657427    655.00177  0.018328906  0.018095724            4 
 2979000   0.76980172   -8.0671669    654.49174  0.018308485  0.018089614            2 
 2980000   0.77778681   -8.0777788    655.21048  0.018322441  0.018083481            2 
 2981000    0.7720324   -8.0527461    653.38055  0.018265139  0.018077351            1 
 2982000   0.77179414   -8.0640373    655.16612  0.018308912  0.018071246            3 
 2983000   0.76539934   -8.0885277     653.1059   0.01824522  0.018065146            4 
 2984000   0.79768744   -8.0706077    655.25366  0.018299086  0.018059046            2 
 2985000   0.77336618   -8.0502952    654.44496  0.018270379  0.018052971            4 
 2986000   0.77597152   -8.0432808    655.94265  0.018306057   0.01804689            1 
 2987000    0.7654319   -8.0598452    655.48526  0.018287168  0.018040819            1 
 2988000   0.76989597   -8.0812105    656.16713  0.018300065  0.018034766            1 
 2989000   0.76703685   -8.0493212    657.17789  0.018322122  0.018028723            2 
 2990000    0.7807746   -8.0870096     655.0777  0.018257461  0.018022669            2 
 2991000   0.77275929   -8.0542925    656.16638  0.018281689  0.018016637            2 
 2992000   0.76810128    -8.101338    655.64705  0.018261114  0.018010603            2 
 2993000   0.78135395   -8.0781667    656.38877  0.018275665  0.018004589            3 
 2994000   0.76517698   -8.0139287    657.15049  0.018290762  0.017998591            1 
 2995000   0.77224107    -8.054861    656.76879  0.018274034  0.017992587            2 
 2996000   0.76528793   -8.0295209    655.50395  0.018232753  0.017986604            3 
 2997000   0.77823503   -8.0547734    655.57805   0.01822873  0.017980611            2 
 2998000    0.7526958   -8.0463101    658.26119  0.018297231  0.017974639            1 
 2999000   0.77161852   -8.0419625    658.03018  0.018284711  0.017968685            3 
 3000000   0.78869571   -8.0157295    657.68224  0.018268951  0.017962714            2 
 3001000   0.78537251   -8.0522734    655.91326  0.018213741   0.01795673            3 
 3002000   0.75364846    -8.087139    657.18626  0.018243012  0.017950734            4 
 3003000   0.78624043   -8.0386681    658.04491  0.018260765   0.01794476            2 
 3004000   0.77655601   -8.0754623    656.38019  0.018208505   0.01793878            1 
 3005000   0.78701566   -8.0389059    657.89374  0.018244419  0.017932802            2 
 3006000   0.75472264   -8.0693515    656.57086  0.018201676   0.01792681            1 
 3007000   0.77833632   -8.0603642    656.01688   0.01818027  0.017920802            1 
 3008000   0.76475114   -8.0567219    657.21782  0.018207497  0.017914808            2 
 3009000   0.77407971   -8.0694827    655.58344  0.018156183  0.017908809            1 
 3010000   0.75489723   -8.0732554    655.04024  0.018135112  0.017902809            2 
 3011000   0.75874333   -8.0520431    655.89726  0.018152808  0.017896806            2 
 3012000   0.78287354   -8.0681217     654.8885  0.018118872  0.017890815            2 
 3013000   0.78087789   -8.0454178     656.1523  0.018147812  0.017884795            2 
 3014000   0.77334229   -8.0860547    656.22998  0.018143939  0.017878795            2 
 3015000   0.76629035   -8.0610972    657.53756  0.018174062  0.017872809            3 
 3016000   0.77166872   -8.0773315    655.96495  0.018124584  0.017866822            2 
 3017000   0.76723795   -8.0455876    656.79592  0.018141529  0.017860837            2 
 3018000   0.75559843   -8.0954727    656.04228  0.018114709  0.017854827            2 
 3019000   0.75327071   -8.0715266    655.27786  0.018087608  0.017848801            1 
 3020000   0.75829324   -8.0768988    656.93945  0.018127468  0.017842783            2 
 3021000   0.77340796   -8.0735955    656.41979  0.018107133  0.017836788            1 
 3022000   0.77854555   -8.0860941    657.40201  0.018128227  0.017830781            3 
 3023000   0.77054009   -8.0658608    655.64457  0.018073784  0.017824779            4 
 3024000   0.77848395   -8.0875492    656.06457  0.018079381  0.017818771            3 
 3025000   0.78439733   -8.1002762    656.32975  0.018080709  0.017812791            2 
 3026000   0.74682718   -8.0829079    656.71088   0.01808523  0.017806803            1 
 3027000   0.76431283   -8.1224259    656.18192  0.018064693  0.017800807            3 
 3028000   0.75108151   -8.1171163    655.07083  0.018028149  0.017794779            2 
 3029000   0.77020969   -8.1129741    657.49379  0.018088857  0.017788768            3 
 3030000    0.7762109   -8.0887638    655.35971  0.018024194  0.017782755            3 
 3031000   0.78136628   -8.0619431     656.4591  0.018048474   0.01777676            4 
 3032000   0.75406144   -8.0793846     656.0064  0.018030079  0.017770797            1 
 3033000   0.76794211   -8.0729324    656.17799  0.018028849  0.017764807            3 
 3034000   0.77830704   -8.0556893    656.37481  0.018028313  0.017758787            1 
 3035000   0.76599816   -8.1041703    655.85715  0.018008159  0.017752768            2 
 3036000   0.76083034    -8.069948    656.98679  0.018033234  0.017746764            6 
 3037000   0.78360698   -8.0758848    657.11107  0.018030707  0.017740764            2 
 3038000   0.77430232   -8.1028698    655.91807  0.017992047  0.017734766            3 
 3039000   0.76671723   -8.0569526    657.63645  0.018033247  0.017728791            2 
 3040000   0.76123529   -8.0595362    657.80044   0.01803181  0.017722832            1 
 3041000      0.76755   -8.0784689    657.10755  0.018006893   0.01771687            1 
 3042000   0.77895211   -8.0918501    657.28344  0.018005792  0.017710913            3 
 3043000   0.75723902   -8.0713729    655.24787   0.01794413  0.017704939            2 
 3044000   0.77152745   -8.0936178    656.74756  0.017979292  0.017698983            1 
 3045000   0.76878235   -8.1217942    655.95755  0.017951767  0.017693012            2 
 3046000   0.75789881   -8.1052948    656.26243  0.017954214  0.017687049            2 
 3047000   0.76373611   -8.0844205    657.38633   0.01797906  0.017681071            2 
 3048000   0.76670232    -8.074999    658.69701  0.018008995   0.01767512            1 
 3049000   0.76133086   -8.0468558    658.33736  0.017993259  0.017669213            2 
 3050000    0.7703748    -8.067666     658.4365  0.017990068  0.017663291            3 
 3051000   0.78069313   -8.0704334     657.6629  0.017963042  0.017657385            2 
 3052000   0.76512178   -8.0849821    657.21306  0.017944874  0.017651441            2 
 3053000   0.77352544   -8.0615239    656.82835  0.017928495  0.017645502            1 
 3054000   0.76030974   -8.0621365    657.08235  0.017929556  0.017639563            2 
 3055000   0.74850726   -8.0743104    657.59731  0.017937734  0.017633619            2 
 3056000   0.77556807   -8.0831327    656.82245  0.017910734  0.017627676            3 
 3057000   0.76886185   -8.0722187    658.54323  0.017951784  0.017621737            2 
 3058000   0.76171327   -8.0511733    659.26265  0.017965518  0.017615827            1 
 3059000   0.76459408   -8.0581835    658.97855  0.017951905   0.01760993            2 
 3060000    0.7520703   -8.0941965    658.42121  0.017930861  0.017604005            2 
 3061000    0.7716727   -8.0878073    659.07453  0.017942789  0.017598073            1 
 3062000    0.7485718   -8.1036646    656.71515  0.017872718  0.017592157            4 
 3063000   0.74923097   -8.1019594    655.60542  0.017836691  0.017586219            3 
 3064000   0.76343455   -8.1067364    658.40884  0.017907116  0.017580274            2 
 3065000   0.77073985    -8.112881    657.30384   0.01787123  0.017574324            3 
 3066000   0.75787166   -8.0627011    658.62893  0.017901417  0.017568397            2 
 3067000   0.75221725   -8.1016384    657.89006  0.017875504  0.017562477            3 
 3068000   0.76536504    -8.102224    658.39641  0.017883431   0.01755655            3 
 3069000   0.77946352   -8.0915466    658.13477    0.0178705  0.017550648            1 
 3070000   0.75794196   -8.1073929    658.60358  0.017877405  0.017544729            2 
 3071000   0.75671866   -8.0660312    657.97034    0.0178544  0.017538825            2 
 3072000   0.75424786   -8.0791962    657.19585  0.017827578   0.01753291            2 
 3073000   0.74593588   -8.1204838    657.03898  0.017817523  0.017526997            2 
 3074000   0.75109908   -8.0886464    658.96771  0.017864013  0.017521107            2 
 3075000   0.77022888   -8.0835324    658.52635  0.017846243  0.017515202            4 
 3076000   0.77039933   -8.1088555    657.01462  0.017799486  0.017509291            1 
 3077000   0.77282323   -8.0766161    658.16577  0.017824877  0.017503384            2 
 3078000   0.76548758    -8.089471     657.7521  0.017807887  0.017497485            1 
 3079000   0.78807819   -8.0888042    658.13868  0.017812566  0.017491596            2 
 3080000   0.76172582   -8.1009934    657.35955  0.017785702  0.017485702            3 
 3081000   0.75367678   -8.0853804     657.6106   0.01778672  0.017479805            6 
 3082000   0.74622297   -8.1102708    658.53935  0.017806061   0.01747389            1 
 3083000   0.75082229   -8.0936473    658.95221  0.017811445  0.017467972            3 
 3084000   0.76278741   -8.1034919    657.84335  0.017775707  0.017462073            2 
 3085000   0.75137538    -8.123136    657.17949  0.017752012  0.017456184            4 
 3086000   0.73682814   -8.0662546    658.23862   0.01777486  0.017450302            3 
 3087000   0.75653297   -8.0751176    658.20456  0.017768183  0.017444444            3 
 3088000   0.74325456    -8.061766    659.23002  0.017790102   0.01743858            4 
 3089000   0.75346402   -8.0922805    659.43125  0.017789771  0.017432705            3 
 3090000   0.76009949   -8.0886515    659.23985  0.017778852  0.017426828            3 
 3091000    0.7498135   -8.0865082     659.2064  0.017772199   0.01742094            1 
 3092000   0.74054701   -8.0757612    656.54618  0.017694755  0.017415075            2 
 3093000   0.74773352   -8.0885307    658.65736  0.017745914  0.017409209            2 
 3094000    0.7567102   -8.0769318    658.62852  0.017739402  0.017403339            2 
 3095000   0.73403326   -8.1002877    658.69062  0.017735342   0.01739748            3 
 3096000   0.77225333   -8.0888653    659.15462  0.017742103  0.017391612            3 
 3097000   0.77055958   -8.0948214    657.68741  0.017696895  0.017385744            2 
 3098000   0.75176488   -8.1017101    658.52241  0.017713644  0.017379861            3 
 3099000   0.74846406   -8.1106022    657.77864  0.017687927  0.017373996            3 
 3100000   0.74528968   -8.0745554    657.00642  0.017661463  0.017368139            3 
 3101000   0.75131962   -8.1147124    658.12832  0.017685916  0.017362275            2 
 3102000   0.75841125   -8.1007655    658.75875  0.017697151  0.017356426            3 
 3103000   0.75925484   -8.1066183    659.11333   0.01770097  0.017350579            1 
 3104000   0.76277418   -8.1152331    656.88521  0.017635449  0.017344716            2 
 3105000   0.76320088   -8.0957582    658.28256  0.017667272  0.017338859            2 
 3106000   0.75515096   -8.1264912    657.95287  0.017652739  0.017332999            6 
 3107000   0.74519967   -8.1200219     658.8495  0.017671106  0.017327124            5 
 3108000   0.74262211   -8.1076312    658.37715  0.017652755  0.017321249            2 
 3109000   0.75757031   -8.1108365    656.72224  0.017602719  0.017315379            7 
 3110000   0.75413102   -8.1000692    658.50345  0.017644787  0.017309508            2 
 3111000    0.7601633   -8.0979972    657.82636  0.017620978  0.017303617            1 
 3112000   0.75459766   -8.1081411     656.8758  0.017589862  0.017297729            3 
 3113000   0.76914436   -8.1060588     657.1694  0.017592071  0.017291858            1 
 3114000   0.75117845   -8.1177127    659.16417  0.017639803  0.017285992            2 
 3115000   0.74138277   -8.0930933    658.55172  0.017617756  0.017280131            4 
 3116000   0.74712519    -8.113209    657.99811  0.017597296  0.017274259            3 
 3117000   0.75546922   -8.1181537    658.94553   0.01761698  0.017268398            2 
 3118000   0.73426581   -8.1096688    659.66204   0.01763048  0.017262536            2 
 3119000   0.74693288   -8.1210145    658.26328  0.017587455  0.017256687            2 
 3120000   0.76266847   -8.1121602    658.45124  0.017586839  0.017250842            2 
 3121000   0.75802378   -8.1087643    660.49731  0.017635835  0.017245013            2 
 3122000   0.73770843    -8.092191    661.20465  0.017649067  0.017239194            2 
 3123000   0.73592126   -8.1192761    659.32427   0.01759324  0.017233375            2 
 3124000   0.76066838   -8.1008044    658.35735  0.017561816  0.017227551            3 
 3125000   0.75472611    -8.079888    658.18635  0.017551636  0.017221725            1 
 3126000   0.76000249   -8.0742259    659.54609  0.017582269  0.017215905            3 
 3127000   0.76285801   -8.0679529    659.22813  0.017568173    0.0172101            1 
 3128000   0.76472579   -8.1018993    658.82095  0.017551709  0.017204293            1 
 3129000   0.75059354   -8.1214774    658.13751  0.017527898  0.017198457            3 
 3130000   0.75133284   -8.1263757    658.71487   0.01753767  0.017192626            2 
 3131000   0.74493259   -8.1307592    658.55986  0.017527943  0.017186795            3 
 3132000   0.76325476   -8.0953586     659.7046  0.017552804  0.017180977            1 
 3133000   0.77452202   -8.1115879     658.5041   0.01751527  0.017175149            5 
 3134000   0.75856452   -8.1496419    657.38678  0.017479972  0.017169282            3 
 3135000   0.75065649   -8.1334221     658.7182  0.017509787  0.017163431            2 
 3136000   0.74802513   -8.1473746    658.35341   0.01749451  0.017157593            1 
 3137000   0.74972715   -8.1467557    659.10606  0.017508927  0.017151766            3 
 3138000   0.75857235   -8.1091621    660.23611  0.017533357  0.017145953            2 
 3139000   0.74919794   -8.1270717    658.47405  0.017480993  0.017140144            2 
 3140000   0.74106494   -8.1156422    659.21476  0.017495084  0.017134344            4 
 3141000   0.77403895   -8.1167375    659.71362  0.017502749  0.017128573            3 
 3142000   0.75025386    -8.094756    660.12055  0.017507971    0.0171228            3 
 3143000   0.76106942   -8.1027194    659.02326  0.017473307  0.017116998            2 
 3144000    0.7440817   -8.1497419    658.21672  0.017446372  0.017111189            6 
 3145000   0.76761225   -8.1157603    657.47846  0.017421263  0.017105385            5 
 3146000   0.75652074   -8.1566945    657.89024  0.017426633  0.017099569            5 
 3147000   0.74915591   -8.1237543    659.68624  0.017468654  0.017093773            3 
 3148000   0.75729258   -8.1277321    659.00399  0.017445044  0.017087959            2 
 3149000   0.75951336   -8.1183419    657.24593   0.01739298  0.017082141            1 
 3150000   0.74432942   -8.1401323    658.18747  0.017412367  0.017076329            9 
 3151000   0.75386691   -8.1102355    659.24845    0.0174349  0.017070508            4 
 3152000   0.73367573   -8.1314772     658.8716  0.017419406  0.017064691            2 
 3153000    0.7286009   -8.1303443    659.09707   0.01741984  0.017058874            3 
 3154000   0.75207251     -8.14039    660.01945  0.017438688   0.01705306            2 
 3155000   0.75220899   -8.1363109    658.23732  0.017386089  0.017047242            2 
 3156000   0.74748478   -8.1291583    658.77973  0.017394902  0.017041426            3 
 3157000   0.74239316   -8.1369307    658.25763  0.017375611   0.01703561            3 
 3158000   0.75391033   -8.1824707    659.02117  0.017390257  0.017029789            2 
 3159000   0.73835111   -8.1474402    658.33986  0.017366779  0.017023969            4 
 3160000   0.74621907    -8.120693    658.49215  0.017365299  0.017018161            1 
 3161000   0.74444464   -8.1214335    659.94356  0.017398069   0.01701237            4 
 3162000   0.74881617   -8.1218605    658.97949  0.017367159  0.017006579            4 
 3163000   0.75030583   -8.1570546    657.47227  0.017321959  0.017000792            2 
 3164000   0.76727203   -8.1517242    657.85814  0.017326647  0.016994988            3 
 3165000   0.73927423     -8.15709    658.55944  0.017339638  0.016989196            3 
 3166000   0.74703309   -8.1674965    659.14595  0.017349599  0.016983412            2 
 3167000   0.75126502   -8.1280476    659.73702  0.017359673   0.01697763            1 
 3168000    0.7418371   -8.1379379    660.37818  0.017371059  0.016971844            1 
 3169000   0.75195881   -8.1282959    658.36948  0.017312756  0.016966042            3 
 3170000   0.73819962   -8.1100332    658.04652  0.017298804  0.016960234            2 
 3171000   0.73582211   -8.1470827    659.02878  0.017319163  0.016954439            3 
 3172000   0.75163288   -8.1211872    659.49655  0.017325992  0.016948655            4 
 3173000   0.74869953   -8.1455989    659.03709  0.017308464  0.016942851            4 
 3174000   0.75385736    -8.125377     659.6295  0.017318565  0.016937052            2 
 3175000   0.74197776   -8.1219372    658.68343  0.017288279  0.016931281            3 
 3176000   0.74220131   -8.1167458    660.77517  0.017337719   0.01692552            2 
 3177000   0.74019821   -8.1780431    657.99105  0.017259234  0.016919747            1 
 3178000    0.7409048   -8.1369292     658.3479  0.017263161  0.016913975            2 
 3179000    0.7506321   -8.1274033    658.46951  0.017260918  0.016908209            3 
 3180000   0.74047654   -8.1522854    657.31392  0.017225208  0.016902419            3 
 3181000   0.74207851   -8.1470375    657.68048  0.017229395  0.016896639            2 
 3182000   0.75335072   -8.1353928    658.83587  0.017254239  0.016890862            2 
 3183000   0.74148623   -8.1509324    659.67952  0.017270906  0.016885082            2 
 3184000   0.74276211   -8.1436942     659.1674  0.017252078  0.016879314            2 
 3185000   0.73226243   -8.1172659    659.95641  0.017267305  0.016873573            3 
 3186000   0.74214468   -8.1397222    659.58682  0.017252219  0.016867824            1 
 3187000   0.74817813   -8.1362118     658.8466   0.01722745  0.016862066            2 
 3188000   0.73274867   -8.1443988    659.58219  0.017241274  0.016856314            1 
 3189000    0.7365914   -8.1391154    660.53757  0.017260833  0.016850563            2 
 3190000   0.74493615   -8.1362803    659.71339  0.017233892  0.016844814            2 
 3191000   0.73298679   -8.1738108    659.55166  0.017224268  0.016839066            2 
 3192000   0.74354321   -8.1413703    659.43429  0.017215808  0.016833321            2 
 3193000   0.72685385    -8.161366    659.37485  0.017208864  0.016827566            1 
 3194000   0.71769679    -8.192907    659.20646  0.017199083    0.0168218            2 
 3195000   0.74451511   -8.1517918     660.8739  0.017237191  0.016816058            2 
 3196000   0.74648504   -8.1440515    660.52633  0.017222735  0.016810321            1 
 3197000   0.74743844   -8.1562578     659.4813  0.017190108  0.016804561            2 
 3198000   0.73029699   -8.1574296    658.22166  0.017151909  0.016798818            1 
 3199000   0.74062981   -8.1222352    659.27074  0.017173876  0.016793086            3 
 3200000   0.73209088   -8.1450015    659.39114  0.017171644  0.016787355            3 
 3201000   0.73807034   -8.1545681    658.43993  0.017141516  0.016781631            4 
 3202000   0.72972042   -8.1748895    658.33442  0.017133417  0.016775884            3 
 3203000    0.7419872   -8.1478915    658.73696  0.017138541  0.016770142            4 
 3204000   0.74494407   -8.1129679    660.60879  0.017181877  0.016764432            4 
 3205000   0.74389359   -8.1578387    659.24878  0.017141154  0.016758718            2 
 3206000   0.74024611   -8.1623666    659.25871  0.017136066  0.016752988            3 
 3207000   0.74795163   -8.1450758    659.63315  0.017140452  0.016747267            2 
 3208000   0.73400494   -8.1451448    660.93987  0.017169053   0.01674156            1 
 3209000   0.74027273   -8.1506273    660.65954  0.017156423  0.016735847            1 
 3210000   0.73275409   -8.1285347    660.98691  0.017159577  0.016730145            3 
 3211000   0.72625708   -8.1539539     660.7006  0.017146803  0.016724435            2 
 3212000   0.73921759   -8.1408138    660.40552  0.017133809  0.016718729            3 
 3213000   0.73689233   -8.1418006    659.90724  0.017115552  0.016713028            1 
 3214000   0.71778482   -8.1622668    659.71096  0.017105138   0.01670732            3 
 3215000    0.7358378   -8.1352886    659.82998  0.017102902  0.016701613            2 
 3216000   0.74173097   -8.1548245    660.53921  0.017115962   0.01669592            3 
 3217000    0.7508711   -8.1549584    661.81629  0.017143723   0.01669024            4 
 3218000   0.71772964   -8.1633085     660.2699   0.01709835  0.016684562            4 
 3219000   0.73917732   -8.1128347     660.9883  0.017111637  0.016678895            2 
 3220000    0.7349036    -8.151506    661.01892  0.017107115  0.016673223            3 
 3221000   0.74499679   -8.1586412    660.91703  0.017099168  0.016667526            3 
 3222000   0.72885754     -8.14523    659.92449   0.01706819  0.016661845            9 
 3223000   0.72215731   -8.1502152    659.81655  0.017060103  0.016656166            2 
 3224000   0.71265647   -8.1835706    659.36124  0.017043043  0.016650487            3 
 3225000   0.72787367   -8.1509111    660.19493  0.017059301   0.01664479            1 
 3226000   0.73180597   -8.1437049    660.48723  0.017061563  0.016639109            2 
 3227000   0.72122473   -8.1476328    658.38724  0.017002046  0.016633427            1 
 3228000   0.72869713   -8.1635815    659.92938  0.017036591  0.016627712            2 
 3229000   0.73218134   -8.1724236    658.59204  0.016996801  0.016621995            3 
 3230000   0.74280852    -8.174674    659.15859  0.017006156  0.016616286            1 
 3231000   0.71555107   -8.2020893    658.61478  0.016986866  0.016610544            3 
 3232000   0.74924262   -8.1691494    658.31639  0.016973917  0.016604822            3 
 3233000   0.75071906   -8.1477469    659.20524  0.016991578  0.016599124            2 
 3234000   0.73450887    -8.177104    659.13583  0.016984535  0.016593424            1 
 3235000   0.73081547   -8.1895291    660.30283  0.017009346  0.016587729            2 
 3236000   0.74928509   -8.1630353    660.61768  0.017012198  0.016582025            3 
 3237000   0.72738069   -8.1455284    659.17359  0.016969766  0.016576333            3 
 3238000   0.72507371   -8.1598681    658.29422  0.016941894  0.016570646            2 
 3239000   0.72080002   -8.1543889    661.50357  0.017019233  0.016564961            2 
 3240000   0.72575291    -8.148733     660.5603   0.01698972  0.016559312            2 
 3241000   0.71618064   -8.1378749    660.05815  0.016971566  0.016553656            1 
 3242000    0.7256198   -8.1667863    660.31755  0.016972999  0.016548028            1 
 3243000   0.74106409     -8.17343    660.54461    0.0169736  0.016542388            1 
 3244000    0.7396725   -8.1588327    660.50569  0.016967368  0.016536757            3 
 3245000   0.73650348   -8.1932049     660.4302    0.0169602  0.016531112            4 
 3246000   0.73026133   -8.1902791    661.98217  0.016994819  0.016525473            3 
 3247000   0.75883459   -8.1804511     661.0839  0.016966531  0.016519843            2 
 3248000   0.72648366   -8.1614589    661.17975  0.016963766  0.016514231            2 
 3249000   0.72437025   -8.1652286    660.64946  0.016944944  0.016508606            5 
 3250000   0.72728239   -8.1916938    660.83403  0.016944462  0.016502969            2 
 3251000   0.73970125   -8.1743782    660.18837    0.0169227  0.016497331            2 
 3252000   0.73326234   -8.1835454    660.18924  0.016917518  0.016491683            4 
 3253000   0.71972067   -8.1854844    660.12324  0.016910627  0.016486053            2 
 3254000   0.73798633   -8.1712702    661.50751  0.016940881    0.0164804            2 
 3255000   0.74256977   -8.1865516    660.70369  0.016915097  0.016474762            2 
 3256000   0.72858114   -8.1898937    661.30716  0.016925347  0.016469128            1 
 3257000   0.73647491     -8.15884     661.0024  0.016912353  0.016463493            1 
 3258000   0.72341752   -8.1444271    659.79237  0.016876212  0.016457876            2 
 3259000   0.75334957   -8.1792718    660.40725  0.016886756  0.016452254            2 
 3260000   0.72467128   -8.1599293    660.83939  0.016892623  0.016446623            4 
 3261000   0.73416838   -8.1726881    660.45485  0.016877616  0.016440993            1 
 3262000   0.71844127   -8.1678507     659.7467  0.016854351  0.016435383            4 
 3263000   0.72722808   -8.1838682    661.67713  0.016898486  0.016429758            1 
 3264000   0.73197243   -8.1759933    660.74337  0.016869469  0.016424132            1 
 3265000   0.72270679    -8.165184    661.14941  0.016874666  0.016418499            3 
 3266000   0.73113474   -8.1670172    661.07673  0.016867645  0.016412859            2 
 3267000   0.73363365   -8.1890595    660.78977  0.016855162   0.01640724            2 
 3268000   0.74397358    -8.153543    660.91422  0.016853178  0.016401643            4 
 3269000   0.73412692   -8.1728807    661.22765  0.016856012  0.016396043            4 
 3270000   0.71995162   -8.1836974     660.9296  0.016843262  0.016390447            1 
 3271000   0.72915087   -8.1832859    662.54784   0.01687934  0.016384848            3 
 3272000   0.72332792   -8.1405082    662.20153  0.016865361  0.016379262            3 
 3273000     0.731083   -8.1604551    662.32269  0.016863293  0.016373693            2 
 3274000   0.71509097   -8.1643076    661.51327   0.01683754  0.016368119            2 
 3275000   0.73756077   -8.1666655    661.24087  0.016825467  0.016362532            1 
 3276000   0.72664101   -8.1424588     661.0082  0.016814413  0.016356954            1 
 3277000   0.74056449    -8.158123    661.25736  0.016815618  0.016351384            2 
 3278000   0.72819023   -8.1673522    661.75705  0.016823191  0.016345818            3 
 3279000   0.74225472   -8.1628113    662.24884  0.016830559  0.016340251            2 
 3280000   0.74055393    -8.164581    663.47965  0.016856698  0.016334696            2 
 3281000    0.7160125    -8.190435    660.25335  0.016769617  0.016329126            3 
 3282000   0.70301355   -8.1843479    662.48472  0.016821164  0.016323543            1 
 3283000   0.71971676   -8.1620225    662.32497  0.016811985  0.016317963            5 
 3284000   0.72322685   -8.2199182    660.84627  0.016769343  0.016312379            2 
 3285000   0.72914122    -8.189323    661.02697  0.016768822  0.016306776            6 
 3286000   0.73496806   -8.1678517    660.30984  0.016745532  0.016301191            1 
 3287000   0.72617649   -8.2246695    661.04256  0.016759014  0.016295597            2 
 3288000   0.71230284   -8.2112106    660.47805   0.01673961  0.016290017            2 
 3289000    0.7242044    -8.183553    660.99755  0.016747683  0.016284433            2 
 3290000   0.72055593   -8.1907957    661.45199  0.016754103  0.016278855            7 
 3291000    0.7146016   -8.1837145     660.7981  0.016732455  0.016273282            4 
 3292000   0.72296565   -8.2022602    659.70895  0.016699801  0.016267718            6 
 3293000   0.71909657   -8.1974765    659.79624  0.016696939  0.016262155            3 
 3294000   0.72180251   -8.1718477    661.40292  0.016732517  0.016256575            4 
 3295000   0.70870304   -8.1793074    661.36997  0.016726605  0.016250995            1 
 3296000   0.72965094   -8.2001425    661.67212   0.01672917  0.016245431            2 
 3297000   0.73598066   -8.1757992    661.39483  0.016717087  0.016239858            5 
 3298000   0.71483502   -8.2129688    660.46754  0.016688588  0.016234273            2 
 3299000   0.70887293   -8.1903237    661.28373  0.016704146  0.016228693            1 
 3300000   0.72866236   -8.1908337    661.47286   0.01670386   0.01622311            2 
 3301000   0.71971551   -8.1979729    660.59431  0.016676621  0.016217522            3 
 3302000   0.71781443   -8.1907897    661.42936  0.016692645   0.01621193            3 
 3303000   0.72134287   -8.1973379    660.12815  0.016654762  0.016206344            3 
 3304000   0.73049657   -8.2137718     660.8062  0.016666823  0.016200765            2 
 3305000   0.72115468   -8.1789046    661.55638  0.016680695  0.016195188            5 
 3306000   0.72375122   -8.1924212    660.67872  0.016653527  0.016189623            1 
 3307000   0.72562139   -8.1927773    660.60235  0.016646567  0.016184058            2 
 3308000   0.73229387    -8.210231    661.69222   0.01666899   0.01617849            2 
 3309000   0.73322417   -8.1795381     661.5308  0.016659887  0.016172929            2 
 3310000   0.72924338    -8.179679    662.39425  0.016676592  0.016167364            2 
 3311000   0.71440812   -8.2035848    661.17934  0.016640978  0.016161813            2 
 3312000   0.72148484   -8.2102304    660.64909  0.016622612  0.016156272            1 
 3313000   0.72700947   -8.1884946    661.85003  0.016647802  0.016150731            1 
 3314000   0.71750502   -8.1754927    663.13067  0.016674982  0.016145211            2 
 3315000   0.71405073   -8.1944351    661.84915  0.016637736   0.01613969            4 
 3316000   0.73734926   -8.1947982    662.29235  0.016643857   0.01613416            5 
 3317000   0.72188417   -8.2038565    660.84202  0.016602402  0.016128644            4 
 3318000   0.72659657   -8.1798391    660.51462  0.016589176  0.016123115            3 
 3319000   0.71481858   -8.2180188     660.6133  0.016586655  0.016117576            4 
 3320000   0.70314516   -8.1768551    661.98788  0.016616162  0.016112038            2 
 3321000   0.71999639   -8.1864472    661.72177  0.016604481  0.016106506            1 
 3322000   0.74200113   -8.2053801     662.0973  0.016608903  0.016100972            2 
 3323000    0.7182011   -8.1959213    660.63294  0.016567182  0.016095429            2 
 3324000   0.70704844   -8.2265623    660.99318  0.016571229  0.016089885            3 
 3325000   0.73286103   -8.2034384    661.96241  0.016590536  0.016084345            2 
 3326000   0.72624491   -8.1955986    661.42501  0.016572084  0.016078822            4 
 3327000   0.70663204   -8.2190393     661.1383  0.016559921  0.016073301            1 
 3328000   0.72748373   -8.2161225    660.59134  0.016541249  0.016067772            3 
 3329000   0.72860151    -8.196917    660.71926  0.016539483  0.016062263            2 
 3330000   0.73014806   -8.2024882    662.57212  0.016580884  0.016056771            3 
 3331000    0.7212321    -8.204835     661.7004  0.016554098  0.016051268            2 
 3332000   0.70615936   -8.1904704    661.42239  0.016542177  0.016045764            2 
 3333000   0.73849366   -8.1858764    661.67456  0.016543518  0.016040273            3 
 3334000   0.70195771   -8.1942403    661.38179  0.016531239  0.016034788            3 
 3335000   0.73183128   -8.2321906    661.15664  0.016520656  0.016029281            1 
 3336000   0.71477218   -8.2439497    660.39654  0.016496716  0.016023766            1 
 3337000   0.72421346   -8.2260815     660.7476  0.016500539   0.01601824            4 
 3338000   0.71880827   -8.2073649    661.64029  0.016517882  0.016012737            2 
 3339000   0.71846207    -8.235231    661.41532  0.016507321  0.016007224            2 
 3340000   0.70873828   -8.2186182    661.88669  0.016514139   0.01600171            1 
 3341000   0.73002488   -8.2268732    660.73707  0.016480522   0.01599619            3 
 3342000   0.72596368   -8.2288844    661.50681  0.016494784   0.01599067            1 
 3343000   0.70785285   -8.1986744    659.13888  0.016430823  0.015985168            1 
 3344000   0.71142345   -8.2220777    660.30975  0.016455087  0.015979659            1 
 3345000   0.70396159   -8.2259526    661.39346  0.016477167  0.015974153            2 
 3346000   0.70865637   -8.1935197    660.59596   0.01645238  0.015968629            2 
 3347000   0.72066568   -8.2184315    660.19041  0.016437367  0.015963132            3 
 3348000   0.72730729   -8.2172627    662.89892  0.016499874   0.01595763            1 
 3349000   0.71514389   -8.2014409    661.45521  0.016459023  0.015952136            2 
 3350000   0.70458068   -8.2334687    661.07159  0.016444567  0.015946634            2 
 3351000   0.70284357   -8.1931548    662.27197  0.016469511   0.01594114            4 
 3352000   0.71588961    -8.211393    660.73163  0.016426304  0.015935668            2 
 3353000   0.71345456   -8.2058097    662.22474  0.016458513  0.015930202            3 
 3354000   0.70144256    -8.227436    661.81329  0.016443383  0.015924733            4 
 3355000   0.72439317   -8.2356352    662.79223  0.016462797  0.015919255            4 
 3356000   0.70996419   -8.2049123    660.15707  0.016392458  0.015913786            1 
 3357000    0.7024277   -8.2119258    662.46374  0.016444835  0.015908316            1 
 3358000   0.70482675   -8.2354559    660.41387  0.016389068  0.015902831            1 
 3359000   0.73507814   -8.2233868    661.25275     0.016405  0.015897335            1 
 3360000   0.70909955   -8.2416276    661.31007  0.016401539  0.015891837            1 
 3361000   0.69881782   -8.2384557    660.60011  0.016379057  0.015886346            3 
 3362000   0.72121811   -8.2140495    661.38046  0.016393527   0.01588086            1 
 3363000   0.71821875   -8.2207751    662.36773  0.016413117  0.015875388       -1e+20 
 3364000   0.70123146   -8.2191711    661.94327  0.016397723  0.015869923            1 
 3365000    0.7007159   -8.1990578    660.59102  0.016359361  0.015864469            2 
 3366000   0.71378103   -8.2229373    662.72516  0.016407337   0.01585902            3 
 3367000   0.72105043   -8.2072806    662.13402  0.016387833  0.015853563            2 
 3368000   0.70888826   -8.2136912     662.3976  0.016389489  0.015848091            1 
 3369000   0.71816647   -8.2457406    660.72123  0.016343159  0.015842618            2 
 3370000   0.70828876   -8.2185496    660.46243   0.01633191  0.015837145            4 
 3371000   0.71414738    -8.233653    662.09567   0.01636744   0.01583168            1 
 3372000   0.71099454   -8.2251065    661.98307  0.016359803  0.015826199            1 
 3373000   0.72444848   -8.2409946     660.1093  0.016308659  0.015820727            3 
 3374000   0.72708773    -8.240265    661.11345  0.016328627  0.015815266            2 
 3375000    0.7301173   -8.2181735    662.26916  0.016352325  0.015809813            2 
 3376000   0.71786673   -8.2409565    660.01148  0.016291753  0.015804357            2 
 3377000   0.72559694   -8.2317115    662.19676  0.016340854  0.015798925            2 
 3378000   0.72630522   -8.2203378    662.14429  0.016334722  0.015793509            3 
 3379000   0.71040123   -8.2193089    661.45544  0.016312899  0.015788078            4 
 3380000   0.71876071   -8.2451537    662.50549  0.016333962  0.015782658            5 
 3381000   0.71221608   -8.2241562    661.63886   0.01630777   0.01577723            4 
 3382000   0.71546072   -8.2140648    660.59833   0.01627731  0.015771798            2 
 3383000   0.70470509    -8.239607    660.66028  0.016274024  0.015766352            2 
 3384000   0.72169929   -8.2244078     662.0882  0.016304378  0.015760903            5 
 3385000   0.71838902   -8.2512134    660.53301  0.016261276  0.015755439            1 
 3386000   0.70624281   -8.2422316    660.27061  0.016250015  0.015749972            2 
 3387000   0.70831339   -8.2262689    661.83598  0.016283731  0.015744534            2 
 3388000   0.71353264   -8.2444056    660.49521  0.016245947  0.015739095            1 
 3389000   0.71489261   -8.2315459    660.17625   0.01623331  0.015733641            1 
 3390000   0.70737234   -8.2279462    661.52023  0.016261559  0.015728195            1 
 3391000   0.71637857   -8.2240879    660.97274  0.016243309  0.015722755            4 
 3392000   0.70796021   -8.2332461    661.27601  0.016245971  0.015717318            2 
 3393000   0.71043585   -8.2241747    660.66721  0.016226231  0.015711884            3 
 3394000   0.70791949   -8.2272926    661.64413  0.016245436  0.015706458            1 
 3395000   0.71485207   -8.2441833    661.33744  0.016233123  0.015701024            5 
 3396000    0.6943774   -8.2455046    661.36877  0.016229112  0.015695586            1 
 3397000   0.70740898   -8.2488975    661.70175  0.016232503  0.015690135            2 
 3398000   0.71869641   -8.2573136    661.84255  0.016231179    0.0156847            2 
 3399000   0.70489688   -8.2367908    661.19039  0.016210415  0.015679271            2 
 3400000   0.71579963   -8.2775377    661.23949   0.01620685  0.015673836            2 
 3401000   0.71274131   -8.2225587     661.2341  0.016201953  0.015668398            3 
 3402000   0.70132733   -8.2146233    659.92092  0.016165023  0.015662954            2 
 3403000   0.69076743   -8.2701421    661.98241  0.016210756  0.015657517            2 
 3404000   0.70952359   -8.2700901     660.9052  0.016179622  0.015652069            3 
 3405000   0.70267706   -8.2528551    662.51076  0.016214164  0.015646629            5 
 3406000   0.70506956   -8.2532604    661.10779  0.016175078  0.015641186            3 
 3407000   0.71976448   -8.2776613    658.97463  0.016118155  0.015635739            3 
 3408000   0.70942223   -8.2662394    659.82091  0.016134119  0.015630297            1 
 3409000   0.69348214   -8.2551054    660.15735   0.01613761  0.015624848            2 
 3410000   0.70964458   -8.2737324     659.3631  0.016113468  0.015619391            2 
 3411000   0.70703923   -8.2858822    660.37206  0.016133394  0.015613952            2 
 3412000   0.72584997   -8.2376761    660.00055  0.016119591  0.015608498            1 
 3413000   0.70471186   -8.2710582    660.97527  0.016138668  0.015603052            3 
 3414000   0.70390523   -8.2688188    660.45292   0.01612119  0.015597591            2 
 3415000   0.70477227   -8.2766892    659.84217  0.016101566  0.015592127            4 
 3416000   0.71416811    -8.271547    659.68057   0.01609291   0.01558666            1 
 3417000   0.70541626   -8.2714167    660.36289  0.016104841  0.015581198            1 
 3418000   0.70650368   -8.2918466    660.64269  0.016106951  0.015575747            2 
 3419000   0.70166872   -8.2590093      661.039  0.016111899  0.015570299            1 
 3420000   0.70559091   -8.2733804    659.59517  0.016072007  0.015564853            3 
 3421000   0.71688358   -8.2648801    660.49764  0.016089293  0.015559425            5 
 3422000   0.69794999   -8.2662217    659.24232  0.016054021  0.015553995            3 
 3423000   0.71253856   -8.2460359    661.26036   0.01609846  0.015548572            2 
 3424000   0.71405309   -8.2550857    661.26755  0.016093934  0.015543167            4 
 3425000   0.70478458   -8.2416574    661.59145  0.016097116  0.015537763            2 
 3426000   0.72060521      -8.2358    661.54162  0.016091205  0.015532381            1 
 3427000   0.70655484    -8.233934    661.30045  0.016080645  0.015526971            2 
 3428000   0.71856074   -8.2547656    661.47594   0.01608022  0.015521573            2 
 3429000   0.70317121   -8.2454678    660.83974  0.016060069  0.015516186            2 
 3430000   0.69861236   -8.2486465    660.54008  0.016048107  0.015510788            2 
 3431000   0.71164008   -8.2734178    659.68252  0.016022601  0.015505377            2 
 3432000   0.69459699   -8.2664702    660.35762  0.016034325  0.015499955            2 
 3433000   0.70559608   -8.3029668    658.98811   0.01599641  0.015494531            3 
 3434000    0.6956334   -8.2728063    658.83564  0.015988052  0.015489107            3 
 3435000   0.69826643   -8.2499103    660.83988   0.01603202  0.015483688            3 
 3436000   0.69123966   -8.2582144    660.40098   0.01601671  0.015478283            2 
 3437000   0.70500693   -8.2391436     661.6376  0.016042033  0.015472875            2 
 3438000   0.68592632   -8.2693566    661.17102  0.016026057  0.015467477            4 
 3439000   0.68504214   -8.2594607    661.10172  0.016019718  0.015462084            2 
 3440000   0.69396901   -8.2719827    661.81979  0.016032456  0.015456702            2 
 3441000   0.68805623   -8.2445888    661.23811   0.01601371  0.015451318            5 
 3442000   0.69001296   -8.3138053    661.31045  0.016010809  0.015445935            3 
 3443000   0.68360404   -8.2670782    660.56515   0.01598812  0.015440547            3 
 3444000   0.71221606   -8.2684315    661.39259  0.016003499  0.015435148            2 
 3445000   0.68858724   -8.3019118    660.13413  0.015968411  0.015429756            1 
 3446000   0.69400057   -8.2701016    660.50661  0.015972785  0.015424362            1 
 3447000    0.7116403   -8.2940638    660.80605  0.015975391  0.015418982            5 
 3448000   0.69213777   -8.2646439    661.37932  0.015984612  0.015413589            1 
 3449000   0.69883055   -8.2700843    660.69725  0.015963498  0.015408219            2 
 3450000   0.70194718   -8.3025543    659.68494  0.015934419   0.01540285            3 
 3451000   0.68455572   -8.2628966    661.40195  0.015971263  0.015397483            1 
 3452000   0.68842137   -8.2534285    661.74965   0.01597503  0.015392131            1 
 3453000   0.70585427    -8.253863    660.61656  0.015943058   0.01538677            1 
 3454000   0.69137588   -8.2503499    661.78007  0.015966514   0.01538142            3 
 3455000   0.69809257   -8.2714082    661.53014  0.015955864  0.015376072            4 
 3456000   0.70455991   -8.2487115     662.3049  0.015969929  0.015370725            2 
 3457000    0.6744579   -8.2681912    660.66662  0.015925818  0.015365373            3 
 3458000   0.70139258   -8.2755343    661.82814  0.015949203  0.015360042            3 
 3459000   0.68892726   -8.2557735    660.54419   0.01591366   0.01535471            2 
 3460000   0.71256058   -8.2711866    660.26242  0.015902274  0.015349382            2 
 3461000   0.69212577   -8.2498988    661.74297  0.015933328  0.015344056            1 
 3462000   0.70092816   -8.2820168     660.1766  0.015891022  0.015338719            2 
 3463000   0.71330896    -8.307686    661.59512  0.015920568   0.01533338            4 
 3464000   0.70361979   -8.2761217    660.61989  0.015892511  0.015328022            4 
 3465000   0.69072144   -8.2738543    661.27226  0.015903614   0.01532267            2 
 3466000   0.69765598   -8.2499333    661.49167  0.015904301  0.015317347            3 
 3467000   0.70787643   -8.2841871    658.84538  0.015836107  0.015312011            2 
 3468000   0.70735114   -8.2611957    660.59197  0.015873509  0.015306682            3 
 3469000   0.70778279    -8.264453    660.28738  0.015861617  0.015301359            2 
 3470000   0.71153789   -8.2928287    660.00141  0.015850178  0.015296013            3 
 3471000   0.69955355     -8.26092    661.48853  0.015881315   0.01529068            4 
 3472000   0.69058197   -8.2593724    660.32259  0.015848756  0.015285347            1 
 3473000   0.69278665   -8.2721912    662.15926  0.015888263  0.015280027            2 
 3474000   0.69988305   -8.2704663    661.82011  0.015875554  0.015274712            5 
 3475000   0.69858133   -8.2605444    663.37249  0.015908213  0.015269407            3 
 3476000   0.70027902   -8.3064507    660.79024   0.01584173  0.015264089            2 
 3477000    0.7051472   -8.2964431    661.34961   0.01585058  0.015258759            1 
 3478000   0.70687524   -8.2906056    661.03621  0.015838514  0.015253433            1 
 3479000   0.68080408   -8.2696383    661.90401  0.015854748  0.015248109            1 
 3480000   0.70903539   -8.2824072    663.11881  0.015879282  0.015242792            3 
 3481000   0.68953362   -8.2869911    661.37038  0.015832864  0.015237466            3 
 3482000   0.69896288   -8.2683518    660.15843  0.015799312  0.015232136            1 
 3483000   0.69504052   -8.2635746    659.47468  0.015778416  0.015226812            4 
 3484000   0.68431959   -8.2547426    660.86343  0.015807105  0.015221496            2 
 3485000   0.70440369   -8.2871785    658.80252  0.015753288  0.015216178            4 
 3486000   0.69502503   -8.2738156    661.80956  0.015820653  0.015210867            1 
 3487000   0.68844768   -8.2716726    661.50211  0.015808769  0.015205561            3 
 3488000   0.69614886   -8.2825055    660.79684  0.015787386   0.01520026            4 
 3489000   0.71739808   -8.2485729    660.08563  0.015765874  0.015194963            1 
 3490000   0.67635781   -8.2751797    659.70104  0.015752174  0.015189664            2 
 3491000   0.69899074   -8.2919071    660.40661  0.015764504  0.015184357            2 
 3492000   0.68876044   -8.2830708    659.84475  0.015746581  0.015179056            3 
 3493000   0.68636483   -8.2636008    661.03986  0.015770586  0.015173756            2 
 3494000   0.69777793   -8.2872656    662.20789   0.01579393  0.015168449            2 
 3495000   0.70067873   -8.2666415    661.18104  0.015764927  0.015163159            3 
 3496000   0.69882527   -8.2738394    661.79417  0.015775033  0.015157857            4 
 3497000   0.70585388   -8.2731038    661.25986  0.015757789  0.015152555            3 
 3498000   0.69189802   -8.2786357    660.61842  0.015738003  0.015147244            2 
 3499000   0.68006782   -8.2801484    661.39936  0.015752104  0.015141947            1 
 3500000   0.68376122   -8.2989893    660.40535  0.015723937  0.015136652            4 
 3501000   0.67941466   -8.2753448    659.50966  0.015698126  0.015131352            2 
 3502000   0.71014691   -8.2824802    661.09146  0.015731283  0.015126062            5 
 3503000   0.69759024   -8.2744513    660.90742  0.015722415  0.015120771            3 
 3504000   0.67551181   -8.2707295    660.41564  0.015706232   0.01511547            1 
 3505000    0.6860866   -8.2863123    661.01879  0.015716091   0.01511017            2 
 3506000   0.69408418   -8.2746176    661.17314  0.015715277  0.015104874            1 
 3507000   0.68999157   -8.2860159    661.68731  0.015723014  0.015099592            3 
 3508000   0.69544643   -8.2869386    661.36286  0.015710824  0.015094316            3 
 3509000   0.71043038   -8.2693597    661.55352  0.015710875  0.015089029            5 
 3510000    0.7163501   -8.2929802    660.32227  0.015677167   0.01508375            2 
 3511000   0.68896254   -8.2850122     661.7344  0.015706218   0.01507847            2 
 3512000   0.70736114   -8.2691708    660.21201  0.015665623  0.015073189            4 
 3513000   0.68896613   -8.2722871    662.30102  0.015710718  0.015067914            3 
 3514000   0.68074118   -8.2772726    662.35892   0.01570762  0.015062647            4 
 3515000   0.70725264   -8.2524661    661.44952  0.015681591  0.015057383            4 
 3516000   0.68066956   -8.2869645    661.48113   0.01567788  0.015052118            3 
 3517000   0.69764636   -8.2704993     662.5748  0.015699337   0.01504685            1 
 3518000   0.70038802   -8.2803529    659.77867   0.01562864  0.015041583            4 
 3519000   0.66800142   -8.3006184    659.94481  0.015628133   0.01503632            2 
 3520000   0.67267296   -8.3186313    659.81029  0.015620509  0.015031031            2 
 3521000    0.6897468   -8.3088709    661.12034  0.015647078  0.015025751            1 
 3522000   0.69464708   -8.3122365    660.25988  0.015622276   0.01502046            1 
 3523000   0.67808735    -8.300813    660.81224  0.015630907  0.015015172            1 
 3524000   0.69159786   -8.3275834    660.04994  0.015608445  0.015009889            2 
 3525000   0.69594906   -8.3093824    660.72081  0.015619877  0.015004602            1 
 3526000    0.6937643   -8.2974223    661.23087  0.015627502  0.014999332            3 
 3527000   0.69008612   -8.3043602    660.19785  0.015598664  0.014994064            1 
 3528000   0.68427803   -8.2974802    660.33243  0.015597421  0.014988807            3 
 3529000   0.68394317   -8.2881196    660.26182  0.015591334  0.014983562            3 
 3530000   0.69170422   -8.2961871    661.05865  0.015605728  0.014978321            2 
 3531000   0.68796989   -8.3110061      661.435  0.015610191  0.014973069            1 
 3532000   0.67368088   -8.2987989    659.88835   0.01556928  0.014967825            1 
 3533000   0.68273846   -8.3125826    660.88981  0.015588495  0.014962575            2 
 3534000   0.67932174   -8.3201975    660.25752  0.015569174  0.014957317            1 
 3535000    0.6877117   -8.3250412    659.92049  0.015556824   0.01495206            1 
 3536000   0.68936006   -8.3305758    659.71504  0.015547583  0.014946806            2 
 3537000   0.67289576   -8.3087316    659.28088  0.015532958  0.014941561            2 
 3538000   0.68927856   -8.3194236    660.73652  0.015562854  0.014936315            3 
 3539000   0.67839404   -8.3198672    660.33865  0.015549087  0.014931064            2 
 3540000   0.69993256   -8.3267273    660.86763  0.015557148  0.014925813            3 
 3541000   0.68974445   -8.3012361     660.4559  0.015543065  0.014920571            2 
 3542000   0.68200535   -8.3288901    659.00281  0.015504489  0.014915333            2 
 3543000   0.68430183   -8.3122858    659.85685  0.015520201  0.014910082            2 
 3544000    0.6790541    -8.304283    659.98654  0.015518871  0.014904823            2 
 3545000   0.69604634   -8.3026015    658.94729  0.015490063  0.014899562            2 
 3546000   0.69151886   -8.3013875    659.21701  0.015492033  0.014894309            5 
 3547000   0.68187745   -8.3149607    658.87958  0.015479738  0.014889064            1 
 3548000   0.69002556   -8.2856252    659.89284  0.015499174   0.01488382            1 
 3549000   0.69623414   -8.2957673    660.09101   0.01549946  0.014878575            6 
 3550000    0.6863401   -8.3193112    659.79971  0.015488256  0.014873335            3 
 3551000    0.6715832   -8.3106966    659.19538  0.015469712  0.014868105            3 
 3552000   0.67875247   -8.3399453    659.23259   0.01546623  0.014862867            3 
 3553000   0.67504895    -8.318898    660.49591  0.015491507  0.014857622            1 
 3554000   0.68115493   -8.3305715    660.03048  0.015476235  0.014852383            3 
 3555000   0.68782558   -8.3293549    659.44222  0.015458092   0.01484715            3 
 3556000   0.67956849   -8.3001127    658.89393  0.015440896  0.014841923            3 
 3557000   0.66692606   -8.3061606    659.96348  0.015461613  0.014836714            4 
 3558000   0.66522986    -8.311565    660.96362  0.015480692  0.014831495            6 
 3559000   0.66761886   -8.3087343    659.93632  0.015452288  0.014826281            3 
 3560000   0.68115814   -8.3122061    659.37396  0.015434784  0.014821062            1 
 3561000   0.66601109   -8.2982736    660.87286  0.015465526  0.014815856            1 
 3562000   0.67197441   -8.3524344    659.13626  0.015420556  0.014810645            1 
 3563000   0.67483386   -8.3039157    660.78265  0.015454735  0.014805426            2 
 3564000   0.67700278   -8.3152803    660.69791  0.015448417  0.014800208            2 
 3565000   0.67524415   -8.2931282    661.24572  0.015456889  0.014794992            1 
 3566000   0.69335071   -8.3161654    660.17616   0.01542756  0.014789788            4 
 3567000   0.67436116   -8.3180068    660.19134   0.01542359  0.014784587            2 
 3568000   0.67827093   -8.3198855    659.64882  0.015406596  0.014779405            5 
 3569000    0.6852256   -8.2880152     661.5084  0.015445699  0.014774218            2 
 3570000   0.68578705   -8.3128624    660.82394  0.015425395  0.014769026            1 
 3571000   0.69493418   -8.2930171    661.26167  0.015431291  0.014763851            2 
 3572000   0.65896418   -8.2971611    659.81533  0.015393228  0.014758672            2 
 3573000   0.68565588   -8.3237424    660.93638  0.015415066  0.014753489            1 
 3574000   0.67926483   -8.2870886    660.77881  0.015407079  0.014748302            4 
 3575000   0.65848691   -8.3424743    659.94243  0.015383274  0.014743122            3 
 3576000   0.67520662   -8.3233157    660.82916  0.015399635   0.01473794            3 
 3577000       0.6764    -8.325756      661.252  0.015405181  0.014732769            1 
 3578000   0.68779647   -8.3211515    661.17345  0.015399046  0.014727597            1 
 3579000   0.67333457   -8.3089019     660.0421  0.015368401   0.01472242            2 
 3580000   0.67457642    -8.318578    660.00192  0.015363173  0.014717247            2 
 3581000   0.66495207   -8.2993978    660.42127  0.015368642  0.014712074            3 
 3582000   0.67842184   -8.3000368    661.42035  0.015387594  0.014706912            3 
 3583000   0.69013671   -8.3061209      660.742  0.015367523  0.014701754            3 
 3584000   0.68644397   -8.3276402    660.46944  0.015356897  0.014696588            2 
 3585000   0.68879136   -8.3238688    660.08317  0.015343635  0.014691424            3 
 3586000   0.68026354   -8.3189209    660.09155  0.015339551  0.014686265            1 
 3587000   0.66364494   -8.3018895    660.32784  0.015340764  0.014681096            1 
 3588000   0.68148979   -8.3269178     659.5604  0.015318664  0.014675931            2 
 3589000   0.68991258    -8.310847    660.34927  0.015332713  0.014670767            3 
 3590000   0.67823137   -8.3053776    660.57034  0.015333573  0.014665618            3 
 3591000   0.67276262   -8.3172887    660.62832  0.015330649  0.014660472            2 
 3592000   0.67238232   -8.3322273    660.75125  0.015329233  0.014655325            1 
 3593000   0.67981355   -8.3003854    661.71936   0.01534742  0.014650178            6 
 3594000   0.67554199   -8.3065151    660.98974  0.015326232  0.014645025            1 
 3595000   0.68329523    -8.333177     658.8159  0.015271579  0.014639871            2 
 3596000   0.66299787   -8.3430869    659.95032  0.015293621  0.014634721            3 
 3597000   0.67913667   -8.3101478    659.07898  0.015269182  0.014629572            2 
 3598000    0.6613184   -8.3180147    661.66095  0.015324739  0.014624423            2 
 3599000      0.68298   -8.3427516     660.6646  0.015297411  0.014619278            2 
 3600000   0.68028453   -8.3133472    660.15932  0.015281466  0.014614132            2 
 3601000   0.68457205   -8.3266686    660.00917  0.015273747  0.014608982            3 
 3602000   0.68003733   -8.3253551    660.20212  0.015273971  0.014603825            3 
 3603000   0.67519661   -8.3368245    658.67724  0.015234463  0.014598675            1 
 3604000    0.6638204   -8.3424049    659.64977  0.015252723  0.014593526            2 
 3605000   0.68346586   -8.3257392    658.36934  0.015218894  0.014588374            1 
 3606000   0.67645021   -8.3126639     660.8063   0.01527099  0.014583229            1 
 3607000    0.6815602   -8.3395759    659.13099  0.015228052  0.014578088            1 
 3608000   0.68512295   -8.3278043    660.60638  0.015257908  0.014572946            1 
 3609000   0.68225508    -8.320687    660.15238  0.015243197  0.014567798            1 
 3610000   0.66661477    -8.323279    659.53062  0.015224622  0.014562649            1 
 3611000   0.66738572   -8.3239552    660.26865  0.015237438  0.014557501            2 
 3612000   0.66610819   -8.3329419    658.80917  0.015199547  0.014552359            2 
 3613000   0.69446365   -8.3340806    659.79744  0.015218134   0.01454722            3 
 3614000   0.69828708   -8.3303248     658.8111   0.01519118  0.014542083            1 
 3615000   0.67625626   -8.3313159    658.43796  0.015178376  0.014536929            3 
 3616000     0.663635   -8.3341833    658.82913  0.015183193  0.014531792            2 
 3617000   0.67012303    -8.326514    659.72572  0.015199653  0.014526652            3 
 3618000   0.66780707    -8.320323    660.42781  0.015211623  0.014521531            1 
 3619000   0.65930493   -8.3325243    658.79323  0.015169781  0.014516412            1 
 3620000   0.66401738   -8.3208273    658.76692  0.015164984   0.01451129            3 
 3621000   0.68171546   -8.2974276    660.80923  0.015207798  0.014506177            4 
 3622000   0.67202211   -8.3288743    659.99066  0.015184766  0.014501064            2 
 3623000   0.66159508   -8.3204842    658.61313   0.01514889  0.014495951            1 
 3624000   0.66334978   -8.3185651    660.47678  0.015187564  0.014490836            3 
 3625000   0.67748395   -8.3348754     660.4051  0.015181726  0.014485715            3 
 3626000   0.65949604   -8.3428118    659.23743  0.015150704  0.014480598            4 
 3627000   0.68748271   -8.3162962    659.41841  0.015150685  0.014475484            2 
 3628000   0.67680243   -8.3324175    659.89253  0.015157399  0.014470376            2 
 3629000   0.66420235   -8.3231657     659.5257  0.015144799  0.014465278            1 
 3630000   0.68151149   -8.3676639    658.54363  0.015118081  0.014460164            2 
 3631000   0.65934053   -8.3531015    660.62864   0.01516177  0.014455048            1 
 3632000    0.6751108   -8.3744761    658.98083  0.015119788  0.014449925            2 
 3633000   0.66426941   -8.3731817    659.86778  0.015135971  0.014444787            1 
 3634000    0.6806662   -8.3540115    658.80899  0.015107526  0.014439669            1 
 3635000   0.66677947   -8.3770788    658.83609  0.015103991   0.01443455            1 
 3636000    0.6628299   -8.3838565    658.49016  0.015091909  0.014429431            1 
 3637000   0.66912638   -8.3684309    659.97918  0.015121877  0.014424311            2 
 3638000   0.67889131   -8.3740084    659.44481  0.015105479  0.014419194            2 
 3639000   0.67222231   -8.3565044    659.81508  0.015109808  0.014414083            3 
 3640000   0.66787091   -8.3576299    658.59876   0.01507781  0.014408976            1 
 3641000   0.67686388   -8.3810044     658.6139  0.015074016  0.014403873            2 
 3642000   0.66015289   -8.3599678    658.48132  0.015066843  0.014398778            1 
 3643000   0.66115762   -8.3606192     659.9047  0.015095267  0.014393688            1 
 3644000   0.67353507   -8.3839878    659.51515  0.015082216  0.014388594            2 
 3645000   0.67218539   -8.3505418    659.44607  0.015076499  0.014383506            2 
 3646000   0.66395578   -8.3390146    659.23164  0.015067463   0.01437841            2 
 3647000   0.66768182   -8.3666174     659.1462  0.015061379  0.014373315            2 
 3648000   0.66297112   -8.3629224    658.34926  0.015039046  0.014368219            2 
 3649000   0.67371133   -8.3519515    659.14249  0.015053039  0.014363139            3 
 3650000   0.66170957   -8.3793088     659.2057  0.015050358  0.014358056            4 
 3651000   0.67348193   -8.3569334    659.13567  0.015044638  0.014352968            1 
 3652000   0.67277288   -8.3482809    659.68573   0.01505307  0.014347889            7 
 3653000   0.68013061   -8.3463885    659.88277  0.015053444  0.014342814            3 
 3654000   0.65717024   -8.3655424    658.74482  0.015023372  0.014337742            4 
 3655000   0.66569026   -8.3443594    659.93181  0.015046325   0.01433268            2 
 3656000   0.66781635   -8.3532478    660.57656  0.015056906  0.014327615            2 
 3657000   0.66197374   -8.3657629    660.61342  0.015053628  0.014322557            1 
 3658000   0.66239614   -8.3587188    660.84297  0.015054742  0.014317496            1 
 3659000   0.66953014   -8.3681475    661.12559  0.015057065  0.014312432            3 
 3660000   0.65776325    -8.361008    658.80383  0.015000087  0.014307377            2 
 3661000   0.65250541   -8.3377521    659.14544  0.015003766  0.014302318            2 
 3662000    0.6704387   -8.3237295    659.45792   0.01500678  0.014297267            1 
 3663000   0.65166726   -8.3598153    659.64986  0.015007049  0.014292216            3 
 3664000   0.68098334   -8.3650718    659.35798  0.014996315  0.014287164            2 
 3665000   0.64719138   -8.3624083    659.39391   0.01499304  0.014282116            3 
 3666000   0.67015924   -8.3766475    658.38196  0.014965948  0.014277066            1 
 3667000   0.65861292   -8.3264681    660.20098  0.015003204  0.014272022            3 
 3668000   0.65545794   -8.3506511    658.93366  0.014970321  0.014266982            2 
 3669000   0.66855866   -8.3740703    659.46766   0.01497837  0.014261947            2 
 3670000   0.67868112   -8.3711606    659.07804  0.014965441  0.014256897            2 
 3671000   0.66823261   -8.3424207    659.20616  0.014964273  0.014251846            1 
 3672000   0.68224473   -8.3746241    659.39526  0.014964489  0.014246797            2 
 3673000   0.67572476   -8.3878869    658.26136  0.014934689  0.014241739            3 
 3674000   0.63979584   -8.3863233    658.44996  0.014934902  0.014236688            2 
 3675000   0.65663418   -8.3796917    658.93279  0.014941787  0.014231629            5 
 3676000   0.66763438   -8.3549105    659.26681  0.014945294  0.014226576            3 
 3677000    0.6553315    -8.369856     658.5238   0.01492439  0.014221528            2 
 3678000   0.66497957   -8.3763012    658.41844  0.014917945  0.014216475            4 
 3679000   0.67411134   -8.3643719    659.11058  0.014929568  0.014211434            2 
 3680000   0.66927259   -8.3928428    658.02693  0.014900972   0.01420638            2 
 3681000   0.64924549   -8.3876624    659.61021  0.014932767  0.014201336            1 
 3682000   0.65896163   -8.3737726    659.53793  0.014927076  0.014196293            2 
 3683000   0.65612845   -8.3902282    658.53164  0.014900254  0.014191259            3 
 3684000   0.67743102   -8.3810177     659.6827  0.014922247  0.014186222            3 
 3685000   0.66812285   -8.3738741    659.94312  0.014924087  0.014181193            2 
 3686000   0.66769602   -8.3936298    658.12467  0.014878926  0.014176161            2 
 3687000   0.67587208   -8.3765045    660.21684  0.014922178  0.014171125            2 
 3688000   0.66632753   -8.3968618    659.29761  0.014897361  0.014166096            2 
 3689000   0.65214853   -8.3804528      658.527  0.014875915  0.014161064            1 
 3690000   0.66837047   -8.3807413    659.04439  0.014883568  0.014156037            5 
 3691000   0.66064209   -8.3918928    658.20723  0.014860635   0.01415102            1 
 3692000   0.65524396   -8.3915264    659.24536  0.014880041  0.014146001            2 
 3693000   0.66316357   -8.3755326    659.09827  0.014872693   0.01414099            5 
 3694000   0.65431216   -8.3820502    659.80869  0.014884693  0.014135977            4 
 3695000   0.66203463   -8.3951215    658.51344  0.014851453  0.014130961            1 
 3696000    0.6606889   -8.3643254    658.92446  0.014856702  0.014125936            2 
 3697000   0.65508407   -8.3965032    658.87073  0.014851473  0.014120926            2 
 3698000   0.67979323    -8.383663    659.51016  0.014861866  0.014115915            1 
 3699000   0.66568391   -8.4024287    658.45901  0.014834167  0.014110903            3 
 3700000   0.65410605   -8.3867991    658.14463  0.014823077  0.014105889            1 
 3701000    0.6595163   -8.4117825    657.82483  0.014811871  0.014100887            2 
 3702000   0.66709038   -8.3972555    657.63992  0.014803708  0.014095884            2 
 3703000    0.6508356   -8.3852251    660.06189  0.014854215  0.014090891            4 
 3704000   0.65565805   -8.3840994    658.88712  0.014823774  0.014085889            2 
 3705000    0.6743736    -8.374243    658.94207  0.014821009  0.014080891            2 
 3706000   0.64758618   -8.3958556    659.33426  0.014825829  0.014075892            2 
 3707000   0.66028476   -8.3939741    659.81523  0.014832642  0.014070901            1 
 3708000   0.66031432   -8.3823496    659.20373  0.014814899  0.014065906            1 
 3709000   0.65634589   -8.3883202    660.13421   0.01483181  0.014060917            1 
 3710000   0.63778361   -8.3668987    660.05264   0.01482598  0.014055939            3 
 3711000   0.65662491   -8.3996891    658.93338  0.014796851  0.014050963            2 
 3712000   0.64393146   -8.3862287    658.92091  0.014792585   0.01404598            2 
 3713000   0.64385972    -8.391562    659.04838  0.014791462  0.014041009            4 
 3714000   0.66101288   -8.3776947    658.93906  0.014785026  0.014036032            1 
 3715000   0.65539417   -8.3982547    659.05072  0.014783551  0.014031062            4 
 3716000   0.66874141   -8.3813246    659.31165  0.014785424  0.014026093            2 
 3717000   0.66070582   -8.3911785    659.66198  0.014789301  0.014021128            1 
 3718000   0.66842764   -8.4098621    659.50445  0.014781792  0.014016161            3 
 3719000   0.65482717   -8.4036645    658.22091  0.014749057   0.01401119            2 
 3720000    0.6478369    -8.406978     660.1249  0.014787744  0.014006213            2 
 3721000   0.64960382    -8.395584    657.98727  0.014735897  0.014001241            1 
 3722000    0.6636906   -8.4067076    658.08259  0.014734072  0.013996282            2 
 3723000   0.65901125   -8.3840878    658.00633  0.014728408  0.013991311            1 
 3724000   0.66598434   -8.3973526    658.51667  0.014735872  0.013986347            4 
 3725000   0.65541522   -8.3858762     659.8363  0.014761438  0.013981384            1 
 3726000   0.64085019   -8.3987201    659.50208  0.014750002  0.013976425            3 
 3727000   0.66903694    -8.394651    659.72727  0.014751079  0.013971482            2 
 3728000    0.6549815   -8.3728986     660.2537   0.01475889  0.013966542            2 
 3729000   0.65250128   -8.3724445    659.86924   0.01474634  0.013961594            2 
 3730000   0.65376086   -8.3922273     658.8415  0.014719426  0.013956644            3 
 3731000    0.6734345   -8.3826779    659.08923  0.014721014  0.013951704            3 
 3732000   0.65354378   -8.3878093    660.18042  0.014741435  0.013946775            2 
 3733000   0.65455477   -8.3628641    660.28991   0.01473993  0.013941847            2 
 3734000   0.66671364   -8.4130761    659.21075  0.014711898  0.013936919            2 
 3735000     0.658197   -8.3743722    658.15602  0.014684427  0.013931992            1 
 3736000   0.66191918   -8.3953498    659.14241  0.014702498  0.013927057            3 
 3737000    0.6539168   -8.4011098    658.53236   0.01468496   0.01392213            1 
 3738000   0.64475226   -8.3663417    659.28888  0.014697897  0.013917201            1 
 3739000   0.64872036   -8.3906698     658.7452  0.014681849   0.01391228            4 
 3740000   0.64181763   -8.3813403     658.9193  0.014681803  0.013907365            2 
 3741000   0.64331435   -8.4021662    658.59351  0.014670621  0.013902449            1 
 3742000   0.64409404    -8.371118    659.39136  0.014684468  0.013897532            2 
 3743000    0.6608187    -8.403918    659.10578  0.014674187  0.013892617            3 
 3744000   0.64245878   -8.3819317    659.23153  0.014673066  0.013887694            1 
 3745000   0.64898743   -8.3865002    658.22583   0.01464677  0.013882783            3 
 3746000   0.66007388   -8.3885581    658.95842  0.014659157   0.01387787            1 
 3747000   0.65502337   -8.3763725    658.78166  0.014651313  0.013872963            2 
 3748000   0.66324867   -8.3749373    658.50689  0.014641295  0.013868068            2 
 3749000   0.64817419   -8.3797705    658.90224  0.014646178  0.013863166            4 
 3750000   0.63980539   -8.3971968    659.10084  0.014646685  0.013858264            2 
 3751000    0.6444853   -8.3935169      658.688  0.014633609  0.013853359            3 
 3752000   0.65816746   -8.3884432    658.24661  0.014619905  0.013848458            2 
 3753000   0.65151965   -8.4063964    659.42118   0.01464209  0.013843559            3 
 3754000   0.65466508   -8.3960678    658.84752  0.014625456  0.013838659            1 
 3755000   0.65398914   -8.3973172    659.86867  0.014644223  0.013833764            1 
 3756000   0.63643932   -8.3875531    659.69047   0.01463637  0.013828877            3 
 3757000   0.64546787   -8.3845553    660.53403  0.014651185  0.013823991            2 
 3758000   0.65042799   -8.3934637    659.33298  0.014620653  0.013819112            2 
 3759000   0.64341974   -8.4187224    658.90684  0.014607317  0.013814229            2 
 3760000   0.66124959   -8.4059605    659.42995  0.014615026  0.013809349            3 
 3761000   0.66011115   -8.3825973    658.02274   0.01457996  0.013804475            2 
 3762000   0.65201939   -8.4014057    658.92465  0.014596063  0.013799588            4 
 3763000   0.64597902   -8.3930852    658.84607  0.014590444  0.013794698            2 
 3764000   0.66111048   -8.4160585     658.1202  0.014570497  0.013789817            4 
 3765000   0.65002508   -8.3637132    659.85794  0.014605089  0.013784932            5 
 3766000   0.63588716   -8.3780035    660.13948  0.014607441  0.013780059            2 
 3767000   0.65213327   -8.4049686    659.57934  0.014591172   0.01377519            2 
 3768000    0.6598196   -8.3839799    660.18809  0.014600763  0.013770327            2 
 3769000   0.64533679   -8.4113382    659.06189  0.014571988  0.013765464            1 
 3770000   0.63840164   -8.3925538    659.98355  0.014588496  0.013760603            3 
 3771000   0.63628939   -8.3941218    659.45682  0.014572987   0.01375574            2 
 3772000   0.64669663   -8.4154569     658.4248  0.014546324  0.013750873            1 
 3773000   0.64652728   -8.3940654    659.54853  0.014567288  0.013746001            2 
 3774000   0.63808919   -8.4090896    658.40911  0.014538269  0.013741138            4 
 3775000   0.64761793   -8.4099391    658.35627  0.014533251   0.01373627            3 
 3776000   0.64935576   -8.3948025    659.32939  0.014550878  0.013731405            3 
 3777000    0.6584808   -8.4166218    659.89003  0.014559395  0.013726538            3 
 3778000   0.64239199   -8.3966275    658.15615  0.014517296  0.013721674            3 
 3779000   0.64469821   -8.4283968    657.63855  0.014502041  0.013716816            6 
 3780000   0.64910436   -8.3959756    659.81247   0.01454613  0.013711955            4 
 3781000    0.6564217   -8.3974103    659.67469  0.014539246  0.013707098            8 
 3782000   0.64559336   -8.4110066    659.20059  0.014524956  0.013702238            4 
 3783000   0.63754177   -8.4100795    659.62436  0.014530451  0.013697386            3 
 3784000   0.64050619   -8.3970489    658.81014   0.01450868  0.013692535            3 
 3785000   0.66253845   -8.4008576    659.39747  0.014517778  0.013687687            2 
 3786000   0.64743739   -8.3925342    660.28816  0.014533548  0.013682838            1 
 3787000   0.64080933   -8.3952597    659.83339  0.014519703  0.013677991            3 
 3788000   0.65815255   -8.3977907    659.66778  0.014512227  0.013673151            3 
 3789000   0.64459862   -8.4171466    659.47089  0.014504066  0.013668308            3 
 3790000   0.64938847   -8.3840439    659.37597  0.014498152  0.013663467            2 
 3791000   0.63869397   -8.4246644    659.46148  0.014496208  0.013658629            2 
 3792000   0.64028015   -8.4056227    657.64358  0.014452435  0.013653785            3 
 3793000   0.64116206   -8.4097149    657.87744  0.014453762  0.013648946            2 
 3794000   0.64509219   -8.4013421    658.89565  0.014472317  0.013644105            3 
 3795000   0.64565926   -8.4164647    658.01523  0.014449171  0.013639269            3 
 3796000   0.64478788   -8.3928366    658.88156  0.014464383  0.013634442            2 
 3797000    0.6508616   -8.4223372    659.05833  0.014464453  0.013629614            2 
 3798000   0.63675106   -8.4204789    657.92285   0.01443573  0.013624779            1 
 3799000   0.63388485   -8.4126028    659.27597  0.014461612  0.013619941            2 
 3800000   0.64346876   -8.3914711     658.4816  0.014440386  0.013615118            2 
 3801000   0.64098574   -8.4064699    658.53607  0.014437781  0.013610296            2 
 3802000    0.6477413   -8.3799811    659.83268  0.014462403  0.013605483            1 
 3803000   0.62544189   -8.4156433    659.77173  0.014457265   0.01360067            2 
 3804000   0.63306477   -8.4321613    658.77445  0.014431617  0.013595857            2 
 3805000   0.65962069   -8.4140274    658.28406  0.014417084  0.013591052            1 
 3806000   0.64136461    -8.396929     658.5477  0.014419069  0.013586237            3 
 3807000   0.64878915   -8.4266161    657.16278  0.014384966  0.013581429            3 
 3808000   0.65248045   -8.4126366    658.86658  0.014418474  0.013576632            2 
 3809000   0.63703829    -8.405182     659.0784  0.014419323  0.013571844            4 
 3810000    0.6441978   -8.4141573    658.53131  0.014403572  0.013567045            3 
 3811000    0.6421359   -8.3888347    659.20625  0.014414551  0.013562248            2 
 3812000    0.6431345   -8.3979614    658.84604  0.014402895  0.013557446            2 
 3813000   0.64297564   -8.4155349    658.21653   0.01438536  0.013552645            3 
 3814000   0.62811804   -8.4046227    658.67115  0.014391521  0.013547855            3 
 3815000   0.65168514   -8.4054874     657.8584  0.014369996  0.013543065            3 
 3816000   0.64392735   -8.4072719    658.37464  0.014377503  0.013538273            3 
 3817000   0.62426085    -8.428154    659.06956  0.014388908   0.01353348            2 
 3818000   0.64382532   -8.4078467    659.28496  0.014389841  0.013528686            2 
 3819000   0.64363175   -8.4026342    658.99805  0.014379813  0.013523895            2 
 3820000   0.64057568   -8.4102414    659.23653  0.014381251  0.013519108            3 
 3821000   0.62679396   -8.3963279    659.27401  0.014378304  0.013514314            4 
 3822000   0.62558126   -8.4192578    659.24267  0.014373859  0.013509531            1 
 3823000   0.63512797   -8.4222781    658.73279  0.014358985  0.013504747            2 
 3824000   0.63153899   -8.4242417    659.91041  0.014380893  0.013499968            2 
 3825000   0.63983675   -8.4248341    658.54745  0.014347439  0.013495192            2 
 3826000   0.64687613   -8.3997668    658.20801  0.014336296  0.013490423            3 
 3827000   0.63737841    -8.420756    658.28541  0.014334235  0.013485644            2 
 3828000   0.65560789   -8.4064283    658.97295  0.014345458   0.01348087            4 
 3829000   0.64878011   -8.4206527    658.53906  0.014332268  0.013476109            2 
 3830000   0.63808568   -8.4209508    659.32689  0.014345668  0.013471341            1 
 3831000   0.63169834   -8.4159684    659.51802  0.014346081  0.013466577            1 
 3832000   0.63705992   -8.4259948    659.31617  0.014337947   0.01346181            3 
 3833000   0.64590884   -8.3977612     658.5793  0.014318186  0.013457048            2 
 3834000   0.65458657   -8.4075209    657.46116  0.014290149  0.013452289            2 
 3835000   0.63846228   -8.4200644    659.22795  0.014324814   0.01344753            4 
 3836000   0.63084423   -8.4269142    658.71592  0.014309956  0.013442772            3 
 3837000   0.62211529   -8.4133743    657.96185   0.01428985  0.013438021            2 
 3838000   0.64192849   -8.4268826    659.04552  0.014309656  0.013433275            2 
 3839000    0.6386633   -8.4161483    658.87702  0.014302271  0.013428522            1 
 3840000    0.6463294   -8.3920105    659.02585  0.014301776  0.013423777            2 
 3841000   0.61942379   -8.4166898    658.59496  0.014288704  0.013419028            2 
 3842000   0.64190775   -8.4078829    657.97217  0.014271477  0.013414283            2 
 3843000   0.62941017   -8.4152323    659.80811  0.014307575  0.013409544            1 
 3844000   0.64658152    -8.407299    658.81324  0.014282285  0.013404817            2 
 3845000   0.62626339   -8.4388385    659.20721  0.014287109  0.013400077            3 
 3846000   0.63748416   -8.4132247     659.6209  0.014292358  0.013395338            2 
 3847000   0.62427021   -8.4087748    658.99519  0.014275089  0.013390607            3 
 3848000   0.62798792   -8.4315799    658.25867  0.014255428  0.013385872            2 
 3849000   0.62991449   -8.4031041    659.12874  0.014270563  0.013381139            2 
 3850000   0.64627944   -8.4137134    659.13374  0.014266964  0.013376407            1 
 3851000   0.63056134    -8.424917    657.88762  0.014236294  0.013371677            2 
 3852000   0.61972876   -8.4353522    656.91713  0.014211603  0.013366948            3 
 3853000   0.64551915   -8.4518788    657.33794  0.014217016  0.013362216            3 
 3854000   0.63678124   -8.4570629    657.82607  0.014223881  0.013357486            1 
 3855000   0.63838167   -8.4396093    659.70514  0.014260812  0.013352759            3 
 3856000    0.6528894   -8.4417948    657.18462  0.014202641  0.013348024            2 
 3857000   0.62875636   -8.4426159    657.71381  0.014210393  0.013343301            2 
 3858000   0.64208062   -8.4256011    658.38624  0.014221234  0.013338576            2 
 3859000   0.64232765    -8.436306     658.7122  0.014224588  0.013333854            7 
 3860000   0.64038653   -8.4025169    658.41669  0.014214523  0.013329144            1 
 3861000   0.62728965   -8.4243913    659.68729  0.014238265   0.01332443            2 
 3862000   0.63541336    -8.423873    658.40069  0.014206816  0.013319709            2 
 3863000   0.62908333   -8.4340404    657.81521  0.014190508  0.013314993            2 
 3864000   0.63665329   -8.4621202    657.94276  0.014189587  0.013310281            3 
 3865000   0.64402886   -8.4359808     658.8546  0.014205576   0.01330557            2 
 3866000   0.64853116   -8.4422311    657.74022   0.01417788  0.013300867            3 
 3867000   0.63216951   -8.4173442    657.30575  0.014164851  0.013296167            1 
 3868000   0.64453101   -8.4212591    659.32223  0.014204633  0.013291468            2 
 3869000   0.62341974   -8.4439552    657.71571  0.014166359   0.01328677            5 
 3870000   0.61954219   -8.4591155    657.87731  0.014166178  0.013282065            2 
 3871000   0.62307419   -8.4401857    658.28016  0.014171191  0.013277364            1 
 3872000   0.63644797   -8.4488356    657.75122  0.014156147  0.013272674            4 
 3873000   0.62671951   -8.4577691    658.58129  0.014170352  0.013267983            2 
 3874000   0.64074958   -8.4249477    658.32989  0.014161287  0.013263292            1 
 3875000    0.6349425   -8.4493603    658.16084  0.014153997  0.013258602            3 
 3876000   0.62552188   -8.4534361    659.13287  0.014171243  0.013253916            4 
 3877000   0.63361935   -8.4468527    658.62905  0.014156759  0.013249228            3 
 3878000   0.64608201   -8.4434391    658.90906  0.014159125  0.013244547            1 
 3879000   0.63249157   -8.4479781    659.11615  0.014159924  0.013239868            3 
 3880000   0.62213588   -8.4323651    657.88914  0.014129921  0.013235182            2 
 3881000   0.62502131   -8.4529698     657.5951  0.014119967  0.013230508            2 
 3882000   0.64343225    -8.426253    658.83745  0.014142999  0.013225829            3 
 3883000   0.63941546   -8.4784552    658.42993  0.014130611  0.013221155            3 
 3884000   0.62372085   -8.4590439    657.59573  0.014109074  0.013216477            2 
 3885000   0.63548294   -8.4440328    658.87468  0.014132876  0.013211798            2 
 3886000   0.61961587   -8.4472429    657.41402  0.014097916  0.013207121            2 
 3887000   0.63466545   -8.4642561    658.07326  0.014108423  0.013202449            2 
 3888000   0.62443732   -8.4406389    658.32423  0.014110173  0.013197783            6 
 3889000   0.63114762   -8.4537772    657.92274  0.014097942  0.013193121            2 
 3890000   0.63162551   -8.4321806     658.4053  0.014104655  0.013188456            6 
 3891000   0.62215375   -8.4589241    657.75826  0.014087172  0.013183791            2 
 3892000   0.63974075   -8.4605674     658.8353  0.014106614  0.013179129            3 
 3893000   0.62273624   -8.4668411    659.07649  0.014108153  0.013174473            2 
 3894000   0.63291483   -8.4469761    657.95041  0.014080432  0.013169807            2 
 3895000    0.6296332    -8.440819    657.94971  0.014076802  0.013165147            2 
 3896000   0.62138877   -8.4643099    657.91068  0.014072354  0.013160485            3 
 3897000   0.63459789   -8.4616814    659.03223  0.014092726  0.013155825            2 
 3898000    0.6367087   -8.4513824    657.52548  0.014056898  0.013151169            2 
 3899000   0.62930587   -8.4493449    657.99338  0.014063294  0.013146514            4 
 3900000   0.62886077   -8.4308696    657.45423  0.014048167  0.013141869            4 
 3901000   0.63323241   -8.4669838    657.82377   0.01405246  0.013137219            4 
 3902000   0.62461617   -8.4559291     657.9064  0.014050624  0.013132558            5 
 3903000   0.61284344   -8.4693184    658.25314  0.014054427  0.013127907            2 
 3904000   0.62911466   -8.4509811     656.8879  0.014021685  0.013123256            4 
 3905000    0.6096175    -8.445254    657.87312  0.014039119  0.013118614            5 
 3906000   0.62289492   -8.4859355    657.18897  0.014020929  0.013113963            3 
 3907000   0.62289012   -8.4706733    655.90097  0.013989868  0.013109313            5 
 3908000   0.61641971   -8.4598599    658.30062  0.014037458  0.013104667            3 
 3909000    0.6319929   -8.4770337    656.76522  0.014001135  0.013100022            6 
 3910000   0.65463599    -8.460267    657.93337   0.01402245  0.013095388            2 
 3911000   0.62145877   -8.4619327    656.78915  0.013994485  0.013090759            2 
 3912000   0.62336936   -8.4580888    658.70128  0.014031639  0.013086124            3 
 3913000   0.62411718   -8.4961162    656.34195  0.013977808  0.013081494            2 
 3914000   0.62827217   -8.4711896    657.80594  0.014005407  0.013076862            2 
 3915000   0.60790143   -8.4573116    657.27094  0.013990441  0.013072234            2 
 3916000   0.62824371   -8.4358217    656.72655  0.013975284  0.013067613            3 
 3917000    0.6176156   -8.4747115    657.05815  0.013978771  0.013062991            3 
 3918000   0.62148205   -8.4334997    658.62832    0.0140086  0.013058369            1 
 3919000   0.61902866   -8.4474922     658.4159  0.014000508  0.013053753            2 
 3920000   0.63472651   -8.4564919    656.48893  0.013955972  0.013049139            3 
 3921000   0.60941354   -8.4714821    656.85784  0.013960253   0.01304452            3 
 3922000   0.63277559   -8.4505575    657.92904  0.013979454  0.013039907            2 
 3923000   0.61895127   -8.4690551    657.04676  0.013957149  0.013035293            5 
 3924000   0.62323405   -8.4646259    658.35652  0.013981408  0.013030684            2 
 3925000   0.62270987   -8.4530487    657.45979  0.013958807  0.013026078            4 
 3926000   0.63888916   -8.4528948    657.42254   0.01395446   0.01302148            4 
 3927000   0.61835776   -8.4412502    657.87066  0.013960416  0.013016877            4 
 3928000   0.61317247   -8.4503167    657.23981  0.013943479  0.013012273            3 
 3929000   0.62199196   -8.4466127    658.45928  0.013965795  0.013007674            4 
 3930000   0.60871712   -8.4721506    657.70811  0.013946313  0.013003075            3 
 3931000   0.61777148   -8.4443542    658.52868   0.01396016  0.012998481            1 
 3932000   0.62338514   -8.4545673    657.70426  0.013939137   0.01299389            2 
 3933000   0.62854751   -8.4504867    658.29719  0.013948156  0.012989302            2 
 3934000   0.62306993   -8.4702347    657.76031  0.013933238  0.012984715            3 
 3935000   0.61678907   -8.4497381    657.65815  0.013927534  0.012980127            2 
 3936000   0.61668073   -8.4578678    657.25823  0.013915528  0.012975542            3 
 3937000   0.61688952    -8.452173    657.56629  0.013918514  0.012970956            2 
 3938000    0.6296132   -8.4462368    658.70178  0.013939008  0.012966371            4 
 3939000   0.62147033   -8.4437181    657.46824  0.013909373  0.012961795            3 
 3940000    0.6260697   -8.4522526    658.15589  0.013920387  0.012957216            2 
 3941000   0.62246128   -8.4599839    657.42671  0.013901436  0.012952639            3 
 3942000   0.60605506   -8.4472921    657.07025  0.013890374  0.012948062            1 
 3943000   0.62132162   -8.4503217    658.29981  0.013912837  0.012943482            3 
 3944000   0.61424591   -8.4620259    657.71571  0.013896968   0.01293891            4 
 3945000   0.61747194   -8.4673695    657.85566  0.013896402  0.012934333            3 
 3946000   0.62408048   -8.4617911    657.57588  0.013886972  0.012929762            2 
 3947000    0.6258051   -8.4660397    657.89798  0.013890254  0.012925204            3 
 3948000   0.61026259   -8.4695338     657.9901   0.01388868  0.012920646            1 
 3949000   0.62426199   -8.4529059    656.95207  0.013863258  0.012916088            5 
 3950000   0.63281603   -8.4787091     657.5751  0.013872892   0.01291153            2 
 3951000   0.62572651   -8.4536308    658.17321  0.013881996  0.012906975            4 
 3952000   0.63249764   -8.4547181    656.41936  0.013841501  0.012902417            5 
 3953000   0.60731311   -8.4491171     658.5034  0.013881934  0.012897864            3 
 3954000    0.6147525   -8.4558009    657.36284  0.013854384  0.012893319            4 
 3955000   0.63649151   -8.4799273    657.61387  0.013856171  0.012888778            4 
 3956000   0.63281722   -8.4474945    657.49228  0.013850107  0.012884234            2 
 3957000   0.62074362   -8.4668156    659.08362   0.01388012  0.012879683            3 
 3958000   0.62522381   -8.4595879    656.91782  0.013831014  0.012875139            2 
 3959000   0.62666472   -8.4752299     657.0002  0.013829254  0.012870599            4 
 3960000   0.61241651   -8.4746716    658.91371  0.013866029  0.012866058            3 
 3961000   0.61133699   -8.4474405    658.20945  0.013847712  0.012861521            2 
 3962000   0.62315017   -8.4635538     656.7946  0.013814458  0.012856979            2 
 3963000   0.62973812   -8.4596482    657.37787  0.013823237  0.012852438            3 
 3964000   0.62767361   -8.4577177    657.42325  0.013820704  0.012847902            4 
 3965000   0.61571406   -8.4677178    657.72606  0.013823583  0.012843368            4 
 3966000   0.61055878   -8.4673871    656.40978  0.013792439  0.012838838            2 
 3967000    0.6215207    -8.476535    656.15975   0.01378371  0.012834305            2 
 3968000   0.60927921   -8.4732366    657.01167  0.013798128   0.01282978            3 
 3969000    0.6061126   -8.4519368    658.72728  0.013830673  0.012825254            5 
 3970000   0.62431476   -8.4700946    658.99975  0.013832908  0.012820736            1 
 3971000   0.61280307   -8.4711112    656.90599  0.013785486  0.012816213            2 
 3972000   0.62322963   -8.4391759    658.23142  0.013809823  0.012811692            1 
 3973000   0.61480267   -8.4634559     658.3099  0.013807993  0.012807174            3 
 3974000   0.62838607   -8.4598681    657.50464  0.013787633  0.012802653            4 
 3975000   0.61513718   -8.4546064    657.79025  0.013790152  0.012798131            5 
 3976000   0.60909594    -8.470841    657.38605  0.013778212   0.01279362            1 
 3977000   0.59503994    -8.506663     656.5543  0.013757319  0.012789106            7 
 3978000   0.60623862   -8.4969643    656.54481  0.013753662  0.012784585            3 
 3979000   0.59693243   -8.4736617     657.4813  0.013769819  0.012780071            2 
 3980000   0.62544836   -8.4762383    657.93482  0.013775855  0.012775562            2 
 3981000   0.60723188   -8.4882806    657.91461  0.013771971  0.012771051            3 
 3982000   0.61699299   -8.4714581    657.99169  0.013770126  0.012766532            2 
 3983000   0.62341094   -8.4687206    657.43091  0.013754936  0.012762027            2 
 3984000   0.61612279   -8.4775827    657.08779  0.013744306  0.012757524            2 
 3985000   0.60879097    -8.481061    658.11381  0.013762313  0.012753022            2 
 3986000   0.62408921   -8.4953299    657.09278  0.013737514  0.012748525            2 
 3987000   0.60669185   -8.4799642    658.07773  0.013754655   0.01274403            1 
 3988000   0.61150397   -8.4711612    658.30257  0.013755905  0.012739533            1 
 3989000   0.60854803   -8.4660992    657.78409  0.013741625  0.012735043            2 
 3990000   0.61978439   -8.4550231    657.66675   0.01373573  0.012730544            2 
 3991000   0.60425344   -8.4579976    658.38974  0.013747384  0.012726057            1 
 3992000   0.61462373   -8.4596574    658.10925  0.013738086   0.01272157            2 
 3993000   0.61593162   -8.4830118    658.02717  0.013732932  0.012717093            3 
 3994000   0.61657907   -8.4528138    657.32984  0.013714944  0.012712614            2 
 3995000   0.62363648    -8.500741    657.31636   0.01371123  0.012708136            2 
 3996000   0.60617467   -8.4834322    657.18219  0.013705001  0.012703659            3 
 3997000   0.60886568   -8.4711869    657.96458  0.013717884  0.012699189            2 
 3998000    0.6168953   -8.4810528    656.88297  0.013691908  0.012694721            2 
 3999000   0.61038612   -8.4742105    656.80118   0.01368678  0.012690252            1 
 4000000   0.61157197   -8.4643229    658.15523  0.013711567  0.012685782            1 
 4001000    0.6121534   -8.4769687    656.50743   0.01367382  0.012681313            3 
 4002000   0.59642637   -8.4533873    658.23723  0.013706422  0.012676842            1 
 4003000   0.62229642   -8.4717732    656.81373  0.013673364  0.012672367            2 
 4004000   0.60322081   -8.4726966    657.88875  0.013692323    0.0126679            2 
 4005000   0.60750583   -8.4812805    657.42335  0.013679221  0.012663433            1 
 4006000   0.60791792   -8.4775079     657.5881  0.013679233  0.012658976            1 
 4007000   0.60683716   -8.4735176    656.66846  0.013656694  0.012654513            4 
 4008000    0.6096046   -8.4788256    658.04912  0.013681993  0.012650048            2 
 4009000   0.60890915   -8.4986855    657.01913   0.01365717  0.012645582            2 
 4010000   0.59943854   -8.4964129    656.96441  0.013652627  0.012641126            4 
 4011000   0.61513453   -8.4896029    657.94016  0.013669496  0.012636668            3 
 4012000   0.61137605   -8.4672886    658.16887  0.013670839  0.012632209            1 
 4013000   0.60821426   -8.4647632    656.29318  0.013628482  0.012627757            1 
 4014000   0.61057715    -8.479186    656.69753  0.013633481   0.01262331            1 
 4015000   0.60919408   -8.5009439    657.35136  0.013643656  0.012618854            1 
 4016000   0.60892074   -8.4824391    657.20831  0.013637291  0.012614395            2 
 4017000   0.61668017   -8.4858322    657.80095   0.01364619  0.012609946            3 
 4018000   0.61256473   -8.4925462    657.14991  0.013629291  0.012605494            1 
 4019000   0.61581011   -8.4871553    656.43968  0.013611174  0.012601044            2 
 4020000   0.60212693   -8.4577371    656.84066    0.0136161  0.012596599            2 
 4021000    0.6218414   -8.4775367    657.75071  0.013631574  0.012592155            4 
 4022000   0.62880459   -8.4764443    658.34967  0.013640595  0.012587715            5 
 4023000   0.60132749   -8.4933999    656.74034  0.013603868  0.012583278            6 
 4024000   0.61244803   -8.4700674    656.32209  0.013591826  0.012578844            3 
 4025000   0.61173308   -8.4820417    656.55719  0.013593317  0.012574407            3 
 4026000    0.6218068   -8.5048416     656.8844  0.013596713  0.012569969            1 
 4027000   0.60015929   -8.4720271    658.14291   0.01361938  0.012565527            2 
 4028000   0.60639005   -8.4811017    657.22408  0.013596989  0.012561089            2 
 4029000   0.61233069   -8.4911572    656.67174   0.01358219  0.012556653            3 
 4030000   0.60660103   -8.4984018    656.97929   0.01358518  0.012552219            4 
 4031000   0.61234599   -8.4698028    657.84636  0.013599735  0.012547786            2 
 4032000   0.61347937   -8.5026835    657.88551  0.013597171  0.012543359            3 
 4033000   0.61542069   -8.4797468     657.1193  0.013577967   0.01253893            3 
 4034000   0.61452937   -8.4883258     656.7615   0.01356721  0.012534504            2 
 4035000   0.61147307    -8.513396    657.57116  0.013580569  0.012530074            2 
 4036000   0.60626975   -8.4951101    656.33418  0.013551664  0.012525653            2 
 4037000   0.60712608   -8.4969344    657.33726  0.013569013  0.012521234            4 
 4038000   0.59515056   -8.4883315    655.83346  0.013534618   0.01251681            4 
 4039000   0.61388565   -8.4889985    656.92538  0.013553796  0.012512391            2 
 4040000   0.61573576   -8.4956279      655.693  0.013525021   0.01250798            5 
 4041000   0.60908225   -8.4928088     656.7637  0.013543754  0.012503569            5 
 4042000   0.60456464   -8.4781024    655.90593  0.013522718   0.01249916            2 
 4043000   0.59104234   -8.4984276    655.94646  0.013520209  0.012494751            4 
 4044000   0.60059794   -8.4936477    656.57926  0.013529906  0.012490341            3 
 4045000   0.59315406   -8.4874394    656.11821  0.013517062  0.012485927            1 
 4046000   0.59625744   -8.4998332    655.71411  0.013505399  0.012481518            2 
 4047000   0.61818188   -8.5005916    656.95049   0.01352752  0.012477113            1 
 4048000   0.59989139   -8.5132037    656.78371  0.013520745   0.01247271            4 
 4049000   0.61667966   -8.5017763    656.92083  0.013520228  0.012468309            1 
 4050000   0.61051339   -8.5124147    657.16887  0.013521993  0.012463904            5 
 4051000   0.59610606   -8.4984419    656.41552  0.013503158  0.012459502            1 
 4052000   0.61632811   -8.5288363    655.37503  0.013478427  0.012455105            5 
 4053000   0.59212725    -8.500102    656.66707  0.013501667  0.012450702            2 
 4054000   0.60916288   -8.4969145    656.40005  0.013492848  0.012446304            4 
 4055000   0.60132107   -8.5080272    656.75942  0.013496906  0.012441915            3 
 4056000   0.60364688    -8.509363    657.57213  0.013510276  0.012437522            3 
 4057000   0.61143985   -8.4979701    657.19803  0.013499261  0.012433133            1 
 4058000   0.59669095   -8.4946018    655.80368  0.013467301  0.012428741            1 
 4059000    0.5971273   -8.5074122    657.08609  0.013490311  0.012424355            2 
 4060000   0.60134155    -8.507767    657.50377  0.013495562  0.012419974            1 
 4061000   0.57935109   -8.5103175    656.25349  0.013466582  0.012415589            2 
 4062000   0.59732482   -8.5068614    656.37587  0.013465778  0.012411207            3 
 4063000   0.59669659   -8.4965745     656.7167  0.013469454  0.012406824            1 
 4064000   0.60349846   -8.5025718    656.68338  0.013465457  0.012402442            2 
 4065000   0.58858716    -8.510771    656.16306  0.013451477  0.012398064            3 
 4066000   0.61320956   -8.5225254     655.6645  0.013437951  0.012393684            2 
 4067000   0.61432417   -8.5086121    655.24596  0.013426071  0.012389303            3 
 4068000   0.60242106   -8.5024926    656.17238  0.013441748  0.012384925            4 
 4069000   0.59811694     -8.48913    656.12807  0.013437537  0.012380549            2 
 4070000   0.60386286   -8.5388837    655.48586  0.013421086  0.012376173            3 
 4071000   0.61039065   -8.4867907    655.89766  0.013426219  0.012371796            1 
 4072000   0.60712058   -8.5328634    656.30759  0.013431311  0.012367419            1 
 4073000   0.60998882   -8.5143186    655.84532  0.013418555  0.012363054            1 
 4074000   0.60177005   -8.4941364    657.66714  0.013452527  0.012358689            1 
 4075000   0.60647647     -8.50518    656.58684  0.013427134  0.012354329            2 
 4076000   0.59565136   -8.5094603    657.21935  0.013436771   0.01234997            2 
 4077000   0.59882162   -8.5147838    657.20728  0.013433229  0.012345612            2 
 4078000   0.59116067   -8.5373987    655.73032  0.013399753   0.01234125            2 
 4079000   0.60752766   -8.5077072      655.971  0.013401385  0.012336894            3 
 4080000   0.59010963   -8.5055938    656.07105  0.013400144  0.012332535            2 
 4081000   0.59747082   -8.5141713    656.58247  0.013407304  0.012328184            3 
 4082000   0.59913059   -8.5135418     655.8887  0.013389856  0.012323838            1 
 4083000   0.59466991   -8.5117389    655.97367  0.013388311  0.012319491            3 
 4084000   0.58563432   -8.5081556    656.78825  0.013401654  0.012315144            3 
 4085000   0.59513814   -8.4997401    656.37168  0.013389875  0.012310796            4 
 4086000   0.59363965   -8.5135065    656.56628  0.013390567  0.012306449            2 
 4087000   0.60196558    -8.511325    656.29398  0.013381739  0.012302102            1 
 4088000   0.60939555   -8.5337168     655.3848  0.013359932  0.012297755            1 
 4089000    0.5796113   -8.5186422      654.645  0.013341587  0.012293406            1 
 4090000   0.59949923   -8.5427051    655.24671  0.013350585  0.012289052            1 
 4091000   0.60871377   -8.5201613     656.1302  0.013365318  0.012284703            1 
 4092000    0.5898834   -8.5184164     655.4555  0.013348312  0.012280358            5 
 4093000   0.59959359   -8.5312029    655.13432  0.013338511   0.01227602            2 
 4094000   0.60106487   -8.5420982    656.11482  0.013355211  0.012271677            1 
 4095000   0.60077084   -8.5121961    656.89889  0.013367906  0.012267341            4 
 4096000   0.59846428   -8.5314058    655.57191  0.013337645     0.012263            2 
 4097000   0.59672718   -8.5316725     654.6536  0.013315711  0.012258663            2 
 4098000   0.61258665   -8.5223502    655.04328  0.013320386  0.012254324            1 
 4099000   0.60372625   -8.5204934    655.30991  0.013322557  0.012249987            3 
 4100000   0.59737623   -8.5203304    655.65096  0.013326239  0.012245655            2 
 4101000    0.6036557   -8.5120371     654.6507  0.013302664  0.012241322            3 
 4102000    0.5965002   -8.5321924    655.14653  0.013309494  0.012236994            3 
 4103000   0.58587977   -8.5393898     654.3383  0.013289835  0.012232673            2 
 4104000   0.60995508   -8.5316668    655.88456  0.013317994  0.012228345            3 
 4105000   0.60377315   -8.5146908    656.51405  0.013327528  0.012224024            2 
 4106000   0.59836304   -8.5337334    655.04898  0.013294548  0.012219704            2 
 4107000   0.58300023    -8.524132    655.89337  0.013308444  0.012215385            1 
 4108000   0.58085576   -8.5085775    656.18545   0.01331113   0.01221107            2 
 4109000   0.59618406   -8.5294721    654.81275  0.013280051  0.012206761            2 
 4110000   0.60532573   -8.5373517    655.29551  0.013286608  0.012202447            1 
 4111000   0.59225552   -8.5268231    655.43585  0.013286221  0.012198134            2 
 4112000   0.59107915   -8.5186618    655.96027  0.013293618  0.012193822            3 
 4113000   0.59106831   -8.4999634    655.30229  0.013277054   0.01218951            3 
 4114000   0.59954083   -8.5338647    656.25403  0.013293106  0.012185201            1 
 4115000   0.58607195     -8.50964    654.69499  0.013258303  0.012180898            2 
 4116000   0.59785708   -8.5559116    655.22632  0.013265839   0.01217659            4 
 4117000   0.59323921   -8.5300723    654.70702  0.013252105  0.012172286            1 
 4118000   0.58567326   -8.5327346    654.69556  0.013248655   0.01216798            3 
 4119000   0.60058106   -8.5286939    654.97306  0.013251053  0.012163672            2 
 4120000   0.58576052   -8.5336067    655.70171  0.013262575  0.012159375            1 
 4121000   0.58718344   -8.5462004    654.80051  0.013241133  0.012155077            1 
 4122000   0.59909791   -8.5311802    655.88125   0.01325977  0.012150779            3 
 4123000   0.60400746   -8.5315902    654.99304  0.013238601  0.012146488            2 
 4124000   0.57682773   -8.5358921    655.13049  0.013238169    0.0121422            4 
 4125000   0.59329354   -8.5076494    656.23802  0.013257334  0.012137908            2 
 4126000   0.58739352   -8.5363142    655.00746  0.013229267  0.012133622            2 
 4127000   0.59602333   -8.5420367     654.7659  0.013221184  0.012129335            3 
 4128000   0.59393983   -8.5151568    656.58285   0.01325466  0.012125051            2 
 4129000   0.59849394   -8.5459924    655.54538  0.013230512  0.012120767            1 
 4130000   0.59645797   -8.5423558    654.72224  0.013210699  0.012116487            1 
 4131000   0.58984769   -8.5166768    655.43528  0.013221885  0.012112209            4 
 4132000   0.58001568   -8.5365746     655.6556  0.013223128  0.012107934            1 
 4133000   0.58753891   -8.5152207    655.48811  0.013216552  0.012103661            2 
 4134000   0.58286868   -8.5258626    656.75327  0.013238858  0.012099389            3 
 4135000   0.58509845   -8.5416574    655.36455  0.013207669  0.012095118            2 
 4136000   0.59233507   -8.5206924    654.23289  0.013181675   0.01209085            2 
 4137000   0.58820503   -8.5218818    655.51515  0.013204318  0.012086582            2 
 4138000   0.59642275   -8.5461788    655.37518  0.013198308  0.012082317            6 
 4139000   0.58673615   -8.5499104    654.74812  0.013182494  0.012078052            4 
 4140000   0.59123765   -8.5450174     655.0616   0.01318562  0.012073783            3 
 4141000   0.57839268   -8.5626806     654.7993  0.013177157  0.012069523            2 
 4142000   0.59082455   -8.5314679    656.33784   0.01320493  0.012065263            2 
 4143000   0.60624384   -8.5396765    655.51924  0.013185277  0.012061006            2 
 4144000    0.5974083   -8.5323071    654.85733  0.013168785  0.012056754            1 
 4145000   0.58473328   -8.5423135     655.4207  0.013176934  0.012052504            1 
 4146000   0.58738456   -8.5518896    654.37288  0.013152695  0.012048248            1 
 4147000   0.58134019   -8.5273701    655.81252  0.013178453  0.012043991            3 
 4148000   0.58836914   -8.5374545    654.79086   0.01315475  0.012039744            3 
 4149000   0.58772422   -8.5480016     654.7344  0.013150446  0.012035498            2 
 4150000   0.58776475   -8.5253075    654.79292  0.013148452  0.012031251            2 
 4151000   0.59468854   -8.5566109     654.8965  0.013147364  0.012027001            2 
 4152000   0.58534058   -8.5356141    655.18991  0.013150087  0.012022762            1 
 4153000   0.58313967   -8.5525728    655.40366  0.013151209   0.01201852            2 
 4154000   0.58490625   -8.5243228    655.44922  0.013148957  0.012014286            3 
 4155000   0.59873827   -8.5447045    655.13681  0.013139527   0.01201005            2 
 4156000   0.58184936   -8.5385423    655.35758  0.013140792  0.012005816            3 
 4157000   0.59036249   -8.5263365    655.65475  0.013143588  0.012001581            2 
 4158000   0.58896038   -8.5361853    655.62694   0.01313987  0.011997349            1 
 4159000   0.59952084   -8.5281421    655.77149  0.013139607  0.011993123            3 
 4160000   0.58665256   -8.5359588    654.46857  0.013110348  0.011988899            3 
 4161000   0.58127641   -8.5472248    654.17534  0.013101325  0.011984674            1 
 4162000   0.58978224   -8.5604409    655.76587  0.013130023  0.011980445            2 
 4163000   0.58494652   -8.5459216    655.23666  0.013116276  0.011976218            2 
 4164000     0.585961   -8.5565574    656.83515  0.013145116  0.011971993            1 
 4165000   0.59691227   -8.5259199    655.32073  0.013111659  0.011967778            2 
 4166000   0.57904598   -8.5367177    653.88085   0.01307971  0.011963561            2 
 4167000    0.5932317   -8.5318554    655.95421  0.013118035  0.011959349            1 
 4168000   0.57985904   -8.5269141    655.53356  0.013106477   0.01195514            4 
 4169000   0.57615345   -8.5556879    654.69758  0.013086623  0.011950929            3 
 4170000   0.58836304   -8.5452787    656.26904  0.013114889  0.011946719            2 
 4171000   0.58814456   -8.5630902    655.14145  0.013089216  0.011942513            2 
 4172000   0.58119222   -8.5514076    654.39706   0.01307121  0.011938308            2 
 4173000   0.57788353   -8.5540331    654.48167  0.013069767  0.011934097            3 
 4174000   0.58730642   -8.5351502    654.15183  0.013060051   0.01192989            3 
 4175000   0.58453872   -8.5397567    655.00188   0.01307389  0.011925687            3 
 4176000   0.59512094   -8.5419483    655.29693  0.013076647  0.011921483            2 
 4177000   0.59032301   -8.5440801    654.81711  0.013063944  0.011917283            1 
 4178000   0.59349186   -8.5407012    655.61986  0.013076828  0.011913082            2 
 4179000   0.58942674   -8.5468089     655.5386  0.013072079  0.011908887            2 
 4180000   0.58262884   -8.5362996    655.08326  0.013059874  0.011904696            2 
 4181000    0.5691812    -8.547799    655.55281  0.013066109  0.011900509            2 
 4182000   0.58021577   -8.5507533    655.00649  0.013052098  0.011896328            2 
 4183000    0.5773065   -8.5635005     655.3527  0.013055875  0.011892147            3 
 4184000   0.58460869   -8.5498045    655.04228  0.013046572  0.011887964            3 
 4185000   0.58010125   -8.5508276    655.05723  0.013043752  0.011883787            2 
 4186000   0.58205192   -8.5544045    654.83894   0.01303629  0.011879608            2 
 4187000   0.58771683   -8.5510441    655.28668  0.013042088  0.011875431            2 
 4188000    0.5798879   -8.5620171    656.05124  0.013054187  0.011871254            2 
 4189000   0.58436398   -8.5461944    653.80593  0.013006404  0.011867086            6 
 4190000   0.58864977   -8.5537689     654.7529  0.013022134  0.011862914            3 
 4191000    0.5818166   -8.5476928    654.84166  0.013020792  0.011858745            3 
 4192000   0.57246434   -8.5452071    655.44341  0.013029648  0.011854571            1 
 4193000   0.59841885   -8.5580798    656.20876  0.013041751    0.0118504            1 
 4194000   0.57756059   -8.5680424    654.02207  0.012995193  0.011846231            2 
 4195000   0.57857773   -8.5274957    656.03735  0.013032128  0.011842064            2 
 4196000    0.5849705   -8.5472788    654.39182  0.012996342  0.011837898            1 
 4197000   0.56382717   -8.5485723    655.65925  0.013018411  0.011833734            3 
 4198000   0.57474301   -8.5643713    655.07601  0.013003732  0.011829573            1 
 4199000   0.57998994   -8.5686832    654.35669   0.01298636  0.011825414            2 
 4200000   0.58174137   -8.5484504    653.41201  0.012964524  0.011821251            3 
 4201000    0.5818982   -8.5622195    653.99378  0.012972978   0.01181709            2 
 4202000   0.56314276   -8.5360808    655.09714  0.012991773  0.011812928            2 
 4203000    0.5790167   -8.5663766    655.72797  0.013001189  0.011808771            1 
 4204000   0.56908963   -8.5599928    654.96148  0.012982903  0.011804612            1 
 4205000   0.58605446   -8.5663472    653.82888   0.01295737   0.01180046            1 
 4206000   0.58089791   -8.5603153    654.33863  0.012964389  0.011796308            1 
 4207000   0.57167887   -8.5499342    655.96098  0.012993443  0.011792159            3 
 4208000   0.57516235   -8.5597002    654.48348  0.012961095  0.011788014            2 
 4209000   0.58449733   -8.5510596    654.94235  0.012967101  0.011783872            1 
 4210000   0.57958138   -8.5552808    655.05531  0.012966257   0.01177973            1 
 4211000    0.5736149   -8.5537452    654.84811  0.012959078   0.01177559            1 
 4212000   0.57168514    -8.551341    655.07582  0.012960506  0.011771449            3 
 4213000   0.57277734   -8.5484717    655.07825  0.012957478  0.011767308            3 
 4214000   0.59206342   -8.5378262    654.70726  0.012947066  0.011763168            3 
 4215000   0.57431977   -8.5654529    653.79533  0.012925965  0.011759033            1 
 4216000   0.58990662   -8.5568948    654.96356  0.012945991    0.0117549            3 
 4217000   0.58548206   -8.5499214    654.94344  0.012942523  0.011750768            1 
 4218000    0.5735433   -8.5312274    655.65339  0.012953481  0.011746637            1 
 4219000   0.58720127   -8.5587463     655.1813  0.012941086  0.011742512            2 
 4220000   0.56429194   -8.5767855     654.9888  0.012934218  0.011738392            2 
 4221000   0.58561598   -8.5372192    653.59502  0.012903637  0.011734271            5 
 4222000   0.56766255   -8.5699929     655.4378  0.012936953  0.011730151            2 
 4223000   0.57565497   -8.5556119    655.31057  0.012931379   0.01172603            2 
 4224000   0.58568005   -8.5626573    654.28341  0.012908053  0.011721915            2 
 4225000   0.58074051   -8.5563613     655.6158  0.012931278  0.011717802            1 
 4226000   0.56594467   -8.5346901    655.02686  0.012916605   0.01171369            3 
 4227000   0.58225943   -8.5644263    654.59144  0.012904965  0.011709574            1 
 4228000   0.58583991   -8.5590185    655.75047  0.012924757  0.011705458            2 
 4229000    0.5756398   -8.5836606    653.84613  0.012884175  0.011701348            1 
 4230000   0.56585334   -8.5607018    653.45343  0.012873393  0.011697238            2 
 4231000   0.58050799   -8.5427769    654.87516  0.012898353  0.011693131            3 
 4232000   0.58591182   -8.5608733    653.23587  0.012863025  0.011689025            3 
 4233000   0.56093173   -8.5392757    653.18067    0.0128589  0.011684917            1 
 4234000   0.57941166   -8.5343748    655.59534  0.012903388  0.011680816            2 
 4235000   0.55967391   -8.5498609    655.45241  0.012897529  0.011676715            1 
 4236000    0.5842642   -8.5710732    654.31851  0.012872177   0.01167262            3 
 4237000   0.57629592   -8.5701541    654.01393  0.012863149  0.011668526            2 
 4238000   0.57251881   -8.5566316    655.26508  0.012884715  0.011664429            2 
 4239000    0.5726414   -8.5647674    654.94465  0.012875377  0.011660337            2 
 4240000    0.5630539   -8.5725857     654.2057  0.012857816  0.011656239            3 
 4241000   0.57327879   -8.5673111    654.58561   0.01286225  0.011652141            3 
 4242000   0.57946299   -8.5677636    654.86557  0.012864717  0.011648051            3 
 4243000   0.58344009   -8.5467319    655.06844   0.01286567  0.011643958            3 
 4244000   0.57721623   -8.5763257    655.57879  0.012872659  0.011639876            1 
 4245000   0.57340895   -8.5735524    655.05431  0.012859331  0.011635788            2 
 4246000   0.55855941   -8.5705217    654.61163  0.012847614   0.01163171            2 
 4247000     0.573651    -8.561663    654.75535  0.012847409  0.011627631            3 
 4248000   0.56496308   -8.5542274    653.96545  0.012828889  0.011623552            3 
 4249000   0.56860294   -8.5489767    654.43911   0.01283516  0.011619468            1 
 4250000   0.56910478   -8.5773785    653.29284  0.012809663  0.011615386            2 
 4251000   0.56451849    -8.551213    653.02983  0.012801494  0.011611306            3 
 4252000   0.55484892   -8.5543199    654.66589  0.012830548   0.01160723            2 
 4253000   0.57529676    -8.585293    654.34646  0.012821272  0.011603154            2 
 4254000   0.57232664   -8.5648162    654.80867  0.012827313  0.011599083            1 
 4255000   0.57358129   -8.5767539    654.46336  0.012817535  0.011595014            2 
 4256000    0.5800419   -8.5717055    654.09542  0.012807319  0.011590942            2 
 4257000   0.57727262   -8.5615354    655.22547  0.012826432  0.011586877            1 
 4258000   0.56994261   -8.5534193      654.453  0.012808302   0.01158281            1 
 4259000    0.5793223   -8.5817015    653.82012  0.012792912  0.011578742            1 
 4260000   0.56550165   -8.5616456    654.03774  0.012794165  0.011574677            2 
 4261000   0.58036694   -8.5711255    654.36883  0.012797638  0.011570612            4 
 4262000   0.58477869   -8.5800102    655.60076  0.012818723  0.011566553            2 
 4263000   0.56666571    -8.572467    652.77258  0.012760431  0.011562494            1 
 4264000   0.57496691   -8.5870022    654.99202  0.012800813  0.011558434            2 
 4265000   0.55587974   -8.5724054    655.53662  0.012808453  0.011554383            3 
 4266000   0.56353434   -8.5871254    654.57156  0.012786599  0.011550331            1 
 4267000   0.56136712   -8.5673005    654.48849   0.01278198   0.01154628            1 
 4268000   0.57067275   -8.5820875    654.52459   0.01277969  0.011542227            2 
 4269000   0.56044175   -8.5629285    654.24735  0.012771284  0.011538176            3 
 4270000   0.56395083   -8.5738235    655.46303  0.012792019  0.011534131            3 
 4271000   0.56879191   -8.5599189    654.23493  0.012765061  0.011530089            3 
 4272000   0.56936778   -8.5609202    654.45661  0.012766398  0.011526049            3 
 4273000   0.56906806   -8.5697187    654.58569  0.012765927  0.011522014            4 
 4274000    0.5709214   -8.5681517    654.84016  0.012767902  0.011517977            2 
 4275000   0.57230615   -8.5531634     654.4687  0.012757675  0.011513939            1 
 4276000   0.54898302   -8.5886937    654.29343  0.012751275  0.011509908            2 
 4277000   0.57127395   -8.5668584    655.05344  0.012763102  0.011505878            5 
 4278000   0.56169079   -8.5884222    654.05791  0.012740726  0.011501847            3 
 4279000   0.56665756   -8.5686295    653.80986  0.012732918  0.011497819            3 
 4280000   0.57061443   -8.5640605    653.36612  0.012721303  0.011493795            3 
 4281000   0.56902521   -8.5796669    654.45099  0.012739449  0.011489774            2 
 4282000   0.57784863   -8.5772095     653.4758  0.012717496   0.01148575            2 
 4283000    0.5574024   -8.5684912    652.84474  0.012702248  0.011481727            5 
 4284000    0.5655772   -8.5589835    653.99295  0.012721618  0.011477699            2 
 4285000   0.56234333   -8.5558661    653.77077  0.012714328  0.011473673            2 
 4286000   0.56726704   -8.5654346    653.90235   0.01271392  0.011469653            3 
 4287000   0.56901067   -8.5734622    654.62834  0.012725067  0.011465633            2 
 4288000   0.56723286   -8.5706929    652.63685  0.012683397  0.011461615            1 
 4289000   0.56919778   -8.5894686    654.80349  0.012722536    0.0114576            3 
 4290000   0.55567496   -8.5803488    654.55828  0.012714807  0.011453587            2 
 4291000   0.55775149   -8.5874333    653.76018  0.012696345  0.011449569            1 
 4292000   0.55372783   -8.5714964    653.33024  0.012685039  0.011445557            3 
 4293000   0.57838605   -8.5516771    653.13371  0.012678269  0.011441544            1 
 4294000   0.55792982   -8.5678519    655.00208  0.012711576  0.011437542            2 
 4295000   0.57100208   -8.5557242    653.16554  0.012672983  0.011433533            1 
 4296000   0.55944282   -8.5791402    653.49692  0.012676461  0.011429528            1 
 4297000   0.58249632   -8.5653998    654.41215   0.01269126  0.011425529            2 
 4298000   0.56998859   -8.5725557    652.29624  0.012647283  0.011421525            3 
 4299000    0.5660303    -8.590073     653.2399  0.012662633  0.011417528            2 
 4300000   0.56427216   -8.5711104    654.71061   0.01268819  0.011413534            3 
 4301000   0.56504903   -8.5753141    655.09877  0.012692761  0.011409539            3 
 4302000   0.55570847   -8.5547177    652.42892  0.012638093  0.011405543            2 
 4303000   0.56575156   -8.5766934    652.58819   0.01263824  0.011401548            4 
 4304000   0.55171318   -8.5757229    654.39468  0.012670281  0.011397558            1 
 4305000   0.55172778   -8.5704848    653.90143   0.01265779   0.01139357            2 
 4306000   0.56375395   -8.5729244    653.11587  0.012639648  0.011389588            2 
 4307000   0.56113658   -8.5921209    653.03905  0.012635227  0.011385602            2 
 4308000   0.55686648   -8.5739142    654.02829  0.012651429   0.01138162            3 
 4309000   0.56017077   -8.5793118    653.53968  0.012639044  0.011377641            1 
 4310000    0.5609473   -8.5848706     653.5924  0.012637131  0.011373665            2 
 4311000   0.56871776   -8.5797962    653.67444  0.012635785  0.011369693            2 
 4312000   0.55003131   -8.5741056    653.66862  0.012632742  0.011365717            3 
 4313000   0.54332398    -8.587728    654.07754  0.012637714  0.011361742            4 
 4314000   0.55896412   -8.5859528    654.30401  0.012639159  0.011357764            3 
 4315000   0.55855024   -8.5895941    653.95829  0.012629554  0.011353792            2 
 4316000   0.55044355   -8.5669215     653.1265  0.012610567  0.011349815            2 
 4317000   0.56426457   -8.5950484    654.42503  0.012632712  0.011345846            2 
 4318000   0.54750105   -8.5715035    654.23958  0.012626208  0.011341878            4 
 4319000   0.55073251    -8.584832    652.77573   0.01259504  0.011337912            3 
 4320000   0.55660061   -8.5792128    654.04445  0.012616598  0.011333949            2 
 4321000   0.56499614   -8.5614894    654.64891  0.012625336  0.011329989            2 
 4322000   0.54662064   -8.6034114    654.36768  0.012616992  0.011326028            2 
 4323000   0.55828713   -8.5966659    653.41078  0.012595628  0.011322066            2 
 4324000   0.55474679   -8.5903576     654.6827  0.012617227  0.011318111            4 
 4325000   0.55647879   -8.6029548    652.68507   0.01257582  0.011314152            3 
 4326000    0.5547954   -8.6097137    654.20567  0.012602205  0.011310194            3 
 4327000   0.54932253   -8.5792473    652.72944  0.012570862  0.011306238            5 
 4328000   0.55302112   -8.6026981    652.59511  0.012565371  0.011302285            1 
 4329000   0.55105421   -8.5865875    654.12011  0.012591825  0.011298336            3 
 4330000   0.55625923   -8.5951797    654.59583  0.012598072  0.011294386            2 
 4331000   0.56017478    -8.583157    654.09188  0.012585467  0.011290436            1 
 4332000   0.55983902   -8.5913339    652.54648  0.012552833  0.011286491            1 
 4333000   0.56992289   -8.5968869    653.87714  0.012575528  0.011282547            1 
 4334000   0.56955925   -8.5846916      654.118  0.012577257  0.011278603            1 
 4335000   0.55294304   -8.6023422    653.73098  0.012566916  0.011274657            2 
 4336000   0.54918642   -8.5969093    653.06321  0.012551184  0.011270715            2 
 4337000   0.55859493   -8.5884715    652.45028  0.012536513  0.011266777            2 
 4338000   0.56590844   -8.6112932    653.06872  0.012545503   0.01126284            2 
 4339000   0.56347914   -8.5924077    653.27818  0.012546635  0.011258905            2 
 4340000   0.54398169    -8.593354    654.03496  0.012558275  0.011254969            2 
 4341000   0.55972022   -8.6130264     653.6731  0.012548435  0.011251036            2 
 4342000   0.54780718   -8.6042933    653.60332  0.012544206  0.011247103            2 
 4343000   0.55886889   -8.5924078    652.51736   0.01252048  0.011243172            2 
 4344000   0.55519519   -8.6023884    652.09601  0.012509515   0.01123924            4 
 4345000    0.5495987   -8.5912666     654.6808   0.01255621  0.011235312            2 
 4346000   0.55674059   -8.6070251    653.50742  0.012530822  0.011231384            2 
 4347000   0.56127446   -8.6139152    652.82828   0.01251492  0.011227459            3 
 4348000    0.5505834   -8.5904839    653.85345   0.01253169  0.011223533            2 
 4349000   0.56229172   -8.6020708    653.86446  0.012529019  0.011219613            2 
 4350000   0.54013189   -8.5914013    653.27425  0.012514832  0.011215693            2 
 4351000   0.55149258   -8.6025475    654.17455  0.012529199  0.011211772            2 
 4352000   0.55209887   -8.5947725    653.03719  0.012504542  0.011207857            2 
 4353000   0.55965442   -8.5926891    653.68223  0.012514018  0.011203935            1 
 4354000   0.56193635   -8.6283641    653.72892  0.012512037  0.011200018            3 
 4355000    0.5538196   -8.5931987    653.58169  0.012506347  0.011196109            2 
 4356000   0.54556421   -8.6052474    653.39988  0.012499998  0.011192199            4 
 4357000   0.55527348   -8.6050505     652.7825   0.01248532  0.011188289            1 
 4358000    0.5422838   -8.6009634    653.31556  0.012492649  0.011184377            2 
 4359000   0.55259497   -8.6076035    653.36038   0.01249064  0.011180472            2 
 4360000   0.55796554   -8.6006886    654.21929  0.012504191  0.011176573            1 
 4361000   0.55171436   -8.6219439    652.55879  0.012469594  0.011172669            3 
 4362000    0.5515383   -8.6062989    653.76585  0.012489795  0.011168771            3 
 4363000   0.55576844   -8.5927784    653.61713  0.012484092  0.011164876            1 
 4364000   0.55218172   -8.6116849    653.14864  0.012472285  0.011160977            3 
 4365000   0.55199427   -8.5924699    653.57048  0.012477482  0.011157081            1 
 4366000    0.5503531   -8.6248576    653.47525  0.012472806  0.011153188            3 
 4367000    0.5497998   -8.6096548      652.864  0.012458286  0.011149294            3 
 4368000   0.55909041   -8.6060494    653.29199  0.012463599  0.011145409            5 
 4369000   0.55675156   -8.6138494     654.0496  0.012475196  0.011141523            1 
 4370000   0.54646004     -8.62216    653.33488  0.012458712  0.011137632            1 
 4371000   0.54788107   -8.6056149    652.37701    0.0124376  0.011133743            2 
 4372000   0.54432268   -8.6154427    652.92911  0.012445279  0.011129855            3 
 4373000   0.55344359   -8.6122272     652.4841  0.012433953  0.011125971            1 
 4374000   0.54484017    -8.616823    652.30066  0.012427615   0.01112209            4 
 4375000   0.55038944   -8.6083603    653.42354  0.012446163   0.01111821            2 
 4376000   0.54508737    -8.600132    653.88436  0.012452094  0.011114328            4 
 4377000   0.56012483   -8.6036069    653.00288  0.012432467  0.011110453            4 
 4378000    0.5321697   -8.6327391    651.44832  0.012400037  0.011106577            4 
 4379000   0.55105871   -8.6094937    653.48288  0.012435923  0.011102704            2 
 4380000   0.54182225   -8.6133123    653.59496  0.012435216  0.011098829            2 
 4381000    0.5500012   -8.6157434    653.82395  0.012436733  0.011094962            3 
 4382000   0.55716519   -8.6077285    653.27712  0.012423496  0.011091092            3 
 4383000   0.55279866   -8.6179266    652.12649  0.012398785  0.011087227            2 
 4384000   0.55378449   -8.6249524    653.78175  0.012427421  0.011083364            4 
 4385000   0.54071445   -8.6061859    653.58727  0.012420891  0.011079499            1 
 4386000   0.55068577   -8.6191553    652.14379  0.012390633  0.011075639            3 
 4387000   0.54683959   -8.6063252     652.8054  0.012400376  0.011071778            1 
 4388000   0.55654704   -8.6263526    652.11711  0.012384479  0.011067917            2 
 4389000    0.5650206     -8.61595    652.56865   0.01239023  0.011064061            3 
 4390000   0.55172625   -8.6090818    652.39293  0.012384072  0.011060206            4 
 4391000   0.54623838   -8.6124492    653.69595  0.012405981  0.011056353            2 
 4392000   0.55530078   -8.6144455    652.73355  0.012384896  0.011052502            2 
 4393000   0.54684979   -8.6060376     653.0002  0.012387135  0.011048654            2 
 4394000   0.54584867   -8.6079253    653.40726  0.012392036  0.011044802            2 
 4395000   0.55225708    -8.610038    652.80265  0.012377752  0.011040955            3 
 4396000    0.5437426   -8.6193823    653.41618  0.012386567  0.011037107            3 
 4397000   0.54223926   -8.6083619    652.22237  0.012361124  0.011033258            2 
 4398000   0.54209879   -8.6304086    652.86811  0.012370549  0.011029414            2 
 4399000   0.54708387   -8.6202721    652.97668  0.012369794  0.011025569            2 
 4400000   0.54739783   -8.6126018    652.44989  0.012357005   0.01102173            2 
 4401000   0.53732722   -8.5886091    653.51666  0.012374397  0.011017897            4 
 4402000   0.55604443    -8.615512    653.77354  0.012376449  0.011014062            5 
 4403000     0.552663    -8.603655    653.04197  0.012359792  0.011010232            2 
 4404000   0.54930345   -8.6166475    654.54501  0.012385426  0.011006402            2 
 4405000   0.54734794   -8.6173338     652.6396  0.012346568  0.011002567            3 
 4406000   0.54993638   -8.6260844    653.05867  0.012351692  0.010998741            3 
 4407000   0.54255598   -8.6160047    652.85662  0.012345069  0.010994914            1 
 4408000   0.55065901   -8.6228061    653.71281  0.012358455  0.010991086            2 
 4409000   0.54974865   -8.6338429    653.51088  0.012351835  0.010987264            5 
 4410000   0.54293939    -8.630264    653.26023  0.012344298  0.010983443            1 
 4411000   0.52747697   -8.6274899     653.3096  0.012342432  0.010979622            1 
 4412000   0.53886779   -8.6248394    652.27265  0.012320049  0.010975799            1 
 4413000   0.54495105     -8.63542    652.23816  0.012316606  0.010971981            1 
 4414000   0.55515508   -8.6100803    653.76808  0.012342699  0.010968164            2 
 4415000   0.54939636   -8.6161284    654.27665  0.012349503  0.010964352            2 
 4416000   0.54753006   -8.6077409    653.31408  0.012328542  0.010960538            1 
 4417000    0.5558607   -8.6244552    651.77015  0.012296622  0.010956728            2 
 4418000   0.54367855   -8.6273453    652.31071  0.012304035  0.010952919            2 
 4419000   0.54864208    -8.610263    652.50738  0.012304959   0.01094911            1 
 4420000   0.54378142   -8.6116333    651.05052  0.012274708  0.010945305            2 
 4421000   0.55006422   -8.6371115     653.1232  0.012311001  0.010941501            3 
 4422000   0.53261092   -8.6109134    651.43325  0.012276369    0.0109377            1 
 4423000   0.53018366   -8.6194946    653.48145  0.012312183  0.010933898            1 
 4424000   0.53456998   -8.6141893    654.11322  0.012321301  0.010930101            2 
 4425000    0.5471047    -8.613792    652.81366  0.012294042  0.010926303            2 
 4426000   0.54507899   -8.6361293    652.20245  0.012279757  0.010922509            1 
 4427000   0.54433489   -8.6200678    652.78741  0.012287994  0.010918711            1 
 4428000   0.53223545   -8.6205174    653.59692  0.012300454  0.010914919            1 
 4429000   0.54211256   -8.6265761    653.07444  0.012287846  0.010911126            5 
 4430000   0.54464467   -8.6188225    653.13617  0.012286233  0.010907336            3 
 4431000   0.53995695   -8.6135474    652.39626  0.012269545  0.010903549            3 
 4432000    0.5290204   -8.6238026    653.01622  0.012278434  0.010899761            3 
 4433000   0.55070224   -8.6278992    652.59892  0.012267819  0.010895975            3 
 4434000   0.53636041    -8.630098     652.3751  0.012260846  0.010892191            1 
 4435000   0.53775929   -8.6185027    653.11191  0.012271926  0.010888411            1 
 4436000   0.53595151   -8.6245832    653.66995  0.012279643  0.010884634            6 
 4437000   0.53420787   -8.6352788    652.45334  0.012254026  0.010880855            3 
 4438000    0.5412969   -8.6210182    653.06945  0.012262833  0.010877077            3 
 4439000   0.55442546   -8.6296111    653.71699  0.012272227  0.010873303            1 
 4440000   0.54218787   -8.6215248    652.84177  0.012253036   0.01086953            3 
 4441000    0.5384935   -8.6244236    653.05341  0.012254248  0.010865755            2 
 4442000   0.53994091   -8.6216881    652.85367  0.012247743  0.010861984            4 
 4443000   0.53379235   -8.6231192     652.2091  0.012232896  0.010858216            2 
 4444000   0.53743633   -8.6304978    653.10211  0.012246889   0.01085445            3 
 4445000   0.54566148   -8.6202872    653.89641  0.012259025  0.010850686            2 
 4446000   0.54172666   -8.6343729    651.83492  0.012217629  0.010846922            5 
 4447000   0.53733861   -8.6272254    652.47027  0.012226787  0.010843162            2 
 4448000   0.53584117   -8.6508814    651.98768  0.012214997    0.0108394            2 
 4449000   0.53721079   -8.6314547    651.97331  0.012211982  0.010835641            2 
 4450000   0.54574112   -8.6484895    651.95616  0.012208917  0.010831882            4 
 4451000   0.53982073   -8.6464934     652.1876  0.012210507  0.010828127            3 
 4452000   0.54752258   -8.6179645    653.00782  0.012223117  0.010824374            1 
 4453000   0.54727755   -8.6272809    652.07048  0.012202831  0.010820629            2 
 4454000   0.53883158   -8.6254227    651.39689  0.012187489  0.010816881            3 
 4455000   0.54078889   -8.5986019    652.57934  0.012206871  0.010813139            2 
 4456000    0.5431781   -8.6292593     653.4713  0.012220813  0.010809395            2 
 4457000   0.55134948   -8.6383662     652.2114  0.012194514  0.010805654            5 
 4458000   0.54211062   -8.6277476    652.23762  0.012192269  0.010801911            2 
 4459000   0.53904989   -8.6332352    653.00994  0.012203968  0.010798169            3 
 4460000   0.53902095   -8.6365697    652.71237  0.012195672  0.010794427            3 
 4461000   0.53528164   -8.6376888    652.76423  0.012193907  0.010790688            3 
 4462000    0.5285897    -8.626316     652.3524  0.012183483  0.010786952            2 
 4463000   0.52930429   -8.6192665    653.76751  0.012207176  0.010783213            2 
 4464000   0.52622887   -8.6395952    653.15018  0.012192917  0.010779476            2 
 4465000   0.52624161   -8.6285956    653.52069  0.012197101  0.010775742            1 
 4466000   0.54834636    -8.638931    652.42926  0.012174005  0.010772009            3 
 4467000    0.5301002    -8.639855    653.55702  0.012192318  0.010768276            2 
 4468000   0.53018354   -8.6298584    652.65292  0.012172727   0.01076455            2 
 4469000   0.54292467   -8.6509925    652.83686  0.012173433  0.010760821            3 
 4470000    0.5338772   -8.6201556      652.497  0.012164374  0.010757093            2 
 4471000   0.52413404   -8.6276175     652.3205  0.012158363  0.010753365            3 
 4472000   0.54854312   -8.6516765    653.34334  0.012174705  0.010749641            1 
 4473000   0.52735228    -8.638713    652.33607  0.012153217  0.010745919            1 
 4474000   0.53418563   -8.6536201    651.60526  0.012136888  0.010742196            2 
 4475000   0.53541916    -8.635956    652.54853  0.012151742  0.010738478            1 
 4476000   0.53950918   -8.6368044    652.03026  0.012139378  0.010734759            3 
 4477000   0.54749831   -8.6337763    652.65335  0.012148264   0.01073104            3 
 4478000   0.53847418    -8.627109    652.18752  0.012136883  0.010727327            3 
 4479000   0.54519717   -8.6453618    650.71805  0.012106833  0.010723613            3 
 4480000   0.52915648   -8.6377845    652.01379  0.012128233  0.010719896            2 
 4481000   0.53172946   -8.6435859    651.63155  0.012118418  0.010716188            2 
 4482000      0.53282   -8.6381348    651.73492  0.012117636  0.010712477            1 
 4483000   0.53631545   -8.6356228    652.10862  0.012121879   0.01070877            3 
 4484000   0.53179429    -8.636987     654.0787  0.012155789  0.010705065            1 
 4485000   0.53002755   -8.6390074    652.20411  0.012118248  0.010701361            2 
 4486000   0.52218784   -8.6421637    653.10699  0.012132319  0.010697658            1 
 4487000   0.53704019   -8.6397557    652.41617  0.012116785  0.010693951            3 
 4488000   0.54675816   -8.6283206    652.42923  0.012114328  0.010690253            3 
 4489000   0.53888633   -8.6439404    652.44985  0.012112012  0.010686551            3 
 4490000   0.53211366   -8.6440379    652.52528  0.012110714  0.010682854            2 
 4491000   0.51963514   -8.6518185    652.03167  0.012098858  0.010679158            1 
 4492000   0.52911522   -8.6308744     652.5027  0.012104903  0.010675461            1 
 4493000   0.52785825   -8.6495233    651.47372  0.012083124  0.010671767            2 
 4494000   0.52681595   -8.6376532    652.15674  0.012093101  0.010668076            3 
 4495000   0.53766805   -8.6424881    651.91022   0.01208584  0.010664386            2 
 4496000   0.53152893   -8.6511722    651.53418  0.012076182  0.010660697            3 
 4497000   0.52787632   -8.6496159     652.2647  0.012087034  0.010657009            2 
 4498000    0.5195744   -8.6546782    652.29641  0.012084934  0.010653322            3 
 4499000   0.53177515   -8.6464699    651.13231  0.012060686  0.010649637            2 
 4500000   0.52417826   -8.6502999     651.4609  0.012064091  0.010645954            5 
 4501000   0.52979645   -8.6286371    652.05711  0.012072449  0.010642271            2 
 4502000    0.5390996   -8.6424061     652.7602  0.012082782  0.010638589            3 
 4503000   0.52865752   -8.6523916    651.06553  0.012048737  0.010634908            2 
 4504000    0.5312562   -8.6333675    653.42938  0.012089798  0.010631232            2 
 4505000    0.5304725   -8.6497933    651.84744  0.012057851  0.010627558            1 
 4506000   0.52312539   -8.6469602    651.87191  0.012055628  0.010623886            2 
 4507000   0.53178214   -8.6527415    652.00865  0.012055481  0.010620212            1 
 4508000   0.53540426   -8.6566268    652.14556  0.012055338  0.010616537            3 
 4509000   0.52041075   -8.6501996    651.97991  0.012049603  0.010612867            2 
 4510000   0.54349843   -8.6215029    652.04982  0.012048223    0.0106092            3 
 4511000   0.53025226   -8.6527803    652.45303  0.012053001  0.010605535            4 
 4512000   0.51814951   -8.6474946     652.5776   0.01205263  0.010601871            3 
 4513000   0.52541871   -8.6503489    652.17966  0.012042611  0.010598207            2 
 4514000   0.52354901   -8.6461193    651.92113  0.012035171  0.010594549            2 
 4515000   0.53931715    -8.629115    651.33235  0.012021638  0.010590889            3 
 4516000   0.52733908   -8.6473059    651.66837  0.012025177  0.010587231            2 
 4517000   0.53269559   -8.6373961    652.52143  0.012038252  0.010583578            2 
 4518000   0.52307648   -8.6374217    650.80889  0.012004001  0.010579929            4 
 4519000    0.5170174   -8.6664902     652.2937  0.012028725  0.010576279            3 
 4520000    0.5265649   -8.6265457    652.30676  0.012026305  0.010572633            5 
 4521000   0.52401662   -8.6551817    651.05043  0.012000487  0.010568986            2 
 4522000   0.53603458   -8.6369029    651.98847   0.01201512  0.010565336            3 
 4523000   0.52096713    -8.636673    652.61412  0.012023991  0.010561693            3 
 4524000   0.52499243   -8.6295289    651.82026   0.01200671  0.010558051            3 
 4525000   0.53241304   -8.6468019    651.47906  0.011997773  0.010554407            2 
 4526000   0.52415873   -8.6308881    651.82485  0.012001489  0.010550767            2 
 4527000   0.52958717   -8.6489778     651.8369  0.011999059  0.010547129            4 
 4528000   0.53017649   -8.6425143    652.16995  0.012002539  0.010543496            3 
 4529000   0.52759693   -8.6418434    651.41334  0.011985967  0.010539864            2 
 4530000   0.53780229   -8.6591165    651.73687  0.011989273  0.010536233            4 
 4531000   0.51757334   -8.6466763    651.50149  0.011982298  0.010532602            3 
 4532000   0.52148468   -8.6494238    651.61431  0.011981728  0.010528968            2 
 4533000   0.51667987   -8.6460946    651.92222  0.011984746  0.010525338            2 
 4534000    0.5232842   -8.6476261    651.69535  0.011977933   0.01052171            2 
 4535000   0.52560076   -8.6656301    651.87667  0.011978623  0.010518084            4 
 4536000   0.51807548   -8.6562658    651.62723    0.0119714  0.010514455            3 
 4537000   0.53071792    -8.651494    651.47074  0.011965887  0.010510828            3 
 4538000   0.51251099   -8.6457022    652.84703  0.011988523  0.010507205            5 
 4539000   0.53112607   -8.6563106    652.26713  0.011975236  0.010503586            1 
 4540000   0.51831133   -8.6512756    652.70021  0.011980547  0.010499969            4 
 4541000   0.53063758   -8.6413782    651.26529  0.011951576  0.010496352            2 
 4542000   0.52818305   -8.6474383    652.28123  0.011967585  0.010492732            2 
 4543000   0.53041918   -8.6496899    650.75196  0.011936899  0.010489113            2 
 4544000   0.53160383   -8.6376352    652.06971  0.011958438  0.010485497            2 
 4545000    0.5319755   -8.6523994    651.32399  0.011942134  0.010481887            5 
 4546000   0.52338652   -8.6383608    651.77489  0.011947773  0.010478273            3 
 4547000   0.53543001   -8.6418395     651.2915  0.011936286  0.010474666            2 
 4548000   0.52149222   -8.6486809    651.18885   0.01193178  0.010471054            4 
 4549000   0.52220764    -8.649045     651.5462  0.011935704  0.010467447            3 
 4550000   0.51373979   -8.6672825     652.8113  0.011956251   0.01046384            4 
 4551000   0.53473237   -8.6636241     651.0815  0.011921949  0.010460231            2 
 4552000   0.52944955   -8.6687534    652.51648    0.0119456  0.010456625            1 
 4553000   0.51127287   -8.6634846    651.36241  0.011921854  0.010453021            3 
 4554000   0.52056176   -8.6519346    650.83002  0.011909494   0.01044942            2 
 4555000   0.52860504    -8.652356    651.06236   0.01191113  0.010445818            2 
 4556000   0.51544711   -8.6479782    652.16436  0.011928672  0.010442218            3 
 4557000   0.51619055   -8.6600064    651.62666  0.011916222  0.010438621            2 
 4558000   0.51811181   -8.6574334    651.58663  0.011912875   0.01043502            1 
 4559000    0.5249884   -8.6711928    651.20033  0.011903201  0.010431429            2 
 4560000   0.52103593   -8.6542712    652.66226  0.011927307  0.010427835            2 
 4561000   0.51076635   -8.6581119    651.18669  0.011897732  0.010424246            3 
 4562000    0.5161331   -8.6596096    651.85256  0.011907288  0.010420656            1 
 4563000   0.52229856   -8.6588474    651.03164  0.011889686  0.010417069            2 
 4564000   0.52496724   -8.6615525     651.6412  0.011898211  0.010413483            4 
 4565000   0.50920007   -8.6615323    650.86115  0.011881364  0.010409898            3 
 4566000   0.52677001   -8.6440052     651.8169  0.011896206  0.010406315            2 
 4567000    0.5226591    -8.653865    651.65602  0.011890665  0.010402733            2 
 4568000   0.51390147   -8.6666066    651.91272  0.011892745  0.010399156            2 
 4569000   0.50913756   -8.6670611    651.70688  0.011886388  0.010395579            1 
 4570000    0.5241957   -8.6623745    650.94757  0.011869941  0.010392002            7 
 4571000   0.53317377    -8.669992    652.02033  0.011886902  0.010388429            9 
 4572000   0.51603074   -8.6733652    650.54352  0.011857384  0.010384857            3 
 4573000   0.52525596   -8.6701824    651.91573  0.011879797  0.010381284            3 
 4574000   0.52501275   -8.6529069    651.66409  0.011872615  0.010377713            4 
 4575000   0.51749321   -8.6673544    651.94568  0.011875149  0.010374143            1 
 4576000   0.52529994    -8.665173    650.75221   0.01185082  0.010370578            4 
 4577000   0.52242034     -8.67165    651.57809  0.011863267  0.010367008            1 
 4578000   0.51540685   -8.6732308    651.43029  0.011857985  0.010363443            2 
 4579000   0.51390352   -8.6445534    652.13433  0.011868209   0.01035988            3 
 4580000   0.50862719   -8.6600434    651.51281  0.011854309   0.01035632            2 
 4581000    0.5072022   -8.6738687    651.60688  0.011853432  0.010352758            3 
 4582000   0.51940965   -8.6560726    651.72706  0.011853031  0.010349199            4 
 4583000   0.50865303   -8.6704725    651.42941  0.011845033  0.010345643            3 
 4584000   0.52335167   -8.6641748    650.57501  0.011826916  0.010342086            1 
 4585000   0.51467224   -8.6515403    651.57357  0.011842486  0.010338535            3 
 4586000   0.52356225   -8.6680343    652.09695  0.011849414  0.010334981            3 
 4587000   0.51256804   -8.6768081    650.96582  0.011826281  0.010331429            4 
 4588000     0.527263   -8.6660379    652.24314  0.011846904  0.010327879            2 
 4589000   0.51097265    -8.669824    650.44479  0.011811665   0.01032433            2 
 4590000    0.5159068   -8.6677388    650.89548  0.011817274  0.010320782            3 
 4591000   0.51014326   -8.6610786    650.69166  0.011811001  0.010317239            2 
 4592000    0.5256457   -8.6564761    651.93096  0.011830919  0.010313695            3 
 4593000   0.51662895   -8.6618756    652.66525  0.011841666  0.010310156            5 
 4594000   0.51775231    -8.650135    651.68615  0.011821328  0.010306616            2 
 4595000   0.51493297    -8.666437    650.83781   0.01180337  0.010303074            2 
 4596000   0.51048966   -8.6591427    651.85505  0.011819246  0.010299538            3 
 4597000   0.52556138   -8.6720679    650.69347  0.011795618     0.010296            3 
 4598000   0.52494265   -8.6593099    650.57857   0.01179097  0.010292465            5 
 4599000   0.52323849   -8.6619118    651.66254  0.011808048  0.010288928            4 
 4600000   0.51954927   -8.6597283    650.64085  0.011786972  0.010285397            2 
 4601000   0.50580841   -8.6742512    650.77004   0.01178675  0.010281865            2 
 4602000   0.52229275   -8.6578529    651.40132   0.01179562  0.010278335            4 
 4603000   0.51712691   -8.6708444     651.3631  0.011792365  0.010274809            3 
 4604000   0.51546956   -8.6812876    650.33878  0.011771264  0.010271282            3 
 4605000   0.51332527   -8.6743014    651.36712  0.011787317  0.010267754            5 
 4606000   0.50358716   -8.6765206    651.23938  0.011782447  0.010264231            3 
 4607000   0.52000823   -8.6634712    651.57932  0.011786038  0.010260709            2 
 4608000   0.52089893   -8.6716929    650.89703  0.011771141  0.010257186            3 
 4609000   0.51735849   -8.6727535    650.72375  0.011765454  0.010253666            4 
 4610000   0.51679366   -8.6796389    651.20985  0.011771689  0.010250147            5 
 4611000   0.51161012   -8.6682745    651.38786  0.011772353   0.01024663            1 
 4612000   0.51243632   -8.6729709    651.06636  0.011763992  0.010243115            2 
 4613000   0.52195776   -8.6769138    651.54221  0.011770038  0.010239602            5 
 4614000   0.51333221   -8.6777106    652.00148  0.011775782  0.010236088            2 
 4615000   0.51157228   -8.6715913    651.56592  0.011765365  0.010232577            3 
 4616000   0.50487337   -8.6813652    651.56668   0.01176283  0.010229067            2 
 4617000   0.50889278   -8.6797889    650.60674  0.011742956  0.010225558            4 
 4618000    0.5174028    -8.676266    650.99628  0.011747443  0.010222052            2 
 4619000   0.50794172   -8.6645548    650.42722  0.011734633   0.01021855            2 
 4620000   0.51654701   -8.6804217    651.81391  0.011757105  0.010215045            3 
 4621000   0.51151204    -8.660684    650.38378   0.01172877  0.010211543            3 
 4622000   0.52022083    -8.664054    651.34282  0.011743524  0.010208043            4 
 4623000   0.51364965   -8.6874497    651.85933  0.011750294  0.010204544            2 
 4624000    0.5189269   -8.6714965    650.56447  0.011724417  0.010201045            1 
 4625000   0.52013443   -8.6850737    651.62084  0.011740916  0.010197548            2 
 4626000   0.52153628   -8.6672538    650.87164  0.011724882  0.010194055            2 
 4627000   0.50412945   -8.6613677    649.59886  0.011699425  0.010190562            4 
 4628000   0.52355763    -8.676265    651.09997  0.011723926  0.010187067            2 
 4629000   0.50319275   -8.6834209    650.56059  0.011711683  0.010183572            2 
 4630000   0.51525787   -8.6669342    651.59072  0.011727695  0.010180079            2 
 4631000   0.50734834   -8.6568803    651.33396  0.011720542  0.010176593            3 
 4632000   0.51327507   -8.6806728    650.59877  0.011704785  0.010173105            2 
 4633000   0.50957617   -8.6723215     650.4159  0.011698969  0.010169617            4 
 4634000   0.49917085   -8.6926037    651.20611  0.011710655  0.010166133            2 
 4635000   0.52272389   -8.6910311    651.17541  0.011707577  0.010162649            4 
 4636000   0.51025067   -8.6774303    651.15468  0.011704679  0.010159166            2 
 4637000   0.52164003   -8.6684035    650.56692  0.011691592  0.010155686            3 
 4638000   0.50862387   -8.6776166    651.18981  0.011700263  0.010152206            2 
 4639000   0.51491392   -8.6803118    650.10228  0.011678204  0.010148732            5 
 4640000   0.51638006   -8.6826409     651.2154  0.011695679  0.010145259            3 
 4641000   0.51018795   -8.6567266    650.08992   0.01167295  0.010141786            1 
 4642000   0.50387178   -8.6888101     651.3678  0.011693376  0.010138319            2 
 4643000   0.52234033   -8.6680085    650.36334  0.011672829  0.010134847            2 
 4644000   0.51141385   -8.7041154     651.1384  0.011684223  0.010131377            2 
 4645000   0.51035964   -8.6847475    650.79327  0.011675516   0.01012791            2 
 4646000   0.51127513   -8.6823642    651.19393   0.01168019  0.010124443            2 
 4647000   0.50487442   -8.6763073    650.85465  0.011671592  0.010120976            6 
 4648000   0.50861275   -8.6901392    650.64345  0.011665294  0.010117514            2 
 4649000   0.50407945   -8.6674247    649.90834  0.011649608  0.010114052            3 
 4650000   0.50761677   -8.6967344    651.57969  0.011677055  0.010110591            2 
 4651000   0.50147337   -8.6793028    650.20739  0.011649957  0.010107132            4 
 4652000   0.51440835   -8.6918005    650.65105    0.0116554  0.010103675            3 
 4653000   0.50425338   -8.7043868    650.71881  0.011654109  0.010100223            2 
 4654000   0.49541896   -8.6858163    650.06153  0.011639835  0.010096771            2 
 4655000   0.50618708   -8.6842378    651.04713  0.011654979  0.010093319            3 
 4656000   0.50545973   -8.6829606    650.63982  0.011645186  0.010089867            4 
 4657000   0.50953427   -8.6683597    650.37009  0.011637859  0.010086419            4 
 4658000   0.49969068   -8.6711629    650.56016  0.011638761  0.010082969            2 
 4659000   0.49577936   -8.6904544    650.53682  0.011635845  0.010079521            2 
 4660000   0.49981309   -8.6864109    650.63323  0.011635072  0.010076078            4 
 4661000   0.50304814   -8.6921291    650.62876  0.011632496  0.010072633            3 
 4662000   0.50965394   -8.7011597    650.86769  0.011634272  0.010069195            2 
 4663000    0.5091678    -8.656958    649.79244  0.011612561  0.010065757            3 
 4664000   0.50919733   -8.6773384    650.60092  0.011624516  0.010062318            4 
 4665000   0.51066551   -8.7008705    651.55349  0.011639041  0.010058882            2 
 4666000   0.50529355   -8.6867405    649.99129  0.011608646  0.010055445            5 
 4667000   0.52053748   -8.7088248    650.93451     0.011623  0.010052011            2 
 4668000   0.50426848   -8.6880815    651.32437   0.01162747  0.010048579            2 
 4669000   0.50439637   -8.6797999    650.72761  0.011614329  0.010045152            1 
 4670000   0.49710988   -8.6875743    650.35587  0.011605208  0.010041717            2 
 4671000   0.50616296   -8.6972569    650.03761  0.011597046   0.01003829            3 
 4672000   0.49716463   -8.6896535    650.80729  0.011608292  0.010034862            4 
 4673000   0.49587474   -8.6821114    650.89282  0.011607333  0.010031439            2 
 4674000    0.5000779   -8.6835931    649.40474  0.011578319  0.010028014            2 
 4675000   0.50344227   -8.6831774    649.68843  0.011580899  0.010024593            4 
 4676000   0.49640834   -8.6817562    651.19426  0.011605258  0.010021173            3 
 4677000   0.50766475   -8.6911863    650.43988  0.011589336  0.010017759            2 
 4678000   0.51068332   -8.6732494    650.20651  0.011582701   0.01001434            2 
 4679000   0.50356532   -8.6796291    650.33933  0.011582591  0.010010924            3 
 4680000   0.52142448   -8.6810359    649.92621   0.01157276  0.010007508            1 
 4681000   0.49353465   -8.6903564     650.7081  0.011584207  0.010004096            2 
 4682000   0.50224335   -8.6795461    651.15392  0.011589668  0.010000683            3 
 4683000   0.51255886   -8.6779336    651.80231  0.011598731 0.0099972721            2 
 4684000   0.50043181   -8.6833805    650.32983  0.011570058 0.0099938627            1 
 4685000   0.50495238   -8.6936853    650.43998  0.011569548 0.0099904553            1 
 4686000   0.50533731   -8.6844014    650.39497  0.011566279 0.0099870482            2 
 4687000   0.51039675    -8.679045    650.85718  0.011572029 0.0099836442            3 
 4688000   0.50415847   -8.7032969    650.06045  0.011555398 0.0099802386            2 
 4689000   0.50439698   -8.7005759    649.22992  0.011538173 0.0099768351            2 
 4690000   0.49258474   -8.7004544    650.63971  0.011560763 0.0099734366            1 
 4691000   0.49206632   -8.6832455    649.95022   0.01154605 0.0099700411            2 
 4692000   0.49415877   -8.6812216    650.01811  0.011544794 0.0099666461            2 
 4693000   0.50222529   -8.6902214     650.0291   0.01154253   0.00996325            2 
 4694000   0.50022107   -8.6923048    649.48153   0.01153035 0.0099598558            3 
 4695000   0.51470294   -8.6941542    650.23211  0.011541216 0.0099564618            3 
 4696000   0.49588667   -8.6872871    651.70531  0.011564901  0.009953071            3 
 4697000   0.50941264    -8.693648    649.99794  0.011532147   0.00994968            2 
 4698000   0.50234163   -8.6778101    650.61136  0.011540573 0.0099462909            2 
 4699000   0.50815959   -8.6901772    649.79875  0.011523706 0.0099429051            1 
 4700000   0.50542639   -8.7152064     650.4635  0.011533041 0.0099395204            6 
 4701000    0.5057051   -8.6821648    649.60125  0.011515303 0.0099361358            2 
 4702000   0.49298955   -8.7042248    650.37789  0.011526618 0.0099327535            2 
 4703000   0.49695145   -8.6958178    649.89657  0.011515638 0.0099293718            2 
 4704000   0.50792114    -8.701454    649.95812  0.011514281 0.0099259938            6 
 4705000   0.48733172   -8.7008339    650.12815  0.011514845 0.0099226138            3 
 4706000   0.50134746   -8.7041368    649.85428  0.011507549 0.0099192338            3 
 4707000   0.50626037   -8.6857473    651.40451  0.011532549 0.0099158583            2 
 4708000   0.49520664   -8.6848563    650.05804  0.011506267 0.0099124824            1 
 4709000   0.49534356   -8.7045303    650.63362  0.011514009 0.0099091082            2 
 4710000   0.49649942   -8.6986714    651.39252  0.011524992 0.0099057348            2 
 4711000   0.50028514   -8.6712076    650.42624  0.011505452 0.0099023638            3 
 4712000   0.48766802   -8.6850048    650.36078  0.011501853  0.009898995            2 
 4713000   0.49864325    -8.701094    650.61263  0.011503866 0.0098956287            2 
 4714000   0.49002828   -8.6942228    650.88806  0.011506294 0.0098922599            3 
 4715000    0.5029349   -8.6894909    651.17424  0.011508912 0.0098888955            2 
 4716000   0.50354257   -8.6985759    650.23452  0.011489866  0.009885532            2 
 4717000   0.49959528   -8.6852738    649.79442  0.011479656 0.0098821713            4 
 4718000   0.49817798   -8.6990074    649.35903  0.011469532 0.0098788117            2 
 4719000   0.50042639   -8.7127307     650.7319  0.011491345 0.0098754512            1 
 4720000    0.5000903   -8.7138282    650.98508  0.011493381 0.0098720905            3 
 4721000   0.49728427    -8.698653    649.59579  0.011466423 0.0098687372            3 
 4722000   0.49627167   -8.6908371     649.7886  0.011467397 0.0098653834            5 
 4723000   0.48761066   -8.7141894    649.99766  0.011468658 0.0098620326            4 
 4724000   0.49887198   -8.6938894    649.82024  0.011463101 0.0098586793            3 
 4725000   0.49848764   -8.7264291    649.64946  0.011457662 0.0098553316            2 
 4726000   0.50151844   -8.6868299    649.91355  0.011459895 0.0098519832            2 
 4727000   0.50616061   -8.6928658    649.85287  0.011456401 0.0098486377            3 
 4728000   0.48545946    -8.705785    650.84038  0.011471383  0.009845293            2 
 4729000    0.4850939   -8.6961609    650.48251  0.011462651 0.0098419491            4 
 4730000   0.49364876   -8.7015686    649.92488  0.011450403 0.0098386059            2 
 4731000   0.49692738    -8.692056     649.7123  0.011444238 0.0098352668            3 
 4732000   0.49265572    -8.709928    650.22121  0.011450782 0.0098319252            2 
 4733000   0.50752223   -8.6917626    649.42377  0.011434322 0.0098285843            2 
 4734000   0.49360359   -8.7105291    650.34322  0.011448092 0.0098252455            3 
 4735000   0.48571799   -8.6999257    649.10288  0.011423845 0.0098219087            1 
 4736000   0.49322997   -8.7053661    650.14465  0.011439764 0.0098185729            3 
 4737000    0.4954832   -8.7108237    649.95539  0.011434019 0.0098152372            3 
 4738000   0.49415469   -8.6956501    649.86744  0.011430059 0.0098119054            1 
 4739000   0.48307829   -8.6956413    649.74586  0.011425509 0.0098085738            2 
 4740000   0.48581785   -8.7032011    650.24519  0.011431877 0.0098052417            2 
 4741000   0.48904022   -8.7107372    650.00134   0.01142518 0.0098019144            2 
 4742000   0.49944741   -8.6952313    650.00501  0.011422835 0.0097985889            3 
 4743000    0.4886353   -8.6958302    650.37762  0.011426973 0.0097952668            5 
 4744000    0.4873238   -8.7253642    650.08589   0.01141944 0.0097919408            1 
 4745000   0.49304131   -8.7108438    649.03397  0.011398559  0.009788617            2 
 4746000   0.49732781   -8.6991721    649.98128  0.011412791 0.0097852956            1 
 4747000   0.49681593   -8.7148456    649.88626  0.011408719 0.0097819747            2 
 4748000   0.49013678    -8.684544    649.14979   0.01139339 0.0097786548            2 
 4749000   0.50095234   -8.7087566    650.40942  0.011413094 0.0097753343            2 
 4750000   0.48930943   -8.7245443    649.41982   0.01139333  0.009772017            3 
 4751000   0.49224744   -8.7276434    650.66798  0.011412825 0.0097687009            2 
 4752000   0.49261995   -8.7036727    649.67415  0.011392995  0.009765385            2 
 4753000     0.484603   -8.6988074    649.57846   0.01138892 0.0097620692            4 
 4754000   0.50207861   -8.7067721    649.76462  0.011389788 0.0097587559            4 
 4755000   0.49475648   -8.7021053    649.18784  0.011377284  0.009755447            3 
 4756000   0.49363156   -8.7118771    649.62028  0.011382469  0.009752141            2 
 4757000   0.48305223   -8.7112556    650.39322  0.011393617 0.0097488368            3 
 4758000   0.49116188   -8.6975411    649.91681  0.011382878  0.009745533            1 
 4759000   0.49702055   -8.7071699    649.66466  0.011376071 0.0097422312            3 
 4760000   0.50453935   -8.7068979    649.43019  0.011369576 0.0097389309            2 
 4761000    0.4808931    -8.730177    649.80454   0.01137374   0.00973563            2 
 4762000   0.48337516   -8.7138379    649.94991  0.011373896 0.0097323299            3 
 4763000   0.48813301   -8.7123909    649.66092  0.011366452 0.0097290303            1 
 4764000    0.4872387   -8.7048262    649.39325  0.011359384 0.0097257339            2 
 4765000   0.48265549   -8.7129632    649.07771  0.011351482 0.0097224417            3 
 4766000   0.49193751   -8.7070177     649.3991  0.011354719 0.0097191504            1 
 4767000   0.48244672   -8.7020904    648.59347  0.011338254 0.0097158547            4 
 4768000   0.48361605   -8.7208157    650.10799  0.011362346  0.009712564            2 
 4769000   0.49015598   -8.7211896    650.25701  0.011362567  0.009709275            2 
 4770000   0.49517541   -8.7225268    649.17532  0.011341288  0.009705987            2 
 4771000   0.48582822   -8.7063918    649.05243  0.011336764 0.0097026995            4 
 4772000   0.49634975   -8.7125014    650.38451  0.011357651 0.0096994156            2 
 4773000   0.49316225   -8.7082843    649.71813  0.011343637 0.0096961297            2 
 4774000   0.48264061   -8.7100661    649.43726  0.011336358 0.0096928498            2 
 4775000   0.49404068   -8.7176359    650.01796  0.011344118 0.0096895693            4 
 4776000   0.48919362   -8.7233139    650.29561  0.011346587 0.0096862894            1 
 4777000   0.48880876   -8.7113075    648.97036  0.011321093 0.0096830106            1 
 4778000   0.49304172   -8.7150205    650.14898   0.01133928 0.0096797323            2 
 4779000   0.49075189   -8.7036495    648.75183  0.011312545 0.0096764568            2 
 4780000   0.47468118   -8.7123233    649.74566  0.011327504 0.0096731831            3 
 4781000   0.49360562   -8.7183169     650.4818  0.011337966 0.0096699092            3 
 4782000   0.49268993    -8.700909    650.16196  0.011330022 0.0096666378            3 
 4783000   0.48735855   -8.7054934    650.17876  0.011327945 0.0096633682            2 
 4784000    0.4876136   -8.7039511    649.77523  0.011318549 0.0096600986            2 
 4785000   0.47975381   -8.7089406    649.69458  0.011314778 0.0096568308            3 
 4786000    0.5002726   -8.7135397    650.54314  0.011327189 0.0096535651            3 
 4787000   0.48169733   -8.7167559    650.16707  0.011318276 0.0096503029            3 
 4788000   0.48526747   -8.7137088    649.82197  0.011309906 0.0096470407            4 
 4789000   0.47791804   -8.6951698    649.74304  0.011306171 0.0096437799            2 
 4790000   0.48672382   -8.7072887    649.63296  0.011301896 0.0096405232            2 
 4791000   0.48465096   -8.7256889     649.6674  0.011300136 0.0096372655            2 
 4792000   0.47667366   -8.7157335    650.03385   0.01130415  0.009634009            3 
 4793000   0.47157834   -8.7168442     648.8513  0.011281231 0.0096307508            2 
 4794000   0.48511366   -8.7368115    649.11101  0.011283393 0.0096274947            2 
 4795000   0.48940916   -8.7167142    649.70476  0.011291358 0.0096242403            2 
 4796000   0.48905298   -8.7218355    649.59464  0.011287091 0.0096209854            2 
 4797000   0.48822403   -8.7231077    649.37805  0.011280975 0.0096177339            2 
 4798000   0.48847852   -8.7279702    649.19462  0.011275438 0.0096144865            2 
 4799000   0.49640662   -8.7149217    649.15555   0.01127241 0.0096112395            2 
 4800000   0.48308426   -8.7276615    650.25448   0.01128914 0.0096079955            4 
 4801000   0.49258891   -8.7225119    649.72887  0.011277666 0.0096047494            2 
 4802000   0.48907545   -8.7161834    648.81129  0.011259393  0.009601507            3 
 4803000    0.4866294   -8.7158525    649.82655  0.011274664 0.0095982669            1 
 4804000   0.47677396   -8.7233384     648.7264  0.011253233 0.0095950241            2 
 4805000    0.4792314   -8.7118687     650.0766  0.011274308 0.0095917832            2 
 4806000   0.48991091   -8.7203269    649.86591  0.011268309 0.0095885462            2 
 4807000   0.48388578   -8.7075884     650.0808   0.01126969 0.0095853107            2 
 4808000   0.47681332   -8.7335381    650.28037  0.011270805 0.0095820765            1 
 4809000   0.47864827   -8.7141906     650.0561  0.011264575 0.0095788445            2 
 4810000   0.48555944   -8.7079541    649.28907  0.011248944 0.0095756112            4 
 4811000   0.47284746   -8.7119476    649.09348  0.011243218 0.0095723801            2 
 4812000   0.48265111   -8.7202781    649.94757  0.011255673 0.0095691496            3 
 4813000   0.47940638   -8.7152936    649.39625  0.011243788 0.0095659231            2 
 4814000   0.47878518   -8.7343246    650.30572  0.011257196 0.0095626962            1 
 4815000   0.48076276   -8.7071404    649.79513  0.011246022 0.0095594723            2 
 4816000   0.48828155   -8.7274229    649.88865  0.011245305 0.0095562485            2 
 4817000   0.47959072   -8.7231542    649.26821  0.011232237 0.0095530268            2 
 4818000   0.47408342   -8.7086647    649.38208  0.011231875 0.0095498088            1 
 4819000   0.47625375   -8.7310724    649.28378  0.011227844 0.0095465904            5 
 4820000   0.48206899   -8.7376547    648.40767  0.011210368 0.0095433721            2 
 4821000   0.49384073   -8.7286495    649.84954  0.011232966 0.0095401539            2 
 4822000   0.47844049   -8.7300872    649.99875  0.011233215 0.0095369392            2 
 4823000   0.47898047   -8.7402699     649.4779  0.011221886 0.0095337243            3 
 4824000   0.47616725   -8.7310392    649.57139  0.011221175 0.0095305122            2 
 4825000   0.48065933   -8.7339265     649.1078  0.011210843 0.0095273017            3 
 4826000   0.48225369    -8.732272     649.1141  0.011208629 0.0095240911            5 
 4827000   0.47642689   -8.7237877    650.20839  0.011225198 0.0095208816            3 
 4828000   0.48619568   -8.7242683    649.57486  0.011211938 0.0095176749            6 
 4829000   0.48180414   -8.7269549    649.97159  0.011216463 0.0095144659            5 
 4830000   0.47723651   -8.7314617    650.28605  0.011219566 0.0095112624            6 
 4831000   0.48163533   -8.7192316    649.58545  0.011205159 0.0095080583            2 
 4832000   0.48338565   -8.7341773    649.50772  0.011201499 0.0095048545            3 
 4833000   0.48426366   -8.7312285    649.13552  0.011192764 0.0095016554            2 
 4834000   0.46936722   -8.7326396    649.32102  0.011193646 0.0094984566            2 
 4835000    0.4942171   -8.7303717    649.39465    0.0111926 0.0094952608            4 
 4836000   0.48030014   -8.7208423    650.03929  0.011201394 0.0094920628            2 
 4837000     0.492552   -8.7461202    649.48614  0.011189548 0.0094888693            3 
 4838000   0.48860424   -8.7354667    649.14374  0.011181338 0.0094856727            2 
 4839000   0.48241763   -8.7381478    649.45779  0.011184435 0.0094824786            4 
 4840000   0.48062367   -8.7240746    650.18215  0.011194596 0.0094792854            5 
 4841000   0.49067681    -8.722497    649.43583  0.011179437 0.0094760969            2 
 4842000   0.47717599   -8.7202761    649.47413  0.011177787  0.009472909            3 
 4843000   0.47474562   -8.7372132    648.83508  0.011164483  0.009469719            2 
 4844000   0.47669744   -8.7299622    649.74834  0.011177889 0.0094665351            1 
 4845000   0.48456592   -8.7035871    649.59418  0.011172931 0.0094633481            3 
 4846000   0.48012966   -8.7337957    649.74515  0.011173221 0.0094601649            2 
 4847000   0.47847088   -8.7514327    648.84353  0.011155414  0.009456982            2 
 4848000   0.47399117   -8.7344995    649.11713  0.011157816 0.0094537996            1 
 4849000    0.4739875   -8.7315304    649.68394  0.011165256 0.0094506215            2 
 4850000   0.46309944   -8.7187202    648.54761   0.01114343 0.0094474432            2 
 4851000   0.47800506   -8.7270811    649.06543  0.011150028 0.0094442661            2 
 4852000   0.48394676   -8.7404177    648.89876  0.011144867 0.0094410891            1 
 4853000   0.47674637   -8.7291022    648.15456  0.011129792 0.0094379154            4 
 4854000   0.47604189   -8.7340519    649.12641  0.011144184 0.0094347399            2 
 4855000   0.47939713   -8.7162549    648.71002  0.011134741 0.0094315672            3 
 4856000   0.48005435   -8.7301707    649.40465  0.011144369 0.0094283988            1 
 4857000   0.47597442   -8.7440234    649.85382  0.011149781 0.0094252279            5 
 4858000   0.47289711   -8.7326443    649.41062  0.011139883  0.009422062            1 
 4859000   0.48414669   -8.7393068    649.39921  0.011137395 0.0094188969            1 
 4860000   0.47453673   -8.7255359    649.73449  0.011140852 0.0094157316            1 
 4861000   0.47610965   -8.7268209    648.63262  0.011119671 0.0094125698            2 
 4862000   0.47042297   -8.7235897    649.33515  0.011129425 0.0094094081            4 
 4863000   0.47487999   -8.7190919    649.74323  0.011134129  0.009406246            2 
 4864000   0.48364507   -8.7338505    648.92999  0.011117907 0.0094030877            2 
 4865000   0.46562768   -8.7309105    649.60078  0.011127112 0.0093999321            2 
 4866000   0.47230442   -8.7495034    648.74225  0.011110122 0.0093967744            3 
 4867000   0.47813341    -8.717259    649.73853  0.011124898 0.0093936201            3 
 4868000   0.46690059     -8.72984    648.58074  0.011102793 0.0093904673            3 
 4869000   0.47726812    -8.733603    648.68828  0.011102353 0.0093873146            5 
 4870000   0.46309678   -8.7319651     649.8852  0.011120554 0.0093841635            2 
 4871000   0.46416198   -8.7424134    649.11714  0.011105131 0.0093810127            2 
 4872000   0.47775118   -8.7240352    650.17602  0.011120964 0.0093778675            2 
 4873000   0.46492558   -8.7334032    648.70529  0.011093531 0.0093747225            3 
 4874000   0.46658205   -8.7302297    649.43272  0.011103692 0.0093715787            2 
 4875000    0.4698562   -8.7362701    648.53178  0.011086013 0.0093684346            1 
 4876000   0.46935987   -8.7302539    648.73263  0.011087172 0.0093652919            6 
 4877000   0.47118589   -8.7373653    648.94716  0.011088565 0.0093621502            6 
 4878000    0.4775305   -8.7382167    648.17232  0.011073055 0.0093590102            6 
 4879000   0.47809036   -8.7430878    648.95314  0.011084121 0.0093558731            3 
 4880000   0.47533324   -8.7491818    648.66204  0.011076879 0.0093527339            3 
 4881000   0.47096634   -8.7433875    648.64759  0.011074363 0.0093495975            2 
 4882000   0.46749164   -8.7419888    648.41671  0.011068154  0.009346463            3 
 4883000   0.47148826   -8.7255366    648.05457  0.011059707  0.009343331            1 
 4884000   0.46250273   -8.7418551    649.46227  0.011081461 0.0093401999            1 
 4885000   0.46134167   -8.7447562    649.13959  0.011073688  0.009337068            1 
 4886000   0.47941098   -8.7438675    649.16119   0.01107179  0.009333939            2 
 4887000   0.46226908   -8.7383376    648.41756  0.011056844 0.0093308102            4 
 4888000   0.46581116   -8.7428277    648.91539  0.011063069 0.0093276838            2 
 4889000   0.45567715    -8.733796    649.64844  0.011073301 0.0093245584            4 
 4890000   0.47443257    -8.740407    648.78706  0.011056358 0.0093214336            2 
 4891000    0.4777327   -8.7363971    648.28018  0.011045461  0.009318308            2 
 4892000   0.47304141   -8.7404203    648.48894  0.011046759 0.0093151854            4 
 4893000   0.48412743   -8.7312653     649.4797  0.011061375 0.0093120647            4 
 4894000   0.47453564   -8.7414235    648.14664  0.011036416  0.009308946            3 
 4895000   0.48001125   -8.7429143    649.25863  0.011053092 0.0093058301            2 
 4896000   0.45548867    -8.735338    648.82757  0.011043498 0.0093027136            2 
 4897000   0.46472743   -8.7439776    648.48339  0.011035385 0.0092996004            2 
 4898000   0.45194186   -8.7384049     649.5349  0.011051023 0.0092964866            2 
 4899000   0.45352646   -8.7507901    649.36089  0.011045807 0.0092933726            1 
 4900000   0.46583525   -8.7596002    648.98448  0.011037151 0.0092902598            4 
 4901000   0.46898373   -8.7559912    649.45374  0.011042878 0.0092871521            2 
 4902000   0.47689651   -8.7331803     648.5608  0.011025445 0.0092840434            3 
 4903000   0.46585952    -8.750589      648.946  0.011029744 0.0092809373            2 
 4904000   0.47790998   -8.7580522    648.80877  0.011025163 0.0092778323            2 
 4905000   0.47241757   -8.7474759    649.55177  0.011035538  0.009274728            2 
 4906000   0.45847281   -8.7333785    648.73045  0.011019338 0.0092716224            1 
 4907000   0.47134612      -8.7418    648.80667  0.011018387 0.0092685197            1 
 4908000   0.47428367   -8.7476398    648.00011  0.011002447 0.0092654176            3 
 4909000    0.4592399   -8.7527395    648.93953  0.011016153 0.0092623166            2 
 4910000   0.47072531   -8.7531341    648.41589  0.011005022 0.0092592175            4 
 4911000   0.46419359   -8.7524508    649.41966  0.011019814 0.0092561218            6 
 4912000   0.46766416   -8.7355475    648.58542  0.011003417 0.0092530254            3 
 4913000   0.46796407    -8.754978     648.7896  0.011004641 0.0092499291            2 
 4914000   0.46589616   -8.7351465    648.79839   0.01100255 0.0092468346            3 
 4915000   0.47105401    -8.731608    648.28508  0.010991609 0.0092437413            3 
 4916000   0.46419683   -8.7414139    648.90874  0.010999945 0.0092406526            2 
 4917000   0.46815144   -8.7482803    647.44112  0.010972834 0.0092375634            4 
 4918000   0.46272279   -8.7467044    649.53002  0.011005999 0.0092344778            4 
 4919000   0.46527073   -8.7641726     649.1386   0.01099713 0.0092313924            3 
 4920000   0.45449816   -8.7375923    647.41675  0.010965731 0.0092283075            5 
 4921000   0.46607805   -8.7428928    648.38388   0.01097988 0.0092252232            2 
 4922000   0.46773096   -8.7461956    648.31125   0.01097642 0.0092221384            2 
 4923000   0.46516072   -8.7383237    648.48608  0.010977149 0.0092190568            2 
 4924000   0.46543742   -8.7481069    649.20049  0.010987011 0.0092159748            2 
 4925000     0.464277    -8.747495    648.15347  0.010967064 0.0092128976            2 
 4926000   0.46292983   -8.7454647    649.04668  0.010979948 0.0092098202            4 
 4927000   0.47327114   -8.7715647    648.41813  0.010967088 0.0092067442            3 
 4928000   0.46214393   -8.7602653    648.65156   0.01096881  0.009203668            3 
 4929000   0.47047463   -8.7499623    648.22682  0.010959404 0.0092005933            3 
 4930000   0.46187424   -8.7354409    648.77174  0.010966392 0.0091975215            2 
 4931000    0.4649562   -8.7492257    648.87173  0.010965858 0.0091944499            2 
 4932000   0.46308658   -8.7582522      648.087  0.010950375 0.0091913776            2 
 4933000   0.44969752    -8.733711    648.50305  0.010955184 0.0091883079            3 
 4934000   0.46337284   -8.7475336    648.38754  0.010951012 0.0091852418            6 
 4935000   0.45823132   -8.7526114    648.65328  0.010953281 0.0091821759            1 
 4936000   0.46771622   -8.7597301     648.2073  0.010943532 0.0091791134            4 
 4937000   0.46009769   -8.7583752    649.18251  0.010957776 0.0091760501            2 
 4938000   0.47209623   -8.7584676    648.24337  0.010939709 0.0091729892            3 
 4939000   0.46942695   -8.7394441    647.97269  0.010932927 0.0091699297            3 
 4940000   0.46504853   -8.7605885     648.4676  0.010939062 0.0091668697            2 
 4941000   0.46015366   -8.7607097    648.82486  0.010942874 0.0091638117            2 
 4942000   0.46387318   -8.7540178    648.30214  0.010931845 0.0091607547            1 
 4943000   0.46856329   -8.7432222    650.04681  0.010959047 0.0091577009            3 
 4944000   0.46128506   -8.7604776    649.04248  0.010939901 0.0091546468            2 
 4945000   0.46092203   -8.7522972     648.2268  0.010923943 0.0091515913            3 
 4946000   0.46473122    -8.762568    648.65707  0.010928984 0.0091485404            2 
 4947000   0.46170449   -8.7469455    647.89396   0.01091392 0.0091454903            3 
 4948000   0.45825555   -8.7529613    648.04487  0.010914256 0.0091424433            3 
 4949000    0.4628906   -8.7644581    648.48255  0.010919421 0.0091393973            2 
 4950000   0.45346591   -8.7513887    648.10517  0.010910861 0.0091363517            1 
 4951000   0.46814545   -8.7638809    647.45937  0.010897788  0.009133308            3 
 4952000   0.47154744   -8.7720752    648.93288  0.010920384 0.0091302662            2 
 4953000   0.46676534   -8.7561028    648.78566  0.010915702 0.0091272271            2 
 4954000    0.4565494   -8.7692646    648.74291  0.010912779 0.0091241852            3 
 4955000   0.46147507   -8.7652615    647.66482  0.010892446 0.0091211473            3 
 4956000   0.45832271   -8.7656673    647.61821  0.010889464 0.0091181092            2 
 4957000   0.45717886   -8.7644861    648.38868   0.01090022 0.0091150725            1 
 4958000   0.45239023   -8.7632533    648.53516  0.010900483 0.0091120379            2 
 4959000   0.45811975   -8.7532833    648.22779   0.01089312 0.0091090046            3 
 4960000   0.46774049   -8.7552486    648.21214  0.010890661  0.009105973            2 
 4961000   0.45557564   -8.7545562     647.7732  0.010881093 0.0091029431            2 
 4962000   0.45963612   -8.7568747    648.17226  0.010885602 0.0090999128            2 
 4963000   0.45745771   -8.7641563     647.9857  0.010880276  0.009096882            2 
 4964000   0.46492914   -8.7729531    648.82208  0.010892125 0.0090938534            2 
 4965000   0.46231767   -8.7698795    648.94761  0.010892038 0.0090908271            2 
 4966000   0.46271235   -8.7629708     649.2116  0.010894274 0.0090878015            3 
 4967000   0.46351898    -8.772891    648.92273  0.010887235 0.0090847782            3 
 4968000   0.45955278   -8.7659027    647.86104  0.010867234 0.0090817535            4 
 4969000   0.45210925    -8.758531    648.36794  0.010873548 0.0090787319            3 
 4970000   0.45531591   -8.7636423    647.98789  0.010864988 0.0090757125            3 
 4971000   0.46059771   -8.7611661    648.24394  0.010867095 0.0090726921            2 
 4972000   0.45414597   -8.7665729    648.41111  0.010867711  0.009069674            4 
 4973000   0.46654254   -8.7555852    648.23526  0.010862579 0.0090666573            2 
 4974000   0.46130623   -8.7710744     648.1369  0.010858747 0.0090636437            2 
 4975000    0.4544738   -8.7430921    648.10515  0.010856033 0.0090606299            1 
 4976000   0.46383409    -8.758347    647.54853  0.010844529 0.0090576177            1 
 4977000   0.44899238   -8.7666889    648.35045  0.010855777  0.009054605            5 
 4978000   0.45453397   -8.7663543    648.36605  0.010853858 0.0090515947            1 
 4979000   0.45268576   -8.7592198    648.42453  0.010852657 0.0090485861            3 
 4980000   0.45584036   -8.7614806    648.16016  0.010846053 0.0090455773            4 
 4981000   0.45962581   -8.7531125    648.20757  0.010844669 0.0090425715            2 
 4982000   0.45279846   -8.7680645    647.92285   0.01083773 0.0090395692            1 
 4983000   0.46569866   -8.7649376    647.53183  0.010829016  0.009036568            2 
 4984000   0.45139784   -8.7652311    647.84039  0.010832002 0.0090335666            2 
 4985000   0.44807649   -8.7646933    647.28217  0.010820498 0.0090305634            1 
 4986000   0.45033082   -8.7574704    647.57118  0.010823158 0.0090275648            3 
 4987000   0.45610678   -8.7602478    648.65692   0.01083913  0.009024565            3 
 4988000   0.45541371   -8.7522772    647.85874  0.010823622 0.0090215685            1 
 4989000   0.46596642    -8.768129    647.69487  0.010818716 0.0090185701            2 
 4990000   0.45654798   -8.7531724    648.05091  0.010822493 0.0090155774            2 
 4991000   0.45921948   -8.7733402    648.59952  0.010829485 0.0090125866            2 
 4992000   0.45337575   -8.7641483    649.06582    0.0108351 0.0090095935            3 
 4993000   0.45278988   -8.7729665    648.06887  0.010816291 0.0090066018            2 
 4994000   0.45262563    -8.747165    647.47344  0.010804189 0.0090036114            2 
 4995000   0.44818586   -8.7683818    648.53526  0.010819741 0.0090006248            3 
 4996000   0.44873655   -8.7519695    647.55343  0.010801198 0.0089976376            3 
 4997000   0.45501198   -8.7689703    647.50846  0.010798287 0.0089946523            3 
 4998000   0.44594086   -8.7647094    647.94348  0.010803379 0.0089916678            2 
 4999000   0.46263624   -8.7777086     647.7373  0.010797781 0.0089886854            3 
 5000000   0.45023981   -8.7698866    648.25645  0.010804274 0.0089857047            3 
 5001000   0.45868714   -8.7716922    647.52619  0.010789945 0.0089827227            3 
 5002000   0.45387193   -8.7616746    647.98226  0.010795386  0.008979744            2 
 5003000   0.44529809   -8.7569211     646.6675  0.010771329 0.0089767657            2 
 5004000   0.44805926   -8.7659819    647.97729  0.010790989  0.008973789            4 
 5005000   0.43609537   -8.7758313    648.53598  0.010798135  0.008970814            3 
 5006000   0.45650301   -8.7729692    648.42415  0.010794116 0.0089678402            2 
 5007000   0.46344532   -8.7626408    648.37952  0.010791218 0.0089648683            2 
 5008000   0.45354407   -8.7838851    648.55794  0.010792032 0.0089618973            4 
 5009000   0.45570216   -8.7681981    647.97875  0.010780241 0.0089589253            4 
 5010000   0.45181473    -8.776439    647.77465  0.010774695 0.0089559529            4 
 5011000    0.4410222   -8.7505897    647.72866   0.01077178 0.0089529875            2 
 5012000   0.44658206   -8.7468293    648.27554  0.010778723 0.0089500192            2 
Loop time of 11998.2 on 48 procs for 5000000 steps with 4000 atoms

Performance: 72010.550 tau/day, 416.728 timesteps/s
99.4% CPU use with 48 MPI tasks x no OpenMP threads

MPI task timing breakdown:
Section |  min time  |  avg time  |  max time  |%varavg| %total
---------------------------------------------------------------
Pair    | 790.93     | 847.27     | 917.32     | 105.4 |  7.06
Neigh   | 78.826     | 82.015     | 84.935     |  18.7 |  0.68
Comm    | 753.78     | 827.91     | 895.03     | 114.3 |  6.90
Output  | 13.795     | 13.8       | 13.883     |   0.3 |  0.12
Modify  | 10086      | 10121      | 10137      |  11.2 | 84.35
Other   |            | 106.7      |            |       |  0.89

Nlocal:        83.3333 ave          91 max          76 min
Histogram: 1 2 6 6 10 7 10 2 1 3
Nghost:        2092.96 ave        2112 max        2067 min
Histogram: 1 2 1 6 6 5 12 8 6 1
Neighs:        13651.8 ave       15456 max       12383 min
Histogram: 6 3 6 10 6 7 5 4 0 1
FullNghs:      27304.7 ave       29893 max       24735 min
Histogram: 3 0 7 5 8 10 8 4 0 3

Total # of neighbors = 1310625
Ave neighs/atom = 327.65625
Neighbor list builds = 267566
Dangerous builds = 1

#clear
#
#next RN
#
#jump SELF
Total wall time: 3:20:01
