
units lj                  # Use reduced LJ style units
atom_style atomic         # Uncharged point particles
atom_modify map hash      # Needed for indexing of clusters etc
                          # Used to be able to find where atoms are in relation to each other.

lattice fcc 1.0 spacing 1 1 1
Lattice spacing in x,y,z = 1.5874011 1.5874011 1.5874011
region box block 0 10 0 10 0 10 units lattice
create_box 2 box
Created orthogonal box = (0.0000000 0.0000000 0.0000000) to (15.874011 15.874011 15.874011)
  3 by 4 by 4 MPI processor grid
create_atoms 1 box
Created 4000 atoms
  using lattice units in orthogonal box = (0.0000000 0.0000000 0.0000000) to (15.874011 15.874011 15.874011)
  create_atoms CPU = 0.003 seconds
set type 1 type/fraction 2 0.27 78393
Setting atom values ...
  1113 settings made for type/fraction
mass 1 1.0
mass 2 1.0
pair_style lj/cut  3.5
pair_modify tail  yes
pair_coeff 1  1  1.0  1.0   # Intearaction between 1 and 1 set with epsilon = 1 and sigma = 1
pair_coeff 1  2  1.5  0.8
pair_coeff 2  2  0.5  0.88

write_data data.0
System init for write_data ...
Neighbor list info ...
  update every 1 steps, delay 10 steps, check yes
  max neighbors/atom: 2000, page size: 100000
  master list distance cutoff = 3.8
  ghost atom cutoff = 3.8
  binsize = 1.9, bins = 9 9 9
  1 neighbor lists, perpetual/occasional/extra = 1 0 0
  (1) pair lj/cut, perpetual
      attributes: half, newton on
      pair build: half/bin/atomonly/newton
      stencil: half/bin/3d
      bin: standard
WARNING: Not all mixed pair coeffs generated from mixing. Use write_data with 'pair ij' option to store all pair coeffs. (../write_data.cpp:312)


#############################
#   M E L T   S Y S T E M   #
#############################

velocity all create 2.4 6583654 mom yes dist gaussian # Assign velocities
                                                    # Temperature 2.4, random number seed, zero linear momentum
                                                                                # Gaussian distribution

timestep 0.002   # simulation timestep
thermo 1000       # output thermodynamic data every 1000 steps bf 100

# Define a fix  in this case with index 1 applied to all
# particles in the simulation. This fix is for simulations
# in the anisotropic NPT ensemble. Note that we use the MTK
# correction.
fix 1 all npt temp 2.4 2.4 0.1 iso 5.68 5.68 0.5 mtk yes tchain 5 pchain 5 # Use NPT ensemble
                                                                         # Set temperature and pressure and damping
                                                                         # Numbers of thermostats in chain and in barostat
run 10000          # run for 10000 steps
Per MPI rank memory allocation (min/avg/max) = 3.642 | 3.644 | 3.648 Mbytes
Step Temp E_pair E_mol TotEng Press Volume 
       0          2.4   -6.6079615            0   -3.0088615   -3.8965289         4000 
    1000    2.4027972   -4.9048545            0   -1.3015598    5.6119509    4266.9268 
    2000    2.3930301   -4.9676391            0   -1.3789913    5.6041429    4237.6168 
    3000    2.3187265   -4.9937329            0   -1.5165127     5.504217    4230.9708 
    4000    2.4022678    -4.978195            0   -1.3756941    5.3766202    4253.4719 
    5000    2.4079993   -4.9033088            0   -1.2922129     6.126493    4228.7618 
    6000    2.3669177   -4.9736673            0   -1.4241783    5.8456756    4207.6699 
    7000    2.3670084   -4.9683353            0   -1.4187104    5.1579884    4278.9389 
    8000    2.3921113   -4.9912439            0    -1.403974    5.9066916    4194.4927 
    9000    2.4075347   -4.9783458            0   -1.3679466    5.8444224    4213.8369 
   10000    2.4294907   -4.9829817            0   -1.3396567    5.6783608    4221.8318 
Loop time of 2.38012 on 48 procs for 10000 steps with 4000 atoms

Performance: 726015.110 tau/day, 4201.476 timesteps/s
99.6% CPU use with 48 MPI tasks x no OpenMP threads

MPI task timing breakdown:
Section |  min time  |  avg time  |  max time  |%varavg| %total
---------------------------------------------------------------
Pair    | 1.008      | 1.0903     | 1.1357     |   2.5 | 45.81
Neigh   | 0.20043    | 0.20796    | 0.21417    |   0.8 |  8.74
Comm    | 0.77044    | 0.82431    | 0.89634    |   3.1 | 34.63
Output  | 0.00024665 | 0.00024964 | 0.00031621 |   0.0 |  0.01
Modify  | 0.22187    | 0.24206    | 0.26137    |   1.9 | 10.17
Other   |            | 0.01519    |            |       |  0.64

Nlocal:        83.3333 ave          94 max          73 min
Histogram: 2 2 5 9 9 5 4 8 2 2
Nghost:        1592.02 ave        1619 max        1551 min
Histogram: 1 1 3 5 5 8 6 10 5 4
Neighs:        9036.88 ave       11151 max        7711 min
Histogram: 3 6 7 9 10 8 4 0 0 1

Total # of neighbors = 433770
Ave neighs/atom = 108.44250
Neighbor list builds = 902
Dangerous builds = 174

# Equilibrate just above the melting temperature to avoid step fn in T

fix 1 all npt temp 1.25 1.25 0.1 iso 5.68 5.68 0.5 mtk yes tchain 5 pchain 5
run 2000
Per MPI rank memory allocation (min/avg/max) = 3.643 | 3.645 | 3.649 Mbytes
Step Temp E_pair E_mol TotEng Press Volume 
   10000    2.4294907   -4.9829817            0   -1.3396567    5.6783608    4221.8318 
   11000    1.2601215   -6.7614181            0   -4.8717085    5.6499658    3432.7823 
   12000    1.2781791   -6.7536162            0   -4.8368269     5.920111    3420.2852 
Loop time of 0.551679 on 48 procs for 2000 steps with 4000 atoms

Performance: 626451.252 tau/day, 3625.297 timesteps/s
99.6% CPU use with 48 MPI tasks x no OpenMP threads

MPI task timing breakdown:
Section |  min time  |  avg time  |  max time  |%varavg| %total
---------------------------------------------------------------
Pair    | 0.24225    | 0.2658     | 0.29172    |   2.2 | 48.18
Neigh   | 0.035511   | 0.038375   | 0.040642   |   0.6 |  6.96
Comm    | 0.16838    | 0.19794    | 0.22702    |   2.9 | 35.88
Output  | 5.104e-05  | 5.2885e-05 | 6.8228e-05 |   0.0 |  0.01
Modify  | 0.040715   | 0.044777   | 0.048518   |   1.0 |  8.12
Other   |            | 0.004734   |            |       |  0.86

Nlocal:        83.3333 ave          91 max          75 min
Histogram: 1 4 0 12 6 7 8 3 4 3
Nghost:        1821.60 ave        1841 max        1805 min
Histogram: 1 4 4 12 8 7 8 0 0 4
Neighs:        11161.9 ave       12833 max        9739 min
Histogram: 3 4 5 6 12 6 3 5 3 1

Total # of neighbors = 535773
Ave neighs/atom = 133.94325
Neighbor list builds = 141
Dangerous builds = 9

#############################
# L I N E A R  Q U E N C H  #
#############################

# Define solid atoms. This closely follows ten Wolde  Ruiz-Montero and Frenkel  Faraday Discuss  1996  104  93-110
# Compute components of the per-atom q6 vector
compute q6 all orientorder/atom degrees 1 6 components 6 nnn NULL cutoff 1.3 # compute the Q6 parameter.
                                                                             # Use all neighbours within 1.3 unit cell.

# get number of connections
compute coord_number all coord/atom orientorder q6 0.5

# An atom is solid if it has 8 or more connections (of a possible 14)
variable is_solid atom c_coord_number>=8
group solid dynamic all var is_solid    # Must be dynamic to update
dynamic group solid defined

# do clustering
compute cluster solid cluster/atom 1.3 # Create a cluster where all atoms within are solid and max 1.3 units from another member

# define chunks one chunk per cluster
compute clus_chunks solid chunk/atom c_cluster nchunk every compress yes  # Says which atoms are in which chunk

# count the size of each chunk
compute size_chunks solid property/chunk clus_chunks count


# Find the maximum entry in the vector of chunk sizes
variable max_n equal max(c_size_chunks)


# Thermo style which includes this variable
# thermo_style custom step temp pe vol v_max_n

thermo ${N}  # Print the thermo information every 100 steps
thermo 1000  

# Reset the npt fix at a lower temperature (below freezing)
fix 1  all npt temp  ${temp} ${temp}  0.1  iso  5.68  5.68  0.5  mtk yes tchain  5  pchain  5
fix 1  all npt temp  0.45 ${temp}  0.1  iso  5.68  5.68  0.5  mtk yes tchain  5  pchain  5
fix 1  all npt temp  0.45 0.45  0.1  iso  5.68  5.68  0.5  mtk yes tchain  5  pchain  5

dump dmp2 all dcd ${N} traj.dcd
dump dmp2 all dcd 1000 traj.dcd


compute msd all msd com yes
variable twopoint equal c_msd[4]/6/(step*dt+1.0e-6)
fix 9 all vector 10 c_msd[4]
variable fit equal slope(f_9)/6/(10*dt)
thermo_style custom step temp pe c_msd[4] v_twopoint v_fit v_max_n

fix 1 all npt temp 1.25 ${temp} 0.1 iso 5.68 5.68 0.5 mtk yes tchain 5 pchain 5
fix 1 all npt temp 1.25 0.45 0.1 iso 5.68 5.68 0.5 mtk yes tchain 5 pchain 5
run 2000000 # 5000000  # Run for this many steps
Neighbor list info ...
  update every 1 steps, delay 10 steps, check yes
  max neighbors/atom: 2000, page size: 100000
  master list distance cutoff = 3.8
  ghost atom cutoff = 3.8
  binsize = 1.9, bins = 8 8 8
  4 neighbor lists, perpetual/occasional/extra = 1 3 0
  (1) pair lj/cut, perpetual
      attributes: half, newton on
      pair build: half/bin/atomonly/newton
      stencil: half/bin/3d
      bin: standard
  (2) compute orientorder/atom, occasional
      attributes: full, newton on
      pair build: full/bin/atomonly
      stencil: full/bin/3d
      bin: standard
  (3) compute coord/atom, occasional
      attributes: full, newton on
      pair build: full/bin/atomonly
      stencil: full/bin/3d
      bin: standard
  (4) compute cluster/atom, occasional
      attributes: full, newton on
      pair build: full/bin/atomonly
      stencil: full/bin/3d
      bin: standard
Per MPI rank memory allocation (min/avg/max) = 9.806 | 9.811 | 9.814 Mbytes
Step Temp PotEng c_msd[4] v_twopoint v_fit v_max_n 
   12000    1.2781791   -6.7536162            0            0 8.3333333e+20            2 
   13000     1.231643    -6.794738   0.51187217 0.0032812317   0.04173447            1 
   14000    1.2357369    -6.802375   0.99383037 0.0059156568  0.040684924            2 
   15000     1.244611   -6.8205707    1.5220959 0.0084560879  0.041177602            1 
   16000    1.2380115   -6.8110467    1.9852066  0.010339617  0.041429326            1 
   17000    1.2229649   -6.7907242    2.4986995  0.012248527  0.041343144            2 
   18000    1.2226208   -6.8134321     2.942895  0.013624514  0.040919565            1 
   19000    1.2296499   -6.8224513    3.3639624  0.014754221  0.040308053            1 
   20000    1.2383901   -6.7759184    3.8784816   0.01616034   0.04003751            1 
   21000    1.2550827   -6.8349102    4.3926972  0.017431338  0.040089822            5 
   22000    1.2501726   -6.7695518    4.9389131  0.018708004  0.040303144            1 
   23000    1.2276042   -6.7910852    5.3956829  0.019549575  0.040408107            2 
   24000    1.2711713    -6.805815     5.869612  0.020380597   0.04052834            2 
   25000    1.2375184   -6.7989253    6.4827739  0.021609246  0.040759875            1 
   26000    1.2414329   -6.8080919    7.0915913  0.022729459   0.04114007            1 
   27000    1.2183066    -6.748997    7.5889006  0.023422532  0.041554796            2 
   28000    1.2319647   -6.7786923    8.0384802  0.023924048  0.041738959            1 
   29000    1.2397088   -6.7862015    8.5499013  0.024568682  0.041833684            1 
   30000    1.2683339   -6.7854016    8.9307805  0.024807723  0.041814866            2 
   31000    1.2565328   -6.8169657    9.4208316  0.025324816    0.0417245            2 
   32000    1.2638536    -6.767234    9.8278856  0.025593452  0.041598268            2 
   33000    1.2493574   -6.8107819    10.326618  0.026077319  0.041434168            2 
   34000      1.23114   -6.8226659    10.973241  0.026895199  0.041382875            4 
   35000    1.2246906   -6.7909638    11.591682  0.027599243  0.041504449            2 
   36000    1.2403329   -6.8014041    12.080976  0.027965222  0.041621976            1 
   37000    1.2269668   -6.8177309    12.534331  0.028230474  0.041727047            1 
   38000    1.2590713   -6.8431516    12.901765  0.028293345  0.041720527            3 
   39000    1.2565138   -6.8071314    13.324308  0.028470743  0.041677863            3 
   40000    1.2473426   -6.8081514    13.742585  0.028630386  0.041551869            2 
   41000     1.232205    -6.849641    14.178609  0.028818311  0.041398923            1 
   42000     1.227682   -6.8472573    14.716485  0.029199375  0.041307213            1 
   43000     1.257931   -6.8289085    15.114811  0.029292268  0.041215378            5 
   44000    1.2586659   -6.8103723    15.450052  0.029261461  0.041062142            1 
   45000    1.2340568   -6.8009843    15.896277  0.029437549  0.040909298            4 
   46000     1.222142   -6.7775506    16.332624  0.029588086  0.040749525            1 
   47000    1.2287247   -6.7879964    16.896764  0.029958802    0.0405958            1 
   48000    1.2467171   -6.7772596    17.481365  0.030349591  0.040503194            1 
   49000    1.2353869   -6.8351127    18.136536  0.030844449  0.040480831            1 
   50000    1.2464192   -6.8560715    18.739844  0.031233073  0.040502543            1 
   51000    1.2361543   -6.8368222    19.237957   0.03143457  0.040551384            2 
   52000    1.2314136   -6.7981671      19.7675  0.031678686  0.040594411            2 
   53000    1.2201713   -6.8022543    20.072324  0.031560258  0.040611814            1 
   54000    1.2583656   -6.8261118    20.527678  0.031678514  0.040601189            2 
   55000    1.2436459   -6.8305712    21.060221  0.031909425  0.040613528            2 
   56000    1.2563558   -6.8051989    21.720915   0.03232279    0.0406266            1 
   57000     1.227414   -6.8328292    22.182661  0.032430791  0.040668964            1 
   58000    1.2337603    -6.821917    22.676788  0.032581591  0.040698556            1 
   59000    1.2349616   -6.8754255    23.249982  0.032838958  0.040729935            1 
   60000    1.2485741   -6.8245483    23.663144  0.032865478  0.040780443            1 
   61000    1.2278478   -6.8424235    24.259575  0.033141495  0.040828298            1 
   62000     1.248633   -6.8246835    24.791893  0.033322437  0.040872037            1 
   63000    1.2346633    -6.817581    25.410536   0.03361182  0.040925052            1 
   64000    1.2215416   -6.7915692    25.899914  0.033723846  0.040979302            2 
   65000    1.2265621   -6.8282264     26.39319  0.033837422  0.041028994            2 
   66000    1.2311904   -6.8729108    26.677339  0.033683509  0.041064505            1 
   67000    1.2251027   -6.8177882    27.410534  0.034092703  0.041087733            1 
   68000    1.2191898   -6.8605115    27.732193   0.03398553  0.041105418            5 
   69000    1.2078404    -6.856091    28.198337  0.034055962   0.04111083            2 
   70000    1.2314037   -6.8073724    28.391378   0.03379926  0.041100452            1 
   71000     1.253665   -6.8145096    28.807704  0.033811859  0.041073005            1 
   72000     1.218607   -6.8111315    29.423735  0.034055248  0.041039443            1 
   73000     1.241707   -6.8305274    29.708227  0.033913501   0.04099594            3 
   74000    1.2412231   -6.8575284    30.051785    0.0338421  0.040949204            2 
   75000    1.2156774   -6.8182317    30.553079  0.033947865  0.040902529            1 
   76000    1.2034078   -6.8381937    31.083128  0.034082377  0.040855063            2 
   77000    1.2063836    -6.855147    31.563492  0.034159623  0.040810837            2 
   78000    1.1990465   -6.8232535    31.931454  0.034114801  0.040761689            1 
   79000    1.1934826   -6.8354244    32.237581  0.034005886  0.040704591            1 
   80000    1.2405938   -6.8732428    32.708316  0.034071163  0.040641797            1 
   81000    1.2291185   -6.8818454    33.100593  0.034054107  0.040584054            1 
   82000    1.2016368    -6.872288    33.579785  0.034125798  0.040521491            1 
   83000    1.2336904   -6.8877962    33.927094  0.034063347  0.040460943            2 
   84000    1.2006321   -6.8193097    34.660813  0.034385727  0.040403665            7 
   85000    1.2315643   -6.8290725    35.252996   0.03456176  0.040364742            2 
   86000    1.2283421   -6.8845344    35.635116  0.034530151  0.040331997            1 
   87000    1.1943809   -6.8435122    36.068533  0.034548403  0.040296489            2 
   88000     1.235723   -6.8252593    36.565944  0.034626841  0.040261438            1 
   89000    1.2085524    -6.807792    37.241642  0.034870451  0.040235538            3 
   90000    1.2075985   -6.8470588    37.715855  0.034922088  0.040218816            1 
   91000    1.2096367   -6.8243119     38.26035  0.035036951  0.040206064            1 
   92000    1.2146556   -6.8383878    38.536063  0.034905854  0.040190165            1 
   93000    1.2355211   -6.8439177    38.931027  0.034884433  0.040169771            1 
   94000    1.2188786   -6.8376509     39.50108  0.035018688  0.040153152            1 
   95000    1.2167012   -6.8213248    40.134122   0.03520537  0.040139705            1 
   96000    1.2089854   -6.8429288    40.345591  0.035022214  0.040124765            1 
   97000    1.2369701   -6.8906827    40.889051  0.035128051  0.040098044            2 
   98000    1.2010867    -6.831144    41.186109  0.035022201  0.040070467            1 
   99000    1.1908804   -6.8610463    41.212134  0.034690349   0.04002705            2 
  100000    1.2191473   -6.9035774    41.693129  0.034744274  0.039971805            2 
  101000    1.1980387   -6.8440488    42.042909  0.034688869  0.039914759            4 
  102000    1.2112716   -6.8780135    42.592788  0.034798029  0.039862334            1 
  103000    1.2109892   -6.8714848    43.115515  0.034883102  0.039812051            1 
  104000    1.2078736   -6.8813421    43.568945  0.034911014  0.039769887            1 
  105000    1.2150515   -6.8547138    43.931912  0.034866596  0.039727718            2 
  106000     1.207135   -6.8413755    44.536111  0.035012666  0.039684477            2 
  107000    1.2207307   -6.8447678    44.842109  0.034923761  0.039644138            1 
  108000    1.1980817   -6.8855066    45.351289  0.034993278  0.039600165            2 
  109000    1.2159975   -6.8167958    46.133238  0.035270059   0.03956597            1 
  110000    1.2109237   -6.8775945    46.475376  0.035208618  0.039542363            6 
  111000    1.2372326   -6.8493697    46.930878  0.035233391  0.039517222            1 
  112000    1.2141648   -6.8910088     47.35773  0.035236406  0.039494494            2 
  113000    1.2225068   -6.9029951    47.703612  0.035179655   0.03946391            1 
  114000    1.1976952   -6.8781437    48.062868  0.035133675  0.039428285            1 
  115000     1.222702   -6.8565585    48.591743  0.035211408  0.039391424            4 
  116000    1.2054553   -6.8230651    48.955705  0.035169328  0.039356936            3 
  117000    1.2195411   -6.8009915    49.390836  0.035178658  0.039322495            1 
  118000    1.1870259   -6.8559252    49.830122  0.035190764  0.039290523            1 
  119000    1.2058408   -6.8361442    50.106941  0.035088894  0.039255542            1 
  120000    1.2200626   -6.8707993     50.51558  0.035080264  0.039216872            1 
  121000    1.2098636   -6.8453264    50.753369  0.034954111  0.039169795            3 
  122000    1.2177388   -6.8600703     51.24767  0.035005239  0.039124647            1 
  123000    1.1950648   -6.8796099    51.713051  0.035035942  0.039082203            2 
  124000    1.2287723   -6.8738056    52.080943  0.035000633  0.039040039            2 
  125000    1.2054539   -6.8532098    52.452321  0.034968214   0.03899971            1 
  126000    1.2038562   -6.8915305    52.938586  0.035012292  0.038957714            2 
  127000     1.194621   -6.8792155    53.654731  0.035206517  0.038923225            2 
  128000    1.2012616   -6.8917416    54.024287  0.035172062   0.03889236            1 
  129000    1.2442084   -6.8986926    54.527578  0.035224534  0.038866829            3 
  130000    1.2181574   -6.8809159    55.206764  0.035388951  0.038842565            2 
  131000    1.1935727   -6.8867443    55.783031  0.035485388  0.038821484            1 
  132000    1.2027204   -6.8750776    55.989986  0.035347213  0.038799631            1 
  133000    1.1928847   -6.8889963    56.465839  0.035379598  0.038777326            1 
  134000    1.2164358   -6.8545836    56.790395  0.035317409  0.038750114            1 
  135000    1.1936553   -6.8478033    57.282448  0.035359535  0.038723127            3 
  136000    1.2016289   -6.8999167    57.515066  0.035242074  0.038694364            1 
  137000    1.1841496   -6.8878994    58.197251  0.035399787  0.038671954            2 
  138000    1.2388881   -6.8849482    59.004862  0.035630955  0.038655249            1 
  139000    1.1855049   -6.8850155     59.04839  0.035400714   0.03864176            1 
  140000    1.1889804   -6.8779569    59.571322   0.03545912  0.038624869            1 
  141000    1.1895922    -6.863267    59.895334  0.035399134  0.038601862            2 
  142000    1.1810231   -6.8759013    60.296221  0.035385106   0.03857795            2 
  143000    1.2264953   -6.9001473    60.338875  0.035162514   0.03854656            4 
  144000    1.1881601   -6.8831164    60.696812   0.03512547  0.038511467            1 
  145000    1.2226714   -6.9153003     61.11943  0.035126109  0.038478497            1 
  146000     1.177273   -6.8903081    61.977732  0.035375418   0.03844812            1 
  147000    1.2009784   -6.9023641    62.095944  0.035201782  0.038418709            5 
  148000    1.1922393   -6.9417363    62.394025  0.035131771   0.03839137            1 
  149000    1.1873159   -6.9097007    63.281037  0.035392079  0.038364288            4 
  150000    1.2020824   -6.9119799    63.497323  0.035276291  0.038341338            2 
  151000    1.1885286   -6.9322129    63.482074  0.035034257  0.038314026            1 
  152000    1.1873406   -6.8803094    64.350415  0.035279833  0.038285702            1 
  153000    1.1767307   -6.8650744    64.780723  0.035283618  0.038260365            1 
  154000    1.1636487   -6.8787804    65.294821  0.035332695  0.038232129            4 
  155000    1.1866636   -6.8799116    65.759106  0.035354358  0.038206058            1 
  156000    1.2093458   -6.9224645    66.186546  0.035356061  0.038183457            2 
  157000    1.2113113    -6.867354    66.513194  0.035304243  0.038161276            1 
  158000    1.1892248   -6.8987097    67.024777  0.035350621  0.038136714            2 
  159000    1.1789378   -6.9327073    67.530022  0.035393093  0.038114623            1 
  160000    1.1879651   -6.9166613    67.782265  0.035303263  0.038093785            2 
  161000    1.1897639    -6.912549       68.306  0.035355072  0.038068232            2 
  162000    1.2005106   -6.8766277    68.956587  0.035471495  0.038049181            2 
  163000    1.2141942   -6.9121115    69.355779  0.035457965  0.038031078            1 
  164000      1.19034   -6.8765065    69.951279  0.035544349  0.038011656            2 
  165000    1.2021919   -6.8741363    70.135366  0.035421902  0.037991712            1 
  166000    1.2029463   -6.9326999    70.402214  0.035342477   0.03797166            2 
  167000    1.1900956   -6.9721531     70.70622  0.035282545  0.037950211            1 
  168000    1.1756254   -6.9091162    71.394265  0.035413822  0.037928283            1 
  169000    1.1786854   -6.9464221     71.80766  0.035408116  0.037907399            1 
  170000    1.1712487     -6.92638    72.260148  0.035421641  0.037887825            1 
  171000    1.1634166   -6.9190131    72.664676  0.035411635  0.037869002            2 
  172000    1.1531643   -6.9131375    72.870917  0.035305677  0.037851418            2 
  173000    1.1818951   -6.9116408    72.917692  0.035124129  0.037831428            1 
  174000    1.1752168    -6.933029    73.440291  0.035172553  0.037808372            1 
  175000    1.1946003   -6.8871602    74.203475  0.035334988  0.037786588            2 
  176000    1.1809385   -6.9013877    74.525365  0.035286631   0.03776635            2 
  177000    1.1647875   -6.9455181    75.031641  0.035325631  0.037744205            1 
  178000    1.1841206   -6.9384332    75.188438  0.035200579   0.03772265            2 
  179000    1.1594168   -6.8817115    76.058692  0.035409074   0.03770176            1 
  180000    1.1774989   -6.8916585    76.435981  0.035387028   0.03768291            2 
  181000    1.1764092   -6.9309665    76.644976  0.035287742  0.037662926            2 
  182000    1.1736884   -6.9335712    77.043914  0.035276517  0.037642252            1 
  183000    1.1749606   -6.9401776    77.121578  0.035119116  0.037619045            1 
  184000    1.1912266   -6.9189795    77.528788  0.035112676  0.037592068            1 
  185000    1.2032135    -6.910987    78.103674  0.035181835   0.03756534            1 
  186000    1.1633101   -6.9031625    78.071839  0.034978422   0.03753537            2 
  187000     1.180306   -6.9262412    78.925169  0.035171644  0.037505872            2 
  188000      1.18586    -6.942646    78.886426  0.034967387  0.037476918            2 
  189000    1.1876805    -6.967045    79.327296  0.034976762  0.037446648            1 
  190000    1.1584375   -6.9206004    79.643827  0.034931503  0.037414962            1 
  191000    1.1686967   -6.9211182    79.865518  0.034845339   0.03738246            4 
  192000    1.1823972   -6.9497122    80.160599  0.034791927  0.037349996            1 
  193000    1.1766281   -6.9297567    80.540827  0.034775832  0.037314857            2 
  194000    1.1962637   -6.9070485    81.462687  0.034992563  0.037284437            2 
  195000    1.1570436   -6.9478042    81.566385  0.034857429   0.03725677            2 
  196000    1.1932632   -6.9222911    81.982696  0.034856588  0.037229642            1 
  197000    1.1690187   -6.9370078    82.191035  0.034767781  0.037201061            1 
  198000    1.1557296   -6.9359745    82.630288  0.034777057  0.037170155            1 
  199000    1.1761429   -6.9584491     83.23509  0.034855565  0.037140861            4 
  200000    1.1797274   -6.9628129    83.441719  0.034767383  0.037112186            2 
  201000     1.178547   -6.9187198    84.042482  0.034843483  0.037084475            1 
  202000    1.1851102   -6.9671172    84.449214  0.034838785  0.037057004            1 
  203000    1.1735947   -6.8975843    84.747184  0.034789484  0.037029908            1 
  204000    1.1568293   -6.9788624    85.023911   0.03473199  0.037000434            3 
  205000    1.1759064    -6.931945     85.34067  0.034691329  0.036971214            1 
  206000    1.1768253   -6.9369683    85.761632  0.034693217  0.036941473            1 
  207000    1.1873323   -6.9832726    86.203273  0.034703411  0.036913332            1 
  208000    1.1674234   -6.9217457    86.508411  0.034658818  0.036885385            2 
  209000    1.1626967   -6.9624438    86.824785  0.034619133  0.036855263            1 
  210000    1.1839324   -6.9575031    86.955408  0.034506114  0.036821348            1 
  211000     1.179125   -6.9193644    87.808437  0.034679477  0.036789507            4 
  212000    1.1681354   -6.9237422    87.885138  0.034546045  0.036759141            1 
  213000    1.1848851   -6.9845493    87.721531  0.034319848  0.036726018            1 
  214000    1.1692991   -6.9302392    88.760641  0.034564113  0.036694234            2 
  215000    1.1919581   -6.9971475    88.944749  0.034474709   0.03666388            1 
  216000    1.1845109   -6.9398174     89.50486  0.034531196  0.036635874            2 
  217000    1.1775228   -6.9877344    89.861394  0.034508984  0.036607563            1 
  218000    1.1648656   -6.9688456    90.343991  0.034535165  0.036578575            2 
  219000    1.1544487   -6.9673929    90.547936  0.034455075  0.036550633            2 
  220000    1.1610024   -7.0000161    90.894786  0.034429843  0.036522243            1 
  221000     1.177985   -6.9586581    91.851007  0.034634618  0.036495719            1 
  222000    1.1993505   -6.9151438    92.434086   0.03469748  0.036472138            2 
  223000    1.1486777   -6.9599892    92.535518   0.03457979  0.036448702            1 
  224000    1.1557866   -6.9528321    93.187218  0.034667864  0.036426193            4 
  225000     1.149883   -6.9820413    93.740878  0.034718844  0.036407129            1 
  226000    1.1370088   -6.9522796     94.18919  0.034730527  0.036388369            1 
  227000    1.1754923   -6.9329634    94.437823  0.034668804  0.036370739            2 
  228000    1.1455229   -6.9603976    94.810841  0.034653085   0.03635117            1 
  229000    1.1519593   -6.9782283    95.415413  0.034721766  0.036332751            1 
  230000    1.1494435   -7.0103368    95.617682  0.034644088  0.036314305            1 
  231000     1.173189   -6.9298506    96.101923  0.034668803   0.03629575            3 
  232000    1.1343361   -6.9804359    96.473755  0.034652929   0.03627755            2 
  233000    1.1518647   -6.9588642    97.086288  0.034723279  0.036259215            1 
  234000    1.1555299   -6.9703823    97.627228  0.034767531   0.03624136            1 
  235000    1.1509441   -6.9752466    97.586052  0.034604983  0.036224233            3 
  236000    1.1609623   -6.9762609    98.035842  0.034617176  0.036207061            2 
  237000    1.1507811   -6.9633287    98.271523  0.034553981  0.036190957            1 
  238000    1.1709666   -6.9970159    98.951822  0.034646996  0.036172991            3 
  239000    1.1708062   -6.9314174    99.190121  0.034585119  0.036155478            2 
  240000    1.1653935    -6.967888    100.13554  0.034769284  0.036139863            1 
  241000    1.1373745   -6.9814319    100.39761  0.034715631  0.036124725            2 
  242000    1.1573226   -6.9680924    100.69947  0.034676126  0.036109129            2 
  243000    1.1708814   -6.9827508    101.04741  0.034652747  0.036093896            2 
  244000    1.1508678   -7.0197003    101.70643  0.034735803  0.036078145            1 
  245000    1.1580313    -6.982538    102.15563  0.034746812  0.036063139            1 
  246000    1.1469124   -6.9812952    102.15912  0.034606746  0.036047682            1 
  247000    1.1437706   -6.9802594    102.59998  0.034615377  0.036030614            3 
  248000     1.150828    -6.996959      102.712  0.034513441  0.036012017            3 
  249000    1.1547861   -7.0327805    103.02711  0.034480292  0.035994528            1 
  250000    1.1478082   -6.9919477    103.31797  0.034439322  0.035975852            2 
  251000    1.1456713   -7.0015953    104.25992  0.034614847  0.035959817            1 
  252000     1.131664   -7.0191018    104.49975  0.034556794  0.035944081            3 
  253000    1.1545505   -6.9926729    105.10603  0.034619903  0.035929057            2 
  254000    1.1624137   -6.9951591    105.39793  0.034579372  0.035914491            1 
  255000    1.1394563   -6.9772718    106.22509  0.034714082  0.035900619            5 
  256000    1.1494231   -7.0309401     105.9226  0.034480014  0.035885673            3 
  257000    1.1601109   -7.0045238    106.54706  0.034548334  0.035870646            2 
  258000    1.1702019   -6.9793004    106.92485  0.034536452  0.035856352            2 
  259000    1.1596857   -6.9896264    107.48194   0.03458235  0.035841401            1 
  260000    1.1510731   -7.0102437    107.92647  0.034591817  0.035828067            2 
  261000    1.1537577   -7.0152754    108.48957   0.03463907  0.035815172            2 
  262000    1.1406147   -6.9684554    109.07915  0.034694387  0.035803386            2 
  263000    1.1522131   -7.0296773    108.82212  0.034481026  0.035790933            2 
  264000     1.157841     -7.02045    109.64887  0.034611386  0.035778017            1 
  265000     1.118387   -6.9804504    109.65989  0.034484243  0.035765198            1 
  266000    1.1450771   -6.9996569    110.07843  0.034485723  0.035750158            3 
  267000    1.1645397   -6.9816259     110.7456  0.034564794  0.035734421            1 
  268000    1.1476146   -7.0082609    110.92622  0.034491982  0.035719374            1 
  269000    1.1272088   -6.9773942    111.18128  0.034442777  0.035704114            3 
  270000     1.141609   -6.9761203    111.41445  0.034387177  0.035689194            1 
  271000    1.1441128   -6.9949598    111.74605  0.034362255   0.03567429            1 
  272000    1.1305954   -7.0163482    112.25877  0.034393004  0.035658739            1 
  273000    1.1339376   -7.0349239    112.06183  0.034206908  0.035642273            1 
  274000    1.1586574   -7.0243195    112.96759  0.034357538  0.035625401            2 
  275000    1.1690268   -6.9891739    113.38183   0.03435813  0.035608135            2 
  276000    1.1621049   -6.9828016    113.90248  0.034390845  0.035591871            3 
  277000    1.1635468   -6.9972133    114.23262  0.034366011  0.035576256            1 
  278000    1.1566219   -7.0099026    114.61389  0.034356681  0.035560314            5 
  279000     1.140691   -7.0136778    114.42682  0.034177664  0.035544014            2 
  280000    1.1356306   -6.9951123    115.04103  0.034238402  0.035528943            1 
  281000    1.1548527   -6.9835387    116.12768  0.034438813   0.03551306            1 
  282000    1.1389784   -7.0211239    115.49925  0.034130984   0.03549673            1 
  283000    1.1036137   -6.9949866    115.95586  0.034144836  0.035478487            2 
  284000    1.1601062   -7.0414026    116.43344  0.034164743  0.035460897            1 
  285000    1.1359227   -7.0276954    116.69905   0.03412253  0.035443757            1 
  286000    1.1544734   -7.0167459    117.25934  0.034166474  0.035425433            2 
  287000    1.1317766   -7.0227482    117.10993  0.034004045  0.035406628            1 
  288000    1.1471177    -7.033688    118.23612  0.034211841  0.035387985            2 
  289000    1.1475799   -6.9912183    118.79077  0.034253393  0.035370627            1 
  290000    1.1331005   -6.9884017     119.0686  0.034215114  0.035354897            1 
  291000    1.1307312   -7.0371688    119.21624  0.034139816  0.035338773            1 
  292000    1.1319614   -7.0301791    119.34083  0.034058455  0.035321637            1 
  293000    1.1709208   -6.9813359      119.839  0.034083903  0.035304241            1 
  294000     1.134106   -6.9850768    119.76377  0.033946648  0.035286306            3 
  295000     1.162715    -7.045487    120.16843  0.033945883  0.035267283            3 
  296000    1.1344107   -6.9860042    120.71978  0.033986423  0.035248542            1 
  297000    1.1282724   -7.0356727    121.04869   0.03396428  0.035229999            1 
  298000    1.1276816   -7.0032012    121.43221  0.033957552  0.035211933            1 
  299000    1.1415334   -7.0108795    122.19779  0.034057354  0.035194732            3 
  300000    1.1118422   -7.0097102    122.29458  0.033970716  0.035177501            2 
  301000    1.1528509   -7.0311314    122.71439  0.033974083   0.03516058            1 
  302000    1.1293741    -7.071323     123.1112   0.03397108  0.035144422            1 
  303000    1.1178479   -7.0735556    123.39429  0.033936825  0.035127318            5 
  304000    1.1395688   -6.9935028    124.49924   0.03412808   0.03511117            2 
  305000     1.137775   -7.0496658    124.75914  0.034087198  0.035096692            2 
  306000    1.1076418   -7.0470001     125.0901  0.034065931  0.035083129            2 
  307000    1.1337159   -7.0558747    125.21798  0.033989678  0.035069709            1 
  308000    1.1380765   -7.0587231    125.83154  0.034045331  0.035055402            1 
  309000    1.1310127   -7.0215876    126.13176  0.034016115   0.03504139            1 
  310000    1.1659121   -7.0375518    126.68833  0.034056002  0.035026929            3 
  311000    1.1481557   -6.9997239    126.92384  0.034009604   0.03501351            1 
  312000    1.1386856   -7.0473145     127.5274  0.034061805  0.035000455            6 
  313000    1.1158962   -7.0636322    127.86138  0.034041901  0.034987213            1 
  314000    1.1217874   -7.0348343    128.13479  0.034006049  0.034973804            2 
  315000     1.115411   -7.0487924     128.4035   0.03396918  0.034960339            2 
  316000    1.1011964   -7.0230284    129.12655  0.034052359  0.034947299            2 
  317000    1.1193743   -7.0191132    129.24329  0.033975628  0.034934689            1 
  318000    1.1365708    -7.062178    129.17708  0.033851435   0.03492098            1 
  319000    1.1259235   -7.0848169    129.72312  0.033887963  0.034907716            1 
  320000    1.1257184   -6.9820822    130.69911  0.034036228  0.034893534            2 
  321000    1.1053467    -7.051773    130.50877  0.033880781   0.03487888            2 
  322000     1.139663   -7.0383537    130.71973  0.033830158  0.034862746            1 
  323000    1.1380333   -7.0405652     130.9565  0.033786507  0.034846913            2 
  324000    1.1189176   -7.0191725    131.79775  0.033898599  0.034831742            3 
  325000    1.1665552   -7.0465281    131.34223  0.033677496  0.034815998            2 
  326000    1.1232342   -7.0735974    131.76894  0.033683267  0.034799872            3 
  327000    1.1270764   -7.0583863     132.1671  0.033681728  0.034783286            3 
  328000    1.1003805   -7.0470588    132.73178  0.033722504  0.034766381            2 
  329000    1.1078776   -7.0656381    132.69355  0.033610321  0.034749593            3 
  330000     1.126533   -7.0234058    133.63737  0.033746811   0.03473294            1 
  331000    1.1208855   -7.0272503    133.59087   0.03363315  0.034716094            1 
  332000    1.1185037   -7.0463717    133.91342  0.033612805  0.034698572            1 
  333000    1.1335122   -7.0103598    134.27657  0.033602745  0.034680606            3 
  334000    1.1561244   -7.0713161    134.87761  0.033652098  0.034663223            2 
  335000    1.1129341     -7.05138     135.4757  0.033700422  0.034645665            1 
  336000    1.1233266    -7.050506     135.7014  0.033656101  0.034628485            2 
  337000    1.1332003   -7.0483755    135.67005  0.033548478  0.034611252            2 
  338000     1.102427   -7.0301665    135.92043  0.033510954  0.034593409            1 
  339000    1.1287124   -7.0672223    136.15337  0.033469364  0.034574882            3 
  340000    1.0873707   -7.0564691    136.21494  0.033386015  0.034556693            2 
  341000    1.1157957   -7.0665233    136.83457  0.033439534  0.034537968            2 
  342000    1.1058813   -7.1033919    137.23208  0.033438615  0.034519685            3 
  343000    1.1329069   -7.0617095    137.73533  0.033463393   0.03450242            3 
  344000    1.1130168   -7.0429501    138.05166  0.033442748  0.034485544            4 
  345000    1.1010553   -7.0675473    138.66217  0.033493277  0.034468166            2 
  346000    1.1149059   -7.0426116     139.3558  0.033563535  0.034451948            4 
  347000    1.1420015   -7.0025264     139.5645  0.033516931  0.034436455            1 
  348000    1.1188036   -7.0731602    139.26026  0.033347763  0.034419831            1 
  349000     1.107359   -7.0869168    139.67994  0.033352422  0.034403683            1 
  350000    1.1310991   -7.0702897    140.62654  0.033482509  0.034388091            2 
  351000     1.117884    -7.074481    141.03999  0.033485277  0.034373488            1 
  352000    1.0984854    -7.052555    141.94784  0.033605077  0.034359814            2 
  353000    1.0925732   -7.1160652    141.78819  0.033472188  0.034345594            1 
  354000    1.1045241   -7.0893968    142.04304  0.033437627  0.034331573            2 
  355000    1.0913848   -7.0994209    142.13771   0.03336566  0.034316788            2 
  356000    1.0778519   -7.1055634    142.49578  0.033355754  0.034301308            2 
  357000    1.1009716   -7.0792158    143.47311  0.033490456  0.034285789            2 
  358000    1.1254873   -7.0821272    144.28085  0.033584928  0.034271153            1 
  359000    1.1399229   -7.0760649    144.11801  0.033453576  0.034256729            3 
  360000    1.1181617   -7.1027691    144.16212   0.03337086  0.034242624            2 
  361000     1.097138   -7.0529723    144.73032  0.033409584  0.034228648            2 
  362000    1.1273088   -7.0963286    144.83847   0.03334219  0.034214177            1 
  363000    1.1128143   -7.0979647    145.38237  0.033375199  0.034200099            2 
  364000    1.1019573   -7.0722955     146.1762  0.033465247   0.03418714            1 
  365000    1.0982857   -7.0876311    146.47749  0.033442349  0.034174185            5 
  366000    1.1102572   -7.0604019    146.26621   0.03330287  0.034160111            1 
  367000    1.1247461   -7.0886159    147.50183  0.033492695  0.034146237            2 
  368000    1.1037202   -7.1258942     147.4016  0.033378986  0.034133268            2 
  369000    1.1136799   -7.0889224    147.22717  0.033249134  0.034119482            1 
  370000    1.1255609    -7.094769     148.1676   0.03337108  0.034105933            1 
  371000    1.0795872    -7.106197    148.03078  0.033250399  0.034092307            3 
  372000    1.0993212   -7.1171234    148.79697  0.033332655  0.034078843            3 
  373000     1.081914   -7.0827133    149.72108  0.033449749  0.034066382            3 
  374000    1.1227765   -7.0937054    149.73115  0.033362555   0.03405331            1 
  375000      1.08014    -7.096411    150.03086  0.033340191  0.034040382            2 
  376000    1.1023383   -7.1003718    150.26454  0.033303312  0.034027416            1 
  377000    1.1134698   -7.0673093    150.54169  0.033276235  0.034013742            1 
  378000    1.0993692   -7.0836077    150.48247  0.033175147   0.03399941            2 
  379000    1.0840843   -7.1012057    151.01499  0.033204702  0.033984762            2 
  380000    1.1048627   -7.0969964    151.24441  0.033167634  0.033970495            4 
  381000    1.0999243   -7.1006667    151.64276  0.033167709   0.03395597            2 
  382000    1.1123159   -7.0780433    151.45302   0.03303949  0.033941194            2 
  383000    1.1227301   -7.0732928    151.96743   0.03306515  0.033924811            2 
  384000    1.1107427   -7.0559821    152.48121  0.033090541   0.03390933            2 
  385000    1.0961012   -7.1185351    152.58075  0.033026136   0.03389303            1 
  386000    1.0707231   -7.0792636    153.12254  0.033057543  0.033877009            2 
  387000    1.1025503   -7.1017526    153.28053  0.033006143  0.033861019            3 
  388000     1.106693   -7.0967095    153.34069  0.032933997  0.033844834            1 
  389000    1.1265587   -7.1263647    153.61142  0.032907331  0.033828357            7 
  390000     1.082519   -7.0883924    154.52725  0.033018642  0.033811994            2 
  391000    1.0929466   -7.0912686    154.46758   0.03292148  0.033796312            1 
  392000       1.1148   -7.0671812    154.91009  0.032931566  0.033779474            3 
  393000    1.1065125   -7.0986612    154.73532  0.032810712  0.033761797            1 
  394000    1.0871328   -7.0899454    155.32469  0.032852091  0.033744618            2 
  395000    1.0999066   -7.0654181    156.03988  0.032919807  0.033728462            3 
  396000    1.0878423   -7.0987943    156.18075  0.032866319  0.033713009            4 
  397000    1.0946751   -7.0968096    156.65614   0.03288332  0.033696987            2 
  398000    1.1099634   -7.1185791    156.60796  0.032790612  0.033680612            1 
  399000     1.110321   -7.0808494    157.39569   0.03287295  0.033663972            1 
  400000    1.0846063   -7.1412555    157.19929  0.032749852  0.033647823            2 
  401000    1.0830652   -7.1032386    157.65879  0.032763673  0.033631344            2 
  402000    1.0913688    -7.131753    157.89319  0.032730761  0.033614323            1 
  403000    1.1033181   -7.1361028    158.22131  0.032717393  0.033597035            3 
  404000    1.0892399   -7.0973452    159.21444  0.032841263  0.033580347            1 
  405000    1.0608701    -7.077677    158.95744  0.032707292  0.033563352            1 
  406000    1.1024262   -7.1104589    159.15413  0.032667104  0.033546374            2 
  407000    1.0963207    -7.122625    158.70826  0.032495549  0.033528407            1 
  408000    1.0884887   -7.1043681    159.78051  0.032634909  0.033510181            2 
  409000    1.0699728   -7.1472349    159.48855  0.032495629  0.033491703            3 
  410000    1.0871874   -7.0939866    160.27442  0.032576102  0.033472979            4 
  411000    1.0833057   -7.1038493    160.83048  0.032609587  0.033455298            2 
  412000    1.1051449   -7.1362353    160.55499  0.032474714  0.033436936            2 
  413000    1.1069547   -7.1406735     160.7066  0.032426674  0.033418306            3 
  414000    1.0782359    -7.123462    161.50507  0.032509071  0.033399315            2 
  415000    1.1093697   -7.1313486    161.72127  0.032474151    0.0333814            1 
  416000     1.078034   -7.1296081    162.28655  0.032509325  0.033363285            3 
  417000    1.0943282   -7.1261115    162.56391  0.032486792  0.033346034            1 
  418000    1.0747561    -7.138238    162.23376  0.032343253  0.033327676            2 
  419000    1.1075234   -7.0832478    162.95792  0.032410087  0.033309911            2 
  420000    1.0660335   -7.1272186    162.87749  0.032316962  0.033291859            3 
  421000    1.1161167   -7.1412378    163.76478  0.032415832   0.03327451            2 
  422000     1.097515   -7.1186052     163.6855  0.032323362  0.033256958            2 
  423000    1.0999295   -7.1384593    163.96208  0.032301434  0.033239422            3 
  424000    1.0963297    -7.156425     164.7073  0.032371717  0.033221602            2 
  425000     1.080397   -7.1479773    164.92188  0.032337624  0.033204102            2 
  426000    1.0859443   -7.1259253     165.3074  0.032337128  0.033186468            1 
  427000    1.0904315   -7.1919976    164.99983  0.032201372   0.03316857            2 
  428000    1.0625384   -7.0993336    166.32567  0.032384281  0.033151047            2 
  429000    1.0658409   -7.1055347    166.33035  0.032309703  0.033133663            3 
  430000    1.1134726   -7.1553506    166.71555  0.032309216  0.033115587            1 
  431000    1.0843181   -7.1533893    166.57169  0.032206436  0.033097387            2 
  432000    1.1026435   -7.0644221    167.16266  0.032245884  0.033078628            3 
  433000    1.0542035    -7.116414    167.66601  0.032268285  0.033060585            1 
  434000    1.0828022       -7.137    167.63988  0.032188917  0.033042247            1 
  435000    1.0731473   -7.1575765    167.94306     0.032173  0.033024822            3 
  436000    1.0597248   -7.1251564    167.90346  0.032091639   0.03300617            1 
  437000    1.0843896   -7.1164842    168.11086  0.032057754  0.032987115            2 
  438000    1.0828397   -7.1408162    168.02873  0.031968937   0.03296788            1 
  439000    1.0614865   -7.1428279    169.06727  0.032093256  0.032948982            2 
  440000    1.0667262   -7.1077636     169.7251  0.032144906  0.032931171            1 
  441000    1.0674488   -7.1061391    170.05371  0.032134109  0.032912558            1 
  442000    1.0768521   -7.1391256    168.99652  0.031862088  0.032893566            1 
  443000    1.0778892   -7.1505685    169.93874  0.031967407  0.032873549            2 
  444000    1.0720421   -7.1558937    169.51575  0.031816018  0.032853375            3 
  445000    1.0763659   -7.1184032    170.26352  0.031884555  0.032833464            1 
  446000    1.0936198   -7.1943307    170.16362  0.031794398  0.032813029            3 
  447000    1.0641647   -7.1717037    170.25759  0.031740789  0.032791934            3 
  448000    1.0617434   -7.1658336    170.53486  0.031721515  0.032771003            1 
  449000    1.0894959   -7.1147422    171.24813  0.031783246  0.032750126            1 
  450000    1.0653938   -7.1911162     171.0411  0.031674278  0.032729619            2 
  451000    1.0768973   -7.1285388    172.27271  0.031831617  0.032709195            2 
  452000    1.0622635   -7.1837111    171.23285  0.031569479  0.032688966            3 
  453000    1.0598456   -7.1685239    171.98521  0.031638191  0.032668239            1 
  454000    1.0892938   -7.1674405    172.35668  0.031636689  0.032647018            1 
  455000    1.0666301   -7.1584946    173.01315   0.03168739  0.032625897            2 
  456000    1.0912531   -7.1610116    172.83864  0.031586009  0.032604605            2 
  457000    1.0637351   -7.1719744    173.10892  0.031566178  0.032583387            4 
  458000    1.0757478   -7.1790836    173.19459  0.031512844    0.0325623            2 
  459000    1.0414147   -7.1535159    174.24844   0.03163552  0.032541303            1 
  460000    1.0739611   -7.1795013    174.12019  0.031543512  0.032520417            2 
  461000    1.0480961   -7.1269983    174.29736  0.031507115  0.032499512            2 
  462000    1.0648003   -7.1712597    174.16469  0.031414987  0.032478168            3 
  463000    1.0786944    -7.181896     174.7164  0.031446436  0.032457446            2 
  464000    1.0798835   -7.1903164     175.0183  0.031432884   0.03243663            2 
  465000    1.0599383   -7.1543603    175.43531   0.03144002  0.032415765            2 
  466000    1.0688599   -7.1634396    176.02382  0.031477793  0.032395359            1 
  467000    1.0469152   -7.1081739    176.20573   0.03144285  0.032374402            2 
  468000    1.0779449   -7.1740227    176.08522  0.031354205   0.03235408            2 
  469000    1.0728452   -7.1893371    176.64009  0.031385943   0.03233329            2 
  470000    1.0671031    -7.215911    176.38586  0.031274089  0.032311961            4 
  471000    1.0577358   -7.2148094    177.13062  0.031339459  0.032291514            2 
  472000    1.0324788    -7.157027    178.17527  0.031457498  0.032270973            3 
  473000    1.0788502   -7.2178593    177.65206  0.031298813  0.032251136            2 
  474000    1.0882519   -7.2054705    177.68793  0.031239088  0.032230964            2 
  475000    1.0513176   -7.2226324    178.17551  0.031258861   0.03221056            5 
  476000    1.0536951   -7.1507527    178.55378  0.031259416  0.032189962            2 
  477000    1.0668771   -7.1909744    178.53764  0.031191062  0.032168908            2 
  478000    1.0729733   -7.1941113    179.03807  0.031213052  0.032147981            3 
  479000    1.0422258   -7.1909005    179.55769  0.031238289  0.032126546            2 
  480000    1.0795144   -7.1680901     178.9421  0.031066337  0.032105209            3 
  481000    1.0605809   -7.2267222    179.30227  0.031064149  0.032083244            2 
  482000    1.0467391   -7.2060215    179.90525  0.031103951  0.032062164            1 
  483000    1.0582691   -7.1859433    180.17476  0.031086053  0.032041735            1 
  484000    1.0681567   -7.1397986    180.96597  0.031158053  0.032021582            2 
  485000    1.0650563   -7.1433284    181.63779  0.031209242  0.032001013            3 
  486000    1.0431817   -7.1694272    181.55165  0.031130256  0.031980962            1 
  487000       1.0614    -7.166164    181.66477   0.03108569  0.031960775            3 
  488000    1.0571343   -7.1602004    182.57071  0.031176692  0.031941071            1 
  489000    1.0356188    -7.176723    182.29459  0.031065881  0.031920852            2 
  490000    1.0636911   -7.1880899    182.42517  0.031024689  0.031900826            3 
  491000    1.0518239   -7.2139584    182.66114  0.031001552   0.03188012            2 
  492000    1.0534851   -7.2349115    182.07608  0.030839445  0.031859224            2 
  493000    1.0392683   -7.2108255    183.12742  0.030954601  0.031837782            1 
  494000    1.0639874   -7.1773585    182.89927  0.030853452    0.0318164            1 
  495000    1.0403637   -7.1742703    183.70263  0.030926369  0.031795664            1 
  496000    1.0491327   -7.2269125     183.4546  0.030822346  0.031775191            3 
  497000    1.0677026   -7.2094013    183.90993  0.030836676  0.031754653            2 
  498000    1.0726492   -7.2287423    184.24761  0.030831261  0.031733708            2 
  499000     1.056759   -7.2276498    183.70636  0.030679084  0.031712379            5 
  500000    1.0542963   -7.2205653    184.57204  0.030762007  0.031691007            4 
  501000     1.065648   -7.2241692     184.4548  0.030681105  0.031669416            2 
  502000    1.0613175   -7.1834171    184.74197  0.030667657  0.031648525            3 
  503000    1.0572802   -7.1823751    185.64885  0.030756933  0.031627481            4 
  504000    1.0464462   -7.1583887    185.62547  0.030692041  0.031606247            3 
  505000    1.0584796   -7.1824745    185.74039   0.03065023  0.031585101            1 
  506000    1.0564039   -7.2814332     185.1964  0.030500065  0.031563633            4 
  507000    1.0318132   -7.2099165    186.79624  0.030702867  0.031542134            5 
  508000    1.0459926   -7.1978765    186.55989  0.030603657  0.031521277            2 
  509000    1.0510615   -7.2106354    187.36131   0.03067474  0.031500675            2 
  510000    1.0545959   -7.1885531    187.57511  0.030649527  0.031480174            1 
  511000    1.0808275   -7.2168287    187.76312  0.030620208  0.031459998            2 
  512000    1.0488483    -7.236954    188.13045  0.030620191  0.031439595            2 
  513000    1.0320356   -7.1841191    188.88662  0.030683336  0.031419419            3 
  514000     1.053732   -7.1976338    188.47268  0.030556531  0.031399868            3 
  515000     1.032079   -7.2153744    188.86354  0.030560444  0.031380165            1 
  516000    1.0545886   -7.2395226     189.3015  0.030571948  0.031359711            1 
  517000    1.0290618   -7.2324487    189.51518  0.030547256  0.031339436            2 
  518000    1.0520253   -7.2072824    189.44299  0.030476671  0.031319055            2 
  519000    1.0452367   -7.2308838    188.90597  0.030331724  0.031298325            3 
  520000    1.0482986   -7.2120734    190.08796  0.030462814  0.031277526            3 
  521000     1.062876   -7.2224856    190.02835   0.03039481  0.031256829            4 
  522000    1.0435197   -7.1884405    189.79184  0.030298826  0.031235521            1 
  523000    1.0554815   -7.2626134    190.21402  0.030308162  0.031213875            3 
  524000    1.0501871   -7.2485064    190.57854  0.030308292  0.031192358            1 
  525000    1.0396592   -7.2568934    190.75122  0.030277971  0.031170938            2 
  526000    1.0428174   -7.2313985    191.71987   0.03037387  0.031149585            2 
  527000    1.0436211   -7.2531032    191.39597  0.030265017  0.031128655            2 
  528000    1.0512596    -7.269961    190.89052  0.030127923  0.031107226            1 
  529000    1.0416838   -7.2230438    192.02119  0.030249084  0.031085787            1 
  530000     1.063203    -7.211158    192.69851  0.030298507  0.031065124            2 
  531000    1.0516144   -7.2004157    193.16474  0.030314617   0.03104475            1 
  532000    1.0492313   -7.1803153    193.12411   0.03025127  0.031024812            3 
  533000    1.0540456   -7.2213455    193.50602  0.030254224  0.031004839            3 
  534000    1.0240805   -7.1942611    194.21478  0.030308174  0.030985158            1 
  535000     1.051228   -7.2102634    194.93753  0.030364101  0.030966223            3 
  536000     1.040584   -7.2117391    195.04162  0.030323635  0.030947559            2 
  537000      1.04449   -7.2268873    195.12381  0.030279921  0.030929086            1 
  538000    1.0339981   -7.1968902    196.34981  0.030413539  0.030910816            1 
  539000    1.0557076   -7.2532161    195.63487  0.030246578  0.030892757            3 
  540000     1.060262   -7.2261169    196.58608  0.030337358  0.030875118            1 
  541000    1.0392316   -7.2491344    196.60946  0.030284883  0.030857441            2 
  542000    1.0392633   -7.2546044    197.01517  0.030291386  0.030839552            3 
  543000    1.0229457   -7.2204161    197.45676  0.030303371  0.030821658            2 
  544000    1.0357868   -7.2213178    197.97797  0.030327507  0.030804284            1 
  545000    1.0384097   -7.2278895    198.04706  0.030282426  0.030786272            2 
  546000    1.0183603   -7.2381031    198.24958  0.030257872  0.030768735            4 
  547000    1.0292881   -7.2179654    198.38916  0.030223821  0.030751044            2 
  548000    1.0554947   -7.2036966    198.33529  0.030160476  0.030733011            1 
  549000    1.0399175   -7.2701851    198.79899  0.030175924  0.030714646            2 
  550000    1.0227658   -7.2405811    198.16427   0.03002489  0.030696213            5 
  551000    1.0264764   -7.2499062    198.84662  0.030073597  0.030678115            3 
  552000    1.0256636   -7.2477519    199.20327  0.030072958  0.030660186            1 
  553000    1.0325102   -7.2553985    199.78503  0.030106243  0.030642171            1 
  554000    1.0291592   -7.1981087    199.88689  0.030067221  0.030624079            1 
  555000    1.0202924    -7.237654    200.41805    0.0300928  0.030605487            3 
  556000     1.023417   -7.2724169    199.89266  0.029959931   0.03058679            3 
  557000    1.0272586   -7.2183447    200.59507  0.030011232  0.030568444            2 
  558000    1.0264488   -7.2720368    200.93031  0.030007514  0.030549969            1 
  559000    1.0492082   -7.2767743    200.92677  0.029953305  0.030531796            2 
  560000    1.0278259   -7.2162071    201.50581  0.029985983  0.030513625            3 
  561000    1.0209588   -7.2555129    202.13048  0.030025323  0.030495475            2 
  562000     1.031662   -7.2824245    201.76743  0.029918064  0.030477558            4 
  563000    1.0320057   -7.2621766     201.6484  0.029847306  0.030459244            1 
  564000    1.0290304   -7.2708576    202.05075  0.029853834  0.030440805            1 
  565000       1.0374   -7.2752337    202.67081   0.02989245  0.030422207            3 
  566000    1.0266742   -7.2606437    202.27422  0.029781245  0.030403524            4 
  567000    1.0636209   -7.2749892    202.36415  0.029741939  0.030384723            6 
  568000    1.0181245   -7.2568597     202.4936  0.029708568  0.030366268            2 
  569000    1.0207793   -7.2463863    203.42753  0.029793135  0.030347756            3 
  570000    1.0273062   -7.2657936    203.37251  0.029732824  0.030329343            1 
  571000    1.0186061   -7.2774812    203.09688  0.029640525  0.030310875            4 
  572000    1.0078388   -7.2583158    204.03921  0.029725993  0.030292184            2 
  573000    1.0325779   -7.2717797     204.0588  0.029676963  0.030273833            3 
  574000     1.005534   -7.2719466    204.31338  0.029662222  0.030255388            2 
  575000    1.0045918   -7.2621044    204.24682  0.029600989  0.030236685            2 
  576000    1.0091121   -7.2971995    203.91864  0.029502118   0.03021764            4 
  577000    0.9945982   -7.2412781    204.58205  0.029546801  0.030198451            3 
  578000    1.0177144   -7.2630962     204.9785  0.029552841  0.030179562            3 
  579000    1.0205891   -7.2500633    205.27215  0.029544063  0.030160755            8 
  580000    1.0255563   -7.2887669    205.64736  0.029547034  0.030141586            2 
  581000    1.0211001    -7.248816    206.02404  0.029550207  0.030122492            2 
  582000    1.0393555   -7.2775458    205.78341  0.029464978  0.030102593            1 
  583000    1.0254221   -7.2743627    205.56892  0.029383779   0.03008289            1 
  584000   0.99245059   -7.2744729    206.09983  0.029409222  0.030063223            1 
  585000    1.0150668   -7.2769371      206.096  0.029358405  0.030043627            2 
  586000    1.0102775   -7.2242934    207.07267  0.029447194  0.030024061            1 
  587000    1.0228946     -7.24486    206.94526  0.029378941  0.030004302            2 
  588000    1.0175672   -7.2622278    206.58051  0.029277283  0.029984476            2 
  589000    1.0053491   -7.2723367    207.56472  0.029366825  0.029964647            1 
  590000    1.0179689     -7.24654    206.96336  0.029232114  0.029944461            1 
  591000    1.0290966   -7.3085134    206.87496  0.029170185  0.029923675            4 
  592000    1.0219623   -7.2757656    207.45357  0.029202361  0.029903078            2 
  593000    1.0206708   -7.2857411    207.17291  0.029113675   0.02988272            1 
  594000    1.0122786   -7.2791746    207.36419  0.029091497  0.029862518            2 
  595000    1.0115657   -7.2963462    207.61672  0.029077972  0.029842163            2 
  596000    1.0264289   -7.2638359     208.0452  0.029089094  0.029821706            2 
  597000    1.0103457    -7.259748    208.62669  0.029121537  0.029801605            1 
  598000    1.0184568   -7.3034358    209.38816  0.029178952  0.029781422            3 
  599000    1.0349836   -7.3062988    209.46038  0.029140286  0.029761498            2 
  600000    1.0292273   -7.2772107    210.28794  0.029206658  0.029741888            1 
  601000    1.0176961   -7.2516568    210.12462  0.029135415  0.029722413            2 
  602000   0.99030691   -7.2968585    210.06901   0.02907932  0.029702447            2 
  603000   0.98110313   -7.3077052     210.0373  0.029026714  0.029682637            3 
  604000    1.0057699    -7.276028    210.41766  0.029031134  0.029662532            1 
  605000    1.0210436   -7.2997889    210.09528  0.028938744  0.029642369            1 
  606000    1.0098489   -7.2822198    210.78936  0.028986436  0.029622448            5 
  607000    1.0048757   -7.2711685    211.10291  0.028981729  0.029603072            2 
  608000   0.99951879   -7.2989268    211.08361  0.028931415  0.029583388            2 
  609000   0.99648693   -7.2580472    212.20537  0.029037407  0.029563964            3 
  610000      1.02801   -7.3038633    212.32966  0.029006784  0.029545047            2 
  611000    1.0083033   -7.3228211    212.00833  0.028915485  0.029526091            1 
  612000    1.0066857   -7.2909372    212.85997  0.028984201  0.029506836            2 
  613000    1.0250826   -7.2792955    213.15437   0.02897694  0.029487904            3 
  614000    0.9708436   -7.3050065    212.66963  0.028863957  0.029468674            1 
  615000    1.0056019   -7.3058974    212.84654  0.028840994  0.029449186            1 
  616000    1.0292996    -7.297866    213.21806  0.028844435  0.029429637            2 
  617000    1.0133523   -7.3180181    213.53354  0.028840294  0.029410014            5 
  618000   0.99032762   -7.2595798    213.67525  0.028812736  0.029390456            3 
  619000   0.98945658   -7.3245662    213.84018  0.028788393  0.029371164            1 
  620000    1.0062592    -7.316883    214.14419  0.028782821  0.029351718            3 
  621000    1.0120984   -7.3009245    214.64734   0.02880399   0.02933241            5 
  622000    1.0083225   -7.3188198    214.71942  0.028767339  0.029313568            2 
  623000    1.0011682   -7.2817576    215.42391  0.028815397  0.029294779            3 
  624000   0.98038102   -7.2997893    214.92653  0.028702796   0.02927561            2 
  625000    1.0115138   -7.2675209    215.66098  0.028754797  0.029256681            2 
  626000    1.0059159   -7.3315785    215.73178  0.028718288  0.029237353            4 
  627000    1.0099864   -7.3051899    216.47616   0.02877142  0.029218455            1 
  628000   0.97730748   -7.3125176    215.83322  0.028640289   0.02919969            3 
  629000    1.0245468   -7.2981415    216.35253  0.028663557  0.029180688            1 
  630000    1.0080044   -7.3069813    217.25664  0.028737651  0.029161695            1 
  631000   0.99214006   -7.3124753    216.41089  0.028580413  0.029142636            3 
  632000    1.0152684   -7.3059263    217.91542  0.028733573  0.029123317            1 
  633000   0.99636262   -7.3555704    215.76094  0.028404547  0.029104142            2 
  634000   0.98453191   -7.3215419    217.65802  0.028609099  0.029084955            3 
  635000   0.98864868   -7.3206016     217.3661  0.028525735  0.029065689            4 
  636000   0.99924703   -7.3267005    218.47307  0.028625926   0.02904643            1 
  637000   0.99299425   -7.2971362    218.21664  0.028547441  0.029027296            2 
  638000   0.97284368   -7.3521123    217.93799    0.0284663  0.029008312            1 
  639000   0.97849717   -7.3304248    218.80915  0.028535361  0.028989166            2 
  640000   0.97843676   -7.2974334    218.89882  0.028502451  0.028970598            2 
  641000    1.0094793   -7.3232549    218.85396  0.028452152  0.028951903            5 
  642000   0.97832435   -7.3395938    219.27258  0.028462173  0.028933028            1 
  643000   0.98112915   -7.3116364     220.0669  0.028520853  0.028914238            2 
  644000   0.99409407   -7.3057842    219.87572  0.028451827  0.028895542            1 
  645000     1.009153   -7.2904223    220.11894  0.028439139  0.028877055            2 
  646000    1.0150064   -7.3301433    220.04314  0.028385338  0.028858524            1 
  647000   0.98378814   -7.3612542     219.6068  0.028285265  0.028839171            2 
  648000   0.98640112   -7.2826516    219.86732  0.028275118  0.028819617            3 
  649000    0.9968843   -7.3439579    219.02994  0.028124029  0.028799954            1 
  650000    1.0131484   -7.3086294    220.04981  0.028211514  0.028780062            2 
  651000   0.99356377   -7.3403894     220.2323  0.028191539  0.028760528            1 
  652000   0.99857227    -7.340596    220.95254  0.028240356  0.028741062            2 
  653000   0.99626323   -7.3107175    221.69354  0.028291672  0.028721868            3 
  654000    1.0017241   -7.3561298     220.5594  0.028103899   0.02870275            1 
  655000   0.99845151    -7.354138    221.28071  0.028152763  0.028683438            3 
  656000    1.0052565    -7.278414    221.87076  0.028184802  0.028664404            2 
  657000    0.9834103   -7.2745925    222.63156  0.028238402  0.028645806            3 
  658000   0.99373167   -7.3440084    221.73494  0.028081932   0.02862706            3 
  659000    1.0037114   -7.3484903    222.19894  0.028097994  0.028607909            2 
  660000   0.98386297   -7.3391174    222.50949  0.028094633  0.028588538            1 
  661000   0.99253642   -7.3650255    222.75664  0.028083288  0.028569214            4 
  662000   0.99504438   -7.3478785    222.62786  0.028024656  0.028550196            2 
  663000   0.97826523   -7.3426039    223.13908  0.028046641  0.028531397            1 
  664000   0.99037422   -7.3084526    224.40417  0.028163175  0.028513071            2 
  665000   0.98190359   -7.3255145    223.77641  0.028042157  0.028494956            2 
  666000   0.97959641    -7.342148     224.1964  0.028052603  0.028476677            3 
  667000   0.99053423   -7.3395713    224.37337  0.028032655  0.028458104            2 
  668000   0.98600541   -7.3265421    224.78735  0.028042335  0.028439739            1 
  669000   0.97301213   -7.3801212    224.85985  0.028009449  0.028421682            2 
  670000   0.98706892   -7.3394318    224.93352  0.027976806  0.028403201            2 
  671000   0.97739892   -7.3663844    224.92913  0.027934567  0.028384706            3 
  672000   0.99063637    -7.342643    225.78895  0.027999621  0.028366121            2 
  673000   0.99493778   -7.3524403    225.79901  0.027959263  0.028347805            2 
  674000   0.97924527   -7.3572862    226.13425   0.02795923  0.028329167            2 
  675000   0.97707382   -7.3681777    225.90808  0.027889887   0.02831043            2 
  676000   0.99240219   -7.3665374    225.95343   0.02785422  0.028291581            2 
  677000   0.96759518   -7.3592928    225.65894  0.027776826  0.028272697            2 
  678000   0.98544243   -7.3833965    226.18925  0.027801039  0.028254078            3 
  679000   0.99152314   -7.3793349    225.88344  0.027722563  0.028235257            2 
  680000    1.0008274   -7.3802155    226.64536  0.027775167  0.028216441            3 
  681000   0.99593607   -7.4019068    225.83409  0.027635107   0.02819731            1 
  682000   0.96997481   -7.3842266    226.40499  0.027664344  0.028178223            5 
  683000   0.98917084   -7.3348374     227.8163  0.027796034  0.028159614           11 
  684000   0.99155197   -7.3820447    227.50274  0.027717195  0.028141053            4 
  685000   0.95685536   -7.3865525    227.04269  0.027620765  0.028122275            2 
  686000   0.98588191     -7.35228    228.02069  0.027699307  0.028103581            1 
  687000   0.96638045    -7.355533    227.85708  0.027639141  0.028084822            1 
  688000   0.97738775   -7.3562248    227.77795  0.027589384  0.028065905            2 
  689000   0.98856954    -7.367044    228.37865  0.027621994  0.028046937            1 
  690000   0.99610778   -7.3747417    228.05978  0.027543452  0.028027966            2 
  691000   0.99324344   -7.3709351     228.0489  0.027502279  0.028009106            1 
  692000   0.99027563   -7.3778498    228.40991   0.02750601  0.027990085            5 
  693000   0.95525841    -7.368635    228.95663  0.027532062  0.027971021            3 
  694000   0.96068332   -7.3738616    228.97042  0.027494047  0.027952066            1 
  695000   0.97106211    -7.365667    229.15467  0.027476579  0.027932983            2 
  696000   0.97087164    -7.349689    229.30737  0.027455384  0.027914146            1 
  697000    0.9559711   -7.3830674    229.36068  0.027422367  0.027895091            3 
  698000   0.97273828   -7.3662746    229.34117  0.027380751  0.027876225            2 
  699000   0.98315097    -7.370383    229.84719  0.027401906  0.027857496            1 
  700000   0.98676143   -7.3513399    230.71175  0.027465684   0.02783869            3 
  701000    0.9574462   -7.3840949     231.0188  0.027463006  0.027819799            2 
  702000   0.98890546   -7.3968601    230.25247  0.027332915  0.027800865            2 
  703000   0.98570769   -7.3852271    230.02402  0.027266953  0.027781571            1 
  704000   0.97099737   -7.3876567    230.29904  0.027260777  0.027762485            1 
  705000   0.95926587   -7.3736249    231.19737  0.027328294  0.027743379            3 
  706000   0.97745642   -7.3818591    230.33893  0.027188259  0.027724092            2 
  707000   0.96712621   -7.3786088    230.92867  0.027219315  0.027705056            1 
  708000   0.97243572   -7.3814758    230.80719  0.027166571  0.027685931            2 
  709000   0.97353775   -7.3957555    231.20534  0.027175052  0.027666635            3 
  710000   0.96849671   -7.3891382    231.54992  0.027177221  0.027647663            4 
  711000   0.93903562   -7.3744845    232.21052  0.027216423  0.027628873            3 
  712000   0.96628389   -7.3923158    232.34264  0.027193661   0.02761011            2 
  713000   0.93657906   -7.3662318    232.96183   0.02722789  0.027591381            2 
  714000     0.968323   -7.3699457    233.09007  0.027204723  0.027572618            1 
  715000   0.97125023   -7.3936543    232.39828  0.027086047  0.027553716            2 
  716000   0.95905136   -7.3818294    233.05207   0.02712431  0.027534816            2 
  717000   0.95950103   -7.3659185    233.62967  0.027153612  0.027516139            2 
  718000   0.95096324   -7.4155156    233.38649  0.027087569  0.027497508            2 
  719000   0.98639245   -7.4348702    233.89047  0.027108307   0.02747883            4 
  720000   0.97196939   -7.4091375    233.83259  0.027063958  0.027460315            2 
  721000   0.93502709   -7.3652273    234.07106  0.027053983  0.027441767            3 
  722000   0.94867696   -7.4234237    234.14189  0.027024687  0.027423005            2 
  723000   0.96659287   -7.3831527    233.80374  0.026948333  0.027404172            2 
  724000   0.93927151   -7.4058456     234.5741  0.026999781  0.027385409            2 
  725000   0.95659669    -7.413027    234.28879  0.026929745  0.027366792            2 
  726000   0.96299984   -7.4065304    234.63329  0.026932196  0.027348168            1 
  727000    0.9683332   -7.4092321    235.17274  0.026956985  0.027329523            1 
  728000   0.97108505   -7.3830332    236.00365   0.02701507  0.027311086            3 
  729000    0.9619027   -7.3935913     236.4759  0.027031996  0.027292914            2 
  730000   0.95720345     -7.38501    236.37693  0.026983668  0.027274704            1 
  731000    0.9757339   -7.4074659    236.61953  0.026974411  0.027256636            3 
  732000   0.95990415    -7.388731    236.44682  0.026917899  0.027238547            1 
  733000   0.95793257   -7.4260677    236.39474  0.026875255  0.027220265            5 
  734000   0.95507303   -7.4264312    236.66329  0.026869129  0.027202284            2 
  735000   0.96327169   -7.4320412    237.46206  0.026923137  0.027184389            2 
  736000   0.95093034   -7.4276394    237.46216  0.026886567  0.027166723            3 
  737000   0.93685779   -7.4389758     237.0158  0.026799615  0.027148978            3 
  738000   0.96592928   -7.3862963    238.36324  0.026915451  0.027131342            1 
  739000   0.94892109   -7.4249088    238.23389  0.026864444  0.027113921            2 
  740000   0.96008146   -7.3935803    238.64049  0.026873929  0.027096366            1 
  741000   0.96437925   -7.4040651    238.67855  0.026841943  0.027079033            3 
  742000   0.95825774   -7.4204423    238.54263  0.026790502  0.027061261            2 
  743000   0.94194523   -7.4201819    238.72825  0.026775263  0.027043729            2 
  744000   0.94668299    -7.417981     238.4313  0.026706014  0.027026235            2 
  745000   0.97842861    -7.403682    239.75321  0.026818033  0.027008445            2 
  746000   0.96003195   -7.4252679    239.39558  0.026742133  0.026990702            3 
  747000   0.94221347   -7.4016826    239.56107  0.026724796  0.026972757            2 
  748000   0.93620883   -7.4377245      239.268  0.026656417  0.026954796            1 
  749000   0.96249496   -7.3764395    240.64628  0.026774175  0.026937336            3 
  750000   0.96180544   -7.4418011    240.16548  0.026685053  0.026919582            2 
  751000   0.95824601   -7.4630204    239.44068  0.026569095   0.02690159            3 
  752000   0.94781169   -7.4109375    240.11651  0.026608655  0.026883689            2 
  753000   0.92914056   -7.4592371    239.82842  0.026541437  0.026865658            1 
  754000   0.95728289   -7.4346931    240.82258  0.026616112  0.026847718            4 
  755000   0.96014687   -7.4448072    240.71213  0.026568668  0.026829869            4 
  756000   0.95087361   -7.4631255    240.81083  0.026544403  0.026811987            2 
  757000   0.97774637   -7.4267259    240.76987  0.026504829  0.026794154            1 
  758000   0.93516614   -7.4114229    240.99959  0.026495118  0.026776317            2 
  759000   0.95440793   -7.4396367    241.46009   0.02651077  0.026758509            3 
  760000   0.95082629    -7.460994    241.40004  0.026469303  0.026740579            1 
  761000   0.95967767   -7.4160944    240.56247  0.026342802  0.026722458            3 
  762000   0.96219566   -7.4892462    240.67666   0.02632072  0.026704245            2 
  763000   0.95359263   -7.4168652    241.81473  0.026410521   0.02668583            2 
  764000   0.94652903   -7.4426774    241.48277  0.026339743  0.026667563            3 
  765000   0.94423061   -7.4408333    242.32973  0.026397574  0.026649491            4 
  766000   0.95483069   -7.4014287    241.76356  0.026301519  0.026631271            2 
  767000   0.93941899   -7.4192734    241.91935  0.026284153  0.026612902            1 
  768000    0.9568241   -7.4749789    241.81632   0.02623875  0.026594314            2 
  769000   0.95548449   -7.4239114     242.4154  0.026269549  0.026575889            3 
  770000   0.95031153   -7.4154534    242.98926  0.026297539  0.026557729            1 
  771000   0.95572334    -7.434424     242.8629  0.026249773  0.026539434            2 
  772000   0.95672755   -7.4267612    242.56906  0.026184053  0.026521256            2 
  773000   0.93500755   -7.4655149    243.25265  0.026223873  0.026503221            2 
  774000    0.9389988   -7.4621763    243.37886  0.026203581   0.02648522            3 
  775000   0.94561753   -7.4386461    243.41775  0.026173952  0.026467041            2 
  776000   0.94915338   -7.4305261    243.96755  0.026199265  0.026449041            1 
  777000   0.94712774   -7.4685468    243.77717  0.026145128  0.026431296            3 
  778000   0.94053408   -7.4402827    244.37471  0.026175526  0.026413424            1 
  779000    0.9418379   -7.4460836    244.84438  0.026192167  0.026395719            5 
  780000   0.93272906   -7.4860388    244.28052  0.026098346  0.026378169            5 
  781000   0.95159165   -7.4466274    244.48465   0.02608671  0.026360373            4 
  782000   0.95324142   -7.4761561     245.2232  0.026132054  0.026342718            2 
  783000   0.94884429   -7.4841943    244.58211  0.026030451   0.02632497            2 
  784000   0.95813756   -7.4914917    244.79795   0.02602019  0.026307005            3 
  785000   0.94133445   -7.4489032     245.6277  0.026075127  0.026289104            1 
  786000   0.93730004   -7.4430312    245.25459  0.026002395  0.026271143            4 
  787000   0.94211293   -7.4671742    245.20434  0.025964034  0.026253019            2 
  788000   0.94676641   -7.4427042    245.65297  0.025978529  0.026235049            2 
  789000   0.92975501   -7.4306686    246.23475   0.02600705  0.026217031            4 
  790000   0.94258248   -7.4994535    245.05413  0.025849592  0.026199053            2 
  791000   0.94465355   -7.4594993    245.97676  0.025914113  0.026180939            1 
  792000   0.95441272   -7.4384668    246.19215  0.025904057  0.026162919            2 
  793000   0.95648417   -7.4506066    246.26701  0.025879257  0.026144775            2 
  794000     0.941257   -7.4574777    245.99836  0.025818468  0.026126622            2 
  795000   0.94495613    -7.444681    246.73472  0.025863178  0.026108538            2 
  796000   0.93716398   -7.4604591    246.38662  0.025794244  0.026090554            3 
  797000    0.9534399   -7.4796696    246.55071  0.025779037  0.026072528            2 
  798000    0.9309357   -7.4363667    247.41943  0.025837451  0.026054383            1 
  799000   0.92380555   -7.4426833    247.36942  0.025799898  0.026036408            2 
  800000   0.94293105   -7.4904734    246.95643  0.025724628  0.026018367            4 
  801000   0.93100378   -7.4736437    247.11476  0.025708985  0.026000396            2 
  802000   0.91837051   -7.5027862     246.9303  0.025657761  0.025982148            3 
  803000   0.94436611   -7.5058737    246.91082  0.025623788  0.025963854            2 
  804000   0.92444243   -7.4660296    247.80722  0.025684828  0.025945711            4 
  805000   0.92055586   -7.4584769    247.45518  0.025616478  0.025927495            2 
  806000   0.92394986   -7.4699702    248.02764  0.025643883  0.025909205            4 
  807000   0.93294548   -7.4692705    248.23342  0.025633356  0.025890947            3 
  808000   0.92557274   -7.4507991    248.28104  0.025606543  0.025872876            8 
  809000    0.9365974   -7.4652052    248.56924  0.025604578  0.025854901            2 
  810000   0.91961166   -7.4923333    249.21262  0.025639158  0.025836708            2 
  811000   0.94255023   -7.5118933    248.36842  0.025520799  0.025818521            3 
  812000   0.93305693   -7.5018346    249.18822  0.025573503  0.025800468            2 
  813000   0.93429704    -7.487572    249.11899  0.025534952   0.02578231            1 
  814000   0.92126196   -7.4683945    249.92958  0.025586566  0.025764198            2 
  815000   0.95169579   -7.4700657     249.2341   0.02548406  0.025746056            3 
  816000   0.92605002   -7.5039255    248.99638  0.025428552  0.025727804            4 
  817000   0.92770616   -7.4797869    249.76797  0.025476129  0.025709613            4 
  818000    0.9251516   -7.4477446     250.0819  0.025476966  0.025691639            2 
  819000   0.91240992   -7.4614241    249.70438  0.025407446  0.025673448            2 
  820000   0.94621641   -7.4700198    250.31407  0.025438422  0.025655484            1 
  821000   0.92265624   -7.4806122    250.30797  0.025406818  0.025637371            1 
  822000   0.93304071   -7.4766586    249.52754   0.02529679  0.025619156            3 
  823000   0.93701948   -7.5037822    249.82431  0.025296103  0.025601052            3 
  824000     0.930793   -7.4489947    250.09117  0.025292392  0.025582871            1 
  825000   0.92958203   -7.4746017    250.30877  0.025283714  0.025564848            1 
  826000   0.92903955    -7.517734    250.01623   0.02522359  0.025546675            4 
  827000   0.92965142   -7.4857771    250.79901  0.025271968  0.025528568            2 
  828000   0.93495633   -7.4785233    251.44363  0.025306323  0.025510639            1 
  829000   0.90571999   -7.4902612    250.74636  0.025205706  0.025492673            1 
  830000   0.90941419   -7.4594093     251.9149   0.02529266  0.025474882            1 
  831000   0.92050431    -7.472799    252.07789  0.025278569  0.025457277            2 
  832000   0.90988626    -7.504372     251.4736   0.02518766  0.025439495            2 
  833000   0.90294472   -7.5012605    252.39676  0.025249776  0.025421734            3 
  834000   0.93674092   -7.4652018    252.31129   0.02521096  0.025404173            2 
  835000   0.91955154   -7.4871308      252.275  0.025177146  0.025386606            2 
  836000   0.92844045   -7.5156266    252.60772  0.025180195  0.025368796            2 
  837000   0.91629865    -7.529382    252.07166   0.02509674    0.0253508            2 
  838000   0.92079121   -7.5001222    252.93225  0.025152371  0.025332832            2 
  839000   0.92116807   -7.5042772    253.10301  0.025139353  0.025315083            2 
  840000   0.90133642   -7.5106115    253.47036  0.025145869   0.02529734            1 
  841000   0.90808943    -7.489682    253.58227  0.025127058  0.025279749            2 
  842000   0.91052027    -7.501697    253.28657   0.02506795  0.025262306            3 
  843000   0.92158276   -7.4985158    253.62198   0.02507137  0.025244652            2 
  844000   0.92420055   -7.5395471    253.89765  0.025068883  0.025227054            5 
  845000    0.9029615   -7.5383793    254.07702  0.025056906  0.025209576            4 
  846000   0.92455115    -7.565217    253.73293  0.024993394  0.025192197            2 
  847000   0.91368579   -7.5166795    253.91944  0.024982236  0.025174722            2 
  848000   0.89824455   -7.5122565    254.79459  0.025038776  0.025157557            1 
  849000   0.92921893   -7.5003936    255.77873  0.025105882  0.025140363            3 
  850000   0.89970937   -7.5273704    254.52304  0.024953239  0.025123249            4 
  851000   0.92337529   -7.5176555     255.6209  0.025031424  0.025106059            2 
  852000   0.90611406   -7.4888686    255.71731  0.025011474   0.02508885            7 
  853000   0.91249192    -7.512934    255.14626  0.024926364  0.025071603            3 
  854000   0.92149878   -7.5350019    255.51553  0.024933209  0.025054342            2 
  855000   0.90991651   -7.5093507    255.82107  0.024933828    0.0250373            2 
  856000   0.91758189   -7.5129551    255.85141  0.024907653  0.025020222            3 
  857000   0.90639536   -7.5182687    256.28331  0.024920586  0.025003101            5 
  858000   0.91484131   -7.5191743    256.39057  0.024901959  0.024985848            4 
  859000   0.92840126   -7.5335374    256.62355  0.024895571   0.02496897            2 
  860000   0.90806264   -7.5228663    257.45786  0.024947467  0.024952102            1 
  861000   0.91408988   -7.5133944    256.91674  0.024866119  0.024935216            4 
  862000   0.90210105   -7.5312821     256.3669  0.024784117  0.024918159            2 
  863000   0.91613166   -7.5201655    257.46778  0.024861701  0.024901265            2 
  864000   0.91478311   -7.5187862    257.10243  0.024797688  0.024884236            2 
  865000   0.90413531   -7.5076705    257.57245  0.024814301  0.024867304            2 
  866000   0.90543459   -7.5489798    256.80479  0.024711777  0.024850186            3 
  867000   0.91107742   -7.5225818    256.96007  0.024698199  0.024833218            4 
  868000   0.91123394   -7.5451061    257.17873  0.024690738  0.024815901            4 
  869000   0.91448341   -7.5662973    257.11007  0.024655741  0.024798906            4 
  870000   0.90723662   -7.5237347    258.25415  0.024736988   0.02478187            1 
  871000   0.90360245   -7.5651754    257.62062  0.024647973  0.024764787            4 
  872000    0.9107243   -7.5573683    257.54459  0.024612442  0.024747645            2 
  873000   0.89443793   -7.5422358    258.46379  0.024671992  0.024730633            2 
  874000   0.91861134   -7.5337134    258.49097  0.024646355   0.02471381            8 
  875000   0.91673494   -7.5503971     258.3974  0.024609276  0.024697083            1 
  876000    0.8998828   -7.5346356    258.96335  0.024635022  0.024680226            3 
  877000   0.90559446   -7.5597481    258.55986  0.024568592  0.024663398            2 
  878000   0.91574643   -7.5396981    258.55076  0.024539745  0.024646493            3 
  879000    0.9211668   -7.5290277    258.89937  0.024544878  0.024629618            3 
  880000   0.90332471   -7.5218927    259.60372  0.024583685  0.024612844            1 
  881000   0.90781837   -7.5364743     258.9881   0.02449755  0.024595851            2 
  882000   0.90256112   -7.5636545    259.28225  0.024497567  0.024578936            2 
  883000   0.88040217   -7.5249838    259.82709  0.024521243  0.024562173            2 
  884000   0.89705448   -7.5313968     259.7872  0.024489743  0.024545501            4 
  885000    0.9165097   -7.6047842    260.58517   0.02453721  0.024528909            2 
  886000   0.91747892   -7.5786954    260.24229  0.024477266  0.024512307            2 
  887000   0.88930701   -7.5794755    259.98085  0.024425108  0.024495687            4 
  888000   0.88324667   -7.5566872    260.85115  0.024479274  0.024478982            2 
  889000    0.8923665   -7.5628305    260.25786  0.024396125  0.024462333            2 
  890000   0.91800993   -7.5408289    260.35368  0.024377685  0.024445548            1 
  891000   0.91276489    -7.544262    261.09741  0.024419885  0.024428762            4 
  892000   0.90722161   -7.5670461    260.75605  0.024360618  0.024412188            3 
  893000   0.89807021   -7.5419547    261.53863  0.024406368  0.024395651            4 
  894000    0.9132752   -7.5694273    260.41367  0.024274205  0.024378808            2 
  895000   0.90059073    -7.575703    261.58504  0.024356149  0.024362026            3 
  896000   0.89410335   -7.5354584    261.37098  0.024309057  0.024345293            3 
  897000   0.89288057   -7.5921199     260.6629  0.024216175  0.024328458            3 
  898000   0.89736339    -7.576765    261.70213  0.024285647  0.024311564            1 
  899000   0.89225498   -7.5804642      260.436  0.024141268  0.024294572            2 
  900000   0.89495359   -7.5887718    261.28748  0.024193285  0.024277607            2 
  901000   0.89821765   -7.5317535    261.65895  0.024200791  0.024260492            3 
  902000   0.89239109   -7.5708015    261.61982  0.024170346  0.024243457            4 
  903000   0.87955036   -7.5426164    262.37501  0.024213272  0.024226563            2 
  904000   0.89595132   -7.5970352    262.14721  0.024165487  0.024209755            2 
  905000   0.89891935   -7.5769784    262.23575  0.024146938  0.024193153            2 
  906000   0.90051637   -7.5773771    262.45443    0.0241404  0.024176606            2 
  907000   0.89552657   -7.6019332     262.9907  0.024163056  0.024159951            2 
  908000   0.87366426   -7.5687995    263.14588  0.024150687   0.02414318            3 
  909000    0.8933519   -7.5899345     262.5588  0.024070297  0.024126534            2 
  910000   0.90420393    -7.581588    262.97128  0.024081619  0.024109897            2 
  911000   0.90486268   -7.5676113    263.86286  0.024136742  0.024093245            3 
  912000   0.89761019   -7.6122793    262.76568  0.024010022  0.024076528            1 
  913000     0.887797   -7.5680441    263.24312  0.024027302  0.024059763            2 
  914000   0.89791061   -7.5635897    263.33113  0.024009038  0.024042988            2 
  915000   0.89651056   -7.5691935    263.93774  0.024038045  0.024026316            2 
  916000   0.87817819    -7.586601    263.88624  0.024007118  0.024009768            4 
  917000   0.89212423   -7.5758093    263.67153  0.023961426  0.023993186            2 
  918000   0.89092118   -7.5919224    263.94286  0.023959955  0.023976466            2 
  919000   0.89830127   -7.5861397     263.6594  0.023908179  0.023959829            1 
  920000   0.86482718    -7.594271    263.66701  0.023882881  0.023943063            2 
  921000   0.88601192   -7.6223838    263.55667  0.023846966  0.023926327            2 
  922000    0.8983901   -7.5673785     264.4933  0.023905757  0.023909516            2 
  923000   0.88184066   -7.5979685    264.38947  0.023870483  0.023892821            2 
  924000   0.88749694     -7.56236    264.04805  0.023813857  0.023876158            5 
  925000   0.88225771   -7.5666673    264.19347  0.023801213   0.02385941            6 
  926000    0.8620838   -7.5925824    264.68984   0.02382018  0.023842749            2 
  927000   0.88449726   -7.6015731    264.84383  0.023808327  0.023826008            1 
  928000   0.90134024   -7.5595995    264.34746  0.023738098  0.023809235            2 
  929000   0.87952239   -7.6099088    263.98733  0.023680242  0.023792292            2 
  930000   0.89103099   -7.5710527    264.66833  0.023715801  0.023775459            3 
  931000   0.88190592   -7.5915701    265.02874  0.023722587  0.023758788            1 
  932000    0.8819321   -7.5472825    265.90853  0.023775798  0.023742263            5 
  933000   0.88342231   -7.5848884    265.50226  0.023714029  0.023725659            3 
  934000   0.90283655   -7.5898057    265.51096  0.023689415  0.023708975            4 
  935000   0.88680337   -7.5849611    265.97805  0.023705708  0.023692446            1 
  936000   0.86718148   -7.6182023     265.6091  0.023647534  0.023675843            1 
  937000   0.86582713    -7.599745    265.47107  0.023610021  0.023659173            1 
  938000   0.86594959   -7.5719387    266.46569  0.023673214  0.023642622            2 
  939000   0.86737138   -7.5638895    266.58372  0.023658477  0.023626001            2 
  940000   0.87051983   -7.5667614    266.03643   0.02358479  0.023609316            3 
  941000   0.89131449   -7.6183322     265.3364  0.023497733  0.023592553            3 
  942000   0.87365234    -7.622781    265.84019  0.023517355  0.023575593            1 
  943000   0.87731052    -7.621292    265.38924  0.023452566  0.023558561            3 
  944000   0.88012292   -7.6072405    265.87592  0.023470685  0.023541475            2 
  945000   0.88351121   -7.6211786    265.36812  0.023401069  0.023524351            3 
  946000   0.88480579   -7.5736743    265.73405  0.023408567  0.023507202            2 
  947000   0.88688779   -7.5759725    266.01443  0.023408521  0.023490267            4 
  948000   0.87804726   -7.6002922    266.00361  0.023382877  0.023473494            2 
  949000   0.87979083   -7.6155414    266.16846  0.023372713  0.023456468            2 
  950000   0.88368091   -7.6148981    266.45269  0.023373043  0.023439322            4 
  951000   0.86641974   -7.6216869     266.2106  0.023327252  0.023422192            1 
  952000   0.86036687   -7.6419283    265.85766  0.023271854  0.023404976            3 
  953000    0.8810251    -7.612009    265.85563  0.023247257  0.023387572            1 
  954000   0.89242242   -7.6049968    266.53242  0.023282008  0.023370342            2 
  955000   0.88554654   -7.6183309    266.43508  0.023249135   0.02335301            2 
  956000   0.85873241   -7.6130608    266.66426  0.023244793   0.02333574            4 
  957000   0.89206008   -7.6475437    266.51744  0.023207718  0.023318413            2 
  958000   0.87811728   -7.6251788    266.50404  0.023182328  0.023300926            3 
  959000   0.86968509   -7.6282958    267.01831  0.023202843   0.02328366            1 
  960000    0.8511169   -7.6042582    266.98958  0.023176179  0.023266444            4 
  961000   0.86376392   -7.5893999    267.66162  0.023210338  0.023249357            2 
  962000   0.86022805   -7.6107042    267.46726  0.023169374  0.023232372            3 
  963000   0.87483163   -7.6462396    267.04127  0.023108452  0.023215412            1 
  964000    0.8655234   -7.6097395     267.9549  0.023163459  0.023198501            2 
  965000   0.86048683   -7.6167854    267.37795  0.023089633  0.023181663            2 
  966000    0.8574262   -7.6342021      268.233  0.023139493  0.023164755            2 
  967000   0.86711043   -7.6173299     267.4814  0.023050793  0.023147954            3 
  968000   0.85163281   -7.6071931     268.5123  0.023115728  0.023131025            2 
  969000   0.85724055   -7.6345729    268.00558  0.023048295  0.023114155            2 
  970000   0.84841254   -7.6296788    268.24494  0.023045098  0.023097237            3 
  971000    0.8604151   -7.6314933    268.14385  0.023012689  0.023080187            3 
  972000   0.87619248   -7.6706424    267.96162   0.02297339   0.02306324            4 
  973000   0.86624379   -7.6076047     268.6156   0.02300579  0.023046291            2 
  974000   0.85393558    -7.627442    269.69964  0.023074918  0.023029494            3 
  975000   0.88540157   -7.6222181    269.19797  0.023008374  0.023012739            2 
  976000   0.88641057   -7.6249993    268.89786  0.022959175  0.022995891            4 
  977000   0.87294209   -7.6323771    268.78542  0.022926085  0.022979064            2 
  978000   0.83281264   -7.6385773    269.16132  0.022934673  0.022962169            2 
  979000   0.86385036   -7.6103325    269.52611  0.022942297  0.022945391            1 
  980000   0.85059704   -7.6450886    270.12185  0.022969545  0.022928723            2 
  981000   0.86891806   -7.6239651    269.72714  0.022912601   0.02291197            3 
  982000   0.87634128   -7.6274762    269.60345  0.022878772  0.022895303            3 
  983000   0.87105165   -7.6368553    268.96155  0.022801081  0.022878525            3 
  984000   0.84779393   -7.6088431    269.75904  0.022845448  0.022861831            3 
  985000   0.85133207   -7.6192789    270.18598  0.022858374  0.022845086            2 
  986000   0.87334904   -7.6361251    270.04563  0.022823329  0.022828528            2 
  987000   0.86450693   -7.6056891    270.01372  0.022797511  0.022812039            2 
  988000   0.85519909   -7.6276412    270.73458  0.022835238  0.022795433            2 
  989000   0.86637654   -7.6374126    270.26775  0.022772814  0.022778722            3 
  990000   0.87764752   -7.6442465    270.05269  0.022731708  0.022762013            4 
  991000   0.86094324    -7.674788     270.0538  0.022708863  0.022745397            2 
  992000   0.84885038   -7.6098771    270.65945  0.022736849  0.022728787            1 
  993000   0.85641376   -7.6369905     270.8647  0.022731176  0.022712268            1 
  994000   0.85238195   -7.6262537    271.08482  0.022726762  0.022695718            2 
  995000   0.85812162   -7.6425737    269.97477  0.022610952  0.022679042            3 
  996000   0.85143709   -7.6555297    270.74254  0.022652488  0.022662383            5 
  997000   0.85929988   -7.6529684    271.00082  0.022651356  0.022645708            2 
  998000   0.85455988   -7.6561154    271.24968  0.022649439  0.022629074            2 
  999000   0.86580368   -7.6562991    270.87737   0.02259571   0.02261248            1 
 1000000   0.84354293    -7.639501    270.60933  0.022550778  0.022595891            3 
 1001000   0.86825044   -7.6323573    271.01826  0.022562293   0.02257929            1 
 1002000   0.83744875   -7.6222872    271.74371  0.022600109  0.022562617            2 
 1003000   0.84355863   -7.6546311    271.23096  0.022534975  0.022545983            5 
 1004000   0.84147128   -7.6880405    271.08508  0.022500422  0.022529278            1 
 1005000     0.851415   -7.6664268    271.27961  0.022494163  0.022512612            5 
 1006000   0.83196779    -7.649925    272.05301  0.022535869  0.022496042            2 
 1007000    0.8521737   -7.6688387    271.87319  0.022498609  0.022479443            2 
 1008000   0.86057282   -7.6914626    272.45913  0.022524729  0.022462827            3 
 1009000   0.85966602   -7.6606489    271.33526  0.022409585  0.022446182            4 
 1010000   0.85852886   -7.6749406    272.33287  0.022469709  0.022429489            4 
 1011000   0.85820564   -7.6582717    272.53504  0.022464148  0.022412974            1 
 1012000   0.85466818   -7.6742755    272.34153  0.022426016  0.022396487            4 
 1013000   0.84390381   -7.6758429    272.25582  0.022396826  0.022380105            2 
 1014000   0.86106888    -7.679281    272.64628  0.022406828  0.022363835            3 
 1015000   0.84987937   -7.6779021    272.85817  0.022402148  0.022347541            6 
 1016000   0.84636734   -7.6326884    273.21043  0.022408992  0.022331305            2 
 1017000   0.84912463   -7.6721618     272.5921  0.022336291  0.022314981            1 
 1018000   0.85428781   -7.6527241    272.75178  0.022327422  0.022298555            2 
 1019000   0.84664133   -7.6602338    272.63169  0.022295689  0.022282156            2 
 1020000   0.83288388   -7.7091638     273.1717  0.022317949  0.022265645            2 
 1021000   0.86028557   -7.7164206    273.17404  0.022296282  0.022249151            2 
 1022000   0.84275409   -7.6734548    273.01517  0.022261511  0.022232632            2 
 1023000   0.81642671   -7.6928702     272.3753  0.022187627  0.022216024            3 
 1024000   0.85334374   -7.6766585    272.61712  0.022185638  0.022199513            2 
 1025000   0.84754252   -7.7021648    272.65369  0.022166967  0.022182893            2 
 1026000   0.85181854   -7.6816163    272.90272  0.022165588  0.022166242            5 
 1027000   0.84176891   -7.7077178    273.32634  0.022178379  0.022149561            2 
 1028000   0.83245998   -7.6650532    273.39664  0.022162504  0.022132863            4 
 1029000   0.82965736   -7.6890012    273.51714  0.022150724  0.022116271            4 
 1030000   0.84365476   -7.6789201    273.20171  0.022103698  0.022099805            5 
 1031000   0.83889064   -7.7106508    273.19266  0.022081528  0.022083277            4 
 1032000   0.82830106   -7.6832277    274.00726  0.022125909  0.022066809            2 
 1033000   0.83273933   -7.6891133    273.86466  0.022092986  0.022050354            3 
 1034000   0.83801352   -7.6776988     274.6817  0.022137467  0.022033935            2 
 1035000   0.82749322   -7.6859109    274.44829  0.022097286  0.022017538            3 
 1036000   0.85185896   -7.7196478     274.1337  0.022050652  0.022001181            3 
 1037000   0.81500938   -7.6980233    273.97856  0.022016921  0.021984787            2 
 1038000   0.83584088   -7.6959475    273.57203  0.021963073  0.021968321            3 
 1039000   0.83707269   -7.7014556    274.52452  0.022018329  0.021951978            1 
 1040000   0.85126651    -7.690216    274.36893   0.02198469  0.021935776            1 
 1041000   0.83303727   -7.6882892    274.75022  0.021994094  0.021919569            3 
 1042000   0.83665563    -7.688106     275.6529  0.022045177   0.02190349            5 
 1043000   0.83324399   -7.6941252    274.75377  0.021952203  0.021887426            3 
 1044000   0.82161963   -7.7177414    274.63159  0.021921423  0.021871174            2 
 1045000   0.84647607   -7.6663777    275.30178   0.02195389  0.021854995            3 
 1046000   0.84600248   -7.6798752    275.06104  0.021913722  0.021838993            1 
 1047000   0.83704811   -7.6984546    275.15087  0.021899942  0.021822913            1 
 1048000   0.83408221   -7.7267187     274.8009  0.021851216  0.021806715            2 
 1049000   0.82804074   -7.7171955    275.37686  0.021876141  0.021790469            3 
 1050000   0.81756685   -7.7212198    275.32369  0.021851086  0.021774259            2 
 1051000   0.83239037    -7.718782    275.25451   0.02182481  0.021758068            2 
 1052000   0.83239004   -7.6882373    276.00443  0.021863469  0.021742049            4 
 1053000   0.83687435   -7.6977079    275.86562   0.02183172  0.021726066            2 
 1054000     0.816321   -7.6733021    275.29789  0.021766121  0.021710124            2 
 1055000   0.85537499   -7.6956048    276.09049  0.021808095  0.021694162            2 
 1056000   0.82883657   -7.7255418    275.49735  0.021740637  0.021678175            2 
 1057000   0.82727903   -7.6793505    276.14114  0.021770824  0.021662116            6 
 1058000   0.82596818   -7.7280439    275.73977  0.021718633  0.021646109            4 
 1059000   0.82538232    -7.747111    276.45611  0.021754494    0.0216301            3 
 1060000    0.8490379   -7.7198871    276.31589  0.021722948  0.021614015            2 
 1061000   0.82955323   -7.7339577    276.50345  0.021717204  0.021597963            2 
 1062000   0.83039031   -7.7282481    276.60198  0.021704487  0.021581918            2 
 1063000   0.82687925   -7.6977156    276.29517  0.021660016  0.021566007            2 
 1064000   0.84417302   -7.7116065    276.93242  0.021689569  0.021550115            3 
 1065000   0.81378053   -7.7084386    277.39202  0.021705166  0.021534266            2 
 1066000   0.82746698   -7.7170346    276.97812  0.021652448  0.021518368            1 
 1067000   0.82825199   -7.7203314    277.31858  0.021658745   0.02150242            2 
 1068000   0.81224251   -7.7388338     276.8109  0.021598853  0.021486449            4 
 1069000   0.81084122   -7.7192203    277.10998  0.021601963  0.021470484            2 
 1070000   0.80446542    -7.718203    275.92619  0.021489579  0.021454458            3 
 1071000   0.81174864   -7.7278969    276.74808  0.021533464  0.021438442            3 
 1072000   0.82540053   -7.7163872    277.16997  0.021546173  0.021422537            2 
 1073000   0.84577589   -7.6897006    277.73012  0.021569596   0.02140663            4 
 1074000   0.84048165   -7.7279268     276.7268  0.021471663  0.021390706            4 
 1075000   0.83286011   -7.7188753    277.86601  0.021540001  0.021374776            1 
 1076000   0.81804108   -7.7347945    276.90951  0.021445904  0.021358916            4 
 1077000   0.81246055   -7.7148464    277.54028  0.021474797  0.021343106            3 
 1078000     0.829288   -7.7459011    277.47073  0.021449499  0.021327284            5 
 1079000    0.8326641   -7.7139362    278.56784  0.021514352  0.021311411            3 
 1080000    0.8244941   -7.7510969    277.51898  0.021413502  0.021295623            2 
 1081000     0.797969   -7.7556251    277.83727  0.021418229  0.021279814            2 
 1082000   0.82649397   -7.7291691    277.86383   0.02140048  0.021264065            2 
 1083000   0.82607889   -7.7565096    278.03905  0.021394202  0.021248389            2 
 1084000   0.80891276    -7.716733    278.61667  0.021418871  0.021232683            2 
 1085000   0.81369256   -7.7655753    278.32704  0.021376884     0.021217            2 
 1086000    0.8278881   -7.7663931    277.78364  0.021315503  0.021201237            2 
 1087000   0.82477103   -7.7597136    277.92706  0.021306889  0.021185429            3 
 1088000   0.81755288    -7.721466    278.27657  0.021314076  0.021169731            2 
 1089000   0.83580896   -7.7182466    279.43241  0.021382951  0.021154077            2 
 1090000   0.80732404   -7.7175335    279.20724   0.02134612  0.021138381            1 
 1091000   0.81891848   -7.7185986    278.46318   0.02126972  0.021122685            4 
 1092000    0.8168083   -7.7489817    279.20097  0.021306546  0.021106974            7 
 1093000   0.80969513   -7.7247943    279.07672  0.021277579  0.021091294            5 
 1094000   0.81350388   -7.7451686    278.88712  0.021243687   0.02107563            6 
 1095000   0.82429619   -7.7390983    279.57294   0.02127648  0.021060012            3 
 1096000   0.80871809   -7.7471707     278.7298  0.021192959  0.021044368            3 
 1097000   0.83064371   -7.7674963    279.17391  0.021207377  0.021028855            2 
 1098000   0.81210564   -7.7218022    279.56326  0.021217612  0.021013341            3 
 1099000   0.78982814   -7.7290874    278.88953   0.02114722  0.020997844            2 
 1100000   0.81304199   -7.7824751    279.22353  0.021153297  0.020982305            3 
 1101000   0.80637287   -7.7338424    279.44026  0.021150489  0.020966831            2 
 1102000    0.8252397   -7.7354202    279.93963  0.021169059   0.02095143            2 
 1103000   0.82174739    -7.725541    280.42718  0.021186701  0.020936027            1 
 1104000   0.80247975   -7.7727223    279.98793  0.021134354  0.020920623            2 
 1105000   0.82720077   -7.7389294    280.06193  0.021120809  0.020905238            7 
 1106000   0.81964749   -7.7329786    279.69193  0.021073835  0.020889873            1 
 1107000   0.79573148   -7.7473262    280.40007  0.021108105  0.020874445            2 
 1108000     0.811554    -7.737939    280.46181  0.021093698  0.020859007            2 
 1109000   0.79643447   -7.7646697    280.60807  0.021085668  0.020843654            3 
 1110000    0.8207261   -7.7659783     280.3797  0.021049527  0.020828316            3 
 1111000   0.80132006   -7.7431021    280.02992  0.021004345  0.020812996            2 
 1112000   0.82633036   -7.7390207    280.38732  0.021012239  0.020797716            2 
 1113000   0.80079598   -7.7316637    280.91415  0.021032805  0.020782438            3 
 1114000   0.80357518   -7.7794958    280.85155  0.021009243  0.020767174            4 
 1115000   0.79779044   -7.7190958    281.50038  0.021038892  0.020751898            2 
 1116000   0.81857943   -7.7351423    280.85661  0.020971969  0.020736502            6 
 1117000   0.81024994   -7.7609344    281.51879  0.021002595  0.020721127            1 
 1118000   0.80528432   -7.7488704    281.03122  0.020947468  0.020705729            3 
 1119000   0.81532509   -7.7672728    281.14797  0.020937442  0.020690344            2 
 1120000   0.81351765   -7.7496867    280.96675  0.020905264  0.020675007            4 
 1121000   0.79910234   -7.7767868    281.01528  0.020890223  0.020659632            2 
 1122000   0.78484011   -7.7970796    281.09408  0.020877457  0.020644235            3 
 1123000   0.80641612   -7.7757705    280.99396  0.020851437  0.020628834            3 
 1124000   0.80951435   -7.7627269    280.98297  0.020832071  0.020613464            4 
 1125000   0.82313318   -7.7687022    281.00777   0.02081539  0.020598093            2 
 1126000   0.80416286   -7.7815691    280.86019  0.020785982   0.02058261            2 
 1127000   0.79553069   -7.8228448    280.48618  0.020739883  0.020567163            2 
 1128000   0.79870504   -7.7772575    281.68436  0.020810015  0.020551692            2 
 1129000   0.80045372    -7.809596    281.02726  0.020743081  0.020536272            1 
 1130000   0.80758925   -7.7942878    281.57766  0.020765314  0.020520748            3 
 1131000   0.79862955   -7.7884203    281.08692  0.020710796  0.020505241            2 
 1132000   0.81090762   -7.7542223    281.55129  0.020726685  0.020489747            1 
 1133000   0.82252424   -7.7846771    281.50784  0.020705195  0.020474343            2 
 1134000   0.78893512   -7.8063925    281.05468  0.020653636  0.020458947            2 
 1135000   0.78741913   -7.7806988     281.1305  0.020641006  0.020443536            6 
 1136000   0.80845773   -7.8075365    281.54797   0.02065346    0.0204281            3 
 1137000   0.78755782    -7.775483    282.39404  0.020697306  0.020412769            3 
 1138000    0.7966927   -7.7674397     282.5017  0.020687002   0.02039751            9 
 1139000   0.80213009   -7.8085687    282.22692  0.020648736  0.020382324            3 
 1140000   0.79844843   -7.7892831    282.35165  0.020639741  0.020367147            3 
 1141000   0.79776007   -7.8016391    282.22915  0.020612704  0.020352001            3 
 1142000   0.78776856   -7.7688942    282.27353  0.020597893  0.020336873            2 
 1143000   0.81372354   -7.7908194    282.52866  0.020598473  0.020321883            3 
 1144000   0.83207643   -7.8084773    282.58355  0.020584466  0.020306892            4 
 1145000   0.78479246    -7.782969     283.0473   0.02060024  0.020291868            3 
 1146000   0.80408685   -7.8130048    283.07599   0.02058435  0.020276805            3 
 1147000   0.77938792    -7.797572    283.22252   0.02057705  0.020261746            3 
 1148000   0.79436913   -7.7932561    283.25278  0.020561322  0.020246738            2 
 1149000   0.78927251   -7.7992794    282.96196  0.020522335  0.020231699            2 
 1150000   0.80775098   -7.8066141    283.28446  0.020527859   0.02021662            1 
 1151000   0.78477277   -7.7924786    283.82522  0.020549176  0.020201609            5 
 1152000   0.79978113    -7.803058    283.44697  0.020503976  0.020186752            2 
 1153000   0.79400575   -7.7976072    283.25682   0.02047245  0.020171796            3 
 1154000   0.80586174   -7.8211234    283.80236  0.020494105  0.020156844            2 
 1155000   0.79874116   -7.8119773    283.38388  0.020446168  0.020141977            4 
 1156000   0.78154015   -7.7962313    283.22377  0.020416938  0.020127091            2 
 1157000    0.7813503   -7.8297219    283.62915  0.020428489   0.02011222            1 
 1158000    0.7924157   -7.8234843    283.89445   0.02042994  0.020097331            3 
 1159000   0.77872217   -7.8005818    284.03832  0.020422657  0.020082463            6 
 1160000   0.79835478   -7.8326861    283.88246  0.020393855  0.020067689            3 
 1161000   0.79670957   -7.8333495    283.26833  0.020332208  0.020052841            4 
 1162000   0.79314346   -7.8213823    283.84666  0.020356186  0.020037939            3 
 1163000   0.78134375    -7.825034    284.29682  0.020370939  0.020023069            3 
 1164000   0.78747734   -7.8183377    283.44404  0.020292386  0.020008222            3 
 1165000   0.78614417   -7.8355176    283.61552  0.020287233   0.01999336            6 
 1166000   0.77214881   -7.8064954    283.74265   0.02027892  0.019978457            2 
 1167000   0.80314272   -7.8153469    285.27109  0.020370686  0.019963681            3 
 1168000   0.79542984   -7.8065672     284.6569  0.020309425  0.019948936            2 
 1169000   0.80037276   -7.8302598    284.25065  0.020263091  0.019934172            2 
 1170000   0.79411279   -7.8137165    284.71723  0.020279005  0.019919391            2 
 1171000   0.77852232   -7.8182695    284.33658  0.020234599  0.019904615            1 
 1172000   0.79059217    -7.848903    283.68032  0.020170671  0.019889816            6 
 1173000   0.80497014   -7.8316641    284.29016    0.0201968  0.019874987            3 
 1174000   0.78249615    -7.834647    284.16746  0.020170887  0.019860251            2 
 1175000    0.7979315   -7.8099806    284.81383  0.020199562  0.019845566            2 
 1176000   0.78105816   -7.8031386    284.61584  0.020168356  0.019830923            2 
 1177000   0.78323445   -7.8121846     284.2156  0.020122883  0.019816244            2 
 1178000   0.79156253   -7.8405923    284.55276  0.020129652  0.019801503            2 
 1179000   0.77941972   -7.8201063    285.00147  0.020144294  0.019786758            2 
 1180000   0.77844879   -7.7991822    285.30451  0.020148624  0.019772081            1 
 1181000   0.77422731   -7.8551036    284.46307   0.02007219  0.019757319            3 
 1182000   0.76350659   -7.8405671    284.34643  0.020046984  0.019742494            3 
 1183000   0.78989154   -7.8442258    284.64578  0.020051126  0.019727746            2 
 1184000   0.78742089   -7.8334856    285.19013  0.020072503   0.01971308            2 
 1185000   0.79396113   -7.8387114    284.97293   0.02004029  0.019698349            1 
 1186000   0.78505909   -7.8492942    285.35498  0.020050237  0.019683634            2 
 1187000   0.78803316   -7.8710384    285.05922  0.020012582  0.019668966            1 
 1188000   0.77678105   -7.8677898    285.43145  0.020021847  0.019654407            3 
 1189000    0.7679307   -7.8475786    285.21622  0.019989923  0.019639845            2 
 1190000   0.77726336   -7.8626721    286.05593  0.020031928  0.019625258            1 
 1191000   0.76742983   -7.8508373    285.79129  0.019996592  0.019610813            2 
 1192000   0.77659331   -7.8510281    286.46379  0.020026831  0.019596333            3 
 1193000   0.77967744   -7.8656466    286.36393  0.020003069  0.019581858            2 
 1194000    0.7661153   -7.8550183    285.67532  0.019938255  0.019567396            2 
 1195000    0.7739653   -7.8483553    286.17535   0.01995644  0.019552944            2 
 1196000   0.79835925     -7.85505    285.96476   0.01992508  0.019538509            4 
 1197000   0.78080527   -7.8610873    286.04453  0.019913988  0.019523958            3 
 1198000   0.76086816    -7.853397    285.31545   0.01984665  0.019509393            2 
 1199000   0.77949693   -7.8590277    286.27969  0.019897115  0.019494874            2 
 1200000   0.76551579   -7.8616753    285.69251  0.019839758  0.019480369            2 
 1201000   0.77180452   -7.8550261    286.17486  0.019856707  0.019465806            4 
 1202000   0.75194309   -7.8496226    285.80484  0.019814534   0.01945124            3 
 1203000   0.76303918   -7.8551506    285.41637  0.019771154  0.019436588            2 
 1204000   0.76471866    -7.835223    286.32661  0.019817733  0.019422034            1 
 1205000    0.7762025   -7.8553075    286.42744   0.01980826  0.019407573            5 
 1206000   0.77963073   -7.8443652    285.34747   0.01971721  0.019393079            3 
 1207000    0.7681483   -7.8704244    285.90574  0.019739418  0.019378577            2 
 1208000   0.77408537   -7.8710009     285.8526  0.019719412   0.01936403            2 
 1209000   0.77589829   -7.8276345    286.16322  0.019724512  0.019349493            3 
 1210000   0.77861642   -7.8328232    286.63148   0.01974046  0.019335034            4 
 1211000   0.77892348   -7.8547833    286.35332  0.019705018  0.019320589            2 
 1212000   0.77914262   -7.8658244    285.39155  0.019622631  0.019306009            3 
 1213000   0.76781982    -7.873718    285.73875  0.019630307   0.01929144            2 
 1214000   0.75859578   -7.8845796    286.34605  0.019655824  0.019276873            2 
 1215000   0.76366711    -7.883991    286.74178  0.019666789  0.019262371            2 
 1216000   0.75213864    -7.844672    286.00279  0.019599972  0.019247768            4 
 1217000   0.77045994   -7.8722638     285.4256  0.019544344  0.019233131            4 
 1218000   0.76238285   -7.8820376    285.91964  0.019562099  0.019218416            2 
 1219000   0.76986711   -7.8917022    286.43552  0.019581318  0.019203775            3 
 1220000   0.76572948   -7.8927318    286.32117  0.019557457  0.019189232            4 
 1221000   0.76708461   -7.8900537    285.88595  0.019511736  0.019174689            3 
 1222000   0.76951866   -7.8615016    286.73074  0.019553378  0.019160093            1 
 1223000   0.74944054   -7.8433532    286.60312  0.019528694  0.019145564            1 
 1224000   0.77552583   -7.8882693    286.43018  0.019500965  0.019130995            3 
 1225000   0.77514697   -7.8668098    286.73639  0.019505877  0.019116492            1 
 1226000   0.76984019   -7.8880407    286.31532  0.019461346  0.019101972            1 
 1227000   0.75424205   -7.8746011    286.35916  0.019448462  0.019087452            4 
 1228000   0.76122176   -7.8877055    285.80976  0.019395342  0.019072882            3 
 1229000   0.77092703   -7.8800969     286.3181  0.019414029  0.019058359            4 
 1230000   0.75119962   -7.9041235    286.71349  0.019425033  0.019043799            2 
 1231000    0.7665414   -7.8758244    286.44389  0.019391003  0.019029252            1 
 1232000   0.76600449   -7.9155261    286.48886  0.019378305  0.019014714            3 
 1233000   0.77516951   -7.8886309    286.03547  0.019331946  0.019000075            3 
 1234000    0.7695173   -7.9204065    286.03356  0.019316151  0.018985411            3 
 1235000   0.75590366   -7.9079616    286.63798  0.019341294  0.018970745            2 
 1236000   0.75828041   -7.9156334    286.50448  0.019316645  0.018956126            5 
 1237000    0.7625685   -7.9152669    286.31781  0.019288454  0.018941516            3 
 1238000   0.75129991   -7.9108276    286.45282  0.019281961  0.018926925            3 
 1239000   0.76695542   -7.8898329    286.00927  0.019236567  0.018912324            2 
 1240000   0.76220506   -7.8765907    287.44394  0.019317469  0.018897762            2 
 1241000   0.76813987   -7.9133761    286.19013  0.019217709  0.018883192            2 
 1242000   0.75011017   -7.8958112    286.91295  0.019250734  0.018868597            9 
 1243000   0.75561714   -7.9035546    286.33389  0.019196426   0.01885398            4 
 1244000     0.762667   -7.8893898    286.72389   0.01920712  0.018839483            4 
 1245000   0.73954812   -7.9026551    286.48712  0.019175845  0.018824959            2 
 1246000   0.74446546   -7.9060119    286.31885  0.019149201   0.01881034            3 
 1247000   0.73832376   -7.9138507    286.57189  0.019150755  0.018795756            7 
 1248000   0.74565701   -7.8955915    286.71396  0.019144896  0.018781256            3 
 1249000   0.77377586   -7.9298278    286.71603  0.019129706  0.018766781            2 
 1250000   0.75719124   -7.9082392    285.99537  0.019066358  0.018752232            1 
 1251000   0.74027503   -7.9337785    286.33129  0.019073494  0.018737658            1 
 1252000   0.74172587   -7.9160147     286.8933  0.019095667  0.018723063            2 
 1253000   0.77274896   -7.8921968    286.21952  0.019035616  0.018708465            4 
 1254000   0.75628221   -7.9371487    286.34289  0.019028634  0.018693931            3 
 1255000   0.76367117   -7.8889551    287.24834  0.019073595  0.018679405            3 
 1256000   0.75048701   -7.9069268    286.49177  0.019008212  0.018664857            3 
 1257000   0.75329685   -7.9288366    286.97013  0.019024803  0.018650304            2 
 1258000   0.73849745     -7.89777    285.86927  0.018936756  0.018635732            2 
 1259000   0.75591943   -7.9102668    286.68603  0.018975776  0.018621175            2 
 1260000   0.74100511   -7.9040407    287.14579  0.018991123  0.018606615            3 
 1261000   0.74675532   -7.9054097    287.23603  0.018982027  0.018592131            3 
 1262000   0.74311509   -7.9147473    286.93584  0.018947163  0.018577601            2 
 1263000   0.75027886   -7.9212711    286.28514  0.018889228  0.018563065            6 
 1264000   0.76274917   -7.8952853    286.20533  0.018869022  0.018548488            2 
 1265000   0.75117784   -7.9259098    286.36579  0.018864677  0.018533827            2 
 1266000     0.759641   -7.9128963    286.87444  0.018883257  0.018519205            1 
 1267000   0.74536725   -7.9296578    286.71312  0.018857743   0.01850459            3 
 1268000   0.74839843   -7.9202396    286.87212   0.01885332  0.018490019            3 
 1269000   0.76728817   -7.8811239    286.50777  0.018814537  0.018475445            3 
 1270000   0.75821312   -7.9283409    286.58023  0.018804477  0.018460859            3 
 1271000   0.74766744   -7.9171415    287.16316  0.018827902  0.018446322            4 
 1272000   0.75980992   -7.8990052    287.03152  0.018804476  0.018431816            2 
 1273000   0.74453624    -7.905816    286.70038  0.018768027  0.018417336            1 
 1274000   0.75019349   -7.9102867    287.17886  0.018784593  0.018402835            6 
 1275000   0.73940642   -7.9001817      286.798  0.018744968  0.018388387            4 
 1276000    0.7491447   -7.9223131     287.6295   0.01878458  0.018373947            2 
 1277000   0.75766678   -7.9205942    287.50898  0.018762006   0.01835956            4 
 1278000   0.73370618   -7.8984759    287.58259  0.018752125  0.018345212            3 
 1279000   0.75609029   -7.9142736    287.82671  0.018753369  0.018330873            2 
 1280000   0.73092246   -7.9209052    287.92811   0.01874532  0.018316547            4 
 1281000   0.75236903   -7.9494053    287.73655  0.018718225  0.018302205            4 
 1282000   0.73033782   -7.9452494    287.88678  0.018713389  0.018287911            3 
 1283000   0.74040443   -7.9393459    287.47149   0.01867183  0.018273679            2 
 1284000   0.74885592   -7.9246424    288.46673   0.01872188  0.018259402            3 
 1285000   0.73315248   -7.9255451    288.30551  0.018696855  0.018245119            4 
 1286000   0.75475221   -7.9358936    287.70886  0.018643653  0.018230838            4 
 1287000    0.7319595   -7.9204857    288.41491  0.018674884  0.018216555            3 
 1288000   0.73894027   -7.9411112    288.05391  0.018637028  0.018202325            2 
 1289000   0.74223827   -7.9654998     288.3214  0.018639863  0.018188107            4 
 1290000   0.72678392   -7.9448736    288.10655  0.018611534  0.018173901            3 
 1291000   0.72786469   -7.9772578    288.38915   0.01861536  0.018159724            2 
 1292000   0.74333947   -7.9597444    288.24733  0.018591804  0.018145586            2 
 1293000    0.7398993   -7.9823758    288.31768  0.018581959  0.018131464            2 
 1294000   0.74220064   -7.9760307    288.24265  0.018562767   0.01811726            2 
 1295000   0.73188988   -7.9778719    287.84692  0.018522968  0.018103096            4 
 1296000    0.7427425    -7.931598    288.37074  0.018542357  0.018088979            2 
 1297000   0.74210678   -7.9534976     288.4943     0.018536    0.0180749            3 
 1298000    0.7251142   -7.9534026    288.15945  0.018500221  0.018060808            3 
 1299000    0.7314071   -7.9417092    289.11351  0.018547184   0.01804678            3 
 1300000   0.72449262   -7.9243799    288.59582  0.018499732  0.018032749            3 
 1301000   0.72750849   -7.9638039      288.527  0.018481105  0.018018775            3 
 1302000   0.72954697   -7.9468263    288.51615  0.018466216  0.018004746            2 
 1303000   0.73205134   -7.9422046    288.49498  0.018450689  0.017990698            3 
 1304000   0.73140229   -7.9744615    288.06798  0.018409253  0.017976658            1 
 1305000   0.73980838   -7.9682689    288.86011  0.018445729  0.017962642            2 
 1306000   0.72411883   -7.9472185    288.12934  0.018384976  0.017948536            4 
 1307000   0.71625842   -7.9548015     289.3421  0.018448234  0.017934499            2 
 1308000   0.73527442   -7.9533161    289.04243  0.018415038  0.017920427            2 
 1309000    0.7204453   -7.9626881    289.09992   0.01840463  0.017906381            4 
 1310000   0.72359696   -7.9780501    288.21724   0.01833443  0.017892282            1 
 1311000   0.74251308   -7.9970368    288.02894  0.018308476  0.017878167            5 
 1312000    0.7164665     -7.98873    287.74182  0.018276284  0.017864045            3 
 1313000   0.73250969   -7.9664157    287.99201  0.018278244  0.017849926            7 
 1314000    0.7211248   -7.9805454    288.18872  0.018276809  0.017835855            1 
 1315000    0.7256264   -7.9614995    287.79061  0.018237681  0.017821788            4 
 1316000   0.71418569   -7.9691043    288.59909  0.018275018   0.01780765            3 
 1317000   0.73379696   -7.9983707     287.8475  0.018213585  0.017793559            2 
 1318000   0.73254361   -7.9872065    288.23942  0.018224546  0.017779451            2 
 1319000   0.73994403   -8.0100461    288.07722  0.018200482  0.017765305            4 
 1320000   0.70801854    -7.964425    288.37825  0.018205698  0.017751206            2 
 1321000   0.70936602    -7.984432    288.13015  0.018176265  0.017737123            4 
 1322000   0.73085145   -7.9884249    288.26135  0.018170786  0.017723032            3 
 1323000   0.72755287   -7.9977175    288.02432  0.018142121  0.017708922            2 
 1324000   0.71712385   -8.0239515    287.45892  0.018092832  0.017694843            3 
 1325000   0.74457802   -8.0085847    288.16428   0.01812354  0.017680708            2 
 1326000   0.72556789   -8.0082942    288.35225  0.018121685  0.017666644            2 
 1327000   0.70964517   -8.0296609    288.48967  0.018116658  0.017652569            4 
 1328000   0.72257342   -8.0092615    288.38197  0.018096258  0.017638483            1 
 1329000   0.71511368   -8.0097072    287.82265   0.01804757  0.017624401            2 
 1330000    0.7362814   -8.0139147    288.46583    0.0180743  0.017610313            1 
 1331000   0.73096092   -7.9869903    287.82246   0.01802044  0.017596282            2 
 1332000   0.72763343   -8.0229385    287.58725  0.017992195  0.017582252            3 
 1333000   0.71123987   -7.9873734    288.62693  0.018043694  0.017568229            2 
 1334000   0.71362722    -7.979365    288.46143   0.01801983  0.017554229            1 
 1335000   0.70873157   -7.9967028    288.75254  0.018024503   0.01754023            2 
 1336000   0.70698789   -7.9995451    288.77924  0.018012677  0.017526283            2 
 1337000   0.72857436   -7.9619141    288.41705   0.01797663  0.017512331            1 
 1338000   0.73188853   -7.9867313    288.07467   0.01794187  0.017498367            2 
 1339000   0.71914434   -8.0228974    288.32728  0.017944192  0.017484378            4 
 1340000   0.72379814   -8.0534046    288.55849  0.017945179   0.01747041            6 
 1341000   0.72916541   -8.0267992    288.67103  0.017938792  0.017456462            3 
 1342000   0.71281286   -7.9764032    288.28296  0.017901326  0.017442578            3 
 1343000   0.70897066   -7.9820405    289.13878  0.017941101  0.017428726            4 
 1344000   0.71987297   -7.9921461    288.86247  0.017910619   0.01741487            3 
 1345000   0.69930991   -8.0004571    288.70503  0.017887548  0.017400978            4 
 1346000   0.71372786   -7.9859841    289.27819  0.017909744   0.01738717            3 
 1347000   0.72825618   -7.9907897    288.68942  0.017860024  0.017373316            2 
 1348000   0.71896183   -8.0064679    288.62443  0.017842756  0.017359506            2 
 1349000   0.71407665    -7.983606    289.04477  0.017855496  0.017345655            1 
 1350000   0.70954391   -7.9790738    289.37434  0.017862614  0.017331842            3 
 1351000   0.71934254   -8.0230112    288.72759  0.017809499  0.017317947            2 
 1352000   0.71510998   -7.9823739    288.56871  0.017786533  0.017304117            2 
 1353000   0.70063286   -8.0051191    288.78699  0.017786831  0.017290332            2 
 1354000    0.7122467   -8.0125832    289.13187  0.017794921  0.017276525            4 
 1355000   0.71439848   -7.9759953    288.71386   0.01775608  0.017262669            2 
 1356000   0.70948129   -7.9770806    288.80002   0.01774828  0.017248863            4 
 1357000   0.72011019   -8.0062543    288.80068  0.017735242   0.01723503            4 
 1358000   0.71006149   -8.0168723    288.98179  0.017733296   0.01722121            3 
 1359000   0.70984439   -8.0062529    288.13335  0.017668221  0.017207371            5 
 1360000   0.72661069   -8.0124624    288.40624  0.017671951  0.017193546            3 
 1361000   0.70350859   -8.0207745     288.7352  0.017679109  0.017179725            2 
 1362000   0.71092325   -8.0104193    289.01974  0.017683538  0.017165943            5 
 1363000    0.7097149   -8.0294364    288.01583  0.017609185  0.017152158            4 
 1364000   0.70427921    -8.032141    288.28229  0.017612554  0.017138357            4 
 1365000   0.71174702   -8.0156692    289.46351  0.017671765   0.01712458            2 
 1366000   0.69914883   -7.9910155    289.69986  0.017673247  0.017110864            3 
 1367000   0.69587681    -8.044878    288.08376    0.0175618  0.017097136            2 
 1368000   0.71216487   -8.0242114    289.28608  0.017622203  0.017083404            3 
 1369000   0.71511188   -8.0173206    288.53738  0.017563756  0.017069713            3 
 1370000   0.70221293    -8.001201    288.93396  0.017575058  0.017056019            2 
 1371000   0.69542032    -8.007147    289.14024  0.017574778  0.017042345            5 
 1372000   0.71395519   -8.0198596    289.04877  0.017556412  0.017028664            2 
 1373000   0.70758105    -8.055201    288.91232  0.017535344  0.017014973            2 
 1374000   0.69987869   -8.0254473    289.42842  0.017553883  0.017001308            3 
 1375000   0.69678481   -8.0131448    288.64676  0.017493743  0.016987602            5 
 1376000   0.70121277   -8.0354181    288.45526  0.017469432  0.016973904            2 
 1377000   0.71555508   -8.0131126     289.1806  0.017500642  0.016960201            2 
 1378000   0.69814934   -8.0132217     288.6576  0.017456314  0.016946517            4 
 1379000   0.71399079   -8.0652572    288.44063  0.017430543  0.016932799            2 
 1380000   0.69744924    -8.041401    289.32346  0.017471224  0.016919054            1 
 1381000   0.69624507   -8.0347366    289.03994  0.017441464  0.016905334            1 
 1382000   0.71398038   -8.0361006    288.79275  0.017413938  0.016891653            2 
 1383000   0.69802395   -8.0421757    288.93316  0.017409807  0.016877948            2 
 1384000   0.70188662   -8.0230983    288.05818  0.017344543  0.016864257            3 
 1385000   0.70811069   -8.0471852    288.74487  0.017373337  0.016850571            3 
 1386000    0.6898201   -8.0529484    289.53086   0.01740806    0.0168369            3 
 1387000   0.69739459   -8.0453555    288.82354  0.017353012  0.016823277            1 
 1388000    0.7094385   -8.0357467    288.82219  0.017340429  0.016809666            3 
 1389000   0.69463668   -8.0600735    288.52838  0.017310318  0.016796061            2 
 1390000   0.69305678   -8.0554747    288.75919  0.017311702   0.01678244            2 
 1391000   0.69151643   -8.0376851    288.65586  0.017293066  0.016768832            3 
 1392000   0.69131983   -8.0595862    288.69259  0.017282842  0.016755205            1 
 1393000   0.69503747   -8.0493367    288.69419  0.017270531  0.016741533            3 
 1394000   0.70608677   -8.0266479    288.89153  0.017269939  0.016727915            3 
 1395000   0.69163646   -8.0638328    288.60138  0.017240226  0.016714312            3 
 1396000   0.70658819   -8.0596681    288.87688  0.017244322  0.016700733            4 
 1397000   0.69951373   -8.0686786    288.58227  0.017214404  0.016687125            3 
 1398000   0.70179901   -8.0705325    288.24281  0.017181855  0.016673479            2 
 1399000   0.68465333   -8.0578697    289.05364  0.017217872  0.016659877            4 
 1400000   0.69459842   -8.0655293    289.14777  0.017211177  0.016646319            4 
 1401000   0.71738072   -8.0761417    288.25888   0.01714602  0.016632764            2 
 1402000   0.68490858   -8.0593577    288.48228  0.017147069   0.01661919            3 
 1403000   0.68988347   -8.0523343    288.59032  0.017141264  0.016605559            6 
 1404000    0.7028603   -8.0540321    288.71634  0.017136535  0.016592001            3 
 1405000   0.67947737   -8.0756223     288.3626  0.017103357  0.016578426            6 
 1406000   0.69464033   -8.0682055    287.94798  0.017066618  0.016564875            2 
 1407000   0.68805082   -8.0626679    288.17491  0.017067929  0.016551358            3 
 1408000   0.68987579   -8.0585329    289.07106  0.017108846  0.016537826            2 
 1409000   0.68486293   -8.0746661     288.6406  0.017071244  0.016524264            4 
 1410000   0.67971458   -8.0801029    289.02749  0.017082003  0.016510715            2 
 1411000   0.68803344   -8.0764386    288.61233  0.017045377  0.016497156            5 
 1412000   0.70146264   -8.0797308    289.61979  0.017092764  0.016483604            4 
 1413000   0.67961014   -8.0748197    288.58059  0.017019379  0.016470032            9 
 1414000   0.69465925   -8.0870967    288.30427  0.016991058  0.016456478            2 
 1415000    0.6965772    -8.097773    288.23167  0.016974775  0.016442936            2 
 1416000   0.68797848   -8.0759663    288.95483  0.017005346  0.016429431            2 
 1417000   0.68675334   -8.0798305    288.82953  0.016985976  0.016415925            1 
 1418000   0.68344724   -8.0848503    288.60689  0.016960913  0.016402462            2 
 1419000   0.67440754    -8.079174    288.82834  0.016961965  0.016389025            6 
 1420000   0.68488165   -8.0800593     288.8787  0.016952976  0.016375578            2 
 1421000   0.70300071   -8.0851702    289.23391  0.016961876  0.016362141            3 
 1422000   0.68399883   -8.0709739    288.72225  0.016919963  0.016348729            2 
 1423000   0.69383792   -8.1001856    288.40552  0.016889525  0.016335319            4 
 1424000   0.68629831   -8.1194826    288.73585  0.016896995  0.016321885            3 
 1425000   0.68520686   -8.1030537    288.48451  0.016870439  0.016308478            1 
 1426000    0.6964064   -8.0776989    288.29076  0.016847286   0.01629508            5 
 1427000   0.68396245   -8.1031306    288.54134  0.016850113   0.01628167            3 
 1428000   0.70418672   -8.0850366    288.83541  0.016855474  0.016268292            4 
 1429000   0.68954333   -8.1023073    288.62198  0.016831233  0.016254916            9 
 1430000   0.68017388   -8.0868776    288.91879  0.016836759  0.016241537            1 
 1431000   0.68401837   -8.0855712    288.47449   0.01679912  0.016228195            2 
 1432000   0.68171831   -8.0732551    288.47086  0.016787178  0.016214861            4 
 1433000   0.68299866   -8.0924975    288.96467   0.01680418  0.016201538            3 
 1434000   0.67510199   -8.0857221    288.90887  0.016789218  0.016188215            2 
 1435000   0.68862465   -8.0930923    289.03484  0.016784834  0.016174924            2 
 1436000   0.68831872   -8.0894169    289.08311  0.016775947  0.016161625            4 
 1437000    0.6786187   -8.0906939    288.59999  0.016736255   0.01614834            4 
 1438000   0.67713131   -8.0664793    288.72481  0.016731851  0.016135091            2 
 1439000   0.67886664    -8.088912    289.10893  0.016742468  0.016121823            4 
 1440000   0.69839951   -8.0861634    288.96861   0.01672272  0.016108548            3 
 1441000   0.66977013   -8.1258521    288.59589  0.016689561  0.016095299            2 
 1442000   0.68327104   -8.1175127    288.20304  0.016655284  0.016082002            2 
 1443000   0.68860762   -8.1106697    289.25791  0.016704661   0.01606873            3 
 1444000   0.66939437   -8.0820575    289.48109  0.016705972  0.016055533            4 
 1445000   0.66908492   -8.1193093    288.97156  0.016665026   0.01604232            3 
 1446000   0.67593069   -8.0775103    288.94983  0.016652249  0.016029139            5 
 1447000   0.67606156   -8.0851449    289.15895  0.016652785  0.016015989            6 
 1448000   0.67766118    -8.093147    288.99526  0.016631863  0.016002869            3 
 1449000   0.67336515   -8.1000266     289.1988  0.016632091  0.015989794            4 
 1450000   0.69004487   -8.1055911    289.02938  0.016610884  0.015976715            3 
 1451000   0.68130479   -8.0928445    289.38047    0.0166196  0.015963629            3 
 1452000   0.67104257   -8.0983851    288.91624  0.016581511   0.01595059            2 
 1453000   0.67897719   -8.1069133    289.40639   0.01659821  0.015937551            2 
 1454000    0.6728485   -8.0953473    289.63324  0.016599796  0.015924539            1 
 1455000   0.68478698    -8.082341    289.52252  0.016582046  0.015911538            1 
 1456000   0.67532467   -8.0769545    289.49805  0.016569257  0.015898549            2 
 1457000   0.67019901   -8.1027225    289.35644  0.016549785  0.015885584            3 
 1458000   0.66243379    -8.113622    289.10571  0.016524103  0.015872589            2 
 1459000   0.66692113   -8.0936701    289.32189  0.016525125  0.015859633            5 
 1460000   0.67422258   -8.0979585    289.15389  0.016504218  0.015846617            3 
 1461000    0.6812831   -8.1045606    289.38884  0.016506322  0.015833597            3 
 1462000   0.66736252   -8.1105205    289.57763  0.016505793  0.015820574            2 
 1463000   0.66781956   -8.1226082    288.63471  0.016440802  0.015807549            1 
 1464000   0.66577198   -8.1139362     289.4925  0.016478398  0.015794509            2 
 1465000   0.68533731   -8.0926966    288.71701  0.016423038  0.015781481            4 
 1466000   0.68068694   -8.1367069    289.34666  0.016447627   0.01576848            3 
 1467000    0.6740604   -8.0865951    288.92219  0.016412303  0.015755491            5 
 1468000   0.66758732     -8.10656    289.43664  0.016430327    0.0157425            5 
 1469000    0.6778233   -8.1072074    288.84755  0.016385724  0.015729527            1 
 1470000   0.67732443   -8.1233709    288.67582  0.016364842  0.015716569            3 
 1471000   0.65357311   -8.1191254    288.89647  0.016366217  0.015703611            3 
 1472000   0.65791513   -8.1298776    288.40964  0.016327539  0.015690625            5 
 1473000   0.67245934    -8.130935    288.94334  0.016346647   0.01567769            3 
 1474000   0.64845463   -8.1381979    289.25783  0.016353338  0.015664739            4 
 1475000   0.66516559   -8.1250265    289.01781   0.01632869  0.015651833            2 
 1476000   0.65330042   -8.1174743    289.51005  0.016345419  0.015638979            3 
 1477000   0.67029921   -8.1214957    289.58813  0.016338757  0.015626144            4 
 1478000   0.65630501   -8.1639732    289.77883  0.016338455  0.015613311            5 
 1479000   0.67666759   -8.1479357    289.65412  0.016320381  0.015600497            5 
 1480000   0.67116427   -8.1343804    289.34771  0.016292101  0.015587683            1 
 1481000     0.665334   -8.1351958    289.20758  0.016273215  0.015574893            3 
 1482000   0.66698702   -8.1416489    288.93103  0.016246684  0.015562084            4 
 1483000   0.65917564    -8.141067    289.26787  0.016254657  0.015549291            3 
 1484000   0.65927511   -8.1491783    288.64338  0.016208636  0.015536518            7 
 1485000   0.65696979    -8.152383     289.4187  0.016241229  0.015523752            2 
 1486000   0.65590166   -8.1366119    289.45874  0.016232545  0.015510989            3 
 1487000   0.64791383   -8.1393109    288.90851  0.016190793   0.01549825            3 
 1488000   0.65848909   -8.1483173    289.14544  0.016193181  0.015485502            2 
 1489000   0.66015435   -8.1574835    289.32565  0.016192391  0.015472774            5 
 1490000   0.64545641   -8.1570675    289.56591  0.016194962  0.015460071            7 
 1491000   0.64879105   -8.1132519    288.96208  0.016150351  0.015447351            6 
 1492000   0.65606173   -8.1562657    288.97817  0.016140425  0.015434644            3 
 1493000   0.67318467   -8.1547629     288.9442  0.016127718  0.015421945            3 
 1494000    0.6716654    -8.149477    289.35926  0.016140075  0.015409272            4 
 1495000   0.66207828   -8.1363028     289.2765  0.016124666  0.015396561            4 
 1496000   0.64785489   -8.1698013    289.39558   0.01612052  0.015383882            3 
 1497000    0.6469386   -8.1629407    289.20532  0.016099161  0.015371189            1 
 1498000   0.63994902   -8.1631972    289.11964  0.016083647  0.015358495            2 
 1499000   0.63592235   -8.1618357    289.37124  0.016086905  0.015345809            2 
 1500000   0.65234222   -8.1909368    288.36074  0.016020041  0.015333111            3 
 1501000   0.65562855   -8.1559167    289.11822  0.016051422  0.015320426            2 
 1502000   0.64507703    -8.155738    289.34455  0.016053293  0.015307738            3 
 1503000   0.64634385   -8.1512928    289.28559  0.016039343  0.015295086            3 
 1504000    0.6602818   -8.1558362    288.92509  0.016008704  0.015282439            2 
 1505000   0.64776721   -8.1635205    289.33844  0.016020955  0.015269814            4 
 1506000    0.6558839   -8.1511288    289.57876  0.016023614  0.015257205            2 
 1507000   0.65844157   -8.1536283    289.02345  0.015982274  0.015244607            4 
 1508000   0.66704664   -8.1597299    288.56922  0.015946575  0.015231982            2 
 1509000   0.63161547    -8.154635     288.7811  0.015947708  0.015219361            4 
 1510000   0.66668423   -8.1732023    289.05363  0.015952187  0.015206732            4 
 1511000   0.63933751   -8.1723324    289.01175   0.01593932  0.015194087            3 
 1512000   0.65550539   -8.1600023    288.96078  0.015925969  0.015181469            3 
 1513000   0.64734285   -8.1730515    288.60223  0.015895694  0.015168848            4 
 1514000   0.64611216   -8.2025206    288.97308  0.015905608  0.015156257            4 
 1515000   0.63507018   -8.1559227    288.58342  0.015873675  0.015143638            5 
 1516000   0.63990115   -8.1688058    288.43664  0.015855136  0.015131052            3 
 1517000   0.64362195   -8.1748515    289.30131  0.015892184  0.015118524            5 
 1518000   0.64640938   -8.2040624    289.15013  0.015873415  0.015105987            3 
 1519000   0.64934775   -8.1861778    289.24863  0.015868369  0.015093425            5 
 1520000    0.6518363   -8.1997471    288.37814  0.015810205  0.015080884            3 
 1521000   0.63659469   -8.1957439    288.63564  0.015813919  0.015068316            3 
 1522000   0.64737343   -8.1833914    288.61135  0.015802198  0.015055781            4 
 1523000    0.6489934   -8.1975384    288.35418  0.015777751  0.015043231            4 
 1524000   0.64468274   -8.1815287    288.83167  0.015793508  0.015030701            4 
 1525000    0.6479758   -8.1795345    288.54546  0.015767512  0.015018182            5 
 1526000   0.63678782   -8.1840563    288.56115  0.015758036  0.015005691            3 
 1527000   0.65482957   -8.2005742    288.44576  0.015741419  0.014993207            5 
 1528000   0.64730977   -8.1746853    289.06948  0.015765133  0.014980717            5 
 1529000   0.64003192   -8.1998963    288.29196  0.015712446  0.014968226            7 
 1530000   0.63421055   -8.1986362    288.69656  0.015724213  0.014955759            6 
 1531000   0.62581187   -8.1763691    288.59033  0.015708161  0.014943299            4 
 1532000   0.63421737   -8.1751941    288.60729   0.01569883  0.014930845            3 
 1533000   0.64151525   -8.2072124    288.95531  0.015707507  0.014918383            2 
 1534000   0.64039449   -8.1656894    288.62045  0.015679077  0.014905905            4 
 1535000   0.64520207   -8.2063493    288.42296  0.015658141  0.014893428            1 
 1536000   0.63047139    -8.193137    288.68636  0.015662238  0.014880948            3 
 1537000   0.64524999   -8.1978116    288.81646  0.015659101  0.014868478            2 
 1538000   0.64441791   -8.2120329    288.20484   0.01561578  0.014856018            5 
 1539000   0.63556973   -8.1909219    288.32344  0.015612056  0.014843577            2 
 1540000   0.62498989   -8.2169252    288.01523   0.01558524  0.014831123            5 
 1541000   0.63872316   -8.2146783    288.13374  0.015581535  0.014818708            3 
 1542000   0.62413023   -8.2029154    288.27993   0.01557933  0.014806326            4 
 1543000   0.62878074   -8.2092733    288.59547  0.015586275  0.014793953            4 
 1544000   0.64450344   -8.2009438     288.2905   0.01555972  0.014781584            6 
 1545000   0.64398926   -8.1955983    288.77341  0.015575696  0.014769254            5 
 1546000   0.62960596   -8.1981079    288.33853   0.01554218  0.014756906            9 
 1547000   0.64442553    -8.226544    288.29603  0.015529844  0.014744555            6 
 1548000   0.64258701   -8.2102027    288.29841   0.01551994  0.014732203            4 
 1549000   0.63549281   -8.2114053    288.83147  0.015538598  0.014719909            1 
 1550000   0.63929617   -8.2064443    287.82022  0.015474205  0.014707584            3 
 1551000   0.63477208   -8.2116148    287.95438  0.015471437  0.014695245           10 
 1552000   0.64584026   -8.2104352    288.18068  0.015473619  0.014682914            5 
 1553000   0.63773902   -8.2059781    288.01128  0.015454565  0.014670585            2 
 1554000   0.63643325   -8.2072879    288.15777  0.015452476  0.014658245            3 
 1555000   0.63349604    -8.210946    288.57791  0.015465054  0.014645966            4 
 1556000   0.63899606   -8.2112473    288.41218  0.015446239  0.014633692            8 
 1557000   0.62117281   -8.2062294    288.56027  0.015444245   0.01462141            5 
 1558000   0.62912044   -8.2328415    288.16115  0.015412984  0.014609145           10 
 1559000    0.6384568   -8.2165518    288.04356  0.015396812  0.014596902            5 
 1560000   0.64750443   -8.2168053    288.12099  0.015391079  0.014584659            2 
 1561000   0.62437896   -8.2416706    288.23242  0.015387168  0.014572443            4 
 1562000   0.62158665   -8.2076604    288.71807  0.015403226  0.014560238            3 
 1563000    0.6393981   -8.2304993    288.51977  0.015382799  0.014548048            3 
 1564000   0.63560151   -8.2170475    288.45791  0.015369667   0.01453587            5 
 1565000   0.61929642   -8.2352547    288.66776   0.01537102  0.014523713            4 
 1566000   0.62863109   -8.2322011     288.4289  0.015348494  0.014511568            5 
 1567000   0.62660417   -8.2241432    289.14019  0.015376526  0.014499427            1 
 1568000   0.61972351   -8.2298907     288.3591  0.015325207  0.014487292            4 
 1569000    0.6314165   -8.2329613    288.29252  0.015311904  0.014475173            3 
 1570000   0.62305725   -8.2552784    287.54979  0.015262728   0.01446305            4 
 1571000   0.64494693   -8.2303398    288.03209  0.015278596   0.01445096            4 
 1572000   0.62548672   -8.2195176    287.95901  0.015265003  0.014438877            4 
 1573000   0.61728739   -8.2402468    288.45288  0.015281462  0.014426804            3 
 1574000   0.62506564   -8.2233463    288.29499  0.015263394   0.01441477            6 
 1575000   0.60826485   -8.2181017    288.75546  0.015278066  0.014402733            5 
 1576000   0.62533964   -8.2308168    287.89176  0.015222703  0.014390713            2 
 1577000   0.61999055    -8.232923    287.99477  0.015218493  0.014378666            4 
 1578000   0.61599632   -8.2259342    288.44513  0.015232632  0.014366647            2 
 1579000   0.62787888   -8.2257089    288.31116  0.015215915  0.014354644            2 
 1580000   0.62716772   -8.2332407    288.09537  0.015194903  0.014342675            1 
 1581000   0.61816908   -8.2038162    288.53487  0.015208458  0.014330709            2 
 1582000   0.61899487   -8.2301055     288.4453  0.015194127  0.014318762            2 
 1583000   0.61964588   -8.2258137    288.99263  0.015213341  0.014306848            2 
 1584000   0.61056663   -8.2603101    288.00233  0.015151638  0.014294921            3 
 1585000   0.61124483   -8.2304897    288.80529  0.015184295  0.014282977            2 
 1586000   0.61256591   -8.2405726    288.15784  0.015140702  0.014271064            2 
 1587000   0.60873247   -8.2530298    288.19812  0.015133277  0.014259145            4 
 1588000   0.62036085   -8.2460077    288.65264  0.015147599  0.014247239            1 
 1589000   0.62421744   -8.2278453    288.69704  0.015140394  0.014235329            3 
 1590000   0.60791529   -8.2493417    287.89403  0.015088785  0.014223431            4 
 1591000   0.60322612    -8.257818     288.0321  0.015086534  0.014211516            3 
 1592000   0.61404378   -8.2482964    288.40155  0.015096396  0.014199604            5 
 1593000   0.62232792   -8.2281984    287.99044  0.015065413  0.014187707            3 
 1594000   0.63073972   -8.2690886     288.0677  0.015060001  0.014175822            5 
 1595000   0.61801732    -8.257758    288.59032  0.015077864  0.014163939            4 
 1596000   0.60783054   -8.2575075    287.96001  0.015035506  0.014152073            2 
 1597000    0.5981592   -8.2627034    287.97685   0.01502697  0.014140219            3 
 1598000    0.6155105   -8.2542866    288.30663  0.015034764  0.014128387            3 
 1599000   0.61336052   -8.2426381     288.0523  0.015012107  0.014116555            3 
 1600000   0.60212969   -8.2349672    287.89462  0.014994512  0.014104704            2 
 1601000   0.61894056   -8.2701068    287.98868  0.014990042  0.014092858            3 
 1602000   0.61842415   -8.2306005    287.91646  0.014976928  0.014081017            3 
 1603000   0.61350417   -8.2505149    287.98446   0.01497112  0.014069187            5 
 1604000   0.60893311   -8.2536879    287.90494  0.014957655  0.014057386            3 
 1605000   0.60202881   -8.2381395    288.31049  0.014969392  0.014045589            1 
 1606000   0.60578452   -8.2557197    287.47464    0.0149167  0.014033817            2 
 1607000   0.61113766   -8.2492991    287.67285  0.014917696  0.014022058            2 
 1608000   0.61241922   -8.2495459    287.90904  0.014920659  0.014010292            2 
 1609000   0.62217379   -8.2625621    288.20612  0.014926773  0.013998534            3 
 1610000   0.62124956   -8.2408011    287.65231  0.014888836  0.013986777            1 
 1611000   0.61147992   -8.2574881    287.70703  0.014882425  0.013975024            1 
 1612000    0.6057717   -8.2698766    287.77013  0.014876454  0.013963281            2 
 1613000   0.60903042   -8.2870819    288.04246  0.014881301  0.013951555            5 
 1614000   0.61414112   -8.2741193    287.67514  0.014853115  0.013939835            3 
 1615000   0.61686714     -8.26844    288.41761   0.01488223  0.013928137            7 
 1616000   0.60288827   -8.2604384    287.80759  0.014841563  0.013916426            3 
 1617000   0.59116657   -8.2652729    287.60294  0.014821838  0.013904726            4 
 1618000   0.61070943   -8.2916732    287.62146  0.014813631   0.01389303            3 
 1619000   0.61122112   -8.2707549    288.22396  0.014835493  0.013881324            3 
 1620000   0.60302081   -8.2622831     287.4747  0.014787793   0.01386963            2 
 1621000   0.61356783   -8.2756036    287.54851  0.014782465  0.013857941            2 
 1622000   0.59789933   -8.2925976    287.81961  0.014787279  0.013846265            3 
 1623000   0.62076394   -8.2812659    287.70516  0.014772292  0.013834584            2 
 1624000   0.62209401   -8.2799683    287.55713    0.0147556  0.013822923            3 
 1625000   0.59841143   -8.3019041    287.50535  0.014743864  0.013811267            2 
 1626000   0.60742786   -8.2926464    287.04395   0.01471115   0.01379961            5 
 1627000   0.61858403   -8.2818852    287.45181  0.014722998  0.013787972            4 
 1628000   0.59693341   -8.2782986    287.31356  0.014706878  0.013776351            3 
 1629000   0.59512674   -8.2712018    287.39323  0.014701925  0.013764744            4 
 1630000   0.58980114   -8.2873686    286.91223  0.014668314   0.01375314            3 
 1631000   0.60399398    -8.283639    287.63618   0.01469631  0.013741533            3 
 1632000    0.5985133   -8.2937188    287.60036  0.014685476  0.013729933            3 
 1633000   0.61414875   -8.2765295    287.23015  0.014657591  0.013718356            4 
 1634000    0.6038311   -8.2878897    287.00197  0.014636983  0.013706763            2 
 1635000   0.59454868   -8.2930033    287.09704  0.014632877  0.013695186            3 
 1636000   0.59418627   -8.2898801    287.72145  0.014655738  0.013683597            5 
 1637000   0.60788116   -8.2989975     287.5075  0.014635894  0.013672055            2 
 1638000   0.60209817   -8.2986819    286.99895  0.014601086  0.013660504            3 
 1639000   0.60221427   -8.2903325    287.61623  0.014623563  0.013649002            3 
 1640000   0.59399706   -8.3015326     286.7349  0.014569863  0.013637468            2 
 1641000   0.59508737   -8.2930906    287.17839  0.014583505  0.013625945            3 
 1642000   0.59711314    -8.280418    287.28603  0.014580087  0.013614432            3 
 1643000   0.61632152   -8.3305499    287.68255  0.014591324  0.013602935            2 
 1644000   0.60699296    -8.317866    287.33325  0.014564743  0.013591434            4 
 1645000   0.59437028    -8.299612    287.23995  0.014551163  0.013579957            3 
 1646000   0.58870359   -8.3088282    286.94866  0.014527575  0.013568489            1 
 1647000   0.59500263   -8.3127345    287.29138  0.014536095  0.013557047            3 
 1648000   0.60295242   -8.2994617    286.90204  0.014507587  0.013545602            2 
 1649000    0.6004075   -8.2962963    286.98949  0.014503209  0.013534167            3 
 1650000   0.61233236     -8.31274    287.11437  0.014500726  0.013522741            5 
 1651000   0.59219283   -8.3164531    287.17826  0.014495168  0.013511334            2 
 1652000    0.6010624   -8.2838645    287.10707  0.014482802  0.013499944            1 
 1653000   0.59044076   -8.3088756    287.02714  0.014470011   0.01348856            1 
 1654000   0.60325627   -8.2795556    287.23392  0.014471681  0.013477177            1 
 1655000   0.59521061   -8.3069221    287.13672  0.014458042  0.013465825            1 
 1656000   0.58402444   -8.3129269    287.61354  0.014473306  0.013454471            1 
 1657000   0.58665059   -8.2907375    287.53569  0.014460656  0.013443148            6 
 1658000   0.57635884   -8.3012946    287.23606  0.014436875  0.013431827            1 
 1659000   0.59322536   -8.2971498    287.68154   0.01445055  0.013420529            2 
 1660000   0.58538726   -8.2783248    287.26216  0.014420791  0.013409259            3 
 1661000   0.57217861   -8.2944968    287.57444  0.014427776   0.01339797            2 
 1662000   0.57977962   -8.2978044    287.60851  0.014420804   0.01338669            3 
 1663000    0.5813984   -8.2972871    287.56497   0.01440995  0.013375411            2 
 1664000   0.59904451    -8.313094    286.76421  0.014361188  0.013364143            2 
 1665000   0.58938349   -8.3170918    287.78442  0.014403625  0.013352909            2 
 1666000   0.58275188   -8.3177705    286.99529  0.014355507  0.013341682            2 
 1667000   0.59171839   -8.3254234    287.04583  0.014349422  0.013330466            1 
 1668000   0.58720008   -8.3185226    287.00343    0.0143387  0.013319238            2 
 1669000   0.56528307   -8.3057003    287.07522  0.014333694  0.013308028            3 
 1670000   0.58080441   -8.3000499    287.97371  0.014369946  0.013296839            2 
 1671000   0.58560208   -8.3120048    287.19161  0.014322342  0.013285654            3 
 1672000   0.57960203   -8.2903005    287.15075   0.01431174  0.013274486            2 
 1673000   0.59078989   -8.2944505    287.49383  0.014320275  0.013263301            3 
 1674000   0.57675298   -8.3080041    286.91195  0.014282753  0.013252138            2 
 1675000   0.57421366    -8.314486    287.16781  0.014286956  0.013240977            4 
 1676000   0.57557115   -8.3257705    287.31341  0.014285671   0.01322984            2 
 1677000   0.58734886    -8.322607    287.09838  0.014266467  0.013218701            2 
 1678000   0.58444431   -8.3366877    286.90597  0.014248409  0.013207566            1 
 1679000   0.59109045   -8.3167866    286.97281  0.014243241  0.013196435            5 
 1680000   0.58468563   -8.3203859    287.20868  0.014246462  0.013185329            3 
 1681000   0.57182641   -8.3283393    287.23889  0.014239485  0.013174236            4 
 1682000   0.59330254   -8.3252843    286.96944  0.014217669   0.01316315            3 
 1683000   0.58144546   -8.3278815    287.38632  0.014229863  0.013152067            4 
 1684000   0.58731598   -8.3482888    286.91406  0.014198043  0.013140995            3 
 1685000   0.56766155   -8.3203868    286.82352   0.01418514  0.013129933            3 
 1686000   0.57718382   -8.3165402    286.97583  0.014184254  0.013118885            3 
 1687000    0.5880301   -8.3458263    286.99557  0.014176821  0.013107853            2 
 1688000   0.57116518   -8.3292938    287.39836  0.014188308  0.013096817            2 
 1689000   0.57239444   -8.3092791    286.63083  0.014142038  0.013085782            3 
 1690000   0.57698252   -8.3452657    286.94011  0.014148921  0.013074775            4 
 1691000   0.56465508   -8.3287624    287.45318  0.014165838  0.013063777            2 
 1692000   0.58883121   -8.3263801    287.08358  0.014139262  0.013052787            4 
 1693000    0.5857569   -8.3358123    287.06871  0.014130179  0.013041819            2 
 1694000   0.57517095   -8.3226565     286.3957   0.01408873  0.013030849            2 
 1695000   0.57192641   -8.3243343    286.96749   0.01410853  0.013019883            2 
 1696000   0.56915013   -8.3236139    286.67229  0.014085706  0.013008949            4 
 1697000   0.57486082   -8.3369796    286.68393  0.014077977  0.012998024            2 
 1698000   0.57623628   -8.3408459    286.94901  0.014082696  0.012987103            2 
 1699000   0.56994396   -8.3432751    287.11629  0.014082612  0.012976192            2 
 1700000    0.5677607   -8.3496556    286.78948  0.014058308  0.012965277            4 
 1701000   0.56682418   -8.3288629    286.70027  0.014045673  0.012954376            3 
 1702000   0.57185625   -8.3464891    286.91781  0.014048071  0.012943476            2 
 1703000   0.57504598   -8.3384481    286.54366  0.014021514  0.012932564            8 
 1704000   0.57735226   -8.3532678    286.65905  0.014018928  0.012921685            4 
 1705000   0.58059278   -8.3413548    286.90769  0.014022859  0.012910828            4 
 1706000   0.57906774   -8.3485045    286.95732  0.014017063  0.012899963            9 
 1707000   0.57555393   -8.3462075     286.6885  0.013995728   0.01288911            5 
 1708000   0.55917589   -8.3490184      287.069  0.014006099  0.012878253            2 
 1709000   0.57224884   -8.3375452    286.86211  0.013987815  0.012867424            2 
 1710000    0.5645161   -8.3336473    286.81191  0.013977189  0.012856601            6 
 1711000   0.58444262   -8.3596228    286.51525  0.013954571    0.0128458            4 
 1712000   0.57337162   -8.3263653    286.58151  0.013949645  0.012834998            3 
 1713000    0.5709059   -8.3367145    286.61299  0.013943033  0.012824203            3 
 1714000   0.56910986   -8.3554979    286.59999  0.013934266  0.012813416            3 
 1715000   0.55717389   -8.3487593    286.29279  0.013911214  0.012802637            2 
 1716000   0.57051366   -8.3431902    286.52327    0.0139143  0.012791876            7 
 1717000    0.5658642   -8.3597537    286.39719  0.013900077  0.012781116            2 
 1718000   0.57143508   -8.3720489    286.54337  0.013899077  0.012770367            5 
 1719000   0.55327835   -8.3611216    286.22744  0.013875676  0.012759624            3 
 1720000   0.56122895   -8.3437843    286.34804  0.013873451  0.012748877            2 
 1721000   0.56800401   -8.3792445    286.68318  0.013881618  0.012738152            3 
 1722000   0.55987794   -8.3646321    286.53123  0.013866204   0.01272744            5 
 1723000   0.56130414   -8.3831664    287.01451   0.01388153  0.012716745            2 
 1724000   0.56544253   -8.3529632    286.93087  0.013869435   0.01270607            3 
 1725000   0.54371412   -8.3620053    286.88112  0.013858991    0.0126954            3 
 1726000   0.56047419   -8.3588174    286.58653  0.013836739  0.012684732            2 
 1727000   0.56149612   -8.3494965    286.29369  0.013814596  0.012674087            4 
 1728000   0.56124267   -8.3527799    286.36116  0.013809855  0.012663437            4 
 1729000   0.56185075   -8.3644007    286.61428  0.013814068  0.012652803            2 
 1730000   0.57284905    -8.356641    286.63273  0.013806972  0.012642188            2 
 1731000    0.5604056   -8.3489622    286.41622  0.013788572  0.012631578            2 
 1732000    0.5657053    -8.359962    286.32791  0.013776362  0.012620985            1 
 1733000   0.56091095   -8.3581363    286.51502   0.01377741  0.012610408            3 
 1734000   0.55795229   -8.3727196      286.661   0.01377648  0.012599832            2 
 1735000   0.55138557   -8.3768554    286.17794  0.013745338  0.012589257            4 
 1736000   0.54487767   -8.3561674    285.77915  0.013718277  0.012578677            3 
 1737000   0.55738118   -8.3690271    286.26924  0.013733892  0.012568107            4 
 1738000   0.56503353   -8.3476068    286.72994  0.013748079  0.012557562            2 
 1739000   0.54950187   -8.3514917    286.54281  0.013731206  0.012547029            2 
 1740000   0.55240279   -8.3590454    286.79013  0.013735159  0.012536508            2 
 1741000   0.56479858   -8.3775514     286.4217  0.013709635  0.012525986            3 
 1742000   0.55531919   -8.3668334    286.92515  0.013725849  0.012515481            5 
 1743000   0.56356539   -8.3848105    286.45826  0.013695652  0.012504995            2 
 1744000   0.55931922   -8.3579139    286.84252   0.01370616   0.01249453            4 
 1745000   0.55912502   -8.3765553    286.43087  0.013678647  0.012484067            3 
 1746000   0.55045112   -8.3684285    286.09817  0.013654934  0.012473599            6 
 1747000    0.5594177   -8.3695562    286.15521  0.013649838  0.012463138            4 
 1748000   0.54831707   -8.3856756    286.47232  0.013657147  0.012452698            3 
 1749000   0.55872836   -8.3717804    286.62611  0.013656666  0.012442263            4 
 1750000   0.54445065   -8.3712894     286.4986   0.01364279  0.012431848            5 
 1751000   0.56902352   -8.3867003    286.52913  0.013636452  0.012421424            3 
 1752000   0.55211492   -8.3863702    285.95521   0.01360137  0.012411012            4 
 1753000   0.54608077   -8.3971557    286.20711  0.013605586  0.012400613            5 
 1754000   0.55060758   -8.3805187    286.22338  0.013598602  0.012390232            3 
 1755000   0.54429169   -8.3727489    286.72667  0.013614752  0.012379868            3 
 1756000   0.55049559   -8.3911688    286.14247  0.013579274  0.012369506            4 
 1757000   0.55410544   -8.3784853    286.21118  0.013574805  0.012359158            3 
 1758000   0.54470002   -8.3673683    286.49908   0.01358073  0.012348844            5 
 1759000   0.53949555   -8.3727259    287.09562  0.013601271  0.012338531            5 
 1760000   0.55893958   -8.3811232    286.50716   0.01356568  0.012328223            5 
 1761000   0.55175016   -8.3842925    285.81682  0.013525309  0.012317931            4 
 1762000   0.53370383   -8.3819574    286.47035  0.013548541  0.012307655            2 
 1763000   0.54818159   -8.3698415    286.27561  0.013531651   0.01229738            2 
 1764000   0.55240232   -8.3898226    286.41554  0.013530591  0.012287119            7 
 1765000   0.54778019   -8.3957676    286.71836  0.013537222  0.012276866            4 
 1766000   0.55085382   -8.3704606     286.0814    0.0134995  0.012266621            3 
 1767000   0.55313027   -8.3837973     286.3298  0.013503575  0.012256382            8 
 1768000   0.53583624   -8.3903994    286.34436  0.013496623  0.012246156            3 
 1769000   0.54845897   -8.3950088    286.08529  0.013476789  0.012235937            5 
 1770000   0.55218585   -8.3746418    286.54753  0.013490938  0.012225727            3 
 1771000   0.54029175   -8.3850231    286.36537  0.013474749  0.012215523            3 
 1772000    0.5389268   -8.3798252    286.08341  0.013453885  0.012205324            2 
 1773000   0.54940915   -8.3885528    286.32178    0.0134575  0.012195147            3 
 1774000   0.55014035   -8.4010004    286.30365  0.013449063  0.012184974            3 
 1775000   0.54389892   -8.3943525    286.36809  0.013444511  0.012174816            3 
 1776000   0.55044682   -8.3799284    286.53128  0.013444599  0.012164685            3 
 1777000   0.53112521   -8.3793444    286.32557  0.013427386  0.012154564            8 
 1778000   0.55461241   -8.3909644    286.16759  0.013412429  0.012144447            4 
 1779000   0.55444516   -8.3832145    286.46521  0.013418831  0.012134351            2 
 1780000   0.54583969   -8.3783304    286.38686  0.013407624  0.012124237            4 
 1781000   0.54666023    -8.393976     285.5049  0.013358829  0.012114146            2 
 1782000   0.53835693   -8.3872472    286.50017  0.013397876  0.012104066            3 
 1783000    0.5369659    -8.418255    285.71522  0.013353675  0.012093985            3 
 1784000   0.52790358   -8.3804409    286.65959  0.013390302  0.012083926            3 
 1785000   0.54120607   -8.4108648    285.80685   0.01334299  0.012073875            4 
 1786000   0.54582979   -8.3947646    286.41708  0.013363992  0.012063833            2 
 1787000    0.5302928   -8.3967367    285.98169   0.01333621  0.012053796            4 
 1788000   0.54507569   -8.3987167    285.77368  0.013319057  0.012043771            6 
 1789000   0.52962293   -8.3882864      285.809  0.013313257   0.01203375            4 
 1790000   0.54082503    -8.378765     286.0752  0.013318212   0.01202374            3 
 1791000   0.51754139   -8.4128883    285.90338  0.013302781  0.012013735            5 
 1792000   0.53229119   -8.3972691    286.21152  0.013309688  0.012003735            7 
 1793000   0.54449004   -8.4120227     285.8219  0.013284156   0.01199376            4 
 1794000    0.5428448   -8.3897201    286.68944   0.01331705  0.011983787            4 
 1795000   0.53315322   -8.4141158    285.75387  0.013266196  0.011973815            5 
 1796000   0.53261803   -8.3939694    285.77424  0.013259755  0.011963842            4 
 1797000   0.54365265    -8.386281    286.33777  0.013278509  0.011953885            4 
 1798000   0.53640133   -8.3998337    286.10826  0.013260487  0.011943933            3 
 1799000   0.52945355   -8.3967828    286.10664   0.01325304  0.011934001            2 
 1800000   0.53959868   -8.4146344    285.54605  0.013219725  0.011924078            5 
 1801000   0.53455107    -8.415435     285.7641  0.013222474  0.011914158            4 
 1802000   0.53795449    -8.416883    286.00941  0.013226481  0.011904251            5 
 1803000   0.53943339     -8.41026    285.95587   0.01321667  0.011894373            3 
 1804000    0.5409549   -8.3909653    286.65559  0.013241666  0.011884497            3 
 1805000   0.52523467   -8.4163516     285.9002  0.013199455   0.01187462            6 
 1806000   0.52823617   -8.3976083    285.88647  0.013191513  0.011864753            3 
 1807000   0.53219649   -8.4273857     285.3753  0.013160639   0.01185489            3 
 1808000   0.53277549   -8.3932843    285.90839  0.013177931  0.011845032            4 
 1809000   0.52936038   -8.3959905    285.76926  0.013164237  0.011835188            3 
 1810000   0.53764205   -8.4117952    285.94666  0.013165132  0.011825345            3 
 1811000   0.52295806   -8.4193967    285.95821  0.013158394  0.011815527            7 
 1812000    0.5305151   -8.4197662    286.17153  0.013160942  0.011805705            4 
 1813000   0.53652805    -8.412637    285.73262  0.013133509  0.011795895            2 
 1814000   0.53437847   -8.4041312    286.62913  0.013167453  0.011786109            3 
 1815000   0.52913047   -8.4164087    285.92204  0.013127733  0.011776332            4 
 1816000   0.52764934   -8.4126351    285.62211  0.013106742  0.011766561            4 
 1817000   0.52702502   -8.4311278    285.23998  0.013082002  0.011756791            5 
 1818000   0.52136933   -8.4328688    285.80812  0.013100849  0.011747023            2 
 1819000   0.53097977   -8.4104466    285.77864  0.013092296  0.011737275            4 
 1820000   0.53616673   -8.4395461    285.70174  0.013081582  0.011727528            5 
 1821000   0.51434513   -8.4099187    285.60394  0.013069922  0.011717793            4 
 1822000    0.5304795   -8.4214478    285.69696  0.013067003  0.011708074            4 
 1823000    0.5417092   -8.4164571    285.68613   0.01305934   0.01169836            4 
 1824000   0.52963159   -8.4229694    285.66599   0.01305126  0.011688653            2 
 1825000   0.52296498   -8.4147896    285.83703  0.013051919  0.011678946            3 
 1826000   0.52936548   -8.4213639    285.34518  0.013022325  0.011669253            3 
 1827000   0.52586686   -8.4259935    285.81205  0.013036492  0.011659578            3 
 1828000    0.5295071   -8.4216939    285.49312  0.013014821  0.011649907            6 
 1829000   0.51503155   -8.4324688    285.91842  0.013027083  0.011640246            2 
 1830000    0.5239515   -8.4482362    285.92319  0.013020182    0.0116306            3 
 1831000   0.52904158   -8.4367392    285.58439  0.012997651  0.011620963            2 
 1832000   0.52382125   -8.4253945    285.83062  0.013001757  0.011611329            2 
 1833000   0.51419752   -8.4335099    285.28886  0.012970033  0.011601705            2 
 1834000   0.52044458   -8.4262434    285.48758  0.012971991  0.011592086            3 
 1835000   0.52552655   -8.4320578    285.70941  0.012974996  0.011582476            4 
 1836000   0.51595144    -8.441544     285.3801  0.012952982  0.011572886            2 
 1837000   0.52956623   -8.4242198    285.52713  0.012952601  0.011563307            3 
 1838000   0.52004433   -8.4319682    285.68638  0.012952774   0.01155373            4 
 1839000   0.51812249   -8.4296834    285.26547  0.012926657  0.011544169            4 
 1840000   0.52542703   -8.4231612    285.61561   0.01293549  0.011534618            4 
 1841000   0.53487951   -8.4277892    285.10467  0.012905335  0.011525067            2 
 1842000   0.52352565   -8.4333446    285.62053  0.012921667  0.011515525            3 
 1843000   0.52228939   -8.4389445    285.83783  0.012924481  0.011505993            8 
 1844000    0.5115913   -8.4445321    285.62698  0.012907944  0.011496469            3 
 1845000   0.51922978   -8.4380203    285.47191  0.012893944  0.011486958            4 
 1846000   0.51840439    -8.442273    285.53875  0.012889976  0.011477449            3 
 1847000   0.51234141    -8.436803     285.5805  0.012884881   0.01146795            3 
 1848000    0.4980635   -8.4385584    285.63556  0.012880391  0.011458458            4 
 1849000   0.51647346   -8.4384484    285.61834  0.012872649  0.011448983            3 
 1850000   0.51583665   -8.4634377    285.09848  0.012842274  0.011439506            4 
 1851000    0.5171177   -8.4666496    285.06687  0.012833913  0.011430045            3 
 1852000   0.49893221   -8.4478259     285.6546  0.012853429  0.011420599            3 
 1853000   0.51911224    -8.449224    285.58091  0.012843178  0.011411149            3 
 1854000   0.50925603   -8.4460725    285.09005  0.012814188  0.011401714            2 
 1855000    0.5047849   -8.4308193     285.8003  0.012839187  0.011392295            2 
 1856000   0.51200585   -8.4288911    285.47243  0.012817548  0.011382887            3 
 1857000   0.51689887   -8.4528155    285.41461  0.012808051  0.011373496            6 
 1858000   0.51060416   -8.4658671    285.69398  0.012813688    0.0113641            4 
 1859000   0.51127526   -8.4415137    285.45394  0.012796034  0.011354722            4 
 1860000   0.51721992   -8.4423651    285.27979  0.012781353  0.011345349            6 
 1861000   0.50995045   -8.4473395    285.49447  0.012784098  0.011335988            2 
 1862000   0.52717318    -8.460122    285.31706  0.012769292  0.011326632            2 
 1863000   0.50878734    -8.458667    285.12031  0.012753637  0.011317284            3 
 1864000   0.50536067   -8.4599307    285.63297  0.012769714  0.011307947            3 
 1865000   0.50399773   -8.4373137     285.2163  0.012744249  0.011298616            2 
 1866000    0.5172892   -8.4638227    285.53827  0.012751799  0.011289298            7 
 1867000     0.497398   -8.4434637    285.20876   0.01273026  0.011279995            2 
 1868000    0.5124459   -8.4516886    285.70574  0.012745616  0.011270692            2 
 1869000   0.50961764   -8.4712935    285.98208  0.012751118  0.011261402            4 
 1870000   0.52115567   -8.4651885    285.13363   0.01270649  0.011252121            3 
 1871000    0.4987757   -8.4506813    285.46155  0.012714304  0.011242854            3 
 1872000   0.51103567   -8.4600956    285.44635  0.012706835  0.011233587            2 
 1873000   0.49926035   -8.4655807    285.57805  0.012705911  0.011224335            2 
 1874000   0.50354102    -8.453714     285.4902  0.012695224  0.011215092            3 
 1875000   0.51149009   -8.4537774    285.44203  0.012686312   0.01120586            3 
 1876000   0.50237564   -8.4676015    285.41042  0.012678146  0.011196632            3 
 1877000   0.50009165   -8.4578804    284.76897  0.012642913  0.011187422            2 
 1878000   0.51298788   -8.4600315    285.21543  0.012655992  0.011178219            3 
 1879000   0.50395414   -8.4278918    285.58925  0.012665835  0.011169029            4 
 1880000   0.50120294   -8.4443121    285.38899  0.012650221  0.011159854            2 
 1881000   0.48924434    -8.453718    285.41326  0.012644571  0.011150677            5 
 1882000   0.50143165    -8.455283    285.46652  0.012640211  0.011141514            2 
 1883000   0.50451692   -8.4698895    285.46054  0.012633233  0.011132359            3 
 1884000   0.50446859   -8.4718482    285.25353  0.012617371   0.01112321            3 
 1885000   0.49766797   -8.4663033    285.22209  0.012609288  0.011114064            3 
 1886000   0.50278166    -8.457165    285.60613  0.012619571  0.011104938            2 
 1887000   0.50765616    -8.449791    285.16641  0.012593464  0.011095808            2 
 1888000   0.50130134   -8.4652253    285.10869  0.012584247  0.011086697            2 
 1889000   0.48848744   -8.4571727    285.39565  0.012590244  0.011077587            4 
 1890000   0.49769244   -8.4891562    285.18805  0.012574429  0.011068485            3 
 1891000   0.49890949   -8.4714506    285.37438  0.012575991  0.011059403            6 
 1892000   0.50064663   -8.4611767    285.01021  0.012553304  0.011050325            5 
 1893000   0.50044933   -8.4647511    284.84853  0.012539555  0.011041251            8 
 1894000   0.49015597   -8.4710686    285.02524  0.012540709  0.011032189            5 
 1895000   0.50089742   -8.4650761    285.46146  0.012553274  0.011023133            4 
 1896000   0.49906082   -8.4697572    285.34642  0.012541597  0.011014087            5 
 1897000   0.49743652   -8.4512697    285.22718  0.012529748  0.011005057            6 
 1898000   0.49246225   -8.4899729    285.25449  0.012524346  0.010996036            3 
 1899000   0.49646133   -8.4635919    285.56219  0.012531253  0.010987022            4 
 1900000    0.4895605   -8.4752303    284.92737  0.012496814  0.010978017            3 
 1901000   0.50068374   -8.4803589    285.20346  0.012502344  0.010969021            4 
 1902000   0.48380784   -8.4866923    285.16985  0.012494298  0.010960032            8 
 1903000   0.48993291   -8.4806913     284.8106     0.012472  0.010951049            5 
 1904000   0.49238458   -8.4837546    285.21554  0.012483173  0.010942072            3 
 1905000   0.49802082    -8.464649    284.86124  0.012461122  0.010933104            2 
 1906000   0.49010411    -8.481112    285.21711  0.012470143  0.010924149            6 
 1907000   0.48998614   -8.4748743    284.88426  0.012449059  0.010915197            4 
 1908000   0.49442685   -8.4745876     285.3591  0.012463273  0.010906251            4 
 1909000   0.48514107   -8.4919641    284.89728  0.012436585  0.010897323            3 
 1910000   0.49215794   -8.4790161    285.46828  0.012454986  0.010888398            4 
 1911000   0.48067904   -8.4874273    284.65061  0.012412812  0.010879477            2 
 1912000   0.47994379   -8.4771579     284.9618  0.012419883  0.010870569            6 
 1913000   0.48436485    -8.478546    285.19846    0.0124237  0.010861674            4 
 1914000   0.48765424   -8.4873814     285.0872  0.012412365   0.01085279            4 
 1915000   0.49273756   -8.4813107    285.38913  0.012419022  0.010843913            3 
 1916000   0.49560851   -8.4772579    285.29585  0.012408483   0.01083504            6 
 1917000   0.46832619   -8.5125372    285.44638  0.012408554  0.010826177            2 
 1918000   0.49078371   -8.4804784    285.03129   0.01238405   0.01081732            3 
 1919000   0.48057079   -8.4819791    285.18775  0.012384391  0.010808474            3 
 1920000   0.47888661    -8.502458    284.45233  0.012346021  0.010799638            2 
 1921000   0.49547339   -8.4967769    284.53389  0.012343133  0.010790808            6 
 1922000   0.48827876   -8.4914242    284.70887  0.012344297  0.010781989            5 
 1923000   0.48843002   -8.4758063    285.23232  0.012360561  0.010773179            3 
 1924000   0.48800235    -8.491304    284.50444  0.012322611  0.010764374            2 
 1925000   0.49207503   -8.4915518    284.68705  0.012324115  0.010755575            1 
 1926000   0.47894315   -8.4878587    284.82937  0.012323874  0.010746791            5 
 1927000   0.48939179   -8.5041052    285.03591   0.01232641  0.010738006            4 
 1928000    0.4801977   -8.4854604    284.60595  0.012301433  0.010729244            4 
 1929000   0.47723567   -8.5064455    284.96734  0.012310668  0.010720485            5 
 1930000   0.49299889   -8.4860768    285.06903   0.01230868  0.010711734            5 
 1931000   0.48195186   -8.5123702    284.92169  0.012295947  0.010702999            4 
 1932000     0.482654   -8.5121889    284.62949  0.012276979  0.010694263            3 
 1933000   0.47947834   -8.4895908     284.6838   0.01227297  0.010685542            5 
 1934000    0.4725861   -8.4905288     284.7969  0.012271497  0.010676825            4 
 1935000   0.48953276    -8.493124     285.0423  0.012275723  0.010668117            3 
 1936000   0.47000974    -8.498167     285.3121  0.012280996  0.010659418            3 
 1937000   0.47236793   -8.4887079    284.92179  0.012257864  0.010650719            2 
 1938000   0.47506857   -8.5024136    284.83135   0.01224765  0.010642031            2 
 1939000   0.48148186   -8.4879965     284.4913  0.012226719  0.010633368            3 
 1940000   0.48640253   -8.4965032      284.645  0.012227019  0.010624701            3 
 1941000   0.48172636   -8.5069845    285.06492  0.012238748  0.010616047            5 
 1942000   0.47703242   -8.5005237      284.738  0.012218417  0.010607406            2 
 1943000   0.48299818   -8.5091928    285.02542  0.012224456  0.010598779            2 
 1944000   0.47682707   -8.4926959    284.90072  0.012212822  0.010590146            2 
 1945000   0.47443907   -8.4976718    284.52176  0.012190307   0.01058153            3 
 1946000   0.47741398   -8.4969722    284.38506  0.012178188  0.010572918            3 
 1947000   0.47121439   -8.5075774    284.77699  0.012188709  0.010564322            4 
 1948000   0.48113611   -8.5147128    284.79997  0.012183435  0.010555735            2 
 1949000   0.46880762   -8.5084811     285.3716  0.012201625  0.010547158            4 
 1950000   0.46680632   -8.5018092    284.82782  0.012172129  0.010538596            2 
 1951000      0.47352    -8.504884     284.9124  0.012169503  0.010530033            3 
 1952000   0.47460375   -8.5065444    284.71659  0.012154909  0.010521477            3 
 1953000   0.46792604   -8.5200416     284.7898  0.012151809  0.010512926            3 
 1954000   0.47651252   -8.5241439    284.32315  0.012125689  0.010504383            3 
 1955000   0.47037082   -8.5164633    285.09651  0.012152451  0.010495854            8 
 1956000   0.47894539   -8.5063355     284.4664  0.012119393  0.010487334            3 
 1957000   0.46145808   -8.5122673    284.36611   0.01210893  0.010478814            3 
 1958000   0.46228528    -8.509288     284.6709  0.012115718  0.010470304            3 
 1959000   0.47960649   -8.5100234    285.05811  0.012126004  0.010461812            3 
 1960000    0.4609581   -8.5120337    284.93562   0.01211461  0.010453321            4 
 1961000   0.46893468   -8.5014386    284.57518  0.012093115  0.010444841            3 
 1962000   0.46789911     -8.49947    285.15713  0.012111669  0.010436369            2 
 1963000   0.48830941   -8.5040598    284.44606  0.012075313  0.010427911            2 
 1964000   0.47416227    -8.520538    284.33929  0.012064634  0.010419466            2 
 1965000   0.46857937   -8.5269503    284.79864  0.012077975  0.010411029            5 
 1966000   0.46399861   -8.5247715    284.17646  0.012045459  0.010402591            4 
 1967000    0.4588323    -8.519229    284.20364  0.012040486  0.010394159            4 
 1968000   0.46487681   -8.5166073    284.44051  0.012044398  0.010385735            4 
 1969000    0.4699363   -8.5242954    284.70985   0.01204968  0.010377313            3 
 1970000   0.46129683   -8.5122471    284.28094  0.012025421  0.010368906            3 
 1971000   0.46191298   -8.5046226    284.27809  0.012019199  0.010360508            2 
 1972000   0.46895078   -8.5112649    284.41886  0.012019052  0.010352132            4 
 1973000   0.46710809   -8.5096331    284.01605  0.011995948  0.010343753            2 
 1974000   0.47171073   -8.5168975    284.38971  0.012005644  0.010335378            2 
 1975000    0.4630765   -8.5268314    283.78213  0.011973929  0.010327008            5 
 1976000   0.46252569   -8.5275952    284.45753  0.011996353  0.010318641            2 
 1977000    0.4664837   -8.5126087    284.12252  0.011976164  0.010310285            3 
 1978000   0.46799423   -8.5353461    284.05144  0.011967115  0.010301942            4 
 1979000   0.45258801    -8.514796    284.38283  0.011975022  0.010293613            3 
 1980000   0.46759726   -8.5413719    284.44846  0.011971736  0.010285282            2 
 1981000   0.46475896   -8.5172222     283.9498  0.011944717  0.010276961            3 
 1982000   0.46043725   -8.5251468    284.15416  0.011947282   0.01026865            2 
 1983000    0.4624696   -8.5235286    284.17127  0.011941977  0.010260344            2 
 1984000   0.46478615   -8.5257365    284.53528  0.011951247  0.010252053            3 
 1985000    0.4593568   -8.5218059    284.14626  0.011928894  0.010243765            6 
 1986000   0.47573606   -8.5200391    284.46152  0.011936116  0.010235501            3 
 1987000   0.46568213   -8.5169454    284.25206  0.011921324  0.010227231            3 
 1988000   0.45903662   -8.5280405    284.25628  0.011915505  0.010218968            4 
 1989000   0.45804542   -8.5299529    284.13215  0.011904313  0.010210716            3 
 1990000   0.46101375   -8.5334704    284.37465  0.011908486  0.010202478            2 
 1991000   0.46726081   -8.5165857    283.92509  0.011883689  0.010194249            7 
 1992000   0.46277481   -8.5420684    284.13076  0.011886327  0.010186026            4 
 1993000   0.45005525   -8.5337752    284.14044  0.011880768  0.010177809            6 
 1994000    0.4636722   -8.5412465    284.08638   0.01187255  0.010169611            3 
 1995000   0.46709741   -8.5360658    283.83805  0.011856226  0.010161412            4 
 1996000   0.44801517   -8.5604247    284.56306  0.011880555  0.010153219            3 
 1997000   0.45287321   -8.5307651    284.37016  0.011866556  0.010145032            4 
 1998000   0.46238306   -8.5311436    284.09997  0.011849348  0.010136847            3 
 1999000   0.45524899    -8.543663    283.86362  0.011833568  0.010128672            4 
 2000000   0.44581346   -8.5335942    284.18577  0.011841074  0.010120507            2 
 2001000   0.45981462    -8.544103     284.2838  0.011839239  0.010112352            6 
 2002000   0.44349763   -8.5504061    284.17228  0.011828683  0.010104206            5 
 2003000   0.45667082   -8.5494046    284.59494  0.011840362  0.010096068            3 
 2004000   0.44890451   -8.5273665    283.75628  0.011799579  0.010087935            4 
 2005000   0.45949059   -8.5368776    284.11585  0.011808639  0.010079812            7 
 2006000   0.45638633   -8.5397088    284.04517  0.011799816  0.010071697            3 
 2007000   0.44834162   -8.5422068    284.15474  0.011798486  0.010063586            3 
 2008000   0.45093269   -8.5424759    284.46335  0.011805418  0.010055484            4 
 2009000   0.44972062   -8.5481323    284.26312  0.011791236  0.010047397            4 
 2010000   0.44839984   -8.5444456    284.03425  0.011775881  0.010039319            3 
 2011000   0.45216078   -8.5309851    283.97081  0.011767396   0.01003125            2 
 2012000   0.45054679   -8.5521988    284.03844  0.011764349  0.010023188            3 
Loop time of 4742.17 on 48 procs for 2000000 steps with 4000 atoms

Performance: 72877.967 tau/day, 421.747 timesteps/s
99.4% CPU use with 48 MPI tasks x no OpenMP threads

MPI task timing breakdown:
Section |  min time  |  avg time  |  max time  |%varavg| %total
---------------------------------------------------------------
Pair    | 291.96     | 311.41     | 339.52     |  60.7 |  6.57
Neigh   | 30.992     | 32.312     | 33.854     |  13.0 |  0.68
Comm    | 286.55     | 319.76     | 341.9      |  66.1 |  6.74
Output  | 4.1281     | 4.1296     | 4.1617     |   0.2 |  0.09
Modify  | 4022       | 4031.7     | 4038.4     |   5.6 | 85.02
Other   |            | 42.91      |            |       |  0.90

Nlocal:        83.3333 ave          94 max          76 min
Histogram: 1 4 13 7 4 13 3 1 1 1
Nghost:        2024.19 ave        2042 max        2008 min
Histogram: 3 1 9 7 6 5 5 10 0 2
Neighs:        13041.0 ave       15206 max       11724 min
Histogram: 4 5 10 11 6 4 3 3 1 1
FullNghs:      26082.3 ave       29988 max       23786 min
Histogram: 3 6 11 7 11 5 2 2 0 1

Total # of neighbors = 1251950
Ave neighs/atom = 312.98750
Neighbor list builds = 107194
Dangerous builds = 1

#clear
#
#next RN
#
#jump SELF
Total wall time: 1:19:05
