
units lj                  # Use reduced LJ style units
atom_style atomic         # Uncharged point particles
atom_modify map hash      # Needed for indexing of clusters etc
                          # Used to be able to find where atoms are in relation to each other.

lattice fcc 1.0 spacing 1 1 1
Lattice spacing in x,y,z = 1.5874011 1.5874011 1.5874011
region box block 0 10 0 10 0 10 units lattice
create_box 2 box
Created orthogonal box = (0.0000000 0.0000000 0.0000000) to (15.874011 15.874011 15.874011)
  3 by 4 by 4 MPI processor grid
create_atoms 1 box
Created 4000 atoms
  using lattice units in orthogonal box = (0.0000000 0.0000000 0.0000000) to (15.874011 15.874011 15.874011)
  create_atoms CPU = 0.002 seconds
set type 1 type/fraction 2 0.39 78393
Setting atom values ...
  1580 settings made for type/fraction
mass 1 1.0
mass 2 1.0
pair_style lj/cut  3.5
pair_modify tail  yes
pair_coeff 1  1  1.0  1.0   # Intearaction between 1 and 1 set with epsilon = 1 and sigma = 1
pair_coeff 1  2  1.5  0.8
pair_coeff 2  2  0.5  0.88

write_data data.0
System init for write_data ...
Neighbor list info ...
  update every 1 steps, delay 10 steps, check yes
  max neighbors/atom: 2000, page size: 100000
  master list distance cutoff = 3.8
  ghost atom cutoff = 3.8
  binsize = 1.9, bins = 9 9 9
  1 neighbor lists, perpetual/occasional/extra = 1 0 0
  (1) pair lj/cut, perpetual
      attributes: half, newton on
      pair build: half/bin/atomonly/newton
      stencil: half/bin/3d
      bin: standard
WARNING: Not all mixed pair coeffs generated from mixing. Use write_data with 'pair ij' option to store all pair coeffs. (../write_data.cpp:312)


#############################
#   M E L T   S Y S T E M   #
#############################

velocity all create 2.4 2750902 mom yes dist gaussian # Assign velocities
                                                    # Temperature 2.4, random number seed, zero linear momentum
                                                                                # Gaussian distribution

timestep 0.002   # simulation timestep
thermo 1000       # output thermodynamic data every 1000 steps bf 100

# Define a fix  in this case with index 1 applied to all
# particles in the simulation. This fix is for simulations
# in the anisotropic NPT ensemble. Note that we use the MTK
# correction.
fix 1 all npt temp 2.4 2.4 0.1 iso 5.68 5.68 0.5 mtk yes tchain 5 pchain 5 # Use NPT ensemble
                                                                         # Set temperature and pressure and damping
                                                                         # Numbers of thermostats in chain and in barostat
run 10000          # run for 10000 steps
Per MPI rank memory allocation (min/avg/max) = 3.642 | 3.644 | 3.648 Mbytes
Step Temp E_pair E_mol TotEng Press Volume 
       0          2.4   -5.9084669            0   -2.3093669   -4.1681406         4000 
    1000    2.4027869   -5.0137529            0   -1.4104736     5.532093    3926.8344 
    2000    2.3898611   -5.0620946            0   -1.4781991    5.8559688    3874.1223 
    3000     2.446459   -5.0328259            0   -1.3640548    5.7320997    3901.0212 
    4000    2.4431313   -4.9956292            0   -1.3318485    5.8365467    3915.0332 
    5000    2.3556706   -5.0302288            0   -1.4976063    5.4697783    3927.4134 
    6000    2.3793614   -5.0468507            0   -1.4787008     5.549146    3907.4784 
    7000     2.400719   -5.0274478            0   -1.4272695     5.415092    3945.3084 
    8000    2.4324107   -4.9528993            0   -1.3051954     5.545773    3964.8366 
    9000    2.4536541   -5.0206171            0   -1.3410562    5.4294695    3942.2388 
   10000    2.4120933   -5.0424269            0   -1.4251915    5.4751252    3932.2004 
Loop time of 2.75588 on 48 procs for 10000 steps with 4000 atoms

Performance: 627022.851 tau/day, 3628.604 timesteps/s
99.5% CPU use with 48 MPI tasks x no OpenMP threads

MPI task timing breakdown:
Section |  min time  |  avg time  |  max time  |%varavg| %total
---------------------------------------------------------------
Pair    | 1.1272     | 1.1901     | 1.383      |   4.7 | 43.18
Neigh   | 0.20989    | 0.21771    | 0.24772    |   1.7 |  7.90
Comm    | 0.77442    | 0.95292    | 1.0448     |   6.4 | 34.58
Output  | 0.00025156 | 0.00025668 | 0.00032889 |   0.0 |  0.01
Modify  | 0.32505    | 0.37939    | 0.45544    |   5.6 | 13.77
Other   |            | 0.01555    |            |       |  0.56

Nlocal:        83.3333 ave          93 max          75 min
Histogram: 3 8 5 6 2 8 6 2 6 2
Nghost:        1661.35 ave        1691 max        1636 min
Histogram: 1 4 8 11 6 5 5 2 1 5
Neighs:        9702.75 ave       11470 max        8376 min
Histogram: 3 6 5 9 7 9 3 2 2 2

Total # of neighbors = 465732
Ave neighs/atom = 116.43300
Neighbor list builds = 904
Dangerous builds = 203

# Equilibrate just above the melting temperature to avoid step fn in T

fix 1 all npt temp 1.25 1.25 0.1 iso 5.68 5.68 0.5 mtk yes tchain 5 pchain 5
run 2000
Per MPI rank memory allocation (min/avg/max) = 3.643 | 3.645 | 3.649 Mbytes
Step Temp E_pair E_mol TotEng Press Volume 
   10000    2.4120933   -5.0424269            0   -1.4251915    5.4751252    3932.2004 
   11000    1.2418852   -7.0093068            0   -5.1469448    5.4685758    3117.0035 
   12000    1.2713156   -7.0870243            0   -5.1805277    5.6162302    3094.0824 
Loop time of 0.64912 on 48 procs for 2000 steps with 4000 atoms

Performance: 532413.057 tau/day, 3081.094 timesteps/s
99.7% CPU use with 48 MPI tasks x no OpenMP threads

MPI task timing breakdown:
Section |  min time  |  avg time  |  max time  |%varavg| %total
---------------------------------------------------------------
Pair    | 0.26099    | 0.29553    | 0.38767    |   3.7 | 45.53
Neigh   | 0.037531   | 0.041358   | 0.051366   |   1.0 |  6.37
Comm    | 0.16357    | 0.26148    | 0.30521    |   4.4 | 40.28
Output  | 5.0921e-05 | 5.328e-05  | 6.7461e-05 |   0.0 |  0.01
Modify  | 0.038514   | 0.045764   | 0.053947   |   2.3 |  7.05
Other   |            | 0.004936   |            |       |  0.76

Nlocal:        83.3333 ave          91 max          75 min
Histogram: 2 4 1 6 7 11 6 5 5 1
Nghost:        1949.94 ave        1986 max        1914 min
Histogram: 1 2 1 10 10 12 6 2 1 3
Neighs:        12352.2 ave       13696 max       10731 min
Histogram: 5 0 4 4 8 8 4 5 4 6

Total # of neighbors = 592904
Ave neighs/atom = 148.22600
Neighbor list builds = 142
Dangerous builds = 10

#############################
# L I N E A R  Q U E N C H  #
#############################

# Define solid atoms. This closely follows ten Wolde  Ruiz-Montero and Frenkel  Faraday Discuss  1996  104  93-110
# Compute components of the per-atom q6 vector
compute q6 all orientorder/atom degrees 1 6 components 6 nnn NULL cutoff 1.3 # compute the Q6 parameter.
                                                                             # Use all neighbours within 1.3 unit cell.

# get number of connections
compute coord_number all coord/atom orientorder q6 0.5

# An atom is solid if it has 8 or more connections (of a possible 14)
variable is_solid atom c_coord_number>=8
group solid dynamic all var is_solid    # Must be dynamic to update
dynamic group solid defined

# do clustering
compute cluster solid cluster/atom 1.3 # Create a cluster where all atoms within are solid and max 1.3 units from another member

# define chunks one chunk per cluster
compute clus_chunks solid chunk/atom c_cluster nchunk every compress yes  # Says which atoms are in which chunk

# count the size of each chunk
compute size_chunks solid property/chunk clus_chunks count


# Find the maximum entry in the vector of chunk sizes
variable max_n equal max(c_size_chunks)


# Thermo style which includes this variable
# thermo_style custom step temp pe vol v_max_n

thermo ${N}  # Print the thermo information every 100 steps
thermo 1000  

# Reset the npt fix at a lower temperature (below freezing)
fix 1  all npt temp  ${temp} ${temp}  0.1  iso  5.68  5.68  0.5  mtk yes tchain  5  pchain  5
fix 1  all npt temp  0.45 ${temp}  0.1  iso  5.68  5.68  0.5  mtk yes tchain  5  pchain  5
fix 1  all npt temp  0.45 0.45  0.1  iso  5.68  5.68  0.5  mtk yes tchain  5  pchain  5

dump dmp2 all dcd ${N} traj.dcd
dump dmp2 all dcd 1000 traj.dcd


compute msd all msd com yes
variable twopoint equal c_msd[4]/6/(step*dt+1.0e-6)
fix 9 all vector 10 c_msd[4]
variable fit equal slope(f_9)/6/(10*dt)
thermo_style custom step temp pe c_msd[4] v_twopoint v_fit v_max_n

fix 1 all npt temp 1.25 ${temp} 0.1 iso 5.68 5.68 0.5 mtk yes tchain 5 pchain 5
fix 1 all npt temp 1.25 0.45 0.1 iso 5.68 5.68 0.5 mtk yes tchain 5 pchain 5
run 5000000 # 5000000  # Run for this many steps
Neighbor list info ...
  update every 1 steps, delay 10 steps, check yes
  max neighbors/atom: 2000, page size: 100000
  master list distance cutoff = 3.8
  ghost atom cutoff = 3.8
  binsize = 1.9, bins = 8 8 8
  4 neighbor lists, perpetual/occasional/extra = 1 3 0
  (1) pair lj/cut, perpetual
      attributes: half, newton on
      pair build: half/bin/atomonly/newton
      stencil: half/bin/3d
      bin: standard
  (2) compute orientorder/atom, occasional
      attributes: full, newton on
      pair build: full/bin/atomonly
      stencil: full/bin/3d
      bin: standard
  (3) compute coord/atom, occasional
      attributes: full, newton on
      pair build: full/bin/atomonly
      stencil: full/bin/3d
      bin: standard
  (4) compute cluster/atom, occasional
      attributes: full, newton on
      pair build: full/bin/atomonly
      stencil: full/bin/3d
      bin: standard
Per MPI rank memory allocation (min/avg/max) = 9.823 | 9.829 | 9.836 Mbytes
Step Temp PotEng c_msd[4] v_twopoint v_fit v_max_n 
   12000    1.2713156   -7.0870243 1.828974e-30 1.2701208e-32 8.3333333e+20            1 
   13000    1.2753352   -7.0685841   0.47165753 0.0030234456  0.037768195            1 
   14000    1.2710797   -7.1015205   0.95413841 0.0056793951  0.039667275            1 
   15000    1.2750929   -7.1043684    1.4035831 0.0077976835  0.038991994            1 
   16000    1.2364126   -7.1004057    1.8316431 0.0095398073  0.037918855            1 
   17000    1.2485048   -7.1078141    2.2620867   0.01108866   0.03724443            3 
   18000    1.2520695    -7.096893    2.6487716  0.012262831   0.03674571            1 
   19000    1.2406337   -7.0750431    3.0469077   0.01336363  0.036105125            1 
   20000    1.2553882   -7.1089798    3.3827224  0.014094676  0.035323925            1 
   21000    1.2373999   -7.0606421    3.8275978   0.01518888  0.034810007            2 
   22000    1.2607162   -7.1059634    4.2115481  0.015952833  0.034526227            4 
   23000    1.2762042   -7.0973701    4.5817526  0.016600553  0.034199976            3 
   24000    1.2500573   -7.0574227    4.9338409  0.017131392  0.033814942            5 
   25000    1.2617939   -7.0876031    5.3786193   0.01792873  0.033617388            1 
   26000    1.2582073    -7.105161     5.784143  0.018538919  0.033573887            2 
   27000    1.2671035   -7.1085554    6.1480867  0.018975576  0.033550669            1 
   28000    1.2591432   -7.0781624    6.5540325  0.019506049  0.033467914            1 
   29000     1.269769   -7.0676913     6.922823  0.019893169  0.033329135            1 
   30000    1.2577958   -7.0877745    7.2883237  0.020245343  0.033189904       -1e+20 
   31000    1.2340057   -7.1474719    7.6299193  0.020510535  0.033071569            1 
   32000    1.2608637   -7.1339583    8.1254552  0.021160039  0.033017468            1 
   33000    1.2362627   -7.1720858    8.6317334  0.021797306  0.033134751            3 
   34000    1.2546203   -7.1515084    9.0998164  0.022303471  0.033246227            2 
   35000    1.2512287   -7.0991899     9.491708  0.022599304  0.033363753            1 
   36000    1.2385058   -7.0962007     9.709947  0.022476729  0.033375661            1 
   37000    1.2312882   -7.0742996    10.195857  0.022963642  0.033336067            4 
   38000    1.2499289    -7.088993    10.672862  0.023405398  0.033378269            1 
   39000    1.2429435   -7.0834395    11.040693  0.023591224  0.033430737            3 
   40000    1.2304901   -7.1023042    11.531443  0.024023838  0.033458805            1 
   41000    1.2412824   -7.0551654    12.010665   0.02441192  0.033564036            1 
   42000    1.2500581   -7.0622672    12.545653  0.024892168  0.033669175            1 
   43000     1.260436   -7.0859675    12.880027  0.024961293  0.033790812            1 
   44000    1.2401011   -7.0885888    13.379919  0.025340756  0.033888819            1 
   45000    1.2433707   -7.1042709    13.805258  0.025565292  0.034022301            2 
   46000    1.2515692   -7.0770755    14.153465  0.025640334  0.034101849            1 
   47000    1.2357406   -7.0238616    14.683884  0.026035255  0.034195605            1 
   48000    1.2401169   -7.1089969    15.008654  0.026056691  0.034255257            4 
   49000    1.2248376   -7.0988926    15.412229  0.026211274   0.03431016            2 
   50000    1.2190837    -7.133908    15.827909  0.026379848  0.034345183            1 
   51000    1.2148153   -7.1553578    16.250915  0.026553782  0.034384603            2 
   52000    1.2657183   -7.1317998    16.716523  0.026789299  0.034436726            2 
   53000    1.2249914   -7.0902071    17.195808  0.027037434  0.034498184            3 
   54000    1.2710321   -7.0774099     17.50524  0.027014259  0.034537466            1 
   55000    1.2652485   -7.1170486    17.765091  0.026916804  0.034540082            2 
   56000    1.2368013   -7.1295099    18.085877  0.026913507  0.034523251            2 
   57000    1.2266853   -7.0674842    18.561078  0.027136079  0.034492984            1 
   58000    1.2189109    -7.147236    18.973558  0.027260859  0.034464426            1 
   59000    1.2645823   -7.1239921     19.29593  0.027254138  0.034439812            2 
   60000     1.275975   -7.0975386    19.649597  0.027291107  0.034404835            1 
   61000    1.2417753    -7.122323    20.093382  0.027449975  0.034370173            1 
   62000    1.2398052   -7.0842966     20.50008   0.02755387  0.034331797            2 
   63000    1.2244682   -7.0722517    20.975136  0.027744889   0.03430345            2 
   64000    1.2453748   -7.0712623    21.438097  0.027914189  0.034293423            2 
   65000    1.2260468   -7.1136663    21.688481  0.027805745  0.034265569            3 
   66000    1.2280408   -7.0952265    22.132801  0.027945455  0.034232648            1 
   67000    1.2696234   -7.0915441      22.5612  0.028061194  0.034213835            3 
   68000    1.2275329    -7.119823    22.974695  0.028155264  0.034192442            2 
   69000    1.2380583   -7.0920085    23.372752  0.028227961  0.034172756            1 
   70000    1.2219482   -7.0985115    23.673602   0.02818286  0.034153194            3 
   71000     1.251291   -7.1285446    24.209357  0.028414738  0.034132753            1 
   72000    1.2114505   -7.1510378    24.424993  0.028269668  0.034113754            2 
   73000    1.2240258    -7.097973    25.071243   0.02862014  0.034097342            1 
   74000    1.2573422   -7.1181717    25.443404  0.028652481   0.03408593            1 
   75000    1.2496185   -7.0976307     25.78863  0.028654033  0.034082156            5 
   76000    1.2299177   -7.1022924    26.048678  0.028562147  0.034069618            3 
   77000    1.2713022   -7.1239904    26.500614  0.028680318  0.034048469            1 
   78000    1.2546846   -7.1288118    27.074521  0.028925771   0.03404267            2 
   79000    1.2333865    -7.083765    27.576889  0.029089546  0.034051699            1 
   80000    1.2558891   -7.1271406    28.125885  0.029297797  0.034066487            1 
   81000    1.2355291   -7.0953763    28.545118  0.029367405  0.034095103            2 
   82000    1.2177363   -7.1481877     28.96621  0.029437205  0.034113529            1 
   83000    1.1873131   -7.0998247    29.520075   0.02963863  0.034139004            2 
   84000    1.2338524   -7.1103865     29.83904  0.029602222  0.034163065            2 
   85000    1.2395289   -7.0914869    30.232499  0.029639705  0.034183327            2 
   86000     1.238614   -7.1475091    30.621218  0.029671723  0.034201815            2 
   87000     1.215313   -7.0667238    31.049462  0.029740863  0.034219191            1 
   88000    1.2282079   -7.1286243    31.370044  0.029706481  0.034231122            3 
   89000    1.2370636   -7.1415161    31.817729  0.029791881  0.034240902            2 
   90000    1.2392877   -7.1040988    32.455899  0.030051758  0.034253795            1 
   91000    1.2317663   -7.1082111    32.715376  0.029959135  0.034275266            3 
   92000     1.275801   -7.1355612    33.089688  0.029972543  0.034289722            2 
   93000    1.2746937   -7.1040667    33.658791  0.030160207  0.034303762            1 
   94000    1.2436896   -7.1432161    34.004513  0.030145845  0.034323535       -1e+20 
   95000    1.2268825   -7.1250522    34.284352  0.030073993  0.034333048            1 
   96000    1.2642559   -7.1527807    34.601002  0.030035592  0.034339605            1 
   97000    1.2286036   -7.1353101     35.26456  0.030296014  0.034345607            2 
   98000    1.2556153   -7.1139742    35.663858   0.03032641  0.034360229            3 
   99000    1.2318074   -7.0905839    36.050138  0.030345234  0.034372147            3 
  100000    1.2358338   -7.0677041    36.610758  0.030508965  0.034381681            1 
  101000    1.2556702   -7.1782404    37.033978  0.030556087   0.03439707            2 
  102000    1.2232629   -7.1246008    37.651379  0.030760931  0.034422939            1 
  103000    1.2645731   -7.1231071    38.041731    0.0307781  0.034449533            2 
  104000    1.2350884   -7.1213014    38.436304  0.030798321  0.034469676            1 
  105000    1.2625372    -7.128703     38.80617  0.030798548  0.034488849            1 
  106000    1.2190373   -7.1285925    39.206752  0.030822918  0.034508471            2 
  107000    1.2052346   -7.0772716    39.720726  0.030935145  0.034527759            1 
  108000    1.2600132   -7.0934044    40.231981  0.031043195  0.034550646       -1e+20 
  109000    1.2305719   -7.1200142    40.546361  0.030998747  0.034573944            2 
  110000    1.2307569   -7.1141651    40.949124  0.031022063  0.034596562            2 
  111000    1.2546163   -7.1000169    41.749463  0.031343441  0.034621433            1 
  112000     1.233149   -7.1164603    42.133358  0.031349225  0.034652251            1 
  113000    1.2296262   -7.1084898    42.242542  0.031152317  0.034677323            2 
  114000    1.2294204   -7.1306085    42.817093  0.031299044  0.034699115            1 
  115000     1.236499   -7.1614546    43.194345   0.03130025  0.034723208            1 
  116000    1.2280568   -7.1350834    43.873626   0.03151841  0.034748892            2 
  117000    1.2304367   -7.1669253    44.216764  0.031493422  0.034776002            2 
  118000    1.2006445   -7.1414189    44.681584  0.031554791  0.034799085            1 
  119000       1.2253   -7.1147482    45.124072   0.03159949  0.034823621            2 
  120000    1.2082148   -7.0843687    45.669949  0.031715242  0.034845264            2 
  121000    1.2403258   -7.1419436    46.033847  0.031703751  0.034867975            1 
  122000    1.2205187   -7.1147536    46.207418  0.031562444  0.034881851            1 
  123000    1.2170282   -7.1441583    46.481401  0.031491464  0.034892612            2 
  124000    1.2556887   -7.1829137    46.651594  0.031351878  0.034894379            1 
  125000    1.2417916   -7.1357222    46.836837  0.031224558  0.034889866            1 
  126000    1.2319036   -7.1312086    47.276572  0.031267574  0.034879964            2 
  127000    1.2252963   -7.1063564    47.910986  0.031437654   0.03487282            3 
  128000    1.2300503    -7.084777    48.053509  0.031284836  0.034865649            1 
  129000    1.2528366    -7.139552    48.354208  0.031236568  0.034853375            1 
  130000     1.225255   -7.1512634    48.685872  0.031208892  0.034839494            1 
  131000    1.2246059   -7.1428452    49.120075  0.031246867  0.034824387            1 
  132000    1.2179235   -7.1211125    49.845727  0.031468262  0.034814155            1 
  133000    1.2305708   -7.1348538    50.188907  0.031446683  0.034808172            1 
  134000    1.2323975   -7.0809639    50.709725  0.031535898  0.034800783            1 
  135000    1.2304268   -7.1441526    50.739615   0.03132075  0.034790736            2 
  136000    1.2295401   -7.1459298    51.128176  0.031328539  0.034780199            1 
  137000    1.2333679    -7.195091    51.415636  0.031274717  0.034764909            1 
  138000    1.2288146   -7.0933806     52.12656  0.031477391  0.034754257            1 
  139000    1.2173388   -7.1357512    52.714781  0.031603586  0.034747291            3 
  140000    1.2304498   -7.1184257    52.950729  0.031518291  0.034737646            3 
  141000    1.2485819   -7.1301521    53.255672  0.031474984  0.034723758            2 
  142000    1.2321066   -7.1413698    53.510679   0.03140298  0.034711937            2 
  143000    1.2217761    -7.141671    54.074913  0.031512187  0.034698981            1 
  144000     1.235523   -7.1451994    54.660784  0.031632398  0.034692483            1 
  145000    1.2400575   -7.1305065    54.957347  0.031584682  0.034687532            1 
  146000    1.1871898   -7.1104152    55.470578  0.031661288  0.034680086            4 
  147000     1.241554   -7.1864653    55.901343  0.031690103  0.034672943            2 
  148000    1.2311945   -7.0928085    56.340482  0.031723244  0.034669548            1 
  149000    1.2318635   -7.1178084    56.778539  0.031755335  0.034664925            2 
  150000    1.2211754   -7.1432126    57.215153  0.031786196   0.03466043            3 
  151000    1.2241761   -7.0979974    57.504381  0.031735309  0.034654272            2 
  152000    1.2399931   -7.1223627    57.671445  0.031618117  0.034645378            4 
  153000    1.2165759   -7.1392818    58.359321  0.031786123  0.034638548            2 
  154000    1.2610309   -7.0768901    58.949916  0.031899305  0.034631128            2 
  155000    1.2486528   -7.1741791    58.920809  0.031677854   0.03462455            3 
  156000    1.2464401   -7.1222445    59.334525  0.031695793  0.034615495            2 
  157000    1.2450516   -7.1497647    60.044109  0.031870546  0.034611246            2 
  158000    1.2321882   -7.1635206    60.480229  0.031898855  0.034611135            4 
  159000    1.2387204   -7.1316101     60.61044  0.031766478  0.034607567            1 
  160000    1.2305703   -7.1322792    61.286363  0.031919981  0.034606693            2 
  161000     1.216837    -7.116293    61.821677  0.031998797  0.034607236            2 
  162000    1.2203623    -7.175895    62.138747  0.031964376  0.034607417            2 
  163000    1.2175131   -7.1813987    62.478734  0.031942093  0.034605859            2 
  164000    1.1897049   -7.1914533     63.05248  0.032038862   0.03460583            1 
  165000    1.1821598   -7.1790288     63.54439  0.032093126  0.034607801            1 
  166000    1.2257526   -7.1246467    64.212548  0.032235215   0.03461276            1 
  167000    1.2174076   -7.1623552    64.555034  0.032213091  0.034617685            2 
  168000    1.2334436   -7.1059563    65.198226   0.03234039  0.034622828            1 
  169000    1.2409088   -7.1419346    65.493298  0.032294526   0.03462816            1 
  170000    1.2175482   -7.1471907    65.535384  0.032125188  0.034631011            3 
  171000    1.2131343   -7.1521888    65.698113  0.032016624  0.034628836            1 
  172000    1.2128082   -7.1698952    65.998821  0.031976173  0.034624259            1 
  173000      1.23508   -7.1285381    66.547029  0.032055409  0.034621447            2 
  174000    1.1951481    -7.204827    66.812606  0.031998374  0.034615253            1 
  175000    1.2377803   -7.1362489    67.257187  0.032027232  0.034608433            3 
  176000    1.2346399    -7.149717     67.56355  0.031990317  0.034601103            3 
  177000    1.2525618   -7.1587514    67.854574  0.031946598  0.034591052            1 
  178000    1.2228765   -7.1548526    68.302898  0.031977012   0.03457951            2 
  179000    1.2060027   -7.1474301    68.682361  0.031975028  0.034571648            2 
  180000    1.2133647   -7.1329986    69.440331  0.032148301  0.034564609            1 
  181000    1.2196379   -7.1800764     69.48871   0.03199296  0.034556341            2 
  182000    1.2207462   -7.1385654    69.927953  0.032018294  0.034544694            1 
  183000    1.2199313   -7.1680319    70.160698  0.031949316  0.034533284            2 
  184000    1.2399334   -7.1750022    70.513707  0.031935556   0.03452096            3 
  185000    1.2007924   -7.1108958    71.439995  0.032180178  0.034511428            2 
  186000    1.2242999   -7.1265314    71.555743  0.032059025  0.034503982            1 
  187000    1.2145043   -7.1880676    71.901553   0.03204169  0.034496009            1 
  188000    1.2152067   -7.1520655    72.644427  0.032200544  0.034489846            2 
  189000    1.1965128   -7.1449505    73.040184  0.032204667  0.034487452            1 
  190000    1.2411062   -7.1631159     73.55129  0.032259337   0.03448371       -1e+20 
  191000    1.2394829    -7.150336    73.825609  0.032210126  0.034478646            2 
  192000    1.2400453   -7.1472503    74.483629  0.032327964  0.034476369            1 
  193000    1.2135362   -7.1161164     74.62855  0.032223035  0.034472314            1 
  194000    1.2074608   -7.1553251     74.81528  0.032137148   0.03446756            1 
  195000    1.2028097   -7.2044391    75.549321  0.032286034  0.034462729            2 
  196000    1.2365256   -7.1611419    76.012949  0.032318431  0.034459543            1 
  197000    1.2149631   -7.1247891    76.160372  0.032216739   0.03445492            1 
  198000    1.2275238   -7.1257874    77.076272  0.032439508  0.034450078            1 
  199000    1.1914923   -7.1657984     77.09303  0.032283513  0.034445103            1 
  200000    1.2299122   -7.1135942    77.846839  0.032436183  0.034440393            1 
  201000    1.2227114   -7.2113385    77.764132  0.032240519  0.034437787            2 
  202000    1.2319859   -7.1644182    78.617664   0.03243303  0.034436999            1 
  203000    1.1966288   -7.1626708    79.000875  0.032430573  0.034436371            3 
  204000    1.1794964   -7.1291217    79.463684  0.032460655  0.034436927            2 
  205000    1.2159429   -7.2038315    79.669157  0.032385836  0.034437223            1 
  206000    1.1880065   -7.1775497    80.027717  0.032373672  0.034437624            1 
  207000    1.2111714   -7.1686473    80.414892  0.032373145  0.034435638            1 
  208000    1.2383134   -7.2261757    80.538939  0.032267203  0.034431821            1 
  209000    1.2329541   -7.1784852     80.96756  0.032283716  0.034426897            5 
  210000    1.2307922   -7.1136456    81.527424  0.032352152  0.034421237            1 
  211000    1.2012491   -7.1777343    82.008278  0.032388735  0.034417749            2 
  212000     1.234161   -7.1465788    82.443845  0.032407172  0.034413354            2 
  213000    1.2103404    -7.188031    82.800975  0.032394748  0.034408851            1 
  214000    1.2188364   -7.1449352    83.397395  0.032475621  0.034405594            2 
  215000    1.1933853   -7.1576424    83.883514   0.03251299  0.034404687            2 
  216000    1.2498989   -7.1921265    84.054615  0.032428478  0.034405693            1 
  217000    1.2473614    -7.133277    85.025846  0.032652014  0.034406011            1 
  218000    1.1873579   -7.1723623     85.02456  0.032501743  0.034405994            2 
  219000    1.1954835   -7.2079879    85.567869  0.032560072  0.034405496            1 
  220000      1.23695   -7.1479598    86.148142  0.032631872  0.034405777            1 
  221000    1.2118749    -7.166754     86.91165  0.032772115  0.034408452            1 
  222000    1.2150356   -7.1985483    86.794121  0.032580376  0.034411609            1 
  223000    1.1925068   -7.1824607    87.427281  0.032670882  0.034414678            2 
  224000    1.2107839   -7.1595793    87.944829   0.03271757  0.034418513            1 
  225000    1.2343825   -7.1601318    88.032278  0.032604547   0.03442054            2 
  226000    1.2141875   -7.1408298    88.899632    0.0327801  0.034423133            3 
  227000    1.2211416    -7.156073    89.365823  0.032806837  0.034426666            1 
  228000    1.2295458   -7.1993194    89.553229  0.032731443  0.034430008            1 
  229000    1.2084619   -7.1759364    90.029138  0.032761695  0.034431265            2 
  230000      1.20088   -7.1783229    89.980522  0.032601639  0.034431462            1 
  231000    1.2355167   -7.1668714    90.392961  0.032609293  0.034430027            1 
  232000    1.2059449   -7.1978968    90.192131  0.032396599  0.034427024            1 
  233000    1.2223277   -7.1628083    91.083136  0.032576229  0.034423769            1 
  234000    1.2415888   -7.1647958    91.739274  0.032670682  0.034421509            1 
  235000    1.1874123   -7.1834746     92.23295   0.03270672   0.03442171            1 
  236000    1.2017607   -7.1852122    92.574533  0.032688747  0.034422239            1 
  237000    1.2302163   -7.0824675    93.156151  0.032755327  0.034422193            2 
  238000    1.2072859   -7.1760931    93.292847  0.032665563  0.034420866            1 
  239000    1.2044685   -7.1962409    93.338077  0.032544657  0.034419329            1 
  240000    1.2049099   -7.1929953     93.98386  0.032633285  0.034416388            1 
  241000     1.205517   -7.1579822    94.874945  0.032805997   0.03441376            3 
  242000    1.1760421   -7.1846773    94.791687  0.032641766  0.034412294            1 
  243000    1.1895833   -7.2288789    94.962297  0.032565945  0.034409348            1 
  244000    1.2262871   -7.1760281    96.060589  0.032807578  0.034409849            1 
  245000    1.2172039   -7.2098678    96.485291  0.032818126  0.034409532            2 
  246000    1.2197671   -7.1745272    96.792562  0.032788808  0.034410551            2 
  247000    1.2016189   -7.1770511    97.288303  0.032823314  0.034411325            1 
  248000    1.2206869   -7.1412166     98.26556  0.033019341  0.034413256            1 
  249000     1.209099   -7.1623391     97.98635   0.03279329  0.034416546            1 
  250000    1.2211329   -7.1862677    98.007241   0.03266908  0.034415019            2 
  251000    1.2078585    -7.167537    98.201203  0.032603321  0.034411133            1 
  252000    1.2354905   -7.1275185    98.812737   0.03267617   0.03440648            2 
  253000    1.2229098   -7.2205304    98.934864  0.032587241  0.034402158            2 
  254000    1.2112725   -7.1712938    99.602761  0.032678071  0.034397172            1 
  255000    1.2083272   -7.1839224    99.558149  0.032535343  0.034392966            1 
  256000    1.1976135   -7.2237521    100.05313   0.03256938   0.03439005            2 
  257000    1.1846906   -7.1091179    101.00791  0.032752241  0.034386358            2 
  258000    1.2135512   -7.1831389    101.44065  0.032765066  0.034384205            1 
  259000    1.2021488   -7.1555814    102.14411    0.0328649  0.034383384            2 
  260000    1.1891041   -7.1002401    102.86544  0.032969693  0.034382615            1 
  261000    1.2105077   -7.2035409    103.10251  0.032919065  0.034384947            4 
  262000    1.2072611   -7.1983928    103.43782   0.03290007  0.034387883            1 
  263000    1.2235293   -7.1650094     103.8565  0.032907637  0.034388286            2 
  264000    1.2050146   -7.1665384    104.12789  0.032868651  0.034389364            1 
  265000    1.1973948   -7.1577529    104.62712  0.032901611  0.034388804            3 
  266000    1.2227067   -7.2064498    104.70497  0.032802307  0.034389124            1 
  267000    1.1920897   -7.2162684    105.36717  0.032886132  0.034387504            2 
  268000    1.1880548   -7.1419711     105.7686  0.032888246  0.034386603            1 
  269000    1.2051025    -7.198705    106.04102  0.032850379  0.034384382            1 
  270000    1.1857023   -7.1269278    106.63977   0.03291351  0.034382858            3 
  271000    1.2019746   -7.2082524    106.78622  0.032837092    0.0343809            3 
  272000    1.2096986   -7.1767831    107.13973  0.032824672  0.034377868            2 
  273000     1.223997   -7.1692645    107.74326  0.032888662  0.034376746            2 
  274000    1.2108531   -7.1410189    107.99644  0.032845634  0.034374661            2 
  275000    1.2183316   -7.1862176    108.13453  0.032768039  0.034372236            2 
  276000    1.2122674   -7.1796917    108.92862  0.032889076  0.034368383            2 
  277000     1.200427   -7.1731443    108.87036  0.032752814  0.034364088            2 
  278000    1.2189689   -7.1740601    109.14753  0.032718084  0.034359471            3 
  279000    1.2347845   -7.1875792    109.63497  0.032746405  0.034355775            1 
  280000     1.214105   -7.1919582    109.66722  0.032639054  0.034350766            3 
  281000    1.1969573   -7.2135512    110.06893  0.032642031  0.034345612            2 
  282000    1.1955884   -7.1981154    110.84217  0.032754779  0.034341909            1 
  283000    1.2048746   -7.1905282    111.58882  0.032858897  0.034339137            2 
  284000    1.1979212   -7.2078536    111.36349  0.032677079  0.034334485            2 
  285000    1.1725908   -7.1239836    112.27301  0.032828367  0.034328749            3 
  286000    1.2141858   -7.1724078    111.72611  0.032554229  0.034323446            1 
  287000    1.2139922   -7.1470602    112.55662  0.032681947  0.034315343            1 
  288000    1.1972324   -7.2083605    112.82388  0.032645798  0.034307971            2 
  289000    1.1881046   -7.1506962    113.40297  0.032699817  0.034300178            2 
  290000    1.2140656   -7.1461981    113.75724  0.032688862  0.034291549            1 
  291000    1.2195141   -7.2086836    113.60499  0.032532929  0.034283096            2 
  292000     1.193432    -7.210856    114.09389   0.03256104  0.034274684            1 
  293000    1.1958623   -7.1756549    114.69452   0.03262074  0.034266516            2 
  294000    1.2025738   -7.1229427    114.84202  0.032551593  0.034257128            2 
  295000    1.2207543   -7.1975247    115.22959  0.032550732  0.034248271            1 
  296000     1.206097   -7.2049353    115.48629  0.032513033  0.034240102            1 
  297000    1.2257401   -7.2161636    116.16338  0.032593542  0.034232224            1 
  298000    1.2072189    -7.182937    116.81837  0.032667329  0.034225623            2 
  299000     1.224169   -7.1811243    116.86871  0.032572104  0.034218842            2 
  300000    1.2032658   -7.2077587    117.80504  0.032723622  0.034212284            1 
  301000    1.1804918   -7.1910281     118.0254  0.032675915  0.034204962            1 
  302000    1.2099057   -7.1892317    118.76923  0.032772967  0.034199181            1 
  303000    1.2122107   -7.1549215    118.85696  0.032688933  0.034195003            1 
  304000    1.2059033   -7.2255181     118.7516  0.032552522  0.034190453            1 
  305000    1.2213503   -7.1622151    119.72107  0.032710675  0.034184856            1 
  306000    1.2041722   -7.1740453    120.03836  0.032690184  0.034179095            1 
  307000    1.1921169   -7.2314019    120.19434  0.032626041  0.034173243            3 
  308000    1.1944953   -7.1310625    121.21029  0.032794991  0.034166382            1 
  309000    1.1982832   -7.1951996    120.76741  0.032569421  0.034159572            3 
  310000    1.2099748   -7.2036723    121.50423  0.032662427  0.034152586            1 
  311000    1.1954491   -7.1538302     122.0498   0.03270359  0.034145766            2 
  312000    1.2003593   -7.1786811    121.95716  0.032574027  0.034138462            1 
  313000    1.1935786   -7.2039274    122.67237  0.032660375  0.034131676            1 
  314000    1.2022045   -7.2001047    122.67464  0.032556965  0.034123341            3 
  315000    1.1907736   -7.1446033    123.43239  0.032654072  0.034115849            2 
  316000    1.2113654    -7.136148    123.75958   0.03263702  0.034108195            1 
  317000    1.2101666   -7.2234403    123.58194  0.032487365  0.034101202            1 
  318000    1.2086477   -7.2294744    124.22001  0.032552414  0.034094068            2 
  319000    1.2181829   -7.2246647    125.12678  0.032687248  0.034087523            2 
  320000    1.1877967   -7.2205627    125.50555  0.032683736  0.034081659            1 
  321000    1.1933558   -7.1663134    126.17594  0.032755955  0.034077411            1 
  322000    1.1893829   -7.1765799    126.53062   0.03274602  0.034073226            2 
  323000    1.2302069   -7.2315851    126.26412  0.032575882  0.034067562            2 
  324000    1.2069305   -7.1982011    127.06297  0.032680805  0.034060635            3 
  325000    1.1983977   -7.2328133    126.96336  0.032554706  0.034054053            1 
  326000    1.1808015   -7.1848624    127.66424  0.032634008   0.03404753            1 
  327000    1.2209319    -7.238545    127.44119  0.032477367  0.034041666            2 
  328000    1.1949695   -7.1873853    128.31142  0.032599445  0.034035134            1 
  329000    1.1768822   -7.2332037    127.96573  0.032412799  0.034027518            3 
  330000    1.2059785   -7.1777166    128.42835  0.032431402   0.03401949            4 
  331000    1.2143665     -7.17756    129.04063   0.03248757  0.034010666            1 
  332000    1.2142414   -7.1707877    129.24231  0.032440338  0.034001997            2 
  333000    1.1878082   -7.2499647     129.3863  0.032378953  0.033993252            3 
  334000    1.2023598   -7.1806052    129.93342  0.032418518  0.033983679            1 
  335000     1.239852   -7.2343375     129.7074  0.032265523  0.033973679            2 
  336000    1.2025948   -7.1660571    130.63398    0.0323993  0.033962812            1 
  337000    1.1941837   -7.1906644    131.00354  0.032394544  0.033951128            5 
  338000    1.1912537    -7.247997    130.47942  0.032169482  0.033939704            2 
  339000    1.1868458   -7.2481605    131.08655  0.032223833  0.033926946            2 
  340000    1.1939161   -7.1893128    131.56772  0.032246991   0.03391474            1 
  341000    1.2090733   -7.1772185    132.15905  0.032296932  0.033903794            1 
  342000    1.1898457   -7.2236668    132.08034  0.032183319  0.033892205            1 
  343000    1.1876059   -7.1992257    133.00306  0.032313668  0.033880482            1 
  344000    1.1959292   -7.2154933    132.96531  0.032210588  0.033868622            2 
  345000    1.1961699   -7.1762491    133.96793  0.032359403   0.03385707            1 
  346000    1.2379537   -7.2140887    134.14493  0.032308509  0.033846028            2 
  347000    1.1981234   -7.2209577    134.60045  0.032324797  0.033835508            2 
  348000    1.1677422   -7.2071858    134.92203  0.032308915  0.033824535            2 
  349000    1.1895755   -7.2698418     134.5798  0.032134622  0.033813273            2 
  350000    1.1919953   -7.1802062    135.78283  0.032329246  0.033801232            3 
  351000    1.2170354   -7.2072962    135.76173  0.032232131  0.033790399            2 
  352000     1.207062   -7.1942568    136.30744  0.032269754  0.033779218            1 
  353000    1.1977282   -7.2125754    136.67486  0.032265075  0.033769271            2 
  354000     1.225585   -7.2468888     136.8671  0.032219186  0.033759867            2 
  355000     1.185877   -7.1822511     138.0179  0.032398567   0.03375113            2 
  356000    1.1835209   -7.2510619    137.81039  0.032258986  0.033741677            4 
  357000    1.1750108   -7.2118372    138.53957  0.032338836  0.033731924            1 
  358000    1.1812777   -7.2107747    138.53895  0.032248359  0.033720839            7 
  359000    1.1949985   -7.1822372     138.9001  0.032242364   0.03370976            1 
  360000    1.2043593   -7.2540993    138.91742   0.03215681  0.033698862            1 
  361000    1.1685239   -7.2016323     139.4863  0.032199053  0.033687015            2 
  362000    1.2131345   -7.1832657    139.68298  0.032155381  0.033675988            2 
  363000    1.1979842   -7.1709508    140.28613  0.032205265  0.033664496            1 
  364000    1.1847789   -7.2343556    140.21344  0.032100147   0.03365288            1 
  365000    1.2052797   -7.2186853    140.50052  0.032077745  0.033640644            1 
  366000    1.1908304   -7.2151675    141.29589  0.032171196  0.033629115            2 
  367000    1.1895317   -7.2504991    140.98493  0.032012926  0.033617553            1 
  368000    1.2140413   -7.2286784      142.068  0.032171195  0.033606454            1 
  369000    1.1717025   -7.2489999    141.94437  0.032056091  0.033595803            1 
  370000    1.1902731   -7.2684398    142.48812   0.03209192  0.033585004            2 
  371000    1.1958566   -7.2369358    142.93771  0.032106403  0.033575292            1 
  372000     1.192973   -7.2117902    143.83044   0.03222008  0.033565653            3 
  373000    1.1907367   -7.2200064     144.2054  0.032217471  0.033557238            1 
  374000    1.2154803   -7.1841185    144.86385  0.032278041  0.033548692            1 
  375000    1.1910407   -7.2186883    144.76923   0.03217094  0.033539245            2 
  376000    1.1997657   -7.2203053    144.89882  0.032114101    0.0335296            3 
  377000    1.2095197   -7.2118201    145.95479  0.032262333  0.033520285            2 
  378000    1.1856445   -7.2145084       145.82  0.032147267  0.033510533            1 
  379000      1.18896   -7.2310904    145.98989    0.0320998  0.033501099            1 
  380000    1.2399568   -7.2087621    146.58438  0.032145697  0.033491282            2 
  381000     1.195283   -7.2348246    146.76842   0.03210158   0.03348154            1 
  382000    1.1934431   -7.2361777    146.94117  0.032055229  0.033471531            1 
  383000    1.1912379   -7.2193677    147.13195  0.032013043  0.033460462            4 
  384000    1.1961933    -7.215702    147.55918  0.032022391  0.033449529            2 
  385000    1.2001736   -7.2127816    147.99755  0.032034101   0.03343838            1 
  386000     1.195245   -7.2321038    147.61314  0.031868122  0.033426421            2 
  387000    1.1628489   -7.1917905    148.88508  0.032059663  0.033415073            2 
  388000    1.1909691   -7.2135555    149.42798  0.032093639  0.033404963            3 
  389000    1.1960253   -7.2112538    150.05859  0.032146228  0.033396063            1 
  390000    1.1886572   -7.2332806    150.67469  0.032195447  0.033388108            2 
  391000    1.1917728   -7.2792239    150.83261  0.032146763   0.03338064            2 
  392000    1.1661979   -7.2429123    152.07229  0.032328293  0.033373239            3 
  393000    1.2073631   -7.2297381    151.98889  0.032228347  0.033366177            1 
  394000    1.2057708   -7.2095563    152.22197  0.032195848  0.033359872            1 
  395000    1.1825131   -7.2096498    152.61042  0.032196291  0.033352867            1 
  396000    1.1968659   -7.2090314    152.16162  0.032020544   0.03334482            1 
  397000     1.198307   -7.2228297    152.92768  0.032100689   0.03333695            1 
  398000    1.1603093   -7.2077398    153.69032  0.032179715  0.033328808            2 
  399000    1.1896441   -7.2306503    154.04416  0.032172966  0.033320717            1 
  400000    1.1898158   -7.1975915    154.06589  0.032097061  0.033313556            3 
  401000    1.2037628   -7.2332358    154.34056  0.032074098  0.033305594            1 
  402000    1.2360891   -7.2743199    154.60184  0.032048474  0.033297203            3 
  403000    1.1675829   -7.2290504    155.00342  0.032051989  0.033288952            3 
  404000    1.1798606   -7.2039116    156.12692  0.032204397  0.033280265            1 
  405000    1.1518427   -7.2254472    156.00086  0.032098942  0.033272042            3 
  406000    1.1725743   -7.2712173    156.00404  0.032020533  0.033263558            2 
  407000    1.1687136   -7.2012843    156.52306  0.032048128  0.033254923            1 
  408000    1.1883458   -7.1952043    156.64497   0.03199448  0.033246096            3 
  409000    1.1590663   -7.2011999    157.13901  0.032016913  0.033237905            2 
  410000    1.2173821   -7.2456666    157.30425  0.031972409  0.033228923            2 
  411000    1.1927717   -7.2350968    157.80358   0.03199586   0.03321881            4 
  412000    1.1681491   -7.2258977    157.81894  0.031921306  0.033208789            1 
  413000    1.1799702   -7.2264312    158.22667  0.031926285  0.033198816            1 
  414000    1.1910224   -7.2538558     158.5693  0.031918137  0.033187875            2 
  415000     1.183609   -7.2687255     158.3981  0.031806848  0.033177151            1 
  416000    1.2032447   -7.2569777     158.5094  0.031752684  0.033165998            1 
  417000    1.1828519   -7.2297352    159.33446  0.031841418   0.03315512            2 
  418000    1.2009534   -7.2232507    159.93585  0.031885137  0.033143881            2 
  419000    1.1932121   -7.2625201    159.60207  0.031742656  0.033132014            1 
  420000    1.1696085   -7.2135867    159.86568  0.031719381  0.033119978            3 
  421000    1.1931186   -7.2090919    160.30614  0.031731224  0.033108537            4 
  422000    1.1832029   -7.2454762    160.55649  0.031705468  0.033095597            1 
  423000    1.1754271   -7.2053322    160.99984  0.031717857  0.033083439            1 
  424000    1.1659158   -7.2156578    161.75535   0.03179154   0.03307201            2 
  425000    1.1923041   -7.2348773    162.01057  0.031766779  0.033061136            1 
  426000    1.2204699   -7.2628186    162.29363  0.031747581  0.033050374            4 
  427000    1.1985154   -7.1678726     162.9653  0.031804312  0.033039894            2 
  428000    1.1650377   -7.2278947    162.87884   0.03171317   0.03302972            2 
  429000    1.1828439   -7.2774431    163.30424  0.031721881  0.033018534            2 
  430000    1.1754824   -7.2021704    163.83753   0.03175146  0.033006952            1 
  431000    1.2013505   -7.2603763    164.25894   0.03175927  0.032995548            1 
  432000    1.1862507   -7.2659783    164.08568   0.03165233  0.032984636            2 
  433000    1.1705117   -7.2091534    165.55609  0.031862219  0.032973504            1 
  434000    1.1585088   -7.2699876    164.64479  0.031613823  0.032963321            1 
  435000    1.1770135   -7.2666083    165.66005  0.031735641  0.032953325            1 
  436000    1.1881201   -7.2064733    166.31829  0.031788663  0.032943558            2 
  437000    1.1902846   -7.2815942    166.18766  0.031691011  0.032934017            2 
  438000    1.2130493   -7.2430385    167.35884  0.031841485  0.032924496            1 
  439000    1.1708747    -7.234217    167.88685  0.031869181  0.032915535            1 
  440000    1.2003824   -7.2420458    167.59835  0.031742112  0.032906985            1 
  441000    1.1942135   -7.2583878    167.91812   0.03173056  0.032897185            1 
  442000     1.208393   -7.2527796    168.23701  0.031718894  0.032887487            2 
  443000    1.1862477   -7.2444757    168.34762  0.031668099  0.032878363            3 
  444000    1.1762201    -7.264718    169.52173  0.031817141  0.032868916            1 
  445000    1.1955494   -7.2429934    169.86007  0.031809002  0.032860009            1 
  446000    1.1551121    -7.287618     169.7831    0.0317233  0.032851337            1 
  447000    1.1909138   -7.2530381    170.53713  0.031792902  0.032842002            4 
  448000    1.2128265   -7.2793993    170.50226  0.031715451  0.032832788            3 
  449000    1.2128829    -7.236762    171.43699  0.031818298  0.032824213            1 
  450000    1.1676866   -7.2316323    171.62169  0.031781794   0.03281659            1 
  451000    1.1763118   -7.2835079    171.60397  0.031708051  0.032807619            3 
  452000    1.1922085   -7.2431458    172.09381   0.03172821  0.032798153            1 
  453000    1.1984446   -7.2552492    172.59062  0.031749563  0.032789208            3 
  454000    1.1962184   -7.2192492    172.78701  0.031715678  0.032780346            1 
  455000    1.1742334   -7.2350762    173.18259  0.031718423  0.032771584            2 
  456000    1.1971943   -7.2600815     173.5626  0.031718312  0.032762404            1 
  457000    1.1669136   -7.2149968    174.43935   0.03180878  0.032753755            3 
  458000    1.1811766   -7.2908584    174.06915   0.03167197  0.032745334            2 
  459000      1.16972   -7.2336268    174.21025  0.031628586  0.032736874            1 
  460000    1.1445398   -7.2159913     175.1186  0.031724385  0.032728452            1 
  461000    1.1574743   -7.3033496    175.11359  0.031654662  0.032719873            2 
  462000    1.1770715   -7.2346647    175.73452  0.031698146  0.032710529            1 
  463000    1.1714747   -7.2272756    176.11693  0.031698511  0.032702668            2 
  464000    1.2043797   -7.2130149    176.58716  0.031714648  0.032693567            1 
  465000     1.173128   -7.2674947    176.61829  0.031652022  0.032684983            1 
  466000    1.1760653   -7.2134276    177.23019  0.031693525  0.032675795            1 
  467000    1.1619748   -7.1993757    177.55442  0.031683516  0.032666997            3 
  468000     1.182014    -7.295722    177.01558  0.031519869  0.032657363            2 
  469000     1.182753   -7.2428151     178.2649  0.031674644   0.03264816            1 
  470000    1.1827402   -7.2545006    177.97869  0.031556505  0.032638808            2 
  471000     1.176546   -7.2055443    179.01828   0.03167344  0.032629804            1 
  472000     1.141354   -7.2697952    179.10941  0.031622424  0.032620652            2 
  473000    1.1815502   -7.2447455     179.7344   0.03166568  0.032611376            1 
  474000    1.2183563   -7.2726789    180.52561  0.031737977  0.032603089            2 
  475000    1.1307938   -7.2356843    180.89785  0.031736465  0.032594626            2 
  476000    1.1729457   -7.2783133    181.08525    0.0317026  0.032586549            3 
  477000    1.1769536   -7.2461634    180.82774   0.03159115  0.032578529            2 
  478000    1.1836185   -7.2586927    181.54221  0.031649617   0.03257092            2 
  479000    1.1864744   -7.2441602    181.54348  0.031583765  0.032563661            2 
  480000    1.1726969    -7.231481    182.81467  0.031738659  0.032556997            2 
  481000    1.1791122   -7.2582876    182.83617  0.031676397  0.032549408            1 
  482000    1.1625551   -7.2730967    183.46273  0.031719005   0.03254208            2 
  483000    1.1756184   -7.2343897    183.94604  0.031736721  0.032534344            1 
  484000    1.1617289   -7.2662112    183.36668  0.031571399  0.032526434            2 
  485000    1.1784212   -7.2635076    183.75547  0.031573105  0.032518939            2 
  486000    1.1571027   -7.2610363    185.26225  0.031766504  0.032511774            2 
  487000    1.1627803   -7.2356292    185.22309  0.031694574  0.032504706            2 
  488000    1.1984505   -7.2524413    185.14951  0.031617061  0.032498062            1 
  489000     1.185732   -7.2412345    186.03342  0.031703037  0.032491554            3 
  490000    1.1718617   -7.2596687    185.94583  0.031623441  0.032484656            2 
  491000    1.1449614   -7.2659752    185.96267  0.031561893  0.032477342            1 
  492000    1.1580225   -7.2901114    186.56846  0.031600349  0.032469873            2 
  493000    1.1795715   -7.2756036    187.48983  0.031691993  0.032463231            2 
  494000    1.2126185   -7.2366657    188.81406  0.031851224   0.03245762            1 
  495000    1.1644321    -7.276186      188.354  0.031709428  0.032452535            2 
  496000     1.156951   -7.2169901    188.63401  0.031692541  0.032447056            1 
  497000    1.1617088   -7.2592807    188.54414  0.031613705  0.032440857            2 
  498000    1.1494792   -7.2724741     188.8983  0.031609487  0.032433936            1 
  499000    1.1594718    -7.270911     189.4706  0.031641717  0.032427111            2 
  500000     1.182576   -7.2747956    189.67754  0.031612924  0.032419715            1 
  501000    1.1896221   -7.2972266     190.3341  0.031659032  0.032412921            2 
  502000    1.1629584   -7.2937518    190.42369  0.031610837  0.032406164            1 
  503000    1.1554086   -7.2955857    191.10801  0.031661367    0.0323995            1 
  504000    1.1641461   -7.2603895    190.88755  0.031562094  0.032392939            3 
  505000     1.161319   -7.2899194    191.35233  0.031576292  0.032386663            3 
  506000    1.1452364   -7.2457847    191.95937  0.031613861  0.032379666            1 
  507000    1.1630023   -7.2638919    192.17578  0.031587078  0.032372258            1 
  508000    1.1569956   -7.1825722    192.92249  0.031647389  0.032365276            2 
  509000    1.1584723   -7.2931294    192.81206  0.031567134   0.03235822            2 
  510000    1.1671852   -7.3026789    192.60524  0.031471444  0.032351179            1 
  511000    1.1614731   -7.2814222    193.30892  0.031524611  0.032343955            2 
  512000    1.1606557   -7.2438029    194.10129  0.031592006   0.03233615            1 
  513000    1.1587259   -7.3002033     193.8017  0.031481757  0.032328698            2 
  514000    1.1642077    -7.281807    193.91848  0.031439442  0.032321229            2 
  515000     1.171663   -7.2891099    194.98787  0.031551436  0.032313317            2 
  516000    1.1843293   -7.2680262    195.09198  0.031507103  0.032306383            2 
  517000    1.1706814   -7.2585267    195.17137  0.031458957  0.032299448            3 
  518000    1.1716132   -7.2569498    195.38532  0.031432645  0.032292285            2 
  519000    1.1844435    -7.266793    196.40142  0.031535232  0.032284973            1 
  520000    1.1676379   -7.2586354    195.60872  0.031347551  0.032277155            3 
  521000    1.1723816   -7.2438819    196.04275  0.031356805  0.032269058            1 
  522000    1.1752031   -7.2566757    196.10303  0.031306358  0.032260682            1 
  523000    1.1678367   -7.2881792     196.3898  0.031292192   0.03225267            2 
  524000    1.1493522   -7.2841659    196.71121   0.03128359  0.032244081            2 
  525000     1.164287   -7.3148956    196.07083  0.031122354  0.032235077            1 
  526000    1.1789637   -7.2340048    197.65752  0.031314563  0.032225669            2 
  527000    1.1912479   -7.2908041    197.13849  0.031173069  0.032216533            2 
  528000    1.1316028   -7.3130129    197.56903  0.031181981  0.032206399            1 
  529000    1.1926907   -7.2475233     198.5713  0.031280923  0.032196835            1 
  530000    1.1582258   -7.2699236    198.60296  0.031226881  0.032188166            5 
  531000    1.1887532   -7.2814017     199.8214   0.03135929  0.032179133            3 
  532000    1.1808584   -7.2874712    198.89564  0.031155332  0.032169803            1 
  533000    1.2005044   -7.3153231    199.15038  0.031136707  0.032160334            2 
  534000     1.196011    -7.258073    200.65784  0.031313645  0.032151014            1 
  535000    1.1372078   -7.3040822    200.42982  0.031219598  0.032141542            3 
  536000    1.1595845   -7.2992011    200.88185   0.03123163  0.032132734            2 
  537000    1.1565827   -7.3281916    200.15982  0.031061425  0.032123603            2 
  538000    1.1785676   -7.2819878    200.76731  0.031097786  0.032114252            1 
  539000    1.1460068   -7.2757119    201.63843  0.031174772  0.032105408            3 
  540000    1.1617423   -7.2882654    202.04599  0.031179937  0.032095937            3 
  541000    1.1272837   -7.2412683    202.80281   0.03123888  0.032086769            2 
  542000    1.1780384   -7.2568546    203.15587  0.031235527  0.032077906            3 
  543000    1.1678289   -7.2989532    202.85306  0.031131531  0.032068982            1 
  544000    1.1585407   -7.2772461    202.66415  0.031045366  0.032059253            1 
  545000    1.1431225   -7.2380227    203.98693  0.031190662  0.032049965            2 
  546000    1.1538445   -7.2921809    203.55935  0.031068277  0.032040676            3 
  547000    1.1532042   -7.2978789    204.05982  0.031087724  0.032030919            1 
  548000    1.1781194   -7.3079073    204.24318  0.031058878  0.032021156            3 
  549000      1.14682   -7.2537564    204.98604  0.031115064   0.03201179            4 
  550000    1.1585533    -7.299432    205.26456  0.031100691   0.03200266            1 
  551000    1.1749311   -7.3102937    205.86305  0.031134762  0.031993619            1 
  552000    1.1644344   -7.2931532    205.24746  0.030985426  0.031984249            1 
  553000    1.1598027   -7.2802964     206.1787  0.031069726  0.031974994            1 
  554000    1.1633225   -7.2969834    206.94482  0.031128884   0.03196555            2 
  555000    1.1498298   -7.3053945    207.59577  0.031170536  0.031956901            1 
  556000    1.1513284   -7.2716735    207.31066  0.031071741  0.031947878            3 
  557000    1.1675293   -7.2874297     208.1191  0.031136909  0.031938895            1 
  558000    1.1492819   -7.3040371    208.00832  0.031064564  0.031930317            2 
  559000    1.1564146   -7.2743442    208.65589   0.03110553  0.031922046            1 
  560000    1.1255212    -7.307456    208.18039  0.030979225  0.031913344            3 
  561000    1.1590522   -7.3038306    209.51701   0.03112255  0.031904377            2 
  562000    1.1204185   -7.2711874    209.01659  0.030992971  0.031895364            3 
  563000    1.1817108   -7.2753677    209.60788  0.031025442  0.031886068            2 
  564000     1.175065   -7.2714213    209.73416   0.03098909  0.031876871            1 
  565000    1.1570401   -7.2637483    209.83401  0.030948969  0.031867037            1 
  566000    1.1387358   -7.3037094    210.28639  0.030960893  0.031856965            2 
  567000    1.1430282   -7.2950323    209.93811  0.030855101  0.031847031            2 
  568000    1.1689688    -7.299225    210.66003  0.030906694  0.031836822            3 
  569000    1.1677671   -7.3230845    211.12699  0.030920767  0.031826481            4 
  570000    1.1847542   -7.3111891     210.6735  0.030800219  0.031816573            2 
  571000    1.1530946   -7.3448961    211.19159   0.03082189  0.031806059            2 
  572000    1.1467739   -7.2521758    212.07059  0.030896065  0.031796045            2 
  573000     1.161296   -7.3351371    211.45872  0.030753159  0.031785125            3 
  574000    1.1630071   -7.3066292    211.88713  0.030761778  0.031774302            2 
  575000    1.1436059   -7.2861731    212.09901  0.030738987  0.031763759            2 
  576000     1.165925   -7.2963653    212.15463  0.030693667  0.031753062            1 
  577000    1.1401908   -7.2858248    213.06516  0.030771976  0.031742298            1 
  578000    1.1420243   -7.3090191    213.07005  0.030719442  0.031731389            2 
  579000    1.1656974   -7.2712351    213.10548  0.030671486   0.03172031            3 
  580000    1.1574668   -7.3064008    213.55258  0.030682842  0.031709151            2 
  581000    1.1554403   -7.3244502    213.42958   0.03061239  0.031697881            1 
  582000    1.1701726   -7.2686522    214.34096  0.030690287   0.03168685            1 
  583000    1.1774338   -7.3332945    214.52734  0.030664286  0.031675746            2 
  584000    1.1568493   -7.3161435    215.01103  0.030680798  0.031665237            4 
  585000     1.142627   -7.2953829    215.52089  0.030700982  0.031654619            1 
  586000     1.170009   -7.2676931    215.76825  0.030683767  0.031644149            5 
  587000     1.147357   -7.3132867    215.95849  0.030658503  0.031634541            2 
  588000    1.1804703   -7.3020065    217.53751  0.030830147  0.031624625            2 
  589000    1.1655862   -7.2812882    217.34423  0.030750457  0.031614543            1 
  590000    1.1568524   -7.2576925     217.9759  0.030787557  0.031604508            1 
  591000    1.1642061   -7.2996247    218.00708  0.030739859  0.031594742            3 
  592000    1.1288797   -7.3364596    217.34448  0.030594662  0.031584249            1 
  593000    1.1469753   -7.3245999    218.09968  0.030649197  0.031574038            1 
  594000     1.161615   -7.2926708    218.51091   0.03065529  0.031563693            1 
  595000    1.1623011   -7.2701852     219.4692  0.030737983  0.031553982            2 
  596000    1.1512697   -7.2785492    219.14968  0.030641734  0.031544204            1 
  597000     1.157137   -7.3225786    219.58669  0.030651409  0.031533744            1 
  598000    1.1896241   -7.2789931    220.03439   0.03066254  0.031523273            1 
  599000    1.1680698   -7.3561606     219.1814  0.030492683   0.03151278            1 
  600000    1.1400526   -7.3261564    219.47221  0.030482252  0.031502025            3 
  601000    1.1777802   -7.2972091    220.60415  0.030588485  0.031491604            1 
  602000    1.1428995    -7.325285    220.67864  0.030547984  0.031481047            1 
  603000    1.1792242   -7.3291642     220.6927  0.030499267  0.031470085            1 
  604000    1.1478193   -7.3551841    220.82024  0.030466368  0.031459334            2 
  605000    1.1639423   -7.3153795    221.07497  0.030451098  0.031448799            2 
  606000    1.1899661   -7.2931452    222.76165   0.03063279  0.031438786            2 
  607000    1.1666187   -7.2841165    222.26645   0.03051434  0.031428935            1 
  608000    1.1477053   -7.2900439     222.8483  0.030543901  0.031418569            1 
  609000     1.121256   -7.3388349    222.74308  0.030479348  0.031407904            2 
  610000    1.1416666   -7.2965267    223.78036  0.030571088  0.031397578            2 
  611000    1.1445706   -7.3243185    223.26354  0.030450565  0.031387062            1 
  612000    1.1561772   -7.3432138    224.88667  0.030621823    0.0313771            1 
  613000    1.1679665   -7.3083641     224.5894  0.030531457  0.031367188            1 
  614000    1.1527461    -7.260007    226.03654  0.030678141  0.031357613            2 
  615000    1.1467782   -7.2842846      226.387  0.030675745  0.031348374            2 
  616000    1.1834013   -7.3008039    226.06261  0.030582063  0.031338986            1 
  617000    1.1508313   -7.3124436    225.87443  0.030507082  0.031329994            5 
  618000    1.1528564   -7.2887576    226.36903   0.03052441    0.0313205            2 
  619000    1.1729051   -7.2879119    227.54818  0.030633842  0.031311335            4 
  620000    1.1665006   -7.3137627    226.82787  0.030487616  0.031302107            1 
  621000    1.1554425   -7.3700899    226.96011  0.030456268  0.031292733            2 
  622000    1.1534888    -7.288303    228.49567  0.030613032  0.031283431            2 
  623000    1.1426263     -7.32985    227.85987  0.030478849  0.031274295            2 
  624000    1.1427033   -7.3043024    228.50925  0.030516726  0.031264978            2 
  625000       1.1921   -7.2713956    228.94365  0.030525821  0.031255907            3 
  626000    1.1367084    -7.283725    228.68373  0.030442456  0.031246655            1 
  627000     1.179178   -7.3402065     229.1302  0.030453243   0.03123739            3 
  628000    1.1529243   -7.3198245    229.85657  0.030501137  0.031228355            2 
  629000     1.168028   -7.3583588    229.72355  0.030435022  0.031218922            3 
  630000    1.1472256   -7.2964971    230.03073  0.030427345  0.031209617            1 
  631000    1.1700696   -7.3573002    229.95806  0.030369527  0.031200276            1 
  632000    1.1391915   -7.3073429    231.21377  0.030487048  0.031190924            1 
  633000    1.1299779   -7.3062157    231.30379  0.030450736   0.03118197            2 
  634000    1.1362149   -7.2965194    232.57773  0.030570154  0.031172915            4 
  635000    1.1531826   -7.3116779    232.25631   0.03047983  0.031164005            3 
  636000    1.1542821   -7.3090507    232.60535  0.030477641  0.031154798            2 
  637000    1.1367662   -7.3302428    232.01397  0.030352429  0.031145663            2 
  638000    1.1560366   -7.3097537     233.1927  0.030458816  0.031136014            1 
  639000    1.1377815   -7.3224683    233.30197  0.030425401  0.031126236            2 
  640000    1.1399487   -7.3227234    232.78227  0.030310192  0.031116639            2 
  641000    1.1651188   -7.2962997    234.06699  0.030429925  0.031107237            6 
  642000    1.1386488   -7.2740542     234.4341  0.030430179  0.031098176            2 
  643000    1.1401841   -7.3219272    234.17344  0.030349072  0.031088992            3 
  644000    1.1451046   -7.3016638    234.39259  0.030330304  0.031079703            2 
  645000    1.1458588   -7.3095342    234.56487  0.030305539  0.031069895            2 
  646000    1.1546349   -7.3577285    234.25105  0.030218144  0.031060208            1 
  647000    1.1509686   -7.3125458    235.48751  0.030330694  0.031050776            1 
  648000    1.1610849   -7.2933601    236.78507  0.030450755  0.031041648            2 
  649000    1.1469799   -7.3725126    235.27071  0.030209388  0.031032604            2 
  650000    1.1629273   -7.3073608    236.48781   0.03031895  0.031023334            3 
  651000    1.1495267   -7.3090743    236.86397  0.030320529    0.0310142            3 
  652000    1.1613532    -7.326697    237.24153  0.030322282  0.031005302            1 
  653000    1.1523801   -7.3317038    237.71066  0.030335715  0.030996158            2 
  654000    1.1502222   -7.3529522    236.81414  0.030175094  0.030987167            3 
  655000    1.1542417   -7.3092675    237.55668  0.030223496   0.03097844            3 
  656000    1.1142198   -7.3261852      237.784  0.030206301  0.030969637            1 
  657000    1.1486555   -7.2934912    238.83813   0.03029403  0.030960972            1 
  658000     1.144885   -7.3410579    238.78167   0.03024084  0.030952552            3 
  659000    1.1285054   -7.3848777    239.02332  0.030225509   0.03094376            1 
  660000    1.1413632   -7.3058302    239.21903  0.030204423  0.030934952            3 
  661000    1.1546214   -7.3186389    239.82955  0.030235698  0.030926299            1 
  662000    1.1503405   -7.3090943    240.46344  0.030269819  0.030917723            1 
  663000    1.1382976   -7.3659196    239.44979  0.030096755  0.030908548            2 
  664000    1.1445113   -7.3615361    240.10317   0.03013343  0.030898961            1 
  665000    1.1251483   -7.3768143    240.40485  0.030125921  0.030889715            1 
  666000    1.1609525   -7.3494557    240.65426  0.030111895  0.030880494            2 
  667000    1.1645145   -7.3219087    241.04983  0.030116171  0.030871613            3 
  668000    1.1713652   -7.3045823    241.49846  0.030127053  0.030862149            1 
  669000    1.1284208   -7.3478369     241.4719  0.030078712  0.030852873            1 
  670000    1.1414518   -7.3303384    242.32144  0.030139483  0.030843689            1 
  671000    1.1563882   -7.2979943    241.92864  0.030045782  0.030834315            1 
  672000    1.1370432   -7.3419438    242.42118  0.030062151  0.030824987            4 
  673000    1.1151454   -7.3103794     243.1707  0.030110289  0.030815725            1 
  674000     1.142238   -7.3095234    244.03705  0.030172731  0.030806579            5 
  675000     1.149617   -7.2971247     244.2882  0.030159037   0.03079782            2 
  676000    1.1318735   -7.3343988    243.98019  0.030076453  0.030788811            2 
  677000    1.1569512   -7.3100295    244.83287  0.030136985  0.030779282            2 
  678000      1.16283   -7.3568818     244.5126  0.030053171  0.030769787            1 
  679000    1.1464571   -7.3300142    244.91203  0.030057932  0.030760238            2 
  680000    1.1597965   -7.3493954    244.31889   0.02994104  0.030750406            2 
  681000    1.1556407   -7.3000177    245.36045  0.030024529  0.030740343            2 
  682000     1.157379   -7.2790356     244.9575  0.029931268  0.030730935            1 
  683000    1.1475886   -7.3293506    245.67145  0.029974555  0.030721462            2 
  684000    1.1647961   -7.3552961    246.02024  0.029973226  0.030711496            1 
  685000    1.1378048   -7.3184839    246.03808   0.02993164  0.030701446            2 
  686000    1.1245172   -7.3116577     246.5484      0.02995  0.030691076            2 
  687000    1.1409042    -7.377463    246.31309  0.029877862   0.03068077            2 
  688000    1.1343662   -7.3686604    246.19285  0.029819871  0.030670232            1 
  689000     1.136549    -7.301772    247.21597  0.029900335  0.030660113            2 
  690000    1.1559359   -7.3167703    246.85045  0.029812856  0.030649598            3 
  691000    1.1522184   -7.3641975    246.51008  0.029728664   0.03063971            1 
  692000    1.1658512   -7.3563984    247.97075  0.029861603  0.030629429            2 
  693000    1.1415413   -7.3575174    247.65783  0.029780884  0.030618922            2 
  694000    1.1389274   -7.3433831    248.60844  0.029852118  0.030608716            1 
  695000    1.1313321   -7.3340754     248.5573  0.029803033  0.030598448            1 
  696000    1.1524077   -7.3374088    248.60606  0.029766052  0.030588464            2 
  697000    1.1496643   -7.3645626    248.71111  0.029735905  0.030578437            3 
  698000    1.1507128   -7.3321624    249.00055  0.029727859  0.030568161            3 
  699000    1.1363093    -7.398426    248.99712  0.029684921  0.030557838            3 
  700000    1.1337548   -7.3651454    250.21857  0.029787925  0.030547839            1 
  701000    1.1388277   -7.3317097    250.74989  0.029808593  0.030538164            2 
  702000    1.1385926   -7.3400529    251.16771   0.02981573  0.030528664            1 
  703000    1.1632411   -7.3662392     250.9525  0.029747807  0.030518921            1 
  704000    1.1365058   -7.3158257    251.81972  0.029808206  0.030509325            2 
  705000    1.1425805   -7.3509835    251.53428  0.029732184  0.030499518            3 
  706000    1.1580086   -7.3693568    251.10658  0.029639586  0.030489574            2 
  707000    1.1579332   -7.3672858    251.39865   0.02963209  0.030479242            1 
  708000    1.1576447   -7.3401703    252.38491  0.029706322   0.03046886            1 
  709000    1.1514115   -7.2952354    253.31015  0.029773172  0.030458806            1 
  710000    1.1470717   -7.3333694    253.80488  0.029789305  0.030448549            1 
  711000     1.131532    -7.354605    252.91952  0.029643639  0.030438282            1 
  712000    1.1421401   -7.3370738    253.75532  0.029699826  0.030428465            2 
  713000    1.1331057   -7.3741285    253.80946    0.0296645  0.030418648            1 
  714000    1.1537863   -7.3657265    254.64699  0.029720703  0.030409206            2 
  715000    1.1417648   -7.3803476      254.746  0.029690676  0.030399535            2 
  716000    1.1379834   -7.3431619    255.23584  0.029706219  0.030389889            1 
  717000    1.1616533   -7.3461821    255.11763  0.029651049  0.030380113            2 
  718000    1.1057628    -7.367006    255.81802  0.029691043  0.030370646            1 
  719000    1.1111929   -7.3099793    255.90801  0.029660177  0.030361423            1 
  720000    1.1317189    -7.329621    256.51221  0.029688913  0.030352202            3 
  721000    1.1527679   -7.3193102    256.96974  0.029700618   0.03034289            1 
  722000     1.134378   -7.3596102    256.64779  0.029622321  0.030333816            2 
  723000    1.1358948   -7.3720434    257.51472  0.029681273  0.030324582            2 
  724000    1.1050636   -7.3252783    258.06135  0.029703194  0.030315486            1 
  725000     1.145689   -7.3053386    259.24519  0.029798298  0.030306587            1 
  726000    1.1402654   -7.3858248    258.38468   0.02965848   0.03029755            1 
  727000    1.1339392    -7.368275    259.18041  0.029708896  0.030288514            2 
  728000    1.1433833    -7.372214    259.96958  0.029758423  0.030279701            2 
  729000    1.1180116   -7.3675717    259.61035  0.029676537  0.030271172            3 
  730000     1.153235   -7.3183263    260.27086  0.029711285  0.030262451            1 
  731000    1.1257518   -7.3811046    259.85268  0.029622968  0.030253363            1 
  732000    1.1174068    -7.331396    260.44559  0.029649998  0.030244187            1 
  733000    1.1220912   -7.3060069    261.16038  0.029690811  0.030235553            2 
  734000    1.1512157   -7.3614259    260.81416  0.029611053  0.030227441            2 
  735000    1.1406356    -7.335388    262.07869  0.029714137   0.03021889            2 
  736000    1.1480505   -7.3765427    261.62828  0.029622767  0.030210332            2 
  737000     1.099827   -7.3695018    262.05441  0.029630757  0.030201793            2 
  738000     1.123233   -7.3421296    263.52327  0.029756467  0.030193484            2 
  739000    1.1219532   -7.3418235    264.12977  0.029784593  0.030185757            1 
  740000    1.1347136   -7.3338979    263.42452  0.029664923  0.030177758            2 
  741000    1.1371633    -7.371376    263.77376  0.029664165  0.030169985            1 
  742000    1.1320721   -7.4129926    263.75948  0.029622583  0.030161947            4 
  743000    1.1352072   -7.3376907    264.36904  0.029651082   0.03015377            1 
  744000    1.1231244   -7.3375536    264.98257  0.029679947  0.030145535            2 
  745000    1.1658702   -7.3391082    264.89161  0.029629934  0.030137581            2 
  746000    1.1243316   -7.3634181    265.91131  0.029704123  0.030129527            2 
  747000    1.1580942   -7.4117498    263.71897  0.029419786  0.030120694            2 
  748000    1.1186647     -7.30559    266.12975  0.029649036  0.030111938            1 
  749000    1.1455421   -7.3747436    264.68882  0.029449134  0.030103173            1 
  750000    1.1372185   -7.3677671     265.3245    0.0294805  0.030094464            3 
  751000    1.1163743   -7.3597948    265.24802  0.029432758  0.030085397            3 
  752000    1.1394558   -7.3366963    266.30619   0.02951088  0.030076251            2 
  753000    1.1152604   -7.3871341    265.81773  0.029417633  0.030067076            2 
  754000    1.1378106   -7.3606746    267.17008  0.029528081  0.030058033            1 
  755000    1.1237985   -7.4029264    266.75944  0.029443647  0.030048821            4 
  756000    1.1242611   -7.3996823    266.38562  0.029363494  0.030039627            2 
  757000    1.1307519   -7.3402808    268.30111   0.02953557  0.030030835            1 
  758000    1.1526213   -7.3605106    267.29479   0.02938597  0.030021827            2 
  759000    1.1205402   -7.4119891    266.62028  0.029273197   0.03001254            1 
  760000       1.1309   -7.3343076    268.79426  0.029473055  0.030003357            1 
  761000    1.1492154   -7.3461386    268.53812  0.029406277  0.029994541            1 
  762000    1.1142623   -7.3403691     269.9155  0.029518318  0.029985861            2 
  763000    1.1160412   -7.3149974    269.37829  0.029420958  0.029977132            1 
  764000     1.101576   -7.3391911     269.2199  0.029365173  0.029968209            2 
  765000    1.1280218   -7.3815443    269.89204  0.029400004  0.029959285            1 
  766000    1.1421921   -7.3674383    269.62122  0.029332161  0.029949982            1 
  767000    1.1461152   -7.3569192    270.20796  0.029357666   0.02994075            1 
  768000    1.1525746   -7.3824957    269.74471  0.029269174  0.029931576            1 
  769000     1.124579   -7.3599726    269.95403  0.029253796  0.029922124            1 
  770000    1.1427952   -7.3887419    271.40604  0.029372948  0.029912438            1 
  771000    1.1312091   -7.4107869    270.11502  0.029195311  0.029902934            3 
  772000     1.143418   -7.3644716    270.46679  0.029195466  0.029893497            3 
  773000    1.1099521   -7.3416726    271.39251  0.029257493  0.029884292            3 
  774000    1.1307417   -7.3950951    271.87931  0.029272105  0.029874945            1 
  775000    1.1003178   -7.3506325    272.45947  0.029296717  0.029865285            1 
  776000    1.1242992   -7.3639052    272.24141  0.029235546  0.029855651            1 
  777000    1.1330137    -7.369521    273.22911  0.029303852   0.02984619            3 
  778000     1.151763   -7.3910542    272.75523  0.029215428   0.02983708            1 
  779000    1.1282892   -7.3397937    273.39243  0.029246088  0.029828252            4 
  780000    1.1202562   -7.3779983     273.8118  0.029253398  0.029818962            3 
  781000    1.1310594   -7.3488558    274.41629  0.029280441  0.029809875            2 
  782000    1.1214552   -7.3441336      274.299  0.029230499  0.029800809            2 
  783000    1.1534714   -7.3992107    275.02323  0.029270246  0.029792045            2 
  784000    1.1347527   -7.3908499    274.84563  0.029214034  0.029783268            1 
  785000    1.1199223   -7.3847365    275.62059  0.029259086  0.029774703            2 
  786000    1.0982155   -7.3885676    276.35997  0.029300251  0.029766115            1 
  787000    1.1210056   -7.3833602    275.91007  0.029215382  0.029757419            1 
  788000    1.1071752   -7.3744534    276.40518  0.029230666  0.029748632            1 
  789000    1.1451768   -7.3456281    277.03362  0.029259994  0.029739867            1 
  790000    1.1413213   -7.3766888     276.7026  0.029188038  0.029731247            1 
  791000    1.1433941   -7.3457157    278.23292   0.02931236  0.029722467            1 
  792000    1.1355938   -7.3632763    277.09707  0.029155836  0.029713847            1 
  793000    1.1201412   -7.3627119    277.83421  0.029196534  0.029705134            2 
  794000    1.1666902   -7.3774135    278.00022  0.029177185  0.029696166            1 
  795000     1.152549   -7.3992662     278.3491  0.029177055  0.029687412            1 
  796000    1.1152496   -7.4220736    278.73567   0.02918087  0.029678805            1 
  797000    1.0841352   -7.3807236    278.64175  0.029134436  0.029670216            3 
  798000    1.1166226   -7.3705869    279.29517  0.029166162  0.029661414            2 
  799000    1.1461727   -7.2989214    280.69293  0.029275442  0.029653222            1 
  800000    1.1484299     -7.35707    280.53494  0.029222389  0.029645121            2 
  801000    1.1384907   -7.3499735    280.27688  0.029159059   0.02963684            1 
  802000    1.1124841   -7.3633097    281.14711  0.029213125  0.029628489            1 
  803000    1.1219993   -7.3572585    281.11448  0.029173359  0.029620503            1 
  804000    1.1367617   -7.4050647    281.14805  0.029140553  0.029612031            1 
  805000    1.0961165   -7.3480358    282.27888  0.029221416  0.029603676            2 
  806000    1.1237621   -7.4009225    280.88693  0.029041246   0.02959525            1 
  807000    1.1044347   -7.4130716    280.76366   0.02899253  0.029586145            1 
  808000    1.0926566   -7.3588256    281.17555  0.028999128  0.029577235            3 
  809000    1.1184252   -7.3597518    282.35942  0.029085231   0.02956859            1 
  810000     1.123806   -7.3476862    282.30892  0.029044127      0.02956            1 
  811000    1.1167081   -7.3690157    283.37391  0.029117747  0.029550954            3 
  812000    1.1103188   -7.3958099    283.23143  0.029067264  0.029542179            8 
  813000    1.1213969   -7.3834728    283.90132  0.029100176   0.02953353            1 
  814000    1.1422889   -7.3904072    284.07653  0.029082364   0.02952518            1 
  815000    1.1198906   -7.3640989    283.71204  0.029009411  0.029516903            2 
  816000    1.1077996   -7.3736664    284.37094   0.02904115  0.029508602            1 
  817000      1.12246   -7.3971678    284.65568  0.029034647  0.029500349            1 
  818000    1.1177066   -7.4187329    284.72079  0.029005786  0.029491995            2 
  819000    1.0947537   -7.4034001    285.63569  0.029063461  0.029483481            1 
  820000    1.1105367   -7.3627806    285.28612  0.028992492  0.029475157            1 
  821000    1.1273341   -7.4091099    286.61696  0.029092261  0.029466959            1 
  822000    1.1128704   -7.4590199     286.0834  0.029002778  0.029458512            1 
  823000    1.1447411   -7.3934856     286.2341  0.028982796  0.029450148            3 
  824000    1.1388284   -7.3772926    286.71559  0.028996317  0.029441593            1 
  825000    1.1018489   -7.3653187    286.90647  0.028980451  0.029433256            2 
  826000    1.1106868    -7.382489    287.93619  0.029049252  0.029425132            4 
  827000    1.1147189   -7.3462573    288.07201  0.029027812  0.029417012            1 
  828000    1.1329047   -7.3873007    288.06504  0.028992053  0.029408672            1 
  829000    1.1327477   -7.3418228    289.03583  0.029054668  0.029400109            1 
  830000    1.1153864   -7.4026994    287.08675  0.028823971  0.029391676            1 
  831000     1.120372   -7.3903161    289.18067  0.028999265  0.029383205            3 
  832000    1.1398802   -7.3710599     289.1888  0.028965224  0.029374872            2 
  833000     1.113758   -7.3849808    288.92581  0.028904143  0.029366509            2 
  834000    1.1125356   -7.4060039    289.69882  0.028946725  0.029358316            1 
  835000    1.1383696   -7.4209873    288.86998   0.02882934  0.029349976            6 
  836000    1.1237986   -7.3727112    290.16813  0.028924255  0.029341474            1 
  837000    1.1130133   -7.3995528    290.62204   0.02893489  0.029333188            1 
  838000    1.1346705   -7.3750494    291.45101  0.028982798  0.029325184            2 
  839000    1.1122382   -7.4332166    290.27735  0.028831679  0.029316956            1 
  840000    1.1292212   -7.3703031    292.48044  0.029015916  0.029308739            2 
  841000    1.1012969   -7.4420798    291.63433  0.028897576  0.029300907            1 
  842000    1.1230502   -7.3903258    292.58325   0.02895717  0.029292991            1 
  843000    1.1279721   -7.3820319    293.43623  0.029007141  0.029284988            1 
  844000    1.1142458   -7.4012831    292.35227  0.028865745  0.029277048            4 
  845000    1.1096423   -7.4030555      293.678  0.028962328  0.029269084            3 
  846000    1.1200168    -7.418752    293.02198  0.028863473   0.02926144            2 
  847000    1.1156121   -7.3951759    294.30118  0.028955252  0.029253685            1 
  848000    1.1237926   -7.3760194    293.86684  0.028878424  0.029245768            1 
  849000    1.1124789   -7.4489486     293.1337  0.028772448  0.029237645            2 
  850000     1.106453   -7.3671533    294.32208  0.028855106  0.029229631            1 
  851000    1.1048192   -7.3567122    294.16659  0.028805972  0.029221484            2 
  852000    1.0950577    -7.417986    293.97927  0.028753841  0.029213241            1 
  853000    1.0920261   -7.3928858    294.23704  0.028745315  0.029204616            1 
  854000    1.0895759   -7.4022235    294.89478  0.028775837  0.029196186            2 
  855000    1.1290945    -7.397532    294.31943  0.028686104  0.029187696            3 
  856000    1.0850735   -7.4058361    295.45714  0.028763351   0.02917935            3 
  857000     1.109992    -7.420847    296.13362  0.028795568  0.029171104            2 
  858000    1.1391985   -7.3970874    296.20624  0.028769059  0.029162721            1 
  859000    1.1063698   -7.3961698    295.85216  0.028701219  0.029154466            2 
  860000    1.0950134   -7.3735936    296.35689  0.028716753  0.029146125            1 
  861000    1.1091964   -7.4346558    296.47287  0.028694625  0.029137472            2 
  862000    1.1079922    -7.399878    296.72128  0.028685352  0.029128945            1 
  863000    1.1128759   -7.3929194    296.99411  0.028678458  0.029120643            1 
  864000    1.0970257   -7.3578317    298.66368  0.028806297  0.029112411            3 
  865000    1.1330829   -7.4011705    298.40563  0.028748134   0.02910436            2 
  866000    1.1129212   -7.4269227    298.54717  0.028728558  0.029096144            1 
  867000    1.1044893   -7.4349306    298.69614  0.028709741  0.029087916            2 
  868000    1.1104505   -7.3668162    299.58135   0.02876165  0.029080041            1 
  869000    1.1345089   -7.3813609    299.24268  0.028696076  0.029072106            1 
  870000     1.122464   -7.4222899    299.95161  0.028730997  0.029064269            2 
  871000    1.0876696   -7.3896557    299.17617  0.028623821  0.029056413            2 
  872000    1.1352531    -7.403806    300.15041  0.028684099  0.029048456            1 
  873000    1.0863418   -7.4222013    299.49983   0.02858914   0.02904018            1 
  874000    1.1020727   -7.3817423     301.1688  0.028715561  0.029032145            4 
  875000     1.106745   -7.3803121    301.32688  0.028697798   0.02902446            2 
  876000    1.1044123   -7.4265731     301.5263  0.028684008  0.029016481            1 
  877000    1.1096887   -7.4008062    301.25163  0.028625202  0.029008459            2 
  878000    1.1032515   -7.3823125    301.77254  0.028642041  0.029000608            2 
  879000    1.1147872   -7.4101317    301.90995  0.028622482  0.028992615            3 
  880000    1.1127378   -7.3832319      301.965   0.02859517  0.028984742            2 
  881000     1.094494   -7.4172134    302.44196  0.028607828  0.028976771            1 
  882000    1.1069935   -7.4167065    302.19774  0.028552318  0.028968602            1 
  883000    1.1350599   -7.4137384    302.68821  0.028566271  0.028960318            1 
  884000    1.1108504   -7.3843242    302.59482  0.028525153  0.028951976            1 
  885000    1.0937566   -7.4283785    302.92323  0.028523845  0.028943678            1 
  886000    1.1195698   -7.3901488    303.36267  0.028532983   0.02893537            1 
  887000    1.1303016   -7.3854758    304.38094   0.02859648  0.028927296            1 
  888000    1.0969517   -7.3958951    303.38384  0.028470706  0.028919264            1 
  889000    1.1089794   -7.4214341    304.57356  0.028550202  0.028911172            2 
  890000     1.123366    -7.350606    305.02058  0.028559979  0.028902663            4 
  891000     1.104417   -7.4051122    304.95319  0.028521622  0.028894269            2 
  892000    1.0983646   -7.4088883    304.60798  0.028457397  0.028885766            1 
  893000     1.113071   -7.4269999    304.48966  0.028414489  0.028877156            3 
  894000    1.1285849   -7.4059899    305.62343  0.028488388  0.028868741            1 
  895000    1.1008273   -7.3981676    305.76621  0.028469852  0.028860425            3 
  896000    1.1139901   -7.4176927    306.06439   0.02846581  0.028851789            5 
  897000    1.1121696   -7.4299236    305.60608  0.028391498  0.028843292            2 
  898000    1.0979073   -7.3952294    305.81378  0.028379156  0.028834763            1 
  899000    1.1105496   -7.4475799    306.64728   0.02842485  0.028826213            2 
  900000    1.1216421   -7.4142424    306.46111  0.028376028  0.028817796            1 
  901000    1.1091436   -7.4769814    306.58013  0.028355543  0.028809127            1 
  902000    1.0867412   -7.4407052    307.65497  0.028423408  0.028800545            1 
  903000     1.097535   -7.4242638    307.75049  0.028400747  0.028791879            1 
  904000    1.1169964   -7.4360881    306.99987  0.028300136  0.028783508            1 
  905000    1.1378027    -7.410789    309.01064  0.028454019  0.028775365            3 
  906000    1.1183304   -7.4158008     307.7597  0.028307551  0.028766997            2 
  907000      1.09922   -7.3863894    308.57605  0.028351346  0.028758607            5 
  908000     1.111031   -7.4107286    309.30897  0.028387387  0.028750414            1 
  909000    1.1276759   -7.4281905    308.91308  0.028319864  0.028742082            1 
  910000    1.1008165   -7.3860851    310.24408   0.02841063  0.028733593            1 
  911000    1.1105402   -7.4045203    310.80057  0.028430349  0.028725151       -1e+20 
  912000     1.090878   -7.4314009    309.86875  0.028314031  0.028716652            1 
  913000    1.0955578   -7.4224303    309.96591  0.028291887  0.028708195            1 
  914000    1.1152485   -7.4096108    309.80659  0.028246407  0.028699757            1 
  915000    1.0982852   -7.3769563    310.95017  0.028319687  0.028691291            2 
  916000    1.1053799   -7.4002988    311.41077  0.028330674  0.028682842            2 
  917000    1.1043655   -7.4064113    312.08605  0.028361146  0.028674447            2 
  918000    1.1098637   -7.4175303    311.22842  0.028252398   0.02866634            1 
  919000    1.1264659   -7.4242598    311.08361  0.028208524  0.028658238            2 
  920000    1.1204469   -7.4497524    312.43827  0.028300568  0.028649874            4 
  921000    1.1071539   -7.4164239    311.72837  0.028205607  0.028641523            2 
  922000    1.1006981   -7.4170831    311.83339  0.028184507  0.028632807            3 
  923000     1.125637   -7.4738492    311.57895  0.028130999  0.028624235            4 
  924000    1.1132395    -7.419838    313.54365  0.028277747  0.028615581            2 
  925000    1.0816772   -7.4180236    312.58874  0.028161148  0.028606903            1 
  926000    1.1288599   -7.4552324    313.07156  0.028174187  0.028598429            2 
  927000    1.1147393   -7.4111746    313.21498  0.028156686  0.028590001            2 
  928000    1.0934732   -7.4193316    313.84523  0.028182941   0.02858162            1 
  929000    1.1103751   -7.4320082    313.68584  0.028138306  0.028572898            2 
  930000    1.1100202   -7.3911516    314.87814  0.028214887  0.028564426            3 
  931000    1.0969355   -7.4288657    314.72269  0.028170667  0.028556119            3 
  932000     1.106146   -7.4263539    315.37864  0.028199092  0.028547414            2 
  933000    1.1107866   -7.4435565    315.40913  0.028171591  0.028538626            3 
  934000    1.0931094   -7.3966897    314.51923   0.02806203   0.02852995            3 
  935000    1.1122024   -7.4286404    314.93705  0.028069255  0.028521428            3 
  936000    1.1297816   -7.3969367    315.19845   0.02806254  0.028512805            1 
  937000    1.0884596   -7.4655344    314.89525  0.028005625  0.028503928            2 
  938000    1.1156124   -7.4002427    315.02626  0.027987408  0.028494886            1 
  939000    1.0948666   -7.4346496    315.44468  0.027994735   0.02848576            1 
  940000    1.1125727   -7.4192165    316.83876  0.028088543  0.028476613            3 
  941000    1.1053418   -7.4592934    315.58748  0.027947882  0.028467523            2 
  942000    1.1021213   -7.4276419     315.0909  0.027874283  0.028458035            3 
  943000    1.1150141   -7.4778503    315.19322  0.027853766  0.028448658            1 
  944000    1.0917387    -7.445745    316.48616  0.027938397   0.02843932            1 
  945000    1.1173166   -7.4326231    316.95371  0.027950062  0.028430256            2 
  946000    1.0897214   -7.4552339    317.52036  0.027970434   0.02842101            2 
  947000    1.0940925   -7.4772905    316.93452  0.027889345  0.028411821            2 
  948000    1.0871648   -7.3683956    318.60879  0.028007101  0.028402684            3 
  949000    1.1129702     -7.41383    318.62778  0.027979257  0.028393568            1 
  950000    1.1075901   -7.4572383    317.68352  0.027866976   0.02838439            1 
  951000    1.1057816    -7.463842    318.09402  0.027873644  0.028375202            2 
  952000    1.1017168   -7.4593382    317.16478  0.027763023  0.028365908            3 
  953000    1.0940082   -7.4311197    319.27996  0.027918849  0.028356734            1 
  954000    1.1044445   -7.4367155    318.86879  0.027853668  0.028347614            1 
  955000    1.1138044    -7.433684    318.68485  0.027808451  0.028338614            1 
  956000    1.1074029   -7.4363174    319.49274  0.027849785  0.028329606            3 
  957000    1.1155159   -7.4177616    319.61486  0.027831318  0.028320644            4 
  958000    1.1052879   -7.4757747     319.9127  0.027828175  0.028311333            3 
  959000    1.0938779   -7.4360532    319.19632  0.027736907  0.028302206            2 
  960000    1.0977014   -7.4420494    320.55392  0.027825861  0.028293203            2 
  961000    1.1138624   -7.4046101    321.40059  0.027870325  0.028284106            1 
  962000    1.1029584   -7.4272289    322.10846  0.027902673  0.028275195            1 
  963000    1.1280061   -7.4766355    320.80806  0.027761168  0.028266476            7 
  964000    1.0711249   -7.4031912     322.4164  0.027871404  0.028257719            2 
  965000    1.0811337   -7.4448448    323.47424  0.027933872  0.028249143            2 
  966000    1.0839253   -7.4445435    321.51154   0.02773564  0.028240465            4 
  967000    1.0991286    -7.463497    322.36808  0.027780773  0.028231672            1 
  968000     1.089289   -7.4229705    323.12471   0.02781721  0.028223098            1 
  969000    1.1112651   -7.4317513    323.86183  0.027851894  0.028214669            3 
  970000    1.1105012   -7.4446819    323.13371  0.027760628  0.028206245            2 
  971000    1.0889165   -7.4707011    324.31855  0.027833723   0.02819754            1 
  972000    1.1042341   -7.4366323    324.04287  0.027781453  0.028188915            1 
  973000    1.0947303   -7.4275784    324.98152  0.027833292  0.028180405            2 
  974000    1.0844125   -7.4274447    324.78903  0.027788247  0.028171863            2 
  975000    1.0831414   -7.4366325    325.88382  0.027853318  0.028163408            3 
  976000    1.0836609   -7.4559205    325.88243  0.027824661   0.02815483            1 
  977000    1.0942421   -7.4741996    324.77733  0.027701921  0.028146136            2 
  978000    1.0996047   -7.4679226    325.96443  0.027774747  0.028137562            3 
  979000     1.093876   -7.4673606    325.56232  0.027712149   0.02812894            2 
  980000    1.0742039    -7.442479    326.63854  0.027775386  0.028120202            2 
  981000    1.0994743   -7.4487885    326.51313   0.02773642  0.028111748            1 
  982000    1.1185214    -7.473027    326.77204  0.027730146  0.028103381            1 
  983000    1.0819443   -7.4276464    328.51113  0.027849367  0.028095279            3 
  984000    1.0792262   -7.4256736    327.87191   0.02776693  0.028087025            2 
  985000    1.0845835   -7.4225492    328.37493  0.027781297  0.028078817            1 
  986000    1.1176384   -7.4052776    328.43861  0.027758503  0.028070607            1 
  987000    1.0874385   -7.4224415    327.89008  0.027684066  0.028062228            2 
  988000    1.0897327    -7.467872    327.67651  0.027638032  0.028053945            3 
  989000    1.1151215   -7.4586416    328.79704  0.027704503  0.028045545            1 
  990000    1.1064833   -7.4586885     328.6256  0.027662087  0.028037029            2 
  991000    1.0772049   -7.4599465    329.62295  0.027718041   0.02802876            2 
  992000    1.0822052   -7.4508583    329.58701  0.027687081  0.028020359            3 
  993000    1.0749923   -7.4683406    330.49615  0.027735494  0.028012248            1 
  994000    1.1177019   -7.4833044    330.00556  0.027666462  0.028004285            1 
  995000    1.0845595   -7.4592529    330.41774  0.027673177  0.027996064            2 
  996000    1.0908444   -7.4590848    330.07734  0.027616913  0.027987989            2 
  997000    1.1111571   -7.4402452    331.33201  0.027694083   0.02797966            1 
  998000    1.1028859    -7.460479    330.02642  0.027557316  0.027971424            1 
  999000    1.0750156   -7.4218011    331.65664  0.027665719   0.02796326            1 
 1000000    1.0806653   -7.4578756    331.01573  0.027584644  0.027954894            1 
 1001000     1.074923   -7.4870017    331.82768  0.027624682  0.027946449            1 
 1002000    1.0917089   -7.4751075    331.54894  0.027573931  0.027937909            1 
 1003000    1.0854112   -7.4346693    332.61645  0.027635132  0.027929437            1 
 1004000     1.105558   -7.4075378    332.74012  0.027617872   0.02792108            1 
 1005000    1.0904512   -7.5054209    331.94168  0.027524186  0.027912573            2 
 1006000    1.0776762   -7.4405703     332.2668  0.027523758  0.027903978            3 
 1007000    1.0943459   -7.4442707    332.81892  0.027542115  0.027895632            3 
 1008000    1.0789955   -7.4864866    332.54215  0.027491911  0.027887236            1 
 1009000    1.0813719   -7.4768743    333.53128  0.027546356  0.027878772            2 
 1010000    1.1057881    -7.463905    333.71057  0.027533875  0.027870445            3 
 1011000    1.0856077   -7.4677887    334.64228  0.027583439  0.027862006            1 
 1012000    1.1046833   -7.4586106    334.72163  0.027562717   0.02785383            1 
 1013000     1.087363   -7.4710165    334.70557  0.027534187   0.02784567            1 
 1014000    1.0938181   -7.5002687    334.88611   0.02752187   0.02783755            3 
 1015000    1.0944579   -7.5335812    335.38675  0.027535858  0.027829422            1 
 1016000    1.0619377   -7.4873344    334.98889  0.027476123  0.027821223            3 
 1017000    1.0886182    -7.457314    336.02631  0.027534113  0.027813282            1 
 1018000    1.0990947   -7.4855654    336.42903  0.027540032  0.027805378            1 
 1019000    1.0831313   -7.4517091    336.98533  0.027558499  0.027797264            1 
 1020000    1.0845176   -7.4628352     336.4961  0.027491511  0.027789087            2 
 1021000    1.0727749   -7.4695929    336.63576  0.027475985  0.027781085            1 
 1022000     1.076522   -7.4379132    338.35234  0.027589069  0.027773193            1 
 1023000     1.088984   -7.4339129    337.26346    0.0274734  0.027765246            2 
 1024000    1.0853337   -7.4631452    336.83357  0.027411586  0.027757241            4 
 1025000    1.0865379   -7.4440157    338.38106  0.027510655  0.027749254            2 
 1026000    1.0809023   -7.4849632    337.92779  0.027447026  0.027741274            2 
 1027000    1.0927162   -7.4455769     338.8667  0.027496486  0.027733094            1 
 1028000     1.090754   -7.4297072    339.80718  0.027545978  0.027725121            1 
 1029000    1.0869085   -7.4710458    338.98454  0.027452586  0.027717254            2 
 1030000    1.0614715    -7.442622    338.55027  0.027390798  0.027709352            2 
 1031000    1.0929746   -7.4180444    340.84357  0.027549594  0.027701503            2 
 1032000    1.0742952   -7.4834663    339.26861  0.027395721  0.027693703            1 
 1033000    1.1001736   -7.4335561    340.35059  0.027456485  0.027685493            1 
 1034000    1.0693842   -7.4349559    340.26144  0.027422746  0.027677605            1 
 1035000    1.0665546    -7.454663    340.52599  0.027417552  0.027669625            3 
 1036000    1.0889605   -7.4831202    339.54058  0.027311823  0.027661513            2 
 1037000     1.076264   -7.4243059     341.4969  0.027442695  0.027653075            1 
 1038000    1.0895404   -7.4711048    339.97914  0.027294408  0.027644746            2 
 1039000    1.0912456   -7.4675771    340.70777  0.027326577    0.0276363            3 
 1040000    1.1064546   -7.4711687    341.58103  0.027370275  0.027627932            2 
 1041000    1.1019605   -7.4593986    340.30643  0.027241949  0.027619809            2 
 1042000    1.0808966   -7.4434748    340.49605   0.02723097  0.027611367            1 
 1043000    1.0945388   -7.4517758    342.11563  0.027334262  0.027602882            2 
 1044000    1.0638832   -7.4709575    341.56785  0.027264356  0.027594544            1 
 1045000    1.0627643   -7.4901277    342.16047  0.027285524  0.027586226            3 
 1046000    1.1122607   -7.4960697    341.68796  0.027221794  0.027577812            2 
 1047000    1.0834945   -7.4924062    340.99015  0.027140254  0.027569342            1 
 1048000    1.0680792   -7.4984764    341.14801  0.027126909  0.027560747            2 
 1049000    1.0787203   -7.4634262    342.45439  0.027204829   0.02755207            1 
 1050000    1.0890626   -7.4906164    342.98815  0.027221282  0.027543566            1 
 1051000    1.0833139   -7.4736044    342.40447  0.027149102  0.027534758            1 
 1052000    1.0895307   -7.4801127    343.15496  0.027182744  0.027526195            3 
 1053000    1.0966669   -7.4828497    343.40149   0.02717644  0.027517489            2 
 1054000     1.082209   -7.4865551    343.65901  0.027171016  0.027508823            2 
 1055000    1.0935183   -7.4931397    343.58498  0.027139414  0.027500251            2 
 1056000    1.0567517   -7.4985043    342.77756  0.027049997   0.02749145            2 
 1057000    1.0717458   -7.4788057    343.93569  0.027115712  0.027483027            1 
 1058000    1.0662219     -7.43552    344.75439  0.027154568  0.027474469            1 
 1059000    1.0885682   -7.5141669    343.51781  0.027031619  0.027465959            3 
 1060000    1.0981298   -7.4935951    345.13194  0.027133014  0.027457149            1 
 1061000    1.0726969   -7.4806283    343.95409   0.02701493   0.02744845            3 
 1062000    1.0632302   -7.4738836    344.55474  0.027036624  0.027439683            1 
 1063000    1.0512493    -7.460353    344.66078  0.027019503  0.027430987            1 
 1064000    1.0785422   -7.5048294    344.92454  0.027014766  0.027422282            2 
 1065000    1.0786026   -7.5020168    345.33932  0.027021856  0.027413473            2 
 1066000    1.0609217   -7.4737577    345.32777  0.026995604  0.027404756            3 
 1067000    1.1068289   -7.4990046    346.69797  0.027077317  0.027396256            2 
 1068000    1.0849724    -7.469593    346.31203   0.02702185  0.027387835            1 
 1069000    1.0723979   -7.4780623    346.84984  0.027038497  0.027379246            3 
 1070000    1.0974235   -7.4695179    346.80414  0.027009668  0.027370764            1 
 1071000    1.0788155   -7.4348498    347.23517  0.027017987  0.027362434            3 
 1072000    1.0998453   -7.4386321    348.38121  0.027081872  0.027354151            2 
 1073000    1.0820355   -7.5124612    347.35416  0.026976869  0.027345681            3 
 1074000    1.0952521   -7.4906545    348.01499  0.027003025  0.027337079            1 
 1075000    1.0621351   -7.5122078    347.66009  0.026950394  0.027328509            2 
 1076000    1.0742871   -7.4760013    347.69618  0.026928143  0.027319979            2 
 1077000    1.0862653   -7.5060404    348.78258  0.026987201  0.027311462            2 
 1078000    1.0767826   -7.5106404    348.28269  0.026923522  0.027302718            2 
 1079000    1.1084629    -7.492988    349.15851  0.026966212  0.027294158            1 
 1080000    1.0744548   -7.4985621    348.35466  0.026879218  0.027285514            2 
 1081000    1.0834201   -7.4805253    349.10344  0.026912075  0.027276748            1 
 1082000    1.0613669   -7.5086214    349.24416  0.026898041  0.027268048            2 
 1083000    1.0493589   -7.4671303    350.07597  0.026937209  0.027259428            2 
 1084000     1.071823   -7.5112489    349.48393  0.026866846  0.027251083            2 
 1085000    1.0785311   -7.4824287    350.81254  0.026944128  0.027242548            3 
 1086000    1.0812778    -7.500028    350.14449  0.026868055  0.027233892            1 
 1087000    1.0742928   -7.4756974    351.64524   0.02695839  0.027225356            2 
 1088000    1.0906812   -7.4538266    350.47659  0.026844102    0.0272168            1 
 1089000    1.0905695   -7.5054788    350.97287  0.026857428  0.027208058            1 
 1090000    1.0749324   -7.4628184    351.55991  0.026877669  0.027199285            2 
 1091000    1.0776979   -7.4600921    351.30826  0.026833812  0.027190618            1 
 1092000    1.0611963   -7.5167638    350.91446  0.026779186  0.027181861            4 
 1093000    1.0805982   -7.5239868    351.31134  0.026784945  0.027172841            1 
 1094000    1.0626806   -7.5225948    351.51254  0.026775788  0.027163901            1 
 1095000    1.0554884   -7.5426221    351.46107  0.026747418  0.027154987            1 
 1096000    1.0889407   -7.4719249     352.6991  0.026817146   0.02714625            1 
 1097000    1.0676282   -7.5048198    351.88112  0.026730562  0.027137513            1 
 1098000    1.0743557   -7.5015547    351.16598  0.026651942  0.027128747            2 
 1099000    1.0902779   -7.4998343    352.08363  0.026697273  0.027120019            1 
 1100000    1.0681857   -7.4875557    353.28163   0.02676376  0.027111428            1 
 1101000    1.0692825   -7.4865968    353.08471  0.026724547  0.027102604            2 
 1102000    1.0802732    -7.445654    353.48467   0.02673054  0.027093812            1 
 1103000    1.0626087   -7.4690661    354.22391  0.026762157   0.02708514            3 
 1104000    1.0935996   -7.4951676    354.30236  0.026743838  0.027076447            1 
 1105000    1.0977507   -7.4850876    353.02462  0.026623274  0.027067693            2 
 1106000     1.067391   -7.4645045    355.13799  0.026758438  0.027058816            4 
 1107000    1.0691624   -7.4929788     354.4153  0.026679863  0.027049946            2 
 1108000    1.0734831   -7.4864566    353.47145  0.026584796   0.02704106            1 
 1109000    1.0872267   -7.4811733    356.17145   0.02676371  0.027032577            3 
 1110000    1.0874119   -7.4851036    355.99065  0.026726025  0.027023932            2 
 1111000    1.0890616   -7.5585019    354.70556  0.026605577  0.027015201            3 
 1112000    1.0756478   -7.5413572    355.55698  0.026645457  0.027006352            1 
 1113000    1.0887289   -7.4679796    355.49156  0.026616619  0.026997744            3 
 1114000    1.0701995   -7.5088209    356.08961  0.026637463  0.026988997            3 
 1115000    1.0590637   -7.5386396    356.31855  0.026630684  0.026980275            2 
 1116000    1.0636144   -7.5026341    356.26979   0.02660318  0.026971617            1 
 1117000    1.0893081   -7.5087078    358.07401  0.026713967  0.026963216            1 
 1118000    1.1081196   -7.5440637    358.02469  0.026686396  0.026954981            2 
 1119000    1.0685461   -7.5211018    357.74987  0.026642082  0.026946907            2 
 1120000    1.0930403   -7.4843087    359.24547  0.026729574  0.026938719            4 
 1121000     1.064293   -7.4925623    359.42884  0.026719361  0.026930754            3 
 1122000    1.0646132   -7.5358176    358.94604  0.026659688  0.026922548            2 
 1123000    1.0679042   -7.5083888    359.96758  0.026711753  0.026914244            2 
 1124000    1.0824593   -7.5360023    359.14654  0.026627116  0.026906006            4 
 1125000    1.0478053   -7.4732703    361.38327  0.026769131  0.026897773            1 
 1126000    1.0834269   -7.5032666    359.58167  0.026612024  0.026889562            2 
 1127000    1.0875236   -7.5224138    359.99286  0.026618815   0.02688136            1 
 1128000    1.1099253   -7.4778147    361.18447   0.02668325   0.02687322            3 
 1129000    1.0660409   -7.5158723    359.87687  0.026563099  0.026865026            1 
 1130000    1.0533366   -7.5131217    362.22808  0.026712985  0.026856953            4 
 1131000    1.0788041   -7.4964207     361.3071  0.026621508  0.026848823            1 
 1132000    1.0721714   -7.5082798    362.05669  0.026653172  0.026840712            1 
 1133000    1.0843956    -7.501448    361.14041  0.026562255  0.026832593            2 
 1134000    1.0484627   -7.4694983    362.29125  0.026623402  0.026824564            1 
 1135000    1.0585846   -7.5191806    361.46865  0.026539548  0.026816569            1 
 1136000    1.0749423   -7.5185977    362.06277  0.026559769  0.026808449            3 
 1137000    1.0592747   -7.5122363    361.00268  0.026458713  0.026800324            4 
 1138000    1.0653352   -7.5004708    361.85845  0.026498129  0.026792092            2 
 1139000    1.0681013   -7.5388694    361.95822  0.026482164    0.0267839            1 
 1140000    1.0404947   -7.4941727    362.42029  0.026492711  0.026775541            1 
 1141000    1.0440374    -7.541282    362.62047  0.026484113  0.026767296            1 
 1142000    1.0782598   -7.5040398    363.28073  0.026509101  0.026759151            2 
 1143000    1.0691672   -7.5019647    362.84633  0.026454238  0.026751014            1 
 1144000    1.0598412   -7.4907901    362.98375  0.026441124  0.026742882            3 
 1145000    1.0666128   -7.5152667    363.88408  0.026483558  0.026734747            5 
 1146000    1.0754181   -7.5328382    364.23021  0.026485617  0.026726737            3 
 1147000    1.0521851   -7.5288154    365.16422  0.026530385  0.026718547            2 
 1148000    1.0755677   -7.4758013    365.12478  0.026504412  0.026710442            1 
 1149000    1.0716065   -7.5207063    365.11028  0.026480293  0.026702126            2 
 1150000     1.063178    -7.538382    363.46656  0.026338156  0.026693712            4 
 1151000    1.0791919   -7.5136837    364.68298  0.026403343  0.026685346            2 
 1152000    1.0625847   -7.5433954    364.91743  0.026397383  0.026677185            2 
 1153000    1.0524585   -7.5561264    365.37941  0.026407879  0.026668912            1 
 1154000    1.0643734   -7.5195516    365.72031  0.026409612  0.026660627            2 
 1155000    1.0557127   -7.4985967    366.11868  0.026415489  0.026652353            1 
 1156000     1.079016   -7.5262605    365.18381  0.026325246  0.026644097            1 
 1157000    1.0819768   -7.5255285    366.87757  0.026424486  0.026635855            4 
 1158000    1.0652605   -7.5484569    366.46748  0.026372156  0.026627565            1 
 1159000    1.0477833   -7.5379862    366.69022  0.026365417  0.026619232            2 
 1160000    1.0749199   -7.4985347    366.76901  0.026348348  0.026610872            2 
 1161000    1.0885469   -7.5473876    365.86976  0.026261108  0.026602206            1 
 1162000    1.0569084   -7.5105753    366.70659  0.026298522  0.026593802            1 
 1163000    1.0620664   -7.4795642    367.33513  0.026320947   0.02658551            1 
 1164000    1.0459659    -7.514239    366.42205  0.026232965  0.026577083            2 
 1165000     1.088605   -7.4825738    367.25339  0.026269914   0.02656859            2 
 1166000    1.0589182   -7.5232456    367.86714  0.026291248  0.026560064            2 
 1167000    1.0610703   -7.5320229    367.07741  0.026212326  0.026551524            1 
 1168000    1.0803942   -7.5414656    367.12377  0.026193191  0.026542911            2 
 1169000    1.0398366   -7.5375082    366.44143  0.026122144  0.026534464            2 
 1170000    1.0744268    -7.544354    369.18424  0.026295173  0.026525956            1 
 1171000    1.0586534   -7.5065124    368.85047  0.026248966  0.026517573            3 
 1172000    1.0640647   -7.4978813    368.92244  0.026231686  0.026509171            1 
 1173000    1.0584965   -7.5238764    369.57254  0.026255509    0.0265007            3 
 1174000    1.0665407   -7.5100732    369.47837   0.02622646  0.026492254            3 
 1175000    1.0518913   -7.5351385    369.52378   0.02620736  0.026483937            1 
 1176000    1.0684604   -7.5378697    368.51769  0.026113782  0.026475564            2 
 1177000    1.0600218   -7.5427163    368.36261  0.026080615  0.026467211            2 
 1178000    1.0814029   -7.5144425     369.7454  0.026156296  0.026458978            2 
 1179000    1.0809948   -7.5587057    369.67399  0.026129064  0.026450751            1 
 1180000    1.0479999   -7.5366607    370.72713  0.026181294   0.02644245            2 
 1181000    1.0569754   -7.5082801    371.35655  0.026203539  0.026434205            2 
 1182000    1.0752674   -7.5173465    370.79554  0.026141818   0.02642588            3 
 1183000    1.0817018   -7.5082996    371.30415  0.026155547  0.026417507            1 
 1184000    1.0447309   -7.5494542     371.5101  0.026147952  0.026409201            1 
 1185000    1.0593698   -7.5329839    372.46583  0.026193096  0.026401082            2 
 1186000     1.087356   -7.5007469     371.9723  0.026136334   0.02639298            2 
 1187000     1.078244   -7.5359059    372.02674  0.026118136  0.026384912            2 
 1188000    1.0638791   -7.5504465    372.61979  0.026137752  0.026376785            2 
 1189000    1.0671223   -7.5377327    373.45488  0.026174298  0.026368661            1 
 1190000    1.0570838   -7.5321762    373.34811  0.026144825  0.026360456            2 
 1191000    1.0330843   -7.4879024    373.10154  0.026105621  0.026352287            2 
 1192000    1.0629082   -7.5291061    372.80862  0.026063243  0.026344031            3 
 1193000    1.0470918   -7.5200008    372.27996  0.026004468  0.026335877            1 
 1194000    1.0459836   -7.5348056    373.04779  0.026036278  0.026327536            5 
 1195000    1.0335303   -7.5414002    373.17202  0.026023154  0.026319267            2 
 1196000    1.1015078   -7.5683902    373.85708  0.026049128  0.026311207            2 
 1197000    1.0480772   -7.5658352    373.39069  0.025994896  0.026303049            2 
 1198000     1.046099   -7.5233879    374.85009  0.026074714  0.026294849            2 
 1199000    1.0732225   -7.5536617    375.23435  0.026079674  0.026286669            2 
 1200000    1.0660254   -7.5460018    375.79106  0.026096601  0.026278532            1 
 1201000    1.0653753   -7.5312208    375.28803  0.026039969   0.02627035            2 
 1202000    1.0462898   -7.5353873    375.56757  0.026037685  0.026262368            2 
 1203000    1.0634564    -7.558151    375.55978  0.026015502  0.026254357            1 
 1204000     1.069923   -7.5529017    376.61282  0.026066779  0.026246108            4 
 1205000    1.0575801   -7.5067225    376.71964  0.026052534  0.026238135            2 
 1206000    1.0674965   -7.5494677    376.48935  0.026015019  0.026230241            2 
 1207000    1.0649678    -7.569624    376.10811  0.025967144  0.026222212            1 
 1208000    1.0644586   -7.5364086    377.59722  0.026048374  0.026214023            1 
 1209000    1.0477859   -7.5110615     377.7392  0.026036614   0.02620589            2 
 1210000    1.0782285   -7.5754162    376.54127  0.025932594  0.026197646            3 
 1211000    1.0586293   -7.5080448      376.845  0.025932081    0.0261893            2 
 1212000    1.0662799   -7.5635854    376.65011  0.025897285  0.026180959            1 
 1213000    1.0660126    -7.508677    377.33865  0.025923238  0.026172546            3 
 1214000    1.0781452     -7.54094    377.13123  0.025887646  0.026164221            1 
 1215000    1.0812399   -7.5585612    376.27889   0.02580788  0.026155658            2 
 1216000    1.0645017   -7.5481104    376.06106  0.025771728  0.026147189            2 
 1217000    1.0618222   -7.5424219    377.29471  0.025835025  0.026138605            2 
 1218000    1.0703773   -7.5535869    376.37184  0.025750673  0.026129936            1 
 1219000    1.0593533   -7.5352327     378.4079  0.025868738  0.026121475            1 
 1220000    1.0283485   -7.5414487    378.91992  0.025882508  0.026113221            2 
 1221000    1.0456801   -7.5486117    378.72485  0.025847997  0.026104998            1 
 1222000    1.0663378   -7.5197441    379.14836  0.025855725  0.026096858            2 
 1223000    1.0550017   -7.5434651    379.60911  0.025865979  0.026088658            2 
 1224000    1.0569595   -7.5646881    379.28784  0.025822974  0.026080617            1 
 1225000    1.0626012   -7.5521588    379.92859  0.025845482  0.026072463            1 
 1226000    1.0473979   -7.4900619    381.35622  0.025921439  0.026064597            3 
 1227000    1.0576066   -7.5474589    380.59339  0.025848505  0.026056698            6 
 1228000    1.0722275   -7.5367106    381.42741  0.025884053  0.026048829            1 
 1229000    1.0734338   -7.5485881    382.21086  0.025916114  0.026040926            2 
 1230000    1.0630262   -7.4974602    383.19365  0.025961629  0.026033106            2 
 1231000    1.0505284   -7.5066864    383.71449  0.025975798  0.026025268            2 
 1232000    1.0691403   -7.5299242    383.19349  0.025919473  0.026017457            2 
 1233000    1.0565324   -7.5394044    381.87887  0.025809602  0.026009736            1 
 1234000    1.0545384   -7.5318736    383.38465  0.025890373  0.026001987            2 
 1235000    1.0514183    -7.550328     382.2762  0.025794615  0.025994231            1 
 1236000    1.0669096   -7.5457191    382.19222  0.025768084  0.025986306            1 
 1237000    1.0270244   -7.5367866    382.94346  0.025797862  0.025978333            1 
 1238000    1.0337101   -7.5126026    383.41758  0.025808938  0.025970483            1 
 1239000     1.019311    -7.542027    384.15379  0.025837624  0.025962737            1 
 1240000     1.049177     -7.55147    383.98655  0.025805548  0.025954977            4 
 1241000     1.044929   -7.5920146    384.04739  0.025788839  0.025947039            1 
 1242000    1.0374761   -7.5880482    384.26575  0.025782726  0.025939245            2 
 1243000     1.067889   -7.5604774    385.16163  0.025822045  0.025931492            1 
 1244000    1.0289651   -7.5475359    384.87089  0.025781812  0.025923876            3 
 1245000    1.0492941   -7.5504064    386.83325  0.025892453  0.025916333            4 
 1246000    1.0384352   -7.5533169    385.39548  0.025775514  0.025908761            4 
 1247000     1.045788   -7.5452658    385.73211   0.02577734  0.025901203            1 
 1248000    1.0379811   -7.5622727    385.58715  0.025747006  0.025893575            1 
 1249000    1.0188025   -7.5027249    384.89669  0.025680324  0.025886022            4 
 1250000    1.0458656   -7.5147893    387.20963  0.025813975   0.02587863            3 
 1251000    1.0523379   -7.5334546    386.82048  0.025767418  0.025871092            2 
 1252000     1.062324   -7.5584953    388.10286  0.025832193  0.025863711            1 
 1253000    1.0401457   -7.5570999    388.22646  0.025819796  0.025856391            2 
 1254000    1.0509162   -7.6135811    387.36088  0.025741685  0.025849068            1 
 1255000    1.0477664   -7.6005809    388.03885  0.025766192  0.025841725            1 
 1256000     1.049252   -7.6028815    389.62678  0.025851034  0.025834473            3 
 1257000    1.0424751   -7.5485407     389.2475  0.025805323  0.025827205            1 
 1258000    1.0610108   -7.5382622    389.14612  0.025778095  0.025819878            2 
 1259000    1.0497442   -7.5429575     389.4091  0.025775026  0.025812496            3 
 1260000    1.0408259   -7.5592366    388.95008  0.025724212  0.025805072            2 
 1261000    1.0324046   -7.5359678    389.13925  0.025716313  0.025797696            3 
 1262000    1.0481175   -7.5331703    389.42803  0.025715004   0.02579035            1 
 1263000    1.0593367   -7.5879021    388.17183  0.025611759  0.025783011            1 
 1264000    1.0472781   -7.5464674    389.09917  0.025652635  0.025775538            2 
 1265000    1.0463327   -7.5869964    391.09318  0.025763714  0.025768235            2 
 1266000    1.0574172   -7.5200527      390.509  0.025704911  0.025760892            2 
 1267000    1.0567834    -7.546702    391.70278   0.02576314  0.025753618            3 
 1268000    1.0575023     -7.56104    390.42078  0.025658569  0.025746401            1 
 1269000    1.0501827   -7.5533506    390.59441  0.025649751  0.025739155            4 
 1270000    1.0378705   -7.5259698    391.53763  0.025691446  0.025732144            1 
 1271000    1.0599102   -7.5700685    392.86578  0.025758313  0.025725106            1 
 1272000     1.070243    -7.600477     392.2349  0.025696731  0.025717825            2 
 1273000    1.0311421   -7.5697562    392.52691  0.025695661  0.025710651            2 
 1274000    1.0513072   -7.5938302    392.53315  0.025675899  0.025703622            3 
 1275000    1.0523179   -7.5786099    393.84971  0.025741811  0.025696671            2 
 1276000      1.06277   -7.5699176    394.56625  0.025768434  0.025689676            1 
 1277000    1.0616841   -7.5651652    394.35211   0.02573428  0.025682729            2 
 1278000    1.0471578   -7.5879254    394.82997  0.025745303  0.025675754            1 
 1279000    1.0684486   -7.5609753    394.68121  0.025715481  0.025668832            3 
 1280000    1.0105189   -7.5957447    394.68806  0.025695837  0.025661885            1 
 1281000     1.068176   -7.5371228    395.65175  0.025738469  0.025655241            2 
 1282000    1.0388475   -7.5697226    396.73611  0.025788879  0.025648461            1 
 1283000    1.0313747   -7.5743966    396.30214  0.025740591  0.025641794            2 
 1284000    1.0456127    -7.547337    396.24938  0.025717119   0.02563518            4 
 1285000      1.03998    -7.577196    396.50151  0.025713457  0.025628613            2 
 1286000    1.0450144   -7.5940394    397.27229  0.025743409  0.025621947            2 
 1287000    1.0443954   -7.5819993    397.23315  0.025720872  0.025615255            2 
 1288000    1.0450249   -7.5702616    397.60599  0.025725025   0.02560857            2 
 1289000    1.0631438   -7.5816549     397.4616  0.025695733  0.025602099            4 
 1290000    1.0521955   -7.6225014    396.82177  0.025634481  0.025595529            1 
 1291000    1.0446825   -7.5820776    398.74368  0.025738683  0.025588857            2 
 1292000     1.046513   -7.5705528    398.71535  0.025716934  0.025582303            1 
 1293000    1.0517355   -7.5813608    398.35511  0.025673827  0.025575757            2 
 1294000    1.0488534   -7.5728097    399.96711  0.025757799  0.025569241            1 
 1295000    1.0488982   -7.5352702     400.5961  0.025778385  0.025562887            2 
 1296000    1.0299189   -7.5876275    400.17603  0.025731483  0.025556488            2 
 1297000    1.0597909    -7.562285    399.46396  0.025665893  0.025550179            3 
 1298000    1.0346048   -7.5767712    400.76461  0.025729623  0.025543708            2 
 1299000    1.0452843   -7.5233535     401.0144  0.025725841  0.025537378            4 
 1300000     1.054049   -7.5737653    400.96302  0.025702758  0.025530961            1 
 1301000    1.0291289   -7.5941263     400.7339  0.025668326  0.025524379            3 
 1302000     1.046784   -7.6168634    399.02387  0.025539162  0.025517754            1 
 1303000     1.011361   -7.5632738    401.22823  0.025660542  0.025511061            2 
 1304000    1.0349076   -7.5987042    400.51511  0.025595291  0.025504318            3 
 1305000    1.0284209   -7.6265848     399.5219  0.025512254  0.025497626            2 
 1306000    1.0272152   -7.5889792    399.78228  0.025509334  0.025490886            3 
 1307000    1.0254052   -7.5797549    400.56793  0.025539909  0.025484269            4 
 1308000    1.0511354   -7.5887124    401.86211  0.025602836  0.025477659            2 
 1309000     1.046968   -7.5827361    401.81938  0.025580556  0.025471097            3 
 1310000    1.0664116   -7.5777826    401.52195  0.025542109  0.025464438            2 
 1311000    1.0498625    -7.561694    401.35821  0.025512218  0.025457696            1 
 1312000    1.0627896   -7.5894056    401.51587  0.025502787  0.025450938            2 
 1313000    1.0606271   -7.5850996    401.31646  0.025470707  0.025444251            2 
 1314000     1.045588   -7.5776142    401.16681  0.025441832  0.025437437            1 
 1315000    1.0494225    -7.578917    402.34433  0.025497106  0.025430638            2 
 1316000    1.0407734   -7.6292743    401.41583  0.025418936  0.025423858            2 
 1317000    1.0374684   -7.5802716    402.49694  0.025468042  0.025417057            2 
 1318000    1.0604057   -7.5684052    403.78613  0.025530231  0.025410455            1 
 1319000    1.0280787     -7.58105     403.2437  0.025476605  0.025403678            2 
 1320000    1.0346538   -7.5484709    404.57071   0.02554108   0.02539705            2 
 1321000    1.0392627   -7.5749264    404.58035  0.025522354  0.025390482            2 
 1322000    1.0566783   -7.5592544    404.41119  0.025492385  0.025383938            2 
 1323000    1.0595958   -7.5622125    403.82875  0.025436429  0.025377282            1 
 1324000    1.0566894   -7.5751034    404.71802  0.025473188  0.025370771            2 
 1325000    1.0141015   -7.5712417    405.33477  0.025492753  0.025364098            2 
 1326000    1.0201272   -7.5869212    404.53277  0.025423125  0.025357449            1 
 1327000    1.0742049   -7.5375424    405.81629   0.02548457  0.025350814            2 
 1328000    1.0570548   -7.5660098    404.47411  0.025381156  0.025344253            1 
 1329000    1.0297435   -7.6137186    405.27821  0.025412479  0.025337652            4 
 1330000    1.0291221   -7.5882647    406.68579  0.025481566  0.025331158            1 
 1331000    1.0203668   -7.5899844    406.17305  0.025430318  0.025324574            1 
 1332000    1.0235527   -7.5378241    408.46627  0.025554697   0.02531813            3 
 1333000    1.0385784   -7.6084801    406.10918  0.025388171  0.025311798            2 
 1334000    1.0536642   -7.5502986    407.02828  0.025426554  0.025305476            1 
 1335000    1.0546095   -7.5942213    408.37035  0.025491283  0.025299116            2 
 1336000    1.0551428   -7.5428461    407.89294  0.025442424  0.025292793            1 
 1337000    1.0369171   -7.5860143    408.47394  0.025459607  0.025286527            2 
 1338000    1.0244597   -7.6254654    407.21005  0.025361861  0.025280086            2 
 1339000    1.0253665   -7.6063154    408.25608  0.025408021  0.025273686            2 
 1340000    1.0449169   -7.5719912    409.31925  0.025455177  0.025267361            1 
 1341000    1.0423524   -7.5799782    410.21713  0.025491992  0.025261108            1 
 1342000    1.0037929   -7.5778948    409.40286  0.025422433  0.025254895            2 
 1343000    1.0511032   -7.6153731     409.1372  0.025387019  0.025248638            3 
 1344000    1.0344822   -7.6434785    408.57406  0.025333213  0.025242248            5 
 1345000     1.039379   -7.6386148    408.26028  0.025294937  0.025235717            2 
 1346000     1.022752   -7.6364745     409.9805  0.025382646   0.02522929            1 
 1347000    1.0323154    -7.618766    411.04225  0.025429488  0.025223033            1 
 1348000    1.0613155   -7.6496197    410.48972  0.025376466  0.025216746            2 
 1349000    1.0459791   -7.5810054      410.944  0.025385718  0.025210408            1 
 1350000    1.0362534   -7.6052656    411.92749  0.025427623  0.025204181            2 
 1351000    1.0426485   -7.6297407    411.27193  0.025368365  0.025197882            3 
 1352000    1.0211341   -7.5890543     411.5718  0.025368084  0.025191624            2 
 1353000    1.0569223   -7.6112975     411.8492   0.02536642  0.025185279            2 
 1354000    1.0372657   -7.5928883    412.26786  0.025373453   0.02517899            1 
 1355000    1.0193805   -7.5886376    411.57455  0.025312088  0.025172866            3 
 1356000    1.0586531   -7.5903032    413.01394  0.025381879   0.02516653            1 
 1357000    1.0438222   -7.5818543    412.97705  0.025360909  0.025160271            2 
 1358000     1.030879   -7.5577452     413.4426  0.025370803  0.025154008            1 
 1359000    1.0514943   -7.5919047     412.5279  0.025296045  0.025147828            2 
 1360000    1.0473837   -7.5999686     412.7439   0.02529068  0.025141389            1 
 1361000    1.0050566    -7.566431    413.40676  0.025312684  0.025135095            1 
 1362000    1.0361872   -7.5572219    414.28932  0.025348099  0.025128901            3 
 1363000     1.042715    -7.599768    413.03487  0.025252805  0.025122617            2 
 1364000    1.0353154   -7.5806516    413.48049  0.025261516  0.025116208            2 
 1365000    1.0384872   -7.6197192    412.90308  0.025207758  0.025109732            4 
 1366000    1.0302248   -7.6027485    414.78171  0.025303911  0.025103254            3 
 1367000    1.0216398   -7.5724945    414.07139  0.025242099   0.02509672            2 
 1368000    1.0378927   -7.6154934    413.11437  0.025165349  0.025090101            1 
 1369000    1.0376591   -7.5736241    414.72769  0.025245172   0.02508359            2 
 1370000    1.0589466   -7.6356166    412.44534  0.025087916  0.025077076            3 
 1371000      1.03076   -7.6573056    413.06921  0.025107538  0.025070386            1 
 1372000    1.0337916   -7.6380137    413.87747   0.02513833  0.025063649            3 
 1373000    1.0357546   -7.5743135     415.0818  0.025193118  0.025056936            3 
 1374000    1.0315671   -7.6444959    413.17147   0.02505892  0.025050284            3 
 1375000    1.0366917   -7.6271645    415.01285  0.025152294  0.025043589            2 
 1376000    1.0328607   -7.6306352    414.53615  0.025105144  0.025036754            3 
 1377000    1.0149198   -7.5710644    415.26538  0.025131044  0.025030076            2 
 1378000    1.0426456   -7.6131921    415.49256  0.025126545  0.025023397            2 
 1379000    1.0077027   -7.5816096    415.46304  0.025106541  0.025016613            3 
 1380000    1.0363471   -7.5868078     415.4852  0.025089686  0.025009843            2 
 1381000    1.0260511   -7.5958978    416.67122  0.025143086  0.025003192            2 
 1382000    1.0400662   -7.6179079    415.42217  0.025049576  0.024996495            1 
 1383000    1.0578024   -7.6398826    416.68555  0.025107589  0.024989918            2 
 1384000    1.0476137    -7.614964    415.54102  0.025020534  0.024983375            1 
 1385000    1.0339571   -7.6124232    416.61169  0.025066889  0.024976789            1 
 1386000    1.0234087   -7.5933352    416.71666  0.025055114  0.024970098            1 
 1387000     1.057405   -7.5912564    417.28402  0.025071138  0.024963339            3 
 1388000    1.0234123   -7.6403324    416.34805  0.024996881  0.024956584            1 
 1389000    1.0239333   -7.6370216    417.28189   0.02503491  0.024949795            1 
 1390000    1.0365725   -7.6222709    416.83486  0.024990099   0.02494291            4 
 1391000    1.0204691   -7.6202293    417.07021  0.024986234  0.024936175            2 
 1392000    1.0235974    -7.598687    418.80631  0.025072217  0.024929401            3 
 1393000    1.0168161   -7.5875963    417.67211  0.024986367  0.024922826            1 
 1394000    1.0340228   -7.6274526    419.71625  0.025090642  0.024916184            3 
 1395000      1.01696   -7.5877649    417.40027  0.024934305  0.024909591            1 
 1396000    1.0047112   -7.6211768     418.2701  0.024968368  0.024902997            2 
 1397000    1.0200688   -7.6286058    418.34064  0.024954703  0.024896277            1 
 1398000    1.0330612    -7.624984    419.44805  0.025002864   0.02488965            2 
 1399000    1.0271494   -7.5862131    420.27603  0.025034312  0.024883101            1 
 1400000    1.0212289   -7.6527761    418.57386  0.024915111  0.024876457            5 
 1401000    1.0174893   -7.5954855    419.77987  0.024969062  0.024869819            1 
 1402000    1.0337204   -7.6295894    420.39045  0.024987545  0.024863194            1 
 1403000    1.0138815   -7.6025907    421.25369  0.025021008  0.024856658            1 
 1404000    1.0116579   -7.5946369    420.28639  0.024945774  0.024850122            1 
 1405000    1.0257391   -7.6192306    419.83865  0.024901462  0.024843513            1 
 1406000    1.0359933    -7.624098    420.47198  0.024921289  0.024836913            2 
 1407000    1.0288347    -7.623161    421.08582  0.024939933  0.024830306            2 
 1408000     1.064356   -7.6150148    421.32215  0.024936207  0.024823794            2 
 1409000    1.0406202   -7.6704524    421.19081  0.024910741  0.024817239            1 
 1410000     1.025213   -7.6530981    422.09118  0.024946287  0.024810804            1 
 1411000    1.0310619   -7.6107728     422.5247  0.024954211  0.024804385            3 
 1412000   0.99933687    -7.625575    422.34653  0.024926023  0.024797928            2 
 1413000    1.0129243   -7.6162552    423.10643  0.024953198  0.024791627            4 
 1414000    1.0488847   -7.6177461    423.12679  0.024936751   0.02478537            2 
 1415000    1.0418927   -7.5858269    423.57538  0.024945546  0.024779047            2 
 1416000      1.04673   -7.5898435    425.01546   0.02501268  0.024772949            1 
 1417000   0.99208411   -7.6173362    423.60426  0.024912036  0.024766747            1 
 1418000    1.0354252   -7.6071032    424.11197  0.024924305  0.024760441            2 
 1419000    1.0488296    -7.628004    423.34749  0.024861844  0.024754076            1 
 1420000    1.0323133   -7.5999792    424.63977  0.024920174  0.024747855            1 
 1421000     1.017655   -7.6012416    424.46562  0.024892424  0.024741533            2 
 1422000    1.0441912   -7.5928664    423.72771  0.024831676  0.024735152            3 
 1423000    1.0339242     -7.61281    425.07766   0.02489328  0.024728711            3 
 1424000    1.0354202   -7.6165687    426.35462  0.024950528  0.024722307            2 
 1425000    1.0430433   -7.6820967    423.77277  0.024782033  0.024715923            2 
 1426000    1.0162896   -7.6746696    423.55292  0.024751807  0.024709451            2 
 1427000    1.0163576   -7.6053048    425.29962  0.024836464  0.024702932            3 
 1428000    1.0287098   -7.6450496    424.37337  0.024765019  0.024696324            2 
 1429000    1.0146207   -7.6717844    424.02901  0.024727607  0.024689732            2 
 1430000    1.0113421   -7.6526537    425.24764  0.024781331  0.024683272            3 
 1431000    1.0042629   -7.6187133    426.66122  0.024846332  0.024676869            4 
 1432000    1.0045437   -7.6153454    427.24597  0.024863011  0.024670606            1 
 1433000    1.0334297   -7.5966075    426.40572  0.024796797  0.024664223            3 
 1434000    1.0077606   -7.6429469    425.03755  0.024699997  0.024657769            3 
 1435000    1.0229082   -7.6050808    428.25881   0.02486985  0.024651383            1 
 1436000    1.0076415    -7.614994    428.44932  0.024863586  0.024645063            3 
 1437000    1.0197775   -7.6606229    427.46999  0.024789491   0.02463875            2 
 1438000    1.0159037   -7.6577876    426.55601  0.024719287  0.024632332            3 
 1439000    1.0161111   -7.6087408    428.18861  0.024796653  0.024626001            4 
 1440000    1.0205806   -7.6216266    429.28306   0.02484277  0.024619614            3 
 1441000    1.0177731   -7.5600097    427.71327  0.024734749  0.024613329            2 
 1442000    1.0308926   -7.5900085     429.1122   0.02479844  0.024606937            3 
 1443000    1.0404215   -7.6648813    427.54156   0.02469055  0.024600527            3 
 1444000    1.0177465   -7.6502033    428.19377   0.02471109  0.024593969            3 
 1445000   0.99808195   -7.6621827    427.06442  0.024628859  0.024587329            2 
 1446000    1.0247041   -7.6590883    427.62226  0.024643975  0.024580708            3 
 1447000     1.021017   -7.6505965    428.68226   0.02468799  0.024574047            2 
 1448000    1.0157087   -7.6313439    430.26299  0.024761912  0.024567497            3 
 1449000    1.0009254   -7.6333255    429.33316  0.024691348  0.024560893            2 
 1450000    1.0122325   -7.6558598    428.81293  0.024644421  0.024554297            2 
 1451000    1.0240124   -7.6338756    429.21378  0.024650458  0.024547734            2 
 1452000    1.0003973   -7.6491953    429.51585  0.024650818  0.024541239            7 
 1453000      1.03064   -7.6841328     428.5936  0.024580959  0.024534775            2 
 1454000    1.0056169   -7.6763543    430.53858  0.024675526  0.024528278            6 
 1455000    1.0265984   -7.6432858    431.41756   0.02470891  0.024521852            3 
 1456000    1.0109456   -7.6494412    429.25042  0.024567904  0.024515391            1 
 1457000     1.016514   -7.6466708     431.2001  0.024662555   0.02450901            2 
 1458000    1.0191789   -7.6253365    430.97608  0.024632835  0.024502657            2 
 1459000    1.0298865   -7.6234994    431.68041  0.024656181  0.024496252            3 
 1460000     1.003774   -7.6866713    430.85655  0.024592269  0.024489739            2 
 1461000     1.009201   -7.6559105    432.44058  0.024665787  0.024483276            2 
 1462000    1.0208847   -7.6450648    430.45143  0.024535535  0.024476744            2 
 1463000   0.99543296   -7.6446881    430.50841   0.02452201  0.024470225            2 
 1464000    1.0199393   -7.6628462    430.93336  0.024529449  0.024463756            2 
 1465000    1.0138245   -7.6135157     432.8156  0.024619773  0.024457295            1 
 1466000    1.0300791   -7.6063398    431.87817  0.024549691  0.024450855            1 
 1467000    1.0285412   -7.6232573    431.33653  0.024502189   0.02444433            1 
 1468000    1.0100776   -7.6576039    431.98936  0.024522557  0.024437635            3 
 1469000      1.01797   -7.6070277    433.10199   0.02456898  0.024430964            1 
 1470000    1.0116167   -7.6483713    432.04008  0.024492068  0.024424234            1 
 1471000    1.0061302   -7.6795788    432.26734  0.024488292  0.024417463            1 
 1472000    1.0190766   -7.6518754    433.12364  0.024520134  0.024410699            2 
 1473000    1.0047723   -7.6676296    433.08088  0.024501068  0.024404045            2 
 1474000    1.0358421   -7.6402031    432.88451  0.024473344  0.024397309            2 
 1475000    1.0071497   -7.6509399    432.50834  0.024435499  0.024390682            3 
 1476000    1.0225248   -7.6545158     434.8177  0.024549328  0.024384042            1 
 1477000    1.0140835   -7.6051067    433.75246  0.024472605  0.024377521            1 
 1478000    1.0427363   -7.6229578    434.25255  0.024484244  0.024371016            1 
 1479000    1.0199664   -7.6758151    433.54798  0.024427991  0.024364435            1 
 1480000    1.0133892    -7.671721    434.64451  0.024473227  0.024357706            2 
 1481000    1.0107424   -7.6457615     434.2378  0.024433817   0.02435098            2 
 1482000    1.0166176   -7.6686244    433.77986   0.02439158  0.024344321            1 
 1483000    1.0032056   -7.6575532     432.8334  0.024321949  0.024337531            5 
 1484000    1.0203473   -7.6664809    434.83941  0.024418206  0.024330752            3 
 1485000    1.0032045   -7.6333839      435.945  0.024463804  0.024323985            2 
 1486000    1.0112238   -7.6668251    434.86513  0.024386784  0.024317129            2 
 1487000   0.98145967   -7.6095681    434.95399  0.024375364  0.024310432            2 
 1488000    1.0415781   -7.6286866    435.52809  0.024391134  0.024303597            1 
 1489000    1.0218758   -7.5826191    436.86447  0.024449545  0.024296846            2 
 1490000    1.0349595   -7.6699435    434.37226  0.024293751  0.024290076            4 
 1491000    1.0111308   -7.6700551     434.4252  0.024280416  0.024283168            2 
 1492000    1.0296366   -7.6646166    435.58762  0.024329067   0.02427631            2 
 1493000    1.0148573   -7.6491961    435.21521  0.024291985  0.024269521            2 
 1494000    1.0280636   -7.6340458    436.03241  0.024321308    0.0242627            2 
 1495000    1.0056977   -7.6422516    435.89834  0.024297566  0.024255963            3 
 1496000    1.0191408    -7.684378     434.6066  0.024209369  0.024249104            2 
 1497000    1.0226182   -7.6833996    436.62121  0.024305344  0.024242305            1 
 1498000    1.0092769   -7.6528496    436.11586  0.024261007  0.024235504            2 
 1499000    1.0105323   -7.6586414    436.37819  0.024259406  0.024228569            3 
 1500000    1.0204489   -7.6501981    436.15212  0.024230673    0.0242218            2 
 1501000    0.9896576   -7.6527309    437.04823  0.024264281  0.024215001            2 
 1502000    1.0040357   -7.6879121    435.68865  0.024172695  0.024208241            1 
 1503000    1.0008616    -7.658512    436.67985  0.024211568  0.024201479            3 
 1504000    1.0023591   -7.6597945     437.5021   0.02424103  0.024194755            2 
 1505000    1.0068917   -7.6612884    438.85838  0.024300021  0.024188015            2 
 1506000    1.0131085   -7.6630625     437.5553  0.024211781  0.024181344            1 
 1507000    1.0136284   -7.6803335    438.33688  0.024238934  0.024174727            2 
 1508000    1.0026748   -7.6793244    438.27078  0.024219207  0.024168091            3 
 1509000    1.0043183   -7.6541322    439.90183  0.024293231  0.024161453            2 
 1510000    1.0244037   -7.6616393    439.64181  0.024262793   0.02415487            1 
 1511000    1.0110232   -7.6301746    440.17055  0.024275896  0.024148328            3 
 1512000    1.0069191   -7.6751885    438.64833  0.024175944  0.024141747            1 
 1513000    1.0102085    -7.586068    441.20075  0.024300548  0.024135151            2 
 1514000    1.0144773   -7.6539327    441.49626  0.024300763  0.024128657            4 
 1515000    1.0425248   -7.6455358     440.1767   0.02421214  0.024122073            1 
 1516000    1.0097072   -7.6440632    440.79688   0.02423026  0.024115516            1 
 1517000    1.0144482   -7.6892455    439.74949  0.024156751  0.024108916            3 
 1518000    1.0247424   -7.6889064    440.44553  0.024179048  0.024102338            2 
 1519000    1.0185646   -7.6638787    441.14282  0.024201384  0.024095756            2 
 1520000    1.0199519   -7.6333769    440.30937  0.024139768  0.024089261            4 
 1521000    1.0125432   -7.6907522    441.79366  0.024205219  0.024082796            2 
 1522000    1.0192163    -7.686687    442.40211   0.02422263  0.024076175            1 
 1523000    1.0021077   -7.6889314    442.16144  0.024193556  0.024069536            2 
 1524000    1.0105837   -7.6842608    441.21686  0.024126031  0.024062913            1 
 1525000     1.027909   -7.6191421     442.6576   0.02418894  0.024056307            2 
 1526000    1.0074518   -7.7006614    441.04688  0.024085129  0.024049703            3 
 1527000    1.0210197   -7.6789118    441.97628  0.024120076  0.024043113            2 
 1528000    1.0095252   -7.7119354    441.84911  0.024097356  0.024036373            2 
 1529000    1.0206784   -7.6684841    442.84554  0.024135903  0.024029617            1 
 1530000    1.0034266   -7.6863477    442.63452  0.024108634  0.024022978            2 
 1531000     1.011377   -7.6674611    443.18304  0.024122743  0.024016262            3 
 1532000    1.0112864    -7.683987    443.51653  0.024125138  0.024009526            2 
 1533000    1.0088847   -7.6737364    442.93422  0.024077746  0.024002933            1 
 1534000    1.0079764   -7.6949329    443.38022  0.024086279  0.023996207            3 
 1535000    1.0092529   -7.6697014    442.97339  0.024048501  0.023989579            3 
 1536000    1.0228082   -7.6941357    443.34668  0.024053097  0.023982859            2 
 1537000   0.99120804   -7.7162782    443.68631  0.024055861  0.023976113            1 
 1538000   0.99672353   -7.7007137    443.58965  0.024034983   0.02396934            3 
 1539000    1.0181423   -7.6858631    443.06237  0.023990815  0.023962592            2 
 1540000    1.0157688   -7.6953614    443.27071   0.02398651  0.023955868            2 
 1541000   0.99952267   -7.7216346    442.26184  0.023916388  0.023949074            4 
 1542000   0.97665224   -7.6750097    443.51004  0.023968333  0.023942354            3 
 1543000   0.98324247   -7.6638539    444.92222  0.024029068  0.023935572            3 
 1544000    1.0028289   -7.6353322    445.54512  0.024047124  0.023928827            2 
 1545000   0.98607924   -7.6976596    443.92367  0.023944103  0.023922048            2 
 1546000    1.0029381   -7.6815909    444.07519  0.023936783  0.023915182            2 
 1547000   0.98733903   -7.6412055     444.8159   0.02396121  0.023908377            2 
 1548000    1.0025657   -7.6613214     445.4797  0.023981465   0.02390151            2 
 1549000    1.0130038    -7.693456    444.93012  0.023936417  0.023894773            4 
 1550000   0.98266994   -7.6662824    443.70951   0.02385535  0.023887939            2 
 1551000    1.0160849   -7.6741281    445.87095  0.023956101  0.023881257            2 
 1552000    1.0026807   -7.6440977    446.33036  0.023965333  0.023874489            4 
 1553000    1.0084285   -7.6593123    446.21923  0.023943938  0.023867844            1 
 1554000   0.99210926   -7.6536111     446.2669  0.023931086   0.02386114            2 
 1555000   0.99205668    -7.664729    445.15156  0.023855925  0.023854461            2 
 1556000    1.0055267   -7.6700781    447.23904  0.023952391  0.023847676            5 
 1557000    1.0134991   -7.6525908    446.05758  0.023873773  0.023840897            1 
 1558000    1.0087344   -7.7181793    445.46501  0.023826755  0.023834129            1 
 1559000   0.98710408   -7.6576271    446.41584  0.023862296  0.023827204            1 
 1560000    1.0166169   -7.6413933    447.83306  0.023922706  0.023820461            1 
 1561000   0.98992725   -7.6520185    447.84315   0.02390792  0.023813668            1 
 1562000   0.98001733   -7.6820715    446.50269    0.0238211  0.023806927            2 
 1563000   0.99900756   -7.6910454    447.16808  0.023841335  0.023800028            2 
 1564000   0.98728805   -7.6718417    447.92455  0.023866397  0.023793212            5 
 1565000   0.99444043   -7.6727967    447.63352  0.023835651  0.023786448            2 
 1566000    1.0077509   -7.6796367    446.63309  0.023767193  0.023779659            5 
 1567000   0.99312402   -7.6605378    448.45077   0.02384869  0.023772889            1 
 1568000   0.98365421    -7.731148    447.37243  0.023776171   0.02376598            1 
 1569000    1.0069796   -7.6978014     447.9939  0.023794025  0.023759079            1 
 1570000   0.98708513    -7.672432    448.45323   0.02380325  0.023752239            1 
 1571000   0.98275319   -7.6634542    448.57383  0.023794496  0.023745423            4 
 1572000   0.99162362   -7.7238755    446.73555   0.02368191  0.023738505            2 
 1573000   0.97998987   -7.7058281      448.217  0.023745338  0.023731535            1 
 1574000    1.0115621   -7.6688484    447.75837  0.023705971  0.023724687            3 
 1575000   0.99482115   -7.6875959    449.19373  0.023766864  0.023717813            2 
 1576000    1.0114762   -7.6645608    448.62853  0.023721898   0.02371096            4 
 1577000    1.0080298   -7.7026065    449.29872   0.02374227  0.023704133            3 
 1578000   0.98381322   -7.6489769    449.50235  0.023737978  0.023697382            1 
 1579000   0.97307375   -7.6960027    450.24671  0.023762228  0.023690527            1 
 1580000    1.0099208    -7.714674    449.50068  0.023707842  0.023683589            2 
 1581000   0.99053344     -7.71567    449.73843  0.023705378  0.023676719            2 
 1582000   0.99669563   -7.7049099    449.64867  0.023685665  0.023669867            3 
 1583000   0.99597349   -7.6961091    451.69085  0.023778209  0.023663168            2 
 1584000     1.014843   -7.7011968    450.61884  0.023706799  0.023656439            4 
 1585000   0.97952978   -7.7002515    451.46491  0.023736325  0.023649677            1 
 1586000    1.0009817   -7.6743654    452.12424  0.023756002   0.02364294            4 
 1587000    1.0091228   -7.7177476    451.18944  0.023691947  0.023636213            2 
 1588000     1.002076   -7.6961567    451.15736  0.023675344  0.023629522            2 
 1589000   0.96130287   -7.6378014    451.41983   0.02367421  0.023622902            1 
 1590000    1.0116776   -7.6780291    452.81503  0.023732444    0.0236163            2 
 1591000   0.99237149   -7.6832422    451.75857  0.023662192  0.023609644            2 
 1592000    1.0144066   -7.7110148     452.3247  0.023676963  0.023603056            1 
 1593000    1.0146195    -7.698805    452.69503  0.023681473  0.023596578            2 
 1594000   0.98537945   -7.6969442     452.5959  0.023661434  0.023590098            2 
 1595000    0.9924749   -7.7074979    453.63198   0.02370073  0.023583608            2 
 1596000    0.9772486   -7.6789583    454.30844  0.023721201  0.023577114            1 
 1597000   0.98197035   -7.7064697    453.34981  0.023656325  0.023570692            1 
 1598000    0.9751113   -7.7033208    454.16377  0.023683968   0.02356418            6 
 1599000    1.0086974   -7.7007346    454.95334  0.023710305  0.023557668            2 
 1600000   0.99828023   -7.7245529    453.70788  0.023630619  0.023551237            4 
 1601000   0.99916457   -7.7272077    454.35692  0.023649642  0.023544709            3 
 1602000   0.99554254   -7.6902026    455.17629  0.023677501  0.023538248            1 
 1603000   0.98193154   -7.6720166    455.03874   0.02365558  0.023531739            5 
 1604000   0.99411918   -7.6928333    455.78978  0.023679851  0.023525279            4 
 1605000   0.97157392   -7.6808804    455.50093    0.0236501   0.02351881            3 
 1606000   0.97762603   -7.7291128    454.62342  0.023589841  0.023512346            6 
 1607000   0.98804959   -7.7046368    455.39997  0.023615431  0.023505757            5 
 1608000   0.99228522   -7.7120192    454.51177  0.023554715  0.023499095            1 
 1609000   0.98650084   -7.7141399    454.54483  0.023541787    0.0234924            2 
 1610000   0.99784788   -7.7026477    455.46928  0.023575014  0.023485799            3 
 1611000   0.96877582   -7.6962642    454.12771  0.023490984  0.023479205            1 
 1612000   0.98618298   -7.7028581    455.79752  0.023562734  0.023472606            2 
 1613000    1.0073779   -7.6786207    456.35595  0.023576976   0.02346607            2 
 1614000    1.0122671   -7.7001706    456.55866  0.023572834  0.023459437            1 
 1615000    0.9948955    -7.701991    456.17517   0.02353845  0.023452802            2 
 1616000    0.9899443   -7.7235181     456.1041   0.02352022  0.023446179            1 
 1617000   0.99795664   -7.7183046    456.73084  0.023537973  0.023439481            1 
 1618000    0.9843276   -7.7184258    456.64994  0.023519259   0.02343283            4 
 1619000   0.99364101    -7.701085    455.89212  0.023465726  0.023426245            3 
 1620000   0.96887695   -7.7360084    455.55495  0.023433896  0.023419557            3 
 1621000    1.0006892   -7.6904478     456.6452  0.023475489  0.023412843            2 
 1622000   0.98519413   -7.6648342    456.63855  0.023460674    0.0234061            2 
 1623000    0.9637265    -7.689569    458.17613  0.023525166  0.023399416            1 
 1624000   0.97719911   -7.7127073    457.95277  0.023499219  0.023392703            1 
 1625000   0.98721157   -7.6927125    457.36947  0.023454845  0.023385909            4 
 1626000    1.0106115    -7.712442    457.41613  0.023442811  0.023379157            1 
 1627000    0.9860804   -7.6976688    458.28371  0.023472839   0.02337252            2 
 1628000   0.98215262   -7.6754996    459.31036  0.023510973  0.023365959            3 
 1629000   0.99803233   -7.7398448    458.22356  0.023440943  0.023359349            1 
 1630000    1.0078308    -7.747318    457.88758  0.023409386  0.023352745            2 
 1631000   0.98741619   -7.7117399    458.27799   0.02341498  0.023346099            2 
 1632000   0.97047091   -7.7254804    459.54036  0.023465092  0.023339377            2 
 1633000   0.99554714   -7.7133078    457.98313  0.023371256  0.023332714            2 
 1634000    0.9846451   -7.6951983    459.19392  0.023418703   0.02332601            3 
 1635000   0.99682853   -7.7223351    459.09542  0.023399359  0.023319385            1 
 1636000    1.0005625   -7.6925557    459.10533  0.023385561  0.023312677            3 
 1637000   0.99594339   -7.7309758    459.05261  0.023368591  0.023305942            1 
 1638000   0.98443523   -7.7120298    460.79615  0.023443028  0.023299284            1 
 1639000   0.98732353   -7.7162122    460.40172   0.02340867  0.023292688            2 
 1640000   0.96429488   -7.7112185    459.46998  0.023347052  0.023285998            4 
 1641000   0.99166685   -7.6992603    459.76856  0.023347987  0.023279412            1 
 1642000   0.97174684   -7.6843259    460.54944  0.023373398  0.023272915            1 
 1643000   0.98120999   -7.7067919    460.33685  0.023348389   0.02326627            2 
 1644000    1.0050223   -7.7464189    459.24861  0.023279025  0.023259537            2 
 1645000    1.0120877   -7.7401669    460.02373   0.02330414  0.023252715            1 
 1646000    0.9794336   -7.7451749    460.45743  0.023311939  0.023245948            2 
 1647000   0.96504775   -7.6857162     461.2923  0.023340027   0.02323937            2 
 1648000      0.99852   -7.7121564    462.49206  0.023386532  0.023232812            1 
 1649000    0.9741483   -7.6974712     461.6188  0.023328219  0.023226187            2 
 1650000   0.97307169   -7.7362943    460.47736  0.023256432  0.023219519            2 
 1651000   0.99478727   -7.6981766    462.31173  0.023334935  0.023212891            1 
 1652000    0.9817779   -7.7075681    460.55193  0.023232038  0.023206249            3 
 1653000   0.97702849   -7.7397374    461.33735   0.02325758  0.023199615            1 
 1654000   0.97440887   -7.7105449    462.09166  0.023281522  0.023192946            4 
 1655000   0.97215865   -7.7434694    462.71567  0.023298876  0.023186365            1 
 1656000   0.96896601   -7.7015977    462.18176  0.023257939  0.023179672            1 
 1657000   0.99688721   -7.7102056    462.88966  0.023279504  0.023173034            2 
 1658000   0.98384096   -7.7107656    462.51267  0.023246515  0.023166452            2 
 1659000   0.98228276    -7.710351    462.96182  0.023255064  0.023159852            3 
 1660000   0.98671887   -7.7457247     463.5491  0.023270537  0.023153328            2 
 1661000   0.97594673   -7.6860576    463.73379  0.023265793   0.02314674            2 
 1662000   0.97126662   -7.7166963    464.23345  0.023276847  0.023140207            2 
 1663000   0.99275053   -7.7040524    463.58992  0.023230604  0.023133649            1 
 1664000   0.99355971   -7.7156522    464.12546  0.023243463  0.023127044            2 
 1665000   0.99486785   -7.7057815    463.61359  0.023203883  0.023120496            3 
 1666000   0.97665054   -7.7494534    463.87049  0.023202806  0.023113904            5 
 1667000   0.96526241   -7.7645151    463.82793  0.023186759  0.023107214            3 
 1668000   0.97283067   -7.7414566    462.66592  0.023114804  0.023100558            1 
 1669000    0.9685902    -7.742326    463.71575  0.023153373  0.023093961            1 
 1670000   0.99054936   -7.7275502    465.43632  0.023225365  0.023087373            2 
 1671000   0.98274545    -7.721327    464.50745  0.023165143  0.023080759            2 
 1672000   0.98387836   -7.7368035    463.41174  0.023096678  0.023074163            1 
 1673000    0.9723739   -7.6852185    465.26321  0.023175095  0.023067579            1 
 1674000    0.9835067   -7.6953577    466.83491  0.023239492  0.023061116            1 
 1675000    1.0076093   -7.6350666    467.32424  0.023249962  0.023054674            4 
 1676000    1.0016844   -7.6967713    466.31696  0.023186006  0.023048289            1 
 1677000   0.97341508   -7.7239247    466.88552  0.023200433  0.023041816            1 
 1678000   0.98628186    -7.723201    465.65805  0.023125648   0.02303536            4 
 1679000   0.98722464   -7.7070424    467.21616  0.023189208  0.023028766            2 
 1680000   0.99501913   -7.7011098    465.97454  0.023113816   0.02302219            2 
 1681000   0.97481896   -7.7222768    466.99139  0.023150475  0.023015589            2 
 1682000   0.97759466   -7.7040898    465.73451  0.023074441  0.023008997            1 
 1683000   0.99869283   -7.6971981    465.75378  0.023061685  0.023002416            2 
 1684000   0.97258642   -7.6973666    466.51503   0.02308566  0.022995857            2 
 1685000    1.0008568   -7.7001365    466.75598  0.023083876  0.022989237            3 
 1686000   0.97420478   -7.7160465    466.85413  0.023075036  0.022982607            1 
 1687000   0.98504771   -7.7621978    466.36774  0.023037332  0.022975882            2 
 1688000   0.97272941   -7.7033919    467.70982   0.02308994  0.022969115            1 
 1689000   0.98674725      -7.7037    467.00585  0.023041536  0.022962444            1 
 1690000   0.96140292    -7.725517     467.3228  0.023043531   0.02295581            1 
 1691000   0.96349987   -7.7058987    467.55863  0.023041525  0.022949178            2 
 1692000   0.96901973   -7.7150124    467.57509  0.023028718  0.022942479            1 
 1693000   0.98024155   -7.7310367     466.6786  0.022970988  0.022935733            1 
 1694000   0.97183853   -7.7125768    467.38064  0.022991964   0.02292898            3 
 1695000   0.96013241   -7.7453239    467.94454  0.023006123  0.022922201            2 
 1696000   0.98592775   -7.7613888    465.72803  0.022883649  0.022915464            1 
 1697000   0.97709105   -7.7276837    469.49271  0.023055034  0.022908647            2 
 1698000   0.97394258   -7.7078795    468.29998   0.02298292  0.022901933            2 
 1699000   0.96809284   -7.7234744    468.18123  0.022963568  0.022895236            1 
 1700000   0.98220938     -7.74025     466.6381  0.022874417  0.022888396            4 
 1701000   0.98227701   -7.7276014    468.21944   0.02293844    0.0228816            3 
 1702000   0.98394942   -7.7295901    468.58705  0.022942962  0.022874828            1 
 1703000   0.98124114   -7.7347522    469.05159  0.022952221  0.022868168            1 
 1704000   0.96273661   -7.7581487    469.68899  0.022969923  0.022861473            1 
 1705000   0.99721786   -7.7353242    469.95239  0.022969325  0.022854817            1 
 1706000   0.96219617   -7.7228612    468.76627  0.022897922  0.022848078            2 
 1707000   0.96515363   -7.7318291    469.25102  0.022908173  0.022841355            2 
 1708000   0.96700788   -7.6995948    470.61395  0.022961258  0.022834636            4 
 1709000   0.97032153   -7.7477356    469.53871  0.022895393  0.022827788            4 
 1710000   0.98993272   -7.7616432    468.22104   0.02281779  0.022820959            1 
 1711000   0.98299038   -7.7305023    469.98115  0.022890179  0.022814131            2 
 1712000   0.98543867   -7.7386894    470.07857   0.02288155  0.022807309            7 
 1713000   0.96222113   -7.7284225    470.44866  0.022886197  0.022800472            3 
 1714000    0.9810028   -7.7386909    468.59604  0.022782771  0.022793562            3 
 1715000   0.96945979    -7.760142    468.78835  0.022778831  0.022786691            2 
 1716000   0.99851581   -7.7539293     469.3812  0.022794347  0.022779752            2 
 1717000   0.96437639   -7.7816843    467.92804  0.022710544  0.022772706            4 
 1718000   0.97999639   -7.7513257    468.52354   0.02272621  0.022765767            3 
 1719000   0.99038416   -7.7581553    469.08579  0.022740246  0.022758761            2 
 1720000   0.99593478   -7.7581366    469.23167  0.022734093  0.022751763            4 
 1721000   0.96577204   -7.7448858    469.31708  0.022725019  0.022744729            3 
 1722000   0.97370067   -7.7769572    470.03377  0.022746504   0.02273781            2 
 1723000   0.96922603   -7.7464379    470.83873  0.022772235  0.022730939            1 
 1724000    0.9786056   -7.7244507    470.09685  0.022723166  0.022724038            2 
 1725000   0.97593366   -7.7260105    471.87599  0.022795942  0.022717148            3 
 1726000   0.97939259   -7.7497817    471.55805  0.022767383  0.022710289            1 
 1727000    0.9733125   -7.7534213    471.21072  0.022737441  0.022703447            1 
 1728000   0.99407506   -7.7449692     471.4212  0.022734433   0.02269674            2 
 1729000     0.964135   -7.7642666    472.22049  0.022759808  0.022689995            5 
 1730000   0.99320332   -7.7939426    471.47662   0.02271082  0.022683196            3 
 1731000   0.97577889   -7.7443484    470.61485  0.022656213    0.0226764            2 
 1732000    0.9814123   -7.7608033    472.08374  0.022713806  0.022669566            2 
 1733000   0.98036598   -7.7518572    471.80763  0.022687422   0.02266274            3 
 1734000   0.97080042   -7.7534243    471.83504  0.022675656  0.022655868            3 
 1735000    0.9680424   -7.7413373    473.91532  0.022762504  0.022649072            2 
 1736000   0.95528855   -7.7485432    472.51992  0.022682408  0.022642294            2 
 1737000   0.97435573    -7.720156    472.19401  0.022653714  0.022635463            1 
 1738000   0.97607026   -7.7513151    471.97667  0.022630259  0.022628564            1 
 1739000   0.99357939   -7.7554882    472.74263   0.02265395    0.0226216            2 
 1740000   0.97074537     -7.76369     472.9728  0.022651954  0.022614657            3 
 1741000   0.96687988   -7.7407044    473.54267   0.02266622   0.02260788            2 
 1742000   0.97751791   -7.7440478    473.13245  0.022633584   0.02260104            2 
 1743000   0.98781432   -7.7513721    473.84672  0.022654749  0.022594194            1 
 1744000   0.95307694   -7.7365977    474.07813  0.022652816  0.022587323            4 
 1745000   0.98211789    -7.763074    472.90816  0.022583962  0.022580486            2 
 1746000   0.96836747   -7.7980016    473.22388  0.022586096  0.022573589            5 
 1747000   0.96232223   -7.7803281    473.17889  0.022571021  0.022566684            2 
 1748000   0.96562014   -7.7455972     474.2037  0.022606965  0.022559924            1 
 1749000   0.95400538   -7.7186424     475.1212  0.022637755  0.022553217            1 
 1750000   0.95892359   -7.7771599    473.54442  0.022549734  0.022546493            2 
 1751000   0.96439952   -7.7397375    475.76701  0.022642633  0.022539797            1 
 1752000   0.96148819   -7.7692776    474.59936   0.02257417  0.022533074            2 
 1753000    0.9773796   -7.7551273     475.1893  0.022589337  0.022526326            1 
 1754000   0.97658263   -7.7205775    475.31333  0.022582351  0.022519545            3 
 1755000   0.98537359   -7.7436543    475.21739  0.022564929  0.022512768            3 
 1756000   0.98157218   -7.7557526    474.89614  0.022536833  0.022505997            1 
 1757000      0.96771   -7.7705602    474.36217   0.02249868   0.02249917            4 
 1758000   0.97992963    -7.795272     474.8037  0.022506812  0.022492244            1 
 1759000   0.97880488   -7.7813657    474.35857  0.022472928   0.02248531            2 
 1760000   0.98991945   -7.7681699    475.24501  0.022502131  0.022478408            3 
 1761000   0.94498532   -7.7951948    475.17207  0.022485901  0.022471554            2 
 1762000    0.9909953   -7.7440148    476.00016  0.022512304  0.022464773            1 
 1763000   0.96473643    -7.719287    476.69303  0.022532285  0.022458038            1 
 1764000   0.97140452   -7.7431382    476.60313  0.022515265  0.022451229            3 
 1765000   0.98534392   -7.7651284     477.4546   0.02254271  0.022444452            1 
 1766000    0.9691178   -7.7746379     475.6907  0.022446711  0.022437653            2 
 1767000   0.99410083   -7.7828789    476.27071  0.022461361  0.022430898            2 
 1768000   0.99069353   -7.7286105    476.93638  0.022480033  0.022424136            3 
 1769000   0.95043932   -7.7313238    477.64598  0.022500753  0.022417455            1 
 1770000   0.97250779   -7.7627693    477.09177  0.022461948  0.022410707            2 
 1771000   0.97634188    -7.718146    477.87963  0.022486337  0.022404027            2 
 1772000   0.95290057   -7.7499469      477.155  0.022439569  0.022397328            1 
 1773000   0.97377613   -7.7589794    478.38797  0.022484864  0.022390658            5 
 1774000   0.99006734   -7.7621512    478.76092  0.022489709   0.02238395            2 
 1775000   0.96148648   -7.7982626    477.09042  0.022398611   0.02237726            2 
 1776000   0.95524573   -7.7590364    477.24028  0.022393031  0.022370371            2 
 1777000   0.98166826   -7.7712923    479.13899  0.022469471  0.022363621            2 
 1778000   0.94496512   -7.7814299    477.76251  0.022392318  0.022356808            2 
 1779000    0.9584636   -7.7504523    478.74168  0.022425599  0.022350036            3 
 1780000   0.93007642     -7.74529    478.67238  0.022409755  0.022343245            3 
 1781000   0.93206555   -7.7480763    477.57365  0.022345763  0.022336463            2 
 1782000   0.96648548   -7.7689347    478.23876  0.022364327  0.022329626            3 
 1783000   0.98175364    -7.760237    478.66786  0.022371839  0.022322883            3 
 1784000   0.97583061   -7.7894525    478.99984  0.022374805  0.022316187            1 
 1785000   0.98867252   -7.7620445    477.91349  0.022311554   0.02230945            5 
 1786000   0.95995727   -7.7414242    478.35034  0.022319445  0.022302686            3 
 1787000   0.95717167   -7.7627796    478.80995  0.022328388  0.022295881            2 
 1788000   0.96929584   -7.7466762     481.2642  0.022430285  0.022289209            1 
 1789000   0.96830658   -7.7261217    479.85522  0.022352116  0.022282515            2 
 1790000   0.96326972   -7.7486027    479.56671  0.022326197  0.022275786            2 
 1791000   0.96083889   -7.8045554    479.39419  0.022305704  0.022269036            4 
 1792000   0.96392636   -7.7812789    479.48942  0.022297685  0.022262282            2 
 1793000   0.97471919   -7.7792209    479.28039  0.022275534  0.022255533            2 
 1794000   0.95814447   -7.7520522    479.45446  0.022271203  0.022248787            1 
 1795000   0.96323529   -7.7732771    480.94503  0.022327996   0.02224203            2 
 1796000   0.98467623   -7.7856681    480.24112  0.022282903  0.022235299            1 
 1797000   0.98277269    -7.778491    480.37502  0.022276712  0.022228506            2 
 1798000   0.97075762   -7.7780421    480.95243  0.022291084  0.022221747            1 
 1799000     0.944401   -7.8028034    480.79466  0.022271385  0.022215007            2 
 1800000   0.97194168   -7.7864405    480.43818  0.022242509  0.022208238            2 
 1801000   0.95434821   -7.7414123     481.3777   0.02227363   0.02220147            3 
 1802000   0.95746931   -7.7476673    481.47932  0.022265969   0.02219466            1 
 1803000   0.97432887   -7.7826319    480.68812  0.022217051  0.022187872            1 
 1804000   0.97807776   -7.7835748    479.58933  0.022153979   0.02218107            2 
 1805000   0.96930346   -7.7621336    481.66049  0.022237327  0.022174282            1 
 1806000   0.98996186   -7.8002373    480.33715  0.022163951    0.0221674            2 
 1807000   0.94164594   -7.7645731    481.44107  0.022202595  0.022160566            1 
 1808000   0.94714806   -7.7837286    481.21102  0.022179712  0.022153754            2 
 1809000   0.95068381    -7.798578     480.9055  0.022153377  0.022146968            1 
 1810000   0.96577126   -7.7595101    482.31604  0.022206079  0.022140193            3 
 1811000   0.98331926   -7.8180415    481.63303  0.022162389  0.022133355            2 
 1812000   0.93933206   -7.7689294    482.47257  0.022188768  0.022126557            3 
 1813000   0.96700118   -7.7540744    483.05448  0.022203276  0.022119807            1 
 1814000   0.96248112   -7.7580353    482.97661  0.022187459  0.022113045            1 
 1815000   0.95870996   -7.8007958    481.64751  0.022114211  0.022106325            1 
 1816000   0.97085711   -7.7783815    481.18263  0.022080701  0.022099449            3 
 1817000   0.97530985   -7.7707862     483.6294  0.022180765  0.022092678            3 
 1818000   0.96344855   -7.7812849    482.75745  0.022128596  0.022085997            3 
 1819000   0.95229243   -7.7946079    482.78858  0.022117857  0.022079281            1 
 1820000   0.97741449   -7.7844326    482.38249   0.02208711   0.02207252            1 
 1821000   0.95433223   -7.7605668    483.31687  0.022117741  0.022065734            3 
 1822000   0.94475789   -7.7674753    483.69923   0.02212309  0.022058929            1 
 1823000   0.93937014   -7.8101167    483.79226  0.022115207   0.02205214            1 
 1824000     0.953035   -7.8082577     482.1008  0.022025804  0.022045352            3 
 1825000   0.97727133   -7.8226218    481.59665  0.021990715  0.022038589            1 
 1826000   0.94894327   -7.7737079    484.02194  0.022089355  0.022031702            1 
 1827000   0.96671907    -7.818312    483.49789  0.022053361  0.022024856            2 
 1828000   0.95505504   -7.8007026    484.19543  0.022073096  0.022018103            3 
 1829000    0.9580615   -7.7828445    485.56282  0.022123329  0.022011319            2 
 1830000   0.94112719   -7.7827521    483.43755   0.02201446  0.022004566            2 
 1831000   0.97228404   -7.7729434    484.67824  0.022058904   0.02199774            2 
 1832000   0.96180174   -7.7786467    484.35007  0.022031936  0.021990989            1 
 1833000   0.95543204   -7.7943799    485.30796  0.022063464  0.021984155            2 
 1834000    0.9551069   -7.7553153    485.68595  0.022068609  0.021977325            3 
 1835000   0.94978509   -7.7983859    486.43921  0.022090791  0.021970463            6 
 1836000   0.96827123   -7.8055519    484.63018  0.021996649  0.021963562            1 
 1837000   0.97968498   -7.8107763    484.61047  0.021983781  0.021956694            3 
 1838000   0.95320248   -7.8273857    483.70917  0.021930956  0.021949826            2 
 1839000   0.95760399   -7.7678587    486.53372  0.022047024  0.021942938            3 
 1840000   0.96606506   -7.7845069    485.76195  0.022000088  0.021936088            3 
 1841000   0.96972269   -7.7802894    486.60288  0.022026203  0.021929335            2 
 1842000   0.94965307   -7.7699468    486.07946  0.021990565  0.021922683            1 
 1843000   0.94205137   -7.7717385    485.45847  0.021950555  0.021915953            3 
 1844000   0.95754513   -7.8291007    485.44672   0.02193812   0.02190915            1 
 1845000   0.94990392   -7.8065091    485.96407  0.021949597  0.021902354            1 
 1846000   0.94756085   -7.7941432     486.3018  0.021952952   0.02189554            3 
 1847000   0.94860981   -7.7840441    485.54047  0.021906717  0.021888854            5 
 1848000   0.97977594   -7.8321293     485.6911  0.021901655  0.021882076            2 
 1849000   0.94923352   -7.7831618    486.30851  0.021917636  0.021875236            4 
 1850000   0.95861696   -7.7834555    487.73861  0.021970208   0.02186852            1 
 1851000    0.9506406    -7.804843    488.01144  0.021970621  0.021861834            2 
 1852000   0.94409994   -7.7669721    488.48173  0.021979919  0.021855215            2 
 1853000   0.96914446   -7.7610718    488.53998  0.021970677  0.021848633            2 
 1854000   0.94507341   -7.7605201     487.7477  0.021923215  0.021841985            2 
 1855000   0.95902106    -7.819172    488.07767  0.021926221  0.021835311            2 
 1856000    0.9514506    -7.811622    487.60446   0.02189316  0.021828551            2 
 1857000   0.93524654   -7.7699631    488.63057  0.021927418  0.021821868            3 
 1858000   0.95089051   -7.7773665    487.54323  0.021866848  0.021815123            3 
 1859000   0.95011981   -7.8023019    488.14232   0.02188194  0.021808465            3 
 1860000   0.97582216   -7.7748114    489.41662  0.021927268  0.021801835            2 
 1861000   0.95475531   -7.7835736    488.00583  0.021852312  0.021795219            4 
 1862000   0.95243299   -7.8106743    489.32904  0.021899796  0.021788487            2 
 1863000   0.93328199    -7.803401    488.93832  0.021870564  0.021781734            2 
 1864000   0.92196379   -7.8429673    486.70818  0.021759128  0.021774933            2 
 1865000   0.95561474    -7.837143    486.61663   0.02174337  0.021768051            2 
 1866000   0.95502189   -7.7934737    490.00947  0.021883238  0.021761208            3 
 1867000   0.95670406   -7.7991431    488.64266   0.02181051  0.021754441            3 
 1868000   0.95835797   -7.7948889    487.63245  0.021753767  0.021747633            2 
 1869000   0.94150996   -7.7978764    489.48649  0.021824795  0.021740908            1 
 1870000   0.95509101   -7.8099194    488.96951  0.021790085  0.021734169            2 
 1871000   0.94992249   -7.7951253    488.96219  0.021778113  0.021727446            2 
 1872000   0.93178643   -7.8068502    488.52207  0.021746887  0.021720626            2 
 1873000   0.94771627   -7.8202341    489.17027  0.021764116  0.021713857            3 
 1874000   0.94816784   -7.7795547    490.13788   0.02179553  0.021707081            2 
 1875000   0.96206815    -7.759091    491.00849  0.021822599  0.021700365            2 
 1876000   0.94850225   -7.8331539    489.36287  0.021737867  0.021693701            2 
 1877000   0.94156712   -7.8016074    489.90904  0.021750535  0.021686966            1 
 1878000   0.96546428   -7.8047108    491.22638  0.021797408  0.021680294            1 
 1879000   0.95859456   -7.8260606    490.69426  0.021762208  0.021673652            1 
 1880000   0.93668699   -7.8404249    489.75118  0.021708829  0.021667015            1 
 1881000   0.93339372   -7.8140812    490.03591  0.021709902   0.02166035            1 
 1882000   0.96888311   -7.8306485    490.32735  0.021711271  0.021653763            2 
 1883000   0.96772422   -7.8055938    491.46967  0.021750295  0.021647157            2 
 1884000   0.96052338   -7.8509891    490.59685  0.021700144   0.02164053            1 
 1885000   0.93194819   -7.8358635    491.35373  0.021722092  0.021633858            1 
 1886000   0.93553565   -7.7808985    492.77296  0.021773284  0.021627238            2 
 1887000   0.95039903   -7.8189028    491.71909  0.021715205  0.021620665            2 
 1888000     0.935833    -7.808698    491.96282  0.021714461  0.021614139            3 
 1889000    0.9602228   -7.8285643    491.69663  0.021691222  0.021607558            3 
 1890000   0.94455257   -7.8049597    492.09809  0.021697447  0.021600931            2 
 1891000   0.95228921   -7.8117228     492.8474  0.021718993   0.02159438            1 
 1892000   0.93423587   -7.8422516    493.20325  0.021723188  0.021587806            3 
 1893000   0.98304458   -7.8367973    492.32374  0.021672994  0.021581192            2 
 1894000   0.96948016   -7.7957678    493.38989   0.02170846  0.021574641            2 
 1895000   0.95664187   -7.8432204    493.04069  0.021681648  0.021568096            3 
 1896000   0.93458303   -7.7987733    492.83958  0.021661374  0.021561542            3 
 1897000   0.95047743   -7.8091965     493.0183  0.021657806  0.021554896            2 
 1898000   0.93831137   -7.8245568     493.3262  0.021659914  0.021548315            1 
 1899000   0.94949385   -7.7923666    494.70018  0.021708802  0.021541724            2 
 1900000   0.94471656   -7.8280796    494.21315  0.021676015  0.021535169            3 
 1901000   0.95106987    -7.805534    493.34454  0.021626536  0.021528522            2 
 1902000   0.93881043   -7.8478767    492.78835  0.021590797  0.021521868            5 
 1903000   0.95746375   -7.7926948    493.37129  0.021604979  0.021515196            1 
 1904000   0.94343456   -7.8049052    493.61011  0.021604084    0.0215086            2 
 1905000     0.952706   -7.8134096    494.14995  0.021616358   0.02150198            1 
 1906000   0.93881825   -7.8226103    494.01951  0.021599314  0.021495338            1 
 1907000   0.94791384    -7.863555    494.00146  0.021587199  0.021488615            1 
 1908000   0.95136004   -7.8558158    492.93164   0.02152916  0.021481944            1 
 1909000   0.97888215   -7.7977643     494.6817  0.021594277  0.021475338            1 
 1910000   0.94167301   -7.8164734    494.55547  0.021577464  0.021468731            4 
 1911000   0.96658681   -7.8357407    493.83939  0.021534947  0.021462188            1 
 1912000    0.9388684   -7.8443219    495.12073   0.02157953  0.021455601            2 
 1913000   0.95369614   -7.8362146    494.57322  0.021544399  0.021449036            1 
 1914000   0.94632102   -7.8218651    494.86705  0.021545935  0.021442441            1 
 1915000   0.93859797   -7.8168351    496.66288  0.021612832  0.021435888            2 
 1916000   0.95136739   -7.8084232      495.351  0.021544494  0.021429354            1 
 1917000   0.94886444   -7.8422055    494.11573  0.021479557  0.021422815            4 
 1918000   0.93111135   -7.7982945    495.95905  0.021548447  0.021416227            3 
 1919000   0.95276466   -7.8097155    495.25563  0.021506671  0.021409673            1 
 1920000   0.93782075   -7.8287091    495.37026  0.021500445   0.02140307            1 
 1921000   0.94538331   -7.8163852    495.95406  0.021514579  0.021396508            2 
 1922000   0.93163933   -7.8316482     496.9461  0.021546397  0.021389954            1 
 1923000   0.94959583   -7.8065054    496.57244     0.021519   0.02138344            2 
 1924000   0.93151736   -7.8247467    496.70844  0.021513706  0.021376871            2 
 1925000   0.94777704   -7.8413522    495.10644  0.021433179  0.021370263            2 
 1926000   0.97613139   -7.8310043    496.78792  0.021494804  0.021363704            2 
 1927000   0.92667867   -7.8223327    497.01459  0.021493452    0.0213571            3 
 1928000   0.95896237    -7.851601    496.44017  0.021457476  0.021350454            3 
 1929000   0.93702632   -7.8608718    497.23265  0.021480588  0.021343901            1 
 1930000   0.95382739   -7.8600904    495.70958  0.021403695  0.021337383            3 
 1931000    0.9544501   -7.8637471    496.07948  0.021408574  0.021330823            1 
 1932000   0.94300469   -7.8704565    496.32466  0.021408068  0.021324255            2 
 1933000   0.93498575   -7.7931406    498.33364  0.021483602  0.021317738            2 
 1934000   0.92775988    -7.826269    496.74542   0.02140406  0.021311215            2 
 1935000   0.94060334    -7.834508    498.14142  0.021453119  0.021304677            3 
 1936000   0.93879671   -7.8923386    496.02705  0.021351027  0.021298123            5 
 1937000   0.94803547   -7.8049516    499.08008  0.021471351  0.021291567            1 
 1938000   0.95284967   -7.8482994    498.28673  0.021426158  0.021285052            2 
 1939000   0.93085648   -7.8007613    499.36496  0.021461448  0.021278624            3 
 1940000   0.95852481   -7.8752612      498.212  0.021400859  0.021272104            6 
 1941000   0.92243407   -7.8069248    499.90118  0.021462355  0.021265615            2 
 1942000   0.93544846   -7.8445935    498.42807  0.021388091  0.021259177            3 
 1943000   0.95438361   -7.8286224    498.99599  0.021401441  0.021252794            3 
 1944000   0.95009917   -7.8421036     498.3378  0.021362217   0.02124628            2 
 1945000   0.94486518   -7.8491736    498.76342   0.02136947  0.021239801            2 
 1946000   0.92538604   -7.8445295     498.6632  0.021354197  0.021233303            1 
 1947000   0.93228438   -7.8538913     499.3893  0.021374307  0.021226917            4 
 1948000   0.94198055   -7.8457554    499.38459  0.021363133  0.021220508            3 
 1949000   0.92998485   -7.8477313    499.78924  0.021369473  0.021214116            2 
 1950000     0.939391   -7.8723823    498.46627  0.021301977  0.021207662            3 
 1951000   0.96878996   -7.8308259    500.82831  0.021391949  0.021201219            1 
 1952000   0.94190856   -7.8508098    500.25692  0.021356597  0.021194811            1 
 1953000   0.93715402   -7.8468421    499.89687  0.021330298   0.02118842            2 
 1954000   0.93667559   -7.8922883    499.94842  0.021321581  0.021181984            1 
 1955000   0.93120925   -7.8396603    501.07072  0.021358513  0.021175628            2 
 1956000   0.90971904   -7.8187887    501.57785    0.0213692  0.021169336            2 
 1957000   0.94319491     -7.82027    502.14921   0.02138261  0.021163047            2 
 1958000   0.94843551   -7.8335433    501.80274  0.021356943  0.021156797            3 
 1959000   0.92217988   -7.8598181    502.09666  0.021358544  0.021150466            3 
 1960000   0.94868994   -7.8516221    500.14123  0.021264508  0.021144009            2 
 1961000   0.93062578   -7.8590644    502.10196  0.021336986  0.021137568       -1e+20 
 1962000   0.92137017   -7.8334311    501.21897  0.021288607  0.021131178            3 
 1963000   0.93313553   -7.8495628    502.27345  0.021322527  0.021124816            3 
 1964000   0.93213642   -7.8428386    502.33583  0.021314317   0.02111852            3 
 1965000   0.91755824   -7.8336258    501.08369  0.021250368  0.021112188            1 
 1966000   0.94476303   -7.8449425    502.22923  0.021288116  0.021105862            1 
 1967000   0.94483953   -7.8719914    501.76889  0.021257791  0.021099537            5 
 1968000   0.93315427   -7.8523148    502.34277  0.021271289  0.021093178            2 
 1969000   0.92677783   -7.8865595    501.06214  0.021206287  0.021086826            8 
 1970000    0.9261814   -7.8353222    502.32518   0.02124895  0.021080558            2 
 1971000   0.93967132   -7.8628181     503.2096  0.021275562  0.021074276            2 
 1972000   0.95164554   -7.8438731    503.11029  0.021260577  0.021068032            1 
 1973000   0.94702148   -7.8503277      504.097  0.021291477  0.021061785            2 
 1974000   0.94312067   -7.8481487    503.92956  0.021273622  0.021055518            1 
 1975000   0.93839586   -7.8787822    503.79004  0.021256964  0.021049254            2 
 1976000   0.93031058   -7.8398841    503.12652  0.021218224  0.021043027            1 
 1977000   0.92298778   -7.8897971    502.83955  0.021195395  0.021036777            4 
 1978000   0.94273092   -7.8179534    505.55912  0.021299255  0.021030516            2 
 1979000   0.91825203   -7.8609953    504.37079  0.021238453  0.021024295            4 
 1980000   0.93360639   -7.8554569    503.86523  0.021206449  0.021017995           12 
 1981000   0.93940342   -7.8472963    504.96796  0.021242132  0.021011713            2 
 1982000   0.93838881   -7.8433805    503.84569  0.021184228   0.02100545            2 
 1983000   0.93000824   -7.8025553    505.41123  0.021239335  0.020999235            1 
 1984000   0.95330303   -7.8589661    504.72245    0.0211997  0.020993051            3 
 1985000   0.93003082   -7.8290191    503.51837  0.021138471  0.020986849            2 
 1986000   0.94903353   -7.8066943    506.41271  0.021249274    0.0209807            2 
 1987000   0.94207936   -7.8532438    504.90983  0.021175551  0.020974478            2 
 1988000   0.94960809   -7.8356343    505.88381  0.021205727  0.020968211            1 
 1989000   0.92101581   -7.8101979    506.32214   0.02121343  0.020961961            1 
 1990000    0.9151612    -7.835693    503.96315  0.021103985  0.020955702            1 
 1991000   0.93819014   -7.8900029     505.1643  0.021143659  0.020949371            2 
 1992000   0.92794579   -7.8577948    506.62155  0.021194007  0.020943085            2 
 1993000   0.91859093   -7.8354745    505.83578  0.021150518  0.020936817            2 
 1994000    0.9545338   -7.8596855    505.03876  0.021106602  0.020930528            4 
 1995000   0.93223153   -7.8266382    506.88273  0.021173046  0.020924291            2 
 1996000   0.91679564    -7.839105    506.08144  0.021128985   0.02091803            2 
 1997000   0.92885509   -7.8935558    506.18882  0.021122885  0.020911763            3 
 1998000   0.92805794    -7.832216     505.7582  0.021094353  0.020905498            2 
 1999000   0.91533472   -7.8319472    507.26831  0.021146753  0.020899283            3 
 2000000    0.9283408    -7.846753    506.90505  0.021121044  0.020893032            5 
 2001000   0.93135069   -7.8952548    506.76046  0.021104467  0.020886748            1 
 2002000   0.93528286   -7.8706629    507.44381   0.02112237  0.020880481            2 
 2003000   0.94736709   -7.8439611    506.74825  0.021082886  0.020874302            1 
 2004000   0.92189778   -7.8708678    507.72866  0.021113135  0.020868108            1 
 2005000   0.93192872   -7.8746082    505.83929  0.021024077  0.020861935            2 
 2006000    0.9259218   -7.9025187    507.62803  0.021087904  0.020855687            5 
 2007000    0.9208133   -7.8570945     507.7052  0.021080601   0.02084949            1 
 2008000    0.9240478   -7.8749981    507.17754  0.021048205  0.020843353            4 
 2009000   0.91933374   -7.8756921    509.15409  0.021119715  0.020837185            8 
 2010000   0.91999059   -7.8936319    507.92689  0.021058329  0.020830997            1 
 2011000   0.92871094   -7.8479862     507.7391  0.021040075  0.020824848            2 
 2012000   0.92821054   -7.8515795    510.07365  0.021126311  0.020818798            2 
 2013000   0.95181915   -7.8242486    508.65109  0.021056926  0.020812705            2 
 2014000   0.91325447   -7.8557708    509.03079  0.021062181  0.020806563            1 
 2015000   0.93931074   -7.8953399    507.68153  0.020995928  0.020800401            3 
 2016000   0.92886803   -7.8829145     507.1352   0.02096293  0.020794235            3 
 2017000   0.93837594   -7.9222301    508.49215    0.0210086  0.020788027            2 
 2018000   0.91811693    -7.888706    508.85767  0.021013284  0.020781798            3 
 2019000   0.92696355   -7.8470019    509.10312  0.021013006  0.020775616            3 
 2020000   0.91909214   -7.8849732    509.29676  0.021010593  0.020769414            2 
 2021000   0.92049697   -7.8668411    509.00052  0.020987981  0.020763189            3 
 2022000   0.92737992   -7.8659802    509.79262  0.021010246  0.020756993            1 
 2023000   0.93049276   -7.8780046     509.8076  0.021000478  0.020750833            1 
 2024000   0.92522581   -7.8771883    509.62647  0.020982645  0.020744669            3 
 2025000   0.92038863   -7.8829638    509.30252  0.020958951  0.020738515            4 
 2026000   0.89468008   -7.8998209    510.18159  0.020984764   0.02073233            2 
 2027000   0.91465282   -7.9053349    509.68812  0.020954124  0.020726167            4 
 2028000   0.93710854   -7.8783943    509.37157  0.020930784  0.020719984            1 
 2029000   0.93116705   -7.8764361    510.56046  0.020969298  0.020713824            2 
 2030000   0.91983792   -7.9032113    508.89974  0.020890794  0.020707664            2 
 2031000   0.93906445   -7.8845997    510.34839  0.020939947  0.020701463            1 
 2032000   0.92795232   -7.8974648     510.4353  0.020933206  0.020695268            2 
 2033000   0.94903017   -7.9034836    509.19148  0.020871925  0.020689097            2 
 2034000   0.92361075   -7.8718042    510.90813  0.020931995  0.020682916            3 
 2035000   0.91594865   -7.9084923    510.11523  0.020889239  0.020676729            2 
 2036000   0.92555648   -7.8868337    510.85757  0.020909364  0.020670549            1 
 2037000   0.92471769   -7.8889701     510.5942  0.020888324  0.020664347            3 
 2038000   0.90296414   -7.8889367    510.43504  0.020871567  0.020658179            2 
 2039000   0.93545679   -7.9191233    512.21107  0.020933917  0.020652009            3 
 2040000   0.95320082   -7.8899212    511.13311  0.020879621  0.020645833            1 
 2041000   0.90754946   -7.8510366    512.25766  0.020915305  0.020639748            2 
 2042000   0.91826294   -7.8601469    512.05245  0.020896688   0.02063363            1 
 2043000   0.90397648   -7.8924458      512.574  0.020907734  0.020627526            5 
 2044000   0.90101672   -7.8791936    511.78311   0.02086526  0.020621387            5 
 2045000   0.91517543   -7.8606767     512.5685  0.020887062  0.020615232            4 
 2046000   0.91771378   -7.9010622    511.58293  0.020836711  0.020609112            3 
 2047000   0.92324182   -7.9019889    512.47797  0.020862969  0.020602894            2 
 2048000   0.92408267   -7.8821854    512.14571  0.020839262  0.020596678            3 
 2049000   0.91527108    -7.871629    512.90348  0.020859911  0.020590525            2 
 2050000   0.95083194   -7.8426604    512.21707  0.020821832  0.020584384            8 
 2051000   0.93635847   -7.8707876    512.44635  0.020820996  0.020578267            2 
 2052000     0.895742    -7.874054     511.9472  0.020790578  0.020572117            7 
 2053000   0.92658673   -7.8810799    512.09163  0.020786314  0.020565912            2 
 2054000    0.9114469    -7.918576    510.82786  0.020724921  0.020559701            3 
 2055000   0.91811531   -7.8916292    512.85786  0.020797156  0.020553404            1 
 2056000   0.92628506   -7.9215181    512.88357  0.020788082  0.020547127            2 
 2057000   0.93101575   -7.8891082    511.42481  0.020718879  0.020540849            3 
 2058000   0.92512276   -7.8765304     513.0944  0.020776417  0.020534716            2 
 2059000   0.90012546   -7.9082517    513.07876  0.020765694  0.020528578            4 
 2060000   0.92237628   -7.8845396    513.51789  0.020773377  0.020522319            2 
 2061000   0.92679906   -7.8176081    514.83111  0.020816396  0.020516187            4 
 2062000    0.9290168   -7.8518682    515.44023  0.020830918  0.020510156            1 
 2063000   0.94139519    -7.873231    514.67376  0.020789859  0.020504051            2 
 2064000   0.91801662   -7.8825232     514.0688  0.020755362  0.020497886            3 
 2065000   0.93632606    -7.883092    513.26336  0.020712807  0.020491719            2 
 2066000    0.8991607   -7.9046564    512.71291  0.020680579  0.020485566            2 
 2067000   0.93371122   -7.9023652    512.98193  0.020681419  0.020479375            2 
 2068000    0.9178124   -7.9416003      512.885  0.020667513  0.020473163            2 
 2069000   0.92265579   -7.9530043    512.41987   0.02063879   0.02046692            4 
 2070000   0.91214318   -7.8745948    515.11925   0.02073749  0.020460791            1 
 2071000    0.9259905   -7.8550711    515.02254  0.020723585  0.020454707            3 
 2072000   0.92732701   -7.8709578    514.34524  0.020686343  0.020448558            2 
 2073000   0.92157381   -7.8765767    515.12528  0.020707721  0.020442366            3 
 2074000   0.92633117   -7.8783963    514.59787  0.020676546  0.020436249            2 
 2075000   0.91160419   -7.9067148    515.27323  0.020693704  0.020430103            8 
 2076000   0.91577141   -7.9209351    515.50155  0.020692901  0.020423967            2 
 2077000   0.91869773   -7.9061796    515.40393  0.020679022  0.020417809            2 
 2078000   0.92197255   -7.8988947    515.10904  0.020657244  0.020411688            2 
 2079000   0.91644385   -7.9050895    514.31677  0.020615551  0.020405552            5 
 2080000   0.89255493   -7.9068151    514.40226  0.020609065  0.020399402            2 
 2081000   0.91414221   -7.9132245    515.82806  0.020656257   0.02039326            3 
 2082000   0.91190531   -7.8822561    516.24004  0.020662826  0.020387164            2 
 2083000   0.90622402   -7.9032511    516.21357  0.020651847  0.020381041            5 
 2084000   0.92475509    -7.919333    516.78403  0.020664748  0.020374909            2 
 2085000   0.93013955   -7.8866151    516.28289  0.020634808  0.020368821            1 
 2086000   0.91030098   -7.9026417    516.25531  0.020623814  0.020362743            4 
 2087000   0.90478714   -7.9088549    517.81193  0.020676087  0.020356677            3 
 2088000   0.92963538   -7.8682267    517.36084  0.020648182  0.020350697            2 
 2089000   0.92027994   -7.8726671     517.9998  0.020663787  0.020344725            2 
 2090000   0.91603293   -7.8523694    516.60178  0.020598157  0.020338757            1 
 2091000   0.90411346   -7.8772659    518.59608  0.020667786  0.020332791            4 
 2092000   0.92159898   -7.8980047    516.42669   0.02057149  0.020326777            2 
 2093000   0.92097292   -7.9321657    517.83535  0.020617748  0.020320799            2 
 2094000   0.91997479   -7.9004929    517.89206  0.020610158   0.02031482            1 
 2095000   0.89722797   -7.9188855    518.07051  0.020607419  0.020308793            3 
 2096000   0.90371859   -7.8822799    518.83372  0.020627931  0.020302827            1 
 2097000   0.92536279   -7.8964146    519.82363  0.020657433  0.020296908            2 
 2098000   0.91974542   -7.9274864    516.94851  0.020533385  0.020290867            6 
 2099000   0.91707137   -7.9103509    517.42114  0.020542367  0.020284836            1 
 2100000   0.91226928   -7.8960668     518.7328  0.020584635  0.020278805            1 
 2101000   0.90406975   -7.9049658    517.98764  0.020545282  0.020272793            5 
 2102000   0.91714178   -7.8840344    519.84206  0.020609026  0.020266798            2 
 2103000   0.89569967   -7.9115667    518.04604  0.020528057  0.020260781            1 
 2104000    0.9053043   -7.9262646    518.59845   0.02054018  0.020254754            1 
 2105000   0.92358944    -7.856634     519.2367  0.020555689  0.020248779            2 
 2106000   0.90725128   -7.8863561    520.06567   0.02057873  0.020242884            1 
 2107000   0.93650415   -7.8618119    518.28457  0.020498519  0.020236923            3 
 2108000   0.91351985   -7.8756099    519.59012  0.020540406  0.020230982            4 
 2109000   0.92225094   -7.8739831    520.02743  0.020547946  0.020225128            4 
 2110000   0.93629065   -7.8906855    520.77079  0.020567567  0.020219252            3 
 2111000   0.91962117   -7.8854936    521.79108    0.0205981  0.020213368            1 
 2112000   0.93575848   -7.8934322    519.46259  0.020496472   0.02020742            3 
 2113000   0.91538714   -7.9453157    520.53761  0.020529169  0.020201433            3 
 2114000    0.9082507   -7.8653706    519.20092  0.020466766  0.020195492            2 
 2115000   0.91184872    -7.903016    520.34196  0.020502047  0.020189533            2 
 2116000   0.91507318   -7.9311338    520.45379  0.020496762  0.020183588            4 
 2117000   0.93512792    -7.905835    520.54189  0.020490548  0.020177566            3 
 2118000   0.92255988   -7.9104022    520.34662  0.020473191  0.020171546            1 
 2119000   0.93066732   -7.9463126    518.85642  0.020404924  0.020165535            4 
 2120000   0.91509814   -7.9166619    519.62299  0.020425432  0.020159521            1 
 2121000   0.89832012   -7.9242964    520.57999  0.020453402   0.02015346            2 
 2122000   0.90505034   -7.9602682    520.11197  0.020425384  0.020147357            2 
 2123000    0.9115013   -7.9442491    519.95286  0.020409517   0.02014125            1 
 2124000   0.92496564   -7.9219737    519.49964  0.020382127  0.020135189            6 
 2125000   0.91329067   -7.8924125    521.10038  0.020435309  0.020129165            2 
 2126000   0.88566891   -7.8911235    520.64915   0.02040801  0.020123163            2 
 2127000   0.94626273   -7.8946832    521.02743  0.020413236  0.020117171            2 
 2128000   0.91101771   -7.9125257    521.44905  0.020420154  0.020111117            3 
 2129000   0.91547367   -7.9335605    520.75848  0.020383532  0.020105064            2 
 2130000   0.92070811   -7.9125849    520.18883  0.020351676  0.020099023            7 
 2131000   0.92852256   -7.9180413    519.82281  0.020327812  0.020092979            7 
 2132000    0.9274789   -7.9222204    520.33747  0.020338394  0.020086942            4 
 2133000   0.90813664   -7.8959526    521.54659  0.020376097  0.020080902            2 
 2134000   0.90399794   -7.8898502     521.9675  0.020382986  0.020074865            6 
 2135000   0.92029062   -7.9047509    522.19157  0.020382184  0.020068832            2 
 2136000   0.92700122   -7.9203875    521.01708  0.020326821  0.020062756            1 
 2137000   0.90877855   -7.9034339    521.65618  0.020342231  0.020056678            3 
 2138000   0.91067268   -7.9219469    521.09233  0.020310739    0.0200506            2 
 2139000   0.90943506   -7.8982886    520.91178   0.02029421  0.020044505            2 
 2140000   0.90880098   -7.8999446    522.03318  0.020328395  0.020038421            9 
 2141000   0.90247601   -7.9032309    521.28578  0.020289809  0.020032369            4 
 2142000   0.89060735   -7.9019428     520.8339  0.020262757  0.020026333            2 
 2143000   0.90766065   -7.9177868    520.75312   0.02025016  0.020020224            1 
 2144000   0.91870166   -7.9278211    520.69804  0.020238574  0.020014145            2 
 2145000   0.88562124   -7.9609242    520.57381  0.020224313  0.020008058            2 
 2146000   0.91305811   -7.9157461    521.79018  0.020262122  0.020001968            2 
 2147000   0.92467048   -7.9303503    521.82726  0.020254124  0.019995946            2 
 2148000   0.91371705   -7.8854633    524.36831  0.020343277  0.019989902            2 
 2149000   0.91778425   -7.9344459    521.85935  0.020236519  0.019983852            2 
 2150000   0.90655122   -7.9270392     521.7249  0.020221895  0.019977793            1 
 2151000    0.9142874    -7.920141    521.43001   0.02020107  0.019971732            2 
 2152000    0.9066963   -7.9161699    522.89366   0.02024836  0.019965683            2 
 2153000    0.9256019   -7.9001932    523.69683  0.020270043  0.019959628            2 
 2154000   0.90506958   -7.9090568    523.43642  0.020250558  0.019953616            3 
 2155000   0.91635584   -7.9229251    522.63974  0.020210354  0.019947529            2 
 2156000   0.91517131   -7.9179671    523.02781  0.020215979  0.019941467            5 
 2157000   0.89707465   -7.8928317    522.75912  0.020196226  0.019935451            2 
 2158000   0.89700508   -7.9573822    521.54586  0.020140016  0.019929367            2 
 2159000   0.88642042   -7.9301402    524.28459  0.020236397  0.019923305            3 
 2160000   0.89892596   -7.9397742    523.14187  0.020182942  0.019917273            4 
 2161000   0.92521477   -7.9415316    522.96369  0.020166732  0.019911159            1 
 2162000   0.89230194   -7.9545792    523.05203  0.020160809   0.01990506            2 
 2163000   0.90964265    -7.921728     521.8869    0.0201066  0.019898916            2 
 2164000   0.91310179     -7.91851    523.09182  0.020143708  0.019892785       -1e+20 
 2165000   0.89981739   -7.9388033    522.45235   0.02010979  0.019886633            3 
 2166000    0.9195716    -7.916775    523.40346  0.020137098   0.01988044            2 
 2167000   0.90317583   -7.9624322     521.6072  0.020058729  0.019874264            1 
 2168000   0.90651527   -7.9218201    524.02504  0.020142414  0.019868109            2 
 2169000   0.88327663   -7.9365096    523.28077  0.020104533   0.01986194            3 
 2170000   0.90637202   -7.9343249    521.24515  0.020017095   0.01985581            2 
 2171000   0.89971872   -7.9475165    522.37761  0.020051344  0.019849602            1 
 2172000   0.90543453   -7.9543816    523.53929  0.020086683  0.019843431            3 
 2173000   0.89087683    -7.946617    522.83241   0.02005033  0.019837243            2 
 2174000   0.89370329   -7.9612005    523.01764  0.020048208   0.01983109            2 
 2175000   0.90388506   -7.9387086    523.92093  0.020073599  0.019824973            2 
 2176000   0.90068393   -7.9380634    522.25617  0.020000619  0.019818857            2 
 2177000   0.89309253   -7.9348672    523.78752  0.020050051  0.019812709            2 
 2178000   0.89925512   -7.9292309    524.58553  0.020071378  0.019806593            2 
 2179000   0.89657749   -7.9335987    523.89948  0.020035929  0.019800451            2 
 2180000   0.90446382   -7.9463029    524.58833  0.020053071  0.019794323            2 
 2181000   0.92436342   -7.9297333    523.32765  0.019995707  0.019788161            2 
 2182000   0.88419567    -7.917688    524.03469  0.020013546  0.019782055            2 
 2183000   0.89925546   -7.9249133    524.44433  0.020020016  0.019775911            1 
 2184000   0.88013629   -7.9693932    524.98894  0.020031629  0.019769765            2 
 2185000   0.91398545   -7.9315154    525.11029   0.02002709  0.019763615            2 
 2186000   0.90435789   -7.9188869    525.36915  0.020027796  0.019757579            1 
 2187000   0.88927261   -7.9318969    524.92199    0.0200016  0.019751527            1 
 2188000   0.90978239   -7.9088426    524.92547  0.019992591  0.019745469            3 
 2189000   0.90796921   -7.9341212     526.5957  0.020047042   0.01973946            1 
 2190000   0.89456583   -7.9422278    525.88465  0.020010832  0.019733423            2 
 2191000   0.89785332   -7.9420547    527.16611  0.020050438  0.019727384            2 
 2192000   0.90248777    -7.939792    525.16461    0.0199652  0.019721318            3 
 2193000   0.86903919   -7.9511226    524.66788   0.01993722  0.019715236            3 
 2194000   0.89419829   -7.9544988    524.97477  0.019939789  0.019709156            1 
 2195000   0.89300257   -7.9762538     526.7536  0.019998238  0.019703137            3 
 2196000   0.89220839    -7.983112    526.33913  0.019973404  0.019697095            1 
 2197000   0.89523616   -7.9264159    526.63937  0.019975701   0.01969103            3 
 2198000   0.90660162   -7.9675351    525.52138  0.019924226  0.019684971            2 
 2199000   0.87703237   -7.9654633    525.26696  0.019905524  0.019678895            3 
 2200000   0.88855964   -7.9873417    524.84427  0.019880465  0.019672793            3 
 2201000   0.90876283   -7.9332004    526.81947  0.019946216   0.01966671            2 
 2202000   0.87857203   -7.9306183    526.37076  0.019920177  0.019660662            4 
 2203000    0.9042471   -7.9312075    528.53161  0.019992874  0.019654648            2 
 2204000   0.91074377   -7.9510236    526.96071  0.019924407   0.01964865            2 
 2205000    0.8933724   -7.9743247     526.4149  0.019894743   0.01964261            1 
 2206000   0.88704911    -7.908423     526.8734  0.019903045  0.019636593            2 
 2207000   0.89138641   -7.9678843    527.07734  0.019901727  0.019630554            2 
 2208000   0.89137729   -7.9464906    527.64734  0.019914226  0.019624539            3 
 2209000   0.88778779   -7.9714362    528.02372   0.01991941  0.019618574            2 
 2210000   0.87225822   -7.9649186    526.92657  0.019869026  0.019612535            2 
 2211000   0.88766766   -7.9723643    527.70334  0.019889316  0.019606469            2 
 2212000   0.91761662   -7.9671717    526.04301  0.019817775  0.019600473            3 
 2213000   0.87672917   -7.9518404    526.48181  0.019825343  0.019594415            2 
 2214000   0.88942357   -7.9594655    527.28269  0.019846533  0.019588387            4 
 2215000   0.91045463   -7.9742665    528.20376  0.019872226  0.019582345            6 
 2216000   0.89290954   -7.9715447    527.08377  0.019821141  0.019576245            2 
 2217000    0.8830245   -7.9655899    527.00051  0.019809071  0.019570178            2 
 2218000   0.90539593   -7.9662113    527.55972   0.01982115  0.019564089            5 
 2219000   0.91673362   -7.9566431    527.66339  0.019816111  0.019557983            2 
 2220000   0.89713544   -7.9672738    527.94717  0.019817837  0.019551873            3 
 2221000   0.90352827   -7.9440569    527.31163  0.019785068  0.019545802            7 
 2222000   0.90062792   -7.9657863    527.23526    0.0197733   0.01953974            3 
 2223000   0.87946636   -7.9430162    528.08588  0.019796292  0.019533722            4 
 2224000   0.91360341   -7.9540093    528.32896  0.019796499  0.019527677            5 
 2225000   0.90211001   -7.9632598      526.197  0.019707753  0.019521625            3 
 2226000   0.89110489   -7.9363543    528.93052  0.019801232  0.019515562            1 
 2227000   0.89751468   -7.9189208    528.36631  0.019771228  0.019509546            1 
 2228000   0.89179869   -7.9708743    528.21549  0.019756714   0.01950353            4 
 2229000   0.89364586   -7.9369564    529.97651  0.019813687  0.019497502            4 
 2230000   0.89617402   -7.9494881    528.17082  0.019737325  0.019491471            4 
 2231000   0.88575451   -7.9575445    529.30746  0.019770935  0.019485472            1 
 2232000   0.88470082   -7.9327048    529.72295  0.019777589  0.019479434            3 
 2233000   0.91580133    -7.975851    527.89558  0.019700537  0.019473413            2 
 2234000   0.89609191    -7.925425    530.47908  0.019788089  0.019467384            4 
 2235000   0.89338254   -7.9575374    528.79869   0.01971658  0.019461345            2 
 2236000   0.90763801   -7.9443308    528.60955  0.019700714  0.019455355            4 
 2237000   0.88260576   -7.9285315    530.24298  0.019752756  0.019449372            2 
 2238000   0.90241142   -7.9595124    528.89975  0.019693914  0.019443381            2 
 2239000    0.9192162   -7.9850305    529.21056  0.019696686  0.019437318            5 
 2240000    0.8783561   -7.9953943    527.76499  0.019634114  0.019431203            1 
 2241000   0.89366117   -7.9701536    530.83052  0.019739347  0.019425118            4 
 2242000    0.8753203   -7.9794505    528.40245  0.019640293  0.019419085            1 
 2243000   0.88800392   -7.9819087     527.9397  0.019614345  0.019413025            3 
 2244000   0.90923243   -7.9845261    529.39047   0.01965948  0.019406948            2 
 2245000   0.89409129   -7.9983105    529.85299  0.019667891  0.019400878            3 
 2246000   0.89557581   -7.9432547    530.73158  0.019691733   0.01939485            5 
 2247000   0.87681147   -8.0229266    529.59134  0.019640682  0.019388794            2 
 2248000   0.90993906   -7.9621156    529.74099  0.019637492  0.019382757            3 
 2249000   0.87805914   -7.9888041    529.57377  0.019622565   0.01937673            3 
 2250000   0.90941377   -7.9550107     531.6405  0.019690389  0.019370692            2 
 2251000   0.88265617   -7.9497819    531.00741  0.019658204  0.019364666            1 
 2252000   0.89302667   -7.9665754    530.78799  0.019641356  0.019358675            4 
 2253000   0.88016058   -7.9470374    531.04058   0.01964198  0.019352684            3 
 2254000   0.87669543   -7.9676776    531.34703  0.019644596  0.019346693            1 
 2255000   0.89719447   -7.9420305    529.93739  0.019583791  0.019340727            3 
 2256000    0.8869423   -7.9638372     530.7872  0.019606501  0.019334722            4 
 2257000    0.8733372   -7.9701498    532.01015  0.019642968  0.019328721            2 
 2258000   0.88871915   -7.9762209    531.33623  0.019609397  0.019322692            3 
 2259000   0.85422495   -7.9658458    530.75412  0.019579243  0.019316617            3 
 2260000    0.8763028   -8.0046053     530.2066  0.019550391  0.019310562            2 
 2261000   0.89740867   -7.9863424    530.93891  0.019568735  0.019304567            1 
 2262000   0.89866957   -7.9767787    532.02137  0.019599962  0.019298533            5 
 2263000   0.90702269   -8.0077284    530.73411  0.019543899  0.019292543            1 
 2264000   0.86933316   -8.0007005    530.25498   0.01951763  0.019286526            2 
 2265000   0.89194099   -7.9853672    530.75293  0.019527334  0.019280504            1 
 2266000   0.90919991   -7.9779856     530.0525  0.019492957  0.019274513            4 
 2267000   0.92696812    -8.004429    531.16753  0.019525347  0.019268485            4 
 2268000   0.87872402   -7.9942637    530.78764  0.019502779  0.019262479            2 
 2269000   0.89168747   -7.9776436    531.89395  0.019534815  0.019256477            2 
 2270000   0.88070955   -7.9553259    532.65145  0.019554018  0.019250433            4 
 2271000   0.89118916   -7.9640018    531.92644  0.019518804  0.019244417            2 
 2272000   0.88963532   -7.9394987    533.76353  0.019577594  0.019238432            2 
 2273000   0.88528755   -7.9703194    532.53496  0.019523939   0.01923245            4 
 2274000   0.88481341   -7.9559241     532.3726  0.019509403  0.019226483            5 
 2275000   0.87390678   -7.9607518     532.1634  0.019493165  0.019220538            3 
 2276000   0.90223657   -7.9729655     531.7764  0.019470431  0.019214511            2 
 2277000   0.89416334   -7.9774613     533.6985  0.019532224  0.019208511            2 
 2278000   0.89829532   -7.9499515    533.38828  0.019512302  0.019202559            1 
 2279000   0.90365995   -8.0165561    532.54227  0.019472805  0.019196567            2 
 2280000   0.87569986   -7.9938152    533.18255  0.019487666  0.019190613            1 
 2281000   0.88785333   -8.0233007    532.44584  0.019452208  0.019184596            2 
 2282000   0.89963696   -7.9760006    531.07042  0.019393457  0.019178587            2 
 2283000   0.89166997   -8.0000146    532.17052  0.019425118  0.019172545            3 
 2284000   0.89086778   -8.0165122     532.3675  0.019423799   0.01916648            3 
 2285000   0.89430853   -8.0206853    532.39467   0.01941629  0.019160392            3 
 2286000   0.90787503   -7.9959341    534.06002  0.019468505  0.019154368            2 
 2287000   0.86825985   -7.9995637    532.19799  0.019392144  0.019148313            4 
 2288000   0.88324365   -7.9647655    533.21933  0.019420867  0.019142323            2 
 2289000   0.88225402   -7.9596875    533.72183  0.019430677  0.019136364            2 
 2290000   0.88820978     -7.96438    533.73343  0.019422614  0.019130435            2 
 2291000   0.86914751   -7.9916616    533.94715   0.01942191  0.019124484            3 
 2292000   0.89840626   -7.9928261    534.59045  0.019436826  0.019118488            2 
 2293000   0.87975853   -7.9599652    533.54902  0.019390501  0.019112548            1 
 2294000   0.87390382   -7.9982886     534.6779  0.019423057  0.019106529            2 
 2295000    0.8608364   -7.9925454    532.32596  0.019329193  0.019100492            3 
 2296000   0.86904977   -8.0037565    532.93182  0.019342763  0.019094472            1 
 2297000   0.88805074   -7.9741035    533.47564  0.019354072  0.019088412            2 
 2298000   0.86912928   -7.9814361    534.83424  0.019394917  0.019082401            6 
 2299000   0.86603819   -7.9912797    533.48122  0.019337437  0.019076374            5 
 2300000   0.90600363   -8.0080596    533.96561   0.01934658  0.019070355            5 
 2301000   0.88533876   -7.9868127    533.79303  0.019331922  0.019064384            3 
 2302000   0.89242379   -7.9864857    534.13777  0.019336004   0.01905838            3 
 2303000    0.8809485   -7.9906979    534.34167  0.019334986  0.019052358            3 
 2304000   0.88042262   -7.9713021    535.15216  0.019355909  0.019046343            2 
 2305000   0.88535495   -7.9757356    534.73209  0.019332324  0.019040355            2 
 2306000    0.8779227   -7.9924621    534.39486  0.019311754  0.019034364            2 
 2307000   0.88570137   -7.9977448     533.1618  0.019258843  0.019028339            3 
 2308000   0.88502558   -8.0149948    534.86351  0.019311941  0.019022333            1 
 2309000   0.87665219   -7.9867986    535.34469  0.019320943  0.019016324            3 
 2310000   0.88682409   -7.9914598    534.27584   0.01927402   0.01901038            3 
 2311000   0.88175371   -7.9975168    536.27174  0.019337651  0.019004481            1 
 2312000   0.87695546   -7.9770772    535.54668  0.019303153  0.018998603            2 
 2313000   0.89692328   -7.9923748    536.11073  0.019315129  0.018992706            2 
 2314000   0.89826478   -7.9943609    536.02699  0.019303767  0.018986757            3 
 2315000   0.89769822   -7.9741927    536.09316   0.01929781  0.018980836            1 
 2316000   0.86294795   -8.0293635     535.0042  0.019250295  0.018974893            2 
 2317000    0.8656124   -7.9472315    535.97094  0.019276757  0.018968944            2 
 2318000   0.90443513   -7.9690395    535.87396  0.019264954  0.018962993            4 
 2319000   0.90014511   -7.9920557    535.61813  0.019247453  0.018957072            3 
 2320000   0.88265835   -8.0147719    534.42071  0.019196146  0.018951088            2 
 2321000   0.86546806   -7.9828627    535.94705  0.019242677  0.018945078            2 
 2322000    0.8742691   -7.9888614    534.83265  0.019194396  0.018939129            1 
 2323000   0.87086032   -7.9563014    536.24359  0.019236748   0.01893319            3 
 2324000    0.8856461   -7.9762843    534.66854  0.019171993  0.018927197            4 
 2325000   0.87670393   -7.9869197    536.22922  0.019219685  0.018921259            4 
 2326000     0.897893   -8.0220769    534.11026  0.019135506  0.018915276            3 
 2327000   0.88467726   -8.0159906    534.01519  0.019123879  0.018909239            1 
 2328000   0.90490185   -8.0204235    533.86803  0.019110396  0.018903202            2 
 2329000   0.86487502   -7.9741187    536.94268  0.019212204  0.018897158            1 
 2330000   0.88101246   -7.9659661    536.78227  0.019198221  0.018891189            5 
 2331000   0.86267389   -7.9928385    536.87859  0.019193429  0.018885241            2 
 2332000   0.87980397   -7.9796299    534.82713   0.01911189  0.018879259            1 
 2333000   0.88134553   -8.0026074    536.59635  0.019166894  0.018873296            2 
 2334000   0.86516439   -8.0229137    535.52211  0.019120327  0.018867308            1 
 2335000   0.86846766   -8.0034801    536.49739  0.019146945  0.018861341            3 
 2336000   0.87858958   -7.9903782    537.02711  0.019157645  0.018855359            1 
 2337000   0.88438462   -7.9721193    538.91846   0.01921689  0.018849439            4 
 2338000   0.86410674   -8.0102276    537.03851  0.019141664  0.018843503            3 
 2339000    0.8699992   -8.0147779    536.78258  0.019124361  0.018837533            3 
 2340000   0.89663662    -8.005033    535.77982  0.019080478  0.018831602            3 
 2341000   0.89053108   -7.9891393    536.94864  0.019113934  0.018825691            2 
 2342000   0.87875151   -8.0110639    535.51761  0.019054854  0.018819771            3 
 2343000    0.8633719     -8.00166    536.68725  0.019088322  0.018813858            3 
 2344000   0.88133125   -8.0155187    537.04468  0.019092885  0.018807905            2 
 2345000   0.85906182    -7.994751    538.55117  0.019138279  0.018801981            6 
 2346000   0.86059499   -7.9658027    537.46499  0.019091538  0.018796101            4 
 2347000   0.86153476   -8.0042231    537.78123  0.019094632  0.018790199            3 
 2348000   0.86144611     -7.96542    538.81696  0.019123259  0.018784314            3 
 2349000   0.89502025   -8.0000556    537.31281  0.019061757  0.018778464            5 
 2350000    0.8841567   -7.9706002    539.14699  0.019118688  0.018772604            1 
 2351000   0.87503578   -8.0093747    537.87516  0.019065474  0.018766715            1 
 2352000   0.85730229   -7.9886222    536.84961  0.019021032  0.018760813            2 
 2353000   0.89174104   -8.0542488     536.6158  0.019004668  0.018754852            3 
 2354000    0.8823952   -7.9971709    537.28476  0.019020276  0.018748888            3 
 2355000   0.89333968   -8.0258645     538.1519  0.019042884  0.018742955            2 
 2356000   0.84799584    -8.007381    538.04367  0.019030973  0.018737027            2 
 2357000   0.87920613   -8.0119581    537.09387  0.018989318   0.01873111            1 
 2358000   0.87819673   -8.0150742    538.74574  0.019039643  0.018725206            3 
 2359000   0.87172273   -8.0231303    539.43816  0.019056032  0.018719314            1 
 2360000   0.86157949   -8.0048125    539.40089  0.019046641  0.018713422            2 
 2361000    0.8830981   -8.0107853    539.31092  0.019035399  0.018707482            1 
 2362000   0.88065403   -8.0326396    537.39353  0.018959693  0.018701553            2 
 2363000    0.8782912   -8.0124303    540.24644   0.01905228  0.018695648            5 
 2364000   0.87865091   -7.9934578    540.63153  0.019057795  0.018689762            4 
 2365000   0.87627279   -7.9899174    538.81155  0.018985608  0.018683861            2 
 2366000   0.88348382   -8.0269084    537.63719  0.018936221  0.018677929            1 
 2367000   0.87129481   -8.0127242    539.38912    0.0189899  0.018672021            2 
 2368000   0.88128441   -7.9971777    539.73781  0.018994152  0.018666154            2 
 2369000   0.86443268   -7.9969693    539.42566  0.018975153  0.018660308            3 
 2370000     0.864651    -8.010696    539.48924  0.018969382  0.018654436            1 
 2371000    0.8643226   -8.0087878    538.69345  0.018933412  0.018648521            1 
 2372000   0.87464466   -8.0123637    539.49645  0.018953642  0.018642661            3 
 2373000    0.8710312   -7.9945381    540.82889  0.018992446  0.018636797            3 
 2374000   0.86697991   -8.0172158    539.78341  0.018947747  0.018630949            2 
 2375000   0.87570903   -8.0222095    539.47456  0.018928932  0.018625062            2 
 2376000   0.88686961    -8.030619    539.46574  0.018920656  0.018619204            3 
 2377000   0.88098424   -8.0031091    540.05254  0.018933268   0.01861333            4 
 2378000   0.87633591   -8.0127978    540.68935  0.018947622  0.018607414            4 
 2379000    0.8615304    -8.015642    538.52669  0.018863903  0.018601548            3 
 2380000   0.89166648   -8.0272018    539.60642  0.018893782  0.018595646            3 
 2381000   0.87152521   -8.0106166    540.60315  0.018920732  0.018589728            3 
 2382000   0.87661402   -8.0062489    539.31621  0.018867766  0.018583815            2 
 2383000   0.86930256   -8.0040379    540.25617  0.018892718  0.018577881            4 
 2384000     0.870188    -8.013771    540.94107  0.018908734  0.018571979            3 
 2385000   0.86998468   -8.0301977    541.18559   0.01890935  0.018566061            1 
 2386000   0.87017679   -8.0725398    538.99958  0.018825076  0.018560148            1 
 2387000   0.87551001    -8.020411    539.83771   0.01884645  0.018554209            3 
 2388000   0.87586909   -8.0604608    539.56705  0.018829112  0.018548271            2 
 2389000   0.87458472   -8.0356514    540.69192  0.018860469  0.018542329            3 
 2390000   0.84712926   -8.0255056    540.27258  0.018837956  0.018536393            1 
 2391000   0.87188451   -8.0275971    540.09088  0.018823745  0.018530482            1 
 2392000   0.85208709   -8.0305119    540.25106  0.018821455  0.018524605            2 
 2393000    0.8670802   -8.0368495    540.26843  0.018814195  0.018518714            3 
 2394000   0.89295929   -7.9947494     540.5818  0.018817245  0.018512787            1 
 2395000   0.84850593   -8.0142375    540.83958  0.018818357  0.018506887            1 
 2396000   0.86226596   -8.0270535     540.8724  0.018811644  0.018501005            1 
 2397000   0.86035366   -8.0051507    540.33173     0.018785  0.018495075            2 
 2398000    0.8531004   -8.0285557    539.96828  0.018764536  0.018489153            3 
 2399000   0.87737438   -8.0100618    541.23988  0.018800885  0.018483217            3 
 2400000   0.86819509    -8.039301    540.16717  0.018755805  0.018477289            4 
 2401000   0.85584728   -8.0240726    540.83055  0.018771017   0.01847136            4 
 2402000   0.87596763   -8.0532055     539.8138  0.018727928  0.018465408           10 
 2403000   0.88256483   -8.0780693    539.31522  0.018702844  0.018459434            6 
 2404000   0.86990294    -8.033675    539.81579  0.018712417  0.018453453            2 
 2405000   0.86714655   -8.0432826    540.61846  0.018732448  0.018447511            4 
 2406000   0.87886151   -8.0423604    540.86824  0.018733314  0.018441552            3 
 2407000   0.86574937   -8.0711546    540.08142   0.01869829  0.018435594            2 
 2408000   0.86071225   -8.0413122     540.9833  0.018721737  0.018429619            2 
 2409000   0.87114284   -8.0142002    540.16279  0.018685582  0.018423671            3 
 2410000   0.86203658   -8.0345986     542.3756  0.018754343  0.018417762            3 
 2411000   0.85281702   -8.0043194    542.50835  0.018751153  0.018411851            3 
 2412000   0.84658623   -8.0467344      541.277  0.018700836  0.018405893            2 
 2413000   0.86916194   -8.0368003    540.26519  0.018658143  0.018399953            2 
 2414000   0.85955086   -8.0559295    539.80847  0.018634648  0.018393973            3 
 2415000   0.84505756   -8.0622928    540.26254    0.0186426  0.018387996            3 
 2416000   0.89400331   -8.0387364    540.93859  0.018658202   0.01838199            3 
 2417000   0.85928445   -8.0381096    541.65584  0.018675212  0.018375997            1 
 2418000   0.84766541   -8.0342355    542.09686  0.018682687  0.018370058            2 
 2419000   0.85961286   -8.0507234    541.35837  0.018649524  0.018364095            2 
 2420000   0.85755651   -8.0394018    540.73921  0.018620496  0.018358151            2 
 2421000   0.86586181   -8.0106308    541.60865  0.018642732  0.018352218            4 
 2422000    0.8585274   -8.0462944    540.16906  0.018585503  0.018346282            3 
 2423000   0.85650093   -8.0397467    541.23469  0.018614482  0.018340313            1 
 2424000    0.8630502    -8.047145     541.5618  0.018618049  0.018334383            2 
 2425000   0.85750717   -8.0372484    541.76106  0.018617218  0.018328436            3 
 2426000   0.85931864   -8.0459876    540.43966  0.018564154  0.018322475            3 
 2427000   0.84999155   -8.0656821    542.41201  0.018624228  0.018316512            2 
 2428000   0.86480513   -8.0629324    541.39618  0.018581692  0.018310519            2 
 2429000   0.85116585    -8.032183    540.15234  0.018531369  0.018304514            3 
 2430000   0.87380409   -8.0610413     541.3599  0.018565154  0.018298547            4 
 2431000    0.8651031   -8.0365382    540.90594  0.018541956  0.018292545            3 
 2432000   0.84881534   -8.0644847    541.09828  0.018540922  0.018286565            2 
 2433000   0.85783318   -8.0552224    541.88492  0.018560245  0.018280579            3 
 2434000   0.85451493   -8.0818897    540.03545  0.018489299  0.018274573            2 
 2435000   0.86184938   -8.0374298    541.06086  0.018516799  0.018268569            3 
 2436000    0.8831878   -8.0379257    543.21643  0.018582938  0.018262603            2 
 2437000    0.8828288   -8.0491334    541.54456  0.018518142  0.018256613            2 
 2438000   0.85261012   -8.0148316     540.8515  0.018486857  0.018250593            4 
 2439000   0.87943613   -8.0472896    542.71259  0.018542865    0.0182446            3 
 2440000   0.86137477   -8.0747384    541.05668  0.018478712  0.018238632            1 
 2441000   0.85682128   -8.0082399    544.01043   0.01857198  0.018232694            2 
 2442000   0.86549043    -8.030671     543.0719  0.018532347  0.018226778            2 
 2443000   0.88289826   -8.0556253    542.59876  0.018508622  0.018220857            3 
 2444000   0.84124309   -8.0505306    542.47848  0.018496948  0.018214937            3 
 2445000   0.87762241   -8.0671319    541.58721  0.018459005  0.018208982            2 
 2446000   0.84337985   -8.0643129    542.02007  0.018466206  0.018203003            2 
 2447000   0.86199541   -8.0406715    542.76685  0.018484091   0.01819707            1 
 2448000   0.85804682   -8.0290231    543.05107  0.018486216   0.01819115            4 
 2449000   0.85659241   -8.0321064    542.20906  0.018450016  0.018185181            2 
 2450000   0.85518721   -8.0562945    541.73407  0.018426329  0.018179236            2 
 2451000   0.85235845   -8.0443476    542.38309  0.018440877   0.01817327            3 
 2452000   0.83822334   -8.0285029     544.5617  0.018507399  0.018167335            4 
 2453000       0.8437    -8.027079    542.66791  0.018435518  0.018161423            4 
 2454000   0.85287211   -8.0356689    542.68605  0.018428622  0.018155473            6 
 2455000   0.85806764   -8.0441363    542.44497  0.018412932  0.018149527            3 
 2456000   0.86260091    -8.028259    542.32492  0.018401361  0.018143594            5 
 2457000   0.85394699   -8.0521778    543.17467  0.018422693  0.018137653            4 
 2458000   0.86475481   -8.0623529    543.34807  0.018421076  0.018131709            3 
 2459000   0.87558968   -8.0635543    544.07445  0.018438201  0.018125742            1 
 2460000   0.85581716    -8.031132     543.6287  0.018415606   0.01811976            6 
 2461000   0.84543409   -8.0645287    542.87262  0.018382521  0.018113791            2 
 2462000   0.85090424   -8.0712089    543.96316  0.018411967  0.018107841            2 
 2463000   0.85326775   -8.0684075    542.64083  0.018359752  0.018101892            1 
 2464000   0.85707967    -8.077727    544.18148  0.018404406  0.018095911            3 
 2465000   0.84806661   -8.0789047    542.06546  0.018325404  0.018089916            2 
 2466000   0.85369949   -8.0523746    542.62992  0.018337048  0.018083921            1 
 2467000   0.86805703   -8.0424368    543.52306  0.018359784  0.018077921            5 
 2468000   0.85639989   -8.0455743    544.24786  0.018376819  0.018072003            3 
 2469000   0.85878683   -8.0584029    543.97351  0.018360116  0.018066065            1 
 2470000   0.84339572   -8.0434257    544.87862  0.018383219  0.018060143            2 
 2471000   0.86871903   -8.0311476    544.39175   0.01835936  0.018054229            1 
 2472000   0.85351979   -8.0550686    543.82931  0.018332973  0.018048324            2 
 2473000   0.86492029    -8.060623    543.83969  0.018325909  0.018042396            1 
 2474000   0.85995337   -8.0595963     545.3428  0.018369132  0.018036499            3 
 2475000   0.86546624   -8.0687659    544.25597  0.018325117  0.018030607            5 
 2476000   0.83906782   -8.0736149    543.85767   0.01830431  0.018024643            1 
 2477000   0.84985858   -8.0936368    543.94939  0.018300006  0.018018653            6 
 2478000   0.86143993   -8.0858376    543.18079  0.018266774  0.018012674            2 
 2479000   0.85109051   -8.0775443    543.33431  0.018264566  0.018006699            2 
 2480000   0.85817336   -8.0651884    545.00825  0.018313449  0.018000743            3 
 2481000   0.86903929   -8.0404675    543.98274  0.018271622  0.017994815            2 
 2482000   0.86425108   -8.0865217    543.01798  0.018231869  0.017988857            6 
 2483000   0.86147118   -8.0367018    543.69816  0.018247354  0.017982888            2 
 2484000   0.85620598   -8.0387875    544.48105  0.018266272  0.017976973            2 
 2485000   0.86678962   -8.0574203    543.95051   0.01824113  0.017971034            2 
 2486000   0.83642641   -8.0736059    545.01969  0.018269633  0.017965081            3 
 2487000   0.86375298    -8.051139    543.64175  0.018216115  0.017959116            2 
 2488000   0.88129384   -8.0622823    544.26976  0.018229829  0.017953138            3 
 2489000   0.85690198   -8.0836808    543.27658  0.018189252  0.017947159            2 
 2490000   0.86839335   -8.0638978    544.61019  0.018226579  0.017941158            5 
 2491000   0.83812994   -8.0574285    543.92756  0.018196426  0.017935142            6 
 2492000     0.849445   -8.0790943    543.07925  0.018160756  0.017929134            3 
 2493000   0.85540917   -8.1088729    542.45518   0.01813261  0.017923085            1 
 2494000   0.83052492   -8.0618979    545.05677  0.018212268  0.017917058            4 
 2495000   0.84892104   -8.0633011    543.71845  0.018160269  0.017911054            1 
 2496000   0.84516141    -8.090902    544.04803  0.018163997  0.017905016            2 
 2497000   0.84810439   -8.0955041    543.62942  0.018142752  0.017898969            2 
 2498000    0.8467527   -8.0624267    544.75871  0.018173162  0.017892926            2 
 2499000   0.85699927   -8.1118311    543.07087  0.018109606  0.017886865            2 
 2500000   0.84421978   -8.0805251    544.01388  0.018133796  0.017880859            3 
 2501000   0.86367672   -8.0472058    543.71201  0.018116487  0.017874846            2 
 2502000   0.83837726   -8.0915998    542.80412  0.018079008  0.017868813            5 
 2503000   0.83462757   -8.0650192     544.2056  0.018118444  0.017862757            1 
 2504000    0.8618061   -8.0484763    544.18763  0.018110611   0.01785672            4 
 2505000   0.84706468   -8.0617293    542.24437  0.018038735  0.017850702            2 
 2506000   0.84906837   -8.0882836    543.75665  0.018081825  0.017844655            5 
 2507000   0.85466646   -8.0373484    545.77744  0.018141784  0.017838667            1 
 2508000   0.84051196   -8.0710665    544.73077  0.018099773  0.017832694            2 
 2509000   0.84652468   -8.0568789    544.45472  0.018083391  0.017826717            3 
 2510000   0.84703685   -8.0847594    544.31032  0.018071392  0.017820721            3 
 2511000   0.83479649   -8.0356211    544.45281  0.018068924  0.017814756            4 
 2512000   0.85254424   -8.0721547    543.96643  0.018045595  0.017808775            3 
 2513000   0.85114216   -8.0299802    546.74073  0.018130413  0.017802778            7 
 2514000   0.85159752    -8.061291    544.87387  0.018061319  0.017796814            1 
 2515000    0.8370245   -8.0657104    545.00704   0.01805855  0.017790848            1 
 2516000   0.83581184   -8.0261203    544.78888  0.018044147  0.017784888            1 
 2517000    0.8613951   -8.0475188    544.89912  0.018040628  0.017778909            3 
 2518000   0.84867609   -8.0789838    544.40687  0.018017172  0.017772931            3 
 2519000    0.8580836   -8.0896337    544.83585  0.018024211  0.017766915            1 
 2520000   0.85911986   -8.0969985    545.31854  0.018033021  0.017760871            2 
 2521000   0.86950826   -8.0924962    544.51064  0.017999162  0.017754847            1 
 2522000   0.84315488   -8.0934457    545.81861  0.018035244  0.017748854            3 
 2523000   0.83909646    -8.079126    544.75294  0.017992897  0.017742866            2 
 2524000   0.83265035    -8.091253    545.62147  0.018014444  0.017736889            2 
 2525000   0.84830579    -8.077274    544.32462  0.017964509   0.01773092            2 
 2526000   0.86492747   -8.0904909    544.74133  0.017971145  0.017724954            2 
 2527000   0.86207639   -8.1305255    543.46182  0.017921838  0.017718965            1 
 2528000   0.81918868   -8.0908292    545.41783  0.017979227  0.017712988            2 
 2529000    0.8398659   -8.0696265    545.53379  0.017975939  0.017707008            2 
 2530000   0.85255806   -8.1263965    545.21967  0.017958487  0.017701059            7 
 2531000   0.83525843   -8.0860696    546.22616   0.01798453  0.017695082            2 
 2532000   0.84754098   -8.0855993      547.251  0.018011157  0.017689114            3 
 2533000   0.84024532   -8.0880522    545.58791  0.017949332  0.017683175            2 
 2534000    0.8485708   -8.0895879    545.51043  0.017939701   0.01767722            4 
 2535000   0.83670104   -8.0792447    546.82685  0.017975899  0.017671278            2 
 2536000   0.86212718   -8.0837438    545.72559  0.017932623   0.01766533            1 
 2537000   0.85027361   -8.1016848    546.53658  0.017952194  0.017659363            5 
 2538000   0.85119289   -8.1221188    545.10683  0.017898176    0.0176534            2 
 2539000   0.86379736   -8.1066403    546.93503   0.01795113  0.017647432            2 
 2540000   0.85166503   -8.0932002    547.00409  0.017946328  0.017641493            3 
 2541000   0.85738051   -8.0673716    548.91734  0.018002012  0.017635578            3 
 2542000    0.8480712   -8.0783829    547.65759  0.017953632  0.017629674            2 
 2543000   0.86470629   -8.0862014    546.88687  0.017921316  0.017623787            3 
 2544000   0.85890729   -8.1233455     546.4961  0.017901471  0.017617903            3 
 2545000   0.85143612   -8.0597147     548.0228  0.017944427  0.017612049            2 
 2546000   0.84962657   -8.1315389     547.2468  0.017911979  0.017606179            1 
 2547000   0.83752197   -8.0993499    546.86025    0.0178923  0.017600329            1 
 2548000   0.83903805   -8.0749899    548.99395  0.017955061  0.017594486            1 
 2549000   0.84551354   -8.0854916    548.48181  0.017931274   0.01758863            4 
 2550000   0.83513854   -8.0955162    547.80199  0.017902026  0.017582757            4 
 2551000   0.82764484   -8.1036826     547.2237  0.017876117  0.017576924            4 
 2552000   0.85698735   -8.0837626    549.29844  0.017936861  0.017571085            2 
 2553000   0.84687533    -8.082997    549.08076   0.01792273  0.017565265            2 
 2554000   0.84932547    -8.094648    548.17069  0.017886018  0.017559455            3 
 2555000   0.84540674   -8.0717451    547.98082  0.017872825  0.017553652            2 
 2556000   0.83886359   -8.0819038    548.17777  0.017872254  0.017547827            4 
 2557000   0.82187428    -8.081974    547.62407  0.017847219  0.017542034            3 
 2558000   0.84712133   -8.0932553    548.49998  0.017868777  0.017536227            1 
 2559000   0.86937649   -8.1068928    548.19439  0.017851843  0.017530432            2 
 2560000    0.8473711    -8.096942    547.92736  0.017836177  0.017524594            2 
 2561000   0.84914564   -8.1333992    547.88405  0.017827803  0.017518716            1 
 2562000    0.8248053    -8.131193    547.05047  0.017793731  0.017512845            2 
 2563000   0.85867754   -8.0920241     548.0808  0.017820289  0.017506951            2 
 2564000   0.84243688   -8.1141453    548.78405  0.017836195  0.017501096            2 
 2565000   0.84289081   -8.1212824    548.31513  0.017814007  0.017495242            2 
 2566000   0.84659732   -8.1203645    546.29186  0.017741357  0.017489399            4 
 2567000    0.8317992   -8.0816595    549.58192  0.017841252  0.017483537            3 
 2568000    0.8392017   -8.1309741    546.90987  0.017747595  0.017477678            2 
 2569000   0.82051472   -8.1220162    548.10253  0.017779373  0.017471822            1 
 2570000   0.84305298   -8.1292607    548.08798  0.017771984  0.017465956            3 
 2571000   0.84175648   -8.1074689    548.31352  0.017772382  0.017460077            1 
 2572000   0.84019664   -8.0879335    549.82366  0.017814401  0.017454186            2 
 2573000   0.84647334   -8.1238822    547.63182  0.017736488  0.017448319            2 
 2574000   0.83797737   -8.0887629    548.21049  0.017748332  0.017442443            3 
 2575000   0.82761682   -8.1104941     548.0614  0.017736615  0.017436589            3 
 2576000   0.86410745   -8.1062766    548.58142  0.017746552  0.017430741            3 
 2577000    0.8195024   -8.1178996    548.46002   0.01773574   0.01742492            2 
 2578000   0.86081129   -8.1106209    548.38388  0.017726399  0.017419101            1 
 2579000   0.82862564   -8.0827973    550.26593  0.017780339  0.017413265            2 
 2580000   0.84312999   -8.1126794    548.28489   0.01770946  0.017407404            2 
 2581000   0.85485401   -8.1046094    548.03401  0.017694499  0.017401554            1 
 2582000   0.83893986   -8.1035404    548.18392  0.017692484   0.01739573            1 
 2583000   0.82855422   -8.1199552    547.50639  0.017663776  0.017389865            2 
 2584000   0.83130765   -8.1197425    548.47314  0.017688117  0.017383974            2 
 2585000   0.83979066   -8.0975811    549.94748  0.017728803  0.017378117            5 
 2586000   0.82978596   -8.1084791    548.29241  0.017668613  0.017372202            2 
 2587000   0.85424485   -8.1468004    548.71733  0.017675471  0.017366317            2 
 2588000   0.81061229      -8.1015     547.9339  0.017643415  0.017360413            3 
 2589000   0.85830464   -8.1557842    547.63651  0.017627028  0.017354531            3 
 2590000   0.83270545   -8.1347541    547.58301  0.017618501  0.017348653            5 
 2591000   0.82110007   -8.1554866    547.87064  0.017620952   0.01734277            1 
 2592000   0.85430012   -8.1375838    548.20693  0.017624965  0.017336876            1 
 2593000   0.84796582   -8.1428627    547.88297  0.017607757  0.017331016            2 
 2594000   0.84562431   -8.1074701    549.84595  0.017664031  0.017325169            1 
 2595000   0.82332501   -8.1166463    550.24325  0.017669982  0.017319354            2 
 2596000   0.85164313   -8.0780788    549.16418  0.017628537  0.017313521            3 
 2597000   0.83752569   -8.1245341    547.13576   0.01755666  0.017307721            1 
 2598000   0.83026402   -8.0938886    548.92912  0.017607426  0.017301892            3 
 2599000   0.84444644   -8.1311204    547.43587  0.017552772  0.017296076            3 
 2600000   0.85271102   -8.1103251    550.23565  0.017635758  0.017290245            3 
 2601000   0.81948447   -8.1201783    549.17522  0.017595003  0.017284422            2 
 2602000   0.85153002   -8.0958944    549.94005  0.017612735  0.017278607            2 
 2603000   0.83886269   -8.1094561    549.11947  0.017579699  0.017272807            1 
 2604000   0.82063814   -8.1271849    550.40384   0.01761405   0.01726701            2 
 2605000   0.84798268   -8.1436116    548.23566  0.017537929  0.017261178            2 
 2606000   0.84423464   -8.1293807    549.70204   0.01757809  0.017255364            1 
 2607000   0.84201127   -8.1138092    548.95252  0.017547389  0.017249533            3 
 2608000   0.83016287   -8.1171665    550.46014  0.017588834   0.01724369            1 
 2609000   0.84522022   -8.1042283     550.4311  0.017581165  0.017237861            1 
 2610000   0.82964565   -8.1406388     549.7817  0.017553694   0.01723205            1 
 2611000   0.82033103   -8.1421471    550.19691  0.017560223  0.017226218            2 
 2612000   0.82364222    -8.117493    549.50146  0.017531313  0.017220408            2 
 2613000    0.8355863   -8.1249481    550.30679  0.017550287  0.017214556            3 
 2614000   0.83763503   -8.1382037    550.54894  0.017551292  0.017208734            3 
 2615000   0.81580881   -8.1420842    549.21262  0.017501996  0.017202876            1 
 2616000   0.83825262   -8.1058708    549.93659  0.017518368  0.017197029            2 
 2617000   0.83348468   -8.1384684    549.02901  0.017482773  0.017191208            2 
 2618000   0.83367306   -8.1642274     550.2066  0.017513579  0.017185387            1 
 2619000   0.83656795   -8.1015953    549.75508  0.017492525  0.017179593            2 
 2620000   0.82157444    -8.131655    551.57182  0.017543633  0.017173797            2 
 2621000   0.83560602   -8.1212144     550.9552  0.017517334  0.017168007            2 
 2622000   0.82249576   -8.1527809     549.7456   0.01747221  0.017162245            1 
 2623000    0.8330241   -8.1310052    550.08979  0.017476483  0.017156421            3 
 2624000    0.8390574   -8.1569179    549.13966  0.017439649  0.017150601            6 
 2625000   0.83241363   -8.1718563    550.37197  0.017472126   0.01714477            5 
 2626000   0.81171507   -8.1605251    548.40356  0.017403007  0.017138932            4 
 2627000   0.81790115    -8.130297    548.16365  0.017388772  0.017133096            4 
 2628000   0.84150884    -8.150791    551.24238  0.017479781  0.017127281            3 
 2629000   0.82253791   -8.1468586    551.78905  0.017490461  0.017121485            3 
 2630000   0.83173557     -8.11725    551.49048   0.01747435  0.017115664            1 
 2631000   0.81233927   -8.1534723     550.5055   0.01743651  0.017109845            2 
 2632000   0.82996347    -8.147507    550.49877  0.017429672  0.017104046            3 
 2633000    0.8135565   -8.1384736    550.43963  0.017421181  0.017098264            3 
 2634000   0.82696893   -8.1216818    550.51617  0.017416988  0.017092495            3 
 2635000   0.81610379   -8.1233178    550.47359  0.017409032  0.017086747            5 
 2636000   0.84558611   -8.1582894    552.16287  0.017455832  0.017081009            3 
 2637000   0.82147673   -8.1589454    550.15196  0.017385664  0.017075262            3 
 2638000   0.83320328   -8.1454549    551.04365  0.017407242  0.017069511            2 
 2639000   0.82914269   -8.1563139    551.13542  0.017403544  0.017063741            3 
 2640000   0.84932832   -8.1248141    551.20697   0.01739921  0.017057991            3 
 2641000   0.81370857   -8.1232912    552.08216  0.017420237  0.017052213            4 
 2642000     0.814664   -8.1475408    550.79959  0.017373189  0.017046418            3 
 2643000   0.81058392   -8.1652854    550.61713  0.017360863   0.01704063            3 
 2644000   0.84706977   -8.1622705    551.53988   0.01738338  0.017034829            2 
 2645000   0.80246003   -8.1289153    550.98922  0.017359459  0.017029068            2 
 2646000   0.82425865   -8.1049449    552.37908  0.017396671  0.017023303            4 
 2647000   0.82049239   -8.1522137    551.63457  0.017366659  0.017017548            3 
 2648000   0.80957004   -8.1139528    550.48144  0.017323812   0.01701181            4 
 2649000   0.83569208   -8.1566573    551.81554  0.017359241  0.017006073            3 
 2650000   0.83321129   -8.1313413    551.46963  0.017341812  0.017000323            2 
 2651000    0.8362054   -8.1355643    551.94271  0.017350142  0.016994561            2 
 2652000   0.83513224   -8.1315224    551.90605  0.017342448  0.016988818            3 
 2653000   0.82748089   -8.1080568    552.83201  0.017364996  0.016983056            3 
 2654000   0.81500574   -8.0862675    551.77073   0.01732513  0.016977331            2 
 2655000   0.80765333   -8.1388943    551.59137  0.017312975  0.016971603            3 
 2656000   0.83852936   -8.1408868    551.67141  0.017308968  0.016965833            1 
 2657000   0.81221245   -8.1710297    552.27666  0.017321436  0.016960053            4 
 2658000   0.82564426   -8.1252785    552.16507  0.017311421  0.016954292            3 
 2659000    0.8217379   -8.1357317    552.73774  0.017322858  0.016948537            1 
 2660000   0.82500956   -8.1825449    550.98261   0.01726136  0.016942754            4 
 2661000    0.8099287   -8.1394164    552.22197  0.017293686   0.01693699            2 
 2662000   0.81812133   -8.1312311    551.61107  0.017268065  0.016931259            2 
 2663000     0.834976   -8.1468968    552.07412  0.017276071  0.016925526            3 
 2664000   0.81049737    -8.132562    552.61137  0.017286392   0.01691979            1 
 2665000    0.8213319   -8.1255546    552.04166  0.017262091  0.016914078            2 
 2666000   0.82391963   -8.1149372    552.63575  0.017274186  0.016908383            1 
 2667000   0.82806391   -8.1517198    551.51431  0.017232668  0.016902662            2 
 2668000   0.82876331    -8.121365     553.2374  0.017280029  0.016896903            3 
 2669000   0.81525302   -8.1000719    551.92619  0.017232615  0.016891145            1 
 2670000   0.83559142   -8.1409118    552.59971  0.017247182  0.016885397            4 
 2671000   0.83759585   -8.1411593    551.03025  0.017191759  0.016879658            3 
 2672000   0.85276862   -8.1522345    553.11247  0.017250264  0.016873946            3 
 2673000   0.82899857   -8.1510856    552.38028  0.017220984   0.01686824            3 
 2674000    0.8146956   -8.1580853    553.10885  0.017237249  0.016862542            2 
 2675000   0.83349257   -8.1494795    553.12832  0.017231412  0.016856823            1 
 2676000   0.83733162   -8.1561545    552.25632  0.017197818  0.016851101            3 
 2677000   0.80837027   -8.1492993    552.15233  0.017188156  0.016845376            1 
 2678000   0.82897206   -8.1660266    554.05063  0.017240809  0.016839653            2 
 2679000   0.81091032   -8.1508103    553.26728  0.017210006  0.016833947            3 
 2680000   0.82608697   -8.1889441    552.69214  0.017185701  0.016828243            2 
 2681000   0.82250882   -8.1418384     552.5023   0.01717339   0.01682253            1 
 2682000   0.81445533   -8.1642069    553.13469  0.017186636  0.016816818            2 
 2683000   0.83024457   -8.1647325    553.31802  0.017185924  0.016811107            2 
 2684000   0.81351804    -8.176534    552.69919  0.017160308  0.016805388            1 
 2685000   0.81804401   -8.1483893    552.36026  0.017143397  0.016799679            2 
 2686000   0.83457161   -8.1448074     553.8922  0.017184543  0.016793984            1 
 2687000   0.84498555   -8.1396202    553.12009  0.017154202  0.016788327            1 
 2688000   0.82013797   -8.1562522    554.51676   0.01719112  0.016782692            2 
 2689000   0.80653546   -8.1385371    552.76416  0.017130413  0.016777013            2 
 2690000   0.82236922   -8.1868105    552.30159  0.017109715   0.01677135            3 
 2691000   0.82399941   -8.1965135    553.93039  0.017153796  0.016765634            3 
 2692000   0.82753553   -8.1792078     553.8366  0.017144521  0.016759962            3 
 2693000   0.81560837   -8.1622278    555.16818  0.017179359   0.01675431            2 
 2694000   0.81320645   -8.1822214    554.19196  0.017142785  0.016748647            2 
 2695000   0.82512342   -8.1670768    553.01163  0.017099927   0.01674298            2 
 2696000   0.79746361   -8.1673404    555.36429  0.017166305  0.016737298            2 
 2697000   0.84588777   -8.1959368    552.81307  0.017081111  0.016731606            2 
 2698000   0.81627079   -8.1912038    553.55744  0.017097771  0.016725934            2 
 2699000   0.81053007   -8.1462447    554.31873  0.017114942  0.016720252            1 
 2700000   0.82256242    -8.169893    555.06184  0.017131538  0.016714614            6 
 2701000   0.82669266   -8.1759437    554.40106  0.017104809  0.016708953            3 
 2702000   0.82433355   -8.1846234    553.47195  0.017069823  0.016703288            2 
 2703000   0.82640415   -8.1687792     553.3954  0.017061148  0.016697581            2 
 2704000   0.79499725   -8.1649639    554.28139  0.017082144  0.016691922            2 
 2705000   0.81857137   -8.1525278     554.1712  0.017072434  0.016686233            1 
 2706000    0.8151076   -8.1703101     553.0603  0.017031914  0.016680537            2 
 2707000   0.81596492   -8.1738535    554.12864   0.01705851  0.016674843            4 
 2708000   0.83291561   -8.1425753      554.112  0.017051699  0.016669183            4 
 2709000   0.82794912   -8.1583106     553.8012  0.017035843   0.01666351            2 
 2710000    0.8164688   -8.1684138    553.67446   0.01702566  0.016657844            3 
 2711000   0.82115967   -8.1755694    554.60294   0.01704792  0.016652185            5 
 2712000   0.80732962   -8.1457837     553.9617   0.01702193  0.016646508            1 
 2713000   0.81767653   -8.1774133     552.9949   0.01698596  0.016640831            3 
 2714000    0.8122318   -8.1752769    554.93967  0.017039415   0.01663518            6 
 2715000   0.81315139   -8.1659932     553.5327  0.016989954  0.016629547            3 
 2716000   0.81432778   -8.1761532    554.95372  0.017027299  0.016623942            2 
 2717000    0.8174457   -8.1813701    554.70882   0.01701352  0.016618302            3 
 2718000   0.81691003   -8.1423497    556.53447  0.017063235  0.016612668            5 
 2719000   0.81958577   -8.1564785    553.95917   0.01697803  0.016607036            2 
 2720000   0.82214683   -8.1556535    555.44959  0.017017451   0.01660142            3 
 2721000   0.81386119   -8.2049455    554.66081  0.016987039  0.016595808            2 
 2722000   0.80524962   -8.1719499    554.65001  0.016980468  0.016590181            2 
 2723000    0.8128172   -8.1975934    554.54394  0.016970986  0.016584551            1 
 2724000   0.83439709   -8.1682248    554.24298  0.016955549  0.016578927            2 
 2725000   0.81056785   -8.1664977    555.87627  0.016999274  0.016573332            2 
 2726000   0.81520369   -8.1816009     554.3307   0.01694579  0.016567751            3 
 2727000   0.81804005   -8.1537309    555.96862  0.016989629  0.016562188            3 
 2728000   0.80285304    -8.136953    555.24531  0.016961306  0.016556641            1 
 2729000   0.80372774    -8.177051    555.32868  0.016957637   0.01655107            3 
 2730000   0.83405682   -8.1884154    556.11833  0.016975529  0.016545528            3 
 2731000   0.81069429   -8.1675455    557.25237  0.017003917  0.016539983            1 
 2732000   0.83336572   -8.1467955     556.2653  0.016967585  0.016534425            4 
 2733000   0.81159208   -8.1535976    554.65523  0.016912283  0.016528851            2 
 2734000   0.82572657   -8.1820893    555.02842  0.016917472   0.01652327            2 
 2735000   0.81723532   -8.1832398    557.50232  0.016986664  0.016517672            3 
 2736000   0.81076738   -8.1955998    556.38434  0.016946404  0.016512098            2 
 2737000   0.83742413   -8.2078076    555.06476  0.016900035  0.016506506            2 
 2738000   0.81078682   -8.1466835    556.70757  0.016943863  0.016500941            4 
 2739000   0.81934114   -8.1737222    556.19627  0.016922121  0.016495387            3 
 2740000   0.82038858   -8.1286624    557.62242  0.016959319  0.016489844            2 
 2741000   0.79603229   -8.1517383    556.83698  0.016929253  0.016484314            3 
 2742000   0.81255619   -8.1577008    555.98052   0.01689705  0.016478763            2 
 2743000    0.8129038    -8.185852    555.22467  0.016867927  0.016473193            1 
 2744000   0.80847674   -8.1367775    557.69722  0.016936869  0.016467634            2 
 2745000   0.81704579   -8.1472487    556.20134  0.016885287  0.016462098            2 
 2746000   0.81804388   -8.1347347    555.57504  0.016860131  0.016456586            4 
 2747000   0.81987613   -8.1922137    556.31908  0.016876565  0.016451026            2 
 2748000   0.79944727   -8.1744088    556.56193  0.016877788  0.016445449            4 
 2749000   0.80976947    -8.179912    555.01792  0.016824843  0.016439895            4 
 2750000     0.821032   -8.1666257    556.47797  0.016862969  0.016434315            8 
 2751000   0.80346558   -8.1770981    556.70614  0.016863751  0.016428759            2 
 2752000   0.80905047   -8.1911503    557.03479  0.016867575  0.016423211            3 
 2753000   0.81571548   -8.1877792    557.14153  0.016864679  0.016417679            1 
 2754000   0.79452035   -8.1626332    556.68224  0.016844657  0.016412112            2 
 2755000   0.81037165   -8.1889502    555.46143  0.016801616  0.016406563            2 
 2756000   0.78816919   -8.1719147     556.0965  0.016814723  0.016401015            2 
 2757000   0.80631731   -8.1722592    557.17123  0.016841108  0.016395498            3 
 2758000   0.81462212   -8.1704218    556.80783  0.016824022  0.016389992            2 
 2759000    0.8089368   -8.2079852    555.40568  0.016775573  0.016384459            3 
 2760000   0.80359506   -8.1828788    555.92741  0.016785248  0.016378935            3 
 2761000   0.82097301   -8.1805461    555.91823  0.016778891  0.016373428            2 
 2762000   0.82378792   -8.1846015     556.2636  0.016783237  0.016367908            2 
 2763000   0.79858021   -8.1852157    556.68891   0.01678999  0.016362372            4 
 2764000   0.82249432   -8.1721995    556.54661  0.016779625  0.016356819            1 
 2765000   0.80386964   -8.1911877    555.95089  0.016755602  0.016351279            4 
 2766000   0.82811362   -8.1934541    556.71588  0.016772592  0.016345718            1 
 2767000   0.81233233    -8.185948    555.74332   0.01673724  0.016340193            3 
 2768000   0.81209164   -8.2113258     556.5118  0.016754329  0.016334657            1 
 2769000   0.80643165   -8.1877767    556.72812  0.016754789  0.016329141            2 
 2770000    0.8056802   -8.2108764    557.10546  0.016760092  0.016323628            2 
 2771000   0.80328315    -8.208932    556.31362   0.01673023  0.016318093            2 
 2772000   0.80255595   -8.2142124    558.02853  0.016775749  0.016312548            2 
 2773000   0.81862554   -8.1748005     558.3806   0.01678028  0.016307023            1 
 2774000   0.82933522   -8.2308776    557.58104  0.016750212  0.016301516            1 
 2775000   0.78483576    -8.214731    555.50935  0.016681962  0.016296004            6 
 2776000   0.79386807   -8.2007815    558.35452  0.016761363  0.016290485            2 
 2777000   0.81217408   -8.1917095    557.74825  0.016737134  0.016284938            2 
 2778000   0.79896221   -8.2028762    556.42386  0.016691381  0.016279409            1 
 2779000   0.80276326   -8.1795213    557.52829  0.016718493    0.0162739            1 
 2780000   0.79705109   -8.2067278    558.00228  0.016726687    0.0162684            2 
 2781000   0.79778882   -8.2101889    557.57213  0.016707783   0.01626289            2 
 2782000   0.80906337   -8.1977501    556.05053  0.016656199  0.016257353            1 
 2783000   0.80465398   -8.2274227    556.70403  0.016669782  0.016251842            2 
 2784000   0.81527485   -8.2094005    558.11703  0.016706089  0.016246332            2 
 2785000   0.80770542   -8.1952773    557.51256  0.016682004  0.016240821            2 
 2786000   0.80388706   -8.2094639    556.60957  0.016649006  0.016235313            2 
 2787000   0.82408302   -8.2333457    556.02839  0.016625655  0.016229793            2 
 2788000   0.78965839   -8.2322602    557.48994  0.016663377  0.016224298            4 
 2789000   0.80124373   -8.2179075    556.45113  0.016626363   0.01621878            4 
 2790000   0.81279836   -8.2099472    558.13104  0.016670581  0.016213307            1 
 2791000    0.8094504   -8.2404463    557.77401  0.016653948  0.016207829            5 
 2792000    0.8191766    -8.207178    556.94932  0.016623368  0.016202354            3 
 2793000   0.80334762   -8.2234817    558.09051  0.016651465  0.016196885            3 
 2794000   0.80183892   -8.2248619     557.5951   0.01663073   0.01619141            2 
 2795000   0.81139282   -8.2309127    558.34589  0.016647164  0.016185936            1 
 2796000   0.79966379   -8.2416253    557.78279  0.016624427  0.016180427            2 
 2797000   0.80836604   -8.2367801    556.90982  0.016592475  0.016174899            2 
 2798000   0.80602493   -8.2392459    556.57877  0.016576685  0.016169393            1 
 2799000    0.8114658    -8.232543    558.40263  0.016625064  0.016163877            5 
 2800000   0.80250027   -8.2139794    557.27735  0.016585635  0.016158385            1 
 2801000   0.80774367   -8.2428799    557.80077  0.016595286  0.016152892            2 
 2802000    0.8156349   -8.1975997    558.46888  0.016609234  0.016147413            2 
 2803000   0.81943289   -8.1940989    558.16134  0.016594165  0.016141949            2 
 2804000   0.79642376   -8.2036651    558.22548  0.016590153  0.016136478            2 
 2805000   0.79148099   -8.1880952    558.07861  0.016579875   0.01613102            2 
 2806000   0.79427982   -8.2280821    556.53105  0.016528007   0.01612553            2 
 2807000   0.78691891   -8.2060283     559.0013  0.016595455  0.016120052            2 
 2808000   0.81235082   -8.2160646    558.89241  0.016586313  0.016114587            3 
 2809000     0.797374   -8.2034931    558.28333  0.016562339   0.01610911            3 
 2810000   0.79063299   -8.2215425    557.49519  0.016533072  0.016103623            3 
 2811000   0.80965692    -8.201038    558.02091  0.016542776  0.016098122            1 
 2812000   0.79634026   -8.2093683    558.17193  0.016541368   0.01609264            5 
 2813000   0.78380511   -8.2049129    558.54206  0.016546453  0.016087173            3 
 2814000   0.79506082   -8.1718644    559.24874    0.0165615  0.016081734            1 
 2815000   0.80370646   -8.2008859    559.33578  0.016558194  0.016076327            1 
 2816000    0.8005049   -8.1991442    558.09122  0.016515483  0.016070915            5 
 2817000    0.8136498   -8.2031449    558.38316  0.016518257  0.016065474            7 
 2818000   0.78688957   -8.2183721    558.13593  0.016505084  0.016060009            2 
 2819000   0.80620774   -8.2098495     559.1785  0.016530049   0.01605455            3 
 2820000   0.79357478   -8.2253702     558.3443  0.016499536    0.0160491            4 
 2821000   0.77627578    -8.217681    557.89751  0.016480489  0.016043635            4 
 2822000   0.79369202   -8.2168141      558.473  0.016491643  0.016038174            5 
 2823000   0.80880972   -8.1995131    558.29974  0.016480687   0.01603272            3 
 2824000   0.78777196   -8.2046162    559.05128  0.016497028  0.016027255            1 
 2825000   0.77720012   -8.2062007    559.74286  0.016511589  0.016021788            2 
 2826000   0.80740007   -8.1933961    559.94595  0.016511735  0.016016345            2 
 2827000   0.79617549   -8.2162024    559.58485   0.01649525  0.016010892            7 
 2828000   0.79698388   -8.2343408    559.06835  0.016474197  0.016005451            2 
 2829000   0.78787868    -8.214401     558.7864  0.016460068  0.015999996            2 
 2830000   0.80458829   -8.1988517    558.86626  0.016456604  0.015994539            1 
 2831000   0.80529222   -8.2436009    559.85647  0.016479938  0.015989058            3 
 2832000    0.7931133   -8.2198251    558.90876  0.016446232  0.015983618            4 
 2833000   0.80069095    -8.194229     559.5904  0.016460478   0.01597815            2 
 2834000   0.79272596   -8.2312985    559.20911  0.016443458  0.015972699            2 
 2835000   0.78354268   -8.2006415    559.36233  0.016442161  0.015967261            5 
 2836000   0.81229336   -8.2356525    558.03081  0.016397238  0.015961818            1 
 2837000   0.79817515   -8.2244595    558.92854  0.016417828  0.015956376            2 
 2838000   0.79621518     -8.24728    559.29445  0.016422787   0.01595095            2 
 2839000   0.78829447   -8.2048072    559.59039   0.01642569  0.015945529            2 
 2840000   0.79162548   -8.2109584    560.11753  0.016435373  0.015940084            5 
 2841000   0.77841607   -8.2049154    559.10724  0.016399954  0.015934642            3 
 2842000   0.79072472   -8.2436761    558.46362  0.016375312  0.015929199            2 
 2843000   0.77006128   -8.2546206    558.42497  0.016368419  0.015923724            1 
 2844000   0.81000498   -8.2472226    558.39126  0.016361675  0.015918257            7 
 2845000   0.80092518   -8.2472917    558.43757  0.016357281  0.015912793            2 
 2846000   0.78604513   -8.2555678    557.52576  0.016324835  0.015907315            3 
 2847000   0.79197962   -8.2691834    557.82711  0.016327921  0.015901826            3 
 2848000   0.79984233   -8.2488986    557.59084  0.016315275  0.015896333            3 
 2849000   0.79593324   -8.2231266    558.31602   0.01633076  0.015890828            2 
 2850000   0.79546259   -8.2565602    559.35085  0.016355288  0.015885341            1 
 2851000   0.80568305   -8.2534941      558.954  0.016337952  0.015879848            3 
 2852000   0.77577629   -8.2461783    558.78738  0.016327355  0.015874368            1 
 2853000    0.8115464   -8.2682209    558.73701   0.01632016  0.015868936            3 
 2854000   0.80259485   -8.2235334    559.52049  0.016337319    0.0158635            1 
 2855000   0.78562921   -8.2395993    559.55404  0.016332575  0.015858073            7 
 2856000   0.80168265   -8.1838104    559.49815  0.016325226  0.015852658            2 
 2857000    0.7870702   -8.2509982    559.47045  0.016318704  0.015847258            4 
 2858000   0.80746925   -8.2022332     559.9797  0.016327843   0.01584187            2 
 2859000   0.78506188   -8.2206576     560.9663  0.016350889  0.015836491            2 
 2860000   0.80000986   -8.2477613    559.55482  0.016304045  0.015831095            1 
 2861000   0.78623288   -8.2400027    558.64608  0.016271877  0.015825679            5 
 2862000    0.8026026   -8.2099659    559.32977  0.016286099  0.015820287            3 
 2863000   0.79581649   -8.2312493    558.96896  0.016269908  0.015814885            4 
 2864000   0.78958793   -8.2511464    559.57433  0.016281842  0.015809494            2 
 2865000   0.80168833   -8.2215152    558.81101  0.016253956  0.015804083            3 
 2866000   0.78447704   -8.2339823    560.90271  0.016309104  0.015798681            4 
 2867000   0.79686334   -8.2517757    560.16265  0.016281905  0.015793281            2 
 2868000   0.79562584   -8.2341334     559.5553   0.01625858  0.015787864            5 
 2869000   0.78627982   -8.2528151    559.39682   0.01624831  0.015782481            2 
 2870000   0.78896456    -8.228377    559.99293  0.016259957  0.015777118            2 
 2871000   0.77567143   -8.2299925     559.8347  0.016249701  0.015771747            3 
 2872000   0.78210948   -8.2534471    559.94109   0.01624713  0.015766353            2 
 2873000    0.7899879   -8.2578056    559.53916  0.016229817  0.015760966            3 
 2874000   0.81383739   -8.2480545      558.948  0.016207029  0.015755569            2 
 2875000    0.7943075   -8.2448493    560.62201  0.016249913  0.015750181            2 
 2876000   0.81080952   -8.2441414    560.16252  0.016230949  0.015744794            2 
 2877000   0.79551903   -8.2178543    560.80654  0.016243962  0.015739415            6 
 2878000   0.77901554   -8.2014012    560.86913   0.01624013  0.015734049            1 
 2879000   0.77301167   -8.2381766     560.4424  0.016222137  0.015728685            2 
 2880000   0.79691368   -8.2380657    560.31205  0.016212733    0.0157233            2 
 2881000   0.77860286   -8.2235357    560.88293  0.016223618  0.015717953            2 
 2882000   0.80204262   -8.2365869    560.43962  0.016205171  0.015712571            1 
 2883000   0.80134645   -8.1865707    560.80581  0.016210134  0.015707213            3 
 2884000   0.79976542   -8.2174459    560.49312  0.016195478  0.015701859            1 
 2885000   0.78829638   -8.2357436    560.14268  0.016179742  0.015696515            2 
 2886000   0.76841371   -8.2475358    560.67353  0.016189464  0.015691178            2 
 2887000   0.79488046   -8.2232206    561.87208  0.016218453  0.015685844            3 
 2888000   0.79549184   -8.2311854     561.4401  0.016200372    0.0156805            6 
 2889000   0.80599453   -8.2282231    562.21869  0.016217223  0.015675164            2 
 2890000   0.78477628   -8.2276724    560.83201  0.016171627  0.015669827            1 
 2891000   0.80026588   -8.2541515    561.68299  0.016190562  0.015664496            4 
 2892000    0.7984241   -8.2159455    562.68333  0.016213789  0.015659164            3 
 2893000   0.79451416   -8.2133512    561.22806  0.016166265  0.015653863            3 
 2894000   0.77496252   -8.2190378    562.15895  0.016187484  0.015648537            2 
 2895000   0.78671381   -8.2270813    562.05007  0.016178758  0.015643201            1 
 2896000   0.78823474   -8.2780435    560.49501  0.016128425  0.015637844            2 
 2897000   0.78801072   -8.2447701    561.38756  0.016148532  0.015632491            5 
 2898000   0.77295591   -8.2374079    560.00678  0.016103255  0.015627136            4 
 2899000   0.79026297   -8.2602175    561.20253  0.016132072  0.015621777            1 
 2900000   0.79069645   -8.2642016    559.97463  0.016091225  0.015616405            1 
 2901000   0.79010355   -8.2753283    560.55914  0.016102469  0.015611039            2 
 2902000   0.78728204   -8.2682022    560.77851  0.016103219  0.015605678            1 
 2903000   0.80315485   -8.2714045    560.61671  0.016093028  0.015600326            2 
 2904000   0.80277849   -8.2704047    559.96429  0.016068764  0.015594976            2 
 2905000   0.80004928   -8.2427372      561.276  0.016100861   0.01558962            2 
 2906000   0.79168877   -8.2381314    561.97268  0.016115298  0.015584294            4 
 2907000   0.78807681   -8.2512863      560.895  0.016078861  0.015578961            3 
 2908000   0.79358053   -8.2787341     560.5376   0.01606309  0.015573613            3 
 2909000   0.78680109   -8.2628469    560.78444  0.016064639   0.01556825            3 
 2910000   0.77895976   -8.2382873    560.89722  0.016062349  0.015562919            6 
 2911000   0.76882366   -8.2836432     560.5487  0.016046854  0.015557572            2 
 2912000   0.77373705   -8.2801859    560.79715  0.016048453  0.015552212            1 
 2913000   0.78054036   -8.2854733    559.28215  0.015999604   0.01554683            2 
 2914000   0.79814335   -8.2746423    560.82875  0.016038342   0.01554147            1 
 2915000   0.77834153   -8.2776308    561.55605  0.016053632  0.015536123            2 
 2916000   0.78763884   -8.2679723    561.36125   0.01604256  0.015530767            2 
 2917000   0.79436456   -8.3013163    559.96716  0.015997233  0.015525409            1 
 2918000   0.78043901   -8.2608064    560.43551  0.016005127  0.015520041            3 
 2919000   0.78524686   -8.2586936     560.7614  0.016008947  0.015514697            2 
 2920000   0.77807232   -8.2895612    561.13404  0.016014099  0.015509358            2 
 2921000   0.78823467   -8.2751516    560.25186  0.015983449  0.015504025            2 
 2922000    0.7754764   -8.2689544    559.98409  0.015970342  0.015498671            3 
 2923000   0.78618688   -8.2699992    561.19994  0.015999542  0.015493322            2 
 2924000   0.77403038   -8.2916275    561.31143  0.015997248  0.015487975            2 
 2925000   0.76615739   -8.2660499    561.63499  0.016000997  0.015482631            2 
 2926000   0.78415267   -8.2999156      560.901  0.015974624  0.015477265            3 
 2927000   0.79456691    -8.273613    560.35953   0.01595375  0.015471894            3 
 2928000   0.79189439   -8.2864677    560.88218  0.015963177  0.015466551            3 
 2929000   0.76644137   -8.2884303    560.41562  0.015944453  0.015461171            3 
 2930000   0.79151482   -8.2866174    560.46477  0.015940409  0.015455808            3 
 2931000   0.80554838   -8.2793703    561.54728  0.015965748  0.015450462            8 
 2932000   0.77810705   -8.2833803    560.91088  0.015942215  0.015445135            2 
 2933000   0.78119312   -8.2610671    561.91919  0.015965427  0.015439795            2 
 2934000   0.77963822   -8.2695841    560.61232  0.015922868  0.015434458            2 
 2935000   0.78231863   -8.2574661    560.72504  0.015920643  0.015429129            1 
 2936000   0.78559768   -8.2861701    560.86504  0.015919194    0.0154238            3 
 2937000   0.78518075   -8.2705276    560.70615  0.015909265  0.015418472            4 
 2938000   0.77076941   -8.2513241    560.98207  0.015911677  0.015413144            2 
 2939000   0.78230682   -8.2905714     561.6347  0.015924767  0.015407808            4 
 2940000   0.79333194   -8.2735151    561.33466  0.015910846  0.015402488            2 
 2941000   0.77370974   -8.2785527    561.63328  0.015913898  0.015397158            4 
 2942000   0.77244404   -8.2598895    560.19498  0.015867748  0.015391824            3 
 2943000   0.77967398   -8.2726998    562.13031  0.015917157  0.015386505            3 
 2944000   0.78307589   -8.2760399    561.77492  0.015901691  0.015381186            2 
 2945000   0.77218478   -8.2853573    560.13076  0.015849767   0.01537586            2 
 2946000   0.78757443   -8.2960394     559.5855  0.015828963  0.015370539            1 
 2947000   0.75822417    -8.292172    561.05523  0.015865152  0.015365199            5 
 2948000   0.78143352   -8.2875655    561.05694  0.015859819  0.015359864            2 
 2949000    0.7769909    -8.288514    561.55075  0.015868395  0.015354518            1 
 2950000   0.75942905   -8.2885561    560.98174  0.015846942  0.015349183            2 
 2951000   0.78415785   -8.2887895    562.01625  0.015870785  0.015343862            2 
 2952000     0.784196   -8.2948784    560.08201  0.015810807  0.015338548            1 
 2953000    0.7813217   -8.2753835    562.33334  0.015868985  0.015333256            2 
 2954000   0.77223365   -8.2955194    561.07329  0.015828066  0.015327967            3 
 2955000   0.78918079   -8.2803249    562.19123  0.015854237  0.015322671            2 
 2956000    0.7689829   -8.2816835    562.06613  0.015845347  0.015317385            1 
 2957000   0.78679318   -8.2858084     561.3002  0.015818403   0.01531212            1 
 2958000   0.77538554   -8.2800501     562.2485  0.015839771  0.015306842            1 
 2959000   0.76947192   -8.2579345    562.83724  0.015850998  0.015301573            4 
 2960000   0.77068305   -8.2917898    561.30479    0.0158025  0.015296271            2 
 2961000   0.75794426   -8.2615823    562.50212   0.01583086  0.015290978            3 
 2962000   0.79171311   -8.3189188    561.22931  0.015789706  0.015285692            3 
 2963000   0.77036608   -8.2920345    562.04616  0.015807351  0.015280407            1 
 2964000   0.76569695   -8.2819574    562.80046  0.015823225  0.015275135            3 
 2965000   0.78239583   -8.3170749    561.00072  0.015767305  0.015269836            1 
 2966000   0.76857842   -8.2914473    562.32056  0.015799072  0.015264554           11 
 2967000    0.7526983   -8.2477276    562.38662  0.015795602  0.015259293            1 
 2968000   0.78407364   -8.2851514    561.38628  0.015762193  0.015254024            2 
 2969000   0.78697994   -8.2816667    562.72186  0.015794371  0.015248771            2 
 2970000   0.74949163   -8.2907188     561.4584  0.015753603  0.015243516            2 
 2971000   0.78805554   -8.2608776    562.53873  0.015778602  0.015238269            2 
 2972000   0.76741015   -8.2945609    561.96671  0.015757254   0.01523302            7 
 2973000   0.76941905    -8.306646    561.28357  0.015732805   0.01522777            2 
 2974000   0.77389478   -8.2991925    562.16923  0.015752332  0.015222508            3 
 2975000   0.77147388   -8.2995046    562.18603  0.015747508  0.015217234            2 
 2976000    0.7879318   -8.2955551    563.08004   0.01576725  0.015211983            2 
 2977000    0.7842388   -8.2896413    561.37467  0.015714216  0.015206711            2 
 2978000   0.76872914   -8.3217309    561.10536  0.015701404   0.01520147            2 
 2979000   0.77841163   -8.2580165    564.33943  0.015786601  0.015196254            6 
 2980000   0.78645039   -8.2698862    561.59034  0.015704428  0.015191041            1 
 2981000   0.77872376   -8.2771879    562.81016  0.015733259    0.0151858            4 
 2982000   0.76909604    -8.264713    561.72421  0.015697636  0.015180568            3 
 2983000   0.75848922   -8.2730067    563.01043  0.015728306  0.015175323            4 
 2984000   0.78311789   -8.2926175     562.6363  0.015712587  0.015170089            3 
 2985000    0.7753726   -8.2771318    561.75034  0.015682589  0.015164832            3 
 2986000    0.7629516   -8.2942632    561.61313  0.015673508  0.015159596            2 
 2987000   0.78999135   -8.3025646    562.76819  0.015700485   0.01515435            4 
 2988000   0.76969408   -8.2982611    562.12048  0.015677166  0.015149101            2 
 2989000   0.77979712   -8.3582364     561.7233  0.015660848  0.015143857            1 
 2990000   0.77473862   -8.2967273    563.90517  0.015716421    0.0151386            3 
 2991000   0.77487164   -8.2872759    562.26174  0.015665378  0.015133366            2 
 2992000   0.79344713   -8.3302115     562.0721   0.01565486  0.015128122            2 
 2993000   0.77446287   -8.2752813    563.07349  0.015677511  0.015122864            4 
 2994000   0.77506516   -8.2970284    562.85735  0.015666259  0.015117619            4 
 2995000   0.77582999   -8.3108825    560.76208  0.015602729  0.015112365            1 
 2996000    0.7712411   -8.3020251    562.47783  0.015645245  0.015107107            1 
 2997000   0.77535687   -8.3207261    561.98087  0.015626206  0.015101858            1 
 2998000   0.78976874   -8.2988949    563.12177  0.015652707  0.015096607            3 
 2999000   0.76407535    -8.303121    561.48465  0.015601996  0.015091365            2 
 3000000   0.78218598   -8.2854276    563.38085  0.015649468  0.015086138            2 
 3001000   0.78009175    -8.293374    564.16159  0.015665933  0.015080941            3 
 3002000   0.79606586   -8.3078254    561.58857   0.01558929  0.015075736            5 
 3003000    0.7759496   -8.3162421    562.31411  0.015604232  0.015070504            1 
 3004000   0.76588656   -8.2840387    562.99647  0.015617967  0.015065289            3 
 3005000   0.76424926    -8.322449    562.98844  0.015612547  0.015060076            3 
 3006000   0.77359804   -8.3337692    562.13151  0.015583597  0.015054854            3 
 3007000   0.74071581   -8.2968239    562.74854  0.015595514  0.015049633            2 
 3008000   0.76559974   -8.2816224    564.34657  0.015634601  0.015044428            2 
 3009000   0.78941512   -8.3077734    563.02228   0.01559273  0.015039229            1 
 3010000   0.77731545   -8.3302375    562.59405  0.015575693  0.015034015            2 
 3011000   0.79764299   -8.2920241    564.01645  0.015609887  0.015028822            1 
 3012000   0.76467495   -8.3007303    563.06851  0.015578478  0.015023649            3 
 3013000   0.75470542   -8.3211494    562.34474   0.01555329  0.015018449            1 
 3014000   0.77171351   -8.3123398    562.49379   0.01555225  0.015013231            2 
 3015000   0.77888873   -8.3157712    563.05469  0.015562595  0.015008022            3 
 3016000   0.77784507   -8.3459335    561.61048  0.015517531  0.015002819            1 
 3017000   0.77453034    -8.311658    561.87022  0.015519562  0.014997601            3 
 3018000   0.75827127   -8.3178471    562.92257  0.015543477  0.014992392            2 
 3019000   0.76187561   -8.3065128    562.91645   0.01553816  0.014987193            2 
 3020000   0.76060124   -8.3211621    563.33503  0.015544565  0.014982007            5 
 3021000   0.76519428   -8.3098001    563.17157   0.01553491  0.014976817            3 
 3022000   0.77109627   -8.2968577    564.11578  0.015555807  0.014971646            3 
 3023000   0.74264865   -8.3155575    564.55469   0.01556276  0.014966458            2 
 3024000   0.76101799   -8.2946977    563.24195  0.015521438  0.014961272            2 
 3025000   0.75903742   -8.3081111    563.58786  0.015525836  0.014956095            3 
 3026000   0.75963081   -8.2929658    564.62239  0.015549195  0.014950942            2 
 3027000   0.76345871   -8.3000726    563.51388  0.015513542  0.014945788            2 
 3028000    0.7672737   -8.3182148    564.11976  0.015525092  0.014940617            2 
 3029000   0.75025797   -8.3141028     563.4399  0.015501263  0.014935445            4 
 3030000   0.77241871   -8.2981696    563.15876  0.015488415  0.014930276            4 
 3031000   0.75794264    -8.316526    563.76609  0.015500002  0.014925107            3 
 3032000   0.76006478   -8.3058566    563.35621  0.015483625  0.014919929            3 
 3033000   0.75780648   -8.3437906    563.44395  0.015480931   0.01491475            2 
 3034000   0.77857826   -8.3237679    563.90965  0.015488619  0.014909546            2 
 3035000    0.7605955   -8.3314045    563.80391  0.015480613  0.014904362            6 
 3036000   0.77028168   -8.3392106    563.28456  0.015461258   0.01489918            2 
 3037000   0.77418253   -8.3145295    563.72483  0.015468248  0.014894022            2 
 3038000   0.76691456   -8.2958543    564.59193  0.015486941  0.014888867            2 
 3039000   0.76199275    -8.319895    563.86972  0.015462041    0.0148837            2 
 3040000   0.75481473   -8.3241228    563.91954  0.015458321  0.014878543            2 
 3041000   0.77665077   -8.3221327    565.03749  0.015483873    0.0148734            3 
 3042000   0.76107343   -8.3240926    563.05548  0.015424487  0.014868251            4 
 3043000   0.77206854    -8.298314    564.36285  0.015455221  0.014863105            3 
 3044000   0.75276568   -8.3317879     563.5142  0.015426911   0.01485796            7 
 3045000   0.76038912   -8.3052302    563.38143  0.015418211  0.014852813            2 
 3046000   0.76463428   -8.2655727    565.79064  0.015479061   0.01484769            3 
 3047000   0.77289566   -8.2960289    564.34948  0.015434566  0.014842568            1 
 3048000   0.77286312   -8.3105866    563.95494  0.015418716   0.01483743            2 
 3049000   0.75510991   -8.3253382    564.17982  0.015419805   0.01483228            2 
 3050000   0.76597625    -8.313846    563.24268  0.015389144   0.01482713            2 
 3051000   0.77076835   -8.3418444    562.08209  0.015352401   0.01482198            2 
 3052000   0.76800232   -8.3044777    564.00575  0.015399895  0.014816822            6 
 3053000    0.7559598   -8.3010644    563.87598  0.015391309   0.01481169            3 
 3054000   0.76874922   -8.3037125    564.88064  0.015413683  0.014806574            2 
 3055000   0.75456475    -8.325387    564.62299  0.015401609  0.014801461            4 
 3056000   0.74319389   -8.2858595    564.50069  0.015393234  0.014796349            2 
 3057000   0.76300089   -8.3141594    563.98105  0.015374034  0.014791242            5 
 3058000   0.76379929     -8.30503    564.64327  0.015387052  0.014786138            4 
 3059000    0.7690502   -8.3141479    564.53524  0.015379079  0.014781034            2 
 3060000   0.76676393   -8.3097271    565.41782  0.015398089  0.014775917            3 
 3061000   0.75155875   -8.2914728    565.16712  0.015386233  0.014770827            2 
 3062000   0.73996329   -8.2997366    564.85236  0.015372642  0.014765751            2 
 3063000   0.75639851   -8.3014491    565.61818  0.015388458  0.014760671            2 
 3064000   0.76614427   -8.3284066      564.376  0.015349652  0.014755578            1 
 3065000   0.76296653   -8.3031424    564.84126  0.015357294   0.01475048            2 
 3066000   0.74594245   -8.3118565    564.90657   0.01535406  0.014745395            1 
 3067000   0.75283748   -8.3063248    564.51107  0.015338307  0.014740289            1 
 3068000    0.7484018   -8.3271288    564.53221  0.015333882  0.014735196            1 
 3069000   0.75981721   -8.3369517    565.58208  0.015357393  0.014730105            2 
 3070000   0.76351728   -8.3007505    565.36807  0.015346582  0.014725019            5 
 3071000   0.76449532   -8.3229706    563.95188  0.015303155  0.014719939            4 
 3072000   0.76622463   -8.3193078    564.95278  0.015325325  0.014714863            2 
 3073000   0.75611415   -8.3172563    565.33374  0.015330669  0.014709789            3 
 3074000   0.77554629   -8.3442882    564.18594  0.015294566  0.014704699            3 
 3075000   0.75328053    -8.348089    564.15285  0.015288695  0.014699602            1 
 3076000   0.75523041   -8.2836834    564.07499  0.015281615    0.0146945            3 
 3077000   0.76703478   -8.3175988    564.63515   0.01529182  0.014689413            2 
 3078000   0.75601012   -8.3570995    562.49016  0.015228778  0.014684309            2 
 3079000   0.77243886   -8.3571412    564.36066  0.015274458  0.014679187            3 
 3080000   0.77331453   -8.3609442    564.38909  0.015270267  0.014674075            4 
 3081000   0.76700462   -8.3325976    564.03215  0.015255657  0.014668974            1 
 3082000   0.75817963    -8.354758    563.42877  0.015234392  0.014663857            1 
 3083000   0.74426893   -8.3358018     562.8557  0.015213961  0.014658736            3 
 3084000    0.7556686   -8.3374362     563.4797  0.015225889  0.014653618            2 
 3085000    0.7745668   -8.3659451    562.70117  0.015199924  0.014648499            4 
 3086000    0.7597792   -8.3610269    563.14613  0.015207014  0.014643382            4 
 3087000   0.74826324   -8.3997982    561.79318  0.015165565  0.014638241            1 
 3088000   0.74873528   -8.3687008    563.73944  0.015213176  0.014633096            2 
 3089000   0.75974842    -8.348189    564.67139  0.015233392  0.014627971            2 
 3090000   0.75475665   -8.3718928    562.74779  0.015176585   0.01462285            1 
 3091000    0.7545553   -8.3756092    563.88887  0.015202439  0.014617732            4 
 3092000   0.76957898   -8.3611279     564.3487  0.015209915  0.014612627            3 
 3093000   0.76959942   -8.3561303    564.69336  0.015214284  0.014607514            2 
 3094000   0.75512077     -8.35097    564.16607  0.015195165   0.01460239            3 
 3095000   0.76699821   -8.3413618    563.47856  0.015171744  0.014597287            2 
 3096000   0.77222545   -8.3546687    564.17851  0.015185683  0.014592198            8 
 3097000   0.75882294   -8.3453818    563.96103  0.015174928  0.014587111            1 
 3098000   0.74232896   -8.3775183    563.55008  0.015158976  0.014582025            6 
 3099000   0.77999921    -8.337792    566.03246  0.015220836  0.014576927            2 
 3100000   0.75790394   -8.3358566    564.70587  0.015180265  0.014571824            2 
 3101000   0.77920979   -8.3486482    565.43269  0.015194902  0.014566755            9 
 3102000   0.77245216   -8.3314657    565.35246  0.015187848  0.014561687            4 
 3103000   0.74965919   -8.3228291    565.46894  0.015186082  0.014556641            2 
 3104000   0.74354868   -8.3280379    563.63429  0.015131934   0.01455159            1 
 3105000   0.75630621   -8.3705204    564.46677  0.015149403  0.014546532            3 
 3106000   0.74338622   -8.3728096    563.42703   0.01511663  0.014541453            2 
 3107000   0.76033894   -8.3702698    563.98566  0.015126748  0.014536362            3 
 3108000   0.74750492   -8.3709437    563.33571  0.015104454  0.014531282            2 
 3109000   0.74307078   -8.3684615    564.42911  0.015128903  0.014526196            1 
 3110000   0.75191244   -8.3455481    565.19805  0.015144642  0.014521126            4 
 3111000   0.74612048   -8.3896174    564.12245  0.015110962  0.014516068            2 
 3112000   0.76499714   -8.3688883    564.17105  0.015107408  0.014511008            2 
 3113000   0.76491819   -8.3295337    563.98758  0.015097644  0.014505947            4 
 3114000   0.75653353   -8.3592563    564.61736  0.015109649   0.01450089            3 
 3115000   0.75216106   -8.3714146    564.79257  0.015109486  0.014495839            2 
 3116000   0.75118911   -8.3762853    563.83565  0.015079045  0.014490791            8 
 3117000   0.76851629   -8.3197098    565.60293  0.015121456  0.014485748            9 
 3118000   0.76408431   -8.3662512    563.28347  0.015054615  0.014480686            3 
 3119000   0.75623005   -8.3817996    564.63977  0.015086026  0.014475636            4 
 3120000   0.74594264    -8.361008    565.53028  0.015104976  0.014470597            2 
 3121000   0.75623363   -8.3575561    565.56052  0.015100943  0.014465548            2 
 3122000   0.74431886   -8.3716464    565.05598  0.015082639  0.014460511            5 
 3123000   0.75096642    -8.364756    564.85932  0.015072562  0.014455462            2 
 3124000   0.73882686   -8.4003791    564.25617  0.015051648  0.014450406            5 
 3125000   0.73796557   -8.3601771    564.27845  0.015047425  0.014445355            9 
 3126000   0.75700193   -8.3698067    566.19383  0.015093672  0.014440315            5 
 3127000   0.74444488   -8.3732841    565.34629  0.015066259  0.014435285            1 
 3128000   0.75094047   -8.3536058    564.64447  0.015042745  0.014430252            3 
 3129000   0.75005063   -8.3607789    564.32999  0.015029562  0.014425205            7 
 3130000   0.75892671   -8.3543777    563.38678  0.014999648  0.014420165            3 
 3131000   0.76023636   -8.3916335    564.37754  0.015021227  0.014415102            4 
 3132000   0.74955932   -8.3673541    564.14733  0.015010306  0.014410057            2 
 3133000   0.75387925   -8.3890328    563.99729  0.015001524  0.014405027            2 
 3134000    0.7567099   -8.3987513    563.73961  0.014989885  0.014399982            9 
 3135000    0.7370506   -8.3946145    564.17774   0.01499675  0.014394931            7 
 3136000   0.75019749   -8.3765856    563.48513  0.014973563  0.014389884            6 
 3137000   0.74678507   -8.3765659    564.92507  0.015007041  0.014384849            6 
 3138000    0.7453442   -8.3866902    564.50969  0.014991228  0.014379808            5 
 3139000    0.7603112   -8.3550847    565.09958  0.015002113  0.014374784            6 
 3140000   0.73136265   -8.3629268     564.8178  0.014989857  0.014369778            2 
 3141000   0.75145902   -8.3684067     566.1587   0.01502066  0.014364772            3 
 3142000   0.73776875   -8.3606779     564.4458  0.014970449  0.014359754            7 
 3143000   0.74122769   -8.3598264    565.91367  0.015004605  0.014354733           11 
 3144000   0.74974754   -8.3647301    564.85528  0.014971779  0.014349728            4 
 3145000   0.74681445   -8.3624663    564.36867  0.014954125  0.014344717            3 
 3146000   0.76785062   -8.3821019    564.80404  0.014960904  0.014339701            2 
 3147000   0.76601375   -8.3705103    564.30011  0.014942806  0.014334675            5 
 3148000    0.7485775   -8.3736121    564.47976  0.014942814  0.014329639            2 
 3149000   0.76433926   -8.3796686    565.40248  0.014962488  0.014324613            2 
 3150000   0.74925128   -8.3674775    565.01514  0.014947491  0.014319591            3 
 3151000   0.74547636   -8.3986372    565.43273  0.014953791  0.014314563            4 
 3152000   0.73024161   -8.3925825    565.05446  0.014939046  0.014309547            9 
 3153000    0.7510196   -8.3838069    563.35004   0.01488926  0.014304532            4 
 3154000    0.7471844   -8.4000975    563.90112    0.0148991  0.014299517            4 
 3155000   0.75101698   -8.3982389    564.83185  0.014918961  0.014294508            2 
 3156000   0.74902779   -8.3872499    564.83661  0.014914359  0.014289498            3 
 3157000   0.74466428   -8.3778503    565.12552  0.014917261  0.014284485            2 
 3158000   0.75402527   -8.3612404    564.97051  0.014908447  0.014279494            5 
 3159000   0.75474962   -8.3889563    565.58922  0.014920049   0.01427453            8 
 3160000   0.74897533   -8.3803119    566.43836   0.01493772  0.014269556            3 
 3161000   0.74831272   -8.3766568    565.36567  0.014904715  0.014264612            1 
 3162000   0.74443099   -8.3779444    566.74597  0.014936379  0.014259648            4 
 3163000   0.76194276    -8.396887     564.5462  0.014873701   0.01425466            2 
 3164000   0.75912335   -8.3951734    565.52746  0.014894845  0.014249691            6 
 3165000   0.74985345   -8.3665515    564.60135  0.014865754  0.014244696            2 
 3166000   0.74055708   -8.3725865    565.19291   0.01487663  0.014239723            3 
 3167000   0.74915874   -8.3990674    565.59042  0.014882392  0.014234765            2 
 3168000   0.75814584   -8.3917684    566.45445  0.014900422   0.01422978            2 
 3169000   0.74319263   -8.3957714    566.00612  0.014883931  0.014224804            3 
 3170000   0.73584399   -8.4038054    565.48457  0.014865525  0.014219804            8 
 3171000   0.73383379   -8.3851423    564.42476  0.014832986   0.01421481            5 
 3172000   0.74381847   -8.3631992    565.57895  0.014858632  0.014209821            3 
 3173000   0.75606839   -8.3767884    565.64357  0.014855646   0.01420486            4 
 3174000   0.74566149   -8.4011759    564.19355  0.014812895  0.014199889            3 
 3175000   0.75498082   -8.3907008    564.80633  0.014824313  0.014194907            2 
 3176000   0.75037709   -8.3948879    566.95653  0.014876063  0.014189946            9 
 3177000   0.75630812   -8.4017541     566.2768  0.014853552  0.014184986           10 
 3178000    0.7482244   -8.4119742    566.12726  0.014844956  0.014180022            4 
 3179000   0.74578367   -8.4209961    565.50007  0.014823846  0.014175066            2 
 3180000   0.73649321    -8.379684    566.16059  0.014836494   0.01417012            1 
 3181000   0.74893518   -8.3915554    565.71248   0.01482009  0.014165175            5 
 3182000   0.72978501    -8.381738    567.60283  0.014864939  0.014160237            2 
 3183000   0.74123112   -8.4020017    565.68307  0.014810008  0.014155285            4 
 3184000   0.74176723   -8.3761742    564.84354  0.014783384  0.014150349            7 
 3185000    0.7501905   -8.3631289    565.58816  0.014798225  0.014145421            2 
 3186000   0.74670809   -8.3652921    565.95131  0.014803079  0.014140493            2 
 3187000   0.75377348   -8.3770399    565.75092  0.014793194  0.014135568            4 
 3188000   0.73348861   -8.3847423    564.81477  0.014764083  0.014130606            3 
 3189000   0.75973954   -8.3932731     563.5888  0.014727417  0.014125631            3 
 3190000   0.76192038   -8.3830349     565.2524  0.014766259   0.01412067            3 
 3191000   0.74591702   -8.3916302    563.99169  0.014728708  0.014115709            3 
 3192000   0.74440732    -8.404057    566.21476  0.014782131  0.014110748            1 
 3193000   0.72660733   -8.4205146    565.65213  0.014762818   0.01410578            2 
 3194000   0.73621764   -8.4076728    564.72245   0.01473394  0.014100812            2 
 3195000   0.74957778   -8.3939289    566.23738  0.014768841  0.014095842            5 
 3196000    0.7205543   -8.4157882    565.00674  0.014732132  0.014090885            2 
 3197000   0.74772455   -8.4081409    565.28027  0.014734654  0.014085929            2 
 3198000   0.73887732   -8.3602237     566.3718   0.01475849  0.014080976            1 
 3199000   0.74484617   -8.3816637    565.37014  0.014727783  0.014076042            3 
 3200000   0.72907772   -8.4180273    566.16361  0.014743844  0.014071106            2 
 3201000   0.73608466   -8.4477622    565.72773   0.01472789  0.014066153            4 
 3202000   0.73874603   -8.3820056    564.67861  0.014695987  0.014061203            2 
 3203000   0.74187936   -8.3918669    565.55535  0.014714209  0.014056262            2 
 3204000   0.72660053   -8.4024249    565.58231  0.014710318  0.014051338            2 
 3205000    0.7525171    -8.380494    566.01398  0.014716952  0.014046414            6 
 3206000    0.7240048   -8.4126453    564.19637  0.014665117  0.014041495            1 
 3207000   0.72431074   -8.4073226    565.76335  0.014701262  0.014036574            1 
 3208000   0.75540553   -8.3928283    566.58937  0.014718136  0.014031682            1 
 3209000   0.73482227   -8.3968752    566.59191  0.014713616   0.01402679            2 
 3210000   0.74273488   -8.3726237    567.09147  0.014722001  0.014021905            1 
 3211000   0.73503127   -8.3750776    566.47828  0.014701502   0.01401702            2 
 3212000   0.72412113   -8.4018445    566.72911  0.014703433  0.014012153            3 
 3213000   0.73584969   -8.3812669     565.5093  0.014667219  0.014007267            4 
 3214000   0.73700226   -8.3931942    565.74602  0.014668793   0.01400238            2 
 3215000   0.73247563   -8.3854611    566.16651   0.01467513  0.013997505            1 
 3216000   0.74427762   -8.4084722    566.50353    0.0146793  0.013992637            2 
 3217000   0.72881162   -8.3695324    565.94674  0.014660313  0.013987776            2 
 3218000   0.74167008   -8.3596661     567.3075  0.014690996  0.013982898            3 
 3219000   0.72815991    -8.414682    565.89415  0.014649843  0.013978034            4 
 3220000   0.74613595    -8.381001    567.97491  0.014699144  0.013973161            4 
 3221000   0.74328822   -8.3996288    566.11573   0.01464648  0.013968291            5 
 3222000   0.74303348   -8.3968143    566.44268   0.01465039  0.013963416            4 
 3223000   0.72668008   -8.4077991    564.80656  0.014603541  0.013958535            5 
 3224000   0.72590337    -8.354545    566.84838  0.014651788  0.013953662            8 
 3225000   0.74007132   -8.4039451    566.14568  0.014629087  0.013948785            3 
 3226000   0.72600025   -8.4335893    565.79747  0.014615558  0.013943896            4 
 3227000   0.72392862   -8.4020137    565.25606  0.014597047  0.013939004            4 
 3228000   0.75078945   -8.4095983    566.68359  0.014629378  0.013934117            5 
 3229000   0.73810412   -8.4196128    565.31152  0.014589437   0.01392923            5 
 3230000    0.7385955   -8.4087204    565.51055  0.014590055   0.01392434            3 
 3231000   0.73625669   -8.3973809    565.61441  0.014588219  0.013919452            4 
 3232000   0.73292377   -8.3929523    566.75718   0.01461317  0.013914593            4 
 3233000   0.74117328   -8.3750367    566.06884  0.014590907  0.013909742            5 
 3234000   0.72675057   -8.3864432    567.07175  0.014612239  0.013904884            5 
 3235000   0.73653916   -8.4417578    565.09548  0.014556813  0.013900008            2 
 3236000   0.73204244   -8.3858565    566.92559  0.014599444   0.01389514            2 
 3237000   0.73250266    -8.400249     566.7434  0.014590243  0.013890288            2 
 3238000   0.73501353   -8.4098592    566.90158  0.014589808  0.013885437            2 
 3239000   0.73047839   -8.3908517     566.6506  0.014578846  0.013880592            2 
 3240000   0.72447466   -8.4213097    566.45938  0.014569429  0.013875735            2 
 3241000   0.73004317   -8.4119195    566.28515  0.014560453  0.013870861            3 
 3242000   0.73441303    -8.386373    566.78745  0.014568873  0.013865997            1 
 3243000   0.73946856   -8.3862925    567.58114  0.014584776  0.013861145            1 
 3244000   0.73654461   -8.4085021    566.10743  0.014542423  0.013856296            2 
 3245000   0.72531847   -8.4004882    566.57108  0.014549848  0.013851451            2 
 3246000   0.72774674   -8.3666198    566.17825  0.014535281  0.013846612            4 
 3247000   0.72053928   -8.3961702    567.42912  0.014562907  0.013841763            2 
 3248000   0.70800586   -8.3937922    566.62416  0.014537771  0.013836929            1 
 3249000   0.72993215   -8.4100914     565.3766  0.014501298  0.013832099            2 
 3250000   0.73450208   -8.3896145    566.72823  0.014531493  0.013827266            2 
 3251000   0.72058818   -8.3911631    567.14724  0.014537764  0.013822449            4 
 3252000    0.7346242   -8.4127785    565.91127  0.014501621  0.013817621            1 
 3253000   0.73840744   -8.4051581    566.20781   0.01450476  0.013812785            7 
 3254000   0.73615501   -8.4123301    566.88054  0.014517531  0.013807963            4 
 3255000   0.71168959     -8.38776    565.58252  0.014479839  0.013803136            1 
 3256000   0.73413385   -8.3983103    567.44132  0.014522966  0.013798313            4 
 3257000    0.7479663    -8.406972    566.62356  0.014497584  0.013793499            2 
 3258000   0.75933081    -8.387004    567.07379   0.01450465  0.013788677            2 
 3259000   0.73932176   -8.4272786    565.54972  0.014461228  0.013783853            1 
 3260000   0.74241736   -8.4023659    566.01053  0.014468572  0.013779031            6 
 3261000   0.73258119   -8.4010036    565.76473  0.014457854  0.013774221            1 
 3262000   0.72963775   -8.4377374     566.4807  0.014471712  0.013769402            3 
 3263000   0.72292124   -8.3962257    566.28535  0.014462288  0.013764583            2 
 3264000   0.72180053   -8.3967109    567.37262  0.014485616  0.013759775            6 
 3265000   0.72381177   -8.4013009    566.56556  0.014460581  0.013754953            3 
 3266000   0.73037573   -8.4025719    567.18881  0.014472056  0.013750132            7 
 3267000   0.75311419   -8.4129144     566.5262  0.014450724  0.013745317            6 
 3268000   0.73114213   -8.4084799    567.49453  0.014470995  0.013740506            3 
 3269000   0.74457778   -8.4284922    565.74196  0.014421892  0.013735702            2 
 3270000   0.73326781   -8.4027519     567.5096  0.014462528  0.013730897            2 
 3271000   0.72439062   -8.4236047    567.32748  0.014453467  0.013726092            1 
 3272000   0.71569754   -8.4101085    567.67154  0.014457812  0.013721313            1 
 3273000   0.74160511   -8.3878134    568.77362  0.014481455  0.013716531            3 
 3274000   0.72283505   -8.4049758    566.65899  0.014423208  0.013711741            4 
 3275000    0.7273934   -8.4109376     566.5627  0.014416354  0.013706953            3 
 3276000   0.73927398    -8.395963    566.65116  0.014414203  0.013702158            2 
 3277000   0.71639344   -8.3718156    568.20347   0.01444928  0.013697376            2 
 3278000   0.70966069   -8.4274704    566.73022  0.014407419  0.013692615            4 
 3279000   0.71906625   -8.4078427    567.49416   0.01442244   0.01368785            2 
 3280000   0.73613398   -8.3931793     567.3644  0.014414746  0.013683076            5 
 3281000   0.73099906   -8.3972078    566.46322  0.014387464    0.0136783            8 
 3282000   0.74085217   -8.3983047     566.9671  0.014395874   0.01367352            2 
 3283000   0.72078772   -8.3876167    567.19059  0.014397162  0.013668737            7 
 3284000   0.71222758    -8.386668    566.68799  0.014380024  0.013663952            4 
 3285000   0.73348756   -8.4154721    566.62542  0.014374059  0.013659162            3 
 3286000   0.72688768   -8.4297218     567.7776  0.014398904   0.01365437            7 
 3287000    0.7227392   -8.4302647    565.56453  0.014338417  0.013649577            6 
 3288000   0.74082156   -8.4527337    566.19844  0.014350123  0.013644765            1 
 3289000    0.7413756   -8.4164226    566.56388  0.014355019  0.013639968            5 
 3290000   0.71590309   -8.3982378    566.80314  0.014356716  0.013635168            4 
 3291000   0.72557253   -8.4418763     566.3141   0.01433997  0.013630368            3 
 3292000   0.71761502   -8.4627409    565.29907   0.01430992  0.013625551            2 
 3293000   0.73056807   -8.4471456    565.26044  0.014304597  0.013620739            2 
 3294000   0.72922747   -8.4525206    565.48766  0.014306002  0.013615939            2 
 3295000   0.72427752   -8.4371963    565.32915  0.014297652  0.013611132            3 
 3296000    0.7374076   -8.4216709    567.07714  0.014337509  0.013606339            2 
 3297000   0.73508526   -8.4638201     565.8774  0.014302836  0.013601553            2 
 3298000   0.72749279   -8.4172087    566.52467  0.014314854  0.013596773            1 
 3299000   0.72422421   -8.4636137    565.41384  0.014282455  0.013591979            2 
 3300000    0.7407858    -8.447224    567.42755  0.014328978   0.01358719            2 
 3301000   0.72355817   -8.4707782    566.15402  0.014292488  0.013582394            3 
 3302000   0.71112741   -8.4542628    567.26276  0.014316141  0.013577594            2 
 3303000   0.71596222   -8.4620637    566.18358  0.014284579  0.013572808            5 
 3304000   0.73106125   -8.4573374    565.97285  0.014274941  0.013568019            7 
 3305000   0.72842282   -8.4593195    565.92157  0.014269329  0.013563231            3 
 3306000   0.71534776   -8.4435464    567.16069  0.014296247  0.013558449            3 
 3307000   0.72705906   -8.4288683    567.70635  0.014305674  0.013553671            6 
 3308000   0.74261101    -8.459621    566.67737  0.014275428  0.013548889            5 
 3309000   0.72762301   -8.4373746    566.83689  0.014275131  0.013544104            2 
 3310000   0.72455856   -8.4436059    566.71585  0.014267771  0.013539324            5 
 3311000   0.71831525   -8.4469923    566.10988   0.01424821  0.013534541            3 
 3312000   0.72360966   -8.4548666    566.77093  0.014260541  0.013529772            3 
 3313000   0.72108826   -8.4147066    566.96644  0.014261154  0.013525005            2 
 3314000   0.71988501    -8.435808    567.16377  0.014261813  0.013520251            3 
 3315000   0.73374115   -8.4355661    566.47434  0.014240179  0.013515493            5 
 3316000   0.72616449    -8.444638    566.97127  0.014248373  0.013510736            2 
 3317000   0.70735613   -8.4606935    566.00758  0.014219867  0.013505962            2 
 3318000   0.71014612   -8.4420895    566.48463  0.014227563  0.013501181            4 
 3319000   0.70932146   -8.4546231    565.60956  0.014201305  0.013496418            2 
 3320000    0.7141682   -8.4412962    567.17689  0.014236368   0.01349165            1 
 3321000   0.71318814   -8.4491093     566.1273  0.014205744  0.013486894            3 
 3322000   0.71615946   -8.4531744    566.32063  0.014206317  0.013482136            3 
 3323000   0.71703944   -8.4500716    566.35412  0.014202882   0.01347739            3 
 3324000   0.72728187   -8.4625783    566.53732  0.014203202   0.01347265            4 
 3325000   0.72717226   -8.4585899    566.40797  0.014195688  0.013467903            2 
 3326000    0.7194469   -8.4255411    565.96165  0.014180238  0.013463146            2 
 3327000   0.72691931   -8.4534603    567.15609  0.014205893    0.0134584            2 
 3328000   0.71298823    -8.450557    567.08629  0.014199877  0.013453669            2 
 3329000   0.71301471   -8.4454815    567.69241  0.014210784  0.013448932            1 
 3330000   0.72936715   -8.4411114    566.42954  0.014174913  0.013444206            1 
 3331000   0.73447377   -8.4426393    567.36702  0.014194111  0.013439475            2 
 3332000   0.72578989   -8.4798459    566.56138  0.014169702  0.013434749            2 
 3333000    0.7275693   -8.4533667    566.42528  0.014162048  0.013430015            2 
 3334000   0.72223806   -8.4518121    565.99805  0.014147122  0.013425288            2 
 3335000    0.7212602   -8.4788651    568.90602  0.014215543   0.01342057            4 
 3336000   0.71051704   -8.4758222    567.19265  0.014168482  0.013415848            3 
 3337000   0.71259393   -8.4659807    568.25987  0.014190887  0.013411119            3 
 3338000   0.69840903   -8.4628767    567.26791  0.014161871  0.013406405            2 
 3339000   0.72351793   -8.4435762    567.13046  0.014154199  0.013401689            2 
 3340000   0.70599783   -8.4388988    567.00674  0.014146875  0.013396976            2 
 3341000   0.71554166   -8.4836572    566.06998  0.014119275  0.013392252            3 
 3342000    0.7263038   -8.4578119    567.78022  0.014157696  0.013387532            3 
 3343000   0.73539029   -8.4623635    566.30781  0.014116757  0.013382814            4 
 3344000   0.72173303   -8.4598086     567.5997  0.014144729  0.013378104            2 
 3345000   0.71744766   -8.4502779    567.00504  0.014125686  0.013373388            6 
 3346000   0.73142062   -8.4866239    566.83142   0.01411714  0.013368667            3 
 3347000   0.70765713    -8.471125    566.87957  0.014114121  0.013363941            4 
 3348000   0.70827414   -8.4567647    566.76743  0.014107114  0.013359208            3 
 3349000   0.74071509    -8.470823    566.35437  0.014092624  0.013354485            3 
 3350000   0.72801338   -8.4582169    566.51443  0.014092399  0.013349775            3 
 3351000   0.71793388    -8.465704    567.21875  0.014105708  0.013345056            1 
 3352000   0.70277463    -8.476774    566.85929  0.014092564  0.013340336            4 
 3353000   0.73200996   -8.4834775    566.66604  0.014083558   0.01333562            3 
 3354000   0.73452188   -8.4598514    567.65226  0.014103863  0.013330907            2 
 3355000   0.71950882   -8.4705904    567.26653  0.014090078  0.013326195            4 
 3356000   0.71148731    -8.464057    567.93917  0.014102582  0.013321469            6 
 3357000   0.70763145   -8.4685372    566.76525   0.01406924  0.013316761            3 
 3358000   0.72112689   -8.4744422    567.15306  0.014074674  0.013312056            4 
 3359000   0.70356873   -8.4591408    566.62903  0.014057483   0.01330736            5 
 3360000    0.7256585   -8.4536756     567.2664  0.014069107  0.013302655            5 
 3361000   0.71380454    -8.491186    566.86706   0.01405502  0.013297938            3 
 3362000   0.71241082   -8.4732503    566.98005   0.01405364  0.013293227            3 
 3363000   0.71210312   -8.4583884    567.99112  0.014074515  0.013288515            2 
 3364000   0.70363957   -8.4630394    566.52267  0.014033954   0.01328382            3 
 3365000   0.70976203   -8.4608751    566.22278  0.014022357  0.013279123            4 
 3366000   0.71445542   -8.4569597    567.22399  0.014042979  0.013274408            4 
 3367000    0.7102816   -8.4695867    567.34102  0.014041704  0.013269716            3 
 3368000   0.71806007   -8.4616994    566.77348  0.014023493  0.013265028            3 
 3369000   0.70897934   -8.4780861    567.86574  0.014046348  0.013260346            7 
 3370000   0.71008332   -8.4614004    566.37185  0.014005239  0.013255668            3 
 3371000    0.7134442   -8.4497537    567.30321  0.014024108   0.01325098            9 
 3372000   0.71614264   -8.4811255     566.0497   0.01398897  0.013246294            4 
 3373000   0.69694318   -8.4759448    566.46259  0.013995024  0.013241608            2 
 3374000   0.71369657   -8.4955502    566.47783  0.013991253  0.013236918            3 
 3375000   0.70728468   -8.4723674    565.64528   0.01396655  0.013232237            2 
 3376000   0.71791824   -8.4878677    565.23565  0.013952302  0.013227541            3 
 3377000   0.70457795   -8.4771946    566.23285  0.013972778  0.013222853            3 
 3378000   0.70634147   -8.4739789    566.75366   0.01398149  0.013218182            2 
 3379000   0.71779141   -8.4914151     566.6524  0.013974855  0.013213501            3 
 3380000   0.71444398   -8.4817126    566.51709  0.013967384  0.013208831            3 
 3381000   0.70797289    -8.475955    567.06508  0.013976759  0.013204159            2 
 3382000   0.71888661   -8.4628611    567.67994  0.013987777  0.013199496            3 
 3383000   0.71310572   -8.4573083    566.69421  0.013959361  0.013194834            5 
 3384000   0.69837151   -8.4799957    567.53953  0.013976052  0.013190157            2 
 3385000   0.71192307    -8.483198    566.89413  0.013956035   0.01318549            2 
 3386000   0.70387661   -8.4730085    567.51374  0.013967162  0.013180833            2 
 3387000   0.72137327    -8.498664    565.33377  0.013909403  0.013176177            2 
 3388000   0.69784898   -8.5063686    566.32202  0.013929605  0.013171507            2 
 3389000   0.71556692   -8.4565204    565.76008  0.013911677  0.013166827            5 
 3390000   0.71538974    -8.484403    566.47559  0.013925162  0.013162156            4 
 3391000   0.70490329   -8.4798955    567.14851  0.013937592  0.013157482            3 
 3392000   0.70145616   -8.4876702    567.51048  0.013942376  0.013152812            2 
 3393000   0.72226435   -8.4750135    567.24495  0.013931746  0.013148158            2 
 3394000   0.70865797   -8.4750682     566.7103  0.013914513  0.013143502            3 
 3395000    0.7116039   -8.4995299     565.9272  0.013891193  0.013138837            3 
 3396000   0.71556312   -8.4949896    566.42664  0.013899358   0.01313419            5 
 3397000   0.70405981   -8.4799999    566.83505  0.013905285  0.013129538            3 
 3398000   0.71393642    -8.488478    567.26008  0.013911617  0.013124894            4 
 3399000   0.70223781   -8.4820509    566.96643  0.013900324  0.013120262            2 
 3400000   0.72934729   -8.4884834     567.4439  0.013907939  0.013115642       -1e+20 
 3401000   0.70340324   -8.4641921    567.39232  0.013902585  0.013111009            3 
 3402000   0.69832744   -8.4771983    566.52147  0.013877167  0.013106387            3 
 3403000   0.71905373   -8.4755814    566.59033  0.013874776   0.01310177            5 
 3404000   0.71150749   -8.4837396    567.88408  0.013902372  0.013097154            2 
 3405000   0.70305575   -8.4810173    566.59486  0.013866737  0.013092528            2 
 3406000    0.7308953   -8.4765674    566.47656  0.013859771  0.013087898            2 
 3407000   0.71370286   -8.5058078    566.32282  0.013851942  0.013083272            5 
 3408000   0.70633338   -8.5046889     567.6757  0.013880959  0.013078641            3 
 3409000   0.71414594   -8.5182326    566.63056  0.013851339  0.013074008            2 
 3410000   0.70777954    -8.489206    566.42492  0.013842251  0.013069382            3 
 3411000   0.70667016   -8.4926006    567.15286  0.013855977  0.013064758            5 
 3412000    0.7070187    -8.515374     565.8969  0.013821241   0.01306013            2 
 3413000   0.69898067   -8.4989234     566.8515    0.0138405  0.013055519            6 
 3414000   0.71372617   -8.4780218    568.10994  0.013867163  0.013050902            2 
 3415000    0.7029001   -8.5050029    567.09142  0.013838248  0.013046281            1 
 3416000   0.70620202   -8.4983379    567.59743  0.013846542  0.013041649            1 
 3417000   0.69036504   -8.4867895    567.98528  0.013851948  0.013037034            2 
 3418000   0.71688467   -8.4891643    566.66204  0.013815634  0.013032418            2 
 3419000    0.7123669   -8.5109282    566.86127  0.013816449  0.013027814            2 
 3420000   0.68857603   -8.4831607    567.37711  0.013824978  0.013023213            1 
 3421000    0.7098939   -8.5076449    567.24624  0.013817749  0.013018616            2 
 3422000   0.72020922   -8.5252382    566.59196  0.013797778  0.013014014            2 
 3423000   0.70883365   -8.4773715    567.17474  0.013807935  0.013009406            2 
 3424000   0.71407195   -8.4822516    568.11924   0.01382689  0.013004807            2 
 3425000   0.70569836   -8.4951349    567.34885  0.013804108  0.013000213            1 
 3426000   0.71196928   -8.4808935    567.21103  0.013796727  0.012995615            6 
 3427000   0.68318873   -8.4995476    566.25297  0.013769404  0.012991009            3 
 3428000   0.70363164   -8.4809394    567.22344  0.013788979  0.012986404            1 
 3429000   0.71020475   -8.4840362    566.41923  0.013765413  0.012981809            2 
 3430000   0.70678892   -8.5105638    567.43399  0.013786054  0.012977214            2 
 3431000   0.69909218   -8.4808768     567.1781  0.013775821  0.012972624            1 
 3432000   0.71111729   -8.5007811    567.27837  0.013774242  0.012968029            4 
 3433000   0.69680271   -8.5243887    566.37747  0.013748361  0.012963428            1 
 3434000   0.69802493   -8.4856427    566.18217  0.013739618   0.01295884            9 
 3435000   0.70266725   -8.5136247    566.15204  0.013734887  0.012954242            2 
 3436000   0.70009827   -8.5148585    566.64188   0.01374277  0.012949654            2 
 3437000    0.7125892   -8.4892548    567.06965  0.013749143  0.012945068            2 
 3438000   0.70189961   -8.5041783    567.04558   0.01374456  0.012940491            1 
 3439000   0.68750425   -8.4913019      567.282  0.013746293  0.012935919            4 
 3440000   0.69367726   -8.4827174    566.41681  0.013721337  0.012931345            7 
 3441000   0.69294411   -8.4998888    567.53956   0.01374454  0.012926768            1 
 3442000   0.70694966   -8.5271133    566.53332  0.013716185  0.012922179            3 
 3443000   0.70381093   -8.5002302    567.21659  0.013728739  0.012917588            8 
 3444000   0.71133661   -8.5097857    565.84576  0.013691583  0.012913004            5 
 3445000   0.71362447   -8.5201667    566.82645  0.013711332  0.012908434            5 
 3446000   0.67219502    -8.514924    567.66328   0.01372759  0.012903871            3 
 3447000   0.70848088   -8.5041675    567.42271  0.013717791  0.012899302            3 
 3448000   0.71082805   -8.4914838    567.71773  0.013720943  0.012894734            4 
 3449000   0.69643187   -8.5004233    566.44467  0.013686205  0.012890179            1 
 3450000   0.70355637   -8.5040563    566.97014  0.013694931   0.01288562            3 
 3451000   0.69809261   -8.5218581    566.92565  0.013689888  0.012881053            3 
 3452000   0.69833529    -8.545698    566.13635  0.013666868  0.012876477            3 
 3453000    0.7168541   -8.4987742    567.55962  0.013697259  0.012871916            3 
 3454000   0.70860759   -8.4968351     567.5488  0.013693032  0.012867353            3 
 3455000   0.69860123   -8.5206038     566.7846  0.013670637  0.012862788            3 
 3456000   0.71245301   -8.5132874    566.33763  0.013655904  0.012858225            3 
 3457000   0.70148432   -8.5205466    567.16766  0.013671962  0.012853663            2 
 3458000   0.70624672   -8.4914455    567.37147   0.01367292  0.012849105            2 
 3459000   0.69036943   -8.5126903    566.93925  0.013658554  0.012844543            1 
 3460000   0.70344235   -8.5280939    568.12881  0.013683256  0.012839971            3 
 3461000   0.69425692   -8.5325082    565.63494  0.013619256  0.012835407            3 
 3462000   0.70038054   -8.5179844    566.48172  0.013635705   0.01283084            1 
 3463000   0.69757503   -8.5127068    566.52898  0.013632905  0.012826274            3 
 3464000   0.69459979   -8.5157516    565.49866  0.013604182  0.012821715            2 
 3465000   0.69027188   -8.5542945    564.93893  0.013586795  0.012817147            3 
 3466000   0.69309476   -8.5327492    566.93533  0.013630874  0.012812574            4 
 3467000   0.69185839   -8.5267664    566.94589  0.013627197  0.012808009            3 
 3468000   0.69530426   -8.5023309     567.1238  0.013627542  0.012803451            6 
 3469000   0.68863955   -8.5464926    565.46391   0.01358374  0.012798895            1 
 3470000   0.69601474   -8.5325549    566.94766  0.013615458  0.012794333            3 
 3471000   0.68865441   -8.5326755    567.15139  0.013616426  0.012789762            3 
 3472000   0.70231764   -8.5155039    566.51095  0.013597133  0.012785206            2 
 3473000   0.70132289   -8.5536075    565.96819  0.013580194  0.012780649            3 
 3474000   0.69524447   -8.5469036    566.03812  0.013577963  0.012776096            2 
 3475000   0.71032392   -8.5343314    567.03554  0.013597975  0.012771536            1 
 3476000   0.68605875   -8.5511055    566.00674  0.013569398  0.012766975            4 
 3477000   0.69537416   -8.5357401    565.88674   0.01356262  0.012762418            2 
 3478000   0.68856298   -8.5395995    565.86493  0.013558198  0.012757867            4 
 3479000   0.68252688   -8.5294157    565.31116  0.013541036  0.012753323            2 
 3480000   0.68082377   -8.5233453    565.39832  0.013539232   0.01274878            1 
 3481000   0.70084762   -8.5232311    566.81015  0.013569141  0.012744243            3 
 3482000   0.70841949   -8.5246386    566.44651  0.013556541  0.012739717            1 
 3483000   0.68765565   -8.4931077    567.83736  0.013585926  0.012735196            1 
 3484000   0.69838566   -8.5166629    567.62879  0.013577038  0.012730684            4 
 3485000   0.70454086   -8.5304609     567.3894  0.013567418   0.01272616            2 
 3486000   0.68560202   -8.5166038    567.53005  0.013566888  0.012721638            1 
 3487000   0.69445083   -8.5060783    567.59995  0.013564668  0.012717127            2 
 3488000    0.6999838    -8.527965    566.47892  0.013533995  0.012712616            2 
 3489000   0.68147879   -8.5022622    566.73481  0.013536228  0.012708106            2 
 3490000   0.67771565   -8.5052532     568.0592  0.013563973  0.012703618            2 
 3491000   0.69971398    -8.492055     568.5529  0.013571873  0.012699128            3 
 3492000   0.69314149   -8.5196745     567.7048  0.013547747  0.012694639            2 
 3493000   0.70357322   -8.5090504    566.98213  0.013526628   0.01269014            2 
 3494000   0.68353001   -8.5137613     566.1562  0.013503058  0.012685644            6 
 3495000   0.68398837   -8.5150346    567.47656  0.013530676  0.012681145            4 
 3496000   0.70967709   -8.5172082    567.11072  0.013518085  0.012676649            2 
 3497000   0.69962093   -8.5089428    567.17737  0.013515808  0.012672152            2 
 3498000   0.69441149   -8.5261039    567.39216  0.013517061  0.012667657            3 
 3499000   0.70114408    -8.519351    567.27618  0.013510436  0.012663177            2 
 3500000   0.70536966   -8.5555806    566.09541  0.013478462  0.012658693            3 
 3501000   0.70982613   -8.5171712    566.74168  0.013489995  0.012654199            3 
 3502000   0.68076592   -8.5236567    567.46304  0.013503309  0.012649707            2 
 3503000   0.69238757   -8.5183046    566.87327  0.013485424  0.012645212            2 
 3504000   0.68297699   -8.5186255    567.51771  0.013496901  0.012640715            3 
 3505000   0.70033866   -8.5152782    567.83742  0.013500652  0.012636221            3 
 3506000   0.68207465   -8.5133938    565.33955   0.01343743  0.012631728            4 
 3507000   0.69471442   -8.5098021    566.84184  0.013469296   0.01262724            2 
 3508000   0.69420259   -8.5136018    566.70489  0.013462203  0.012622765            3 
 3509000   0.70110756   -8.5479084    567.26431  0.013471652   0.01261829            3 
 3510000   0.69380717   -8.5301668    567.53993  0.013474357  0.012613816            2 
 3511000    0.6790264   -8.4824061     567.7792  0.013476199  0.012609344            4 
 3512000   0.68426656   -8.5165173    567.35678  0.013462338  0.012604884            2 
 3513000   0.68195114   -8.5248465    567.61647  0.013464666  0.012600409            3 
 3514000   0.67693087   -8.5073882    566.96745  0.013445443  0.012595939            2 
 3515000   0.69226675   -8.5276776    566.83399  0.013438454  0.012591467            4 
 3516000   0.69034877   -8.5231523     566.5043  0.013426818  0.012586998            3 
 3517000   0.69830097   -8.5141093     568.4042  0.013468017   0.01258254            5 
 3518000   0.68666926   -8.5084434    567.84622  0.013450972  0.012578083            3 
 3519000   0.67948341   -8.5004006    568.05053  0.013451988  0.012573629            4 
 3520000    0.6982891   -8.5253642    567.74511  0.013440935  0.012569176            1 
 3521000   0.67139247   -8.5210568    567.68946  0.013435801  0.012564711            3 
 3522000   0.68218101   -8.5534305     566.6865  0.013408255  0.012560262            1 
 3523000   0.67753816   -8.5274988    566.61364  0.013402726  0.012555803            4 
 3524000   0.67387832   -8.5343174    566.85991  0.013404746  0.012551355            3 
 3525000   0.67873952   -8.5120035    567.14937  0.013407787  0.012546911            3 
 3526000   0.67781465   -8.5293048    567.44493  0.013410969  0.012542471            3 
 3527000   0.67925482   -8.5162871     567.9571  0.013419268  0.012538029            3 
 3528000   0.68118361   -8.5351875    567.18556   0.01339724  0.012533585            4 
 3529000   0.68406297   -8.5318254    566.32235   0.01337306  0.012529147            1 
 3530000   0.67977694   -8.5396831    566.46207   0.01337257  0.012524696            5 
 3531000   0.69420062   -8.5236416     567.3443  0.013389604  0.012520246            7 
 3532000   0.67964743   -8.5306271    565.90973  0.013351966  0.012515805            2 
 3533000    0.6900642   -8.5063627    567.94048  0.013396086  0.012511368            2 
 3534000   0.69249245   -8.5191849    566.42109  0.013356468  0.012506932            3 
 3535000   0.69424908   -8.5364417    567.33718  0.013374285  0.012502504            2 
 3536000   0.67364429    -8.528521    566.89975  0.013360194  0.012498088            2 
 3537000   0.69187259   -8.5147059    567.42398  0.013368768  0.012493679            1 
 3538000   0.68020093   -8.5175586     567.1094   0.01335758  0.012489254            3 
 3539000   0.68731608   -8.5095073    568.06826  0.013376384  0.012484839            4 
 3540000   0.68663873   -8.4939885     567.7869  0.013365982  0.012480419            2 
 3541000   0.68538584   -8.5454928    566.44145  0.013330543  0.012476007            3 
 3542000   0.68883047   -8.5199657     567.5978  0.013353985  0.012471592            1 
 3543000   0.68991685   -8.5409102    565.67268  0.013304936  0.012467172            4 
 3544000    0.6844448   -8.5165064    567.08169  0.013334314  0.012462749            1 
 3545000   0.69600403   -8.5456871    565.76688  0.013299644  0.012458334            3 
 3546000   0.69013532   -8.5082369    567.64289  0.013339981  0.012453923            1 
 3547000   0.68062256   -8.5225717    569.02871  0.013368779   0.01244952            6 
 3548000    0.6811294   -8.5512417    566.49296  0.013305453  0.012445092            4 
 3549000    0.6866536   -8.5231878    566.38147  0.013299086  0.012440667            3 
 3550000   0.67757645   -8.5406487    568.08232  0.013335266  0.012436249            3 
 3551000   0.68166929   -8.5349533    567.78824  0.013324609  0.012431831            4 
 3552000   0.67594179   -8.5203414    567.00317  0.013302439  0.012427413            2 
 3553000   0.68138288   -8.5316471     567.4052  0.013308125  0.012422999            8 
 3554000   0.68647563    -8.551806    566.80226  0.013290243  0.012418584            2 
 3555000   0.67689897   -8.5375082    566.05616  0.013269014  0.012414165            3 
 3556000   0.68219805   -8.5537615    566.73199  0.013281121  0.012409743            2 
 3557000   0.68464535   -8.5573404    566.35224   0.01326849  0.012405327            3 
 3558000   0.67998241    -8.529148    566.98509  0.013279583  0.012400912            6 
 3559000   0.67538858    -8.533094     568.0096  0.013299841  0.012396513            2 
 3560000   0.67875947    -8.546851    565.62673  0.013240326  0.012392108            1 
 3561000   0.67874355   -8.5357332    566.90614  0.013266548  0.012387709            2 
 3562000   0.67200581   -8.5404735    566.37148  0.013250315  0.012383302            2 
 3563000   0.67797347   -8.5382911    566.41935  0.013247716   0.01237891            2 
 3564000   0.68377531   -8.5334064    566.50307  0.013245956   0.01237451            7 
 3565000   0.66415206   -8.5599634    567.28016  0.013260406   0.01237012            7 
 3566000   0.67669421   -8.5392672    566.91481  0.013248149   0.01236572            3 
 3567000   0.69284591   -8.5374557    566.32649  0.013230691  0.012361321            3 
 3568000   0.67443055   -8.5310481    566.51336  0.013231347  0.012356914            2 
 3569000   0.70136603   -8.5649386    566.41794  0.013225412  0.012352524            2 
 3570000   0.66858972   -8.5502867       566.08  0.013213819  0.012348128            2 
 3571000   0.67607169   -8.5354575    567.21542  0.013236615  0.012343736            1 
 3572000   0.66988505    -8.568862    566.47357  0.013215602  0.012339346            3 
 3573000   0.68184385   -8.5587751    566.74936  0.013218336  0.012334955            2 
 3574000   0.67319781   -8.5459455    567.08777  0.013222528  0.012330564            2 
 3575000   0.68666252    -8.530643    566.19186  0.013197945  0.012326184            1 
 3576000   0.67804831    -8.526935    566.87223   0.01321011  0.012321797            3 
 3577000   0.67826677   -8.5516979    567.17997  0.013213586  0.012317418            3 
 3578000   0.67201205   -8.5450189    566.84779  0.013202156  0.012313044            4 
 3579000   0.70177535   -8.5344662    567.78711  0.013220339  0.012308678            6 
 3580000   0.67805397   -8.5620915    567.82101  0.013217435  0.012304313            3 
 3581000   0.66832729   -8.5670281    566.96294  0.013193776  0.012299952            2 
 3582000   0.69100933   -8.5279132    568.57829  0.013227673  0.012295592            3 
 3583000   0.66650501    -8.542286    567.38403  0.013196205  0.012291224            2 
 3584000   0.68070974   -8.5540825    566.50603  0.013172108  0.012286854            5 
 3585000   0.69177683   -8.5654554    566.32061  0.013164124  0.012282478            3 
 3586000   0.66952635   -8.5628106    566.26707  0.013159209  0.012278097            7 
 3587000   0.67753291   -8.5552439    565.28618  0.013132752  0.012273717            3 
 3588000   0.66552854   -8.5523176    567.19478   0.01317342  0.012269344            5 
 3589000   0.68089337   -8.5468656    566.41576  0.013151662  0.012264966            3 
 3590000     0.678433   -8.5830212    566.11131  0.013140931  0.012260596            3 
 3591000   0.67040972   -8.5639029    566.79614  0.013153164  0.012256229            3 
 3592000   0.66901702   -8.5709316    565.83758  0.013127264  0.012251856            2 
 3593000   0.67364338   -8.5563383    566.72593  0.013144214  0.012247492            2 
 3594000   0.66808126   -8.5846961    566.03235  0.013124475  0.012243119            2 
 3595000   0.68444249   -8.5359424    566.45778  0.013130686  0.012238756            2 
 3596000   0.66872422   -8.5612687    566.48918  0.013127762  0.012234403            4 
 3597000   0.66551227   -8.5754819     565.5741  0.013102912  0.012230042            5 
 3598000   0.68781683   -8.5561217    566.23788  0.013114644  0.012225682            3 
 3599000   0.67309357   -8.5686976     565.4761  0.013093361  0.012221307            4 
 3600000   0.68089657   -8.5821546     566.3535  0.013110035  0.012216942            2 
 3601000   0.66933996   -8.5848744    565.35248  0.013083229  0.012212577            4 
 3602000   0.69083866   -8.5600876    565.13448  0.013074553  0.012208215            6 
 3603000   0.67620285   -8.5852047    566.77626  0.013108897   0.01220384            4 
 3604000   0.67710047   -8.5635576    566.71099   0.01310375  0.012199465            3 
 3605000   0.67644213   -8.5825964    566.00747  0.013083853  0.012195097            2 
 3606000    0.6925677   -8.5514711    566.15942  0.013083736  0.012190735            5 
 3607000   0.66175067   -8.5364097    566.51877  0.013088411  0.012186368           11 
 3608000   0.66814554   -8.5917346    566.11053  0.013075354  0.012182001            7 
 3609000   0.67757358   -8.5702476    565.82882  0.013065226  0.012177627            6 
 3610000   0.66568276   -8.5669552    565.60687  0.013056484  0.012173259            2 
 3611000   0.66674952    -8.608956    565.49444  0.013050273  0.012168886            2 
 3612000   0.68873763     -8.60016    565.66916  0.013050691  0.012164521            2 
 3613000   0.67626889   -8.5812016    567.12194  0.013080587  0.012160169            4 
 3614000   0.65852717   -8.5797676    566.16148  0.013054821  0.012155811            3 
 3615000   0.66518944    -8.573149     566.2891  0.013054152  0.012151444            3 
 3616000   0.66361208   -8.6181912    565.12881  0.013023802   0.01214709            2 
 3617000   0.68554288   -8.5915036    565.53518  0.013029564   0.01214273            6 
 3618000   0.66955169   -8.5715467    565.90005  0.013034366  0.012138381            4 
 3619000   0.66575904   -8.6021176    565.92953  0.013031443  0.012134024            4 
 3620000   0.66794335   -8.6134664    565.11643  0.013009126  0.012129659           11 
 3621000   0.66100339   -8.6190322    564.21912  0.012984883  0.012125308            4 
 3622000    0.6795757   -8.5776598     565.7656  0.013016878  0.012120952            6 
 3623000   0.68523895   -8.5771249    565.53508  0.013007983  0.012116597            4 
 3624000   0.67232011   -8.5934312    564.84277  0.012988474  0.012112248            4 
 3625000   0.67265966   -8.5963358    565.07367  0.012990199  0.012107895            3 
 3626000   0.66427215   -8.6089465    565.19794  0.012989473  0.012103534            2 
 3627000   0.67159997   -8.5905952    565.26976  0.012987542   0.01209918            3 
 3628000   0.67751506   -8.5916259    565.22507  0.012982935  0.012094827            2 
 3629000   0.66020364   -8.5635902    565.55219  0.012986869  0.012090474            2 
 3630000   0.67227564    -8.606061    564.87391  0.012967721   0.01208612            4 
 3631000   0.65730262   -8.6048866    564.64882  0.012958983  0.012081763            2 
 3632000   0.66117184   -8.6095154    565.11774  0.012966174  0.012077401            5 
 3633000   0.67830655   -8.5973935    565.07381  0.012961598  0.012073039            4 
 3634000    0.6748283    -8.606442    564.72235  0.012949971  0.012068687            3 
 3635000   0.67004769    -8.610501    565.59298  0.012966368  0.012064334            5 
 3636000   0.67340587    -8.593059    565.36289  0.012957529  0.012059994            4 
 3637000   0.66013647   -8.6043681    564.30232  0.012929665  0.012055648            4 
 3638000   0.67883136   -8.6006177    564.68978  0.012934987  0.012051298            2 
 3639000   0.68995128   -8.6342999    564.64774  0.012930469  0.012046947            4 
 3640000   0.65678267    -8.599907    565.65126  0.012949892  0.012042606            2 
 3641000   0.66844846   -8.6079836    564.63877  0.012923161  0.012038264            2 
 3642000   0.67295645   -8.6174435    564.61706  0.012919116  0.012033921            1 
 3643000   0.68613991   -8.5965511    565.75494  0.012941599  0.012029588            4 
 3644000   0.66975892   -8.5652073    564.78242  0.012915807  0.012025256            3 
 3645000   0.67118178   -8.6072881    565.42316  0.012926913  0.012020923            3 
 3646000   0.68340275   -8.5972982    565.16664  0.012917504  0.012016594            3 
 3647000      0.66627   -8.5876166    564.53869  0.012899614  0.012012258            2 
 3648000   0.66878163    -8.604866    564.89946  0.012904319  0.012007934            2 
 3649000     0.664627   -8.5867453    564.93136  0.012901511  0.012003608            3 
 3650000    0.6616814   -8.6143326    565.84707  0.012918883  0.011999274            3 
 3651000   0.66730386   -8.6135745    564.83461  0.012892235  0.011994943            3 
 3652000   0.68074997   -8.5990175    564.99423  0.012892347  0.011990611            2 
 3653000   0.67954958   -8.5979976    564.97052  0.012888277  0.011986288            5 
 3654000   0.65864391   -8.5835713    564.69837  0.012878543  0.011981953            3 
 3655000   0.65753439   -8.6108767    565.31625  0.012889107  0.011977622            2 
 3656000   0.65789623    -8.573986    564.34406  0.012863422  0.011973288            2 
 3657000   0.65168565   -8.6130172    565.41065   0.01288421  0.011968962            2 
 3658000   0.65378808   -8.6094777    564.73008  0.012865183  0.011964627            5 
 3659000   0.67486678    -8.612333    564.58263  0.012858309  0.011960306            2 
 3660000   0.65731803   -8.6103799     564.8264  0.012860346  0.011955988            2 
 3661000   0.65516305   -8.6094423    565.24282  0.012866312  0.011951677            6 
 3662000   0.67389071   -8.6052715    563.67281  0.012827071  0.011947358            4 
 3663000   0.66410857   -8.5972392    563.73873  0.012825069  0.011943035            2 
 3664000   0.67758779   -8.6181144    564.09286  0.012829623  0.011938724            2 
 3665000   0.66153148   -8.6148509    563.89714  0.012821672  0.011934406            1 
 3666000   0.65958418   -8.6203227    564.49399  0.012831742  0.011930088            2 
 3667000   0.67176546   -8.5942371    565.46931  0.012850407  0.011925778            3 
 3668000   0.66683099   -8.6118657    564.75661  0.012830712  0.011921464            2 
 3669000   0.66193821   -8.5899072    564.93529  0.012831273  0.011917153            2 
 3670000   0.64715884   -8.6224591     564.7426  0.012823402  0.011912848            2 
 3671000   0.67038685   -8.6155155    564.50228  0.012814453   0.01190854            2 
 3672000   0.67079583   -8.6093255     565.1923  0.012826623  0.011904232            2 
 3673000   0.65886362   -8.6100475    564.80863  0.012814426  0.011899933            1 
 3674000   0.65823631   -8.6328713    564.56157  0.012805334  0.011895626            2 
 3675000   0.67176823   -8.6281874    563.94744  0.012787924  0.011891318            3 
 3676000   0.67040737   -8.6165453     564.8424  0.012804733  0.011887013            2 
 3677000   0.66388962   -8.6201837    564.03935  0.012783051  0.011882706            2 
 3678000   0.66037862   -8.6311428    564.19822  0.012783175  0.011878404            2 
 3679000   0.64674127   -8.6186373    564.47004  0.012785858  0.011874101            2 
 3680000   0.66210977   -8.6299667    564.61598  0.012785688  0.011869805            2 
 3681000   0.67552998   -8.6057487    564.89131  0.012788448  0.011865509            3 
 3682000   0.67044151   -8.6068161    565.49093  0.012798545  0.011861223            5 
 3683000   0.65669287   -8.6167956    564.94441  0.012782704  0.011856939            2 
 3684000     0.661411   -8.6200342    564.55394  0.012770402  0.011852652            4 
 3685000   0.66411473   -8.6330176    564.48466   0.01276537  0.011848363            2 
 3686000   0.66504522   -8.6001255    565.26831  0.012779624  0.011844074            4 
 3687000    0.6531593    -8.608928    565.18166  0.012774199  0.011839794            5 
 3688000    0.6552302      -8.6147    564.40567  0.012753201   0.01183551            2 
 3689000   0.64514607   -8.6138197     564.7869  0.012758356  0.011831229            1 
 3690000   0.65559207   -8.6512908    565.21599  0.012764589   0.01182694            3 
 3691000   0.67161166    -8.629959    564.32769  0.012741075  0.011822655            4 
 3692000   0.65688298   -8.6228623    564.37239  0.012738633  0.011818376            2 
 3693000     0.664675   -8.6304261    565.13451  0.012752381  0.011814105            4 
 3694000   0.64368649    -8.626057    564.20304  0.012727916  0.011809834            7 
 3695000   0.66003755   -8.6000836       565.25  0.012748083  0.011805561            1 
 3696000   0.65902457   -8.6043444    564.82261  0.012734997  0.011801291            3 
 3697000   0.66504964   -8.6192618    564.98423  0.012735196  0.011797021            4 
 3698000   0.66080419    -8.609114    563.75463  0.012704043  0.011792767            2 
 3699000   0.65818936   -8.5953283    565.11902  0.012731347  0.011788513            1 
 3700000   0.65508093   -8.6287012    565.12928  0.012728137  0.011784257            5 
 3701000   0.65857792   -8.6244807    564.70585  0.012715164  0.011779998            2 
 3702000   0.67204483   -8.6299475    564.58404  0.012708987  0.011775739            2 
 3703000   0.65409199   -8.6017384    564.46676  0.012702916  0.011771495            1 
 3704000   0.65286832   -8.6206034    564.56135  0.012701614   0.01176725            3 
 3705000   0.67026053   -8.6394547    565.53739  0.012720139  0.011763012            5 
 3706000   0.65563949   -8.6144863    565.71006   0.01272059  0.011758771            2 
 3707000   0.66509468   -8.6045349    565.45857  0.012711505  0.011754536            2 
 3708000   0.65391682   -8.6186893    564.56067  0.012687897  0.011750304            1 
 3709000   0.64484036   -8.6004178    565.59873  0.012707799  0.011746072            1 
 3710000   0.66071169   -8.6082341    564.36576  0.012676679  0.011741838            2 
 3711000   0.65914061   -8.6330377    563.37773  0.012651076    0.0117376            7 
 3712000   0.65543518   -8.6237719    565.22011  0.012689029  0.011733367            2 
 3713000   0.65905852   -8.6442176    565.49708  0.012691828  0.011729129            4 
 3714000   0.65021846   -8.6407491    564.84738  0.012673833  0.011724886            1 
 3715000   0.65443806   -8.6319547    564.50094   0.01266265  0.011720657            3 
 3716000    0.6495421   -8.6161129    565.16562  0.012674148  0.011716435            4 
 3717000   0.64694599   -8.6213598    565.12796  0.012669894  0.011712203            2 
 3718000   0.66233957   -8.6122146     565.2018  0.012668142  0.011707982            2 
 3719000   0.65789473   -8.6159265    565.48264  0.012671028  0.011703751            2 
 3720000   0.65410173   -8.6479939    565.99995   0.01267921   0.01169952            1 
 3721000   0.66106005   -8.6233988    564.77829  0.012648443  0.011695301            2 
 3722000   0.65250886   -8.6191395    565.96824  0.012671687  0.011691076            2 
 3723000   0.66720661   -8.6265416    564.39804  0.012633137  0.011686861            2 
 3724000   0.65226736   -8.6274689    565.19624  0.012647607  0.011682648            1 
 3725000   0.66376097   -8.6072051    564.64773   0.01263194  0.011678421            2 
 3726000    0.6646663   -8.6315714     564.4957   0.01262515    0.0116742            2 
 3727000    0.6610303   -8.6390738     563.7122  0.012604244   0.01166999            2 
 3728000   0.65670908   -8.6338834    564.10279  0.012609594  0.011665774            2 
 3729000   0.64844219   -8.6264055    564.31254    0.0126109  0.011661552            2 
 3730000   0.63436015   -8.6306563     565.3393  0.012630458  0.011657339            2 
 3731000   0.65493892   -8.6246919    564.39775  0.012606043  0.011653121            1 
 3732000   0.65558987   -8.6539722     563.6183   0.01258526  0.011648906            1 
 3733000   0.65538663   -8.6302616    563.96782  0.012589691  0.011644683            2 
 3734000   0.66813132   -8.6452257    563.31263  0.012571698   0.01164047            1 
 3735000   0.64175098   -8.6409629    564.57944  0.012596596  0.011636254            2 
 3736000   0.64779958   -8.6300981    563.26236  0.012563846   0.01163204            2 
 3737000   0.67013592   -8.6304289    563.55326  0.012566971  0.011627828            2 
 3738000   0.65381484   -8.6373597    563.16813  0.012555023  0.011623609            7 
 3739000   0.64707536   -8.6442101    564.68893  0.012585561  0.011619393            6 
 3740000   0.65027317   -8.6420142    564.10561  0.012569198  0.011615176            2 
 3741000   0.65710272   -8.6441181    563.64008  0.012555468  0.011610967            2 
 3742000   0.66445977   -8.6415177    564.27025  0.012566147  0.011606759            2 
 3743000   0.65064616   -8.6473291    564.12348  0.012559522  0.011602553            3 
 3744000   0.65337188   -8.6213082    563.80534  0.012549086  0.011598348            2 
 3745000    0.6463217   -8.6275719    564.17182   0.01255389  0.011594147            7 
 3746000    0.6551029   -8.6403983    564.36101  0.012554747  0.011589953            2 
 3747000   0.65508335    -8.635548    564.65526  0.012557941  0.011585755            3 
 3748000   0.65929534   -8.6544487    563.43942  0.012527557  0.011581569            3 
 3749000   0.64878171   -8.6354561    563.85702  0.012533498  0.011577384            3 
 3750000   0.65531219   -8.6464134    564.36351  0.012541411  0.011573199            3 
 3751000   0.64119379   -8.6305631    564.45503  0.012540101  0.011569016            1 
 3752000   0.66446509   -8.6298575    563.73934  0.012520863  0.011564838            1 
 3753000   0.65077414   -8.6389415    564.63013  0.012537306  0.011560661            1 
 3754000   0.65298242   -8.6290451    564.46846  0.012530378  0.011556483            2 
 3755000   0.63646304   -8.6452853    565.01342  0.012539135  0.011552316            3 
 3756000   0.65780868   -8.6455764     564.6992  0.012528825  0.011548146            3 
 3757000   0.65179177   -8.6272577    564.61647  0.012523655  0.011543973            3 
 3758000   0.64314752   -8.6308597    564.36588  0.012514766  0.011539805            2 
 3759000   0.65680404   -8.6231586    563.73939  0.012497548  0.011535643            5 
 3760000   0.64308039   -8.6337537     564.3179  0.012507046  0.011531476            1 
 3761000   0.65560846   -8.6335102    563.74158  0.012490951  0.011527316            2 
 3762000   0.65296742   -8.6372314    564.06515  0.012494798  0.011523157            1 
 3763000   0.64610653   -8.6549704    565.55011  0.012524362  0.011519002            3 
 3764000   0.63302373    -8.629724    565.36831   0.01251701  0.011514838            3 
 3765000   0.64088283   -8.6423349    565.25377   0.01251115  0.011510683            2 
 3766000   0.65391701   -8.6448869    565.05226  0.012503369  0.011506531            3 
 3767000   0.64547959   -8.6259746    564.47232  0.012487221  0.011502375            1 
 3768000   0.64321709   -8.6540691    563.83308  0.012469769  0.011498222            5 
 3769000   0.63915957   -8.6255014    564.82726  0.012488442  0.011494068            2 
 3770000   0.65576171   -8.6482588    565.09713  0.012491095  0.011489917            1 
 3771000   0.63951534   -8.6550195    563.94756  0.012462379   0.01148577            1 
 3772000   0.64554652   -8.6441635    564.36328  0.012468259  0.011481622            3 
 3773000   0.65243169    -8.653305    563.37896  0.012443214  0.011477476            2 
 3774000   0.64946087   -8.6300237    564.63252  0.012467597  0.011473319            4 
 3775000     0.653326   -8.6502235    564.16974  0.012454078  0.011469174            2 
 3776000   0.65191558   -8.6427919    563.95015  0.012445934  0.011465024            4 
 3777000   0.64480666   -8.6383904    564.02689  0.012444332  0.011460876            3 
 3778000   0.64910764   -8.6463959    564.52039  0.012451923  0.011456734            5 
 3779000   0.64567761   -8.6509137     564.3738  0.012445396   0.01145259            2 
 3780000   0.64474309   -8.6280406    564.53502  0.012445658  0.011448447            4 
 3781000   0.64576727   -8.6342223    564.22663  0.012435569  0.011444312            2 
 3782000   0.64786426   -8.6500656    564.53895  0.012439162  0.011440175            1 
 3783000    0.6493912   -8.6379325    564.21334  0.012428702  0.011436039            6 
 3784000   0.64325496   -8.6307466    563.55354  0.012410887  0.011431907            4 
 3785000   0.64382209   -8.6662196    563.76421  0.012412246  0.011427774            3 
 3786000   0.64758537   -8.6248907    564.71931   0.01242999  0.011423653            3 
 3787000   0.64712652   -8.6452807    563.34379  0.012396439  0.011419531            5 
 3788000   0.65064251   -8.6610566     563.5871  0.012398519  0.011415407            4 
 3789000   0.64074895   -8.6494395    564.97414  0.012425753  0.011411271            2 
 3790000   0.64058977   -8.6621248    563.89306  0.012398704  0.011407138            3 
 3791000   0.64041304   -8.6618029    563.32227  0.012382886  0.011403012            4 
 3792000   0.65516779   -8.6710469    563.31192  0.012379393  0.011398889            3 
 3793000   0.64763688   -8.6488064     564.7885  0.012408571  0.011394771            2 
 3794000    0.6412484   -8.6232771     564.4017  0.012396804  0.011390655            2 
 3795000   0.64301814   -8.6584561    564.52266  0.012396194   0.01138654            5 
 3796000   0.66086266   -8.6513379    564.56322  0.012393819  0.011382427            3 
 3797000   0.63626897   -8.6584504    562.18374  0.012338332  0.011378305            2 
 3798000   0.63383266   -8.6578193    563.94506  0.012373729  0.011374181            2 
 3799000   0.64033433    -8.682781    564.03751    0.0123725  0.011370057            4 
 3800000   0.63618775   -8.6785292    563.73231  0.012362551  0.011365931            4 
 3801000   0.65570241   -8.6371463    564.38966   0.01237371  0.011361817            1 
 3802000   0.63003915   -8.6648964    563.15511  0.012343396  0.011357697            1 
 3803000   0.65125066   -8.6729021    563.25731   0.01234239  0.011353581            3 
 3804000    0.6367459   -8.6561642    563.25341   0.01233906  0.011349463            1 
 3805000   0.63896537   -8.6628501    562.98899  0.012330026  0.011345355            1 
 3806000   0.63572273   -8.6551357    563.05321  0.012328192  0.011341245            2 
 3807000   0.63895923   -8.6720232    564.47632  0.012356106  0.011337141            2 
 3808000   0.64256072   -8.6601952    563.19463  0.012324812   0.01133304            3 
 3809000   0.65221868   -8.6772649    562.71427  0.012311067  0.011328934            1 
 3810000   0.64188098   -8.6670494    563.65986  0.012328518  0.011324833            2 
 3811000   0.64325338   -8.6475453    563.73534  0.012326934  0.011320729            1 
 3812000   0.63629446   -8.6507087    564.47113  0.012339785  0.011316624            2 
 3813000   0.63649748   -8.6837919    562.74321  0.012298785  0.011312519            3 
 3814000   0.63861217   -8.6781184    563.03503  0.012301936  0.011308415            3 
 3815000   0.64944345   -8.6503532    564.39111  0.012328334  0.011304321            2 
 3816000   0.64880048   -8.6671542    563.92753  0.012314979  0.011300224            4 
 3817000   0.63786752   -8.6699372    563.35758   0.01229931  0.011296131            2 
 3818000   0.64643598   -8.6519588    564.06753  0.012311584  0.011292043            7 
 3819000    0.6451761     -8.64295    563.31263  0.012291888  0.011287958            2 
 3820000   0.63365283   -8.6793976    563.36561  0.012289826  0.011283869            3 
 3821000   0.64311351   -8.6642829    564.67421  0.012315149  0.011279783            1 
 3822000   0.64070562   -8.6451157    563.78649  0.012292571  0.011275701            2 
 3823000   0.63451507   -8.6639079    564.88201  0.012313236  0.011271613            2 
 3824000   0.63692209   -8.6652896    563.45837  0.012278992  0.011267525            1 
 3825000   0.64290002   -8.6607186    563.03544  0.012266567  0.011263447            1 
 3826000   0.63564173   -8.6805703    563.66114  0.012276989  0.011259361            2 
 3827000    0.6355109   -8.6764282    563.49475  0.012270158  0.011255283            1 
 3828000   0.63961444   -8.6598925    564.46275  0.012288026  0.011251196            2 
 3829000   0.63438671   -8.6789291      563.134  0.012255898  0.011247117            2 
 3830000   0.64715108   -8.6642416    563.45335  0.012259647  0.011243039            2 
 3831000   0.62619549   -8.6577513    564.26601  0.012274124  0.011238967            5 
 3832000   0.63603489   -8.6872529    563.21323  0.012248026  0.011234893            2 
 3833000   0.63705911   -8.6686835     563.6916  0.012255231  0.011230825            1 
 3834000   0.65215154   -8.6826841    563.36518   0.01224494  0.011226757            1 
 3835000   0.64162696   -8.6806617    562.69185  0.012227115  0.011222684            3 
 3836000   0.63489637    -8.681283    562.41184  0.012217845  0.011218617            2 
 3837000   0.64445837   -8.6724786    563.37628  0.012235607  0.011214553            2 
 3838000   0.63974302   -8.6870218    563.27405  0.012230199   0.01121049            1 
 3839000   0.62754417   -8.6702703     563.8468  0.012239446  0.011206433            2 
 3840000   0.63755808   -8.6630086    562.80904  0.012213738  0.011202382            1 
 3841000   0.63664167   -8.7069815    563.50501  0.012225658  0.011198336            1 
 3842000   0.64999359    -8.678847    562.67554  0.012204484  0.011194278            3 
 3843000   0.63655588   -8.6742444    563.37047  0.012216378  0.011190227            2 
 3844000   0.63540875   -8.6945486    563.02098  0.012205623  0.011186185            2 
 3845000   0.64020614   -8.6776569    563.41126  0.012210907  0.011182138            2 
 3846000    0.6240229   -8.6856644    563.78401  0.012215809    0.0111781            2 
 3847000   0.63984022   -8.6617619    563.61348  0.012208939  0.011174059            4 
 3848000   0.63688742   -8.6759903    564.34135   0.01222153  0.011170031            2 
 3849000   0.63851607   -8.6666322    562.73243   0.01218352  0.011165998            2 
 3850000   0.62946036   -8.6928853    563.75811  0.012202556   0.01116196            2 
 3851000   0.63865271    -8.678227    563.23917  0.012188158  0.011157923            3 
 3852000    0.6488614   -8.6677607    563.26256    0.0121855  0.011153886            1 
 3853000   0.63534022   -8.6906812    563.28059  0.012182727  0.011149845            3 
 3854000   0.63212792   -8.6735975    563.61304  0.012186755  0.011145804            1 
 3855000   0.63469669   -8.6868363    563.34221  0.012177739  0.011141772            2 
 3856000   0.64365677   -8.6650319    563.26419  0.012172895  0.011137742            1 
 3857000   0.64300877   -8.6992338    562.60949  0.012155593  0.011133715            2 
 3858000   0.63220914   -8.6671355    563.78958  0.012177933  0.011129689            3 
 3859000   0.62280763   -8.6826931    563.61631  0.012171036  0.011125666            2 
 3860000   0.62583497   -8.6726471    563.04985  0.012155653  0.011121648            2 
 3861000   0.63734836   -8.6827833    563.43407  0.012160797  0.011117629            3 
 3862000   0.64351628   -8.6902389    563.68288  0.012163017  0.011113605            4 
 3863000   0.64863225   -8.6771528    564.58575  0.012179346  0.011109591            2 
 3864000   0.63657311   -8.6902338    562.76757  0.012136982  0.011105579            1 
 3865000   0.63142525   -8.6834524    563.52405  0.012150152  0.011101562            2 
 3866000   0.61774362   -8.6691715    563.25457    0.0121412  0.011097555            4 
 3867000    0.6327114   -8.6546398    563.64656  0.012146508  0.011093551            4 
 3868000    0.6356621    -8.675394    564.13451   0.01215388  0.011089548            1 
 3869000   0.62284979   -8.7102029    563.88735  0.012145416   0.01108554            3 
 3870000   0.63166187   -8.6695595    563.39245   0.01213162   0.01108153            4 
 3871000   0.61597626   -8.6916927    563.29391  0.012126365  0.011077521            3 
 3872000    0.6373375   -8.6881288    564.10571  0.012140705  0.011073509            3 
 3873000    0.6385337   -8.6913703    563.69023  0.012128631  0.011069509            4 
 3874000   0.64615609   -8.6968254    563.77524  0.012127328  0.011065503            2 
 3875000   0.63186769   -8.6874388    564.14029  0.012132049  0.011061498            5 
 3876000   0.63273007    -8.697673    563.68122  0.012119049  0.011057497            1 
 3877000   0.61861973   -8.6960617    562.98804  0.012101024  0.011053494            4 
 3878000   0.63031926   -8.6764091     562.6741  0.012091157  0.011049489            2 
 3879000   0.63026277   -8.6939578    563.08362  0.012096838  0.011045484            4 
 3880000   0.60497011    -8.671301    563.77928  0.012108661  0.011041485            2 
 3881000   0.64127144   -8.6890155    563.23123  0.012093774  0.011037483            4 
 3882000   0.61830063   -8.7170498    562.15348  0.012067523  0.011033479            4 
 3883000   0.61045352   -8.6858631    563.52639  0.012093879  0.011029482            2 
 3884000   0.62694426   -8.6884539    563.03594  0.012080243  0.011025489            4 
 3885000   0.61484238   -8.6948284    563.18788  0.012080392  0.011021501            5 
 3886000   0.61804819   -8.6922467    562.96169  0.012072433  0.011017518            2 
 3887000   0.62106783   -8.6821297    564.02961  0.012092222  0.011013534            2 
 3888000   0.63396671   -8.6791731    563.49237  0.012077597  0.011009554            1 
 3889000   0.63812087   -8.7004171    561.64655  0.012034939  0.011005573            7 
 3890000   0.63091613   -8.6723155    563.16157  0.012064301  0.011001595            4 
 3891000   0.63640622   -8.6683249    562.74946  0.012052374  0.010997617            2 
 3892000   0.62469488   -8.6979677    562.60652  0.012046217  0.010993644            2 
 3893000   0.62520905   -8.7064962    563.05132  0.012052644  0.010989669            3 
 3894000   0.64837739    -8.685214    563.02997  0.012049092  0.010985692            3 
 3895000   0.63286328   -8.7086164    563.00801  0.012045529  0.010981715            5 
 3896000   0.61311292   -8.6808719    562.54308  0.012032492  0.010977746            6 
 3897000    0.6294337   -8.6922212    563.13605  0.012042085  0.010973776            2 
 3898000   0.63427932   -8.6919024    563.22722  0.012040945  0.010969814            4 
 3899000   0.61883584   -8.6967823    563.78568  0.012049792  0.010965847            1 
 3900000   0.63080564   -8.6811936    562.67815  0.012023037   0.01096188            2 
 3901000   0.62458894   -8.6426139    563.66214  0.012040975  0.010957925            4 
 3902000   0.63343936   -8.6719665    564.10998  0.012047454  0.010953968            4 
 3903000   0.61948137   -8.6917539      564.122  0.012044624  0.010950012            4 
 3904000   0.60920711   -8.7018103    563.79197  0.012034494  0.010946058            4 
 3905000   0.62808579   -8.6842774    562.38756  0.012001442  0.010942108            3 
 3906000   0.62880096   -8.6761443    563.62284  0.012024724  0.010938156            9 
 3907000   0.63307474   -8.6934288    562.99448  0.012008243  0.010934209            3 
 3908000   0.62112415   -8.6860575    563.15465  0.012008586  0.010930263            7 
 3909000     0.623422   -8.6891176    563.05541  0.012003398   0.01092632            2 
 3910000   0.63024269   -8.7199922    562.21061  0.011982323  0.010922378            6 
 3911000   0.62653231   -8.7022224    562.84033  0.011992677  0.010918434            2 
 3912000   0.61146039   -8.6829161    562.84057  0.011989617  0.010914494            6 
 3913000   0.61890466   -8.7090672    563.18519  0.011993892  0.010910545            2 
 3914000   0.61641043   -8.7237076    562.41629  0.011974457    0.0109066            4 
 3915000   0.62466275   -8.7039695     563.5615  0.011995775  0.010902661            3 
 3916000   0.62788704   -8.6948999    562.61405  0.011972549  0.010898717            4 
 3917000   0.63044335   -8.6785954    562.72773  0.011971912  0.010894775            3 
 3918000   0.62543714   -8.6908635    562.67084  0.011967646  0.010890835            2 
 3919000    0.6354626   -8.6934916    561.65212   0.01194293  0.010886899            2 
 3920000   0.60613834   -8.6866179     563.0736  0.011970102  0.010882962            4 
 3921000   0.61457061   -8.6906019    562.88982  0.011963143  0.010879023            1 
 3922000   0.62514641   -8.6918209    562.76316  0.011957402  0.010875089            1 
 3923000   0.62712145   -8.6913382     562.5389   0.01194959  0.010871154            2 
 3924000   0.62828475   -8.6897027    562.36337  0.011942817  0.010867223            2 
 3925000   0.62662264   -8.6970386    562.41212  0.011940809  0.010863291            2 
 3926000   0.63817967   -8.7101947    563.11136   0.01195261  0.010859361            5 
 3927000   0.61335422   -8.7161864    561.61475  0.011917807  0.010855425            4 
 3928000   0.62150028   -8.7036419    563.32145  0.011950981  0.010851495            1 
 3929000     0.628651   -8.7061052    562.52945  0.011931141  0.010847567            2 
 3930000    0.6287276   -8.6851834    562.11279   0.01191927  0.010843644            2 
 3931000   0.62378891   -8.7041996    562.75448  0.011929841  0.010839728            3 
 3932000   0.61694914   -8.7175417    562.10045  0.011912946  0.010835807            4 
 3933000   0.62159875   -8.7059812    562.69441  0.011922502  0.010831889            4 
 3934000   0.62306068   -8.6828829    561.45514   0.01189322  0.010827972            2 
 3935000   0.61348458   -8.6992519    562.98071  0.011922505  0.010824058            2 
 3936000   0.62789185   -8.7135014    562.10885  0.011901017  0.010820143            2 
 3937000   0.62062723   -8.7116726    562.35004    0.0119031  0.010816228            3 
 3938000   0.61783736   -8.7071655    562.12827  0.011895384  0.010812315            4 
 3939000   0.61570552   -8.7015064    562.35662  0.011897195  0.010808411            1 
 3940000   0.62948742   -8.7001045    562.31668  0.011893331  0.010804506            2 
 3941000   0.63489412   -8.6895594    562.86711  0.011901952  0.010800607            4 
 3942000   0.61728313   -8.7040947    562.99008  0.011901532  0.010796707            3 
 3943000    0.6260697   -8.7053019     562.8685  0.011895944  0.010792808            2 
 3944000   0.61852681   -8.6907081     562.7483  0.011890388  0.010788907            2 
 3945000   0.61837948    -8.675695    563.49707  0.011903191  0.010785013            3 
 3946000   0.62079408   -8.6997753    562.03314  0.011869259  0.010781112            1 
 3947000   0.63137598    -8.718826    563.22877  0.011891495  0.010777205            5 
 3948000   0.61610028   -8.7112859    562.83019   0.01188007  0.010773302            3 
 3949000   0.60839656   -8.7070982    563.54626  0.011892172  0.010769406            2 
 3950000   0.61387135   -8.7083449    562.43882  0.011865798  0.010765514            2 
 3951000   0.61509778   -8.7335097    562.78318  0.011870058  0.010761627            2 
 3952000   0.62565713   -8.7163622    562.27071  0.011856248   0.01075774            4 
 3953000   0.60641556   -8.7267325     564.0341  0.011890423  0.010753857            2 
 3954000   0.61399986   -8.7108085    562.69676   0.01185923  0.010749972            2 
 3955000   0.62421481   -8.7279922    563.25031  0.011867895   0.01074609            2 
 3956000   0.63317301   -8.7141189    562.34044  0.011845729  0.010742208            3 
 3957000   0.62305051   -8.7241774    561.76041   0.01183052  0.010738326            2 
 3958000     0.606066   -8.7215847    562.33458   0.01183962  0.010734443            1 
 3959000   0.61527164   -8.7061268    563.95751   0.01187079  0.010730568            3 
 3960000   0.62188572   -8.7006887    563.20087   0.01185187  0.010726693            4 
 3961000   0.61105886   -8.7226512     562.1183  0.011826102  0.010722825            4 
 3962000   0.61815314    -8.728534    562.57074  0.011832634  0.010718951            4 
 3963000    0.6185924   -8.7210405    562.37507  0.011825533  0.010715076            2 
 3964000   0.61741806   -8.7126547    562.70394  0.011829464  0.010711205            3 
 3965000   0.62005887   -8.7188981    563.55183  0.011844301  0.010707339            1 
 3966000   0.62273137   -8.7206825    562.52834  0.011819809  0.010703474            4 
 3967000   0.61604575   -8.7130873    561.78744  0.011801265  0.010699606            2 
 3968000   0.61063028   -8.6983228    562.51401   0.01181355  0.010695743            1 
 3969000   0.61706879   -8.7243394    561.41331  0.011787463   0.01069188            3 
 3970000   0.62234179     -8.73036    563.11215  0.011820154  0.010688023            1 
 3971000   0.61693483   -8.7037437    562.30666  0.011800274  0.010684168            3 
 3972000   0.62309479   -8.7229349    562.16873  0.011794409  0.010680312            2 
 3973000   0.61226656    -8.705691    562.46511  0.011797657  0.010676466            3 
 3974000   0.63591644   -8.7024022    564.53376  0.011838067  0.010672618            6 
 3975000    0.6087395   -8.7295816    563.00539  0.011803048  0.010668775            2 
 3976000   0.61411552   -8.7204481    562.63137   0.01179224  0.010664931            2 
 3977000   0.62626339   -8.7102044    562.44507  0.011785371  0.010661094            2 
 3978000   0.60997613   -8.7221557     561.7155  0.011767125  0.010657254            4 
 3979000   0.61762819   -8.7227221    561.82774  0.011766519  0.010653408            2 
 3980000   0.61356723    -8.718335    562.28921  0.011773225   0.01064957            3 
 3981000   0.61885624   -8.7337296    562.20445  0.011768493  0.010645733            2 
 3982000   0.60767584   -8.7142226    563.32049  0.011788893  0.010641897            1 
 3983000   0.61894295   -8.7258762    561.74147  0.011752897  0.010638061            2 
 3984000   0.62159453   -8.7175491    561.71013  0.011749292  0.010634226            1 
 3985000   0.62535814   -8.7103233    562.46929  0.011762218  0.010630398            3 
 3986000   0.61993137   -8.7192499    563.22005  0.011774963  0.010626565            3 
 3987000   0.61439817   -8.7242702    562.53965  0.011757789  0.010622737            3 
 3988000   0.61234601   -8.7191929    561.71859  0.011737684  0.010618914            3 
 3989000   0.61982636    -8.735384     561.3665  0.011727386  0.010615088            3 
 3990000   0.63062015   -8.7096471    562.59087  0.011750018  0.010611269            4 
 3991000   0.60869584   -8.7153721    562.53455  0.011745898  0.010607455            4 
 3992000     0.609638   -8.7264708    563.12835  0.011755351  0.010603634            3 
 3993000   0.61742937   -8.7280164    562.49575  0.011739205  0.010599813            2 
 3994000   0.63082397   -8.7361546    562.79605  0.011742532  0.010595993            3 
 3995000   0.60666226   -8.7076738    563.45143  0.011753263  0.010592169            5 
 3996000   0.62517372   -8.7332259    561.87728  0.011717494  0.010588349            2 
 3997000   0.61098403   -8.7260654    561.82618  0.011713497  0.010584538            3 
 3998000   0.61539224   -8.7252304    562.77127  0.011730267   0.01058073            4 
 3999000   0.59957531   -8.7197929    562.48403  0.011721348  0.010576923            4 
 4000000   0.61232244   -8.7463173    562.15941  0.011711654   0.01057311            2 
 4001000    0.6055032   -8.7202578    562.55282  0.011716921  0.010569302            4 
 4002000   0.59800752   -8.7297473    563.24643  0.011728436  0.010565493            7 
 4003000   0.60463697   -8.7411802    562.66654  0.011713435  0.010561683            3 
 4004000   0.62080998   -8.7321041    561.51133  0.011686466  0.010557875            4 
 4005000   0.62333724   -8.7016316    562.69753   0.01170823  0.010554073            1 
 4006000   0.60491598   -8.7402178    562.53546  0.011701936  0.010550272            4 
 4007000   0.60485238   -8.7339361    562.62698  0.011700919   0.01054647           10 
 4008000   0.60274599    -8.735521    562.31768  0.011691568   0.01054267            3 
 4009000   0.61182697   -8.7205505    562.44323  0.011691262  0.010538872            4 
 4010000   0.60770007   -8.7553256    561.59892    0.0116708  0.010535073            5 
 4011000   0.60332466   -8.7341261    562.67828  0.011690316  0.010531276            3 
 4012000   0.61324084   -8.7340096    562.65987  0.011687019  0.010527482            4 
 4013000   0.61130282   -8.7275186    561.89932  0.011668314  0.010523689            8 
 4014000   0.61756092   -8.7134124    562.10139  0.011669602  0.010519897            3 
 4015000    0.6012814   -8.7284086    561.74555   0.01165931  0.010516114            5 
 4016000   0.61704089   -8.7424654    562.46003  0.011671232   0.01051233            2 
 4017000   0.59660793   -8.7448719    560.93832  0.011636759  0.010508539            5 
 4018000   0.61219227   -8.7585356    561.62367  0.011648077  0.010504748            7 
 4019000   0.61215564   -8.7353788    561.84241  0.011649714  0.010500959            2 
 4020000   0.61375107   -8.7377886    561.95389  0.011649127   0.01049717            4 
 4021000    0.6185488   -8.7189143    562.66215  0.011660908  0.010493388            4 
 4022000   0.59990101   -8.7535179    562.31128  0.011650739    0.0104896           11 
 4023000      0.60616   -8.7373741    561.56125  0.011632307  0.010485822            7 
 4024000   0.60844103   -8.7439218    562.29061  0.011644521  0.010482043            2 
 4025000   0.60365635   -8.7333525    561.91486  0.011633848  0.010478263            3 
 4026000    0.6197066   -8.7487349    561.83941  0.011629397  0.010474485            3 
 4027000   0.59169081   -8.7376048    561.68595  0.011623333    0.0104707            4 
 4028000   0.61135264   -8.7190426    561.88589  0.011624584  0.010466918            2 
 4029000   0.61858704    -8.759742    562.50257  0.011634454  0.010463136            6 
 4030000   0.62060802   -8.7330506    562.56356  0.011632828  0.010459359            2 
 4031000   0.60992047   -8.7597911    561.53176  0.011608612  0.010455578            4 
 4032000   0.60643398   -8.7566977    561.50772  0.011605236    0.0104518            4 
 4033000   0.61060047    -8.738273    563.02094  0.011633625  0.010448023            4 
 4034000   0.60131229   -8.7478187    561.52872  0.011599916  0.010444251            5 
 4035000   0.61015172   -8.7551325    562.24084  0.011611748  0.010440474            5 
 4036000   0.60901132   -8.7728394    561.51605  0.011593906  0.010436704            7 
 4037000   0.61311823    -8.745354    561.53884  0.011591504  0.010432936            5 
 4038000   0.61577006   -8.7407222    562.60833  0.011610705  0.010429176            4 
 4039000    0.6132466   -8.7596552    562.69621  0.011609644  0.010425418            2 
 4040000   0.60496193    -8.734779    562.00781   0.01159257  0.010421653            5 
 4041000   0.59846806   -8.7298243    561.22084  0.011573473  0.010417897            2 
 4042000   0.59341283   -8.7808688    560.66899  0.011559232  0.010414136            3 
 4043000    0.5950972   -8.7540672    562.50379  0.011594191  0.010410378            1 
 4044000   0.59866851   -8.7616589    560.67856  0.011553713   0.01040662            2 
 4045000   0.59989972   -8.7683991    560.95433  0.011556537  0.010402865            4 
 4046000   0.61729602   -8.7601571    562.73106  0.011590276   0.01039911            5 
 4047000   0.60126783   -8.7511675    562.16557  0.011575767  0.010395357            4 
 4048000   0.59969458   -8.7517748    561.21986  0.011553439  0.010391607            4 
 4049000   0.59618738   -8.7360697    561.13142  0.011548766  0.010387855            2 
 4050000   0.59941712   -8.7645225    561.11537  0.011545584  0.010384107            7 
 4051000   0.59491358   -8.7594888    561.49123  0.011550466  0.010380359            5 
 4052000   0.60041196   -8.7602077    560.80884  0.011533581  0.010376614            6 
 4053000   0.59805389    -8.766614    561.18611  0.011538492  0.010372871            5 
 4054000   0.60244948   -8.7708917     562.1321  0.011555092   0.01036913            8 
 4055000   0.60518709   -8.7634886    561.15319  0.011532125  0.010365386            1 
 4056000   0.60219915   -8.7574971    560.84707  0.011522992  0.010361645           10 
 4057000   0.61145793   -8.7840326    560.85928  0.011520403  0.010357905            3 
 4058000    0.5966952   -8.7832514    561.43588  0.011529404  0.010354167            8 
 4059000   0.59540239   -8.7649516    561.84072  0.011534876  0.010350425            4 
 4060000   0.60281861   -8.7585575    561.44929     0.011524   0.01034669            9 
 4061000   0.60374117   -8.8011867    561.63962  0.011525068  0.010342946            5 
 4062000   0.60233327   -8.7585773    561.40116  0.011517339  0.010339206            6 
 4063000   0.60490028   -8.7446683    561.67023  0.011520023  0.010335475            4 
 4064000   0.60837709   -8.7663445    560.49505  0.011493091  0.010331748           11 
 4065000   0.58532121   -8.7656815    561.30487  0.011506865  0.010328022            5 
 4066000   0.61491356   -8.7558933    561.48174   0.01150766  0.010324298            3 
 4067000   0.60424598   -8.7632665    561.75321  0.011510393  0.010320574            6 
 4068000   0.58996132   -8.7701581    561.24453  0.011497143  0.010316851            3 
 4069000   0.59965487   -8.7631502    561.19058  0.011493212  0.010313131            2 
 4070000   0.61453573   -8.7581216    561.77768   0.01150241  0.010309411            6 
 4071000    0.6019519   -8.7651305    560.82783  0.011480141   0.01030569            5 
 4072000   0.60430874   -8.7645044    562.34596   0.01150839  0.010301973            4 
 4073000   0.60105762   -8.7686673    561.26405  0.011483428  0.010298255            7 
 4074000   0.59091525   -8.7411645     561.3041  0.011481429  0.010294543            5 
 4075000   0.60260798   -8.7693679    560.99439  0.011472278  0.010290827            7 
 4076000   0.60572097   -8.7902203    561.38619  0.011477474  0.010287114            3 
 4077000   0.60158917    -8.757678    562.16269   0.01149053  0.010283404            4 
 4078000   0.60658976   -8.7641574    561.22225  0.011468494  0.010279698            5 
 4079000    0.5903888   -8.7870856    560.81484   0.01145736  0.010275988            4 
 4080000   0.60765819   -8.7583276    560.35261   0.01144511  0.010272278            4 
 4081000   0.61038674   -8.7682826    561.37606  0.011463205  0.010268575            9 
 4082000   0.59644278   -8.7563329    561.42126  0.011461319  0.010264878            6 
 4083000   0.59439845   -8.7796461    561.40075  0.011458094  0.010261174            4 
 4084000    0.6113089   -8.7703894     561.0663  0.011448464  0.010257474            4 
 4085000   0.59146917    -8.771773    561.08847  0.011446113  0.010253776           10 
 4086000   0.61654117   -8.7663308    561.50099  0.011451725   0.01025008            8 
 4087000   0.60059462   -8.7517141    561.58744  0.011450686  0.010246383            6 
 4088000   0.62412238   -8.7879445    560.27166  0.011421063  0.010242693            6 
 4089000   0.60863029   -8.7481946    562.09156  0.011455359  0.010239004            7 
 4090000   0.60062707   -8.7731917    561.03061  0.011430942  0.010235315            4 
 4091000   0.60010138   -8.7917672    561.70496  0.011441884  0.010231622            9 
 4092000    0.6004512   -8.7801085     560.7893   0.01142044  0.010227934            3 
 4093000    0.5896277   -8.7605583    561.10975  0.011424174  0.010224252            6 
 4094000   0.59999798   -8.7859001    561.64486  0.011432276  0.010220566            4 
 4095000   0.59294781   -8.7864162    561.94917  0.011435677  0.010216888            5 
 4096000   0.58243056   -8.7781422    561.07501    0.0114151  0.010213207            1 
 4097000   0.59534631   -8.7991703    561.79181  0.011426894  0.010209529            8 
 4098000   0.61002877   -8.7678079    561.14989  0.011411052  0.010205851            4 
 4099000   0.60200651   -8.7591253    561.30762  0.011411475  0.010202172            2 
 4100000   0.60017147   -8.7813794    560.01528  0.011382424  0.010198493            4 
 4101000   0.59269728   -8.7756498    560.04994  0.011380353  0.010194817            2 
 4102000   0.60493301   -8.7712878    561.02862  0.011397461  0.010191144            4 
 4103000   0.58969063   -8.7642366    561.20603  0.011398286  0.010187471            6 
 4104000   0.59616011   -8.7589911    560.39345  0.011379009  0.010183798            2 
 4105000   0.59506598   -8.7850094    560.36658  0.011375692  0.010180126            7 
 4106000   0.59495909   -8.7821144    560.59099  0.011377476  0.010176453            8 
 4107000   0.57951667   -8.7618245    560.23052  0.011367391  0.010172785            3 
 4108000   0.59884399   -8.7921667     560.5109  0.011370312  0.010169118            5 
 4109000   0.58539992    -8.782299    560.41877  0.011365676  0.010165453            9 
 4110000    0.5992656   -8.7562688    561.90334  0.011393012  0.010161794            6 
 4111000    0.5908464   -8.7667572    561.69829  0.011386084  0.010158133            8 
 4112000   0.60078591   -8.7881479     560.9587  0.011368326  0.010154469            9 
 4113000   0.57696587   -8.7756567    560.52314  0.011356738  0.010150806            1 
 4114000    0.5863205   -8.7653337    560.43598  0.011352212  0.010147144            5 
 4115000   0.60061956   -8.7776351    562.28959  0.011386991  0.010143485            4 
 4116000   0.59804778   -8.7840288    560.18285  0.011341571  0.010139826            2 
 4117000    0.5864351   -8.7824412    560.54306  0.011346107  0.010136168            8 
 4118000   0.57377941   -8.7773861    560.74259  0.011347389  0.010132516            9 
 4119000   0.59108207   -8.7740181    560.09717  0.011331577  0.010128862            7 
 4120000   0.59373769    -8.789067    561.17734  0.011350674  0.010125208            7 
 4121000   0.60504981    -8.784049    560.39848   0.01133217  0.010121559            9 
 4122000   0.60002884   -8.7601979    561.11393  0.011343885  0.010117912            9 
 4123000   0.59643374   -8.7922873    560.83074   0.01133541  0.010114265           12 
 4124000   0.59116259   -8.7978979     560.8988  0.011334037  0.010110621           10 
 4125000   0.57639707   -8.8010733    560.73611  0.011328002  0.010106977            7 
 4126000   0.58687743   -8.7846829    560.37562  0.011317976  0.010103332            3 
 4127000   0.58980819   -8.7708802    561.04799   0.01132881  0.010099696            7 
 4128000   0.58140473   -8.7899208    560.71217  0.011319286  0.010096058            5 
 4129000   0.59316407   -8.7799603    560.59047  0.011314089  0.010092426            4 
 4130000   0.59311584   -8.7710159    561.63915  0.011332509  0.010088792            6 
 4131000   0.60445681   -8.7810713    560.31034   0.01130296  0.010085159            3 
 4132000   0.60299073   -8.7875489    560.55676  0.011305194  0.010081524            2 
 4133000   0.61245881   -8.8015889    560.99344  0.011311264  0.010077892            5 
 4134000   0.60466284   -8.7991375    559.96936  0.011287884  0.010074256            8 
 4135000   0.58544903   -8.7943179     560.6068  0.011298001  0.010070625            1 
 4136000   0.60169175   -8.7881309    560.58816  0.011294894  0.010067003            7 
 4137000    0.6143474   -8.7968873    561.86809  0.011317946  0.010063377            7 
 4138000    0.5892206   -8.7809477    560.47618  0.011287179  0.010059754            4 
 4139000   0.59554013   -8.7903323    560.32428  0.011281394  0.010056133           12 
 4140000   0.58067408   -8.7953235    560.53776  0.011282966  0.010052518            9 
 4141000   0.59419136   -8.8002936     561.9573  0.011308808  0.010048904            7 
 4142000   0.58491458   -8.7909139    561.13949  0.011289624  0.010045286            6 
 4143000   0.57783112    -8.785005    560.66347  0.011277325  0.010041676            2 
 4144000   0.58605708   -8.8117777    560.53907  0.011272102  0.010038065            5 
 4145000   0.58840332   -8.7968127     560.5225  0.011269049  0.010034453            9 
 4146000   0.60117198   -8.7681744    560.36989  0.011263263  0.010030841            2 
 4147000   0.59481981   -8.7885612    560.67212  0.011266621  0.010027234            2 
 4148000   0.60810102   -8.7867303    560.78399  0.011266152  0.010023628            6 
 4149000   0.57650643    -8.811693    560.65301  0.011260806  0.010020025           10 
 4150000   0.57749809   -8.7932899    560.75669  0.011260174  0.010016424            2 
 4151000   0.58180202   -8.7980642    560.95618  0.011261467  0.010012822           12 
 4152000   0.58844039   -8.7874916    561.09998  0.011261641   0.01000923            9 
 4153000   0.58516943   -8.8018347    561.17341  0.011260402  0.010005637            5 
 4154000   0.58305013   -8.7691313    561.43972  0.011263034  0.010002047            7 
 4155000   0.59010761   -8.7849046    561.10172  0.011253544 0.0099984538            5 
 4156000   0.58111153   -8.7853984     560.8502  0.011245793 0.0099948607           13 
 4157000    0.5939214   -8.7773987    561.06316  0.011247357 0.0099912702            3 
 4158000   0.58242721   -8.7949314     559.8106  0.011219549 0.0099876828            9 
 4159000   0.58816841   -8.7861208    560.64147  0.011233499 0.0099840965            9 
 4160000   0.59787077   -8.8025217    560.77085   0.01123339 0.0099805094            7 
 4161000   0.58219702   -8.7871779    560.98355   0.01123495 0.0099769249            7 
 4162000   0.58761559   -8.7913868    560.01086  0.011212776  0.009973341            8 
 4163000   0.58538023   -8.7960621    560.18863  0.011213641 0.0099697559            5 
 4164000   0.59577404   -8.7838438    560.72628  0.011221707 0.0099661783           13 
 4165000   0.58268065   -8.8028128    560.41186  0.011212722 0.0099626001            2 
 4166000   0.59545935   -8.7861514    561.41601  0.011230117 0.0099590246            2 
 4167000   0.59115848    -8.799209    560.96283  0.011218359 0.0099554515            5 
 4168000   0.58901919   -8.7953916    560.91779  0.011214767 0.0099518856            7 
 4169000   0.58310609   -8.8092039    560.36967  0.011201121 0.0099483117            3 
 4170000   0.58963866   -8.8079692     559.7742  0.011186535 0.0099447389            5 
 4171000   0.58663363   -8.7752163    560.27425  0.011193843   0.00994117           11 
 4172000   0.58637104   -8.8216565    560.39958  0.011193664 0.0099375988           16 
 4173000   0.58376178   -8.7653913    560.67238  0.011196429 0.0099340312            6 
 4174000   0.58117949   -8.7967933    560.80861  0.011196466 0.0099304711           11 
 4175000   0.59878301   -8.7877207    560.76335  0.011192881  0.009926908           12 
 4176000   0.59581022   -8.7713505    561.11255  0.011197169 0.0099233473           12 
 4177000   0.57992031   -8.8063628    559.50169  0.011162351 0.0099197846           11 
 4178000    0.5866458   -8.7986728    560.95979  0.011188762 0.0099162249            7 
 4179000   0.58678521   -8.7887905    560.19626   0.01117086 0.0099126663           12 
 4180000   0.58808941   -8.7871814    560.30365  0.011170328 0.0099091102           10 
 4181000   0.57736219   -8.7993526    560.60617  0.011173686 0.0099055531           12 
 4182000   0.57559075   -8.7962346    560.88134  0.011176497 0.0099020014            8 
 4183000    0.5819971   -8.8100609    560.47893  0.011165809 0.0098984491            5 
 4184000   0.58702755   -8.7918071    560.68577   0.01116726 0.0098948957           11 
 4185000   0.56743576    -8.780803    561.40738   0.01117896 0.0098913434           11 
 4186000   0.57941099   -8.7920265    561.55775  0.011179283 0.0098877942            7 
 4187000   0.57501148   -8.8059701    559.73463  0.011140328 0.0098842425            9 
 4188000   0.58434952   -8.7973488    559.57027  0.011134397 0.0098806937           14 
 4189000   0.59021607   -8.8071783    559.86092  0.011137521 0.0098771537            4 
 4190000   0.58857138    -8.806816    559.59095  0.011129494 0.0098736075            6 
 4191000   0.58513889   -8.7939983    560.25365  0.011140015 0.0098700623           10 
 4192000   0.57912585    -8.800462    560.44932  0.011141248  0.009866519           13 
 4193000    0.5756647    -8.809414    560.39001  0.011137412 0.0098629816           17 
 4194000   0.56706248   -8.7881706    561.16866  0.011150228 0.0098594444           10 
 4195000   0.57182602   -8.7899401    560.01164  0.011124586 0.0098559127           10 
 4196000   0.58987857   -8.8022171    560.17695  0.011125217 0.0098523843            8 
 4197000   0.58118947   -8.7988365    560.85441  0.011136018 0.0098488561            7 
 4198000   0.56930682   -8.8011281    560.54683   0.01112726 0.0098453271            5 
 4199000   0.57047116   -8.8043928    559.81468  0.011110079 0.0098417993            4 
 4200000    0.5835568   -8.7955758    560.49426  0.011120918 0.0098382673            6 
 4201000   0.57611135   -8.8101002    560.38542  0.011116112 0.0098347441            8 
 4202000   0.57875554   -8.7981563    561.07502  0.011127142 0.0098312209            6 
 4203000   0.57522819   -8.8115539    560.35355   0.01111019  0.009827693            7 
 4204000   0.58398891   -8.8026829    560.58487  0.011112133 0.0098241739            6 
 4205000   0.58999681   -8.7885107    560.25897  0.011103031 0.0098206545            4 
 4206000   0.58134217   -8.8107917    560.21537  0.011099528 0.0098171329            7 
 4207000   0.58278977   -8.8028962    558.71491  0.011067168 0.0098136173            2 
 4208000   0.57857747   -8.7954816    560.41464  0.011098199 0.0098101003            4 
 4209000   0.57239925   -8.8107132    560.06671  0.011088673 0.0098065874            6 
 4210000   0.57347125    -8.795696    559.66834  0.011078154 0.0098030794            3 
 4211000   0.57472105    -8.829852    559.50668  0.011072324 0.0097995649            6 
 4212000   0.58163164   -8.7996848     559.5882  0.011071308 0.0097960495            5 
 4213000   0.57626546   -8.8076098    560.14443  0.011079683 0.0097925376            6 
 4214000   0.57258993   -8.8016519    560.83433  0.011090696 0.0097890242            4 
 4215000   0.57462662   -8.8238921    560.16333  0.011074799 0.0097855149            3 
 4216000   0.58065444   -8.8140913    559.52828   0.01105962 0.0097820074            5 
 4217000   0.57944624   -8.7897225    560.59411  0.011078059 0.0097785026            5 
 4218000   0.58547675   -8.7955101    559.95174  0.011062742 0.0097749988            6 
 4219000   0.58726517   -8.8150314    559.65622  0.011054283 0.0097714952            6 
 4220000   0.56142353   -8.8181725    559.85931  0.011055674 0.0097679918            5 
 4221000   0.57758063   -8.8025585    559.18102  0.011039663  0.009764489            3 
 4222000   0.57308232   -8.8120411    559.32626  0.011039915 0.0097609904           10 
 4223000   0.58125178   -8.8166228    560.91912  0.011068733 0.0097574954            8 
 4224000   0.58381532   -8.8094749    559.80126  0.011044059 0.0097539997            9 
 4225000   0.57695933   -8.8288161    559.82842  0.011041981  0.009750504            8 
 4226000   0.57998601   -8.8108964    559.23878  0.011027741 0.0097470137            4 
 4227000   0.58424886   -8.8114057      559.713  0.011034481 0.0097435215            6 
 4228000   0.56364946    -8.805903    560.58834  0.011049124 0.0097400325            9 
 4229000   0.59362064   -8.8119689    560.53537  0.011045467 0.0097365433            3 
 4230000   0.57599386   -8.8089959    560.56281  0.011043397 0.0097330619            7 
 4231000   0.58448483   -8.7974187    560.37758  0.011037138 0.0097295803            3 
 4232000   0.57725427   -8.8071589    559.46085  0.011016479 0.0097260955            3 
 4233000   0.56541407   -8.8117211    560.42242  0.011032806 0.0097226147            5 
 4234000   0.57108921   -8.8181522    560.47574   0.01103125 0.0097191399            7 
 4235000   0.57702036   -8.8269515    560.58342  0.011030764 0.0097156616            5 
 4236000   0.58288829   -8.8139182    560.00711  0.011016822 0.0097121868            6 
 4237000   0.57914744   -8.8331416    558.59045  0.010986359 0.0097087127            4 
 4238000   0.56436959   -8.8051087    559.84577  0.011008451 0.0097052358            4 
 4239000   0.58184058   -8.8223573    559.26152  0.010994368 0.0097017632            2 
 4240000   0.57076188   -8.8089815    558.58851  0.010978548 0.0096982923            4 
 4241000   0.57222083    -8.830056    559.55819  0.010995013 0.0096948228            7 
 4242000   0.55148414   -8.8120677    560.02122  0.011001517 0.0096913509            3 
 4243000   0.58041056   -8.8024849    559.94597  0.010997446  0.009687886            5 
 4244000   0.56767304   -8.8198503    560.52081  0.011006142 0.0096844227            5 
 4245000   0.56696649   -8.8084383    559.56631  0.010984812 0.0096809595            7 
 4246000   0.56725257   -8.8205385    559.73476  0.010985531 0.0096774962            6 
 4247000   0.56733736   -8.8141814     559.5992  0.010980284 0.0096740341            8 
 4248000   0.56691606   -8.8241021    559.28127  0.010971462 0.0096705734            5 
 4249000   0.57422865   -8.8146602    560.06644   0.01098428 0.0096671168            3 
 4250000   0.57130646   -8.8402085    560.30662  0.010986404 0.0096636609            4 
 4251000   0.55904493   -8.8178108    560.29983  0.010983687 0.0096602016            9 
 4252000   0.56922529   -8.8211646     559.7604  0.010970532 0.0096567451            6 
 4253000   0.58057736   -8.8308995     559.3367   0.01095965 0.0096532923            5 
 4254000   0.56788305   -8.8106743    559.15447  0.010953504 0.0096498431            2 
 4255000   0.56556117   -8.8219537    560.39959  0.010975315  0.009646393            2 
 4256000   0.57458665   -8.8372387    560.26635  0.010970127 0.0096429472            2 
 4257000   0.57798705   -8.8032726    559.75271  0.010957496 0.0096394995            3 
 4258000   0.56887802   -8.8157613    559.72514  0.010954383  0.009636054            3 
 4259000   0.57424266   -8.8118147    559.42362  0.010945911 0.0096326134            3 
 4260000   0.56821005   -8.8103647    560.20126  0.010958554 0.0096291698            4 
 4261000   0.55627063   -8.8193467     560.2173  0.010956296 0.0096257284            2 
 4262000   0.56283316   -8.8079081    559.85832  0.010946706 0.0096222894            3 
 4263000   0.56352691   -8.8345127    560.03066  0.010947507 0.0096188546            3 
 4264000   0.56807829   -8.8231256    558.98679  0.010924539 0.0096154198            3 
 4265000   0.54554804   -8.8077732    559.50168  0.010932037 0.0096119873            2 
 4266000   0.56958933    -8.810897    559.61919   0.01093177 0.0096085523            3 
 4267000   0.57200031   -8.8027698    560.28276  0.010942168 0.0096051194            3 
 4268000   0.56834484   -8.8059812    559.78299  0.010929846 0.0096016894            5 
 4269000     0.570428   -8.8081165    559.23515  0.010916591 0.0095982576            3 
 4270000    0.5642772   -8.8127764    560.56481  0.010939985 0.0095948293            3 
 4271000   0.57249458   -8.8136173    560.37267  0.010933674 0.0095914035            7 
 4272000   0.56518213   -8.8195137    559.73959  0.010918765 0.0095879763            6 
 4273000   0.57127021    -8.819704    559.52116   0.01091195 0.0095845548            4 
 4274000   0.56280241   -8.8357705    559.18798  0.010902901 0.0095811315            5 
 4275000   0.57480112   -8.8332732    559.18398  0.010900273 0.0095777081            7 
 4276000    0.5632733   -8.8338612    558.95006  0.010893165 0.0095742868            2 
 4277000   0.57337206   -8.8263357    559.88622  0.010908858 0.0095708662            4 
 4278000   0.56606131    -8.828699    559.90113  0.010906598 0.0095674516            6 
 4279000   0.58204753   -8.8134227    559.37809  0.010893863 0.0095640372            7 
 4280000   0.56428085   -8.8125428    559.32938  0.010890369  0.009560625            6 
 4281000   0.56231427    -8.835025    559.54922  0.010892105  0.009557215            4 
 4282000   0.57347488   -8.8399775     560.1849  0.010901933 0.0095538044            2 
 4283000    0.5645169   -8.8363912    559.68901  0.010889739 0.0095503926            3 
 4284000   0.56493736   -8.8125181    559.46849  0.010882907 0.0095469823            4 
 4285000   0.56826734   -8.8347389    559.43596  0.010879735 0.0095435736            3 
 4286000   0.56387765   -8.8265619     559.3751  0.010876013 0.0095401633            8 
 4287000   0.55732014   -8.8394346    560.53255  0.010895975 0.0095367578            5 
 4288000   0.57888844   -8.8337448    559.95495  0.010882209 0.0095333571            4 
 4289000   0.57119431   -8.8123363    560.00607  0.010880665 0.0095299521            6 
 4290000   0.57290177   -8.8317577    558.56275  0.010850092 0.0095265517            5 
 4291000   0.56646978   -8.8308313    558.99457   0.01085595 0.0095231512            2 
 4292000   0.54887325   -8.8346544    559.30028  0.010859356 0.0095197523            4 
 4293000   0.57131106    -8.820084    559.31442  0.010857101 0.0095163586            5 
 4294000    0.5734462   -8.8425702    559.70473  0.010862147 0.0095129607            2 
 4295000   0.55776917   -8.8234117    558.95562  0.010845084  0.009509559            2 
 4296000   0.56335233   -8.8227298    558.72042  0.010837997 0.0095061646            4 
 4297000   0.56664865   -8.8462712    560.78164  0.010875449 0.0095027699            7 
 4298000   0.56598249   -8.8171353    559.00979  0.010838564 0.0094993757            5 
 4299000    0.5765187   -8.8192833    559.14479   0.01083866 0.0094959844            7 
 4300000   0.57582172   -8.8441894    559.08906  0.010835059 0.0094925947            6 
 4301000   0.57023903   -8.8178964    559.23728  0.010835412 0.0094892062            6 
 4302000   0.56810621   -8.8205282    559.30448  0.010834195 0.0094858222            3 
 4303000   0.57250177   -8.8323227    558.43919   0.01081492 0.0094824376            7 
 4304000   0.56260148   -8.8244352    559.46677  0.010832303 0.0094790565            7 
 4305000   0.56727667   -8.8337738    559.47154  0.010829879 0.0094756747            3 
 4306000   0.56827548   -8.8416599    559.11734  0.010820509 0.0094722951            5 
 4307000   0.55974118   -8.8312893    558.27256  0.010801651 0.0094689154            4 
 4308000   0.54402433    -8.847455    559.01849  0.010813573 0.0094655392            9 
 4309000    0.5756641   -8.8183491    559.83531  0.010826861 0.0094621634            6 
 4310000   0.55530418   -8.8466677    558.69898  0.010802378 0.0094587904            7 
 4311000   0.55900715   -8.8421868    558.27209   0.01079162 0.0094554165            4 
 4312000   0.55804407   -8.8232846    560.08015   0.01082406 0.0094520457            3 
 4313000   0.56266414    -8.849142    559.97179  0.010819457  0.009448675            5 
 4314000    0.5628463   -8.8475705    558.29798  0.010784616 0.0094453026            2 
 4315000   0.57703753   -8.8468935    559.39436   0.01080329 0.0094419314            5 
 4316000    0.5644294   -8.8361347    559.08473  0.010794809 0.0094385633            5 
 4317000   0.55512482   -8.8399613    559.33115  0.010797065 0.0094351979            9 
 4318000   0.55674144   -8.8515221    558.31551  0.010774964 0.0094318324            4 
 4319000    0.5546088   -8.8502107    558.33697  0.010772883  0.009428471            5 
 4320000   0.56774549   -8.8596167    558.81193  0.010779551 0.0094251082            3 
 4321000   0.56277153   -8.8206352    559.70275  0.010794236 0.0094217506            5 
 4322000   0.55237741   -8.8553107    558.89495  0.010776164  0.009418394            7 
 4323000   0.56501538    -8.847469    559.46012  0.010784565 0.0094150375            4 
 4324000   0.55619473   -8.8588569    559.58589  0.010784495 0.0094116834            2 
 4325000   0.55114452   -8.8516965    559.22818  0.010775109 0.0094083324            6 
 4326000   0.55723956   -8.8380404    559.26493  0.010773327 0.0094049818            5 
 4327000    0.5495688   -8.8465379    559.67501  0.010778735 0.0094016373            4 
 4328000   0.55455527    -8.848115    559.57685  0.010774354  0.009398292            1 
 4329000   0.56177553   -8.8329471    559.34455  0.010767393 0.0093949454            2 
 4330000   0.56349229    -8.846646     558.3514  0.010745793 0.0093915983            6 
 4331000   0.56021349   -8.8337744    559.40255  0.010763537 0.0093882562            3 
 4332000   0.54695038   -8.8353901    559.32419  0.010759545 0.0093849173            3 
 4333000   0.56213315   -8.8381083    558.68573  0.010744783  0.009381581            3 
 4334000   0.55409394   -8.8194843    560.11724  0.010769828 0.0093782459            3 
 4335000   0.55400777   -8.8373712     559.2548  0.010750765 0.0093749129            3 
 4336000   0.54554852   -8.8325162    560.31064  0.010768578 0.0093715787            8 
 4337000   0.55472351   -8.8536361    558.43066  0.010729972 0.0093682467            6 
 4338000    0.5532126    -8.830182    559.24899  0.010743219 0.0093649129            4 
 4339000   0.54697383   -8.8443129    558.57364  0.010727772 0.0093615838            4 
 4340000   0.54983474   -8.8530954    559.35541  0.010740311 0.0093582547            3 
 4341000   0.55865691   -8.8441395    558.12943  0.010714302 0.0093549259            6 
 4342000   0.54434937   -8.8400411    558.09618  0.010711196 0.0093515982            4 
 4343000   0.55704502   -8.8172996    558.44549  0.010715433 0.0093482731            7 
 4344000   0.55625997   -8.8378866    559.17943  0.010727045 0.0093449503            5 
 4345000   0.56039148   -8.8443815    559.18568  0.010724697 0.0093416314            6 
 4346000   0.55830667   -8.8369739     559.3249  0.010724898 0.0093383113            5 
 4347000   0.55911387   -8.8313803    559.59553  0.010727619 0.0093349942            2 
 4348000   0.55294582   -8.8691227    558.56143  0.010705332 0.0093316787            6 
 4349000   0.55230981   -8.8555773    560.46955  0.010739433 0.0093283638            4 
 4350000   0.55921073   -8.8558886    560.08925  0.010729679  0.009325052            5 
 4351000   0.55226699   -8.8621843    558.52533   0.01069726 0.0093217361            3 
 4352000   0.55770826   -8.8253547    558.64377   0.01069707 0.0093184252            5 
 4353000   0.55493519   -8.8440073    559.61688  0.010713241 0.0093151175            5 
 4354000   0.55635929   -8.8549679    559.57038  0.010709891 0.0093118065            5 
 4355000   0.55108293   -8.8405291    559.28149  0.010701904 0.0093084997            5 
 4356000   0.55643736   -8.8386307    558.90506  0.010692246  0.009305189            2 
 4357000    0.5580354   -8.8451183    558.51109  0.010682256 0.0093018894            5 
 4358000    0.5504016   -8.8512069    559.28877  0.010694676 0.0092985838            5 
 4359000   0.54810227   -8.8512018     558.7839   0.01068257 0.0092952786            6 
 4360000   0.55196833   -8.8498315    558.25469  0.010670006 0.0092919759            4 
 4361000   0.54058678   -8.8587836    559.62432  0.010693731 0.0092886752            3 
 4362000   0.54615719   -8.8666331     559.3326  0.010685706 0.0092853768            6 
 4363000   0.55634177   -8.8510084    559.60567  0.010688473 0.0092820806            3 
 4364000   0.55266255   -8.8581151    558.87283  0.010672029 0.0092787854            2 
 4365000   0.54872976   -8.8626876    558.23048  0.010657321 0.0092754872            4 
 4366000   0.55605119   -8.8456101    560.40766  0.010696436 0.0092721952            2 
 4367000   0.56156352   -8.8630174    559.07915  0.010668635 0.0092689006            4 
 4368000   0.55539101   -8.8444071    558.89014  0.010662587  0.009265606            6 
 4369000   0.55007749    -8.848213    558.22857  0.010647527 0.0092623128            4 
 4370000   0.55798035   -8.8650485    558.45337  0.010649378 0.0092590255            4 
 4371000   0.55007389   -8.8474865    558.81085  0.010653757 0.0092557385            5 
 4372000   0.54851347   -8.8374995    558.91078  0.010653225 0.0092524523            4 
 4373000   0.55869381   -8.8464839    558.04577  0.010634305 0.0092491642            5 
 4374000   0.55124854   -8.8503663    558.36738  0.010638001  0.009245882            1 
 4375000   0.55723359   -8.8560836    558.98459  0.010647325 0.0092425987            6 
 4376000   0.55864127   -8.8540239    558.38227  0.010633422  0.009239318            6 
 4377000   0.55758609   -8.8573736     559.0728   0.01064414 0.0092360383            4 
 4378000   0.55603865    -8.850487    558.39178  0.010628746 0.0092327598            7 
 4379000    0.5559994   -8.8676324    558.43927  0.010627222 0.0092294846            8 
 4380000    0.5573921    -8.847777    558.98122  0.010635107 0.0092262094            3 
 4381000   0.55386272   -8.8581223    558.50575  0.010623635 0.0092229343            4 
 4382000   0.54010045   -8.8396824    559.78955  0.010645625 0.0092196576            1 
 4383000   0.54923014    -8.851235     558.5873  0.010620338  0.009216385            6 
 4384000   0.55412871   -8.8545338    559.09681  0.010627601  0.009213113            5 
 4385000   0.55817769   -8.8535669    558.85126  0.010620511 0.0092098471            6 
 4386000   0.56051644   -8.8480738    559.43089  0.010629102 0.0092065829            3 
 4387000   0.54067819   -8.8593347    558.08442  0.010601102 0.0092033174            4 
 4388000   0.55014914   -8.8446993    559.35805  0.010622874 0.0092000552            3 
 4389000    0.5428025   -8.8493262    558.03739  0.010595378 0.0091967947            2 
 4390000   0.54697249   -8.8482037    558.46999  0.010601177 0.0091935353            2 
 4391000   0.55049761    -8.854962    558.30988  0.010595724 0.0091902749            3 
 4392000   0.54734161   -8.8606878    558.87947  0.010604119 0.0091870221            6 
 4393000   0.54343625   -8.8644736    557.58117  0.010577077  0.009183763            5 
 4394000   0.55097729   -8.8704479    558.47003  0.010591527 0.0091805031            7 
 4395000    0.5526485   -8.8506379    558.39293  0.010587655 0.0091772503            2 
 4396000   0.54208316   -8.8626972    557.55285  0.010569322 0.0091739921            6 
 4397000   0.54938031   -8.8575063    558.79382  0.010590437 0.0091707407            4 
 4398000   0.53748869   -8.8403579    558.92658  0.010590545  0.009167491            3 
 4399000   0.54425351   -8.8549255     558.8758  0.010587175 0.0091642422            6 
 4400000   0.54889252    -8.872481    558.59411  0.010579434 0.0091609946            2 
 4401000   0.54573986   -8.8538979     558.2616  0.010570734 0.0091577477            4 
 4402000   0.54577325   -8.8666774    558.60104  0.010574758 0.0091544988            4 
 4403000   0.55328859   -8.8541007    558.23339  0.010565398 0.0091512528            5 
 4404000   0.55964067   -8.8568204    558.56369  0.010569249 0.0091480102            2 
 4405000   0.54505947   -8.8548202    558.49914  0.010565629 0.0091447679            4 
 4406000   0.55126067   -8.8814744    557.52886  0.010544879 0.0091415264            4 
 4407000   0.55211338   -8.8513443    557.68688  0.010545475 0.0091382872            5 
 4408000   0.54747054   -8.8564017     558.7263  0.010562733  0.009135047            4 
 4409000   0.54590375    -8.868845    558.23398  0.010551032 0.0091318087            4 
 4410000   0.54716571   -8.8632074    558.77563  0.010558874 0.0091285742            2 
 4411000   0.54011865   -8.8597698    558.97094   0.01056017 0.0091253437            2 
 4412000   0.55004009   -8.8638601    558.08737  0.010541088   0.00912211            3 
 4413000   0.53716801   -8.8663354    559.21087  0.010559915 0.0091188756            3 
 4414000   0.54088429   -8.8557449    559.23021  0.010557888 0.0091156456            3 
 4415000   0.55337833   -8.8530113    559.00695  0.010551283 0.0091124183            5 
 4416000   0.55052343    -8.870838    558.45672   0.01053851 0.0091091887            5 
 4417000   0.53457951   -8.8541304    557.63352  0.010520593  0.009105963            6 
 4418000   0.55898591   -8.8587403    557.97002  0.010524559 0.0091027378            4 
 4419000    0.5268669   -8.8534646    558.14204  0.010525421 0.0090995142            4 
 4420000   0.54808129    -8.866501    558.31325  0.010526268 0.0090962939            4 
 4421000   0.55269966   -8.8730239    558.68121  0.010530823 0.0090930748            7 
 4422000   0.53919508   -8.8620731    557.63484  0.010508722 0.0090898555            3 
 4423000   0.54374317   -8.8778358    558.82436  0.010528758 0.0090866372            3 
 4424000   0.54001226   -8.8684773    558.33664  0.010517191 0.0090834239            3 
 4425000   0.54143839    -8.863044    558.56602  0.010519134 0.0090802093            3 
 4426000   0.54136584   -8.8590906    558.36858   0.01051304 0.0090769955            5 
 4427000    0.5282111   -8.8614962    557.47433  0.010493832  0.009073782            4 
 4428000   0.54259424   -8.9019185    558.35816  0.010508096 0.0090705705            7 
 4429000   0.54587647   -8.8638952    557.36958  0.010487122 0.0090673571            5 
 4430000   0.55476567   -8.8775304    558.56539   0.01050725 0.0090641472            4 
 4431000    0.5599838   -8.8566644    558.73345  0.010508039 0.0090609404            5 
 4432000   0.53994385   -8.8743605    557.84177  0.010488902 0.0090577381            4 
 4433000   0.54423346   -8.8647503    557.71844  0.010484218 0.0090545332            6 
 4434000   0.54293148   -8.8650699    558.05891  0.010488252 0.0090513292            4 
 4435000   0.55607227   -8.8798559    557.76859  0.010480432 0.0090481284            5 
 4436000    0.5484674   -8.8632556    558.51958  0.010492177 0.0090449287            7 
 4437000   0.54777236   -8.8807566    558.12189  0.010482343 0.0090417297           10 
 4438000    0.5546844   -8.8918937     557.6078  0.010470328 0.0090385344            3 
 4439000   0.52561658   -8.8588171    558.13049  0.010477782 0.0090353402            2 
 4440000   0.54458586    -8.847585    557.74872  0.010468257  0.009032146            2 
 4441000   0.54527251   -8.8709487    558.18601  0.010474105 0.0090289536            6 
 4442000   0.53088815   -8.8737525    558.51923  0.010477998 0.0090257644            6 
 4443000   0.53538231   -8.8768658     557.8699  0.010463461 0.0090225748            3 
 4444000   0.53812424   -8.8727009    558.49347    0.0104728 0.0090193904            4 
 4445000    0.5330934   -8.8698025    558.32866  0.010467354  0.009016206            4 
 4446000   0.54543036   -8.8686934    558.09874   0.01046069 0.0090130214            5 
 4447000   0.55574569   -8.8795428    556.98476  0.010437463 0.0090098383            4 
 4448000   0.52905365   -8.8638997     558.2719  0.010459231 0.0090066555            6 
 4449000   0.54589435   -8.8746661    558.97653  0.010470078  0.009003473            4 
 4450000   0.54346108   -8.8905722    557.02621  0.010431202 0.0090002926            5 
 4451000    0.5420679   -8.8855305    557.21893  0.010432467 0.0089971148            3 
 4452000   0.54130066   -8.8632001     558.3627  0.010451533 0.0089939399            6 
 4453000    0.5503094    -8.897165    558.40213  0.010449924  0.008990766            2 
 4454000   0.53603371   -8.8825443    557.83874  0.010437037 0.0089875906            3 
 4455000   0.54920466   -8.8836138    558.33852  0.010444043 0.0089844214            3 
 4456000   0.55203427   -8.8793423    557.61409  0.010428151 0.0089812451            6 
 4457000   0.52915509   -8.8732284      558.517  0.010442693 0.0089780764            5 
 4458000   0.52898607   -8.8734281    558.22031  0.010434805 0.0089749079            4 
 4459000    0.5476589    -8.871659    556.87515  0.010407325 0.0089717419            8 
 4460000   0.53739183   -8.8896325    557.16012  0.010410316 0.0089685796            3 
 4461000   0.52949036   -8.8807925    558.43488  0.010431796 0.0089654112            9 
 4462000   0.53282229   -8.8709543    558.10308  0.010423261 0.0089622507            2 
 4463000   0.53327705   -8.8792852    557.08664  0.010401946 0.0089590853            3 
 4464000    0.5419246   -8.8926045     557.8196  0.010413299 0.0089559242            9 
 4465000   0.52874609   -8.8698721    558.38533  0.010421525 0.0089527638            3 
 4466000   0.52329919   -8.8783894    558.59123  0.010423034 0.0089496027            5 
 4467000    0.5380485   -8.8821907    557.27681   0.01039618  0.008946446            3 
 4468000   0.53564893   -8.8859803    557.72046  0.010402127 0.0089432905            4 
 4469000   0.54079817   -8.8631838     558.0181   0.01040535 0.0089401357            3 
 4470000   0.53989699   -8.8939143    557.84102  0.010399721 0.0089369826            3 
 4471000   0.53847556   -8.8812379     557.5102  0.010391229 0.0089338306            6 
 4472000   0.55349967   -8.8893845    558.36008  0.010404742 0.0089306761            4 
 4473000   0.53577279    -8.871411    558.44428  0.010403985 0.0089275263            3 
 4474000    0.5370246   -8.8833856    558.16778  0.010396509 0.0089243752            2 
 4475000    0.5397552   -8.8836327    557.53277  0.010382361 0.0089212277            7 
 4476000    0.5414555   -8.9054602    558.03032  0.010389304 0.0089180815            3 
 4477000   0.52882999   -8.8978659    558.02871  0.010386954 0.0089149363            3 
 4478000   0.52908837   -8.8915412    557.08645  0.010367099 0.0089117931            4 
 4479000   0.55034954   -8.8666706    557.44734  0.010371499 0.0089086542            2 
 4480000   0.53400775   -8.8858719    558.48068  0.010388406 0.0089055179            5 
 4481000   0.52528678   -8.8808116    557.75609  0.010372612 0.0089023836            6 
 4482000   0.54222897   -8.8854783    557.72953  0.010369804 0.0088992498            4 
 4483000   0.52446979   -8.8829833      557.941  0.010371422 0.0088961175            4 
 4484000   0.52662813   -8.8795502    557.39645  0.010358988 0.0088929852            3 
 4485000   0.53481412   -8.8777055    557.71651  0.010362626 0.0088898569            6 
 4486000   0.53895654   -8.8972151    558.80007  0.010380444 0.0088867243            4 
 4487000   0.52561414   -8.8890015    558.07699  0.010364702 0.0088835976            5 
 4488000   0.53144179   -8.8826737    557.90299  0.010359161 0.0088804735            4 
 4489000   0.52982055   -8.8868871    558.00844  0.010358811 0.0088773469            1 
 4490000   0.52110927   -8.8717359    557.55652  0.010348117 0.0088742207            6 
 4491000   0.53615871    -8.873713    558.71047  0.010367225 0.0088710967            3 
 4492000   0.54893496   -8.8815016    557.73377  0.010346797 0.0088679752            4 
 4493000   0.52645644   -8.8921184    557.87433  0.010347102 0.0088648545            3 
 4494000   0.51072805   -8.8934345    557.86343  0.010344597 0.0088617358            3 
 4495000   0.52899127    -8.894436    558.65371  0.010356947 0.0088586175            6 
 4496000   0.53456685   -8.8998028    558.21017  0.010346422 0.0088555045            5 
 4497000   0.53948536   -8.8852419    557.88137  0.010338029 0.0088523908            3 
 4498000   0.52454108   -8.8821547    558.34327  0.010344288 0.0088492755            2 
 4499000   0.53899451   -8.8770632     557.2442  0.010321631 0.0088461624            4 
 4500000   0.53198324   -8.8920678    557.92634  0.010331969  0.008843052            2 
 4501000    0.5325161   -8.8883435    557.03307  0.010313135 0.0088399413            5 
 4502000   0.53303906   -8.8945944    557.89666   0.01032683 0.0088368353            4 
 4503000   0.52536001   -8.8797763    558.09417  0.010328192 0.0088337298            5 
 4504000   0.53863603   -8.8901034    557.02982  0.010306206 0.0088306254            3 
 4505000   0.53268308   -8.8903557    557.60739  0.010314602 0.0088275217            2 
 4506000   0.53430771   -8.8830478    557.44592  0.010309327 0.0088244229            5 
 4507000   0.52690928   -8.8916349    556.99545   0.01029871 0.0088213238            6 
 4508000   0.53521511   -8.8746058    558.09924   0.01031683 0.0088182287            3 
 4509000    0.5222306   -8.9060893    557.10217  0.010296115   0.00881513            3 
 4510000   0.52195867   -8.9022779    557.87701  0.010308149 0.0088120343            5 
 4511000    0.5357149   -8.8774996    557.10813   0.01029166 0.0088089371            2 
 4512000   0.53018879   -8.8817199     558.2676  0.010310793 0.0088058439            3 
 4513000   0.52177826   -8.8978417    557.17601  0.010288352 0.0088027493            2 
 4514000   0.53565374   -8.9059102    557.06177  0.010283964 0.0087996577            3 
 4515000   0.52241075   -8.8850007    557.38985  0.010287742  0.008796569            6 
 4516000   0.53414092   -8.9022955    558.30644  0.010302377 0.0087934786            5 
 4517000   0.53238335   -8.8903493    557.03288  0.010276601 0.0087903919            6 
 4518000   0.54384127   -8.8887626    557.13921  0.010276288 0.0087873052            3 
 4519000   0.52382683    -8.880472    557.52081  0.010281051 0.0087842202            4 
 4520000   0.52457353   -8.8918559    558.49181  0.010296678 0.0087811346            3 
 4521000   0.52180368   -8.8905821    557.51165  0.010276334 0.0087780511            7 
 4522000    0.5268301    -8.880988    559.17875  0.010304783 0.0087749685            4 
 4523000   0.53144884    -8.884712    557.38201  0.010269401  0.008771889            8 
 4524000    0.5408339   -8.8917868    557.04249  0.010260877 0.0087688111            5 
 4525000   0.53759553   -8.8824577    557.77002  0.010272008 0.0087657324            2 
 4526000   0.53905408   -8.9045886    557.87543  0.010271679 0.0087626563            5 
 4527000    0.5245299   -8.8959019    557.26632  0.010258197 0.0087595833            3 
 4528000   0.52638219   -8.8968667    557.49808  0.010260197 0.0087565096            5 
 4529000    0.5212592    -8.912142    557.69903  0.010261629 0.0087534368            6 
 4530000   0.51867815   -8.8926892    557.36727  0.010253261 0.0087503666            2 
 4531000   0.52075611   -8.8852248    556.94845  0.010243295 0.0087472961            2 
 4532000   0.52989788   -8.8953099    558.06123  0.010261497 0.0087442275            4 
 4533000   0.52792924   -8.9141556    558.46898  0.010266729  0.008741161            6 
 4534000   0.52863241   -8.9018737    556.92435  0.010236075 0.0087380978            2 
 4535000   0.52055115   -8.9083588    557.89975  0.010251741 0.0087350335            9 
 4536000   0.52947037   -8.8902537    557.98651  0.010251075 0.0087319717            6 
 4537000   0.52783845   -8.9126781    557.42883  0.010238572 0.0087289091            6 
 4538000   0.52757845   -8.8767165    557.34583  0.010234792 0.0087258476            2 
 4539000   0.52639751   -8.8867872    557.30957  0.010231871 0.0087227878            7 
 4540000   0.52699103   -8.9013088    557.23382  0.010228227 0.0087197311            2 
 4541000   0.53065719   -8.9102126    558.12003  0.010242238 0.0087166728            3 
 4542000   0.52902101   -8.8749208    557.50992  0.010228789 0.0087136169            4 
 4543000   0.52526983   -8.8984853    557.43923  0.010225241 0.0087105617            4 
 4544000   0.51981916   -8.9120348    557.63157  0.010226518 0.0087075087            3 
 4545000   0.51200879   -8.9131807    557.44052  0.010220765 0.0087044564            2 
 4546000   0.52154588   -8.8802106     556.9051  0.010208702 0.0087014024            5 
 4547000   0.52832522   -8.9167796    556.54704  0.010199894 0.0086983522            5 
 4548000   0.51221149   -8.8984283    557.25593  0.010210641  0.008695303            2 
 4549000   0.51977486   -8.9097506    556.99816  0.010203674  0.008692255            4 
 4550000   0.51855375   -8.8972349    557.61634  0.010212754 0.0086892096            3 
 4551000   0.51902531   -8.8829665    557.04904  0.010200122 0.0086861636            7 
 4552000   0.52144665   -8.8937446    557.46308  0.010205461 0.0086831235            4 
 4553000   0.51914659   -8.9051519     557.2967  0.010200174 0.0086800808            8 
 4554000   0.52132874   -8.9106289    557.68651  0.010205067 0.0086770419            8 
 4555000   0.53272407   -8.9051647    556.50034  0.010181126 0.0086740033            5 
 4556000    0.5320735   -8.8999694    557.82192  0.010203064 0.0086709683            4 
 4557000   0.54439469   -8.8994106    557.71029  0.010198784  0.008667933            7 
 4558000   0.52479029   -8.9084107    557.62056  0.010194906 0.0086648998            9 
 4559000   0.52549551   -8.8957427    557.40883  0.010188799 0.0086618652            3 
 4560000   0.53223021   -8.8960427    557.21314  0.010182989 0.0086588324            4 
 4561000   0.51890338   -8.9095046    557.87242  0.010192802 0.0086558023            2 
 4562000   0.52550517   -8.9027889    557.16047  0.010177562 0.0086527747            3 
 4563000   0.52146376   -8.9063527    557.55651  0.010182565  0.008649745            4 
 4564000   0.51648133   -8.8951862    557.27475  0.010175189  0.008646717            7 
 4565000   0.52873347   -8.9059985     556.7593  0.010163551 0.0086436939            6 
 4566000   0.52579879   -8.9018726    556.58884  0.010158214 0.0086406687            6 
 4567000   0.52803534   -8.9048155    556.40876  0.010152703 0.0086376424            3 
 4568000   0.52991998   -8.9046249    557.14994  0.010164002 0.0086346209            3 
 4569000   0.53025767   -8.9006538    557.55479  0.010169161 0.0086315987            7 
 4570000   0.52608984   -8.9202441    558.10384  0.010176948 0.0086285807            5 
 4571000    0.5196282   -8.9110305    557.07472   0.01015596  0.008625561            7 
 4572000   0.52675448   -8.9137324    556.84293  0.010149514 0.0086225437            5 
 4573000   0.53058507   -8.8901358    557.28939   0.01015543 0.0086195274            4 
 4574000   0.51835148   -8.9012804    556.72691  0.010142962  0.008616515            3 
 4575000   0.52520505   -8.9058009    557.36316  0.010152334 0.0086135007            2 
 4576000   0.52118064   -8.9157148    557.39159  0.010150634 0.0086104889            2 
 4577000    0.5147689   -8.9111133    557.01414  0.010141544 0.0086074775            6 
 4578000   0.51776719   -8.9082121    557.73481  0.010152447 0.0086044684            3 
 4579000   0.52110342   -8.9096417    558.61239  0.010166201 0.0086014642            4 
 4580000    0.5292652   -8.8985857    557.54086  0.010144484  0.008598458            3 
 4581000   0.51866652   -8.9264123    557.29638  0.010137822 0.0085954508            7 
 4582000    0.5216105   -8.9286213    556.93848  0.010129101 0.0085924487            7 
 4583000   0.52550955   -8.9250715     557.2665  0.010132855 0.0085894467            3 
 4584000   0.51299684   -8.9086685    556.59605  0.010118456  0.008586446            8 
 4585000   0.52078878   -8.9131273     557.1628   0.01012655 0.0085834476            6 
 4586000   0.51435462   -8.9133729    557.56242  0.010131604  0.008580449            4 
 4587000   0.50676164   -8.9255824    557.62399  0.010130514 0.0085774526            4 
 4588000   0.52004816   -8.9335958    557.01779  0.010117295 0.0085744555            8 
 4589000   0.52164416   -8.8967668    557.47559  0.010123404 0.0085714655            2 
 4590000    0.5187112   -8.9092369     557.1157  0.010114664 0.0085684721            6 
 4591000    0.5102083   -8.8990361    556.78909  0.010106532 0.0085654795            6 
 4592000   0.51511671    -8.928737    556.95131  0.010107275 0.0085624889            3 
 4593000   0.52111176   -8.9083686    556.81131  0.010102535 0.0085594977            3 
 4594000   0.52177344   -8.9216883    557.26625  0.010108588 0.0085565099            4 
 4595000   0.51482078    -8.907216    556.62556  0.010094769 0.0085535244            6 
 4596000   0.51782618    -8.925234     557.3625  0.010105934 0.0085505397            6 
 4597000   0.52195289   -8.9100309    557.32651  0.010103084 0.0085475549            7 
 4598000   0.51481613   -8.9024617    557.03516  0.010095606 0.0085445723            5 
 4599000   0.52523057   -8.9136075    557.21307  0.010096635 0.0085415899            6 
 4600000   0.52542306    -8.925612    556.75044  0.010086059 0.0085386106            5 
 4601000   0.51535264   -8.9148958    557.93348  0.010105294 0.0085356336            4 
 4602000   0.51994703   -8.9277012    556.62858  0.010079469 0.0085326604            4 
 4603000   0.50926352   -8.9088078    557.55904  0.010094124 0.0085296803            6 
 4604000    0.5173939   -8.9319064    557.58581  0.010092416 0.0085267061            6 
 4605000   0.51801313   -8.9066065    557.15746  0.010082473 0.0085237299            3 
 4606000   0.51888401   -8.9169343    556.82616   0.01007429 0.0085207556            3 
 4607000   0.52174444   -8.9206396    556.31443  0.010062847 0.0085177823            8 
 4608000   0.50952027   -8.9114816    556.91111  0.010071454 0.0085148122            3 
 4609000   0.51398861   -8.9233986    556.69311  0.010065327 0.0085118427            5 
 4610000   0.50224378   -8.9268397    557.06675  0.010069898 0.0085088756            3 
 4611000   0.51368375   -8.9127664    556.46787  0.010056891 0.0085059072            3 
 4612000   0.52070815   -8.9003527    557.10493  0.010066221 0.0085029421            4 
 4613000   0.51200438   -8.9155022    557.16612  0.010065144 0.0084999818            6 
 4614000   0.51897956   -8.9160718    556.77386  0.010055878 0.0084970187            7 
 4615000   0.51365565    -8.928246    557.12038  0.010059956 0.0084940577            4 
 4616000   0.51847741   -8.9316788    557.53061  0.010065183  0.008491097            5 
 4617000   0.51181181   -8.9105123    556.74495  0.010048822 0.0084881414            8 
 4618000   0.51417363   -8.9191088    557.25386   0.01005583 0.0084851881            5 
 4619000   0.50488124   -8.9214127    556.47526  0.010039606 0.0084822334            3 
 4620000   0.51444688   -8.9328378    556.96029  0.010046181 0.0084792775            4 
 4621000   0.51843296   -8.9277321    556.54647  0.010036545 0.0084763255            4 
 4622000   0.52125918   -8.9028245    556.13729  0.010026996  0.008473375            3 
 4623000   0.50518053   -8.9084459    556.35724  0.010028792 0.0084704249            4 
 4624000   0.50699975   -8.9012771    556.92714  0.010036893  0.008467475            4 
 4625000   0.51229279   -8.9339328    556.35597  0.010024432 0.0084645252            5 
 4626000   0.52472762    -8.916569    556.74728  0.010029314 0.0084615777            7 
 4627000   0.49716563   -8.9196331    557.11345  0.010033741  0.008458631            3 
 4628000   0.50806535   -8.9218117    557.00951  0.010029702 0.0084556855            3 
 4629000   0.51089818   -8.9324458    556.09189  0.010011016 0.0084527427            3 
 4630000   0.50596774   -8.9040342    556.83014  0.010022141 0.0084498002            2 
 4631000   0.51424519   -8.9197753    556.38576   0.01001198 0.0084468618            4 
 4632000    0.5040731   -8.9243855    556.72438  0.010015911 0.0084439241            2 
 4633000   0.51158249   -8.9186625    555.89688 0.0099988647 0.0084409881            5 
 4634000   0.51416198   -8.9202778    556.48834  0.010007343   0.00843805            2 
 4635000   0.50146219   -8.9248218    557.31218  0.010019996 0.0084351158            5 
 4636000   0.51024999   -8.9119015    555.86587 0.0099918369 0.0084321815            3 
 4637000   0.51208118   -8.9143129    557.56099  0.010020146 0.0084292513            6 
 4638000   0.51444959   -8.9213328    557.00948  0.010008076 0.0084263227            3 
 4639000   0.51336284   -8.9175005    556.85937  0.010003222 0.0084233941            3 
 4640000   0.51111185    -8.921482    556.90959  0.010001968 0.0084204653            7 
 4641000   0.51842563   -8.9217004    556.74999 0.0099969473 0.0084175378            3 
 4642000   0.50899516   -8.9329229    557.68045  0.010011497 0.0084146136            4 
 4643000   0.50765844   -8.9138055    557.21685   0.01000102 0.0084116881            3 
 4644000   0.51743767   -8.9248803     556.2863 0.0099821688 0.0084087653            7 
 4645000   0.52003406   -8.9297997    556.23984 0.0099791863 0.0084058421            5 
 4646000   0.50856695   -8.9308027    555.75189 0.0099682862 0.0084029183            6 
 4647000   0.50943505   -8.9417006    556.26772 0.0099753913 0.0083999971            2 
 4648000   0.50992485   -8.9267782    556.69532 0.0099809114 0.0083970793            4 
 4649000   0.49704972    -8.938987     557.5898 0.0099947982 0.0083941611            4 
 4650000   0.50386303   -8.9286925    556.85781 0.0099795306 0.0083912427            2 
 4651000   0.50557256   -8.9197281    556.10682 0.0099639293 0.0083883287            3 
 4652000   0.50560599    -8.937554    557.02075 0.0099781591 0.0083854177            4 
 4653000   0.51188494   -8.9143288    556.70611 0.0099703795 0.0083825059            5 
 4654000   0.51642994   -8.9363115    557.20439 0.0099771593 0.0083795946            4 
 4655000   0.50615115    -8.931109    556.85975 0.0099688462  0.008376685            2 
 4656000   0.50710892   -8.9318625    555.54474  0.009943169 0.0083737749            4 
 4657000   0.50077818   -8.9427207    556.78715 0.0099632659 0.0083708686            8 
 4658000   0.50969359   -8.9194533    556.58895 0.0099575811  0.008367963            3 
 4659000   0.50178237   -8.9301291    556.23338 0.0099490839 0.0083650578            3 
 4660000   0.50307905   -8.9228774    556.32041 0.0099485052 0.0083621542            2 
 4661000   0.49744452   -8.9192317    557.24401 0.0099628836  0.008359253            2 
 4662000   0.50759224   -8.9229287    556.97689 0.0099559719 0.0083563515            4 
 4663000   0.51705611   -8.9273259     556.2214 0.0099403353 0.0083534499            3 
 4664000   0.51118705   -8.9379202    556.93858 0.0099510181 0.0083505495            6 
 4665000   0.49428824   -8.9428792    556.60486 0.0099429236   0.00834765            4 
 4666000   0.50721401   -8.9201339    556.36317 0.0099364762 0.0083447518            4 
 4667000   0.50267081   -8.9432409     556.8375 0.0099428165 0.0083418546            5 
 4668000   0.50772254   -8.9310348    556.65946 0.0099375082 0.0083389605            4 
 4669000   0.51163093   -8.9333533    556.10349 0.0099254567 0.0083360647            5 
 4670000    0.5134491   -8.9397096    556.12421 0.0099237011 0.0083331735            9 
 4671000   0.49683178   -8.9382815    557.32683  0.009943032 0.0083302829            5 
 4672000   0.49457408   -8.9350983    557.19812 0.0099386081 0.0083273937            3 
 4673000   0.50046636   -8.9405537     556.8897 0.0099309812 0.0083245064            4 
 4674000   0.50401705   -8.9371072    556.93666 0.0099296936 0.0083216212            7 
 4675000   0.50036697    -8.933409     556.0917 0.0099125081 0.0083187365            4 
 4676000   0.51070147   -8.9255502    556.56694 0.0099188577 0.0083158527            4 
 4677000   0.50662924   -8.9294499    556.00246 0.0099066791 0.0083129703            7 
 4678000   0.50468249   -8.9553337    557.00807 0.0099224752 0.0083100883            3 
 4679000   0.50058909   -8.9354711    556.39474 0.0099094312 0.0083072075            4 
 4680000   0.50804121    -8.935499    556.80287 0.0099145811 0.0083043276            4 
 4681000   0.49375624   -8.9253181    556.79076 0.0099122473 0.0083014477            4 
 4682000   0.50092879   -8.9435628    556.42519 0.0099036236 0.0082985705            2 
 4683000   0.48409619   -8.9376127    556.25474 0.0098984758 0.0082956927            6 
 4684000   0.49859655   -8.9339896    556.81708 0.0099063671 0.0082928166            6 
 4685000   0.50484482   -8.9290623    556.44493  0.009897633 0.0082899411            4 
 4686000   0.50187471   -8.9227607    555.78685 0.0098838179 0.0082870681            6 
 4687000   0.50323703   -8.9271517    556.70211 0.0098979821  0.008284199            6 
 4688000   0.50471461   -8.9322423    555.13579 0.0098680281 0.0082813268            5 
 4689000   0.50322924   -8.9367596    555.61627 0.0098744628 0.0082784566            1 
 4690000   0.49844844   -8.9504582    555.80474 0.0098757062 0.0082755859            5 
 4691000   0.49469225   -8.9523528    556.28239 0.0098820862  0.008272716            3 
 4692000   0.49402441    -8.939521    557.34473 0.0098988478 0.0082698495            3 
 4693000   0.50029914   -8.9290829    556.99882 0.0098905962 0.0082669851            2 
 4694000     0.499764   -8.9371481    557.01129 0.0098887106 0.0082641225            5 
 4695000   0.50526932   -8.9463287    556.85334 0.0098838008 0.0082612612            6 
 4696000   0.49978036   -8.9391965    556.24212 0.0098708496 0.0082584002            2 
 4697000   0.50287496   -8.9427292    556.51177 0.0098735323 0.0082555377            6 
 4698000   0.51117856   -8.9517081    556.29187   0.00986753 0.0082526781            3 
 4699000   0.51269821   -8.9515339    555.96764 0.0098596801 0.0082498209            3 
 4700000   0.49450139   -8.9418512    556.05914 0.0098592046  0.008246966            8 
 4701000   0.50315129    -8.942631    555.93466 0.0098549007 0.0082441123            2 
 4702000   0.49886391    -8.942548    555.90705 0.0098523156 0.0082412557            5 
 4703000   0.49648127   -8.9281449    556.67511   0.00986383 0.0082384028            3 
 4704000   0.49336533   -8.9401927    556.05541 0.0098507548 0.0082355515            6 
 4705000   0.49980683   -8.9427205    556.12841 0.0098499542    0.0082327            2 
 4706000   0.50041838   -8.9494616    555.47208 0.0098362389 0.0082298506            2 
 4707000   0.51148895    -8.961806    555.76161 0.0098392751 0.0082270045            1 
 4708000   0.50446643   -8.9419931    556.34956  0.009847592  0.008224158            5 
 4709000   0.50429824   -8.9511876    555.84774 0.0098366204 0.0082213122            2 
 4710000   0.50305814    -8.937778    556.72043 0.0098499721 0.0082184671            8 
 4711000    0.5011039   -8.9369198    556.60731 0.0098458804 0.0082156262            4 
 4712000   0.49623644   -8.9442313    555.82499 0.0098299553 0.0082127862            7 
 4713000   0.49339934   -8.9373871    556.54744 0.0098406435 0.0082099466            2 
 4714000   0.48513994   -8.9415496    556.41774 0.0098362633 0.0082071089            6 
 4715000   0.48347775   -8.9623313    556.91445  0.009842956 0.0082042719            9 
 4716000   0.50746615   -8.9337366    556.03115 0.0098252606 0.0082014357            4 
 4717000   0.49410571   -8.9596458    555.65676 0.0098165636 0.0081986023            6 
 4718000   0.48861175   -8.9512646    556.50369  0.009829442 0.0081957668            4 
 4719000   0.48782457   -8.9365318    556.38386 0.0098252429  0.008192935            5 
 4720000   0.49994925   -8.9507318    556.44428  0.009824228 0.0081901027            6 
 4721000   0.49343625   -8.9515933    555.68519  0.009808748  0.008187274            5 
 4722000   0.50195456    -8.949182    556.15974 0.0098150456 0.0081844459            4 
 4723000   0.49683724   -8.9503912    555.71517 0.0098051233 0.0081816197            3 
 4724000   0.50623581   -8.9340061    555.82864 0.0098050493 0.0081787959            4 
 4725000   0.51281944   -8.9440928    555.68977  0.009800525 0.0081759711            8 
 4726000   0.49012599   -8.9559756    556.30429  0.009809287 0.0081731497            4 
 4727000   0.48957023   -8.9276602    555.78033 0.0097979749 0.0081703287            4 
 4728000   0.49592818   -8.9518711    555.81179 0.0097964572 0.0081675089            3 
 4729000   0.49678962   -8.9332799     556.2209 0.0098015948 0.0081646924            5 
 4730000   0.49517166   -8.9518433    556.00468 0.0097957131 0.0081618764            3 
 4731000    0.4904798   -8.9348675    555.83179 0.0097905972  0.008159061            4 
 4732000   0.49031226    -8.950613    556.10506 0.0097933407 0.0081562484            6 
 4733000   0.49702342   -8.9527419    555.45037 0.0097797446  0.008153433            6 
 4734000   0.49155428    -8.945627    556.33915  0.009793324 0.0081506209            8 
 4735000   0.47986225   -8.9650961    555.55296 0.0097774192  0.008147806            6 
 4736000   0.50639146   -8.9574626    556.02061 0.0097835833 0.0081449963            2 
 4737000   0.49281769   -8.9534558    555.99837 0.0097811267 0.0081421853            6 
 4738000   0.49715668   -8.9424592    556.17766 0.0097822157 0.0081393794            3 
 4739000   0.49203285   -8.9382165    555.83087 0.0097740535 0.0081365719            5 
 4740000   0.48785213   -8.9579063    556.07128 0.0097762179 0.0081337678            6 
 4741000   0.49490876   -8.9460653     556.0596 0.0097739506 0.0081309664            8 
 4742000   0.48803395   -8.9465844    555.33426 0.0097591428 0.0081281657            5 
 4743000   0.48152008   -8.9537115    556.00745 0.0097689129  0.008125364            3 
 4744000   0.48750355   -8.9461274    556.07266 0.0097679993 0.0081225653            6 
 4745000   0.49110801   -8.9616951    556.01731 0.0097649686 0.0081197668            5 
 4746000   0.48408882   -8.9458652    556.09869   0.00976434 0.0081169693            8 
 4747000   0.48933179   -8.9566132     555.7683 0.0097564831 0.0081141689            4 
 4748000   0.49048777   -8.9486604    555.79298 0.0097548614 0.0081113759            9 
 4749000   0.49124891   -8.9487195    556.31596 0.0097619842   0.00810858            4 
 4750000   0.49942743   -8.9669849    555.48569 0.0097453629 0.0081057878            4 
 4751000   0.49022527   -8.9536201     555.8909 0.0097504191 0.0081029938            5 
 4752000   0.49656208   -8.9561718    555.39324 0.0097396401 0.0081002031            6 
 4753000   0.49639368   -8.9537146    555.38153 0.0097373856 0.0080974124            8 
 4754000   0.49052749   -8.9583195    556.04757 0.0097470125 0.0080946234            2 
 4755000    0.4817558   -8.9525218    555.54385 0.0097361348 0.0080918346            9 
 4756000   0.48538014   -8.9348336    555.70021 0.0097368273 0.0080890489            2 
 4757000   0.49020444   -8.9521186    556.08545 0.0097415292 0.0080862629            8 
 4758000    0.4919264   -8.9359742    556.77371 0.0097515362  0.008083479            5 
 4759000   0.50650236   -8.9544135    555.99423 0.0097358379 0.0080806968            8 
 4760000   0.47220814   -8.9572074    556.43634 0.0097415326 0.0080779135            5 
 4761000   0.48674398   -8.9504087    555.92229 0.0097304888 0.0080751317            2 
 4762000   0.48218266   -8.9580345    554.96299  0.009711658 0.0080723516           13 
 4763000   0.48605338   -8.9600434    556.27486 0.0097325716 0.0080695754            3 
 4764000   0.49625324   -8.9423424       556.25 0.0097300938 0.0080668015            5 
 4765000   0.49708698   -8.9583714    555.91357  0.009722168 0.0080640262            9 
 4766000    0.4996384   -8.9566132    555.09321 0.0097057842 0.0080612543            3 
 4767000   0.48976065   -8.9624865    555.54606 0.0097116646 0.0080584813            6 
 4768000   0.49073732   -8.9372414    555.59382 0.0097104625 0.0080557084            4 
 4769000   0.49637671   -8.9600047    555.43554 0.0097056606 0.0080529407            4 
 4770000   0.48653341   -8.9483052    556.14655 0.0097160473 0.0080501722            4 
 4771000   0.50417136   -8.9704372    555.37316 0.0097005024 0.0080474034            2 
 4772000   0.49848857   -8.9730386    556.00514 0.0097095059 0.0080446384            7 
 4773000   0.49814195    -8.956748    555.31565 0.0096954334 0.0080418715            4 
 4774000   0.49053286   -8.9451651    555.80597 0.0097019615 0.0080391083            4 
 4775000   0.48668541   -8.9703296    555.81063 0.0097000109 0.0080363447            1 
 4776000    0.4856904   -8.9731831    555.44781 0.0096916494 0.0080335832            3 
 4777000    0.4772633   -8.9459585    556.06557 0.0097003971 0.0080308221            4 
 4778000   0.49681261    -8.959999    556.63107 0.0097082299 0.0080280634            3 
 4779000   0.49134196   -8.9597894    555.41568 0.0096850051 0.0080253076            2 
 4780000   0.48680628   -8.9637229    556.11686 0.0096952034  0.008022552            6 
 4781000   0.49062779   -8.9574044    555.84778 0.0096884852 0.0080197965            6 
 4782000   0.49933997   -8.9649154    555.36984 0.0096781305 0.0080170418            6 
 4783000   0.48681681   -8.9776699    555.43814 0.0096772971 0.0080142896            5 
 4784000   0.48857727   -8.9467693    554.62717 0.0096611478 0.0080115364            6 
 4785000   0.49566556   -8.9889843    555.37012 0.0096720675 0.0080087887            6 
 4786000   0.48656236   -8.9563939    556.03772 0.0096816709 0.0080060374            2 
 4787000   0.49155074   -8.9636259    555.24547 0.0096658567 0.0080032887            8 
 4788000   0.47684715   -8.9692528     555.9511 0.0096761191 0.0080005406            3 
 4789000   0.47962477   -8.9510595    555.45946 0.0096655435  0.007997792            4 
 4790000   0.47890541   -8.9568068    556.37352  0.009679428 0.0079950449            3 
 4791000    0.4881243   -8.9756917    554.88867 0.0096515806 0.0079922992            8 
 4792000   0.49357499   -8.9738315    554.47156  0.009642313 0.0079895534            4 
 4793000   0.48982537   -8.9643007    555.57454  0.009659478 0.0079868104            4 
 4794000   0.48862892   -8.9455553    555.07689 0.0096488126 0.0079840708            6 
 4795000   0.47729801   -8.9584918    555.54123 0.0096548702  0.007981332            4 
 4796000   0.48899755   -8.9611858    555.54481 0.0096529193 0.0079785926            5 
 4797000   0.48846002   -8.9600885    555.92164 0.0096574532 0.0079758554            5 
 4798000   0.48141388   -8.9826226    555.01033 0.0096396125 0.0079731154            8 
 4799000   0.49248842   -8.9673794    555.05729 0.0096384193 0.0079703789            4 
 4800000   0.48749589    -8.964785    554.79973 0.0096319397  0.007967646            5 
 4801000   0.48143227   -8.9556497    555.48793  0.009641879 0.0079649127            5 
 4802000   0.49111938   -8.9492052    555.43966 0.0096390334 0.0079621816            4 
 4803000   0.49231055   -8.9683595     554.5553 0.0096216826 0.0079594537            6 
 4804000   0.48388562   -8.9559677    555.43515 0.0096349421 0.0079567249            6 
 4805000   0.48252953   -8.9789348    555.51792 0.0096343726 0.0079539931            8 
 4806000   0.49741419   -8.9639535     555.6407 0.0096344968  0.007951267            6 
 4807000   0.49329391   -8.9429187    556.14054 0.0096411577 0.0079485452            6 
 4808000   0.48758707   -8.9660695    555.48385 0.0096277705 0.0079458227            2 
 4809000   0.47429146   -8.9792712     555.4336 0.0096248978 0.0079430991            7 
 4810000   0.48522948   -8.9668847    555.13818 0.0096177787 0.0079403782            4 
 4811000   0.47791651   -8.9718816    555.70494 0.0096255966  0.007937659            5 
 4812000   0.48408783   -8.9569053    555.64955  0.009622637 0.0079349397            4 
 4813000     0.470076   -8.9624121    555.55652 0.0096190269 0.0079322253            6 
 4814000   0.47510558   -8.9792674    555.94788 0.0096238035   0.00792951            2 
 4815000   0.47693774    -8.957049    555.42106 0.0096126871 0.0079267953            7 
 4816000   0.47853724   -8.9587445    555.39928 0.0096103142  0.007924081            3 
 4817000   0.48192589   -8.9706265    554.61887 0.0095948181 0.0079213692            7 
 4818000   0.48220378   -8.9734953    555.73801 0.0096121837 0.0079186579            3 
 4819000   0.47854634   -8.9630842    555.38211 0.0096040346 0.0079159451            4 
 4820000   0.47978147   -8.9524497    555.02005 0.0095957824 0.0079132366            4 
 4821000   0.46982336   -8.9640073    555.13153 0.0095957188 0.0079105284            6 
 4822000   0.48358403   -8.9672183    555.16252 0.0095942644 0.0079078215            2 
 4823000   0.48145181   -8.9672948    555.30211 0.0095946872 0.0079051191            6 
 4824000   0.47754277   -8.9792606    555.14317 0.0095899525 0.0079024165            4 
 4825000   0.47374873   -8.9704161    555.37103 0.0095919003 0.0078997145            6 
 4826000   0.48905272   -8.9519772    555.91732  0.009599346  0.007897013            3 
 4827000   0.47748932   -8.9732471    554.76044 0.0095773849 0.0078943136            7 
 4828000   0.48625569   -8.9748917    554.64211 0.0095733588 0.0078916152            5 
 4829000   0.48025489   -8.9649472    555.16173 0.0095803432 0.0078889165            2 
 4830000   0.47674033   -8.9690498    556.21637 0.0095965557 0.0078862183            8 
 4831000   0.47472149   -8.9783966    554.66886 0.0095678752  0.007883522            5 
 4832000   0.47964275   -8.9595704    554.62304 0.0095651049 0.0078808248            5 
 4833000   0.48070789   -8.9810547    556.08013 0.0095882496 0.0078781306            2 
 4834000   0.48364018   -8.9737336    556.01389 0.0095851243 0.0078754372            3 
 4835000   0.48253369   -8.9705481    556.28465 0.0095878086 0.0078727463            5 
 4836000   0.46743896    -8.965875     555.3146 0.0095691101 0.0078700567            5 
 4837000   0.47969745   -8.9702641    555.05214 0.0095626101 0.0078673672            2 
 4838000   0.47974152   -8.9892115    554.96471 0.0095591275 0.0078646793            4 
 4839000   0.47828743   -8.9622077    555.51478  0.009566625 0.0078619928            6 
 4840000   0.47097057   -8.9759434    555.18492  0.009558969 0.0078593073            7 
 4841000   0.48519522   -8.9826573    555.38793  0.009560489 0.0078566214            5 
 4842000   0.48011444    -8.972153    555.55293 0.0095613543 0.0078539352            6 
 4843000   0.47365057    -8.988009    555.77196 0.0095631488 0.0078512519            4 
 4844000   0.47607517   -8.9795218    555.09591 0.0095495442 0.0078485713            3 
 4845000   0.46635331   -8.9863324    554.40157 0.0095356307 0.0078458916            6 
 4846000   0.48333213   -8.9808428    554.76622 0.0095399337 0.0078432119            7 
 4847000   0.47578719    -8.977087    555.74055 0.0095547169 0.0078405323            4 
 4848000   0.47337056   -8.9765323    554.43789 0.0095303543 0.0078378534            6 
 4849000    0.4796759   -8.9763834     555.3632 0.0095442909  0.007835176            2 
 4850000   0.47369346   -8.9817835    555.47558  0.009544254 0.0078325023            5 
 4851000    0.4761531   -8.9887632     555.0137  0.009534352 0.0078298308            2 
 4852000   0.47575824   -8.9800759    554.58823 0.0095250795 0.0078271573            4 
 4853000   0.48471369   -8.9786912    555.55172 0.0095396614 0.0078244855            5 
 4854000     0.473279   -8.9914038    555.36503  0.009534491 0.0078218145            4 
 4855000    0.4770872   -8.9831851     555.3193 0.0095317421 0.0078191464            5 
 4856000   0.47473196   -8.9842393    554.63753 0.0095180796  0.007816478            5 
 4857000   0.47665506   -8.9679452    554.65141 0.0095163581  0.007813811            5 
 4858000   0.47631822   -8.9923384    555.12805 0.0095225753 0.0078111468            4 
 4859000   0.48252061   -8.9805368    554.67755 0.0095128893 0.0078084836            8 
 4860000   0.48786425   -8.9803895    555.10365 0.0095182381 0.0078058205            2 
 4861000   0.47148199   -8.9828031    555.71415 0.0095267461 0.0078031571            5 
 4862000   0.46293088   -8.9819367    555.07605 0.0095138498 0.0078004947            4 
 4863000   0.47457385   -8.9893432    554.34172 0.0094993098 0.0077978328            3 
 4864000   0.47172917   -8.9863976    555.57771 0.0095185326 0.0077951731            4 
 4865000   0.47738515   -8.9811021    555.59669 0.0095169012 0.0077925168            5 
 4866000   0.46747086   -8.9829292    554.96641 0.0095041515 0.0077898607            2 
 4867000   0.47108874   -8.9811945    555.42334 0.0095100222 0.0077872057            3 
 4868000   0.47472445   -8.9834109    555.19934 0.0095042342  0.007784553            2 
 4869000   0.47148979   -8.9755605    555.12933 0.0095010838 0.0077819013            3 
 4870000   0.47778996   -8.9765623    555.33359 0.0095026282 0.0077792518            2 
 4871000   0.45896193    -8.972855    554.71276 0.0094900562 0.0077766022            8 
 4872000   0.47519795   -8.9759092    554.76603 0.0094890193 0.0077739532            3 
 4873000   0.47336118    -8.983456    555.98008 0.0095078337  0.007771305            4 
 4874000   0.46482568   -8.9804588     554.8931 0.0094872982 0.0077686579            4 
 4875000   0.47014757   -8.9670538    555.66176 0.0094984916 0.0077660151            4 
 4876000   0.47207692   -8.9774796     554.4388 0.0094756427 0.0077633703            4 
 4877000   0.47424298   -8.9992965    555.01959 0.0094836236 0.0077607278            4 
 4878000   0.47921945   -8.9886057    554.37483 0.0094706648 0.0077580861            3 
 4879000   0.46273387   -8.9844329    554.50419  0.009470933 0.0077554449            4 
 4880000   0.46132914   -8.9935444    554.71822 0.0094726472 0.0077528044            7 
 4881000   0.46446759   -8.9878982    554.62573 0.0094691273 0.0077501631            5 
 4882000   0.48031001   -8.9842753    554.49628 0.0094649781 0.0077475257            7 
 4883000   0.48365088   -8.9892903    554.75876 0.0094675194 0.0077448864            5 
 4884000   0.46682934   -8.9772799    554.70374  0.009464642 0.0077422506            3 
 4885000   0.47542943   -8.9896821    554.88065 0.0094657225 0.0077396153            5 
 4886000   0.48487135   -8.9870026    555.36068 0.0094719724 0.0077369834            6 
 4887000   0.46964553   -8.9915743    554.90492 0.0094622625 0.0077343512            5 
 4888000   0.47062306   -8.9713451    554.47331 0.0094529683 0.0077317201            8 
 4889000    0.4757531   -8.9829281    554.50211 0.0094515257 0.0077290892            4 
 4890000   0.47367331   -8.9878538    554.74803 0.0094537838 0.0077264594            7 
 4891000   0.46141074   -8.9926025    553.77833  0.009435329 0.0077238306            6 
 4892000   0.48245153   -8.9860043    554.90933 0.0094526664 0.0077212047            4 
 4893000   0.46373872   -8.9854398    554.62345 0.0094458657 0.0077185792            6 
 4894000   0.46463182   -8.9997968    555.40085 0.0094571729 0.0077159551            6 
 4895000   0.48091031   -8.9835032    553.96708 0.0094308321 0.0077133318            4 
 4896000   0.45896996   -8.9964411    554.95744 0.0094457625 0.0077107098            3 
 4897000   0.46211631   -8.9943316    554.49452 0.0094359561 0.0077080881            9 
 4898000   0.47309722   -8.9724366    555.07706 0.0094439408 0.0077054689            6 
 4899000   0.46373886   -8.9750865    554.51335 0.0094324242 0.0077028514            3 
 4900000   0.47013074   -8.9934572    555.54785 0.0094480927 0.0077002326            5 
 4901000   0.47794433   -9.0208149    554.77212 0.0094329749 0.0076976163            6 
 4902000   0.46754347   -8.9834983    554.49016 0.0094262573 0.0076950006            5 
 4903000   0.47432344   -8.9777028    555.01109 0.0094331887 0.0076923876            3 
 4904000   0.46096219   -8.9803446    555.74438 0.0094437259 0.0076897749            6 
 4905000   0.46490137   -8.9811976    554.96061 0.0094284847 0.0076871641            6 
 4906000   0.46533961   -8.9848645    554.95441 0.0094264576 0.0076845545            4 
 4907000   0.45983259   -8.9913297    554.48572 0.0094165771  0.007681945            3 
 4908000   0.45833175   -8.9883359    554.50818 0.0094150397 0.0076793371            8 
 4909000   0.46082236   -8.9880456    554.54341 0.0094137198 0.0076767292            3 
 4910000   0.46297274   -8.9972654    555.18223 0.0094226448 0.0076741251            4 
 4911000   0.47162584   -8.9752606    555.11316  0.009419554 0.0076715222            2 
 4912000    0.4668692   -9.0092577    555.04576 0.0094164929 0.0076689202            3 
 4913000    0.4675457   -9.0004484    554.63749 0.0094076512 0.0076663174            2 
 4914000   0.47200646   -9.0013402    554.48839 0.0094032083 0.0076637165            5 
 4915000    0.4734789   -8.9989793    554.77301 0.0094061209 0.0076611184            3 
 4916000   0.46693889   -9.0008843    555.17865 0.0094110837 0.0076585189            7 
 4917000   0.47179241   -8.9992399    554.89593 0.0094043781 0.0076559187            4 
 4918000    0.4636404    -9.001513    555.66898  0.009415565  0.007653321            4 
 4919000    0.4591428   -8.9959096    554.31644 0.0093907373 0.0076507263            4 
 4920000   0.45634209   -8.9902195    554.02584 0.0093839065 0.0076481341            4 
 4921000   0.46845645   -8.9818294     554.7748 0.0093946826 0.0076455397            3 
 4922000   0.46189367   -9.0080345    554.76917 0.0093926786 0.0076429469            4 
 4923000   0.47245293   -8.9804782    554.62843 0.0093883884 0.0076403539            4 
 4924000   0.46656415   -8.9958365    555.11403    0.0093947 0.0076377638            7 
 4925000   0.45191402   -8.9972164    554.90214 0.0093892072 0.0076351739            5 
 4926000   0.46845713   -8.9796533    554.83945 0.0093862405 0.0076325875            8 
 4927000   0.46613757   -8.9922877    555.73988  0.009399565 0.0076300019            5 
 4928000   0.46996323   -8.9878278    553.83516 0.0093654485 0.0076274144            5 
 4929000    0.4481913   -8.9907356    553.98079 0.0093660105 0.0076248278            6 
 4930000   0.45797813    -9.011303    555.14833 0.0093838461  0.007622242            1 
 4931000   0.46564109   -8.9891937    555.46291 0.0093872594 0.0076196585            5 
 4932000   0.46895046   -8.9958779    555.14903 0.0093800525 0.0076170784            2 
 4933000   0.46108065    -9.001639    554.22547 0.0093625493 0.0076144984            3 
 4934000   0.45927278    -8.995101    553.66211 0.0093511369 0.0076119176            4 
 4935000   0.45881394   -9.0063154     554.6049 0.0093651622 0.0076093385            3 
 4936000   0.45798143   -8.9958096    554.50458 0.0093615711 0.0076067623            4 
 4937000   0.46437503   -8.9966288    554.59189 0.0093611486 0.0076041876            6 
 4938000   0.46636444   -9.0016503    555.40313 0.0093729434 0.0076016129            5 
 4939000   0.45035951   -9.0049477    554.44957 0.0093549567 0.0075990394            4 
 4940000   0.45959766   -8.9917367    553.14666  0.009331084 0.0075964689            2 
 4941000   0.45569766   -8.9962854    554.57446 0.0093532763 0.0075938973            4 
 4942000   0.45628396    -8.990082    555.32503 0.0093640401 0.0075913296            4 
 4943000   0.46908894   -8.9867031    555.35089 0.0093625817 0.0075887599            5 
 4944000   0.46505223     -9.00714    554.06697 0.0093390469 0.0075861911            5 
 4945000   0.46035987   -9.0030196    555.21644 0.0093565291 0.0075836258            4 
 4946000   0.45345824   -9.0091632    554.84565 0.0093483902 0.0075810635           11 
 4947000   0.46835859   -8.9920659     555.0614 0.0093501348 0.0075785012            5 
 4948000    0.4554954    -8.999583    554.31917 0.0093357446 0.0075759386           10 
 4949000   0.45822436   -8.9867284    554.95173 0.0093445094 0.0075733786            3 
 4950000   0.45602324    -9.001438    554.67006 0.0093378798 0.0075708191            5 
 4951000   0.45694771   -8.9983199    555.31946 0.0093469243 0.0075682607            6 
 4952000   0.44444017   -9.0030389    554.84319 0.0093370219 0.0075657028           10 
 4953000   0.45023314   -8.9967842    554.43274  0.009328231 0.0075631469            4 
 4954000   0.46646504   -8.9924138    553.49315 0.0093105428 0.0075605928            6 
 4955000    0.4560351   -9.0111086    555.03807 0.0093346463 0.0075580387            5 
 4956000   0.46531762   -9.0106357     554.5906 0.0093252387 0.0075554856            2 
 4957000    0.4448804   -9.0025615    554.53186 0.0093223701 0.0075529323            5 
 4958000   0.45461213   -9.0050828    554.23812 0.0093155526 0.0075503822            5 
 4959000   0.44871314   -9.0029387    554.87752 0.0093244189 0.0075478339            6 
 4960000   0.45204511   -9.0088695    554.04668   0.00930858 0.0075452871            6 
 4961000   0.46229995    -9.011263    554.50728 0.0093144407 0.0075427382            6 
 4962000   0.44984702   -9.0003705    555.06125  0.009321867 0.0075401895            3 
 4963000   0.46162341   -9.0121667    554.27951 0.0093068626  0.007537643            4 
 4964000   0.45974302   -9.0067814    554.19979 0.0093036495 0.0075350999            7 
 4965000   0.45637377   -9.0019885    555.06413 0.0093162827 0.0075325583            7 
 4966000   0.46574187   -9.0059662    554.65538 0.0093075476 0.0075300152            7 
 4967000   0.46712471   -8.9992052    555.05819 0.0093124318 0.0075274753            6 
 4968000    0.4530535   -9.0036987    554.99647 0.0093095222 0.0075249344            3 
 4969000   0.46591642   -9.0073947    554.08851 0.0092924215 0.0075223957            7 
 4970000    0.4478362   -9.0010058    555.14223 0.0093082198 0.0075198601            4 
 4971000   0.46106373    -9.002125    554.51224 0.0092957863 0.0075173245            8 
 4972000   0.45482881   -9.0039935    554.21427 0.0092889224 0.0075147898            3 
 4973000   0.45308173   -9.0111124    554.63546 0.0092941125  0.007512256            6 
 4974000   0.46684569   -9.0032063    554.77938 0.0092946551 0.0075097227            5 
 4975000   0.45283902   -9.0040519    555.04243 0.0092971931 0.0075071897            5 
 4976000   0.46464394   -8.9983539    553.98305 0.0092775832 0.0075046565            5 
 4977000   0.45868911   -9.0071168    555.12662 0.0092948668 0.0075021245            8 
 4978000    0.4591734   -9.0069444    554.83412  0.009288103 0.0074995948           11 
 4979000   0.45073092    -8.996378     553.7579 0.0092682249 0.0074970661            7 
 4980000   0.44813783    -9.008323    554.52436 0.0092791894 0.0074945407           10 
 4981000   0.45654881   -9.0064353    554.80867 0.0092820831 0.0074920157            3 
 4982000    0.4585991   -9.0058638    554.32372 0.0092721083 0.0074894903            8 
 4983000   0.45298728   -9.0099231    555.09352 0.0092831213  0.007486966            8 
 4984000   0.45794492   -9.0147033    553.83259 0.0092601758  0.007484443            2 
 4985000   0.45828371   -9.0153541      553.659 0.0092554163 0.0074819192            4 
 4986000   0.45149051   -9.0005282    554.16617 0.0092620366 0.0074793991            5 
 4987000   0.45917968   -9.0213382    554.85822 0.0092717435 0.0074768772            6 
 4988000   0.46972796   -9.0080781    554.48768 0.0092636942 0.0074743574            3 
 4989000   0.45109394   -9.0125112    554.30271 0.0092587477 0.0074718391            4 
 4990000   0.46023794   -9.0263387     553.4702 0.0092429893 0.0074693205            6 
 4991000   0.45428894   -9.0017765    553.63745 0.0092439298 0.0074668053            3 
 4992000   0.45451374   -8.9904394    554.32319 0.0092535255 0.0074642899            7 
 4993000   0.45963986   -8.9998806    554.94286 0.0092620145 0.0074617758            5 
 4994000   0.45555147   -9.0054757    554.23512 0.0092483501  0.007459264            5 
 4995000   0.43875613    -8.992507    554.87005 0.0092570913 0.0074567528            7 
 4996000   0.44533596   -9.0080758    554.44934 0.0092482209 0.0074542413            3 
 4997000   0.45064815   -9.0205965    554.66356 0.0092499427 0.0074517305            7 
 4998000   0.45842643    -9.006697    553.88877 0.0092351735 0.0074492212            3 
 4999000   0.44297408   -9.0040011    554.20711 0.0092386328 0.0074467166            4 
 5000000   0.45223955   -9.0073391    554.61462  0.009243577 0.0074442086            4 
 5001000   0.45125961   -9.0126002    553.67718 0.0092261077 0.0074417042            7 
 5002000   0.45605061   -9.0195747    554.35675  0.009235585 0.0074392027            7 
 5003000   0.45718269    -9.013673    554.83704  0.009241739 0.0074367006           10 
 5004000   0.44902213   -9.0080347    554.64453 0.0092366861 0.0074342018            2 
 5005000   0.44592625   -9.0106582    554.71773 0.0092360594 0.0074317024            3 
 5006000   0.45619542   -9.0096873    554.71497 0.0092341684 0.0074292041            3 
 5007000   0.44758376    -9.013789    554.47807 0.0092283814 0.0074267045            5 
 5008000   0.45451391    -9.009196    554.10412 0.0092203162 0.0074242084            5 
 5009000    0.4608164   -9.0219371    554.58587 0.0092264902 0.0074217135            6 
 5010000   0.45285634   -9.0032503    553.90575 0.0092133359 0.0074192179            5 
 5011000   0.45260401    -9.017116    554.29357 0.0092179467 0.0074167225            3 
 5012000   0.44443058   -9.0271695    554.70626 0.0092229691 0.0074142299            2 
Loop time of 12295.9 on 48 procs for 5000000 steps with 4000 atoms

Performance: 70267.199 tau/day, 406.639 timesteps/s
99.4% CPU use with 48 MPI tasks x no OpenMP threads

MPI task timing breakdown:
Section |  min time  |  avg time  |  max time  |%varavg| %total
---------------------------------------------------------------
Pair    | 829.31     | 881.21     | 936.61     |  96.2 |  7.17
Neigh   | 81.497     | 84.715     | 87.999     |  19.6 |  0.69
Comm    | 800.52     | 851.65     | 908.87     |  97.6 |  6.93
Output  | 15.656     | 15.66      | 15.736     |   0.3 |  0.13
Modify  | 10319      | 10348      | 10367      |  11.2 | 84.16
Other   |            | 114.7      |            |       |  0.93

Nlocal:        83.3333 ave          89 max          75 min
Histogram: 1 0 3 4 4 11 8 11 4 2
Nghost:        2178.27 ave        2191 max        2160 min
Histogram: 1 2 4 8 3 4 9 5 6 6
Neighs:        14493.0 ave       15836 max       12839 min
Histogram: 2 2 2 8 7 6 5 9 2 5
FullNghs:      28986.6 ave       30939 max       26137 min
Histogram: 1 0 3 4 8 8 8 6 8 2

Total # of neighbors = 1391358
Ave neighs/atom = 347.83950
Neighbor list builds = 266974
Dangerous builds = 0

#clear
#
#next RN
#
#jump SELF
Total wall time: 3:24:59
