
units lj                  # Use reduced LJ style units
atom_style atomic         # Uncharged point particles
atom_modify map hash      # Needed for indexing of clusters etc
                          # Used to be able to find where atoms are in relation to each other.

lattice fcc 1.0 spacing 1 1 1
Lattice spacing in x,y,z = 1.5874011 1.5874011 1.5874011
region box block 0 10 0 10 0 10 units lattice
create_box 2 box
Created orthogonal box = (0.0000000 0.0000000 0.0000000) to (15.874011 15.874011 15.874011)
  3 by 4 by 4 MPI processor grid
create_atoms 1 box
Created 4000 atoms
  using lattice units in orthogonal box = (0.0000000 0.0000000 0.0000000) to (15.874011 15.874011 15.874011)
  create_atoms CPU = 0.002 seconds
set type 1 type/fraction 2 0.41 78393
Setting atom values ...
  1648 settings made for type/fraction
mass 1 1.0
mass 2 1.0
pair_style lj/cut  3.5
pair_modify tail  yes
pair_coeff 1  1  1.0  1.0   # Intearaction between 1 and 1 set with epsilon = 1 and sigma = 1
pair_coeff 1  2  1.5  0.8
pair_coeff 2  2  0.5  0.88

write_data data.0
System init for write_data ...
Neighbor list info ...
  update every 1 steps, delay 10 steps, check yes
  max neighbors/atom: 2000, page size: 100000
  master list distance cutoff = 3.8
  ghost atom cutoff = 3.8
  binsize = 1.9, bins = 9 9 9
  1 neighbor lists, perpetual/occasional/extra = 1 0 0
  (1) pair lj/cut, perpetual
      attributes: half, newton on
      pair build: half/bin/atomonly/newton
      stencil: half/bin/3d
      bin: standard
WARNING: Not all mixed pair coeffs generated from mixing. Use write_data with 'pair ij' option to store all pair coeffs. (../write_data.cpp:312)


#############################
#   M E L T   S Y S T E M   #
#############################

velocity all create 2.4 9580093 mom yes dist gaussian # Assign velocities
                                                    # Temperature 2.4, random number seed, zero linear momentum
                                                                                # Gaussian distribution

timestep 0.002   # simulation timestep
thermo 1000       # output thermodynamic data every 1000 steps bf 100

# Define a fix  in this case with index 1 applied to all
# particles in the simulation. This fix is for simulations
# in the anisotropic NPT ensemble. Note that we use the MTK
# correction.
fix 1 all npt temp 2.4 2.4 0.1 iso 5.68 5.68 0.5 mtk yes tchain 5 pchain 5 # Use NPT ensemble
                                                                         # Set temperature and pressure and damping
                                                                         # Numbers of thermostats in chain and in barostat
run 10000          # run for 10000 steps
Per MPI rank memory allocation (min/avg/max) = 3.642 | 3.644 | 3.648 Mbytes
Step Temp E_pair E_mol TotEng Press Volume 
       0          2.4   -5.8082674            0   -2.2091674   -4.1765581         4000 
    1000    2.3411077   -5.0203647            0    -1.509581    5.5868732    3874.7686 
    2000    2.3797153   -5.0852116            0    -1.516531    5.5417388    3850.9833 
    3000    2.4457282   -5.0576926            0   -1.3900174    6.0622234    3832.0567 
    4000    2.3828302   -5.0282708            0   -1.4549191    5.4189659    3893.4077 
    5000    2.3827351   -5.0855582            0   -1.5123491    5.5547079      3851.14 
    6000    2.4369778    -5.041489            0   -1.3869362    5.7231085    3863.2761 
    7000    2.3741709   -5.0334165            0   -1.4730504    5.7498526    3858.2876 
    8000    2.3526989   -5.0212251            0   -1.4930591    5.4867463    3875.7085 
    9000    2.3471687   -5.0903068            0   -1.5704339    5.8994545    3813.2944 
   10000     2.392086   -5.0790588            0   -1.4918269    5.5005025    3858.7413 
Loop time of 2.52163 on 48 procs for 10000 steps with 4000 atoms

Performance: 685270.219 tau/day, 3965.684 timesteps/s
99.6% CPU use with 48 MPI tasks x no OpenMP threads

MPI task timing breakdown:
Section |  min time  |  avg time  |  max time  |%varavg| %total
---------------------------------------------------------------
Pair    | 1.1143     | 1.1931     | 1.2827     |   3.2 | 47.31
Neigh   | 0.20812    | 0.21824    | 0.23284    |   1.0 |  8.65
Comm    | 0.76614    | 0.85322    | 0.96362    |   5.0 | 33.84
Output  | 0.00024067 | 0.00024513 | 0.00031706 |   0.0 |  0.01
Modify  | 0.20189    | 0.2418     | 0.29278    |   5.7 |  9.59
Other   |            | 0.01506    |            |       |  0.60

Nlocal:        83.3333 ave          91 max          73 min
Histogram: 1 1 2 5 8 4 12 9 5 1
Nghost:        1681.29 ave        1704 max        1658 min
Histogram: 3 5 3 4 5 8 9 6 3 2
Neighs:        9894.46 ave       10954 max        8502 min
Histogram: 1 2 5 4 2 12 7 9 4 2

Total # of neighbors = 474934
Ave neighs/atom = 118.73350
Neighbor list builds = 911
Dangerous builds = 225

# Equilibrate just above the melting temperature to avoid step fn in T

fix 1 all npt temp 1.25 1.25 0.1 iso 5.68 5.68 0.5 mtk yes tchain 5 pchain 5
run 2000
Per MPI rank memory allocation (min/avg/max) = 3.643 | 3.645 | 3.649 Mbytes
Step Temp E_pair E_mol TotEng Press Volume 
   10000     2.392086   -5.0790588            0   -1.4918269    5.5005025    3858.7413 
   11000    1.2283727   -7.0139756            0   -5.1718771    5.7494216    3067.3174 
   12000    1.2644591   -7.0881346            0   -5.1919201    6.0460173     3038.248 
Loop time of 0.608794 on 48 procs for 2000 steps with 4000 atoms

Performance: 567679.983 tau/day, 3285.185 timesteps/s
99.7% CPU use with 48 MPI tasks x no OpenMP threads

MPI task timing breakdown:
Section |  min time  |  avg time  |  max time  |%varavg| %total
---------------------------------------------------------------
Pair    | 0.27139    | 0.29695    | 0.32073    |   2.1 | 48.78
Neigh   | 0.039056   | 0.04147    | 0.043713   |   0.6 |  6.81
Comm    | 0.19519    | 0.22162    | 0.25136    |   2.8 | 36.40
Output  | 5.1924e-05 | 5.322e-05  | 6.9647e-05 |   0.0 |  0.01
Modify  | 0.040633   | 0.043841   | 0.047201   |   0.8 |  7.20
Other   |            | 0.004855   |            |       |  0.80

Nlocal:        83.3333 ave          90 max          73 min
Histogram: 1 2 5 1 3 12 2 13 5 4
Nghost:        1979.71 ave        2003 max        1960 min
Histogram: 3 0 4 12 9 7 10 1 1 1
Neighs:        12575.6 ave       13871 max       10987 min
Histogram: 4 2 0 6 6 6 10 6 6 2

Total # of neighbors = 603630
Ave neighs/atom = 150.90750
Neighbor list builds = 142
Dangerous builds = 7

#############################
# L I N E A R  Q U E N C H  #
#############################

# Define solid atoms. This closely follows ten Wolde  Ruiz-Montero and Frenkel  Faraday Discuss  1996  104  93-110
# Compute components of the per-atom q6 vector
compute q6 all orientorder/atom degrees 1 6 components 6 nnn NULL cutoff 1.3 # compute the Q6 parameter.
                                                                             # Use all neighbours within 1.3 unit cell.

# get number of connections
compute coord_number all coord/atom orientorder q6 0.5

# An atom is solid if it has 8 or more connections (of a possible 14)
variable is_solid atom c_coord_number>=8
group solid dynamic all var is_solid    # Must be dynamic to update
dynamic group solid defined

# do clustering
compute cluster solid cluster/atom 1.3 # Create a cluster where all atoms within are solid and max 1.3 units from another member

# define chunks one chunk per cluster
compute clus_chunks solid chunk/atom c_cluster nchunk every compress yes  # Says which atoms are in which chunk

# count the size of each chunk
compute size_chunks solid property/chunk clus_chunks count


# Find the maximum entry in the vector of chunk sizes
variable max_n equal max(c_size_chunks)


# Thermo style which includes this variable
# thermo_style custom step temp pe vol v_max_n

thermo ${N}  # Print the thermo information every 100 steps
thermo 1000  

# Reset the npt fix at a lower temperature (below freezing)
fix 1  all npt temp  ${temp} ${temp}  0.1  iso  5.68  5.68  0.5  mtk yes tchain  5  pchain  5
fix 1  all npt temp  0.45 ${temp}  0.1  iso  5.68  5.68  0.5  mtk yes tchain  5  pchain  5
fix 1  all npt temp  0.45 0.45  0.1  iso  5.68  5.68  0.5  mtk yes tchain  5  pchain  5

dump dmp2 all dcd ${N} traj.dcd
dump dmp2 all dcd 1000 traj.dcd


compute msd all msd com yes
variable twopoint equal c_msd[4]/6/(step*dt+1.0e-6)
fix 9 all vector 10 c_msd[4]
variable fit equal slope(f_9)/6/(10*dt)
thermo_style custom step temp pe c_msd[4] v_twopoint v_fit v_max_n

fix 1 all npt temp 1.25 ${temp} 0.1 iso 5.68 5.68 0.5 mtk yes tchain 5 pchain 5
fix 1 all npt temp 1.25 0.45 0.1 iso 5.68 5.68 0.5 mtk yes tchain 5 pchain 5
run 5000000 # 5000000  # Run for this many steps
Neighbor list info ...
  update every 1 steps, delay 10 steps, check yes
  max neighbors/atom: 2000, page size: 100000
  master list distance cutoff = 3.8
  ghost atom cutoff = 3.8
  binsize = 1.9, bins = 8 8 8
  4 neighbor lists, perpetual/occasional/extra = 1 3 0
  (1) pair lj/cut, perpetual
      attributes: half, newton on
      pair build: half/bin/atomonly/newton
      stencil: half/bin/3d
      bin: standard
  (2) compute orientorder/atom, occasional
      attributes: full, newton on
      pair build: full/bin/atomonly
      stencil: full/bin/3d
      bin: standard
  (3) compute coord/atom, occasional
      attributes: full, newton on
      pair build: full/bin/atomonly
      stencil: full/bin/3d
      bin: standard
  (4) compute cluster/atom, occasional
      attributes: full, newton on
      pair build: full/bin/atomonly
      stencil: full/bin/3d
      bin: standard
Per MPI rank memory allocation (min/avg/max) = 9.827 | 9.833 | 9.840 Mbytes
Step Temp PotEng c_msd[4] v_twopoint v_fit v_max_n 
   12000    1.2644591   -7.0881346 4.067564e-30 2.8246971e-32 8.3333333e+20            2 
   13000    1.2336106   -7.1168308   0.44652838 0.0028623613  0.036215513            3 
   14000    1.2711545   -7.0959998   0.89834504 0.0053472917  0.035940717            4 
   15000    1.2664176   -7.1116776    1.3127059 0.0072928102  0.036397995            7 
   16000    1.2758831   -7.0961461    1.7541847 0.0091363784  0.036089388            1 
   17000    1.2572977   -7.1159521    2.1412054  0.010496105   0.03597605            1 
   18000    1.2364884   -7.1346947    2.5445426  0.011780289  0.035396727            2 
   19000    1.2486691   -7.0801563    2.9774476   0.01305898  0.035225313            3 
   20000    1.2426766   -7.0875397    3.3758013  0.014065838  0.034940357            1 
   21000    1.2527686   -7.1015899    3.7202597  0.014762935  0.034564632            2 
   22000    1.2769169   -7.1257695    4.1620121  0.015765197  0.034367677            3 
   23000    1.2236741   -7.1613917    4.5130584   0.01635166  0.034148955            1 
   24000    1.2445809    -7.112742    4.9856664  0.017311341  0.034013645            2 
   25000    1.2445136   -7.1409467     5.368983   0.01789661  0.034034196            3 
   26000    1.2543313   -7.1627402    5.8068405  0.018611668  0.034034175            2 
   27000    1.2614798   -7.1411685    6.2808509  0.019385342  0.034138766            2 
   28000    1.2201756   -7.1738435    6.6701201  0.019851548  0.034236764            1 
   29000    1.2573945   -7.1141962    7.0997966  0.020401714  0.034279426            2 
   30000    1.2257846   -7.0958973    7.5613726  0.021003812  0.034386206            2 
   31000    1.2554166   -7.1161438    7.9763795   0.02144188  0.034478403            1 
   32000    1.2499016   -7.1172748    8.3977107  0.021869038  0.034565751            1 
   33000    1.2532364   -7.1409039    8.8058873  0.022237089  0.034617183            2 
   34000    1.2513841   -7.1272378    9.1646222  0.022462309  0.034615805            2 
   35000    1.2286596   -7.1231675    9.5174939  0.022660699  0.034564326            1 
   36000    1.2450048   -7.1774143    9.9816437  0.023105656  0.034539731            1 
   37000    1.2568457   -7.1034649    10.409972  0.023445883  0.034516447            2 
   38000    1.2682135   -7.0775181    10.843733  0.023780115  0.034529965            6 
   39000    1.2420479   -7.1348891    11.259106  0.024057918  0.034551054            1 
   40000    1.2499212   -7.0927599     11.69248  0.024359334  0.034560249            1 
   41000    1.2487751   -7.1399512    11.931461  0.024250938  0.034521895            3 
   42000    1.2395043   -7.1329834    12.310036  0.024424675  0.034442834            1 
   43000    1.2389335   -7.1243103    12.745126  0.024699856  0.034365829            3 
   44000    1.2511717   -7.1411356    13.005295  0.024631239  0.034287775       -1e+20 
   45000    1.2404842   -7.1634302     13.35444  0.024730445   0.03417663            5 
   46000    1.2454193   -7.0958471    13.808611  0.025015599  0.034057119            1 
   47000    1.2479839   -7.1366363    14.188964  0.025157738  0.033968025            2 
   48000     1.241122   -7.1388935    14.662336  0.025455444  0.033914823            1 
   49000    1.2514898   -7.1445454    15.124622  0.025722146  0.033873578            1 
   50000    1.2504701   -7.0711684    15.648183  0.026080304  0.033870175            3 
   51000     1.250642   -7.1077369    16.049193  0.026224171  0.033887907            2 
   52000    1.2372228   -7.1107181    16.311276  0.026139866  0.033883233            3 
   53000    1.2510053   -7.0805514    16.781017  0.026385246   0.03385371            2 
   54000    1.2669859   -7.0950746    17.219491  0.026573288  0.033836271            2 
   55000    1.2343243   -7.1513315    17.662607  0.026761526  0.033830011            3 
   56000    1.2177873   -7.1699465    17.978646  0.026753937  0.033835715            3 
   57000    1.2729628   -7.1345885    18.418973  0.026928323  0.033830727            2 
   58000     1.254389   -7.0925079    19.163721  0.027534082  0.033874685            2 
   59000    1.2647336   -7.1285013    19.417666  0.027426081  0.033932862            1 
   60000     1.253003   -7.0883133    19.969305  0.027735146  0.033982614            1 
   61000     1.244859   -7.1023484    20.305152  0.027739278  0.034022442       -1e+20 
   62000    1.2454885   -7.1154416    20.719069  0.027848211  0.034068417            1 
   63000    1.2279813   -7.1617183    21.125658  0.027943992  0.034101922            1 
   64000    1.2486412    -7.155862    21.583157  0.028103068  0.034147228            1 
   65000     1.252957   -7.1393784    22.066097  0.028289868  0.034200678            2 
   66000    1.2257655   -7.1503427    22.488295  0.028394311   0.03424295            1 
   67000    1.2237256   -7.1342955    22.884943   0.02846386  0.034287548            1 
   68000    1.2342546   -7.1388226    23.436893  0.028721682  0.034325958            1 
   69000    1.2400961    -7.121087    24.007921  0.028995073  0.034382892            3 
   70000    1.2434425   -7.1592988    24.519574  0.029189968  0.034465648            5 
   71000    1.2385428   -7.1474323     25.02814  0.029375751  0.034540149            1 
   72000    1.2464213   -7.1299664    25.359865  0.029351696  0.034613162            2 
   73000      1.24388   -7.1441689    25.799484  0.029451465  0.034672878            1 
   74000    1.2336914   -7.1313804    26.358915  0.029683462  0.034741859            1 
   75000    1.2229323    -7.091874    26.676891   0.02964099   0.03480961            2 
   76000    1.2197927   -7.1305213    27.298073  0.029932098   0.03487165            1 
   77000    1.2604813   -7.1579811    27.716752  0.029996485  0.034945552            6 
   78000    1.2304348   -7.1137666    28.192617  0.030120317  0.035016762            2 
   79000    1.2191128   -7.1364932    28.415413  0.029974064  0.035066507            3 
   80000    1.2573586   -7.1208249    28.710218  0.029906476   0.03509774            2 
   81000      1.22019    -7.155921    29.006273  0.029841845  0.035112783            3 
   82000    1.2361336   -7.1085574     29.36065  0.029838058  0.035118069            1 
   83000    1.2409793   -7.1511577    29.692665  0.029811912  0.035120408            1 
   84000    1.2314411   -7.1212684    29.968128  0.029730286  0.035112949            1 
   85000    1.2635413   -7.2076176    30.216575  0.029624093  0.035091542            1 
   86000     1.242191   -7.1812447    30.523062   0.02957661  0.035055556            3 
   87000    1.2241573   -7.1226287     31.15586  0.029842777  0.035020341            3 
   88000    1.2258056   -7.1547122    31.399072  0.029733969  0.034986239            1 
   89000    1.2604182   -7.1654445    31.709529   0.02969057  0.034949567            1 
   90000    1.2654813   -7.1269749    32.141657  0.029760794  0.034913097            2 
   91000    1.2376484   -7.1038107    32.622006  0.029873632  0.034888613            2 
   92000    1.2564324   -7.1008225     32.96965  0.029863813  0.034861249       -1e+20 
   93000    1.2577914   -7.0745337    33.550802  0.030063442   0.03483958            1 
   94000    1.2467498   -7.1907903    33.819073  0.029981448  0.034815878            2 
   95000    1.2417952   -7.1591506    34.265506  0.030057461  0.034795483            1 
   96000    1.2190669   -7.1571242    34.674763   0.03009962  0.034772759            2 
   97000    1.2258914   -7.1368639     35.08421  0.030141074  0.034751586            2 
   98000    1.2416248   -7.1441787    35.518505   0.03020281  0.034728508            2 
   99000    1.2412997   -7.1747897    35.803513  0.030137637  0.034708401            2 
  100000    1.2302828   -7.1285341    36.436733  0.030363944  0.034689405            2 
  101000    1.2491136   -7.1728792    36.822862  0.030381899  0.034673036            1 
  102000    1.2465358   -7.1796918    37.120644  0.030327323  0.034656857            2 
  103000    1.2122335   -7.1503873    37.598492  0.030419492  0.034637706            1 
  104000     1.227945   -7.0844568    38.065799  0.030501441  0.034620706            1 
  105000    1.2530482   -7.1826659    38.256917  0.030362632  0.034604411            1 
  106000    1.2299313   -7.1411815     38.86257  0.030552335  0.034589385            1 
  107000    1.2496454   -7.1912326    39.082098  0.030437771   0.03457202            4 
  108000     1.224168   -7.1693186    39.518004  0.030492287  0.034556815            1 
  109000    1.2440895   -7.1412171    40.179582  0.030718335  0.034549873            1 
  110000    1.2346112   -7.1875264    40.626725  0.030777822  0.034544924            3 
  111000    1.2381563   -7.1641974    40.967193  0.030756151  0.034538377            1 
  112000     1.196613   -7.1680535    41.406697  0.030808554  0.034531435            1 
  113000    1.2211502    -7.132495    41.988633  0.030965068  0.034527298            2 
  114000    1.2226554   -7.1053074    42.246719  0.030882104  0.034523576            1 
  115000    1.2378252   -7.1741181    42.413945  0.030734743  0.034512968            1 
  116000    1.2418185    -7.129643    42.913647  0.030828769  0.034499683            1 
  117000    1.2362185    -7.176813    43.287041  0.030831226  0.034490225            2 
  118000    1.2381981   -7.1869446    43.908047  0.031008508  0.034485176            1 
  119000    1.2510235   -7.1674498    44.405033  0.031095962  0.034483596            1 
  120000    1.2386247   -7.1631475    44.876906  0.031164518  0.034487701            1 
  121000    1.2406636   -7.1625679    45.344318  0.031228869  0.034495653            2 
  122000    1.2513575   -7.1756172     45.87067  0.031332425  0.034508639            3 
  123000    1.2303168   -7.1376294    46.204753  0.031304033  0.034520053            1 
  124000    1.2552594   -7.1501467    46.721295   0.03139872  0.034528877            1 
  125000    1.2145722   -7.1575764    46.996429  0.031330953  0.034538965            2 
  126000    1.2255555   -7.1626934    47.428884   0.03136831  0.034545444            3 
  127000    1.2353865   -7.1514162     47.87701   0.03141536  0.034551101            5 
  128000    1.2468923   -7.1564389    48.637156  0.031664815  0.034565375            1 
  129000    1.2066883   -7.1763212    48.838298  0.031549288  0.034581477            2 
  130000    1.2412181   -7.1774156    49.384553  0.031656765  0.034597226            2 
  131000      1.21506   -7.1948556    49.919418  0.031755355  0.034617205            1 
  132000     1.240254   -7.1398954    50.243688    0.0317195  0.034631855            2 
  133000    1.2289599   -7.1636705    50.545641  0.031670201  0.034647595            2 
  134000     1.207782   -7.1731369    51.121211  0.031791798  0.034661155            2 
  135000    1.2010411   -7.1615396    51.494794   0.03178691  0.034674856            1 
  136000    1.2312058   -7.1522479    51.670461  0.031660821   0.03468651            2 
  137000    1.2231106    -7.125234    52.275706  0.031797875  0.034693563            1 
  138000    1.2179038   -7.1797366    52.454157  0.031675216  0.034700191            3 
  139000     1.221587   -7.1679882    53.010257  0.031780729   0.03470787            1 
  140000     1.206297   -7.1745535    53.407319   0.03179007  0.034712874            1 
  141000    1.2411577   -7.1980459      53.5853  0.031669799   0.03471713            3 
  142000    1.2163198   -7.1712991    54.065061  0.031728322  0.034722106            1 
  143000    1.2441228   -7.1324509    54.483056  0.031750032  0.034720895            1 
  144000    1.2597326    -7.165242    54.793479  0.031709189  0.034719471            3 
  145000     1.217035   -7.1486142    54.979506  0.031597417  0.034712134            1 
  146000    1.2254561   -7.1140202    55.575985  0.031721453  0.034703464            2 
  147000    1.2394708   -7.1732478     56.10174  0.031803707  0.034698568            2 
  148000    1.2241622   -7.1725947    56.340808  0.031723428  0.034692723            2 
  149000    1.2488819    -7.119465    56.987828  0.031872387  0.034688161            3 
  150000    1.2212827    -7.190614    57.281973  0.031823318  0.034684364            2 
  151000    1.2244996   -7.1582147    57.728001   0.03185872  0.034679801            2 
  152000    1.2142703   -7.1616781    58.120894  0.031864525  0.034676625            1 
  153000    1.2434416   -7.1844318    58.445659  0.031833147   0.03467445            1 
  154000    1.2282673   -7.2247976    58.917535  0.031881783  0.034671658            1 
  155000    1.2218319   -7.1554429     59.08241  0.031764737  0.034667857            1 
  156000    1.2392324   -7.1946676    59.612789  0.031844438  0.034664779            1 
  157000    1.2277269   -7.1789152    60.141765   0.03192238  0.034659337            3 
  158000    1.2348355   -7.1389582    60.491748   0.03190493  0.034657777            3 
  159000    1.2284859   -7.2190719    60.982892  0.031961683  0.034656278            2 
  160000    1.2349214   -7.1939514    61.513378  0.032038218  0.034655607            1 
  161000    1.2351386   -7.1646665    62.019137  0.032101002   0.03465527            5 
  162000    1.2021295   -7.1607596    62.344614  0.032070274  0.034656121            2 
  163000    1.2308906   -7.1449876    62.754781  0.032083221  0.034653711            1 
  164000    1.2784232   -7.1159614    63.391404  0.032211079  0.034656091            1 
  165000    1.2280842   -7.1581627    63.602099  0.032122272  0.034656641            2 
  166000    1.2241984   -7.1243408    64.172696  0.032215209  0.034657976            3 
  167000    1.2432257   -7.1751545    64.266621  0.032069172  0.034655685            4 
  168000    1.2144471    -7.108929    65.026206  0.032255062  0.034651458            1 
  169000    1.2045285   -7.1478694    65.194869  0.032147371  0.034648996            1 
  170000    1.2166124    -7.167856    65.446247  0.032081493   0.03464447            1 
  171000    1.2086396   -7.1225712    65.760085  0.032046825  0.034641366            1 
  172000    1.2321042   -7.1873635    66.092236  0.032021432  0.034633959            2 
  173000    1.2194033   -7.2029563    66.348334  0.031959698  0.034625515            1 
  174000    1.2194087   -7.1508429    66.676735  0.031933302  0.034617125            1 
  175000    1.2087473   -7.1684408    67.065972  0.031936177  0.034605979            2 
  176000    1.2246699   -7.1747201    67.261956  0.031847517  0.034591539            3 
  177000    1.1995975   -7.1574949    67.837299  0.031938465   0.03457809            2 
  178000    1.1963822   -7.2355187    67.992648  0.031831764  0.034564211            5 
  179000    1.2223174   -7.2163116    68.226007  0.031762573  0.034550289            1 
  180000    1.2260504   -7.1680112    69.121678  0.032000777   0.03453473            3 
  181000     1.240677    -7.205614    69.351143  0.031929624  0.034522525            1 
  182000    1.2315882   -7.2062433    69.655984  0.031893766  0.034509796            1 
  183000    1.2172786   -7.2110901    70.099834    0.0319216  0.034496994            1 
  184000    1.2291891   -7.1967157    70.552732   0.03195323  0.034484859            1 
  185000    1.2320578   -7.1429832    70.663977   0.03183062  0.034470749            1 
  186000    1.2098413   -7.1835663    70.706262  0.031678433  0.034454256            1 
  187000    1.2445895   -7.1534855    71.532071  0.031877037  0.034437549            1 
  188000    1.1995723   -7.1886419    71.641639  0.031756046  0.034420084            1 
  189000    1.2369239   -7.1718244     72.25088  0.031856649  0.034402838            1 
  190000    1.2232773   -7.1423872    72.451913  0.031777155  0.034385563            1 
  191000    1.2178985   -7.1706592     72.89843  0.031805598  0.034365884            1 
  192000    1.2271187   -7.1799123    73.383799  0.031850607  0.034348559            2 
  193000    1.2146475   -7.1506445       73.576  0.031768567  0.034330691            2 
  194000    1.2314096   -7.1950465    73.897014  0.031742704   0.03431025            2 
  195000    1.2253965    -7.168391    74.346376  0.031771956  0.034292964            1 
  196000    1.2222022   -7.1713255    74.890901  0.031841369  0.034277689            1 
  197000    1.2438003     -7.15117    75.597666  0.031978708  0.034263089            1 
  198000    1.2109959    -7.167716    76.004799  0.031988551  0.034250156            2 
  199000    1.2245508   -7.1763325    76.320076  0.031959831   0.03423677            2 
  200000    1.2239584    -7.185872    76.723171  0.031967988  0.034224786            1 
  201000    1.2064699   -7.1830129    77.075603  0.031955059  0.034212826            1 
  202000    1.2052488   -7.1875891    77.311081   0.03189401  0.034201447            1 
  203000    1.2161335   -7.2216727    77.725898  0.031907183  0.034190403            2 
  204000    1.2464865   -7.1706507    78.567792  0.032094686  0.034180706            1 
  205000    1.2255209   -7.2166533    78.919987  0.032081295  0.034174119            1 
  206000    1.2343159   -7.1638098    79.501125  0.032160649  0.034168389            1 
  207000    1.2324301   -7.1795172    79.598007  0.032044286  0.034163313            2 
  208000    1.2210994   -7.1861342    80.287338  0.032166401  0.034155782            4 
  209000    1.2014821   -7.1843565    80.401542  0.032058031  0.034149073            1 
  210000    1.2389718   -7.1617565    81.213335  0.032227514  0.034142933            2 
  211000    1.2196583   -7.1729147    81.457751  0.032171307   0.03413775            2 
  212000    1.2219535    -7.245765    81.248654  0.031937364  0.034127889            2 
  213000    1.2210293   -7.2167191    81.252309  0.031788853  0.034116146            2 
  214000    1.2329801   -7.1907173    82.187175  0.032004352  0.034103008            2 
  215000    1.2366031    -7.186028    82.577372  0.032006733  0.034091584            2 
  216000    1.2538242   -7.2008391    82.549456  0.031847784   0.03408015            2 
  217000     1.238477   -7.1739191    83.252354   0.03197095  0.034068023            3 
  218000    1.2283897   -7.1904149    83.581183  0.031949993    0.0340577            3 
  219000    1.2219743   -7.1495571    84.233849  0.032052454  0.034049229            3 
  220000    1.2271943   -7.2042919    84.635638  0.032058954   0.03404022            2 
  221000    1.2364049   -7.1764969    84.899707  0.032013464  0.034029001            2 
  222000    1.2120577   -7.1619281    85.394285  0.032054912  0.034017352            4 
  223000    1.2273864   -7.1322091    85.573916  0.031978294  0.034004526            2 
  224000     1.257344   -7.1592717    86.108119   0.03203427  0.033991347            1 
  225000    1.2308029   -7.2220331    85.989421  0.031847934  0.033981054            2 
  226000    1.2079211   -7.2315347    86.889175  0.032038781  0.033970935            2 
  227000    1.2301733   -7.2092289    87.489431  0.032117999  0.033964676            2 
  228000    1.2016634   -7.1669789    88.248674  0.032254632  0.033957912            4 
  229000    1.1994063   -7.1799695    88.313108   0.03213723  0.033952701            3 
  230000    1.2056026   -7.1866057    88.614005  0.032106523  0.033944663            3 
  231000    1.2040389    -7.196005    88.978005  0.032098847  0.033936061            1 
  232000    1.1929684    -7.202638     89.16558  0.032027866  0.033927103            1 
  233000    1.2234686   -7.2295156    89.612242  0.032050158  0.033919703            1 
  234000     1.233973   -7.2321136    90.109897  0.032090419  0.033912702            2 
  235000    1.2111202   -7.2286632    90.584576   0.03212219   0.03390495            2 
  236000    1.2170646   -7.1872224    90.942951  0.032112624  0.033897906            4 
  237000    1.2110436   -7.2136352     91.52885   0.03218314  0.033890167            3 
  238000    1.2185543   -7.2034194    91.663024  0.032094896  0.033883948            2 
  239000    1.2184442   -7.2485528    92.188774  0.032143924  0.033876374            2 
  240000    1.2178681   -7.2182283    92.389799  0.032079791    0.0338694            3 
  241000    1.1985023   -7.1955407    93.255354  0.032245973  0.033861857            1 
  242000    1.2232543    -7.203741    93.065071  0.032047201  0.033853385            2 
  243000     1.226841   -7.1673385    93.569722  0.032088382  0.033844878            2 
  244000    1.2312272   -7.1794584    94.170735  0.032162136  0.033835608            2 
  245000    1.2084802   -7.2102057    94.030749  0.031983248  0.033825949            1 
  246000    1.2089396   -7.1935757    94.611666  0.032050022  0.033816721            4 
  247000    1.2114969   -7.2354842    94.972743  0.032042086  0.033807203            2 
  248000    1.2055294   -7.1608154     95.42076  0.032063427  0.033800099            2 
  249000    1.2344293   -7.2138378    95.726645   0.03203703  0.033792397            2 
  250000    1.2358616   -7.2410959    96.222647  0.032074215  0.033784473            3 
  251000     1.193599   -7.1822416    96.563669  0.032059651  0.033776766            1 
  252000    1.2094146   -7.2080037    96.804586  0.032012099  0.033766704            2 
  253000    1.1973246   -7.1817242    97.684626  0.032175437  0.033758363            1 
  254000    1.2396977   -7.2352082    97.567481  0.032010328  0.033750389            1 
  255000    1.2266507   -7.2262701    97.765005  0.031949348  0.033740407            1 
  256000    1.2231989   -7.1759436    98.038995  0.031913735  0.033728175            2 
  257000    1.1993898   -7.2039963    98.272378  0.031865233  0.033716167            2 
  258000    1.1868936   -7.1862785    98.544879  0.031829741  0.033701393            1 
  259000    1.1981262   -7.2557705    98.422518  0.031667477  0.033685226            1 
  260000    1.2058117   -7.2079945    99.105373  0.031764543  0.033668695            2 
  261000    1.2203302   -7.1830923     99.34594  0.031719649  0.033654241            1 
  262000    1.2240039   -7.2364663    99.799336  0.031742791  0.033638384            1 
  263000    1.2045933   -7.1294235    100.22577  0.031757216  0.033622382       -1e+20 
  264000    1.2202856   -7.2349116    99.783633  0.031497359   0.03360482            4 
  265000     1.207402   -7.1983301    100.71561  0.031671576  0.033587017            1 
  266000    1.2389121   -7.1973675    100.84632  0.031593457  0.033569686            3 
  267000     1.234263    -7.234619    100.90098  0.031492191   0.03355016            1 
  268000    1.2015914   -7.1732516    101.85144  0.031670223  0.033532067            1 
  269000    1.2051536   -7.1640476    102.20449  0.031661861   0.03351497            4 
  270000    1.2110278   -7.2009701    102.92731  0.031767689  0.033499846            1 
  271000    1.2193245   -7.2148734    103.59189  0.031854824  0.033485426            1 
  272000     1.181854    -7.258014    103.59747  0.031739422  0.033473812            2 
  273000    1.1984766   -7.2098359    104.13706  0.031787871   0.03346108            1 
  274000    1.2092419   -7.2197839    103.99466  0.031628546  0.033446703            3 
  275000    1.1742377   -7.1860422    104.69639  0.031726178  0.033432095            3 
  276000    1.1710876   -7.2222744    104.72132  0.031618756  0.033418471            2 
  277000     1.178652   -7.1986972    105.24865  0.031663252  0.033404623            2 
  278000     1.181195   -7.2546248    105.70677  0.031686681  0.033391019            5 
  279000    1.2011386   -7.1926783    106.22125  0.031726777  0.033376112            2 
  280000    1.2131636   -7.2112056    106.43418   0.03167684  0.033362726            1 
  281000     1.200501   -7.2151004    106.50647  0.031585549  0.033349946            2 
  282000    1.2011006   -7.2281842    107.12328  0.031655816  0.033336757            1 
  283000     1.209278   -7.1618636    108.05345  0.031817861  0.033324595            1 
  284000    1.2035227   -7.2463801    108.13773  0.031730556   0.03331373            1 
  285000    1.1669559   -7.1963611    108.52812  0.031733368  0.033303594            3 
  286000    1.2216801   -7.1973293    109.27317  0.031839501  0.033293527            1 
  287000    1.1880115   -7.1957025    109.64551  0.031836675   0.03328424            4 
  288000    1.2126534   -7.2680464    109.73336  0.031751551  0.033274828            1 
  289000    1.2037201    -7.240808    110.47782  0.031856348  0.033264778            2 
  290000    1.2382749   -7.2358115    111.25113  0.031968714  0.033256795            1 
  291000     1.189962   -7.1507844    111.87751  0.032038233  0.033251055            3 
  292000    1.1904802   -7.2455813    112.04045  0.031975014  0.033245436            1 
  293000     1.226481   -7.2153889    112.23292  0.031920625  0.033239679            1 
  294000     1.214983    -7.260408    112.52783  0.031895644  0.033233275            3 
  295000     1.219539   -7.2043386    113.27715  0.031999196  0.033227115            2 
  296000    1.2308198   -7.2452567    113.34376  0.031909841  0.033221127            1 
  297000    1.1985757   -7.2585822     113.6201   0.03187994  0.033216479            2 
  298000    1.2266087   -7.2251069    114.22188  0.031941241  0.033212012            1 
  299000    1.2211673    -7.212128    114.52282   0.03191829  0.033206344            1 
  300000    1.2033924   -7.2000298    115.03528  0.031954245  0.033201413            1 
  301000    1.2090032   -7.2395126    115.49714  0.031975952  0.033195919            1 
  302000    1.2298017   -7.2221395    116.25561  0.032079362   0.03319096            1 
  303000    1.2326112   -7.2304531    116.08887  0.031927633  0.033186713            2 
  304000    1.2233942   -7.2184905    116.64598  0.031975324  0.033181973            3 
  305000    1.2015967   -7.2302842     116.6778  0.031879179  0.033176433            2 
  306000    1.1936347    -7.221368    117.34797  0.031957508  0.033171043            1 
  307000    1.2001315   -7.1724766    117.92306  0.032009517  0.033165147            1 
  308000    1.1874243   -7.2242282    118.26256  0.031997446  0.033160023            2 
  309000    1.2162333   -7.2130109    118.74522  0.032024061   0.03315556            2 
  310000    1.2087112   -7.2153238    118.73298  0.031917467  0.033150432            4 
  311000    1.2146178   -7.2448648    119.05005    0.0318998  0.033144256            3 
  312000    1.1921549   -7.2107647    119.75608  0.031986133  0.033137598            1 
  313000    1.1917835   -7.2627367    119.70581  0.031870558  0.033130826            1 
  314000    1.1705152   -7.2552079    119.81143  0.031797088  0.033124424            3 
  315000    1.2090505   -7.2114286    120.62752  0.031912041  0.033118274            2 
  316000    1.2039944   -7.2846472    120.77296  0.031849409  0.033111676            3 
  317000    1.2247541   -7.2632237    121.54545   0.03195201  0.033105291            1 
  318000    1.1986729   -7.2202882    121.47426  0.031832878  0.033098932            2 
  319000    1.2331736   -7.2564709    121.39705  0.031712918  0.033092225            1 
  320000    1.1970603   -7.2328268    122.10791  0.031798934  0.033085352            2 
  321000    1.1928747    -7.195967    122.83939  0.031889769  0.033078313            1 
  322000    1.2009582   -7.1898104    123.11363  0.031861704  0.033071388            1 
  323000    1.1838885   -7.2404211    123.56148  0.031878606  0.033065152            1 
  324000    1.1810349   -7.2283864    123.99604  0.031891986  0.033058381            6 
  325000    1.1957951   -7.2171305     124.2625   0.03186218  0.033052184            2 
  326000    1.2153446   -7.2378847    124.79344  0.031900163  0.033045912            3 
  327000    1.1948623   -7.2204136    125.25843  0.031921108  0.033040349            1 
  328000    1.1892894   -7.2939474    124.85421  0.031721091  0.033032807            1 
  329000    1.1915698   -7.2339775    125.74345  0.031849911  0.033025791            2 
  330000    1.2284883   -7.2739245    125.51066   0.03169461  0.033017648            1 
  331000    1.2093391   -7.2573718    125.99376  0.031720482  0.033009844            1 
  332000    1.1832091   -7.2493491    126.60538  0.031778458   0.03300205            1 
  333000    1.2141538   -7.2300871    127.12677  0.031813506  0.032993359            2 
  334000    1.1989126   -7.2449099    127.43912  0.031796188  0.032986685            1 
  335000    1.2105888   -7.2013188    127.98206  0.031836333  0.032980098            2 
  336000    1.1887188   -7.2279359    128.25973  0.031810448  0.032972215            1 
  337000    1.2199481   -7.2032199    128.35625  0.031739923  0.032963734            1 
  338000    1.2143145    -7.244606    128.82153  0.031760733   0.03295549            2 
  339000     1.165912   -7.1854678    129.64273   0.03186891  0.032948124            2 
  340000     1.181735   -7.2141637    130.09659   0.03188642  0.032942624            3 
  341000    1.1964339   -7.2282692    129.89687  0.031744104  0.032935691            3 
  342000    1.1712391   -7.2348741    131.20678  0.031970464  0.032929302            1 
  343000    1.2039236    -7.271234    130.60735  0.031731622  0.032923155            3 
  344000    1.1892464    -7.229396    131.16219  0.031773785  0.032916478            2 
  345000    1.2226141   -7.2638461    130.90062  0.031618508  0.032908908            5 
  346000    1.1828126   -7.2352668    131.43041  0.031654722  0.032899912            2 
  347000    1.2074244   -7.2373144     131.8843  0.031672503   0.03289127            1 
  348000    1.2126533   -7.2532577    131.96803  0.031601539  0.032882733            1 
  349000    1.2099504   -7.2058272    132.58944  0.031659368  0.032874075            2 
  350000    1.1919793   -7.2533731     132.7199  0.031599977  0.032865542            2 
  351000    1.1953995   -7.2185669    133.43618  0.031680004  0.032856376            1 
  352000    1.1900195   -7.2789881    133.48432  0.031601401  0.032847317            1 
  353000     1.199402   -7.2343831    134.33193  0.031711975  0.032839605       -1e+20 
  354000    1.1988743   -7.2391881     134.6289  0.031692303  0.032831461            2 
  355000    1.2015676   -7.2411651    134.91779  0.031670842   0.03282238            1 
  356000    1.2296772   -7.2210915    135.03523  0.031609369  0.032813785            1 
  357000    1.1820442   -7.2563072    135.86482  0.031714477  0.032804698            1 
  358000    1.2279654   -7.2266928    136.28263  0.031723146  0.032796988            1 
  359000    1.2166229   -7.2303945    136.47193  0.031678721  0.032789207            1 
  360000    1.1736957   -7.2492965    136.87399  0.031683795  0.032780148            1 
  361000    1.1923346   -7.2638069    136.89926  0.031601861  0.032772344            4 
  362000    1.1756258   -7.2482735    137.62665  0.031682011  0.032764035            2 
  363000    1.2021087   -7.2114753    138.09314  0.031701822  0.032756466            1 
  364000    1.1818963   -7.2422732    138.05827  0.031606746   0.03274831            3 
  365000    1.1877885   -7.2317469    138.80247  0.031690062   0.03273982            2 
  366000    1.1999749   -7.2742582    138.86205  0.031617043  0.032730857            1 
  367000    1.1634642   -7.2768521    139.08193   0.03158082  0.032722224            1 
  368000    1.2018812   -7.2388472    139.39559   0.03156603  0.032713504            3 
  369000    1.2326441   -7.2768845    139.43074  0.031488423  0.032705161            1 
  370000    1.2072921   -7.2745648    140.37642   0.03161631  0.032696921            4 
  371000    1.2031653   -7.2308969    140.94836   0.03165956   0.03268975            1 
  372000    1.1946481   -7.2738874    141.51854  0.031702182  0.032682479            1 
  373000    1.2074937   -7.2657049    141.73893  0.031666427  0.032674969            2 
  374000    1.1945576   -7.2731083    141.97823  0.031635077  0.032667292            1 
  375000     1.210945    -7.226949    142.20789  0.031601754  0.032659982            1 
  376000    1.1876656   -7.2991308    142.95512  0.031683316  0.032652928            1 
  377000    1.1866896     -7.26263    143.20837  0.031655255   0.03264668            1 
  378000    1.1868017   -7.2334282    144.18542  0.031786909  0.032641088            2 
  379000    1.1984576   -7.2454074    144.57768  0.031789287  0.032635241            1 
  380000    1.1910118   -7.2241049    144.48877  0.031686133  0.032629515            7 
  381000    1.1829952   -7.2137111    145.34714  0.031790713  0.032624883            2 
  382000    1.1905078   -7.2280018    145.42479   0.03172443  0.032620404            3 
  383000    1.1881509   -7.2665984    145.87426  0.031739396  0.032616357            1 
  384000    1.1928182   -7.2725111    146.31074  0.031751463  0.032612111            1 
  385000    1.1696418   -7.2526656    146.86495  0.031788951  0.032607965            1 
  386000    1.2012989    -7.224554    147.31215  0.031803142  0.032604433            1 
  387000    1.1888212    -7.227377    147.64808  0.031793298  0.032599206            1 
  388000    1.2141805   -7.2639098    147.67888  0.031717973  0.032594196            2 
  389000    1.1745415   -7.2499247     147.7744  0.031656898  0.032588343            1 
  390000    1.1772174   -7.2447232     148.5722  0.031746195  0.032583431            1 
  391000    1.1954551   -7.2751143    148.38471  0.031625046  0.032578145            1 
  392000    1.2047762   -7.2475871    149.02136  0.031679712  0.032571545            2 
  393000    1.1700781    -7.233387    148.66546  0.031523633  0.032565006            4 
  394000     1.193673   -7.2756508    149.51947  0.031624253  0.032558977            2 
  395000    1.1714006   -7.2153216    149.98446  0.031642292  0.032552249            3 
  396000    1.1752645   -7.2812758    150.04717  0.031575583  0.032545845            2 
  397000     1.199708   -7.3144964    149.87981  0.031460916  0.032538697            1 
  398000     1.178707   -7.2766073    150.40463  0.031491758  0.032531004            1 
  399000    1.1930408   -7.2491468    151.05027  0.031547676  0.032524128            2 
  400000    1.1738154   -7.2690309    151.08693  0.031476443  0.032517059            2 
  401000    1.1984851   -7.3042841    151.20431  0.031422342  0.032509617            1 
  402000    1.2173353   -7.2401968    152.27742   0.03156663  0.032502283            2 
  403000     1.175321   -7.2613775    152.02423  0.031435945  0.032495009            2 
  404000    1.1927022   -7.2870936     152.9622  0.031551608  0.032487667            1 
  405000      1.18714   -7.2635363    152.65777  0.031411065  0.032480057            1 
  406000    1.1713175   -7.2767624    152.75961  0.031354601  0.032470956            2 
  407000    1.1762413   -7.2519602    154.25527  0.031583798  0.032462478            1 
  408000    1.1941907   -7.2789527    153.51103  0.031354377  0.032453801            1 
  409000    1.1624327   -7.2593685    153.61795  0.031299501  0.032444727            2 
  410000    1.1851749   -7.2516262    154.35353  0.031372668  0.032435762            2 
  411000    1.1750996   -7.2404761    155.21274  0.031470547  0.032426788            2 
  412000    1.2009533   -7.2569075    155.13054  0.031377536  0.032419014            1 
  413000    1.1792664   -7.2140739    155.73096  0.031422711  0.032411964            1 
  414000    1.1964697   -7.2165622     156.4354  0.031488607  0.032403945            2 
  415000    1.2191828   -7.2445387    156.58106  0.031441979  0.032396397            1 
  416000    1.1917608   -7.2141939    157.48714  0.031547904   0.03238903            1 
  417000    1.1746204   -7.2756069    157.34809  0.031444463  0.032381519            2 
  418000    1.1941975   -7.3323444    157.19033  0.031337784  0.032373804            2 
  419000    1.1798718     -7.29429    157.98118  0.031420283  0.032365393            2 
  420000    1.1821208   -7.2999498     157.9279    0.0313349  0.032357319            1 
  421000    1.2035466   -7.2468855    158.58291  0.031390124  0.032349768            2 
  422000    1.2080555   -7.2498588    158.92403  0.031383103  0.032342391            1 
  423000    1.2002819   -7.2474916    159.63982  0.031449925  0.032335759            2 
  424000     1.175823   -7.2754926    159.88961  0.031424844  0.032328746            1 
  425000    1.1961815   -7.2445322    159.57939  0.031290077  0.032321289            1 
  426000     1.173856   -7.2797927    159.96612  0.031292277  0.032313237            1 
  427000    1.1685925   -7.2542331    160.53387  0.031329794  0.032305305            1 
  428000    1.1849579   -7.3073518    161.21728  0.031389657  0.032297846            2 
  429000    1.1834817   -7.2643622    161.78477  0.031426723  0.032290621            1 
  430000    1.1823451    -7.306293    161.92441  0.031380699  0.032283125            2 
  431000    1.1583774   -7.2929695    162.37064  0.031394169  0.032275892            1 
  432000    1.2021072   -7.2848661    163.02363   0.03144746  0.032269098            3 
  433000    1.1756515   -7.2488881    163.35157  0.031437947  0.032262584            2 
  434000    1.1568402   -7.2827963    163.45116  0.031384632   0.03225603            2 
  435000    1.1828547   -7.2636556     164.2847  0.031472164  0.032249965            2 
  436000    1.1820423    -7.260676     164.7101  0.031481288  0.032244519            1 
  437000    1.1566737    -7.270075    164.91627  0.031448564  0.032239269            1 
  438000    1.1838073   -7.2767469    165.18206  0.031427332  0.032233783            1 
  439000    1.1898446   -7.2894444    165.69991  0.031454045  0.032228299            1 
  440000    1.1762782   -7.2629295    166.94266  0.031617929  0.032223274            1 
  441000    1.2105074   -7.2613037    166.75659  0.031511071  0.032218643            1 
  442000    1.1496468   -7.2929926    166.92009  0.031470604  0.032213918            2 
  443000    1.1804032   -7.2973887    167.42569  0.031494675  0.032209367            2 
  444000    1.1771025   -7.2525163    168.31737  0.031591097  0.032205066            2 
  445000    1.1777337   -7.2729965    168.35739  0.031527602  0.032201309            1 
  446000    1.2002922    -7.266587    168.60897  0.031503917  0.032197154            4 
  447000    1.1779654   -7.2683049    168.91902  0.031491241  0.032192637            2 
  448000    1.2143695   -7.3009896    168.58501  0.031358818  0.032186811            1 
  449000    1.1833934   -7.3128693    169.06877  0.031378761  0.032181257            3 
  450000    1.1675397   -7.2729031    169.73645  0.031432677  0.032175423            1 
  451000    1.1744518   -7.2202866    170.74525  0.031549381  0.032170461            4 
  452000    1.1794976   -7.2821987    170.69073   0.03146953  0.032166429            2 
  453000    1.1695366   -7.2871407    170.60795  0.031384833  0.032160894            1 
  454000    1.1778627    -7.259259    171.11323  0.031408449  0.032155197            1 
  455000    1.1777179   -7.2808339    171.78002  0.031461542  0.032149839            2 
  456000     1.177093   -7.2532176    172.03908  0.031439891  0.032144803            3 
  457000    1.1856819   -7.2895348    172.48383  0.031452193  0.032139968            1 
  458000    1.1850721   -7.2929082    172.96259  0.031470631  0.032135437            1 
  459000    1.1932172   -7.2862833    173.48752  0.031497372  0.032130904            1 
  460000    1.1682119   -7.2838213     174.0581  0.031532265  0.032127228            2 
  461000    1.1514896   -7.2352535    174.83198  0.031603755  0.032123801            2 
  462000    1.1747246   -7.2900132    174.81405  0.031532116  0.032119982            2 
  463000    1.1665995    -7.288564    175.35266  0.031560954  0.032116093            1 
  464000    1.1710725   -7.2758838    175.12363  0.031451802   0.03211199            2 
  465000     1.169623   -7.2780981    175.59137  0.031467988  0.032107635            2 
  466000    1.1991099   -7.3056145    175.94869  0.031464359   0.03210318            2 
  467000    1.1612167   -7.2933287    176.60244   0.03151364  0.032098283            1 
  468000    1.1835428   -7.2644969    176.87658  0.031495117  0.032094012            2 
  469000    1.1897093   -7.2963972    177.01937  0.031453336  0.032089691            1 
  470000    1.1942719   -7.2690267    178.11061  0.031579895  0.032085424            1 
  471000    1.1789904   -7.2880635    177.59338  0.031421333  0.032081064            1 
  472000    1.1812539   -7.2510883    178.09868  0.031443977  0.032076319            2 
  473000    1.1796316   -7.3101141      178.358  0.031423185  0.032070904            2 
  474000    1.1787842   -7.3379575    178.08145  0.031308271  0.032065505            2 
  475000      1.19796   -7.2264637    178.94425  0.031393728  0.032059553            2 
  476000    1.1591291    -7.259648    178.76873  0.031297047  0.032053813            1 
  477000    1.1879949   -7.2695214    179.52314  0.031363233   0.03204783            1 
  478000    1.1823711   -7.2894363    178.87439  0.031184518  0.032041416            4 
  479000    1.1602272   -7.3413517    179.20744  0.031177356  0.032034389            1 
  480000    1.1796424   -7.2500042    179.41984  0.031149277  0.032026978            2 
  481000     1.172217   -7.2882484    180.47408  0.031267165  0.032019386            2 
  482000    1.1765671   -7.2870846    180.87403  0.031271443  0.032012262            3 
  483000    1.1686407   -7.2846131    180.70757  0.031177979  0.032005545            3 
  484000    1.1865926   -7.2985436    181.34393  0.031223129   0.03199837            3 
  485000    1.1873032    -7.319545    181.15884  0.031126949  0.031991114            1 
  486000    1.1774674   -7.2852773    182.02431  0.031211302  0.031983719            3 
  487000    1.1879898     -7.32189    182.06267  0.031153776  0.031975945            1 
  488000    1.1704697   -7.2968934    182.15547  0.031105784  0.031968836            2 
  489000    1.1844337   -7.2351223    183.21658  0.031223002  0.031961841            1 
  490000    1.1880732   -7.2598679    183.19312  0.031155292  0.031954865            4 
  491000    1.1593987   -7.2863635    183.31887  0.031113183  0.031947697            3 
  492000     1.172423   -7.2790525    183.89273  0.031147143  0.031940655            2 
  493000    1.1482937   -7.2539494    184.34131  0.031159789   0.03193298            2 
  494000    1.2014818   -7.3580756    183.81648  0.031008178  0.031924996            1 
  495000    1.1641148   -7.2952678    184.86764  0.031122498  0.031917705            1 
  496000    1.1695299   -7.3003028    185.07967  0.031095374  0.031910385            1 
  497000    1.1771288   -7.2955079    185.78716  0.031151436  0.031902847            2 
  498000    1.1833295   -7.2782267    185.62164  0.031061184  0.031895475       -1e+20 
  499000    1.1905613   -7.3015961    186.26321   0.03110608  0.031888018            1 
  500000    1.1909063   -7.2992853    186.17332  0.031028887  0.031880572            1 
  501000    1.1698316   -7.3045434    186.20035  0.030971448  0.031873147            2 
  502000     1.217391   -7.3108647    187.29365  0.031091244  0.031865132            2 
  503000    1.1367461   -7.3467616    186.61124  0.030916374  0.031857507            2 
  504000    1.1426928   -7.3247773    187.91965  0.031071371  0.031849086            1 
  505000    1.1577768   -7.3039874    187.55745  0.030950075  0.031841096            3 
  506000    1.1822736   -7.3235728    188.58166  0.031057586  0.031833589            4 
  507000    1.1553655   -7.3264241    188.25649  0.030942882  0.031825349            2 
  508000     1.179318    -7.303292    188.48757  0.030919877  0.031817491            1 
  509000    1.1847393   -7.3359741    189.48327  0.031022146  0.031809692            1 
  510000    1.2004902   -7.3051141    189.71624  0.030999385  0.031802585            2 
  511000    1.1976014    -7.320688     189.8147  0.030954778  0.031794742            1 
  512000    1.1814486   -7.2595592    190.36839  0.030984439  0.031786563       -1e+20 
  513000    1.1657451   -7.3183993    190.48592  0.030943131  0.031778938            1 
  514000    1.1692717   -7.2569353    191.81525  0.031098452    0.0317718            2 
  515000    1.1744021   -7.3349219     191.0615    0.0309161  0.031764076            2 
  516000      1.16145   -7.2714374    192.10829  0.031025241  0.031756429            1 
  517000    1.1413702   -7.2765431    191.66999  0.030894582  0.031748956            3 
  518000    1.1611996   -7.3746194    192.04559  0.030895366  0.031741379            3 
  519000    1.1750685   -7.2694437    192.86477  0.030967368  0.031733485            1 
  520000    1.1546509   -7.3303274    192.89992  0.030913449  0.031725857            1 
  521000    1.1789157   -7.3444346    192.87412  0.030849987  0.031718043            2 
  522000    1.1512896   -7.3067279     193.9886  0.030968806  0.031710682            2 
  523000    1.1936651   -7.2956166    193.98549  0.030909097  0.031703166            1 
  524000     1.179312    -7.297032      194.575  0.030943861  0.031695624            3 
  525000    1.1738418   -7.3571147     193.6765  0.030742301  0.031687765            2 
  526000    1.1440895   -7.3089496     195.3686  0.030951933  0.031680121            3 
  527000    1.1701411   -7.2934199    196.05807  0.031002225  0.031672872            1 
  528000    1.1459759   -7.2747256    196.91784  0.031079205   0.03166612            1 
  529000    1.1666579   -7.3282227    196.55604  0.030963459  0.031659895            2 
  530000     1.158444   -7.3207937    197.11551  0.030993005  0.031653441            1 
  531000    1.1537159    -7.302247    197.18319  0.030945259  0.031646849            2 
  532000    1.1832196   -7.3325918    197.58024  0.030949286  0.031639422            2 
  533000    1.1692641   -7.2880478    197.45415  0.030871505  0.031632403            2 
  534000    1.1533506   -7.3068723    197.46173  0.030814877  0.031625394            3 
  535000    1.1697412   -7.3072742    198.32832  0.030892262  0.031618114            1 
  536000    1.1641038   -7.2798022    199.16672  0.030964975  0.031610942            1 
  537000    1.1559565   -7.3255049    198.98341  0.030878866  0.031603524            2 
  538000    1.1879755   -7.2769172    199.66889  0.030927647  0.031595833            1 
  539000    1.1480079   -7.2792549    200.23694  0.030958092  0.031588569            5 
  540000    1.1662607   -7.2302977    200.19361  0.030894075  0.031581143            1 
  541000    1.1630945   -7.3442438    199.87121   0.03078731  0.031573555            1 
  542000    1.1551141   -7.3157311    200.87527  0.030884882   0.03156621            2 
  543000    1.1510866   -7.3042582    200.99755   0.03084677  0.031558815            1 
  544000    1.1537364   -7.3336064    201.25473  0.030829462  0.031551624            2 
  545000    1.1533587   -7.3069622    202.64059  0.030984799   0.03154492            2 
  546000    1.1585709   -7.3115271    202.92829  0.030971961  0.031539002            2 
  547000    1.1702371   -7.3003952    202.68537  0.030878332  0.031532861            2 
  548000      1.18458   -7.3219491    202.60226  0.030809346  0.031526272            2 
  549000    1.1753889   -7.3119335    203.53242  0.030894418  0.031519486            1 
  550000     1.163033   -7.3212704    203.25811  0.030796684  0.031512492            1 
  551000    1.1796467   -7.3374632    203.36723  0.030757294  0.031505085            4 
  552000    1.1641829   -7.3223979    204.29309  0.030841348  0.031497489            1 
  553000    1.1687253   -7.3254761     203.4795  0.030662975  0.031489929            1 
  554000    1.1510769   -7.3266954    204.61148  0.030777901  0.031481905            2 
  555000    1.1707386   -7.3387315     204.9799  0.030777763  0.031474352            1 
  556000    1.1838655   -7.2954883    204.52112  0.030653646  0.031466465            1 
  557000    1.1475933   -7.3462175    205.11513  0.030687481  0.031457864            2 
  558000    1.1750098   -7.3106623    205.88308  0.030747175  0.031449546            3 
  559000    1.1922139   -7.3172118    205.50921  0.030636435  0.031441249            2 
  560000    1.1573365   -7.3177627    205.72271  0.030613499  0.031432182            2 
  561000    1.1810312   -7.2985018    205.65181  0.030548396  0.031423077       -1e+20 
  562000    1.1818229   -7.3271527    207.13108  0.030713387  0.031414359            1 
  563000    1.1247996   -7.2898982    207.32994  0.030688268  0.031405412            1 
  564000    1.1692164   -7.3386016    206.33202   0.03048641  0.031396884       -1e+20 
  565000    1.1685386   -7.3459528    206.90766  0.030517354    0.0313881            3 
  566000    1.1550028   -7.3259865    207.94125  0.030615613  0.031379676            4 
  567000    1.1656255   -7.3035667    208.55059  0.030651174  0.031371438            2 
  568000    1.1263083   -7.3639143     207.9919  0.030515243  0.031362946            2 
  569000    1.1837176   -7.3102401    208.75608  0.030573532  0.031354642            3 
  570000    1.1745599   -7.3491406    208.86198  0.030535377  0.031346264            1 
  571000    1.1608017   -7.3328535    209.03358  0.030506944  0.031337129            4 
  572000    1.1624197   -7.3276401    209.08227  0.030460704  0.031328125            1 
  573000    1.1561439   -7.3333059    209.48455  0.030466049  0.031318915            1 
  574000    1.1611905   -7.3226399    209.33177  0.030390791  0.031309918            2 
  575000    1.1860435   -7.3049581    209.95894  0.030428832  0.031300161            4 
  576000    1.1579037   -7.2832468    210.14282  0.030402607  0.031290496            2 
  577000    1.1608605    -7.324315    210.45326  0.030394751  0.031280948            3 
  578000    1.1552498   -7.3473831    210.96831  0.030416423  0.031271602            1 
  579000    1.1413164   -7.3618405     211.3797    0.0304231  0.031262273            2 
  580000    1.1705133   -7.3462883    211.87124   0.03044127  0.031253325            2 
  581000    1.1456076    -7.317254    212.57475  0.030489781  0.031245108            5 
  582000    1.1785143   -7.3066179    213.49052  0.030568516  0.031236891            3 
  583000    1.1364929    -7.321434    212.99217   0.03044485  0.031228415            3 
  584000    1.1562118   -7.3384862    213.46058  0.030459558  0.031220128            1 
  585000    1.1659809   -7.3401963    213.70386  0.030442145   0.03121197            2 
  586000    1.1747374   -7.3357515    214.45103  0.030496449  0.031203943            3 
  587000    1.1476527    -7.324401    214.32709  0.030426901   0.03119598            3 
  588000    1.1724666   -7.3462441    215.20935  0.030500192  0.031187624            1 
  589000    1.1506363   -7.3228218    215.76768  0.030527403  0.031179938            1 
  590000    1.1716947   -7.3456361    216.06784  0.030518056  0.031172848            2 
  591000    1.1465626   -7.3386577    216.26546  0.030494284   0.03116574            3 
  592000    1.1599316    -7.327558    216.58414  0.030487632  0.031158326            2 
  593000    1.1626349   -7.3155193    218.30002   0.03067735  0.031151448            2 
  594000    1.1698554   -7.3283011    217.04306  0.030449363  0.031144076            2 
  595000    1.1776206   -7.3115959    217.96758  0.030527673  0.031136848            1 
  596000    1.1533052   -7.3048469    218.27325   0.03051919  0.031129385            1 
  597000    1.1562388    -7.311529    218.83183   0.03054604  0.031121936            2 
  598000    1.1721181   -7.3127283    218.57394  0.030459021  0.031114317            1 
  599000    1.1541781   -7.3200796    219.71731  0.030567238  0.031106855            2 
  600000    1.1520023   -7.3100775    218.89535  0.030402132   0.03109914            3 
  601000    1.1261255   -7.3308678    219.23643  0.030398839  0.031091732            3 
  602000    1.1434744   -7.3066794    220.21581  0.030483916  0.031084841            2 
  603000     1.177306    -7.307443    220.20617  0.030432031  0.031077437            1 
  604000    1.1474035   -7.3404752    220.68257  0.030447374  0.031070048            1 
  605000    1.1672189   -7.2912064    221.75483  0.030544743  0.031062846            4 
  606000    1.1375245   -7.2700486     222.0682  0.030537431  0.031055992            1 
  607000    1.1600576   -7.3381752    222.22047  0.030508028  0.031049322            3 
  608000    1.1533329   -7.3248044    222.57914  0.030507009  0.031042432            2 
  609000     1.157395   -7.3640214    222.35122  0.030425728  0.031035733            1 
  610000     1.156682   -7.3026902    222.72872  0.030427421  0.031029141            1 
  611000    1.1623899   -7.3708561    222.88763  0.030399295  0.031022309            1 
  612000    1.1359489   -7.3605746    223.77933  0.030471041  0.031015768            1 
  613000    1.1840674   -7.3147938    225.34214  0.030633787   0.03101013            2 
  614000    1.1719871   -7.3524326    224.19325  0.030427966  0.031004422            3 
  615000     1.151915   -7.3632118    225.16544  0.030510222  0.030998101            5 
  616000     1.132849   -7.3712297     224.6384  0.030389393  0.030991886            2 
  617000    1.1650118    -7.317525    225.67217  0.030479764  0.030985611            2 
  618000    1.1638398    -7.327839    225.42317  0.030396867  0.030979573            2 
  619000    1.1588408   -7.3245894    226.61853  0.030508687  0.030973447            3 
  620000    1.1579106   -7.3437503     227.2787  0.030548212   0.03096728            2 
  621000    1.1664595   -7.3178669    228.03202  0.030600109  0.030961392            1 
  622000    1.1257806   -7.3350281    227.72816  0.030510203  0.030955548            2 
  623000    1.1595181   -7.3407012    227.92155  0.030487099  0.030949616            3 
  624000    1.1470149   -7.3661211    228.07635  0.030458914  0.030943658            5 
  625000    1.1658696   -7.3478773     228.2219  0.030429587  0.030937599            3 
  626000    1.1606168   -7.3592294    228.80772  0.030458961  0.030932332            2 
  627000    1.1546826   -7.3125436    230.09862  0.030581954  0.030927136            6 
  628000    1.1394642    -7.352724     230.1954  0.030546099  0.030922009            1 
  629000     1.156414   -7.3695686    230.47706  0.030534851  0.030917037            2 
  630000    1.1670845   -7.3467515       231.87  0.030670634  0.030912058            2 
  631000    1.1949952   -7.3503469    230.90566  0.030494673  0.030907061            1 
  632000    1.1164817   -7.3615389    231.31892  0.030500913  0.030901959            1 
  633000    1.1754243   -7.3497415    232.15969  0.030563413  0.030896896            2 
  634000    1.1454603   -7.3641067    232.15549  0.030514654  0.030891584            2 
  635000    1.1602373   -7.3379454    232.27941  0.030482862  0.030886098            1 
  636000    1.1327333    -7.300385    233.20437  0.030556129  0.030880721            3 
  637000    1.1448658    -7.349432    232.81557  0.030457296  0.030875307            3 
  638000    1.1701373   -7.3517798    232.53049  0.030372321  0.030869903            1 
  639000    1.1631749   -7.3627469     232.9882   0.03038448  0.030863856            2 
  640000    1.1623978   -7.3424588    233.71422  0.030431539  0.030857758            1 
  641000    1.1537122   -7.3181641    233.58526  0.030367299  0.030851676            1 
  642000    1.1663997   -7.3949878    233.32016  0.030285587  0.030845336            3 
  643000    1.1332716   -7.3073106    234.82639  0.030433695  0.030838898            1 
  644000    1.1527004   -7.3698782     234.2629  0.030313523  0.030832674            1 
  645000    1.1315219   -7.3383344    235.20655  0.030388443  0.030826984            2 
  646000    1.1418154   -7.2960628    236.27817   0.03047964  0.030821026            1 
  647000    1.1549515   -7.3928609    235.27711  0.030303594  0.030814969            1 
  648000    1.1305721   -7.3087101    236.92796  0.030469131  0.030808897            2 
  649000    1.1359615   -7.3669833    235.86258  0.030285385   0.03080287            1 
  650000    1.1521843   -7.3327759    235.81222  0.030232335  0.030796448            2 
  651000    1.1428521   -7.3240555    236.63007  0.030290587  0.030789663            3 
  652000    1.1270293   -7.3633378     237.0348  0.030295859   0.03078302            2 
  653000    1.1529973   -7.3265246    237.67223   0.03033081  0.030776247            1 
  654000    1.1798572   -7.3409469    237.88952   0.03031212  0.030769713            2 
  655000    1.1567698   -7.3602983    237.83735  0.030259205  0.030763175            3 
  656000    1.1406907   -7.3661075     237.7156  0.030197612  0.030756312            1 
  657000    1.1671714   -7.3824248    237.85469  0.030169291   0.03074933            3 
  658000    1.1295218   -7.3564683    238.13091  0.030158423  0.030742258            1 
  659000    1.1603484   -7.3167898    239.66807  0.030307039  0.030735723            2 
  660000    1.1648883   -7.3257524    239.47747  0.030237055  0.030729676            2 
  661000    1.1306639    -7.347562    240.01134  0.030258616  0.030723018            1 
  662000     1.172904   -7.3403332    238.74657  0.030053697  0.030716325            2 
  663000     1.143702   -7.3813775    239.53746  0.030107775  0.030709786            2 
  664000    1.1673615   -7.3416848    240.09545  0.030132461  0.030702458            4 
  665000    1.1067911   -7.3134408    241.48518  0.030261301  0.030695518            2 
  666000    1.1549745   -7.3298323    241.69837  0.030242538  0.030688536            6 
  667000    1.1285295   -7.3664297    241.01941  0.030112371  0.030681376            1 
  668000    1.1459438   -7.3490569    242.31664  0.030229122   0.03067438            1 
  669000    1.1692183   -7.3602467    242.38813  0.030192841  0.030666903            2 
  670000    1.1494752   -7.3697596    241.92045  0.030089608  0.030659945            1 
  671000    1.1568711   -7.3538164    241.60729  0.030005873   0.03065305            2 
  672000    1.1417821    -7.389745    242.38713  0.030057927  0.030645735            2 
  673000    1.1579068   -7.3206996    243.12983  0.030105229  0.030638847            1 
  674000    1.1540887   -7.3885488    242.78882    0.0300184   0.03063174            3 
  675000    1.1493662   -7.3433994    244.29626  0.030160033  0.030624559            1 
  676000    1.1604529   -7.3396006    243.68605  0.030040194  0.030617635            2 
  677000    1.1501612   -7.4001909    242.94524  0.029904633  0.030610234            2 
  678000    1.1453832   -7.3438511    245.07516  0.030122315  0.030603037            2 
  679000    1.1639422   -7.3989124    244.22036  0.029973044   0.03059606            3 
  680000    1.1478414   -7.3289181    245.82843  0.030126033  0.030589459            1 
  681000    1.1390437    -7.366409    246.11047  0.030116308  0.030582392            1 
  682000    1.1669336    -7.382995    246.11045  0.030072147  0.030575515            2 
  683000    1.1294938   -7.3800479    245.62468  0.029968848  0.030568389            1 
  684000    1.1370042   -7.3770891     246.2681  0.030003424  0.030561476            1 
  685000    1.1412155    -7.375172    246.60235  0.030000286  0.030554348            2 
  686000    1.1532118   -7.3630063    247.05144  0.030011108  0.030547069            3 
  687000    1.1402078   -7.3501219    247.64004  0.030038821  0.030540005            4 
  688000    1.1499387    -7.357589    247.39577  0.029965573  0.030532883            1 
  689000    1.1491483   -7.4205353    247.18819  0.029896975  0.030525855            2 
  690000    1.1462931   -7.3250466    249.08967  0.030083293  0.030519148            1 
  691000    1.1267785   -7.3904828    248.50401  0.029969128  0.030512605            2 
  692000    1.1353963   -7.3722476    249.34358  0.030026924  0.030506048            2 
  693000    1.1333862   -7.3739316    248.74874  0.029912065  0.030499274            2 
  694000    1.1227776   -7.3320604    249.90308  0.030007574  0.030492603            1 
  695000    1.1505907   -7.3486086    249.75169  0.029946246  0.030485764            1 
  696000    1.1364441    -7.375722    250.16147  0.029952283  0.030478635            2 
  697000    1.1195069   -7.3915297    250.25709  0.029920743  0.030471448            2 
  698000    1.1299246   -7.4002883    250.14182  0.029864114  0.030464322            4 
  699000    1.1006521   -7.3771269    251.15334  0.029941982  0.030456976            3 
  700000    1.1309093   -7.3798019    251.30848  0.029917677  0.030449612            2 
  701000    1.1287643   -7.4119242    251.20899  0.029863171  0.030442492            2 
  702000    1.1502114   -7.3964722    251.87427  0.029899605  0.030434977            2 
  703000     1.125314   -7.3609634    252.82739  0.029970056  0.030427811            1 
  704000    1.1385224   -7.3425776    252.51387  0.029890372  0.030420951            1 
  705000    1.1385506   -7.3826118    253.26487  0.029936746  0.030413967            1 
  706000    1.1428886   -7.3536087    254.00587  0.029981807  0.030406986            2 
  707000    1.1316613   -7.4172361    252.23119  0.029730221  0.030399517            3 
  708000    1.1274045   -7.3926207    252.83788  0.029759637  0.030392224            2 
  709000     1.139402   -7.3564671    253.85339  0.029837022  0.030384792            1 
  710000    1.1575921   -7.3547035    254.10037  0.029823987  0.030377445            2 
  711000    1.1287543   -7.3810278    254.05534  0.029776763   0.03037023            3 
  712000    1.1297116   -7.3631473    255.11259  0.029858683  0.030362878            2 
  713000    1.1329155   -7.3858363      254.841  0.029785064  0.030355659            2 
  714000    1.1174747   -7.3973384    256.00606  0.029879326  0.030348258            1 
  715000    1.1318919   -7.4234374    255.46902  0.029774944  0.030340964            2 
  716000    1.1209455   -7.3785301    255.79783  0.029771628  0.030333835            1 
  717000    1.1532304   -7.3492902    256.81457  0.029848277  0.030326751            7 
  718000    1.1441964   -7.3265191    257.08017  0.029837531  0.030319945            1 
  719000    1.1382707   -7.3680379    256.89486  0.029774555  0.030313167            1 
  720000    1.1144494   -7.4470446    256.00814  0.029630572  0.030305708            1 
  721000    1.1329058   -7.3443325    258.13212  0.029834966  0.030298498            2 
  722000    1.1280613    -7.429754    257.47324  0.029717594  0.030291279            1 
  723000    1.1407418   -7.4000713    258.54913  0.029800499  0.030283626            2 
  724000    1.1620592   -7.4129918    257.61964  0.029652353  0.030276046            4 
  725000    1.1310756   -7.3562126    258.63976  0.029728708   0.03026865            1 
  726000    1.1479722   -7.3376175    259.23621  0.029756223  0.030260988            2 
  727000    1.1603545   -7.3734299    258.43802  0.029623798  0.030253678            2 
  728000    1.1548782   -7.3739333    259.43094  0.029696765  0.030245896            2 
  729000    1.1270335   -7.3743729    260.15329  0.029738602  0.030238338            1 
  730000    1.1312581   -7.4133385    259.53491  0.029627273  0.030230799            1 
  731000    1.1352851    -7.384876    259.54838  0.029588279  0.030223216            1 
  732000    1.1563699   -7.3849975    260.65016  0.029673288  0.030215555            3 
  733000    1.1314375    -7.362671    260.91743  0.029663192  0.030207641            3 
  734000    1.1444857   -7.3379458    260.78383   0.02960761  0.030200016            2 
  735000    1.1249252   -7.3817768    260.22169  0.029503593  0.030192085            1 
  736000    1.1435931   -7.3821359    261.42734  0.029600016  0.030184483            2 
  737000    1.1144151   -7.4019736    261.37824  0.029554302  0.030176369            2 
  738000    1.1310375   -7.3823898    261.80715  0.029562686  0.030168095            4 
  739000    1.1295793   -7.3940399    261.89557  0.029532653  0.030160395            6 
  740000    1.1201152   -7.3689686    263.61307  0.029686156  0.030152896            1 
  741000    1.1058541   -7.3993094    263.13525  0.029592358  0.030145369            1 
  742000    1.1327656   -7.3793202    263.21451  0.029561378  0.030137887            1 
  743000    1.1297484   -7.4009469    263.52031   0.02955589  0.030130757            1 
  744000    1.1206239   -7.4015522    263.95556  0.029564914  0.030123048            2 
  745000     1.137999   -7.3375709    263.82674  0.029510821  0.030115523            2 
  746000    1.1280996   -7.3839918    264.28114  0.029522021  0.030108198            3 
  747000     1.130572   -7.3653757    265.18664  0.029583517  0.030100891       -1e+20 
  748000     1.130851   -7.4176064    264.48363  0.029465645  0.030093241            5 
  749000     1.146052   -7.3887066    264.64905  0.029444709  0.030085338            1 
  750000      1.12277    -7.376131    265.91001  0.029545557  0.030077707            2 
  751000    1.1167977   -7.4151914    265.30224  0.029438775  0.030069757            3 
  752000    1.1345889    -7.369797    265.60311  0.029432969  0.030061631            1 
  753000    1.0994696   -7.3765754    265.75605  0.029410807  0.030053569            1 
  754000    1.1275381   -7.3833914    266.26335  0.029427868  0.030045582            2 
  755000    1.1322285   -7.3757043    266.61162  0.029427332  0.030037241            2 
  756000    1.1411947   -7.4521905    265.33476  0.029247658  0.030028932            2 
  757000    1.1436447   -7.3946925    267.18814   0.02941305  0.030020631            1 
  758000    1.1316108   -7.3755696    267.02898  0.029356748  0.030012592            2 
  759000    1.1328707   -7.3783422    267.68671  0.029390285  0.030004383       -1e+20 
  760000    1.1195804   -7.4063444    267.44064  0.029324632  0.029996112            1 
  761000    1.1487462   -7.4120108    267.46367  0.029288619  0.029987869            1 
  762000    1.1230669   -7.3944814    269.43583  0.029465861  0.029979591            1 
  763000    1.1306579   -7.4049634    268.78583  0.029356251  0.029971562            2 
  764000    1.1243907   -7.4145901    269.26398   0.02936998  0.029963459            1 
  765000    1.1204883   -7.4131234    269.15923  0.029320178   0.02995523            1 
  766000    1.1313288   -7.3859812    269.68658  0.029339271  0.029946993            1 
  767000    1.1315808   -7.4017829    270.12642  0.029348807  0.029939117            1 
  768000    1.1207134   -7.3753539    271.02572  0.029408173  0.029931213            1 
  769000    1.1340424   -7.3710095    270.74406  0.029339409  0.029923166            3 
  770000    1.1203587   -7.3764813    271.48705  0.029381715  0.029914975            1 
  771000    1.1353708   -7.4585199    270.75074  0.029264023  0.029906752            2 
  772000    1.1414248   -7.4160588    270.98336  0.029251226  0.029898132            2 
  773000    1.1170524   -7.3746694    271.39681  0.029257957  0.029889293            1 
  774000    1.1332578   -7.3934102    271.26878  0.029206371  0.029880605            4 
  775000    1.1219461   -7.4107816    271.66573  0.029211369  0.029871756            2 
  776000    1.0889918   -7.4261151    272.03157  0.029213012  0.029862999            3 
  777000    1.1405931   -7.4344783    271.78525  0.029148997  0.029854247            2 
  778000    1.1166082   -7.4019292    273.32605  0.029276569  0.029845577            2 
  779000    1.1519886   -7.3330894    274.53498  0.029368312  0.029837347            3 
  780000     1.145728   -7.4165995    273.33232  0.029202171  0.029829054            2 
  781000    1.1154529   -7.3796699    273.44731   0.02917705  0.029820443            2 
  782000    1.1280864   -7.4053076     273.6522  0.029161573  0.029811475            2 
  783000    1.1140791   -7.4100828    273.48982  0.029107048  0.029802726            5 
  784000     1.142562   -7.3769703    274.03305  0.029127663   0.02979415            1 
  785000     1.130511   -7.3771735    275.06286  0.029199879  0.029785706            3 
  786000    1.1249623   -7.4384157    275.42273  0.029200883   0.02977723            1 
  787000    1.1598432    -7.380291    276.21747  0.029247932  0.029768945            1 
  788000    1.1391014   -7.4241461    275.97659  0.029185341  0.029760403            2 
  789000    1.1162436   -7.3960439    275.79185   0.02912884  0.029751842            4 
  790000    1.1091279   -7.3883238    276.11897  0.029126474  0.029743246            2 
  791000    1.1251488   -7.3745156    277.11742   0.02919484  0.029734402            6 
  792000    1.1273271   -7.4022837    277.37319   0.02918489  0.029725596            1 
  793000    1.1264223   -7.3794279    276.49687  0.029055997  0.029716962            1 
  794000    1.1170313    -7.368315    277.62116  0.029137402  0.029708351            1 
  795000    1.1447535   -7.4179299    277.51611  0.029089739  0.029699904            1 
  796000    1.1363734   -7.4388966    276.59209  0.028956458  0.029691126            3 
  797000    1.0966776   -7.3709429    278.15087   0.02908311  0.029682133            1 
  798000    1.1234681    -7.389062    276.63925   0.02888881  0.029673304            5 
  799000    1.1187665   -7.4197388    277.31384  0.028923012  0.029664276            2 
  800000    1.1044962   -7.4178359    276.92067  0.028845904  0.029654996            2 
  801000    1.1279888   -7.4233266    277.23928  0.028843038  0.029645727            2 
  802000    1.1296963   -7.4115255    278.40028   0.02892771  0.029636391            3 
  803000      1.12666   -7.4017812     279.3419  0.028989404  0.029626969            4 
  804000    1.1158495   -7.3922391    278.28619  0.028843925  0.029617635            2 
  805000    1.1266428   -7.3712806    279.23457   0.02890627  0.029607835            3 
  806000    1.1125783   -7.4331026    278.23328  0.028766882  0.029598052            2 
  807000    1.0901419   -7.4208667    278.71332  0.028780806  0.029588007            2 
  808000    1.1084747   -7.4239729    279.86287  0.028863745  0.029578099            1 
  809000    1.1422563   -7.4276165    279.90825  0.028832741  0.029568707            2 
  810000    1.1302459   -7.4065327    280.73185  0.028881877  0.029559255            6 
  811000    1.1006036   -7.3928854    280.88437  0.028861936      0.02955            1 
  812000    1.1078902   -7.4256314    279.90179  0.028725553  0.029540777            1 
  813000    1.1060624   -7.3995715    281.63076  0.028867442  0.029531636            1 
  814000    1.1154392   -7.4544308    281.06988  0.028774558  0.029522487            3 
  815000     1.133524   -7.4143653    281.29857  0.028762635  0.029513289            1 
  816000    1.0943946   -7.4116815    281.21064  0.028718407   0.02950359            3 
  817000    1.1435947   -7.4115172    282.70332  0.028835508   0.02949415            8 
  818000    1.1550302   -7.3933162    283.03247  0.028833789  0.029485007            3 
  819000    1.1205126    -7.388751    284.90365  0.028988975  0.029476227            2 
  820000    1.1439861   -7.4123079    283.14575  0.028774975  0.029467187            4 
  821000    1.1030558   -7.4168083     284.3106   0.02885816  0.029457951            2 
  822000    1.1234415   -7.4300194    283.92889  0.028784356  0.029448791            3 
  823000    1.1167226   -7.4256835    285.24021   0.02888216  0.029439674       -1e+20 
  824000    1.1014154   -7.4388019    284.14367  0.028736213  0.029430729            1 
  825000    1.1158697   -7.4692689    284.64525  0.028752046  0.029421722            3 
  826000    1.1199319   -7.4939177    284.40229  0.028692725  0.029413019            2 
  827000    1.1257208   -7.4336634    286.71402  0.028890973  0.029404202            2 
  828000    1.1265425    -7.386276    286.13493  0.028797799  0.029396049            2 
  829000    1.1260457   -7.4717801    285.35452  0.028684612  0.029387469            2 
  830000    1.1279735   -7.4261405    286.00637  0.028715499  0.029378904            2 
  831000    1.1189614   -7.4395558    286.33198  0.028713596  0.029370384            3 
  832000    1.1207592   -7.4161504    287.79173  0.028825294  0.029361992            1 
  833000    1.1296784    -7.437692     288.3627  0.028847809  0.029353837            1 
  834000    1.1057644   -7.4424207    287.79618  0.028756613  0.029345455            1 
  835000    1.1057798   -7.3849741    288.48165  0.028790584  0.029336825            3 
  836000    1.1130832   -7.4096873    289.02043  0.028809852  0.029328641            3 
  837000    1.1167836   -7.4078946    288.97534  0.028770942  0.029320266            4 
  838000    1.1349646   -7.3870013    289.37711  0.028776562  0.029311976            1 
  839000    1.1141685   -7.4254003    289.31443  0.028736038  0.029303681            1 
  840000    1.1254848   -7.4603256    288.91157  0.028661862  0.029295007            5 
  841000    1.1159632   -7.3638678    289.84202  0.028719978  0.029286277            1 
  842000    1.1016913   -7.4435671    288.71362   0.02857419  0.029277401            1 
  843000    1.0878331   -7.4868326    288.96737  0.028565379  0.029268169            3 
  844000    1.1157789   -7.4451031    290.22421  0.028655629  0.029259111            1 
  845000    1.1140047   -7.4349996    289.38829  0.028539279  0.029249709            1 
  846000    1.1104267   -7.4718104    290.03043  0.028568797  0.029240404            2 
  847000       1.0891   -7.3744717    291.45114  0.028674846  0.029231081            3 
  848000    1.0885705   -7.4283364    290.98266  0.028594995  0.029222098            1 
  849000     1.093575   -7.4201843    291.10034  0.028572864  0.029212887            2 
  850000    1.1125707   -7.4436772    290.77354   0.02850721  0.029203686            3 
  851000    1.1288964   -7.4355177    291.91237   0.02858523  0.029194374            3 
  852000    1.0903521   -7.4423479      291.506  0.028511932   0.02918503            4 
  853000    1.1184578   -7.4723745     291.4981  0.028477736  0.029175796            2 
  854000    1.1008809   -7.4255776    292.53578  0.028545646  0.029166405            1 
  855000    1.1075209   -7.4227616    292.74486  0.028532637  0.029157221            2 
  856000     1.138166   -7.4209029    291.97632  0.028424486  0.029147949            1 
  857000    1.1202333   -7.4304529    293.01539  0.028492356  0.029138993            2 
  858000    1.1160315   -7.4571219    293.30557  0.028487332  0.029129929            1 
  859000    1.1037549    -7.431781    293.26302  0.028450041  0.029121006            2 
  860000    1.1296084   -7.4266952    293.55998  0.028445735  0.029111991            2 
  861000    1.1083301   -7.4318585    293.82316  0.028438168  0.029103097            1 
  862000    1.1002993   -7.4149477    295.09492  0.028528125   0.02909402            2 
  863000     1.143265   -7.4217347    295.54223   0.02853826  0.029084899            5 
  864000    1.1016917   -7.4816246    295.20803  0.028472997  0.029075923            2 
  865000    1.1395181   -7.4220347    295.03104  0.028423029   0.02906695            1 
  866000     1.095788   -7.4766598    295.67563  0.028452235  0.029057835            3 
  867000    1.0968988   -7.4862687    295.39651  0.028392591  0.029048638            2 
  868000     1.095976   -7.4432492    296.60023  0.028475445   0.02903981            4 
  869000    1.1155028   -7.4530162    295.68579  0.028354985  0.029030736            3 
  870000    1.1488727   -7.4724536    296.04254  0.028356565  0.029021608            2 
  871000    1.0978371   -7.4242563    297.14028  0.028429036   0.02901268            7 
  872000    1.1140007   -7.4329098    297.16841  0.028399122  0.029003861            5 
  873000     1.115513   -7.4417114    298.25025  0.028469859  0.028995143            2 
  874000    1.1266819   -7.4859032    296.45791  0.028266391  0.028986412            2 
  875000    1.1149974   -7.4346598    298.52985  0.028431414  0.028977725            4 
  876000    1.1165702   -7.4722025    298.60306  0.028405922    0.0289691            1 
  877000     1.107131   -7.4713409    298.67342  0.028380219   0.02896047            3 
  878000    1.0979695   -7.4900358    299.33517  0.028410703  0.028951926            1 
  879000    1.1194133   -7.3989643      300.036  0.028444823  0.028943388            2 
  880000    1.1095448   -7.4488205    299.46357  0.028358292  0.028934734            2 
  881000    1.1276076   -7.4438816    299.91348   0.02836866  0.028926148            2 
  882000    1.1035558   -7.4525593    300.68406  0.028409303  0.028917508            2 
  883000     1.124297   -7.4434676    299.79893  0.028293594  0.028908672            4 
  884000    1.1200232   -7.4916949    300.08491  0.028288547  0.028899973            1 
  885000    1.0740758   -7.4753244     300.5093  0.028296545  0.028891217            1 
  886000    1.1138748   -7.4668709    301.13392  0.028323356  0.028882453            1 
  887000    1.1133877   -7.4344849      301.925  0.028365746  0.028873895            2 
  888000    1.1320149   -7.4107745    302.74145  0.028410422  0.028865339            2 
  889000    1.1145395   -7.4282922    302.45403  0.028351521  0.028856682            1 
  890000    1.1033363   -7.4271411    302.04897  0.028281739  0.028848125            2 
  891000    1.0961207   -7.4608962    302.65016  0.028306225  0.028839303            1 
  892000    1.0951114   -7.4807212    302.96542  0.028303944  0.028830612            2 
  893000    1.0953964   -7.4758761    302.63192  0.028241127  0.028821875            2 
  894000    1.1227742   -7.4751697    302.82699  0.028227721  0.028813367            1 
  895000    1.1011504   -7.4501829    303.93358  0.028299216  0.028804714            2 
  896000    1.1113978   -7.4501386     303.5307  0.028230162  0.028796034            5 
  897000    1.1255031   -7.4538913    304.46456  0.028285448  0.028787641            7 
  898000    1.0985733   -7.4813401    304.12679  0.028222605  0.028779153            1 
  899000    1.1135005   -7.4549795    304.62443   0.02823734  0.028770579            3 
  900000    1.1445412   -7.4385565    304.05504  0.028153245   0.02876183            1 
  901000    1.1213735   -7.4124182    305.14157  0.028222491  0.028753176            1 
  902000    1.1168449   -7.4366446    305.44508  0.028219242  0.028744553            1 
  903000    1.1267698   -7.4606465    305.33857  0.028178162  0.028735595            1 
  904000     1.118377   -7.4247672    305.43677  0.028156044  0.028726546            2 
  905000    1.1281916   -7.4203431    306.51376  0.028224103  0.028717541            2 
  906000     1.126456     -7.44633    305.49982  0.028099689  0.028708327            1 
  907000    1.0997192   -7.4371709    305.82138  0.028098252  0.028699122            1 
  908000    1.1156071   -7.4719433    305.90148  0.028074659  0.028690194            2 
  909000    1.1092007   -7.4383882    307.04876  0.028148951  0.028681195            1 
  910000    1.1147483   -7.4578197    306.57035  0.028074208  0.028672192            1 
  911000    1.0947071    -7.466346    306.90212  0.028073739  0.028663403            2 
  912000    1.0842132   -7.4808331    306.08792   0.02796856  0.028654286            1 
  913000    1.1311759   -7.4591313    307.85188   0.02809893  0.028645151            5 
  914000    1.1138238   -7.4633257     307.2009  0.028008834  0.028636148            1 
  915000    1.1193706   -7.4602894    307.51792  0.028007096  0.028627185            1 
  916000    1.1092149   -7.4833408    307.73882  0.027996617  0.028618125            1 
  917000    1.0955591   -7.4644009    308.17463  0.028005691  0.028608996            1 
  918000    1.0962843   -7.4930273    307.97573  0.027957128  0.028599872            2 
  919000    1.0866813   -7.4811795    307.91805  0.027921477  0.028590586            3 
  920000    1.0916527    -7.437494    308.95709  0.027985244  0.028581533            1 
  921000    1.0987038   -7.4476133    309.71122  0.028023092   0.02857262            1 
  922000    1.1160706   -7.4004622    310.74093  0.028085767  0.028563793            3 
  923000     1.126517   -7.4713449     309.1162  0.027908649  0.028554882            3 
  924000    1.1155577   -7.5075183     309.7526  0.027935841  0.028545626            1 
  925000    1.1371976   -7.4732255    310.54687  0.027977196  0.028536476            2 
  926000    1.1083942   -7.4808126    311.04591  0.027991892  0.028527398            2 
  927000     1.084441   -7.4726459    310.38477  0.027902263  0.028517984            1 
  928000    1.1307119   -7.4660078    311.54029   0.02797596  0.028509043            1 
  929000    1.1041432   -7.4388612    310.86736  0.027885483  0.028500206            1 
  930000    1.0889316   -7.4453518    311.49937   0.02791213  0.028491001            3 
  931000    1.1222131    -7.480785     311.8576  0.027914214   0.02848185            3 
  932000    1.0851536    -7.498849    312.49797  0.027941521  0.028472777            2 
  933000    1.0824676   -7.4780832    311.76554  0.027846154  0.028463785            1 
  934000    1.1105284   -7.4872985     312.9748  0.027924232  0.028454732            3 
  935000    1.0979328   -7.4413745    313.85455  0.027972776  0.028445907            1 
  936000    1.0812345   -7.4420695    312.91204  0.027858978  0.028437252            1 
  937000    1.1147128   -7.5016035    313.71906  0.027901019  0.028428228            2 
  938000    1.1055733   -7.4665051    312.49172  0.027762235  0.028418998            2 
  939000    1.1056058   -7.4354422    313.52057  0.027823977  0.028409851            2 
  940000    1.0854078   -7.4404413    313.22525  0.027768196  0.028400627            1 
  941000    1.1116487   -7.4438137    314.47812  0.027849639    0.0283914            2 
  942000    1.1162569   -7.4816665    313.53949  0.027737039  0.028382087            2 
  943000    1.1113406   -7.4667685    314.74041  0.027813752   0.02837288            4 
  944000    1.1058467   -7.4251436    314.98475  0.027805857  0.028364035            2 
  945000     1.105522   -7.4490215    315.45331  0.027817752  0.028354944            1 
  946000    1.1119841   -7.4417987    315.33808  0.027778196  0.028345773            2 
  947000    1.0818708   -7.3847236    316.85098  0.027881994   0.02833676            1 
  948000    1.0991313   -7.4581232    315.18473  0.027706112  0.028327851            1 
  949000    1.0869816   -7.4411781    317.20941  0.027854708  0.028318879            4 
  950000    1.0843054    -7.472451    316.85145  0.027793987   0.02831009            2 
  951000    1.0737598   -7.4710229    317.36037  0.027809356  0.028301451            1 
  952000    1.0908687   -7.4717318    318.02116  0.027837986  0.028292688            4 
  953000    1.1042813   -7.4948407    316.82509  0.027704188  0.028283991            1 
  954000    1.0778238   -7.4689458    318.45892  0.027817865  0.028275531            2 
  955000    1.0972898   -7.4486252    319.57015  0.027885703  0.028267019            3 
  956000    1.1114053   -7.4498656    318.54175  0.027766889  0.028258473            2 
  957000    1.0999232   -7.4515828    319.70174  0.027838884  0.028249897            2 
  958000    1.1028471   -7.4650304    318.57043  0.027711416  0.028241135            2 
  959000    1.1099377   -7.4660006    318.95148  0.027715631  0.028232225            1 
  960000    1.0924405   -7.5098802    319.07099  0.027697135  0.028223231            2 
  961000    1.0486343   -7.4930442    318.77342  0.027642509   0.02821414            3 
  962000     1.093512   -7.4860023    320.12266  0.027730653  0.028205291            2 
  963000    1.1005896   -7.4815775    319.24628  0.027626019  0.028196486            2 
  964000    1.0790034   -7.4892297    320.56969  0.027711764  0.028187879            2 
  965000    1.1005907    -7.521754    319.94423  0.027629036  0.028179105            3 
  966000    1.0909639   -7.5152034    319.76219   0.02758473  0.028170301            2 
  967000    1.0871741   -7.4700646    320.16626  0.027591026   0.02816149            2 
  968000    1.0824281   -7.4913861    320.73775  0.027611721  0.028152707            1 
  969000    1.0907643   -7.4573623    321.94502   0.02768705  0.028144016            2 
  970000    1.1209092   -7.4674926    322.15047  0.027676157  0.028135283            2 
  971000    1.0908273   -7.5091628     321.3702   0.02758069  0.028126286            1 
  972000    1.0798594   -7.5012916    321.56375  0.027568909  0.028117269            1 
  973000    1.1143743   -7.5166116    321.52583  0.027537327   0.02810811            2 
  974000    1.0902498    -7.493554    322.33144  0.027577981   0.02809913            2 
  975000    1.1022546   -7.4527155    322.99777  0.027606647  0.028090099            5 
  976000    1.1070043   -7.4707095    323.54631  0.027625197  0.028081355            1 
  977000     1.092533   -7.5089495    323.12023  0.027560579  0.028072594            2 
  978000    1.0818514   -7.4674074    323.60342   0.02757357  0.028063616            1 
  979000    1.0926802   -7.4159443    324.80323  0.027647534  0.028054884            3 
  980000        1.089   -7.4768611     324.1552  0.027564218   0.02804607            6 
  981000    1.1161903   -7.4817968    324.72575  0.027584586  0.028037142            1 
  982000    1.0839764   -7.4847247    323.53315  0.027455291  0.028027995            3 
  983000    1.1074336   -7.4593617     324.8715  0.027540819  0.028018926            5 
  984000    1.1099429   -7.4955933    324.21656  0.027457364   0.02800986            2 
  985000    1.1127618   -7.4879587    325.11855  0.027505799  0.028000842            2 
  986000     1.091249    -7.420744    326.09837  0.027560714  0.027991946            5 
  987000     1.119183   -7.4538528    325.76115  0.027504318  0.027983167            2 
  988000    1.1066672   -7.5242307     325.4142  0.027447217  0.027974349            2 
  989000    1.0928293   -7.4918862    325.84771  0.027455992  0.027965592            1 
  990000    1.0874329   -7.5014322    325.85676   0.02742902  0.027956693            3 
  991000     1.092289   -7.4840077    327.12189  0.027507727  0.027948124            3 
  992000    1.0888714    -7.507161     326.2669  0.027408174  0.027939225            4 
  993000     1.082916    -7.476012    327.87899   0.02751586  0.027930589            2 
  994000     1.086936   -7.5009075    327.41843  0.027449567   0.02792207            2 
  995000    1.0966674   -7.4972362    328.46144  0.027509334   0.02791362            1 
  996000    1.1049792   -7.4859839    327.99094  0.027442348  0.027905176            2 
  997000    1.0746195   -7.4771317    329.13503  0.027510451  0.027896778            2 
  998000    1.1034475   -7.5238172    328.65443  0.027442754  0.027888315            1 
  999000     1.099573    -7.493368    328.76151  0.027424217  0.027879736            1 
 1000000    1.0873908    -7.528859    329.26359  0.027438632  0.027871384            3 
 1001000    1.1130355   -7.4622865    329.87812  0.027462381  0.027863117            2 
 1002000     1.089356   -7.4810975    329.29168  0.027386201  0.027854793            2 
 1003000    1.0730951   -7.4692281     329.9009  0.027409513  0.027846331            3 
 1004000    1.0927482   -7.4852537     330.5506  0.027436139  0.027838237            2 
 1005000    1.0976968   -7.5000594    330.56877  0.027410346  0.027829924            2 
 1006000     1.093993   -7.5299134    330.63304  0.027388423  0.027821395            1 
 1007000    1.0782658    -7.464247     331.6166  0.027442618  0.027813092            1 
 1008000    1.0761483   -7.5124067    331.82014  0.027432221  0.027804749            2 
 1009000    1.1074589   -7.4724038    331.53723  0.027381668  0.027796429            1 
 1010000     1.107523   -7.4943207    332.20833  0.027409928  0.027788299            1 
 1011000    1.0851698   -7.5059293    331.39962  0.027316157  0.027780031            3 
 1012000    1.1017152   -7.4934073    333.25254  0.027441744  0.027771771            3 
 1013000    1.0908054   -7.4960358    331.71646  0.027288291  0.027763163            1 
 1014000    1.1136167   -7.4997747     332.5678  0.027331345  0.027754668            1 
 1015000    1.0955988   -7.5113028     332.2945  0.027281979  0.027746027            2 
 1016000    1.0853915   -7.4797548    332.38401  0.027262468  0.027737475            3 
 1017000     1.100235   -7.4760441    334.55062  0.027413194  0.027728809            1 
 1018000    1.1072319   -7.4931866      332.808  0.027243615  0.027720259            1 
 1019000    1.0762701   -7.4834498    334.32187  0.027340683  0.027711663            1 
 1020000    1.0942219   -7.4990285    333.50292  0.027246971  0.027703243            1 
 1021000     1.089357    -7.474058    334.94946   0.02733835  0.027694706            2 
 1022000    1.0848758   -7.4998206    333.53379  0.027196167  0.027686219            4 
 1023000    1.0983968   -7.4849831    334.34168  0.027235393  0.027677698            3 
 1024000    1.1024019   -7.5054716    334.49286  0.027221099  0.027669023            6 
 1025000    1.0785412   -7.5226049     334.1747  0.027168675  0.027660323            2 
 1026000    1.0951152   -7.5049012    334.66446  0.027181973  0.027651623            2 
 1027000    1.0872218   -7.4956646    334.77901  0.027164801  0.027643022            2 
 1028000    1.0777585   -7.5283813    335.42357  0.027190627  0.027634347            2 
 1029000    1.1021611   -7.5093937    336.31641  0.027236509  0.027625881            1 
 1030000    1.0981812   -7.4928786    335.36772  0.027133311  0.027617085            2 
 1031000    1.0937069   -7.4813213    337.07762    0.0272452  0.027608161            2 
 1032000    1.1004822   -7.5222602    335.71155  0.027108491  0.027599418            2 
 1033000    1.0910679   -7.4862667    336.02198  0.027107291   0.02759079            2 
 1034000    1.1088849   -7.5137063    336.17419  0.027093342  0.027581792            3 
 1035000     1.088124   -7.4547503    336.73023  0.027111935  0.027572804            2 
 1036000    1.0863322   -7.5536565    336.15037  0.027039122  0.027564043            3 
 1037000    1.0804413   -7.4708181    336.69732  0.027057001   0.02755525            1 
 1038000    1.0853036   -7.5314578    336.55088  0.027019178  0.027546356            2 
 1039000    1.0876625   -7.5300388    337.08131  0.027035716  0.027537442            3 
 1040000    1.0769803   -7.4816712    337.75986  0.027064092  0.027528474            2 
 1041000    1.1064531   -7.5172211    338.28474   0.02708011   0.02751952            2 
 1042000    1.0871342   -7.5233732    337.42208  0.026985131  0.027510663            1 
 1043000    1.0803527   -7.5115742    338.76949  0.027066913  0.027501775            1 
 1044000    1.0937375   -7.5202166    338.05075  0.026983616  0.027493153            1 
 1045000    1.0842035    -7.512287    338.99589  0.027033165  0.027484261            1 
 1046000    1.0911722   -7.5049388    338.85322  0.026995954  0.027475425            3 
 1047000    1.0625525   -7.5167905    338.26727  0.026923533   0.02746665            2 
 1048000    1.0644572   -7.5052368    340.59677  0.027083076  0.027457995            6 
 1049000    1.0775987   -7.4616051    340.22326  0.027027587  0.027449336            5 
 1050000    1.0850479   -7.5291725    339.85619  0.026972714  0.027440388            1 
 1051000    1.0906081   -7.5188768    339.45971  0.026915613  0.027431237            1 
 1052000    1.0917657   -7.5019943    339.82968  0.026919334  0.027422549            5 
 1053000    1.0786278   -7.5437396    340.30102  0.026931071   0.02741355            2 
 1054000    1.0778587   -7.4596275    341.82084  0.027025683  0.027404803            2 
 1055000    1.0912725   -7.5542469    340.39064  0.026887096  0.027395906            2 
 1056000    1.0671198   -7.5347056    341.35568   0.02693779  0.027386866            1 
 1057000    1.0711397   -7.4828111    340.78389  0.026867226  0.027378092            1 
 1058000    1.0838673   -7.5238264    342.04913  0.026941488  0.027369639            3 
 1059000    1.0793508   -7.5087169    342.42053  0.026945273  0.027361068            2 
 1060000      1.08206   -7.5404271    341.65742   0.02685986  0.027352414            7 
 1061000    1.0894503   -7.5080475    342.45923   0.02689752  0.027343695            1 
 1062000    1.0738668   -7.5106703    342.08137  0.026842543  0.027335059            3 
 1063000    1.0846368    -7.527548    342.45414  0.026846514  0.027326381            2 
 1064000    1.0777538   -7.5272432     343.0407  0.026867223  0.027317512            1 
 1065000    1.0910219   -7.4911477    344.18786  0.026931757  0.027308836            1 
 1066000    1.0703099   -7.5037989      344.137  0.026902517  0.027300273            1 
 1067000    1.0866774   -7.4739492    345.95928  0.027019625  0.027291666            1 
 1068000    1.1020115   -7.5060001      344.415   0.02687383  0.027283284            3 
 1069000     1.080588   -7.5277425    344.93338    0.0268891  0.027274959            2 
 1070000    1.0816847   -7.5248044    344.45103  0.026826404  0.027266668            1 
 1071000     1.075886   -7.5265327     345.6359  0.026893549  0.027258444            1 
 1072000    1.0563357   -7.5381222    345.46451  0.026855139   0.02725021            3 
 1073000    1.0710731   -7.4634176     346.8791  0.026939974  0.027242039            3 
 1074000    1.0782845   -7.5410212    345.44884  0.026803914  0.027233556            2 
 1075000    1.0855137   -7.5026275    346.55748  0.026864921  0.027224903            1 
 1076000    1.0761561   -7.5315843    347.24065  0.026892863  0.027216472            2 
 1077000    1.0699622   -7.5254829    346.39165  0.026802202  0.027208087            8 
 1078000    1.0974848   -7.5182417    347.42491  0.026857213  0.027199703            1 
 1079000    1.0833436   -7.5170777    348.45222  0.026911663  0.027191458            2 
 1080000    1.1000189    -7.513337    348.46042  0.026887378  0.027183171            2 
 1081000     1.099646   -7.5319842     347.4547  0.026784976  0.027175033            2 
 1082000    1.0731352   -7.5315006    347.64007  0.026774497  0.027166984            2 
 1083000    1.0556574   -7.5362644    348.24013  0.026795947  0.027158829            5 
 1084000    1.0737351   -7.5337814    348.86012   0.02681889  0.027150679            1 
 1085000    1.0808215   -7.5621848    349.05157  0.026808877  0.027142575            3 
 1086000    1.0993522   -7.5033239    349.14853  0.026791631  0.027134427            1 
 1087000    1.0694723   -7.5113339    350.06111  0.026836945  0.027126417            3 
 1088000    1.0516047   -7.5431305    349.92064   0.02680152  0.027118424            1 
 1089000    1.0748866   -7.5745527    350.05316  0.026787049  0.027110174            4 
 1090000    1.0573643   -7.5487962      349.952   0.02675474  0.027102018            2 
 1091000    1.0895395     -7.55626     349.9528  0.026730278  0.027093891            1 
 1092000    1.0587553   -7.5382108    350.41839   0.02674133  0.027085896            2 
 1093000    1.0867005   -7.5709906    350.69485  0.026737942  0.027077745            2 
 1094000    1.0954134   -7.5117029    351.85998  0.026802253   0.02706965            1 
 1095000    1.0831572   -7.4971205     352.1319  0.026798471  0.027061582            1 
 1096000    1.0921078    -7.542119    351.31847  0.026712171  0.027053515            2 
 1097000    1.0720537   -7.5575221    351.84382  0.026727729  0.027045416            5 
 1098000    1.0561496   -7.5500828    351.44197  0.026672888  0.027037288            2 
 1099000    1.0650399   -7.4814887    353.64337  0.026815542  0.027029456            3 
 1100000    1.0720057    -7.490865    353.61018   0.02678865  0.027021676            3 
 1101000    1.0849804   -7.5091346     354.0502  0.026797623  0.027014026            2 
 1102000    1.0648215   -7.4789918    354.79141  0.026829357  0.027006355            2 
 1103000    1.0932503   -7.5925911    353.11416  0.026678314  0.026998575            3 
 1104000    1.0649684   -7.5102644    355.40151  0.026826805  0.026990918            2 
 1105000    1.0950021   -7.5203742    354.06306  0.026701588  0.026983475            2 
 1106000    1.0550915   -7.5159199    354.08932  0.026679424  0.026975771            2 
 1107000    1.0673303    -7.559782    355.03335  0.026726389  0.026968185            2 
 1108000    1.0668362   -7.5693713    353.79727  0.026609302  0.026960361            2 
 1109000    1.0826794   -7.5272027    353.84325  0.026588763  0.026952332            2 
 1110000    1.1026229   -7.5073481    355.09759  0.026658978  0.026944467            3 
 1111000    1.0638754   -7.5397926    355.53698   0.02666794  0.026936668            2 
 1112000    1.0693948   -7.5529954    355.27456  0.026624293  0.026928875            2 
 1113000    1.0866535   -7.5714559    355.39974  0.026609744  0.026920967            1 
 1114000    1.0523667   -7.5512565    355.49342  0.026592865  0.026912879            4 
 1115000    1.0968359   -7.5244821     355.5908  0.026576293  0.026904792            1 
 1116000    1.0775721   -7.5334819    356.48119  0.026618966  0.026896864            2 
 1117000    1.0955814    -7.550577    356.52299  0.026598253  0.026888881            2 
 1118000    1.0821266   -7.5257277       357.58   0.02665325  0.026880982            3 
 1119000    1.0744222   -7.5345965    357.00858  0.026586877  0.026873004            3 
 1120000    1.0761002   -7.5433905    357.20373  0.026577659   0.02686511            1 
 1121000    1.0746447   -7.5669739    357.50795  0.026576564  0.026857217            4 
 1122000    1.0747352   -7.5424185    357.63868  0.026562588  0.026849419            3 
 1123000    1.0935019   -7.5088729    357.77703  0.026549201  0.026841452            1 
 1124000    1.0862665   -7.5951387    357.54211  0.026508164  0.026833311            5 
 1125000    1.0804036   -7.5396876    357.56793  0.026486513  0.026825196            1 
 1126000    1.1137001   -7.5469089    358.05249  0.026498852  0.026816949            1 
 1127000    1.0767611   -7.5261504    358.54468  0.026511733  0.026808553            1 
 1128000     1.101052    -7.553206    358.03835  0.026450824  0.026800494            1 
 1129000    1.0737258   -7.5732983    358.39412  0.026453655   0.02679236            1 
 1130000    1.0766713   -7.4718372    359.30954  0.026497754   0.02678413            2 
 1131000    1.0654508   -7.5193089    358.24894  0.026396179  0.026775911            2 
 1132000     1.066478   -7.5159058     359.7529  0.026483576  0.026767682            1 
 1133000     1.059013   -7.5559622    359.75332  0.026460232  0.026759673            2 
 1134000    1.0772516   -7.5709024     359.8715  0.026445584  0.026751402            1 
 1135000    1.0908816   -7.5647141    359.67489  0.026407848  0.026743141            2 
 1136000    1.0761273    -7.553981    359.77915   0.02639225  0.026734882            2 
 1137000    1.0614424   -7.5254524     360.4491   0.02641814  0.026726682            3 
 1138000    1.0820362   -7.5845413    360.82851  0.026422709  0.026718517            1 
 1139000    1.0702137   -7.5478473    361.02602  0.026413961  0.026710492            3 
 1140000    1.0892822   -7.5398371    360.63831  0.026362449  0.026702435            1 
 1141000    1.0726682   -7.5458627    361.33509  0.026390234  0.026694426            2 
 1142000     1.072425   -7.5411892    362.51164   0.02645298  0.026686514            1 
 1143000    1.0738401   -7.5297089    361.84281  0.026381074  0.026678695            5 
 1144000    1.0647389   -7.5330861    363.86012  0.026504962  0.026670652            2 
 1145000    1.0481552   -7.5393275    362.27741  0.026366623  0.026662723            3 
 1146000    1.0633182   -7.5418384    362.00045  0.026323477  0.026654713            1 
 1147000    1.0704926   -7.5640485    361.89244  0.026292679  0.026646646            1 
 1148000    1.0679588     -7.52701    362.10065  0.026284891  0.026638594            2 
 1149000    1.0536367   -7.5463599     362.7638   0.02631011  0.026630439            1 
 1150000    1.0651301   -7.5033712    363.73809  0.026357832  0.026622524            2 
 1151000      1.06563   -7.5195244    363.55095  0.026321383  0.026614381            1 
 1152000    1.0525728   -7.5409733    362.94655  0.026254814  0.026606219            1 
 1153000    1.0772283   -7.5450351    363.28725  0.026256668  0.026597936            2 
 1154000    1.0727546   -7.5448617    363.39675  0.026241822   0.02658974            4 
 1155000    1.0958335   -7.5411836    365.31797  0.026357718  0.026581856            6 
 1156000    1.0491428   -7.5474246      365.358  0.026337803   0.02657381            3 
 1157000     1.065639   -7.6093163       364.89  0.026281331  0.026565891            5 
 1158000    1.0486503   -7.5802489    366.04738  0.026341924  0.026557882            2 
 1159000    1.0639964   -7.5100642     366.3861   0.02634355  0.026550095            1 
 1160000    1.0581201   -7.5462441    365.23746  0.026238323  0.026542365            1 
 1161000    1.0622733   -7.5404844    366.36668  0.026296776  0.026534659            1 
 1162000    1.0720465   -7.6003936    364.72604  0.026156486  0.026526591            1 
 1163000    1.0982789   -7.5600637     365.8715  0.026216072  0.026518613            4 
 1164000    1.0579086   -7.5345135     367.1509  0.026285145  0.026510686            1 
 1165000    1.0780463   -7.5589297    367.11998   0.02626037  0.026502861            3 
 1166000    1.0590102   -7.5631582    367.69847  0.026279193  0.026494981            2 
 1167000    1.0500092   -7.5704147    366.96963  0.026204629  0.026487177            2 
 1168000    1.0622304   -7.5643206    368.47551  0.026289634  0.026479236            2 
 1169000    1.0834784   -7.5816039    367.03371  0.026164365  0.026471345            1 
 1170000     1.085803   -7.5532655    368.29022  0.026231497  0.026463306            2 
 1171000    1.0784918   -7.5763112    368.88244  0.026251241  0.026455365            1 
 1172000    1.0766276   -7.5530436    369.03141  0.026239435  0.026447473            1 
 1173000    1.1080557   -7.5848224    368.43883  0.026174967  0.026439735            2 
 1174000     1.094302   -7.5793867    370.18227  0.026276425  0.026432217            1 
 1175000    1.0780666   -7.5486723    369.47175   0.02620367  0.026424684            1 
 1176000    1.0501781   -7.5508736    370.52349  0.026255916  0.026417093            1 
 1177000    1.0729567   -7.5792324    370.37453  0.026223062  0.026409542            2 
 1178000    1.0496435   -7.5469977    369.56302  0.026143394  0.026401892            2 
 1179000    1.0502255   -7.5816324    370.85846  0.026212784  0.026394293            3 
 1180000    1.0731123   -7.5687385    370.87413  0.026191676  0.026386765            1 
 1181000    1.0874081   -7.5498404    372.12451  0.026257727  0.026379307            2 
 1182000    1.0840142   -7.5653792    370.39398  0.026113507  0.026371813            1 
 1183000    1.0390211   -7.5111859     372.1372  0.026214229  0.026364577            1 
 1184000    1.0493623    -7.527239    371.85002  0.026171877  0.026357307            3 
 1185000    1.0402786   -7.5756483    371.84107  0.026149161   0.02634999            2 
 1186000    1.0610775   -7.5803038    374.18286  0.026291656  0.026342711            1 
 1187000    1.0643946    -7.517866    373.74088  0.026238478  0.026335395            2 
 1188000    1.0598121   -7.5592122    373.04531    0.0261676   0.02632811            1 
 1189000    1.0717073   -7.5817846    372.44507  0.026103523  0.026320669            1 
 1190000    1.0628131   -7.5367446    374.79881  0.026246415  0.026313254            2 
 1191000    1.0673898   -7.5680497    373.57674  0.026138871  0.026305913            1 
 1192000    1.0379911   -7.6365018    372.36606  0.026032303  0.026298591            4 
 1193000    1.0722621   -7.5839394    374.43681  0.026155128  0.026291384            2 
 1194000      1.07075   -7.5854033    375.05595  0.026176434    0.0262841            1 
 1195000    1.0559721   -7.5694937    375.19795  0.026164432  0.026276972            4 
 1196000    1.0726697   -7.5692865    375.94965  0.026194931  0.026269787            2 
 1197000    1.0523142   -7.5680095    375.96296  0.026173974  0.026262538            1 
 1198000    1.0511166   -7.5399818    377.51079  0.026259794  0.026255306            3 
 1199000     1.070826   -7.5447772    376.19075  0.026146146  0.026248128            5 
 1200000    1.0635319   -7.5782692    375.65005  0.026086809  0.026241065            2 
 1201000    1.0569429   -7.5245966    376.40533  0.026117495  0.026234009            2 
 1202000     1.064317   -7.5498992    376.84765  0.026126432  0.026226882            1 
 1203000    1.0592609   -7.5548084    376.83602  0.026103908  0.026219825            2 
 1204000    1.0735673    -7.542132    377.53017  0.026130272  0.026212617            1 
 1205000    1.0288188   -7.5796066    377.20952  0.026086412  0.026205347            1 
 1206000    1.0454002   -7.5480912    377.05051  0.026053795  0.026198055            3 
 1207000    1.0812035   -7.5872211    377.73945  0.026079774  0.026190701            2 
 1208000    1.0557628   -7.6024806    377.38153  0.026033494  0.026183372            2 
 1209000    1.0644961   -7.5937713    377.63239  0.026029252  0.026176026            1 
 1210000     1.039953   -7.6146707    378.09342  0.026039492  0.026168664            2 
 1211000    1.0623866   -7.5857181    377.95659  0.026008574  0.026161377            1 
 1212000    1.0693275   -7.5724866    377.45187  0.025952411  0.026153938            4 
 1213000    1.0536391   -7.6387769    377.33541  0.025923016  0.026146529            2 
 1214000    1.0530581   -7.5838569    379.08904  0.026022038  0.026139182            1 
 1215000    1.0886839   -7.5656685    379.98732   0.02606223  0.026132024            5 
 1216000    1.0789296   -7.5951831    379.63079  0.026016364  0.026125013            5 
 1217000    1.0644305   -7.5752113    380.23069  0.026036065  0.026117872            1 
 1218000    1.0354367   -7.5561579    379.97113   0.02599693  0.026110499            1 
 1219000    1.0511142   -7.5903841     379.7505  0.025960521  0.026103117            2 
 1220000    1.0507822   -7.5960874     379.0987   0.02589472  0.026095907            2 
 1221000    1.0717946   -7.5648306    381.65528  0.026047999  0.026088651            1 
 1222000    1.0756135   -7.6171343    380.36173   0.02593847  0.026081386            5 
 1223000    1.0477943   -7.5737177    381.14319  0.025970509  0.026074135            3 
 1224000    1.0584229   -7.5863333    380.89884  0.025932655   0.02606693            4 
 1225000    1.0245054   -7.5775126    380.09686  0.025856929  0.026059721            2 
 1226000    1.0458379   -7.5510987    382.42171  0.025993863  0.026052487            2 
 1227000    1.0678787   -7.6230707    381.98899  0.025943289  0.026045428            2 
 1228000    1.0503129   -7.5573401       382.27  0.025941233  0.026038285            1 
 1229000    1.0481887   -7.5904416    382.38994  0.025928257  0.026030963            4 
 1230000    1.0656846   -7.5998202    381.90584  0.025874379  0.026023678            1 
 1231000    1.0343838   -7.6049239    382.47449  0.025891856  0.026016389            2 
 1232000    1.0691327   -7.5838417    382.81862  0.025894117  0.026009121            3 
 1233000    1.0787089   -7.5946002    383.37694   0.02591085  0.026001897            1 
 1234000    1.0602866   -7.6109984    381.51189  0.025763904   0.02599474            1 
 1235000    1.0611266    -7.585522    383.25863  0.025860906  0.025987343            1 
 1236000    1.0269694   -7.5804697    382.50905  0.025789445  0.025979934            2 
 1237000    1.0773718   -7.5794198    382.30852  0.025755088  0.025972482            3 
 1238000    1.0775931   -7.5854877    383.88649  0.025840501  0.025965031            2 
 1239000    1.0506483   -7.6487561    382.74393  0.025742799  0.025957581            1 
 1240000    1.0328425    -7.594169    384.59953  0.025846743  0.025950171            1 
 1241000    1.0347545   -7.5776136    384.19039  0.025798441   0.02594282            1 
 1242000    1.0678024   -7.6216507    384.16891  0.025776229   0.02593564            1 
 1243000    1.0641379   -7.5821782    384.24894  0.025760857  0.025928346            1 
 1244000    1.0548917   -7.5974987    385.96128  0.025854855  0.025921229            2 
 1245000    1.0405225   -7.5496272     385.8663  0.025827731  0.025914226            1 
 1246000    1.0491786   -7.6250575    385.13373  0.025758008  0.025907177            3 
 1247000    1.0295363   -7.5489181    386.38451  0.025820937  0.025899857            3 
 1248000    1.0622251   -7.5986475    386.80975  0.025828642  0.025892671            5 
 1249000    1.0586374   -7.6120531    386.09216  0.025760086  0.025885504            2 
 1250000    1.0554277   -7.6135232    385.75334   0.02571689  0.025878156            1 
 1251000    1.0486395   -7.6004749    387.15583  0.025789757   0.02587096            4 
 1252000    1.0443355   -7.6016488    385.98684   0.02569135  0.025863586            1 
 1253000    1.0431932   -7.5630119    387.68562  0.025783827  0.025856297            3 
 1254000    1.0570394   -7.6166366    387.74699  0.025767344  0.025848999            1 
 1255000    1.0593344   -7.6039979    386.74505  0.025680282  0.025841752            3 
 1256000    1.0553297   -7.5944223    387.63172  0.025718665  0.025834463            1 
 1257000    1.0402412   -7.5897129    388.50503  0.025756101  0.025827203            4 
 1258000    1.0643345   -7.6039959    389.07852  0.025773617  0.025820202            2 
 1259000    1.0471054   -7.5744259    388.69594  0.025727822   0.02581306            2 
 1260000    1.0491378   -7.5626316    388.98534  0.025726544  0.025805867            1 
 1261000    1.0654483   -7.5649925    389.55334  0.025743678  0.025798904            1 
 1262000    1.0531192    -7.581668    389.80417  0.025739842  0.025791909            1 
 1263000    1.0303938   -7.6024437    390.24674  0.025748663   0.02578482            1 
 1264000    1.0531154    -7.560293    390.61505  0.025752574   0.02577794            2 
 1265000     1.051227   -7.6043993    390.11447   0.02569924  0.025770904            1 
 1266000    1.0547613   -7.5770169    389.69731  0.025651481  0.025763889            1 
 1267000    1.0631372   -7.5985534    390.05903  0.025655027  0.025756807            1 
 1268000    1.0570765   -7.5912696    391.08522  0.025702236  0.025749627            1 
 1269000     1.070208   -7.6114872    391.36268  0.025700202  0.025742567            4 
 1270000    1.0607329   -7.6077212    390.80606  0.025643442  0.025735639            3 
 1271000     1.055782   -7.6156479     391.8903  0.025694355  0.025728569            2 
 1272000    1.0760123   -7.6181741    391.51893  0.025649825  0.025721571            4 
 1273000    1.0486458   -7.5671679    392.28545  0.025679854    0.0257147            1 
 1274000    1.0562031    -7.578781    392.16029   0.02565151  0.025707761            4 
 1275000    1.0547549   -7.5610275     392.6902  0.025666026  0.025700733            2 
 1276000    1.0412796   -7.5671512    393.41272  0.025693098  0.025693815            2 
 1277000    1.0630366   -7.5785325    393.59965  0.025685177  0.025686878            1 
 1278000    1.0491817   -7.5673503    394.60511  0.025730641  0.025679923            2 
 1279000    1.0685073   -7.6366349    393.79858  0.025657974     0.025673            2 
 1280000    1.0490313   -7.5740434    393.74609  0.025634511  0.025666124            2 
 1281000    1.0686724    -7.580576    393.37296  0.025590226  0.025659323            2 
 1282000    1.0239705   -7.5880828    394.42401  0.025638586  0.025652289            1 
 1283000    1.0451769   -7.5755278     394.9372  0.025651935  0.025645392            1 
 1284000    1.0417351   -7.6084919    393.99935   0.02557109  0.025638374            1 
 1285000    1.0627307   -7.5632473    394.65232  0.025593536  0.025631455            2 
 1286000    1.0220391   -7.6226986    394.52224  0.025565205  0.025624646            4 
 1287000     1.034895   -7.5741445    394.93515  0.025572076  0.025617706            3 
 1288000    1.0586977   -7.6011157    395.66529  0.025599463  0.025610946            1 
 1289000    1.0295281   -7.6355433    395.08545  0.025542116  0.025604041            4 
 1290000    1.0212821   -7.6159917    395.35856  0.025539959  0.025597084            8 
 1291000    1.0399423   -7.6334023    394.66016  0.025475094   0.02559017            2 
 1292000    1.0400713   -7.6047435    396.16087  0.025552172  0.025583246            3 
 1293000    1.0645358   -7.5980813    397.06523  0.025590696   0.02557619            1 
 1294000    1.0392935   -7.6173018    396.42297  0.025529557  0.025569177            1 
 1295000    1.0601297   -7.6202903    395.94036  0.025478788  0.025562165            2 
 1296000    1.0273057   -7.6092689    398.34757  0.025613913  0.025555083            2 
 1297000    1.0289085   -7.6262281    397.04811  0.025510673  0.025548215            3 
 1298000    1.0216517   -7.6159925    398.18852  0.025564235  0.025541191            1 
 1299000    1.0402313   -7.5713544    397.88323   0.02552497  0.025534387            2 
 1300000     1.042907   -7.5917018    397.91079  0.025507102  0.025527705            1 
 1301000    1.0296961   -7.6185913     398.4115  0.025519568  0.025520985            4 
 1302000    1.0539427   -7.6686046    397.29898  0.025428762  0.025514161            1 
 1303000    1.0334756   -7.5702004    400.20137  0.025594869  0.025507344            1 
 1304000    1.0369911   -7.6320035    398.43677  0.025462473  0.025500483            1 
 1305000      1.01935   -7.5807285     397.7099  0.025396545  0.025493568            1 
 1306000    1.0591811   -7.6091486    399.46139  0.025488858  0.025486667            2 
 1307000    1.0581783   -7.6182135    398.63737  0.025416818  0.025479797            2 
 1308000     1.041538   -7.6106333    399.61172  0.025459462  0.025472883            4 
 1309000    1.0327785   -7.6139497    399.57129  0.025437439  0.025465835            1 
 1310000    1.0381082   -7.5731112    400.71662  0.025490879  0.025458987            1 
 1311000    1.0392354   -7.6124358    400.82949   0.02547861  0.025452239            2 
 1312000    1.0530692   -7.6311658    400.12976  0.025414746  0.025445493            1 
 1313000    1.0425228   -7.6292663     400.5793  0.025423921  0.025438814            2 
 1314000    1.0317135   -7.6103075    401.20953  0.025444541   0.02543216            3 
 1315000    1.0245662   -7.5977756    400.76789  0.025397205  0.025425398            2 
 1316000    1.0363204   -7.5841201    401.99735  0.025455759  0.025418452            2 
 1317000     1.048389    -7.601597    401.13242  0.025381702   0.02541155            2 
 1318000    1.0345252   -7.5980096    401.27011   0.02537115    0.0254048            1 
 1319000    1.0377046   -7.6276487    401.28119  0.025352615  0.025398127            1 
 1320000    1.0341869   -7.6149878     402.4677  0.025408315  0.025391459            2 
 1321000    1.0426826    -7.610787    402.32523  0.025380093  0.025384736            2 
 1322000    1.0401182   -7.6075824    402.47861  0.025370563  0.025377999            1 
 1323000    1.0328877   -7.6533188    402.14633  0.025330457  0.025371199            2 
 1324000    1.0369644   -7.6318989    403.32312  0.025385393  0.025364441            2 
 1325000    1.0471267   -7.6575096    401.21379  0.025233572  0.025357687            1 
 1326000    1.0180008   -7.6033673    404.47578  0.025419543  0.025350804            3 
 1327000    1.0288766   -7.5961366    403.33792  0.025328932  0.025344129            2 
 1328000    1.0359066   -7.6039868    403.38863  0.025313041  0.025337413            2 
 1329000      1.05662   -7.6323319    403.49295  0.025300536  0.025330801       -1e+20 
 1330000    1.0599462   -7.6011715    405.02598  0.025377568  0.025324173            5 
 1331000    1.0433382   -7.5961812    404.86688   0.02534854  0.025317584            1 
 1332000    1.0264027   -7.6342147    404.12439  0.025283057  0.025311011            1 
 1333000    1.0377712   -7.6198379     404.5132  0.025288397  0.025304198            2 
 1334000    1.0336352   -7.5982111    406.27545  0.025379526  0.025297551            2 
 1335000    1.0187762   -7.5937991    406.70955  0.025387612  0.025290995            1 
 1336000    1.0349183   -7.6334718    406.65455  0.025365179  0.025284435            3 
 1337000    1.0548637   -7.6087427    405.71221  0.025287473  0.025277972            2 
 1338000    1.0143581   -7.6371346    406.32806   0.02530693  0.025271414            5 
 1339000     1.035418   -7.6277248     407.0979  0.025335941  0.025264857            1 
 1340000    1.0224994   -7.6145716    406.90844  0.025305251  0.025258376            2 
 1341000    1.0380451   -7.5952962    407.95326  0.025351309  0.025251884            2 
 1342000    1.0435761    -7.613805     407.0598  0.025276937   0.02524528            2 
 1343000    1.0444708   -7.6249204    406.96934  0.025252503  0.025238758            5 
 1344000    1.0470738   -7.6778582    407.45319  0.025263715  0.025232174            4 
 1345000    1.0510141   -7.6271146     408.4432   0.02530627  0.025225669            3 
 1346000    1.0405141    -7.634454    408.14145  0.025268787  0.025219212            1 
 1347000    1.0486471   -7.5839146    408.92416  0.025298451  0.025212767            2 
 1348000    1.0360889   -7.6250353    409.47552  0.025313769  0.025206326            1 
 1349000    1.0482449   -7.6053228    409.94287  0.025323874  0.025199887            2 
 1350000    1.0716088   -7.6388204    409.12257   0.02525448  0.025193489            1 
 1351000    1.0285985   -7.6633969     408.7771  0.025214477   0.02518696            3 
 1352000    1.0409901   -7.6463368    408.86862  0.025201468  0.025180221            4 
 1353000    1.0448711   -7.6800465     408.7303  0.025174322  0.025173548            2 
 1354000    1.0371788   -7.6312449    410.23574  0.025248384  0.025167084            4 
 1355000    1.0352398   -7.6023801    410.22481  0.025229078  0.025160598            2 
 1356000     1.023774   -7.6520065    410.39469  0.025220913  0.025154079            3 
 1357000    1.0534346   -7.6507989    409.35344  0.025138383  0.025147572            3 
 1358000    1.0278399   -7.6092259    411.45059  0.025248563  0.025140992            1 
 1359000    1.0388606   -7.6318046    411.14914    0.0252115  0.025134423            1 
 1360000    1.0283903   -7.6006227    411.46311    0.0252122  0.025127724            2 
 1361000    1.0196386   -7.5666086    411.18563  0.025176686  0.025121205            2 
 1362000    1.0331209   -7.6448105    410.28329  0.025102991  0.025114749            1 
 1363000    1.0438304   -7.6131314    412.23396  0.025203837  0.025108324            2 
 1364000    1.0542961   -7.6181406    412.05522  0.025174439  0.025101838            3 
 1365000    1.0542602   -7.6308665    411.84089  0.025142912  0.025095287            3 
 1366000    1.0368068   -7.6664618     412.3151  0.025153434  0.025088482            2 
 1367000     1.031036   -7.6787655    409.87574  0.024986329  0.025081562            1 
 1368000    1.0318646   -7.6333747    411.55152  0.025070146  0.025074718            2 
 1369000    1.0476933   -7.6308284    412.24737  0.025094191  0.025067907            2 
 1370000    1.0323545   -7.6331549    411.56529  0.025034385  0.025061127            2 
 1371000    1.0353527   -7.5873823    413.47239  0.025132044  0.025054424            1 
 1372000    1.0125419   -7.6227597     412.5267  0.025056286   0.02504774            1 
 1373000    1.0360118   -7.6204701    413.34221  0.025087534  0.025041077            1 
 1374000    1.0241093   -7.6487098    412.63457  0.025026357  0.025034312            3 
 1375000    1.0211238   -7.5829392    414.22684  0.025104657  0.025027594            2 
 1376000    1.0304353   -7.6564276    412.28744  0.024968958  0.025020831            1 
 1377000    1.0015545   -7.6547269     412.4202   0.02495886  0.025013998            2 
 1378000    1.0481812   -7.6576262    413.43075   0.02500186  0.025007185            3 
 1379000    1.0370043   -7.6840277    413.05798  0.024961203  0.025000275            6 
 1380000    1.0216723   -7.6512097    413.68013  0.024980684   0.02499347            2 
 1381000    1.0257731   -7.6438512    412.89496  0.024915216  0.024986653            2 
 1382000    1.0385136   -7.6601055    415.01955  0.025025299  0.024979721            2 
 1383000    1.0669474   -7.7207735    412.13608  0.024833459  0.024972791            2 
 1384000    1.0450225   -7.6879621    412.91408   0.02486236  0.024965725            1 
 1385000    1.0109181   -7.6212799    415.77585  0.025016598  0.024958916            1 
 1386000    1.0241912   -7.6250811    414.69702  0.024933684  0.024951919            3 
 1387000    1.0540215   -7.6264662    414.68282  0.024914853  0.024945058            2 
 1388000    1.0266063   -7.6642153     414.9782  0.024914637  0.024938207            1 
 1389000    1.0336996   -7.5988159    415.35841  0.024919511  0.024931454            6 
 1390000    1.0277215    -7.628894    415.37131  0.024902357  0.024924653            4 
 1391000    1.0366822   -7.6284455    416.16471  0.024931986  0.024918064       -1e+20 
 1392000    1.0403529   -7.6212591    416.30877  0.024922699  0.024911393            2 
 1393000    1.0277438   -7.6739685    416.34759  0.024907131   0.02490471            2 
 1394000    1.0219296   -7.6720602     416.6489  0.024907275  0.024898053            2 
 1395000    1.0364929   -7.6406658    417.49522  0.024939977  0.024891244            1 
 1396000    1.0278633   -7.6115971     418.2204  0.024965401  0.024884556            4 
 1397000    1.0339015   -7.6684886     416.6294  0.024852624   0.02487792            3 
 1398000    1.0232203   -7.6681104    416.21868  0.024810365  0.024871205            4 
 1399000    1.0259837   -7.6854095    417.02232  0.024840501  0.024864441            3 
 1400000    1.0168689   -7.6085291    418.51159  0.024911404  0.024857713            2 
 1401000    1.0343704   -7.6262535    417.43985  0.024829874  0.024850999            5 
 1402000    1.0582788   -7.6507255    417.91635  0.024840487   0.02484429            1 
 1403000    1.0333372   -7.6882968    416.34088  0.024729204  0.024837585            1 
 1404000    1.0053789   -7.5971206    419.34478  0.024889885  0.024830837            3 
 1405000    1.0217638   -7.6507656    417.63948  0.024771025  0.024824079            1 
 1406000    1.0255824   -7.6795583    417.90547  0.024769172  0.024817335            1 
 1407000    1.0523041   -7.6560439    419.06132  0.024820026  0.024810529            1 
 1408000    1.0373793   -7.6675136     418.9591  0.024796348  0.024803714            2 
 1409000    1.0285179   -7.6352169    418.81555   0.02477026  0.024796831            4 
 1410000    1.0170619   -7.6353252    418.81427  0.024752617  0.024789989            3 
 1411000      1.03415   -7.6763749    418.56977  0.024720634  0.024783016            1 
 1412000    1.0332478    -7.660039    418.76246  0.024714499  0.024776097            2 
 1413000    1.0333414     -7.66722    419.13126  0.024718758  0.024769158            3 
 1414000    1.0150014   -7.6741959    418.50657  0.024664461  0.024762231            2 
 1415000    1.0602168   -7.6313261    419.78533   0.02472234  0.024755271            1 
 1416000    1.0268635   -7.6397722    419.80193  0.024705858  0.024748367            2 
 1417000    1.0286649   -7.6464751    420.62118  0.024736602  0.024741507            1 
 1418000    1.0238816   -7.6728963     419.3143  0.024642354  0.024734558            3 
 1419000    1.0194994   -7.6532027    420.03714  0.024667439  0.024727554            1 
 1420000    1.0373141   -7.6645641    420.53177  0.024679095  0.024720573            1 
 1421000    1.0296638   -7.6365074    420.97486  0.024687712  0.024713536            2 
 1422000    1.0454676   -7.6297625    420.46885  0.024640697  0.024706481            3 
 1423000    1.0259058   -7.6606593    419.16441   0.02454699  0.024699433            2 
 1424000    1.0153635   -7.6804897    420.78321  0.024624486  0.024692248            2 
 1425000    1.0150425   -7.6652523    420.40716  0.024585214  0.024685082            2 
 1426000    1.0252194   -7.6493106     421.2999  0.024620143   0.02467796            1 
 1427000    1.0015807   -7.6281602    421.33034  0.024604668  0.024670964            2 
 1428000     1.013981    -7.652166    421.49494  0.024597043  0.024664003            4 
 1429000    1.0170789    -7.659609    421.93684  0.024605601  0.024656899            2 
 1430000    1.0151725   -7.6210773    421.99366  0.024591705  0.024649943            2 
 1431000    1.0155622   -7.6609211    422.63265  0.024611731  0.024642941            2 
 1432000    1.0155089   -7.6882787    420.83685   0.02449004  0.024636016            1 
 1433000    1.0176361   -7.6559761    423.35656  0.024619479  0.024628973            4 
 1434000    1.0330162   -7.6113584    423.42869  0.024606502  0.024622083            4 
 1435000    1.0242346   -7.7080417    422.47617   0.02453404  0.024615066            3 
 1436000    1.0378792    -7.699097    421.82892  0.024479394  0.024607881            1 
 1437000    1.0134152   -7.5966912    423.26056  0.024545382   0.02460084            1 
 1438000     1.015351   -7.6493118    423.20649  0.024525179  0.024593812            2 
 1439000    1.0238685   -7.6421985    423.02608  0.024497688  0.024586656            2 
 1440000    1.0302636   -7.6868514    422.27591  0.024437263    0.0245795            1 
 1441000    1.0307268   -7.6880804    422.96281  0.024460028  0.024572319            3 
 1442000    1.0244704   -7.6389004    425.86001  0.024610495  0.024565256            2 
 1443000    1.0176488   -7.6795311    424.31589  0.024504267  0.024558232            3 
 1444000    1.0243741   -7.6421216    424.85272  0.024518278  0.024551112            1 
 1445000    1.0378154    -7.677902    424.42597  0.024476699    0.0245441            5 
 1446000    1.0229621    -7.693442    424.29915  0.024452464  0.024537087            1 
 1447000    1.0383063   -7.6635223     425.4392  0.024501221  0.024529922            2 
 1448000    1.0341543   -7.6752034    425.70825  0.024499784  0.024522834            3 
 1449000    1.0300528   -7.7011072    424.39709   0.02440747  0.024515866            2 
 1450000    1.0158137   -7.6795542    424.59452  0.024401984  0.024508683            3 
 1451000    1.0316464   -7.6511715    425.40834  0.024431905    0.0245016            1 
 1452000    1.0193134   -7.6931442    426.80028  0.024494965   0.02449458            1 
 1453000    1.0114425   -7.6637818    426.25046  0.024446574  0.024487702            2 
 1454000    1.0411991   -7.6564339    425.81281  0.024404677  0.024480832            2 
 1455000    1.0338847   -7.6494957    426.70753  0.024439148  0.024474024            2 
 1456000   0.99657157   -7.6711809    426.56292  0.024414086  0.024467041            2 
 1457000     1.018694   -7.6843705    426.11144  0.024371508  0.024460042            2 
 1458000    1.0304641   -7.6583256    427.19857  0.024416928  0.024453082            2 
 1459000    0.9895747   -7.6684743    427.22592  0.024401755  0.024446225            2 
 1460000    1.0173603   -7.6423006    428.67848   0.02446795  0.024439448            2 
 1461000    1.0434551   -7.6856891    428.21805   0.02442494  0.024432656            1 
 1462000    1.0041288   -7.6699596    428.85298  0.024444424  0.024425878            3 
 1463000    1.0043781   -7.6771452    427.77302  0.024366201  0.024419059            2 
 1464000    1.0250843   -7.6619708    428.82371  0.024409364  0.024412257            1 
 1465000    1.0153864   -7.6675096    428.28415  0.024362011  0.024405462            1 
 1466000    1.0199823   -7.6860682    429.21778  0.024398464  0.024398633            2 
 1467000    1.0434584   -7.6516605    429.96262  0.024424144  0.024391686            2 
 1468000    1.0219605   -7.6588931     429.8399  0.024400539  0.024384795            5 
 1469000    1.0263021   -7.6647857    429.58503  0.024369471  0.024377866            4 
 1470000    1.0112659   -7.6497409    429.30267  0.024336886  0.024370967            1 
 1471000    1.0219808   -7.6450345    430.13484  0.024367485  0.024364032            3 
 1472000    1.0129127   -7.6948681     430.1682  0.024352819  0.024357156            2 
 1473000     1.032775   -7.6728669    429.43044  0.024294549  0.024350266            2 
 1474000    1.0405461     -7.65703    430.35051  0.024330083  0.024343305            2 
 1475000   0.99504014    -7.692593    431.18387  0.024360671  0.024336351            1 
 1476000    1.0104762   -7.6453782    430.24789  0.024291322  0.024329337            2 
 1477000    1.0099144   -7.6805238    430.89749  0.024311526   0.02432238            2 
 1478000    1.0078157   -7.6948867    430.08702  0.024249381  0.024315403            1 
 1479000    1.0131137   -7.6548614    431.22953  0.024297359  0.024308439            1 
 1480000    1.0222387   -7.6710188    430.85031  0.024259589  0.024301569            5 
 1481000    1.0196467   -7.6436887    430.33151  0.024214017  0.024294806            1 
 1482000    1.0278075   -7.7090708    430.06724  0.024182818  0.024287758            3 
 1483000    1.0032843   -7.7086701    430.73418  0.024203989  0.024280755            2 
 1484000    1.0098037   -7.6865367    431.88317    0.0242522   0.02427387            1 
 1485000    1.0116499   -7.6552565    431.80263  0.024231349  0.024267095            2 
 1486000    1.0162441   -7.6844817    432.33571  0.024244937  0.024260209            2 
 1487000    1.0227458   -7.6342381    432.54357  0.024240281  0.024253369            2 
 1488000    1.0223966   -7.6927603    431.73329  0.024178611  0.024246608            1 
 1489000    1.0047727   -7.6658136    433.19424  0.024244137  0.024239662            2 
 1490000     1.023784   -7.6478696    433.11716  0.024223555  0.024232776            2 
 1491000     1.009603   -7.7115248    432.32605  0.024163092  0.024225801           10 
 1492000    0.9997066    -7.661836    433.40893   0.02420738  0.024218768            3 
 1493000    1.0017705   -7.6904018    433.70944  0.024207939    0.0242118            4 
 1494000    1.0029463   -7.7174686    432.28393  0.024112223  0.024204925            2 
 1495000    1.0265845   -7.7060179    432.53192  0.024109917  0.024197961            3 
 1496000    1.0087778   -7.7313302      433.889  0.024169396  0.024191008            5 
 1497000     1.026133   -7.6823597    434.30259  0.024176274  0.024184153            1 
 1498000   0.99075754   -7.6560482    435.45242    0.0242241  0.024177223            2 
 1499000    1.0057869   -7.7074449    433.80555  0.024116386  0.024170301            2 
 1500000    1.0213134   -7.7064987    434.87098  0.024159499  0.024163412            4 
 1501000    1.0056689   -7.6832087    433.75254  0.024081309  0.024156428            1 
 1502000   0.99366038   -7.7193029    433.55751  0.024054455  0.024149459            1 
 1503000    0.9855534   -7.6892296    434.99629  0.024118224  0.024142527            4 
 1504000    1.0320402   -7.6998084    434.21782  0.024059055  0.024135612            2 
 1505000     1.019828    -7.700314    434.83306  0.024077135  0.024128695            3 
 1506000    1.0191185   -7.6448736    436.09737  0.024131107  0.024121704            3 
 1507000    1.0057538    -7.710137    435.64826   0.02409026  0.024114842            2 
 1508000    1.0287891   -7.6616512    435.99024  0.024093183  0.024107972            3 
 1509000    1.0052074   -7.6675476    434.96854  0.024020794  0.024101039            2 
 1510000    1.0161691   -7.7232712    435.80787  0.024051207  0.024094038            2 
 1511000    1.0225993   -7.7135583    436.65427  0.024081969  0.024086981            3 
 1512000    0.9998847   -7.7732179    433.93197  0.023916004  0.024079737            4 
 1513000    1.0050519   -7.6645984    435.79561  0.024002842  0.024072583            4 
 1514000    1.0164263   -7.6912494    436.01503  0.023999066  0.024065506            3 
 1515000    1.0206558   -7.6484072    437.21666  0.024049321  0.024058555            1 
 1516000   0.98819378   -7.6555053    437.73692  0.024062056  0.024051648            1 
 1517000    1.0096382   -7.6616259    436.76971  0.023993062  0.024044667            1 
 1518000    1.0026254   -7.7185376    436.92263  0.023985651  0.024037709            3 
 1519000    1.0050685   -7.7124335    436.61665  0.023953075  0.024030728            2 
 1520000    1.0019963   -7.7017542    437.93615  0.024009657  0.024023857            2 
 1521000    1.0105113   -7.7710061     435.6602  0.023869176  0.024016827            2 
 1522000    1.0183047   -7.7201888     436.2453  0.023885529  0.024009769            2 
 1523000    1.0147874   -7.6919401    437.72592   0.02395086  0.024002824            2 
 1524000    1.0048903   -7.6429432    438.14077  0.023957828   0.02399591            2 
 1525000     1.036875    -7.673614    439.60125  0.024021926     0.023989            3 
 1526000    1.0164253   -7.6576318    439.47483  0.023999281  0.023982283            2 
 1527000    0.9979767   -7.7112276     438.4389   0.02392703  0.023975528            2 
 1528000    1.0232862   -7.6717484    440.09879  0.024001898  0.023968677            1 
 1529000   0.99668758   -7.6866262    440.55396  0.024011007  0.023961891            1 
 1530000    1.0054254   -7.7354964     439.4873  0.023937217  0.023954972            2 
 1531000    0.9893281    -7.722452    440.62752  0.023983645   0.02394793            1 
 1532000   0.99243275    -7.709435    438.23908   0.02383807  0.023941004            1 
 1533000    1.0036173   -7.7240343    441.49993  0.023999779  0.023934153            1 
 1534000    1.0215932   -7.7346075    440.07604  0.023906782  0.023927306            4 
 1535000    1.0184413    -7.728121    440.19083  0.023897439  0.023920298            4 
 1536000    1.0047428   -7.7251938    440.28337  0.023886902  0.023913363            2 
 1537000   0.99581554   -7.7139593    440.31112  0.023872865  0.023906463            1 
 1538000    1.0226612   -7.6971461    440.63923  0.023875121  0.023899553            3 
 1539000   0.99955386   -7.7352393    440.35892  0.023844429  0.023892724            2 
 1540000    0.9975894   -7.7343498    440.07499  0.023813582  0.023885737            5 
 1541000    1.0188114   -7.7233201    441.24931  0.023861633  0.023878818            2 
 1542000    1.0259929   -7.6728222    441.77439  0.023874535   0.02387201            2 
 1543000    1.0068764   -7.6751034     442.0656   0.02387479  0.023865271            5 
 1544000    1.0126403    -7.708681     441.6671  0.023837819  0.023858488            3 
 1545000   0.98181885   -7.6974395    442.65614  0.023875736  0.023851779            3 
 1546000    1.0029554   -7.7259403     443.0271  0.023880288  0.023844992            2 
 1547000    1.0111221   -7.6845137     444.1223  0.023923847  0.023838405            2 
 1548000   0.99482253   -7.7424126    442.19668  0.023804731  0.023831812            1 
 1549000    1.0032481   -7.7215346    443.89758  0.023880868  0.023825168            2 
 1550000   0.99879417    -7.688386     444.9935  0.023924382  0.023818635            2 
 1551000    0.9937718    -7.719685    444.21813  0.023867297  0.023812146            3 
 1552000    1.0111593   -7.6991047    443.86683  0.023833056  0.023805656            2 
 1553000     1.020327    -7.712828    444.84374   0.02387013  0.023799067            2 
 1554000    1.0048518   -7.7108361    444.29955  0.023825587  0.023792476            1 
 1555000   0.98830835   -7.7377863    444.85986  0.023840293  0.023785926            2 
 1556000   0.99807901   -7.7521959    445.32094  0.023849665  0.023779418            1 
 1557000    1.0275195   -7.7156975     445.7904  0.023859473  0.023772879            2 
 1558000    1.0024794   -7.7342492    445.69136  0.023838862  0.023766469            4 
 1559000   0.99447279   -7.7231107    445.51241  0.023814005  0.023759938            5 
 1560000    1.0044864   -7.7419261    444.17688  0.023727397  0.023753383            3 
 1561000    1.0066835   -7.7027263    444.93861  0.023752862  0.023746752            1 
 1562000   0.99189888   -7.7168355    447.10354  0.023853155  0.023740277            4 
 1563000    1.0059041   -7.7373509    446.91376  0.023827776  0.023733753            2 
 1564000     1.011105    -7.767066    446.99167  0.023816692  0.023727203            2 
 1565000   0.99202556   -7.6757769    447.39262  0.023822823  0.023720761            1 
 1566000   0.99949617   -7.7458159    446.33996  0.023751594  0.023714307            1 
 1567000    1.0105137   -7.7083982    448.16017  0.023833236  0.023707771            2 
 1568000   0.99119552   -7.7139055    447.11479  0.023762478  0.023701303            4 
 1569000    1.0050705   -7.7184025    448.37553  0.023814294  0.023694811            2 
 1570000    0.9906498   -7.7279081    447.38032  0.023746301  0.023688407            1 
 1571000    1.0062723   -7.6972809    447.28568  0.023726166  0.023681925            2 
 1572000   0.99649732   -7.7189264    447.75094  0.023735737  0.023675425            2 
 1573000   0.99777124   -7.6728928    449.09405  0.023791802  0.023668858            4 
 1574000   0.98496897   -7.7014227    448.58377   0.02374967  0.023662299            1 
 1575000   0.99517988   -7.7437625     448.8169  0.023746926  0.023655804            2 
 1576000   0.98495569    -7.739892    448.48728  0.023714429   0.02364925            1 
 1577000    1.0032288   -7.7215663    448.23913  0.023686279  0.023642634            2 
 1578000    1.0161385   -7.7159333     450.2438  0.023777134  0.023636044            2 
 1579000   0.97975968   -7.7161058    448.52393  0.023671307  0.023629523            1 
 1580000   0.98562174   -7.7483974    449.10719  0.023687088  0.023622854            1 
 1581000    1.0103318   -7.7558982    448.05394   0.02361659  0.023616291            1 
 1582000     1.000325   -7.7319528    448.18818  0.023608733  0.023609715            3 
 1583000   0.99726872   -7.7322195     450.0969  0.023694299  0.023603087            2 
 1584000    1.0035746    -7.731185    449.65292  0.023655983  0.023596471            6 
 1585000   0.99447206   -7.7282483    450.87539  0.023705331  0.023589866            3 
 1586000   0.98888349    -7.756631    450.11858  0.023650619  0.023583231            2 
 1587000    1.0012983   -7.7013637    451.15286  0.023690026  0.023576649            1 
 1588000    0.9921016   -7.6922694    451.54082  0.023695467  0.023570127            2 
 1589000    1.0197196   -7.7333781    450.09033  0.023604486   0.02356359            1 
 1590000    1.0144169   -7.7272412    448.76524  0.023520191  0.023557005            2 
 1591000   0.99589166   -7.7206831    451.10675  0.023628051  0.023550374            3 
 1592000   0.99929366    -7.747721    450.57797   0.02358553  0.023543746            2 
 1593000    1.0035704   -7.7640142    450.23085  0.023552566  0.023537187            2 
 1594000   0.99477971    -7.758822    450.68848  0.023561715  0.023530593            2 
 1595000   0.99341844   -7.7365259    452.57326  0.023645416  0.023524012            2 
 1596000   0.98326972   -7.7258635     451.7566  0.023587959  0.023517514            3 
 1597000      1.00545   -7.7438854    451.30436  0.023549591  0.023510976            2 
 1598000   0.97582883    -7.694919    452.16383  0.023579674  0.023504445            2 
 1599000   0.99247744   -7.7408251     452.5326  0.023584146  0.023497908            1 
 1600000   0.98981864   -7.6965856    453.59201  0.023624584  0.023491394            3 
 1601000    1.0225371   -7.7550904     452.1402   0.02353426  0.023484824            4 
 1602000   0.99134136   -7.7274097    453.03856  0.023566301  0.023478205            2 
 1603000    1.0122771   -7.7175706    452.88835   0.02354379  0.023471658            1 
 1604000   0.98140969   -7.7165448     452.9635  0.023533017  0.023465055            2 
 1605000   0.99490017    -7.730616    453.90423  0.023567198  0.023458485            2 
 1606000   0.99104106   -7.7431904    452.98264  0.023504703  0.023451966            2 
 1607000   0.98485969   -7.7127193    453.59252  0.023521703  0.023445369            2 
 1608000   0.99085888   -7.7681173    452.01968  0.023425564  0.023438766            3 
 1609000    1.0120695   -7.7352447    452.89397  0.023456286  0.023432051            3 
 1610000   0.97061302   -7.7419363    451.81835  0.023386043  0.023425352            2 
 1611000   0.99171521   -7.7259089    454.06474  0.023487727  0.023418779            1 
 1612000   0.98041231   -7.7198921    453.11813  0.023424221  0.023412122            1 
 1613000     0.996366   -7.7142174    452.51377  0.023378476  0.023405579            1 
 1614000   0.97777322   -7.7074604    454.76049  0.023479992  0.023398972            2 
 1615000   0.97800982   -7.7318317    455.19032  0.023487633  0.023392478            2 
 1616000   0.99546165    -7.724417    453.52439   0.02338719  0.023385943            1 
 1617000    1.0147035   -7.7061381    454.58524  0.023427399  0.023379435            2 
 1618000   0.98777822   -7.7725773    453.96767  0.023381112  0.023372823            2 
 1619000    1.0155518   -7.7224104    454.93689  0.023416558  0.023366259            1 
 1620000   0.99866579   -7.7010814    456.20239  0.023467201  0.023359797            1 
 1621000   0.99517885   -7.6930283    457.50964  0.023519928  0.023353359            3 
 1622000    0.9902058   -7.7254107    455.23363  0.023388493  0.023346914            2 
 1623000   0.98971258   -7.6999196    458.08138  0.023520301  0.023340448            2 
 1624000   0.98355214   -7.7384771    455.70332  0.023383791  0.023334044            1 
 1625000   0.99653658   -7.7786926    454.94215  0.023330367  0.023327568            2 
 1626000   0.99594754    -7.733833    456.60876  0.023401433  0.023321004            4 
 1627000   0.99554432     -7.76778    456.19011  0.023365607  0.023314473            1 
 1628000   0.98278982   -7.7376416    457.18822  0.023402346  0.023307977            1 
 1629000   0.98767108   -7.7530612    457.20242  0.023388706  0.023301462            1 
 1630000    1.0011188    -7.758262    457.09388  0.023368808  0.023294979            5 
 1631000   0.98983927   -7.7509608    458.36854  0.023419607  0.023288594            1 
 1632000   0.98623662   -7.7242876    458.91714  0.023433269  0.023282281            1 
 1633000   0.97830517    -7.740023    458.65174  0.023405375  0.023275961            1 
 1634000   0.99500694   -7.7346136    458.77447  0.023397311  0.023269707            2 
 1635000   0.97824473   -7.7609065     460.2153  0.023456437  0.023263435            2 
 1636000   0.99121559   -7.6935573    459.82584  0.023422262   0.02325717            2 
 1637000   0.98994981    -7.730065    458.72378  0.023351852  0.023250891            2 
 1638000   0.99500213   -7.7056144     459.6018  0.023382265  0.023244538            3 
 1639000   0.98682495   -7.7439915    459.45477  0.023360523  0.023238095            2 
 1640000    1.0132245    -7.796504    458.09518  0.023277194  0.023231644            1 
 1641000   0.96448381   -7.7618254    459.61103  0.023339987  0.023225195            1 
 1642000    1.0083038    -7.720528    459.24667  0.023307281  0.023218831            2 
 1643000   0.98455211   -7.7009149    461.18907  0.023391614  0.023212494            2 
 1644000   0.98774233   -7.7395182    459.89519    0.0233118  0.023206177            3 
 1645000   0.98166196   -7.7782237    459.70031  0.023287756  0.023199876            3 
 1646000    1.0016318   -7.7581845    461.53827   0.02336666  0.023193368       -1e+20 
 1647000   0.99478716   -7.7343397    461.22212  0.023336476  0.023186928            1 
 1648000    0.9793631   -7.7609862    460.23778  0.023272541  0.023180435            5 
 1649000   0.99851183    -7.765822    459.68617  0.023230552  0.023173882            3 
 1650000   0.98325201   -7.7908519     460.4745  0.023256288  0.023167426            3 
 1651000   0.97725986   -7.7136324    462.02819  0.023320623  0.023161055            1 
 1652000   0.97712144   -7.7162694    460.52973  0.023230919  0.023154714            2 
 1653000   0.99228149   -7.7685722    461.39752  0.023260613  0.023148467            1 
 1654000   0.97299311    -7.745966    462.55326  0.023304779  0.023142088            1 
 1655000   0.98190126   -7.7627803    461.16626  0.023220859  0.023135747            1 
 1656000   0.98836311   -7.8053553     461.2185  0.023209466  0.023129327            1 
 1657000   0.95544668   -7.7382433    461.83921  0.023226675  0.023122955            4 
 1658000   0.99258723   -7.7627456    462.36811   0.02323925  0.023116639            2 
 1659000   0.99420859   -7.7610849    462.11151  0.023212352  0.023110376            2 
 1660000   0.98897212   -7.7618805    462.84603  0.023235243  0.023103932            1 
 1661000   0.96789624   -7.7954838    462.22234  0.023189963  0.023097479            1 
 1662000   0.99186997    -7.746923    462.09449  0.023169599  0.023091008            4 
 1663000   0.98810564   -7.7794171    463.00898  0.023201492  0.023084648            5 
 1664000   0.99853243   -7.7680089    464.42643  0.023258535  0.023078343            1 
 1665000    0.9850234    -7.771462    462.77482  0.023161903  0.023071995            3 
 1666000   0.97227529   -7.7804915    463.02989  0.023160759  0.023065677            1 
 1667000   0.98159883   -7.7333932    464.21223  0.023205971  0.023059465            1 
 1668000    0.9722135   -7.7365429    464.56723  0.023209794  0.023053263            2 
 1669000   0.97007887    -7.803349    463.55347   0.02314527  0.023047003            1 
 1670000   0.98087069   -7.7336935    464.45722  0.023176508  0.023040715            6 
 1671000   0.97067915   -7.8123537    463.50319   0.02311506  0.023034309            2 
 1672000   0.98895355    -7.770342    463.03339  0.023077821  0.023027963            2 
 1673000   0.99062469   -7.7544745    465.06445  0.023165195  0.023021642            1 
 1674000   0.99030048   -7.7342676    465.47077  0.023171583  0.023015298            1 
 1675000   0.98203831   -7.7498644    465.84214  0.023176226  0.023008981            2 
 1676000   0.98236311   -7.7685262    466.16293  0.023178348  0.023002707            2 
 1677000    0.9835923   -7.7700321     466.4384  0.023178215  0.022996469            2 
 1678000   0.95949506   -7.7352838    465.36214  0.023110952  0.022990167            6 
 1679000   0.98903131    -7.735472    465.69862  0.023113888  0.022983906            1 
 1680000   0.99539638   -7.7591315    466.42398   0.02313611   0.02297769            1 
 1681000   0.99736908   -7.7624449    468.37144  0.023218889  0.022971609            4 
 1682000   0.97586402   -7.7364657    467.98421    0.0231859  0.022965533            2 
 1683000   0.98722583   -7.7454109    465.96517  0.023072151  0.022959415            1 
 1684000   0.98497543   -7.7418663    466.15471   0.02306783   0.02295329            2 
 1685000   0.99432228   -7.7755983    467.53286  0.023122298  0.022947171            1 
 1686000   0.97527322   -7.7675334    467.54757   0.02310931  0.022940984            2 
 1687000   0.99222958     -7.77371    466.55121  0.023046394  0.022934791            1 
 1688000   0.97298072   -7.7464475     467.3443  0.023071895  0.022928606            2 
 1689000   0.98274414   -7.7798339     467.4702  0.023064446  0.022922399            1 
 1690000   0.98692815   -7.7427393    467.92151  0.023073053  0.022916212            4 
 1691000   0.99610806   -7.6957711    468.77928   0.02310168    0.0229101            4 
 1692000   0.97491695   -7.7416275    468.96644  0.023097244  0.022904016            3 
 1693000   0.97565897   -7.7726702    467.56228  0.023014485  0.022897761            2 
 1694000   0.96547738   -7.7559695     468.3181   0.02303808  0.022891491            2 
 1695000   0.98694871   -7.7993763    467.75771  0.022996938  0.022885193            1 
 1696000   0.99633698   -7.7808407    467.01825  0.022947045  0.022878896            2 
 1697000   0.96103655   -7.7560428     469.1607   0.02303873  0.022872739            1 
 1698000   0.96772795   -7.7867883     467.7982  0.022958294  0.022866434            1 
 1699000   0.97075698   -7.7710828     468.7294  0.022990455  0.022860183            2 
 1700000   0.97729037   -7.7441252    470.16135  0.023047125  0.022853988            5 
 1701000    0.9841372   -7.7750681    469.23525  0.022988205  0.022847778            4 
 1702000   0.99665206   -7.7660932    469.95585  0.023009981   0.02284153            2 
 1703000    1.0106807   -7.7995057    469.97278  0.022997298  0.022835259            1 
 1704000   0.99359874   -7.7514986    469.29243   0.02295053   0.02282896            1 
 1705000    1.0054637   -7.7358604    470.68314  0.023005041  0.022822677            4 
 1706000    1.0008696   -7.7923102    469.48893  0.022933222  0.022816433            2 
 1707000   0.96851337    -7.779545    469.86533  0.022938163  0.022810098            2 
 1708000   0.99972385   -7.7837442    469.88577   0.02292573  0.022803786            4 
 1709000   0.99801693    -7.800919    468.76463  0.022857647  0.022797502            1 
 1710000   0.96620568   -7.7723575    469.48101  0.022879191  0.022791146            3 
 1711000   0.96889524     -7.81307    469.65639  0.022874361  0.022784798            2 
 1712000    0.9802706   -7.7432608    470.83627  0.022918432   0.02277853            2 
 1713000   0.97701412   -7.8032538    470.84255  0.022905359  0.022772274            4 
 1714000   0.97108255   -7.8275551     469.9746  0.022849796  0.022765908            3 
 1715000   0.95133705   -7.7864077    471.70763  0.022920682  0.022759577            2 
 1716000   0.95217554   -7.7979873    470.84153  0.022865265  0.022753319            4 
 1717000   0.97721751   -7.7769267    473.16342  0.022964639  0.022747091            1 
 1718000   0.99866337   -7.8045707    471.66249  0.022878468   0.02274087            1 
 1719000   0.96506849     -7.77548    472.45585  0.022903619   0.02273468            1 
 1720000   0.98150497   -7.7953713    473.04295  0.022918748  0.022728493            2 
 1721000   0.98360367   -7.7851822    473.32511  0.022919093  0.022722333            2 
 1722000   0.95528292   -7.7856804    471.99595  0.022841461  0.022716086            1 
 1723000   0.98308147   -7.8264291     470.7432  0.022767615  0.022709863            2 
 1724000   0.95972018   -7.7907893     472.9866  0.022862848  0.022703673            2 
 1725000   0.97201951   -7.7651678    472.90175  0.022845495  0.022697506            1 
 1726000   0.94839836    -7.742218    474.59098  0.022913817  0.022691391            2 
 1727000   0.99291579   -7.7923953    474.25694   0.02288443  0.022685264            1 
 1728000    0.9729629   -7.7743814    474.05736  0.022861563   0.02267912            1 
 1729000   0.99640363   -7.7831851    473.94223  0.022842791  0.022673042            2 
 1730000   0.99078116   -7.7618776    473.97473  0.022831153  0.022666914            2 
 1731000   0.95942803   -7.7448454    473.88917  0.022813844  0.022660852            3 
 1732000   0.97494736   -7.7789078    474.76261  0.022842697  0.022654668            4 
 1733000   0.96174346   -7.7311368    476.36559  0.022906597  0.022648627            2 
 1734000    0.9811007   -7.7947687    474.46648  0.022802118  0.022642513            2 
 1735000   0.95721646   -7.8096699     475.0461  0.022816815  0.022636343            3 
 1736000   0.97616509    -7.810678    474.32483  0.022769049   0.02263017            2 
 1737000   0.96275017   -7.7662655    475.73971   0.02282382  0.022624086            2 
 1738000   0.96093254   -7.8178821     474.4592   0.02274929  0.022617953            2 
 1739000   0.98984153   -7.7776192    474.80184  0.022752628  0.022611693            2 
 1740000   0.97197375   -7.8047911     474.9721  0.022747706  0.022605506            1 
 1741000    0.9771929   -7.7925908    474.59651  0.022716662  0.022599296            2 
 1742000   0.96974628    -7.805553    476.19638  0.022780156  0.022593048            2 
 1743000   0.98453842   -7.8273462    475.08389  0.022713898  0.022586938            2 
 1744000   0.96752562   -7.7870563    477.05463  0.022795042  0.022580736            2 
 1745000   0.99223873   -7.8098089    476.18325  0.022740365  0.022574582            4 
 1746000   0.93980591    -7.801786    477.14747  0.022773361   0.02256845            4 
 1747000   0.95949884   -7.7746971    476.37287  0.022723377  0.022562268            3 
 1748000    0.9803377   -7.8032265    476.96685  0.022738694  0.022556097            1 
 1749000   0.95030421   -7.7505512     477.6991  0.022760582  0.022549932            2 
 1750000   0.98175809   -7.7995926     477.0599  0.022717138  0.022543846            5 
 1751000   0.97581213   -7.7355148    477.37152  0.022718995  0.022537727            1 
 1752000   0.96112452   -7.8073119    475.76128  0.022629437  0.022531572            2 
 1753000   0.97984796    -7.845459    476.17686  0.022636283  0.022525331            2 
 1754000   0.98923972   -7.7856099    477.32156  0.022677763  0.022519008            2 
 1755000   0.97723672   -7.7965589    476.73177  0.022636836   0.02251273            1 
 1756000   0.98047426   -7.8056967    476.75133  0.022624873  0.022506385            4 
 1757000   0.96812476   -7.8185412     476.7554  0.022612189  0.022500048            2 
 1758000   0.96815556   -7.7812557    477.12291  0.022616748  0.022493759            2 
 1759000   0.96424651   -7.8066984     478.7919  0.022682959  0.022487411            1 
 1760000   0.96696639   -7.8045379    477.76763  0.022621574  0.022481136            1 
 1761000   0.98508275   -7.8194423    478.27703  0.022632833  0.022474884            2 
 1762000   0.95237718   -7.8066608    477.74995   0.02259506  0.022468629            2 
 1763000    0.9441708   -7.8554298    477.06582  0.022549906  0.022462329            4 
 1764000   0.94906639   -7.8432914    478.03027  0.022582685   0.02245596            3 
 1765000   0.97952295   -7.7835223     477.8022  0.022559122  0.022449741            2 
 1766000   0.96165875   -7.7763448    479.48761  0.022625878  0.022443559            3 
 1767000   0.99272701   -7.7978058    478.59299  0.022570882  0.022437417            1 
 1768000   0.96024842   -7.8055338    479.17398  0.022585501  0.022431251            3 
 1769000   0.95157184   -7.7874132    480.96823  0.022657256  0.022425156            2 
 1770000    0.9739425     -7.79089    478.60399  0.022533145  0.022419007            1 
 1771000   0.97057463   -7.8032801    479.49947  0.022562558  0.022412854            2 
 1772000   0.97505928    -7.813372     479.9703  0.022571967  0.022406635            6 
 1773000   0.97571699   -7.7992884    480.52581  0.022585345  0.022400417            3 
 1774000   0.95467115   -7.7994214    479.84666  0.022540711  0.022394219            2 
 1775000     0.961309   -7.7849672    478.92485  0.022484735   0.02238794            3 
 1776000   0.97424072   -7.7883723     480.3572  0.022539283  0.022381658            2 
 1777000   0.94868275   -7.8183266    479.24179  0.022474292  0.022375342            5 
 1778000   0.95066214   -7.8095412    478.94767  0.022447866  0.022368955            1 
 1779000    0.9595157   -7.7958231    480.04258  0.022486536  0.022362596            4 
 1780000   0.97292376   -7.8069658    479.88522  0.022466536  0.022356332            2 
 1781000   0.95620417   -7.8126068     479.8528  0.022452405  0.022349984            3 
 1782000   0.98889688   -7.8120076    480.35431  0.022463258  0.022343607            1 
 1783000   0.94984594   -7.7815874    480.34316  0.022450138  0.022337275            1 
 1784000   0.98776493   -7.8063974    479.77089  0.022410822  0.022330947            2 
 1785000    0.9666109   -7.7993782     480.8362  0.022448002  0.022324602            1 
 1786000   0.94397514   -7.8375922    478.59998  0.022331093  0.022318128            3 
 1787000   0.97493793   -7.8195193    480.31805  0.022398715  0.022311608            3 
 1788000   0.97004678   -7.8009844    480.60411   0.02239952   0.02230513            3 
 1789000   0.96304096   -7.8201341     479.4362  0.022332597  0.022298636            3 
 1790000   0.95559815   -7.8117069     480.3624   0.02236324  0.022292116            3 
 1791000   0.94813091   -7.8487105    480.37369  0.022351279  0.022285675            2 
 1792000   0.97302346   -7.8223071    480.74958  0.022356286  0.022279249            2 
 1793000   0.98199678     -7.83759    480.47812  0.022331201  0.022272745            5 
 1794000   0.95815367    -7.864111    480.79783  0.022333604  0.022266242            5 
 1795000   0.95458627   -7.8180245    480.98578  0.022329888  0.022259787            2 
 1796000   0.97300574   -7.7821051    483.15474  0.022418093  0.022253416            2 
 1797000   0.95456134   -7.8070356    482.23471  0.022362952  0.022247053            2 
 1798000   0.96537377   -7.7910362    482.67274  0.022370817  0.022240729            3 
 1799000   0.96458593   -7.8121183    480.80633  0.022271926  0.022234369            3 
 1800000   0.94766879   -7.8295937    482.21529  0.022324782  0.022227916            2 
 1801000   0.97706933    -7.813072    482.85714  0.022342085  0.022221467            2 
 1802000   0.97532812   -7.8356556    481.53939  0.022268747  0.022215058            2 
 1803000   0.94893732   -7.8333707    482.98077  0.022323016  0.022208586            2 
 1804000   0.96095595   -7.7764314    484.22651  0.022368187  0.022202152            2 
 1805000   0.96064009   -7.8131696     482.8534  0.022292401  0.022195747            2 
 1806000   0.97320529   -7.8207406    482.54497  0.022265826  0.022189319            3 
 1807000   0.96646468   -7.8178113    481.87736  0.022222715  0.022182854            3 
 1808000   0.96112598   -7.8184115    481.90313  0.022211612  0.022176373            2 
 1809000   0.96278883   -7.8435073     483.0097  0.022250309  0.022169866            1 
 1810000   0.97799049   -7.8001798    483.85543  0.022276953  0.022163454            2 
 1811000   0.96586184   -7.7882236    483.73314  0.022259025  0.022157081            6 
 1812000   0.94793584   -7.8048057    483.66012  0.022243383  0.022150622            2 
 1813000   0.95658308   -7.8133149    483.56216  0.022226612  0.022144225            4 
 1814000   0.95644122    -7.826798    483.30515  0.022202552  0.022137814            3 
 1815000   0.95238852   -7.8589808    483.27394  0.022188886  0.022131461            2 
 1816000   0.96262406   -7.8098536    484.16286  0.022217459  0.022125099            2 
 1817000   0.96575597   -7.8553123    483.98344  0.022197002  0.022118687            2 
 1818000   0.97478181   -7.8558883    483.38895  0.022157543  0.022112295            2 
 1819000   0.95056291   -7.7820445    486.72159  0.022298039  0.022105951            2 
 1820000   0.94281599   -7.8129261    484.54824  0.022186275   0.02209964            1 
 1821000   0.96715977   -7.8300444    485.02335  0.022195834  0.022093274            1 
 1822000   0.96595763   -7.8609668    484.83059  0.022174835  0.022086915            3 
 1823000   0.96199488   -7.8362864    485.80532  0.022207228  0.022080603            3 
 1824000    0.9677168   -7.8323231    484.30719  0.022126608  0.022074288            1 
 1825000   0.97290441   -7.8119362    485.49612  0.022168773  0.022068042            1 
 1826000   0.95547737   -7.8110927     487.6232  0.022253706  0.022061732            2 
 1827000   0.95679257   -7.8278199    486.93572  0.022210168  0.022055457            4 
 1828000   0.97204547   -7.7729186    486.67304  0.022186043  0.022049257            3 
 1829000   0.97066125   -7.8130678    487.01307  0.022189405  0.022043037            3 
 1830000   0.95175999   -7.8713847    486.44569  0.022151443  0.022036707            2 
 1831000   0.97467979    -7.795564    487.98333  0.022209327  0.022030487            2 
 1832000   0.95989268   -7.8237764    487.30634  0.022166409   0.02202422            2 
 1833000   0.95087148   -7.8329634    488.16753  0.022193469  0.022017914            2 
 1834000   0.94701956   -7.8239629    487.67019  0.022158769  0.022011671            4 
 1835000   0.94427028   -7.8207972    488.22052  0.022171686  0.022005413            1 
 1836000   0.95490244   -7.8687508    486.26081  0.022070661  0.021999084            7 
 1837000    0.9508687   -7.8238197    488.76646  0.022172313  0.021992802            4 
 1838000   0.94319054   -7.8333951    488.54535  0.022150224  0.021986582            1 
 1839000   0.95642776   -7.8305163    489.00566  0.022159038  0.021980398            3 
 1840000   0.97263878    -7.857757    487.24273  0.022067152  0.021974111            1 
 1841000   0.96032873   -7.8435347    486.65956  0.022028769  0.021967787            2 
 1842000    0.9592007   -7.8480764    488.60114  0.022104648  0.021961519            1 
 1843000   0.94018792   -7.8428564     488.0647  0.022068398  0.021955229            1 
 1844000   0.95141782   -7.8400006     489.1265  0.022104415  0.021948971            4 
 1845000   0.95149705   -7.8241038    487.39909  0.022014412  0.021942749            2 
 1846000   0.95098485   -7.8574641    488.07979  0.022033215  0.021936446            5 
 1847000   0.94922289   -7.8759624    488.74934  0.022051495   0.02193008            2 
 1848000   0.93596568   -7.8532843    488.80604  0.022042119  0.021923786            2 
 1849000   0.94232508   -7.8846782    488.75276  0.022027797  0.021917511            2 
 1850000   0.95725274   -7.8643614    488.36587  0.021998463  0.021911275            2 
 1851000   0.94268897   -7.8141411    489.67792  0.022045647  0.021905037            1 
 1852000   0.96965545   -7.8466835    489.68375  0.022034006  0.021898745            3 
 1853000   0.96740572   -7.8703532    489.09598  0.021995682  0.021892462            1 
 1854000   0.93541303   -7.7786001    491.21054  0.022078863  0.021886309            3 
 1855000   0.93483732   -7.7990738    490.48849  0.022034523  0.021880075            4 
 1856000   0.94236858    -7.820197    489.91535  0.021996917  0.021873822            1 
 1857000   0.95672829   -7.8626889    489.26757  0.021956003  0.021867528            6 
 1858000   0.96805117   -7.8524741     489.9393  0.021974314  0.021861228            2 
 1859000   0.94446392   -7.8521708    490.52039  0.021988542  0.021854859            7 
 1860000   0.97570877   -7.8180802    491.11597  0.022003404  0.021848641            4 
 1861000   0.94492193   -7.8751621    490.22999  0.021951907  0.021842395            6 
 1862000   0.96436258   -7.8125182    491.78151  0.022009556  0.021836142            3 
 1863000   0.95150142   -7.8459356    490.86386  0.021956694  0.021829857            2 
 1864000   0.94933729   -7.8362083    491.16957  0.021958582  0.021823591            2 
 1865000   0.92553092   -7.8366217    490.92179  0.021935737  0.021817307            2 
 1866000   0.97252651   -7.8366911    491.82067  0.021964124  0.021810951            2 
 1867000   0.95973993   -7.8354144    492.24906  0.021971481  0.021804685            1 
 1868000   0.95460678   -7.8602819     491.6066  0.021931058  0.021798412            3 
 1869000   0.95905448    -7.845307    490.54611   0.02187204  0.021792107            2 
 1870000   0.93035823    -7.858004    490.77713  0.021870639  0.021785771            3 
 1871000   0.92322132   -7.8642425    490.60046  0.021851081   0.02177946            2 
 1872000   0.95900317   -7.8302151    492.88148  0.021940949  0.021773103            2 
 1873000   0.97144823   -7.8232623    492.24795  0.021901048  0.021766799            3 
 1874000    0.9591068   -7.8494872    492.38757   0.02189557   0.02176058            3 
 1875000   0.94386996   -7.8456391    492.59606  0.021893158   0.02175432            2 
 1876000   0.95473867   -7.8533023    492.60185  0.021881745  0.021748023            1 
 1877000   0.93991516    -7.878785    491.81527  0.021835166  0.021741732            5 
 1878000   0.96691175   -7.8721757    492.80005  0.021867237  0.021735458            4 
 1879000   0.94052721   -7.9065774    492.18636  0.021828382  0.021729214            2 
 1880000   0.95110478   -7.8910699    492.74067  0.021841342  0.021722919            2 
 1881000    0.9589636   -7.8478747    492.98057  0.021840358  0.021716644            3 
 1882000   0.93511448    -7.806683    493.81545  0.021865721  0.021710391            2 
 1883000   0.95475532    -7.825344    494.04059  0.021864073  0.021704241            3 
 1884000   0.94986336   -7.8261028    494.22955  0.021860826  0.021698032            3 
 1885000   0.94608059    -7.829991    492.52314   0.02177379  0.021691841            1 
 1886000   0.92593078   -7.8189723    495.25152    0.0218828  0.021685673            3 
 1887000   0.93898974   -7.8551545    494.24983  0.021826967  0.021679567            5 
 1888000   0.93840828    -7.828934    495.37992  0.021865286  0.021673365            1 
 1889000   0.93034463   -7.8410917    495.44547  0.021856603  0.021667193            2 
 1890000   0.94184705   -7.8365597    495.30288  0.021838751  0.021661037            2 
 1891000   0.95547342   -7.8394457    495.35281  0.021829403  0.021654885            4 
 1892000   0.94734133   -7.8686999    494.43534  0.021777455  0.021648764            8 
 1893000   0.94714697   -7.8472942    496.64862  0.021863383  0.021642632            2 
 1894000   0.97105087   -7.8507884    494.44935  0.021755075  0.021636483            1 
 1895000   0.95607783   -7.8713928     494.8758  0.021762348  0.021630327            4 
 1896000   0.96116863     -7.83273     496.8034  0.021835592  0.021624259            4 
 1897000   0.95109507   -7.8402447     496.6675  0.021818112  0.021618173            4 
 1898000   0.94390469   -7.8554735    495.69108  0.021763746  0.021612052            1 
 1899000   0.95913653    -7.871043    495.51257  0.021744452  0.021605855            2 
 1900000   0.93925199   -7.8334156    496.74218  0.021786938  0.021599699            1 
 1901000   0.95048389   -7.8763098    496.65578  0.021771689  0.021593609            4 
 1902000    0.9426234   -7.8484081    497.51132  0.021797727  0.021587499            5 
 1903000   0.93580108   -7.8287835    496.86808  0.021758105  0.021581457            2 
 1904000   0.94070039   -7.8331327    496.99017  0.021752021  0.021575393            6 
 1905000    0.9398494   -7.8367277    498.03889  0.021786478  0.021569295            2 
 1906000   0.92233696   -7.8682968    497.68204  0.021759446  0.021563201            2 
 1907000   0.95480665   -7.8627655    498.73024   0.02179384  0.021557148            1 
 1908000   0.92842339   -7.8649842    499.30365  0.021807462   0.02155108            3 
 1909000   0.94687685   -7.8439537    498.09519  0.021743286  0.021545049            1 
 1910000   0.95837677   -7.8767477    498.79037  0.021762232  0.021539007            1 
 1911000   0.94220868   -7.8221667    497.71732  0.021704052  0.021532967            3 
 1912000   0.93102002   -7.8676539    497.74777  0.021694028  0.021526827            2 
 1913000    0.9742876   -7.8478701    498.50014  0.021715462  0.021520706            1 
 1914000   0.95313417   -7.8546872    500.30326  0.021782622  0.021514621            3 
 1915000    0.9580118   -7.8481302    500.35383  0.021773448  0.021508586            2 
 1916000   0.93839101    -7.871181    497.77883  0.021650088  0.021502517            4 
 1917000   0.94017609   -7.8861887    497.81624  0.021640421  0.021496423            3 
 1918000   0.93233704   -7.8653095    498.95311  0.021678533  0.021490297            2 
 1919000   0.93777724   -7.8956254    497.87968  0.021620622   0.02148417            1 
 1920000    0.9583969   -7.8418286    499.95295  0.021699347  0.021478072            6 
 1921000   0.94064737   -7.8549948    500.81562  0.021725474  0.021472099            5 
 1922000   0.93782082    -7.854866    500.16078  0.021685778  0.021466101            3 
 1923000   0.92152949   -7.8733079    499.93642  0.021664778  0.021460087            3 
 1924000   0.94145545   -7.8596325    499.80604  0.021647871  0.021454073            2 
 1925000    0.9570395   -7.8938703    499.33989  0.021616445  0.021448025            1 
 1926000   0.96384457   -7.8768114     498.5463  0.021570885  0.021441938            1 
 1927000   0.95008642   -7.8293868    501.09286  0.021669818  0.021435887            4 
 1928000   0.93582468   -7.8689166      500.944  0.021652144  0.021429865            3 
 1929000   0.94278376   -7.9011964    500.41645  0.021618129  0.021423896            1 
 1930000   0.95149195   -7.8430244    501.47833  0.021652778  0.021417855            4 
 1931000   0.92860611   -7.8626816    501.12055  0.021626124  0.021411851            5 
 1932000   0.94707709   -7.8801152    500.76122  0.021599431  0.021405864            2 
 1933000   0.95740349     -7.87968    500.94256  0.021596075  0.021399928            3 
 1934000   0.94444832   -7.8904401    501.92212  0.021627117  0.021393949            2 
 1935000   0.95440596   -7.8618594    501.25402  0.021587167  0.021387923            2 
 1936000     0.939697   -7.9073033     500.6156  0.021548537  0.021381838            4 
 1937000   0.95617904   -7.8632625    501.33209  0.021568237  0.021375749            2 
 1938000   0.92725855   -7.8679731    502.00051  0.021585849  0.021369711            3 
 1939000   0.94345042   -7.9100329    499.99113  0.021488359  0.021363648            3 
 1940000   0.95078809    -7.853992    501.03206  0.021521996  0.021357574            2 
 1941000   0.91458003   -7.8631775    502.19464  0.021560821  0.021351522            2 
 1942000   0.92267316   -7.8976864    500.97351  0.021497319  0.021345463            3 
 1943000   0.94674306   -7.8882404    502.44166  0.021549222  0.021339346            1 
 1944000   0.93478481   -7.8692185    502.79692  0.021553366  0.021333241            2 
 1945000   0.93711669   -7.8897484    502.02329  0.021509139  0.021327244            2 
 1946000   0.95832064   -7.8555717    503.45849  0.021559545  0.021321197            2 
 1947000   0.94301118   -7.8908414    504.19162   0.02157985  0.021315205            1 
 1948000   0.95792463   -7.8718654     504.0332  0.021561995  0.021309194            3 
 1949000   0.92909425   -7.8688388    504.40707  0.021566918  0.021303197            2 
 1950000   0.94173564   -7.8963714    502.31936  0.021466639  0.021297122            2 
 1951000   0.92736333   -7.8761171    502.78816   0.02147566  0.021291054            2 
 1952000   0.92848676   -7.8489981    502.72917   0.02146214  0.021285009            4 
 1953000   0.94747894   -7.8727615    503.83441  0.021498311  0.021279049            2 
 1954000   0.93076513   -7.8986467    502.27123  0.021420643  0.021272988            4 
 1955000    0.9559406   -7.8845326    503.63141  0.021467665  0.021266912            3 
 1956000   0.93181234   -7.8430597    503.70334  0.021459754  0.021260841            5 
 1957000   0.94831774   -7.9013703      502.035  0.021377747  0.021254716            4 
 1958000   0.93938086   -7.9257739    502.18905  0.021373385  0.021248551            2 
 1959000   0.92397147   -7.8974716    502.20331  0.021363081  0.021242382            4 
 1960000   0.93733314   -7.8566426    504.08418   0.02143215  0.021236262            4 
 1961000   0.95184877   -7.8997287     503.2927  0.021387587  0.021230143            4 
 1962000   0.93581779   -7.8774359    502.85193  0.021357965  0.021224078            2 
 1963000   0.92475756    -7.911115    504.21185  0.021404816  0.021217987            2 
 1964000   0.93678653   -7.8877361    505.36914  0.021443022  0.021211878            1 
 1965000   0.95237122   -7.8978284    502.39722  0.021306074  0.021205829            4 
 1966000   0.95920722   -7.8824244    504.98802  0.021405053  0.021199731            2 
 1967000   0.94923431   -7.9075387    504.07552  0.021355513  0.021193643            3 
 1968000   0.94113851   -7.9144987    503.59737  0.021324414  0.021187495            2 
 1969000   0.93965899    -7.869679    505.55905  0.021396608  0.021181444            1 
 1970000   0.94102112   -7.8855472    506.39492  0.021421105  0.021175433            5 
 1971000   0.91881497   -7.8972101    505.23257  0.021361093  0.021169477            1 
 1972000   0.93556608    -7.880275    505.86708  0.021377074  0.021163458            1 
 1973000   0.93574132   -7.8999625    506.22612  0.021381404  0.021157436            3 
 1974000   0.95651957   -7.9107492    504.65411  0.021304209   0.02115138            4 
 1975000   0.94732274   -7.8639549     506.7371  0.021381312  0.021145318            3 
 1976000   0.94827668   -7.8728067    505.76259  0.021329394  0.021139251            5 
 1977000   0.92534091    -7.895295      506.415  0.021346105  0.021133235            3 
 1978000   0.92371434   -7.9152627    506.22659  0.021327376   0.02112714            1 
 1979000   0.93024175   -7.8900485    508.11326  0.021396044  0.021121077            1 
 1980000   0.92774028   -7.9136486    506.08022  0.021299673  0.021115086            2 
 1981000   0.92794304   -7.8968773    508.01953    0.0213705  0.021109116            2 
 1982000   0.94314301   -7.8751269    508.64441  0.021385991  0.021103151            3 
 1983000   0.92731533   -7.8480683    508.44066  0.021366644  0.021097191            4 
 1984000   0.92808694    -7.879809    507.90342  0.021333309   0.02109129            2 
 1985000   0.94847067   -7.8743715    508.47548  0.021346578  0.021085299            2 
 1986000   0.93978009   -7.9046998    507.67502  0.021302241  0.021079298            1 
 1987000   0.94535672   -7.8948474     507.9288  0.021302164  0.021073282            2 
 1988000   0.94441874   -7.9047972    506.61606  0.021236421  0.021067222            2 
 1989000   0.92338562   -7.9122457    506.28116  0.021211713  0.021061187            5 
 1990000   0.92996199   -7.8723798    507.30007  0.021243722  0.021055119            1 
 1991000   0.90708765   -7.8850266    508.42918  0.021280311  0.021049071            2 
 1992000     0.929279   -7.8952942    507.75976  0.021241623  0.021043091            3 
 1993000   0.93453794   -7.9138868    508.17995  0.021248534  0.021037095            2 
 1994000   0.92453179   -7.9091704    507.16366  0.021195406  0.021031066            5 
 1995000    0.9453912    -7.859819    508.76309  0.021251591  0.021025099            5 
 1996000   0.92354042   -7.8958374     508.8801  0.021245829  0.021019225            2 
 1997000   0.93004593   -7.9042473    509.09633  0.021244214  0.021013224            5 
 1998000   0.92704409   -7.8971583    507.37209  0.021161665  0.021007251            1 
 1999000    0.9247278   -7.9139806    508.65281  0.021204469  0.021001276            1 
 2000000   0.93017985   -7.9065351    508.86811  0.021202838  0.020995295            1 
 2001000   0.94208475   -7.9145479    509.02284  0.021198685  0.020989343            4 
 2002000   0.94581164    -7.914943    509.33547   0.02120111  0.020983322            2 
 2003000   0.93581936   -7.9158149    508.54065  0.021157458  0.020977277            2 
 2004000   0.94075361   -7.9191051    509.50066  0.021186821  0.020971273            4 
 2005000   0.92307126   -7.9065109    509.56918  0.021179101  0.020965256            2 
 2006000   0.93787983   -7.9065609    509.45474  0.021163789  0.020959198            3 
 2007000   0.94174898   -7.9117939    508.16808  0.021099821  0.020953193           14 
 2008000   0.93732558   -7.8769636     509.0649  0.021126532  0.020947186            4 
 2009000   0.93604339   -7.9051572    510.26178  0.021165662  0.020941111            7 
 2010000   0.92207135   -7.9020829    511.16017  0.021192379   0.02093511            1 
 2011000   0.92707187   -7.8821756    510.31545  0.021146836  0.020929053            2 
 2012000    0.9307042   -7.9105002    510.12772   0.02112855  0.020923051            1 
 2013000   0.92858305   -7.9022922    510.77623  0.021144901  0.020916988            5 
 2014000   0.91500422   -7.9147699    510.87905  0.021138656  0.020910983            2 
 2015000   0.91585441   -7.8864309    510.43048  0.021109615  0.020905101            3 
 2016000   0.94893632   -7.8751066    511.49378  0.021143096  0.020899142            2 
 2017000   0.92590804   -7.8835908    510.57723  0.021094746   0.02089316            2 
 2018000   0.90707912   -7.9255872    509.68556  0.021047471  0.020887178            1 
 2019000   0.93024001   -7.8928404    511.76249  0.021122771   0.02088115            1 
 2020000   0.90995724   -7.8983238    512.64214  0.021148603  0.020875171            2 
 2021000   0.92910125    -7.882315     512.4055  0.021128381  0.020869194            3 
 2022000   0.90533846   -7.8973474    513.29614  0.021154638  0.020863242            3 
 2023000   0.94851092    -7.920351    511.22115  0.021058706  0.020857237            2 
 2024000   0.91642845    -7.930766     511.2245  0.021048439  0.020851201            3 
 2025000   0.90635887   -7.9173078    512.33242  0.021083639  0.020845124            3 
 2026000    0.9385568   -7.9056364    511.59278  0.021042809  0.020839133            2 
 2027000   0.93725655   -7.8993843    511.08565  0.021011579  0.020833163            2 
 2028000   0.91484235   -7.8835469     511.8871  0.021034151  0.020827201            3 
 2029000   0.91704459   -7.9065386    511.66512  0.021014667  0.020821182            2 
 2030000   0.92685404   -7.9463688    512.54918  0.021040607  0.020815095            3 
 2031000   0.93368657   -7.9211286    511.08093  0.020970004  0.020809023            2 
 2032000   0.92164711   -7.9332426     511.8333  0.020990539  0.020802905            2 
 2033000   0.93887104   -7.8933872    511.03884  0.020947649  0.020796759            2 
 2034000   0.94103516   -7.9025907    513.17398  0.021024827  0.020790685            2 
 2035000   0.91106499   -7.9147687    511.79329  0.020957956  0.020784637            4 
 2036000   0.91812862   -7.9243874    513.30394  0.021009493  0.020778534            2 
 2037000   0.92804891   -7.9348698    514.26437   0.02103847  0.020772504            4 
 2038000   0.92779535    -7.867526    511.46219  0.020913567  0.020766435            1 
 2039000   0.92326303   -7.9267477    512.18419  0.020932818  0.020760373            1 
 2040000   0.89850495   -7.9026674    513.14109  0.020961646  0.020754324            2 
 2041000   0.94931367   -7.9203538     512.0277  0.020905916  0.020748295            3 
 2042000   0.90681878   -7.9273506    513.29657  0.020947461  0.020742237            1 
 2043000   0.92762453   -7.9076981    512.56495  0.020907365  0.020736164            2 
 2044000   0.91890237   -7.9135403    512.30194  0.020886413  0.020730076            1 
 2045000   0.93747236    -7.914145    512.29469  0.020875904  0.020724006            2 
 2046000   0.90878848   -7.9357076    512.37686  0.020869048  0.020717956            2 
 2047000   0.92831095   -7.8670434    513.00387  0.020884379  0.020711917            6 
 2048000   0.93193792   -7.9401167     514.0602  0.020917163  0.020705856            2 
 2049000   0.91927133   -7.9458056    514.73942  0.020934579  0.020699776            5 
 2050000   0.94058143   -7.9302809    513.85022   0.02088822  0.020693769            2 
 2051000   0.93171457    -7.929281    514.53041  0.020905673   0.02068774            4 
 2052000   0.92663683   -7.9276685     514.9906  0.020914173  0.020681757            3 
 2053000    0.9386627   -7.9239958    514.43391  0.020881389  0.020675763            2 
 2054000   0.93915217   -7.8901016    514.72358  0.020882976  0.020669703            4 
 2055000   0.94338842   -7.9206797    514.28125  0.020854876  0.020663659            1 
 2056000   0.92107113   -7.9101921    513.95964  0.020831697  0.020657585            2 
 2057000   0.91777259   -7.9223754    514.56952  0.020846278  0.020651581            6 
 2058000   0.90887521    -7.916977    512.77444  0.020763461  0.020645583            2 
 2059000   0.93913977   -7.9184416    515.43371  0.020861005  0.020639566            2 
 2060000   0.90530639   -7.8745428    515.37362  0.020848448  0.020633595            3 
 2061000   0.91623011   -7.9093024    516.32773   0.02087691  0.020627646            5 
 2062000   0.91500269   -7.9123947    514.92168  0.020809961  0.020621652            1 
 2063000   0.92182456   -7.9441833    514.22792   0.02077185  0.020615622            2 
 2064000   0.93937644   -7.9580562    514.59927  0.020776779  0.020609576            2 
 2065000   0.90240602   -7.9483957    515.51258  0.020803575  0.020603494            5 
 2066000   0.90551478   -7.9831855    514.08092  0.020735758  0.020597448            4 
 2067000   0.92591727   -7.9134139    517.17053  0.020850288  0.020591427            1 
 2068000   0.92995903   -7.9446045    515.50628  0.020773142  0.020585437            2 
 2069000   0.90940582   -7.9397122    515.70285  0.020771019  0.020579455            1 
 2070000   0.91960323   -7.9078553    518.58571  0.020877042  0.020573506            2 
 2071000   0.91623945   -7.9080551     517.5198  0.020824071  0.020567561            4 
 2072000   0.92713214   -7.8959215    517.14973  0.020799137  0.020561656            2 
 2073000   0.93276487   -7.9468892    516.88454  0.020778443  0.020555697            2 
 2074000    0.9211646   -7.9068881    517.42074  0.020789969  0.020549694            9 
 2075000   0.89505548   -7.9270009    516.80232  0.020755113    0.0205437            2 
 2076000   0.91161727   -7.9409864    515.41933  0.020689601  0.020537644            1 
 2077000   0.90709745   -7.9386591    517.50486  0.020763315  0.020531584            3 
 2078000   0.90158426   -7.9257565    516.06713  0.020695666  0.020525532            5 
 2079000   0.92939211   -7.9352837    516.86154  0.020717554  0.020519522            1 
 2080000   0.91257681   -7.9382446    517.37277  0.020728076   0.02051353            2 
 2081000   0.91608102    -7.941962    517.51452  0.020723791  0.020507588            1 
 2082000   0.92460992   -7.9228182    517.42443  0.020710232   0.02050159            3 
 2083000   0.92488901   -7.9469938    516.06765  0.020646009  0.020495539            2 
 2084000   0.91788175   -7.9440039    517.85768  0.020707681  0.020489428            2 
 2085000   0.90834216   -7.9110702    517.43149  0.020680715  0.020483337            3 
 2086000   0.89376247   -7.9295507     518.1091  0.020697871  0.020477335            2 
 2087000    0.9001384     -7.90574    517.46382  0.020662187  0.020471281            2 
 2088000   0.91316141   -7.9221565    516.62916   0.02061898  0.020465213            3 
 2089000   0.91653684   -7.9081756    518.76677  0.020694382  0.020459234            3 
 2090000   0.91298738   -7.9526328    517.23605  0.020623447  0.020453234            2 
 2091000   0.91025773    -7.944662    518.69849  0.020671867  0.020447142            2 
 2092000   0.92383814    -7.959908    516.75222  0.020584458  0.020441085            3 
 2093000   0.91884365   -7.9625615    517.57583  0.020607415  0.020435046            5 
 2094000   0.89693528   -7.9226159     516.9544  0.020572843  0.020428993            4 
 2095000   0.90824919   -7.9426781    518.03847  0.020606145  0.020422973            1 
 2096000   0.90585584   -7.9734995    518.13816  0.020600277  0.020416922            2 
 2097000   0.92861443   -7.9440903     518.0398  0.020586544  0.020410913            4 
 2098000   0.92338334   -7.9242908    519.80972  0.020647034  0.020404889            4 
 2099000   0.93212053   -7.8860829    520.68594  0.020671984  0.020398927            5 
 2100000   0.93111435   -7.9212373    517.75455  0.020545816  0.020392994            3 
 2101000   0.90961813    -7.947548    518.61408  0.020570129  0.020386959            1 
 2102000   0.95123055   -7.9466847    519.44491  0.020593281  0.020380941            2 
 2103000   0.91355767   -7.9453989    519.29354   0.02057749  0.020375023            5 
 2104000   0.90905184    -7.992957     517.0651  0.020479448  0.020369001            3 
 2105000   0.91722489   -7.9575554    521.29003  0.020636977  0.020363079            2 
 2106000   0.91513443   -7.9473436    520.05846  0.020578445   0.02035714            2 
 2107000   0.89719731   -7.9608249    520.69086   0.02059369  0.020351169            2 
 2108000   0.92606727   -7.9376874    520.61865  0.020581066    0.0203452            3 
 2109000   0.92566822   -7.9187527    521.46117  0.020604598  0.020339235            2 
 2110000   0.91305112   -7.8838793    521.63732   0.02060179  0.020333313            2 
 2111000   0.91000454   -7.9357506    521.82915  0.020599603  0.020327476            4 
 2112000   0.91614418   -7.9123936    521.88151  0.020591916  0.020321619            2 
 2113000   0.89861453    -7.916398    521.66699   0.02057371  0.020315762            2 
 2114000   0.91232938   -7.9521337    520.98073  0.020536926  0.020309882            2 
 2115000   0.92944226   -7.9774746    520.33309  0.020501698  0.020303946            3 
 2116000   0.91920367   -7.9479738    521.82383  0.020550718  0.020298015            2 
 2117000   0.90760058   -7.9397418    521.47341  0.020527216  0.020292121            2 
 2118000   0.90506156   -7.9088317    522.32517  0.020551038   0.02028629            4 
 2119000   0.90677173   -7.9216558    521.89601  0.020524461  0.020280454            2 
 2120000   0.92938248   -7.9227641    521.61814  0.020503858  0.020274614            2 
 2121000   0.93007578   -7.9231105    523.41406  0.020564752   0.02026879            4 
 2122000   0.90152662   -7.9445009    524.14159  0.020583632  0.020263005            2 
 2123000   0.91789337   -7.9529121    523.79023  0.020560144  0.020257199            2 
 2124000   0.94417552   -7.9380691    523.33882  0.020532753  0.020251429            1 
 2125000   0.90495309   -7.9552975     522.0963  0.020474365  0.020245596            3 
 2126000   0.88736066   -7.9570838    522.32513  0.020473704   0.02023975            3 
 2127000   0.93455132   -7.9815032    522.44708  0.020468856  0.020233859            2 
 2128000   0.93135719   -7.9345069     522.7118  0.020469604  0.020227969            1 
 2129000   0.89829204   -7.9414111    522.49074  0.020451336  0.020222079            3 
 2130000   0.92688222   -7.9777325    522.79167  0.020453508  0.020216188            2 
 2131000    0.9126922   -7.9447182    523.21361   0.02046041  0.020210323            3 
 2132000   0.88977017   -7.9248926    524.02129  0.020482383  0.020204469            2 
 2133000   0.93165873    -7.920268    523.98477  0.020471354  0.020198666            4 
 2134000   0.89017819    -7.940268    523.54926  0.020444754  0.020192831            5 
 2135000   0.90710337   -7.9311386    522.13622  0.020380024  0.020186993            3 
 2136000   0.89475509   -7.9272083    522.49077  0.020384315  0.020181135            6 
 2137000   0.91685236   -7.9710885     522.6137   0.02037957  0.020175226            3 
 2138000   0.90810067   -7.9691584    522.36092  0.020360186  0.020169306            3 
 2139000   0.91260112   -8.0185894     521.9523  0.020334748   0.02016331            4 
 2140000   0.90669961   -7.9689046    523.10905   0.02037029  0.020157347            3 
 2141000    0.8791854   -7.9686213    522.13684  0.020322935  0.020151358            4 
 2142000   0.89777094   -7.9256508    523.85955  0.020380468  0.020145329            3 
 2143000   0.91883285   -7.9303436    524.34858  0.020389974  0.020139349            1 
 2144000   0.90035773     -7.98163      521.958  0.020287547  0.020133274            2 
 2145000   0.89520666   -7.9692721    522.74718  0.020308748  0.020127173            4 
 2146000   0.91322378   -7.9808713    522.78823  0.020300879   0.02012108            1 
 2147000   0.90631034   -7.9220837    522.79378  0.020291639  0.020115073            2 
 2148000   0.90506319   -7.9301865      523.067  0.020292792  0.020109035            3 
 2149000   0.91290637   -7.9410575     523.5626  0.020302567  0.020103068            3 
 2150000   0.89707873    -7.945001    523.08367  0.020274561  0.020097093            3 
 2151000   0.91156599   -7.9788215    522.14657   0.02022883   0.02009102            2 
 2152000   0.90628663   -7.9333155    523.13219  0.020257597  0.020084966            2 
 2153000   0.90308862   -7.9570511    523.09717  0.020246833  0.020078904            2 
 2154000   0.92447676   -8.0153589    523.06443  0.020236166  0.020072784            3 
 2155000   0.90339581   -7.9943727    523.26464  0.020234518  0.020066628            2 
 2156000   0.89507202   -7.9819614    524.96793  0.020290968  0.020060523            2 
 2157000   0.89471139   -7.9929334    524.02432  0.020245106   0.02005446            5 
 2158000   0.90504342   -7.9570407    523.68319  0.020222551  0.020048354            2 
 2159000   0.90566331   -7.9899802    523.09504  0.020190483  0.020042294            1 
 2160000   0.90013583   -7.9467085    524.49487  0.020235141  0.020036259            3 
 2161000   0.91579694   -7.9946117    523.47193  0.020186331  0.020030191            2 
 2162000   0.91238026   -7.9506887    522.91548  0.020155546  0.020024159            1 
 2163000   0.91906052   -7.9631413    524.73665  0.020216391   0.02001815            1 
 2164000   0.88693976   -8.0075252      524.544   0.02019963  0.020012155            4 
 2165000    0.9145248   -7.9556303    524.97683   0.02020696  0.020006145            2 
 2166000   0.90417701   -7.9369763    526.41052   0.02025279  0.020000182            4 
 2167000   0.91399615   -7.9612901    524.99899  0.020189163  0.019994151            4 
 2168000   0.88953424   -7.9670378    525.93948  0.020216001  0.019988109            2 
 2169000   0.91743809   -7.9784847    523.57248   0.02011574  0.019982095            2 
 2170000   0.90541276   -7.9634739    525.20591  0.020169198  0.019976092            3 
 2171000   0.91040865   -7.9716866    524.75025  0.020142417  0.019970005            2 
 2172000   0.89487473   -7.9498546    526.41529  0.020197026  0.019963946            3 
 2173000   0.90701581   -7.9602244    526.86164  0.020204849  0.019957935            4 
 2174000   0.88899281    -7.994086    525.39758  0.020139435  0.019951892            2 
 2175000   0.88426171   -7.9619582    524.09016  0.020080083   0.01994586            4 
 2176000   0.89667463   -7.9738456    525.31169  0.020117635  0.019939864            5 
 2177000   0.90244291   -7.9763428    524.39957  0.020073479  0.019933824            2 
 2178000   0.88986971   -7.9871383    524.72273  0.020076627  0.019927752            4 
 2179000   0.90209189   -7.9722285    525.55613  0.020099286  0.019921688            3 
 2180000   0.89123401   -7.9924608    525.63262   0.02009299  0.019915621            2 
 2181000   0.91012022   -7.9527528    525.38952  0.020074489  0.019909561            2 
 2182000   0.89687182   -8.0104324     524.9784  0.020049588  0.019903457            5 
 2183000   0.90899089   -7.9898722    526.25892  0.020089285  0.019897322            2 
 2184000   0.89881732   -8.0080952     525.6877  0.020058291  0.019891159            4 
 2185000   0.90768662   -7.9811539    525.05969   0.02002516  0.019885002            3 
 2186000   0.91608785   -7.9410643    526.68634  0.020078009  0.019878928            4 
 2187000   0.88078892   -7.9909028    525.12824  0.020009459  0.019872812            1 
 2188000   0.91387063   -7.9685902    526.01804  0.020034203  0.019866742            2 
 2189000   0.90574634   -7.9731417    526.43946  0.020041094   0.01986067            1 
 2190000   0.90146406    -7.987824     526.4462    0.0200322  0.019854564            1 
 2191000   0.88064846   -7.9987493    526.50245  0.020025196  0.019848427            2 
 2192000   0.89335193   -7.9800949    525.19834  0.019966482  0.019842219            3 
 2193000    0.8879957   -8.0331099    525.84864  0.019982088  0.019836028            2 
 2194000   0.90445194   -8.0271741    524.22232  0.019911209  0.019829843            4 
 2195000   0.90870593   -7.9738229    527.36536  0.020021464  0.019823698            2 
 2196000    0.9226559   -8.0399682    523.66634  0.019871977  0.019817516            3 
 2197000   0.87469662   -7.9984184    524.01522  0.019876165  0.019811325            4 
 2198000   0.90233233   -7.9620123     525.7347  0.019932314  0.019805159            4 
 2199000   0.90803304    -7.996239    525.63914  0.019919628   0.01979905            2 
 2200000   0.88224958   -7.9719592    527.92564  0.019997183  0.019792918            3 
 2201000   0.89995888   -7.9556923    528.90026  0.020024998  0.019786811            3 
 2202000    0.8882157   -7.9808044    527.50424  0.019963073  0.019780793            4 
 2203000   0.88128147   -7.9599597    527.92537  0.019969942  0.019774715            1 
 2204000   0.91705525   -7.9646668    529.14757  0.020007092  0.019768678            3 
 2205000   0.88297291   -7.9766846    527.46604  0.019934469  0.019762641            3 
 2206000   0.91915249    -7.977357    527.97434  0.019944634  0.019756599            3 
 2207000   0.90127141   -7.9729672    529.36632  0.019988156  0.019750562            2 
 2208000   0.87966364   -7.9734563     527.5916  0.019912122  0.019744576            3 
 2209000    0.9084001   -7.9484793    528.80912  0.019949039   0.01973862            4 
 2210000   0.88366641   -7.9662339    529.37342   0.01996129  0.019732647            1 
 2211000   0.88158552   -7.9520287    528.99631  0.019938049   0.01972663            4 
 2212000   0.87596465   -7.9544538    529.68834  0.019955106  0.019720624            1 
 2213000    0.8996827   -7.9773092    528.46526  0.019900032  0.019714608            2 
 2214000   0.87549362   -8.0394194    526.95239  0.019834101  0.019708553            4 
 2215000   0.89496832   -7.9817253    528.76342  0.019893281  0.019702494            2 
 2216000   0.90163637   -8.0139923    528.55192  0.019876351  0.019696444            5 
 2217000   0.89170906   -7.9972029    529.20651   0.01989199   0.01969038            1 
 2218000   0.88865098   -7.9813161    529.37973   0.01988953  0.019684316            3 
 2219000   0.90196928   -7.9893208    529.52375  0.019885975  0.019678279            2 
 2220000   0.90684338   -8.0255826    529.69388  0.019883404  0.019672269            4 
 2221000   0.89291576   -7.9716533    529.11292  0.019852653  0.019666247            2 
 2222000   0.89227033   -7.9940661    529.40679   0.01985474  0.019660294            2 
 2223000   0.88605043    -7.982182     532.2469  0.019952275  0.019654345            2 
 2224000   0.89726852   -7.9845626    530.40984  0.019874469  0.019648421            2 
 2225000   0.88755267    -7.971694    531.91797  0.019922021  0.019642475            2 
 2226000   0.89329803   -8.0224291    529.77688  0.019832917  0.019636561            2 
 2227000   0.90026901   -7.9933889    530.81038  0.019862684  0.019630639            4 
 2228000   0.90010574   -7.9935805    529.27912  0.019796496  0.019624646            3 
 2229000    0.9046711   -7.9907713    530.35919  0.019827994  0.019618655            2 
 2230000   0.89968276   -7.9671954    531.78014  0.019872203  0.019612649            2 
 2231000    0.8895593    -7.974429    530.87124  0.019829346  0.019606677            3 
 2232000   0.88613045   -7.9715007    529.17876  0.019757272  0.019600675            2 
 2233000   0.88186075   -7.9977299    530.61487  0.019802018  0.019594671            2 
 2234000   0.88271644   -8.0114123    529.82708  0.019763768   0.01958868            3 
 2235000   0.90237746   -7.9853733    531.91932  0.019832935  0.019582644            2 
 2236000   0.89850662   -8.0092184    529.87036  0.019747703  0.019576632            2 
 2237000   0.90538655   -7.9980158     531.2931  0.019791875  0.019570615            2 
 2238000     0.895834   -7.9874248    531.40634  0.019787248  0.019564615            2 
 2239000   0.90040602   -8.0032892    529.98687   0.01972558  0.019558629            3 
 2240000    0.8897227   -7.9717144     531.0929   0.01975792  0.019552624            6 
 2241000   0.88766609   -7.9809926     531.5919   0.01976766  0.019546618            3 
 2242000   0.88314638   -8.0068328    530.95356  0.019735116  0.019540585            1 
 2243000   0.91341128   -8.0182875    530.94757  0.019726095  0.019534529            3 
 2244000   0.88820783   -7.9687296    533.18283  0.019800313  0.019528484            3 
 2245000   0.90859455   -8.0167628     530.5881  0.019695178  0.019522438            2 
 2246000   0.90519645   -8.0183999    530.83102  0.019695422  0.019516442            2 
 2247000   0.89143501   -7.9839669    531.33944  0.019705512  0.019510461            1 
 2248000    0.8876242   -8.0023572    531.55552  0.019704757  0.019504517            2 
 2249000   0.88931672   -7.9756757    532.31386  0.019724094  0.019498569            2 
 2250000   0.91082649   -8.0087987    532.55654  0.019724316  0.019492643            5 
 2251000    0.8924392   -8.0231296    531.29134  0.019668715  0.019486706            2 
 2252000   0.89969931   -8.0213912     531.2026  0.019656698  0.019480711            1 
 2253000   0.87645451   -7.9914634    531.88195  0.019673101  0.019474735            2 
 2254000   0.89714103   -8.0118208    532.92584  0.019702967  0.019468748            1 
 2255000   0.88379457   -8.0426344    531.25648  0.019632538  0.019462726            2 
 2256000   0.89923576   -8.0158855    532.98803  0.019687797   0.01945672            2 
 2257000   0.88774343   -7.9755866    534.50737  0.019735171   0.01945073            2 
 2258000   0.89406674   -8.0497658    531.09173  0.019600374  0.019444713            2 
 2259000   0.89693613   -8.0095426    532.87659   0.01965754  0.019438711            1 
 2260000   0.89437644   -7.9869204    534.06422  0.019692634  0.019432738            2 
 2261000     0.892637   -7.9922712    534.45744  0.019698416  0.019426803           11 
 2262000   0.89712737    -8.007394    533.62874  0.019659179  0.019420859            4 
 2263000   0.89707951   -7.9608756    532.51557    0.0196095  0.019414903            1 
 2264000   0.88090589   -7.9950215     532.8119  0.019611745  0.019408935            3 
 2265000   0.90645857   -8.0026855    532.64765  0.019597044  0.019402998            2 
 2266000   0.87650665   -8.0155798     533.5971  0.019623312  0.019397041            2 
 2267000   0.89165573   -7.9919469    533.61702  0.019615388  0.019391074            1 
 2268000   0.88485754   -8.0464488    533.60637  0.019606348  0.019385097            6 
 2269000   0.90743162   -8.0251589    532.28343   0.01954912  0.019379097            1 
 2270000   0.88467636   -8.0048434    533.41849  0.019582177  0.019373126            1 
 2271000    0.8629254    -8.007239    532.12057  0.019525927  0.019367172            4 
 2272000   0.89512618   -7.9899445    535.48058  0.019640573  0.019361271            3 
 2273000   0.87337127   -8.0389592    532.76608  0.019532412  0.019355328            4 
 2274000    0.8822691   -8.0158359    533.77774  0.019560896  0.019349339            2 
 2275000   0.87334982   -8.0365595     533.5555  0.019544158  0.019343349            3 
 2276000   0.89141343   -8.0152606    533.16191   0.01952116  0.019337402            3 
 2277000   0.87778842   -8.0128099    533.55234  0.019526875   0.01933138            5 
 2278000   0.90047432   -8.0158901    533.91602  0.019531608   0.01932542            1 
 2279000   0.87816287    -8.073594    533.57813  0.019510682  0.019319407            3 
 2280000    0.8926569   -8.0325854    533.26549  0.019490698  0.019313383            1 
 2281000   0.89010532   -8.0190157    534.28799  0.019519509  0.019307397            2 
 2282000   0.88221106   -8.0037491    534.93014  0.019534405  0.019301388            3 
 2283000   0.89265492   -8.0025356    533.13628  0.019460369  0.019295352            2 
 2284000   0.88905819   -8.0201168     534.3219  0.019495107   0.01928928            3 
 2285000   0.87826055   -8.0426231    533.49098  0.019456272  0.019283222            1 
 2286000   0.88596055    -8.014919    533.29201  0.019440508  0.019277187            2 
 2287000   0.88982012   -8.0289461    534.05217  0.019459706  0.019271139            3 
 2288000    0.8919484   -8.0406119    534.05153  0.019451178  0.019265114            3 
 2289000   0.87824516   -8.0591061    534.42175  0.019456158  0.019259103            1 
 2290000   0.89421184   -7.9714741    536.29111  0.019515688  0.019253154            2 
 2291000   0.85665047   -7.9981661    535.70392  0.019485811  0.019247233            3 
 2292000   0.86485188   -8.0515808    534.86744  0.019446896  0.019241256            1 
 2293000    0.8844178   -8.0252215    534.55897  0.019427205  0.019235216            1 
 2294000   0.89728864    -8.035447    534.56373  0.019418909  0.019229211            3 
 2295000   0.87470199   -8.0493251    533.87451  0.019385421  0.019223219            9 
 2296000   0.89042516   -8.0151968     535.3593  0.019430869  0.019217225            3 
 2297000   0.87789129   -8.0505006    533.18284  0.019343449  0.019211233            3 
 2298000   0.86700561   -7.9953619    536.27309  0.019447095  0.019205216            2 
 2299000   0.88842811   -8.0330227    533.84274  0.019350542  0.019199179            1 
 2300000   0.87890069   -8.0349362      534.515  0.019366486  0.019193146            2 
 2301000   0.88800111    -8.031336    534.69046  0.019364423  0.019187131            6 
 2302000    0.8704775   -8.0375004    535.54634  0.019386995  0.019181149            4 
 2303000   0.87221542   -8.0365028    534.96015  0.019357365  0.019175119            6 
 2304000   0.86335844   -8.0445236     534.6928  0.019339294  0.019169125            6 
 2305000   0.88513732   -8.0314503    535.82392  0.019371797  0.019163089            3 
 2306000   0.90828468   -8.0461335    536.16332  0.019375662  0.019157054            5 
 2307000   0.87838662   -8.0250135    535.67616  0.019349666  0.019150975            1 
 2308000   0.89186656    -8.055927    534.93675  0.019314585  0.019144906            7 
 2309000   0.87272671   -8.0592693    534.16976  0.019278539   0.01913883            3 
 2310000   0.88668156   -8.0281993    534.74444  0.019290925   0.01913277            3 
 2311000   0.88463368   -8.0316642    534.80261  0.019284675  0.019126716            2 
 2312000   0.88257159   -8.0399867    535.81546  0.019312841  0.019120693            2 
 2313000   0.89999496   -8.0297207    534.81412  0.019268415   0.01911464            2 
 2314000   0.87370143   -8.0142502    535.57936  0.019287646  0.019108649            2 
 2315000   0.88882701    -8.010122    536.83338  0.019324456  0.019102666            4 
 2316000   0.88410258   -8.0413661    535.88257    0.0192819  0.019096626            4 
 2317000   0.87502979   -8.0523353    535.21275  0.019249488  0.019090595            4 
 2318000   0.88479908   -8.0233065    536.28772  0.019279829  0.019084552            2 
 2319000   0.89127241   -8.0805194    536.40459  0.019275715  0.019078533            2 
 2320000    0.8804557   -8.0806766    534.65859  0.019204691  0.019072458            4 
 2321000   0.90197563   -8.0496992     535.8164  0.019237986  0.019066387            3 
 2322000   0.87107624   -8.0710974    534.64632  0.019187709   0.01906031            2 
 2323000   0.89612046   -8.0788674    535.93749  0.019225767  0.019054158            1 
 2324000   0.87610532   -8.0683165     534.3997  0.019162353  0.019048043            4 
 2325000   0.88066459   -8.0407088     535.3423  0.019187896  0.019041909            3 
 2326000   0.87807858   -8.0572021    534.65446  0.019155004  0.019035776            4 
 2327000   0.87877513   -8.0353944    534.91406  0.019156069  0.019029658            1 
 2328000   0.90606533   -8.0280409    535.74923  0.019177736  0.019023569            2 
 2329000   0.88810207   -8.0578855    535.23701  0.019151174   0.01901744            2 
 2330000   0.89230263   -8.0305001    535.73179  0.019160651  0.019011336            2 
 2331000   0.86097941   -8.0096611    536.16705  0.019167991  0.019005251            3 
 2332000   0.87466342   -8.0027606    535.70477  0.019143252  0.018999185            3 
 2333000   0.89505741   -8.0084143    536.43798  0.019161236  0.018993145            2 
 2334000   0.89299833   -8.0595716    535.39661  0.019115846  0.018987062            2 
 2335000   0.90376917   -8.0773929    536.09288  0.019132508  0.018980975            2 
 2336000   0.85949327    -8.011804       535.84  0.019115297  0.018974848            6 
 2337000   0.86196804   -8.0369644    536.94633  0.019146567  0.018968793            2 
 2338000   0.87768503   -8.0491354    535.76399  0.019096236  0.018962736            2 
 2339000   0.85961759   -8.0665259    536.33621  0.019108458  0.018956634            3 
 2340000   0.85855938   -8.0405921    536.60641  0.019109915  0.018950555            1 
 2341000   0.87200379   -8.0307379    538.17559   0.01915761  0.018944505            2 
 2342000    0.8679192   -8.0601804     537.1532  0.019113051  0.018938477            5 
 2343000    0.8681515   -8.0298081    537.11223  0.019103437  0.018932418            4 
 2344000   0.88188087   -8.0608965    537.44117  0.019106981  0.018926365            3 
 2345000   0.87948619   -8.0742077    536.32221  0.019059069   0.01892029            2 
 2346000   0.87675221   -8.0585568    536.35216  0.019052009  0.018914226            2 
 2347000   0.88875161   -8.0794251      537.068  0.019069308  0.018908137            2 
 2348000   0.86785021   -8.0581438    536.64097  0.019046031  0.018902085            3 
 2349000   0.88220056   -8.0513986    536.69432  0.019039815  0.018896015            2 
 2350000   0.89476218   -8.0696216    536.76144  0.019034093  0.018889906            6 
 2351000   0.89553387   -8.0679015    536.32461  0.019010513  0.018883814            2 
 2352000   0.86833468   -8.0459784    537.55017  0.019045853  0.018877738            7 
 2353000   0.87474672   -8.0394891    538.10317  0.019057344   0.01887169            2 
 2354000   0.88223499   -8.0100091    539.26973  0.019090546  0.018865737            4 
 2355000   0.86957091   -8.0046224    538.84703  0.019067482  0.018859751            4 
 2356000   0.87328487   -8.0627036    538.04417  0.019030991   0.01885375            3 
 2357000   0.87145539   -8.0454026    539.54419  0.019075951  0.018847739            2 
 2358000    0.8772959   -8.0648896    538.82141  0.019042317  0.018841735            4 
 2359000    0.8797053   -8.0688781     538.7019  0.019030023  0.018835706            2 
 2360000   0.87633111   -8.0732391    537.90264  0.018993737  0.018829672            3 
 2361000    0.8585886   -8.0654851    538.15674  0.018994661  0.018823641            2 
 2362000   0.88254475   -8.0624343    537.69192   0.01897022  0.018817648            2 
 2363000   0.86162139   -8.0332389    538.68887  0.018997351  0.018811664            2 
 2364000   0.86628965     -8.07629      539.511  0.019018295  0.018805648            2 
 2365000   0.86876119   -8.0746446    538.55396  0.018976531  0.018799625            1 
 2366000   0.85484397   -8.0736959    538.74241  0.018975148  0.018793633            4 
 2367000   0.87049647   -8.0336712     539.5395  0.018995194  0.018787673            5 
 2368000   0.87438698   -8.0535692    540.09355  0.019006671  0.018781723            3 
 2369000   0.86956986   -8.0413955    540.11146  0.018999277  0.018775751            4 
 2370000   0.86475684   -8.0332713    540.45422  0.019003313  0.018769813            2 
 2371000   0.84925955    -8.045962     538.1075  0.018912818  0.018763835            1 
 2372000    0.8574462   -8.0789056    538.92081  0.018933418  0.018757816            3 
 2373000   0.89318119   -8.0759443    538.39758  0.018907065  0.018751793            3 
 2374000   0.86246691   -8.0874947    538.84209  0.018914704  0.018745777            4 
 2375000   0.87203219   -8.0689635    539.73424  0.018938043  0.018739781            3 
 2376000   0.87910685   -8.0881675    538.69404   0.01889359  0.018733779            1 
 2377000   0.86976395   -8.0814858    539.46525  0.018912679  0.018727773            2 
 2378000   0.87335095   -8.0385494    539.81464  0.018916969  0.018721759            2 
 2379000   0.88195746   -8.0611072    540.20065  0.018922539  0.018715747            1 
 2380000   0.88373499   -8.0834157    539.70591  0.018897266  0.018709707            2 
 2381000   0.87432075   -8.0670276    538.75637  0.018856096  0.018703651            2 
 2382000    0.8544048   -8.0873297    538.72785  0.018847182  0.018697624            7 
 2383000   0.89071041   -8.0621466     538.9506  0.018847062  0.018691595            6 
 2384000   0.87930371   -8.0566541    539.93703  0.018873638  0.018685548            3 
 2385000   0.86431987   -8.0448658    540.31924  0.018879079  0.018679518            2 
 2386000   0.85989549   -8.0686193    539.12187  0.018829347  0.018673417            1 
 2387000   0.85894812   -8.0746009    537.65172  0.018770134  0.018667292            2 
 2388000   0.86825149   -8.1004561    538.12833  0.018778906  0.018661159            2 
 2389000   0.86137585   -8.0666684    539.80159  0.018829412  0.018655018            5 
 2390000   0.85319319   -8.0488963    539.73779  0.018819309  0.018648907            8 
 2391000   0.86031329   -8.0673127    538.75405  0.018777152   0.01864282            2 
 2392000   0.88200166   -8.0754806    539.39382  0.018791591   0.01863673            2 
 2393000   0.87320062   -8.0557204    539.12179  0.018774265  0.018630637            2 
 2394000   0.86601847   -8.0502017    540.14548  0.018802057  0.018624576            1 
 2395000   0.85665184   -8.0585507    539.61004  0.018775576  0.018618526            2 
 2396000   0.87036589   -8.0796447    540.97052  0.018815057  0.018612428            3 
 2397000    0.8648247   -8.0877283    538.98557    0.0187382  0.018606334            3 
 2398000   0.85453926   -8.0931599    539.57864  0.018750995  0.018600239            4 
 2399000   0.87355377    -8.078069     539.0929  0.018726306  0.018594146            3 
 2400000   0.84642743    -8.081723    540.46186  0.018766037  0.018588101            3 
 2401000   0.89947538   -8.0814716    539.58021  0.018727621  0.018582012            2 
 2402000   0.86345432   -8.0962079    539.48951  0.018716677  0.018575924            2 
 2403000   0.87156461   -8.0924567    539.24292  0.018700337  0.018569839            5 
 2404000   0.86246943   -8.0926265    540.36975  0.018731619  0.018563833            2 
 2405000   0.85406578   -8.0999692    540.52357   0.01872916  0.018557775            3 
 2406000   0.85484358   -8.0905429    540.51778  0.018721176  0.018551705            3 
 2407000   0.86125123   -8.0672061    539.72086  0.018685807  0.018545641            1 
 2408000   0.87345167      -8.0816    540.80285  0.018715492  0.018539564            4 
 2409000   0.84410159   -8.0844718    541.01073  0.018714914  0.018533536            2 
 2410000   0.88187651    -8.086256    540.52036  0.018690192  0.018527493            3 
 2411000   0.87573977   -8.0851676    540.70736  0.018688904   0.01852143            1 
 2412000   0.87014896   -8.0744017    540.26093  0.018665731  0.018515374            3 
 2413000   0.87493045   -8.0713897    541.61653  0.018704812  0.018509378            2 
 2414000   0.86607458   -8.0556561    541.40221  0.018689665  0.018503396            3 
 2415000   0.87697071   -8.0723399    541.41245  0.018682279  0.018497388            3 
 2416000   0.85324186   -8.0757442    540.06462  0.018628057  0.018491347            4 
 2417000   0.87152424   -8.1110617    539.85612  0.018613161  0.018485302            2 
 2418000   0.85882962    -8.049131    542.11857  0.018683436   0.01847928            4 
 2419000    0.8564731   -8.0592248    541.24635  0.018645665  0.018473199            1 
 2420000   0.87917518    -8.107415     540.8029  0.018622689  0.018467115            3 
 2421000   0.85210599   -8.1185309    542.04793  0.018657852   0.01846101            5 
 2422000   0.86386389   -8.1023017    541.28723  0.018623976  0.018454872            3 
 2423000   0.86531328     -8.07314    541.45899  0.018622197  0.018448748            4 
 2424000    0.8583893   -8.1168329    540.27915  0.018573953  0.018442681            2 
 2425000   0.84600284   -8.0991688    541.46122  0.018606915  0.018436615            2 
 2426000   0.87394945    -8.082237     541.2189  0.018590921  0.018430567            5 
 2427000   0.86141479   -8.0722665    541.69158  0.018599491  0.018424535            2 
 2428000   0.87022787   -8.0780252    542.31926  0.018613374  0.018418464            6 
 2429000   0.87534405   -8.1383896    540.39753  0.018539781  0.018412386            1 
 2430000   0.83348771    -8.137899     541.4239  0.018567349  0.018406252            1 
 2431000   0.86252242   -8.0729146    541.63622   0.01856699  0.018400136            3 
 2432000   0.85805264   -8.0850083    542.12007  0.018575934  0.018394087            2 
 2433000   0.84423169   -8.1013503    542.27375  0.018573563   0.01838801            4 
 2434000   0.87173462   -8.1137746    540.38527  0.018501276  0.018381949            4 
 2435000   0.84693029   -8.1205226    539.76428  0.018472426    0.0183759            2 
 2436000   0.86910472   -8.0742103    541.98372  0.018540768    0.0183698            3 
 2437000   0.86130586   -8.1071375    540.83163  0.018493764  0.018363701            2 
 2438000   0.86770356   -8.1076016    541.25247  0.018500563  0.018357602            1 
 2439000   0.85501638    -8.140161     539.2924  0.018426008  0.018351501            9 
 2440000   0.84846695   -8.0816118    542.76232  0.018536964  0.018345418            2 
 2441000   0.85740529   -8.1083114    542.27364  0.018512688  0.018339353            3 
 2442000    0.8819145   -8.0987196    542.41495  0.018509929   0.01833331            4 
 2443000   0.88171105   -8.0998658    541.46763  0.018470038  0.018327263            2 
 2444000   0.86367584    -8.096127    541.51792  0.018464195  0.018321233            4 
 2445000   0.86912797   -8.1124057    541.36582  0.018451459  0.018315179            9 
 2446000   0.85330764   -8.1157169    541.97311  0.018464606  0.018309115            3 
 2447000   0.85283265    -8.128738    541.98865  0.018457589  0.018303049            1 
 2448000   0.84887044   -8.0947698    541.41722  0.018430597  0.018296962            2 
 2449000   0.87729118   -8.1265002    541.18099  0.018415033  0.018290881            3 
 2450000   0.85677495   -8.1323507    541.05683  0.018403293  0.018284754            3 
 2451000    0.8661153   -8.1131113    541.33309  0.018405178  0.018278649            2 
 2452000   0.85242859   -8.0836166    541.43774  0.018401228  0.018272534            2 
 2453000   0.88291801   -8.1159404    541.70971  0.018402966  0.018266438            4 
 2454000   0.83636175   -8.0941058    542.52064  0.018423005  0.018260332            3 
 2455000   0.87546036   -8.1029766    542.20148  0.018404667  0.018254189            3 
 2456000   0.86120923   -8.1004144    543.36923  0.018436795  0.018248084            2 
 2457000   0.86571488   -8.1119621    542.56183  0.018401907  0.018241978            5 
 2458000   0.86653181   -8.1491925    541.08671   0.01834441  0.018235846            4 
 2459000   0.85465339    -8.117647    542.36467  0.018380258  0.018229717            1 
 2460000   0.85735475   -8.0977974    542.14176  0.018365236  0.018223592            4 
 2461000   0.86686343   -8.1071991    542.65058  0.018375003  0.018217511            3 
 2462000   0.85787116   -8.1156841    542.40137  0.018359104  0.018211412            2 
 2463000   0.82746393   -8.1130515    541.90059  0.018334707  0.018205313            5 
 2464000   0.84326084   -8.0992059    541.90139  0.018327293  0.018199197            3 
 2465000   0.86973997   -8.1165299     542.5604  0.018342136  0.018193078            1 
 2466000   0.85618545   -8.1001832    543.68579  0.018372729  0.018187021            1 
 2467000   0.86189133   -8.1196782    541.53125  0.018292503  0.018180946            4 
 2468000   0.84863393   -8.0984005    542.17112  0.018306696  0.018174848            1 
 2469000   0.85557599   -8.1517033    540.64426  0.018247747  0.018168728            2 
 2470000   0.85273677   -8.1364711     542.0011  0.018286137  0.018162558            2 
 2471000   0.86783898    -8.150912    542.73648  0.018303537  0.018156438            4 
 2472000   0.85263035   -8.1437243    542.42246  0.018285547   0.01815031            5 
 2473000   0.88242376   -8.1601171    542.97315  0.018296709  0.018144162            3 
 2474000   0.87079605   -8.1429586      542.346  0.018268189  0.018138014            3 
 2475000   0.83923607   -8.0715414    543.38518  0.018295797  0.018131919            2 
 2476000   0.83775709   -8.1418418    543.49472  0.018292095   0.01812581            4 
 2477000   0.85597474   -8.1143919    544.38965  0.018314818  0.018119718            3 
 2478000   0.84006925   -8.1355176    541.48756  0.018209832  0.018113583            1 
 2479000   0.84971042   -8.0876334    543.37981  0.018266096  0.018107465            3 
 2480000    0.8745577   -8.1134544    543.01903  0.018246607  0.018101375            6 
 2481000   0.83967269   -8.1005048    543.30409  0.018248827  0.018095304            3 
 2482000   0.84828197   -8.1136099     543.9777  0.018264092  0.018089236            2 
 2483000   0.82577537   -8.1296664    543.81243  0.018251189   0.01808314            3 
 2484000   0.85233877   -8.1271764    543.80859  0.018243713  0.018077068            2 
 2485000   0.85054107   -8.0847319     543.7495   0.01823439  0.018071055            1 
 2486000   0.85566937   -8.0856141    544.71435  0.018259398  0.018064992            1 
 2487000   0.84797525   -8.1098565     543.7911   0.01822112  0.018058941            4 
 2488000   0.86352483   -8.1328901    543.15608  0.018192527  0.018052854            2 
 2489000   0.85619273   -8.1100805    544.89792  0.018243535  0.018046767           10 
 2490000   0.85160822   -8.1148425    543.63896  0.018194075  0.018040711            3 
 2491000   0.85495645   -8.1313591    543.56387  0.018184259  0.018034643            4 
 2492000   0.84930004   -8.1309178    544.61539  0.018212125  0.018028578            2 
 2493000   0.87382266   -8.1073588    545.00405  0.018217811  0.018022544            2 
 2494000   0.85214381   -8.1133847    545.34081  0.018221759  0.018016536            4 
 2495000   0.85321679   -8.1137159    543.71874  0.018160278  0.018010513            4 
 2496000    0.8306538   -8.1047071    543.85875  0.018157677  0.018004504            4 
 2497000   0.85616092    -8.141028    543.76652  0.018147328  0.017998454            7 
 2498000   0.85560153    -8.099469    544.40976  0.018161521  0.017992442            6 
 2499000   0.87933561   -8.1169083    545.27889  0.018183236  0.017986418            3 
 2500000   0.86811198   -8.1389563    544.27888  0.018142629  0.017980419            3 
 2501000   0.85342948   -8.1519772     544.8703  0.018155081  0.017974412            8 
 2502000    0.8533156   -8.1548348    545.13769  0.018156731   0.01796839            1 
 2503000   0.84253638   -8.1258303    545.90324  0.018174965  0.017962392            4 
 2504000   0.83732016    -8.127651     545.4913  0.018153997  0.017956397            2 
 2505000   0.84599172   -8.1258408    545.48177  0.018146433  0.017950438            2 
 2506000   0.83576858   -8.1630004    545.61798  0.018143721  0.017944504            2 
 2507000   0.86260279   -8.1693342     546.0871  0.018152077  0.017938551            3 
 2508000   0.85263968   -8.1568951    544.71846  0.018099364  0.017932594            6 
 2509000   0.85243899   -8.1122475    546.24097  0.018142719   0.01792665            2 
 2510000   0.84852028   -8.1123996    546.76794  0.018152986   0.01792073            3 
 2511000   0.84466496    -8.112257    546.66543  0.018142355  0.017914832            2 
 2512000   0.84587986   -8.0978749    546.94803  0.018144507   0.01790895            6 
 2513000    0.8219663   -8.1200758    547.23316  0.018146742  0.017903002            2 
 2514000   0.84213086   -8.1116379    546.63474  0.018119688  0.017897043            4 
 2515000   0.85035982   -8.1211137    546.20525  0.018098252  0.017891081            4 
 2516000   0.86364626   -8.1191894    545.33661  0.018062288  0.017885104            4 
 2517000   0.83740617    -8.109275    546.04101  0.018078433  0.017879126            2 
 2518000   0.87681144   -8.1619255     546.9942    0.0181028  0.017873136            1 
 2519000    0.8637697   -8.1606693    546.20219  0.018069412  0.017867178            2 
 2520000   0.86513797   -8.1163907    545.84208  0.018050333  0.017861242            2 
 2521000   0.84718567   -8.0873611    547.32461  0.018092179  0.017855295            2 
 2522000   0.85376831   -8.1773266    545.57101  0.018027062  0.017849326            2 
 2523000   0.83677365   -8.1056383    544.82687  0.017995339  0.017843344            3 
 2524000   0.84262126   -8.1592835    544.62214  0.017981449  0.017837345            3 
 2525000    0.8529951   -8.0996842     547.1286  0.018057049  0.017831398            2 
 2526000   0.84255479   -8.1179053    547.09661  0.018048846  0.017825452            3 
 2527000   0.83362627   -8.1305303    545.97162  0.018004604  0.017819449            3 
 2528000   0.86430409   -8.1255779    546.55754  0.018016796  0.017813437            7 
 2529000   0.85711705   -8.1213187    546.07933  0.017993915  0.017807469            2 
 2530000   0.84155335   -8.1260795    546.35022  0.017995725   0.01780147            2 
 2531000   0.83488854   -8.1194879    545.42634  0.017958196  0.017795493            5 
 2532000   0.85716295   -8.1322781    547.07289  0.018005295  0.017789529            3 
 2533000   0.84261409   -8.1329669    546.89512  0.017992338  0.017783558            3 
 2534000   0.83806821   -8.1416132    548.06931  0.018023853   0.01777757            8 
 2535000   0.86533961   -8.1142895    546.64973  0.017970077    0.0177716            4 
 2536000     0.834504   -8.1192586    546.96377   0.01797331  0.017765674            2 
 2537000   0.82664197   -8.1526618     545.7901  0.017927674  0.017759742            7 
 2538000   0.83944194   -8.1149908    547.79612  0.017986476  0.017753806            3 
 2539000    0.8519477   -8.1340249    546.75041  0.017945071  0.017747866            2 
 2540000   0.85146972   -8.1551852    547.50061  0.017962618  0.017741957            2 
 2541000   0.81715219   -8.0774132    548.98566  0.018004252  0.017736076            3 
 2542000   0.83512854   -8.1453424    547.07411  0.017934504  0.017730177            4 
 2543000    0.8577704   -8.1472846    547.00343  0.017925135   0.01772429            2 
 2544000   0.83908839   -8.1165386    548.08331  0.017953463  0.017718416            2 
 2545000   0.84102635   -8.1342496    548.07855  0.017946252  0.017712557            4 
 2546000   0.84166133    -8.141528    547.48401  0.017919744  0.017706678            1 
 2547000   0.83672249   -8.1377435    548.37818  0.017941964  0.017700804            6 
 2548000    0.8396508   -8.1227867    547.83968   0.01791731   0.01769491            4 
 2549000   0.84817226   -8.1467906     548.1487  0.017920384  0.017689021            4 
 2550000   0.84081549   -8.1269474    548.56711   0.01792703  0.017683182            2 
 2551000   0.83826892   -8.1696343    547.39326  0.017881656  0.017677321            1 
 2552000   0.85952638   -8.1443989    548.14643  0.017899243  0.017671418            2 
 2553000   0.82155733   -8.1699256    548.50959  0.017904086  0.017665491            2 
 2554000   0.84188803   -8.1755648    548.28923  0.017889886  0.017659593            2 
 2555000   0.84436424   -8.1746105    547.96662  0.017872362   0.01765368            2 
 2556000   0.84403939   -8.2279051    547.81883  0.017860551  0.017647713            3 
 2557000   0.83369508   -8.1799191    548.24768  0.017867543  0.017641757            3 
 2558000   0.84313136   -8.1578845     548.6272  0.017872922  0.017635819            3 
 2559000   0.85193479    -8.144269    547.03602  0.017814121  0.017629912            4 
 2560000   0.85691623   -8.1615962    548.36526  0.017850431  0.017624004            4 
 2561000   0.84409153   -8.1578902    547.46224  0.017814078  0.017618061            6 
 2562000    0.8327847   -8.1211604     549.3133  0.017867334  0.017612125            7 
 2563000   0.83398869   -8.1383744    548.59238  0.017836922  0.017606246            1 
 2564000   0.83612229   -8.1605143    548.59395  0.017830016  0.017600373            1 
 2565000    0.8346255   -8.1394886    548.38503  0.017816278  0.017594463            6 
 2566000   0.82460427   -8.1526262    549.48207  0.017844962  0.017588568            3 
 2567000   0.81993379   -8.1502029    547.68393  0.017779637  0.017582683            3 
 2568000   0.84987964   -8.0869243    549.56141  0.017833639  0.017576819            2 
 2569000   0.86649012   -8.1082269    549.67939  0.017830524   0.01757099            3 
 2570000   0.83682832   -8.1310766    548.95767  0.017800184  0.017565131            3 
 2571000   0.85217524   -8.1419092     550.2236  0.017834293  0.017559278            3 
 2572000   0.85772086    -8.145669    550.30456  0.017829982  0.017553472            3 
 2573000    0.8231786   -8.1599476    548.82764  0.017775218   0.01754765            3 
 2574000   0.83104251   -8.1490039     549.8885  0.017802658  0.017541822            1 
 2575000   0.82932178   -8.1468915    549.76648  0.017791795  0.017535965            6 
 2576000   0.84445159   -8.1736582    549.01201  0.017760482  0.017530169            2 
 2577000   0.84459862   -8.1604883    549.43034  0.017767117   0.01752433            2 
 2578000   0.82189075   -8.1778521    550.02521  0.017779455  0.017518486            1 
 2579000   0.84625529   -8.1470549    551.41782  0.017817559  0.017512641            3 
 2580000   0.84650227   -8.1648875    549.43528  0.017746617  0.017506811            1 
 2581000   0.83222946    -8.161111    549.37927  0.017737933  0.017500997            4 
 2582000   0.85079062   -8.1460354    551.29416  0.017792866   0.01749519            4 
 2583000   0.84943196   -8.2067969    549.66924  0.017733554  0.017489381            3 
 2584000   0.83807101   -8.1444624    550.75505  0.017761708   0.01748355            5 
 2585000   0.82381476   -8.1577895    551.70501  0.017785461  0.017477731            6 
 2586000   0.83103743   -8.1879412    549.91827  0.017721006  0.017471897            1 
 2587000     0.829515   -8.2099087     550.0736   0.01771916  0.017466063            6 
 2588000   0.83118457   -8.1818903    549.81671  0.017704042  0.017460193            1 
 2589000   0.82762779   -8.1389834    549.08867  0.017673769  0.017454343            2 
 2590000   0.82307225   -8.1657742    551.66137  0.017749722  0.017448496            3 
 2591000   0.83151072   -8.1765036    548.79515  0.017650687   0.01744267            2 
 2592000   0.82000528   -8.1684152    550.23499  0.017690168  0.017436797            3 
 2593000   0.84102312   -8.1715557    550.90448  0.017704862  0.017430985            1 
 2594000   0.84101537   -8.1988067    549.15447  0.017641817  0.017425156            3 
 2595000   0.84514343    -8.154682    549.47302  0.017645248  0.017419301            2 
 2596000   0.84833317   -8.1648663    551.82597  0.017713982  0.017413461            3 
 2597000   0.84364418   -8.1606533     550.1074  0.017652015   0.01740768            4 
 2598000   0.83521199   -8.1415553    550.97362  0.017673005  0.017401895            2 
 2599000   0.84815847   -8.1540725     552.3959  0.017711809  0.017396141            1 
 2600000   0.84316293   -8.1491994    550.70542  0.017650815  0.017390374            2 
 2601000   0.83924771   -8.1663289    551.36889  0.017665285  0.017384614            2 
 2602000   0.81059236   -8.1454082    552.75441   0.01770287  0.017378866            1 
 2603000   0.84119024   -8.1593695    551.01751  0.017640463  0.017373136            3 
 2604000   0.81147857   -8.1497206    552.16061  0.017670271   0.01736738            2 
 2605000   0.83694576   -8.1724437    551.24271  0.017634124  0.017361611            5 
 2606000   0.83264945   -8.1770028    551.24044  0.017627284  0.017355817            4 
 2607000   0.82949075   -8.1502278    552.68311  0.017666638  0.017350037            2 
 2608000    0.8277783   -8.1692452    550.43523  0.017588038  0.017344261            2 
 2609000   0.84544954   -8.1567278    551.24478  0.017607154  0.017338481            2 
 2610000   0.82593155   -8.1914448    550.83033  0.017587175  0.017332692            5 
 2611000   0.84931049   -8.1385185    551.48394    0.0176013  0.017326902            4 
 2612000   0.84228488   -8.1601852     551.1066  0.017582523  0.017321113            3 
 2613000   0.84204822   -8.1543236    551.27333  0.017581112  0.017315346            4 
 2614000   0.81652638   -8.1640002    552.00493  0.017597709  0.017309599            2 
 2615000   0.82886846   -8.1775307     552.8708  0.017618572  0.017303854            3 
 2616000   0.81777463   -8.1372288    551.53474  0.017569277  0.017298101            2 
 2617000   0.84720284   -8.1389787    552.36538  0.017589013   0.01729235            2 
 2618000   0.84632334   -8.1624582    552.10771  0.017574093  0.017286619            2 
 2619000   0.81940743   -8.1761922     552.0384  0.017565178  0.017280884            4 
 2620000   0.84272281   -8.1613036     554.2277  0.017628107  0.017275156            1 
 2621000     0.828447   -8.1653414    553.00764  0.017582591  0.017269445            2 
 2622000   0.82657154    -8.193739    552.61197  0.017563309  0.017263678            3 
 2623000   0.84651812    -8.183322    552.92253   0.01756648  0.017257954            1 
 2624000   0.83354444   -8.1539066    553.78165   0.01758707  0.017252252            2 
 2625000   0.83101893   -8.1673315    553.78722  0.017580547  0.017246571            3 
 2626000   0.83412744   -8.1849838    551.48872  0.017500911  0.017240899            2 
 2627000   0.83302743   -8.1563972    552.94621  0.017540484  0.017235214            2 
 2628000   0.81759819   -8.1401976    553.50579  0.017551553  0.017229513            2 
 2629000   0.82469035   -8.1842872    553.61898  0.017548465  0.017223866            1 
 2630000   0.84141705   -8.1737472    552.62348   0.01751025   0.01721817            1 
 2631000   0.84074311   -8.1661858    552.05823  0.017485691  0.017212463            3 
 2632000   0.81936273   -8.1820673    551.64224  0.017465876  0.017206738            1 
 2633000   0.82405092    -8.176646    552.52138  0.017487067  0.017201017            3 
 2634000   0.84019794   -8.1706158    553.80547  0.017521054    0.0171953            3 
 2635000    0.8240567   -8.1741461     553.1141   0.01749254  0.017189597            3 
 2636000   0.83885544   -8.1927304    553.39748  0.017494862  0.017183883            3 
 2637000   0.82913045   -8.1882571    552.91906  0.017473109  0.017178147            6 
 2638000   0.82334358   -8.2206005     552.1867   0.01744335  0.017172385            3 
 2639000   0.81767864   -8.2011211    551.14723  0.017403917  0.017166626            4 
 2640000   0.80966853   -8.1830969    552.77005  0.017448549    0.0171609            3 
 2641000   0.83465087    -8.201607    552.58117  0.017435983   0.01715516            5 
 2642000    0.8389774   -8.2285233    552.65215  0.017431622  0.017149444            2 
 2643000   0.83352409   -8.2070734    554.74396  0.017490981  0.017143729            2 
 2644000   0.83231472   -8.1906322    553.15766  0.017434369  0.017138041            2 
 2645000   0.81861953   -8.1828892    553.70531  0.017445032  0.017132332            1 
 2646000   0.83720229   -8.2107729    554.98229  0.017478656  0.017126654            6 
 2647000   0.82732645   -8.2357658    553.92545  0.017438781  0.017120977            3 
 2648000   0.80862966   -8.2110964    553.31962   0.01741313  0.017115283            2 
 2649000   0.82960635   -8.2285459    554.89235  0.017456032  0.017109608            8 
 2650000   0.84234443   -8.1868507    554.64999  0.017441824  0.017103955            2 
 2651000   0.82498855   -8.1907569    555.29732  0.017455593  0.017098291            4 
 2652000   0.82004681   -8.1987989    554.40521  0.017420978  0.017092665            3 
 2653000   0.83316559   -8.1722456    554.46338  0.017416239  0.017087032            2 
 2654000   0.83125176      -8.1906    553.79447  0.017388673  0.017081383            4 
 2655000    0.8174373   -8.1886523    554.84523  0.017415105  0.017075724            4 
 2656000   0.81493231   -8.1773564    554.03674  0.017383181  0.017070071            5 
 2657000   0.82146123   -8.1930449    553.50585  0.017359988  0.017064405            5 
 2658000     0.839048   -8.1540893    554.21321  0.017375634  0.017058799            4 
 2659000   0.83767075   -8.1921626    555.06633  0.017395836   0.01705317            2 
 2660000   0.83179418   -8.2176186    554.24651  0.017363612  0.017047559            5 
 2661000   0.81467576   -8.1910349    555.33184  0.017391076   0.01704194            6 
 2662000   0.83660029   -8.1878186    555.45286  0.017388331  0.017036334            3 
 2663000      0.83813   -8.1937747    555.91876  0.017396381  0.017030713            3 
 2664000   0.84580566    -8.211388    553.51171  0.017314555  0.017025061            2 
 2665000   0.82761194   -8.1836631    555.58735  0.017372963  0.017019428            2 
 2666000   0.82303859   -8.1960234    554.46513  0.017331368   0.01701381            3 
 2667000    0.8185949   -8.1980826    554.76101  0.017334115  0.017008222            2 
 2668000    0.8261835   -8.2291294    555.38222  0.017347021  0.017002608            2 
 2669000   0.83396117   -8.2129227    554.56285  0.017314939  0.016996963            4 
 2670000   0.83574901   -8.2182779    555.43845  0.017335782   0.01699131            3 
 2671000   0.83218084   -8.2046475    555.15322  0.017320393  0.016985656            4 
 2672000   0.81665851   -8.2099085    554.35012  0.017288864  0.016980043            2 
 2673000   0.81256449   -8.1788181    555.86813  0.017329721  0.016974456            4 
 2674000   0.80333903   -8.2103686    555.55548  0.017313497  0.016968867            3 
 2675000   0.81501083   -8.1962243    556.47748  0.017335747  0.016963258            2 
 2676000    0.8241706   -8.1983829    556.09944  0.017317496  0.016957625            4 
 2677000   0.80461101   -8.1820154    557.23484  0.017346371  0.016952051            2 
 2678000   0.82868114   -8.2154158    555.80325  0.017295346  0.016946455            4 
 2679000   0.82787375   -8.1910812    555.39911  0.017276319  0.016940872            4 
 2680000   0.80993251   -8.1929012    556.92552  0.017317336  0.016935306            3 
 2681000   0.81277144   -8.2182297    555.44489  0.017264854  0.016929716            2 
 2682000   0.82509443    -8.211882    555.53873  0.017261333  0.016924141            3 
 2683000   0.80045465   -8.2104931    556.32569  0.017279342  0.016918576            5 
 2684000   0.81155943   -8.2201656    555.28613  0.017240627  0.016913004            5 
 2685000   0.80929782   -8.2090602    557.37411   0.01729901  0.016907459            4 
 2686000   0.82175973   -8.1983486    556.89511  0.017277709  0.016901925            5 
 2687000   0.81210063   -8.1889809    558.39384   0.01731776  0.016896396            7 
 2688000   0.82409696    -8.191107    556.31966  0.017247013  0.016890857            5 
 2689000   0.82048239   -8.1892417     555.6338  0.017219344   0.01688534            2 
 2690000   0.80173734   -8.2159765    557.86248  0.017281985  0.016879793            6 
 2691000   0.82376421   -8.2047375    557.80486  0.017273779  0.016874285            1 
 2692000   0.81147732    -8.195709    556.73891  0.017234364   0.01686878            5 
 2693000   0.81571286   -8.2010963    557.79135  0.017260532  0.016863293            3 
 2694000    0.8033305   -8.1938984    557.86787  0.017256492  0.016857811            2 
 2695000   0.82574421   -8.1837074    557.09528  0.017226199  0.016852307            8 
 2696000   0.82670287   -8.2051376    556.83498  0.017211764  0.016846794            2 
 2697000   0.83639907   -8.1979225    557.08003  0.017212954  0.016841254            1 
 2698000   0.82324039   -8.2237868    555.57575  0.017160111  0.016835699            1 
 2699000   0.83247562   -8.2258742    555.79633  0.017160564  0.016830148            2 
 2700000   0.81942233    -8.197884    556.35664  0.017171501  0.016824599            2 
 2701000   0.82322608    -8.190844    557.43723  0.017198483   0.01681907            1 
 2702000   0.81346811    -8.218016    557.60437  0.017197273  0.016813527            3 
 2703000   0.82013819   -8.1850605     558.1679  0.017208284  0.016808001            1 
 2704000   0.81102671   -8.2052162    557.32513  0.017175947  0.016802465            1 
 2705000   0.80136383   -8.2094919    556.99293  0.017159363  0.016796904            1 
 2706000   0.81717445   -8.2139285    556.88385  0.017149663  0.016791349            3 
 2707000    0.7939862   -8.1913299    558.29442  0.017186751  0.016785813            5 
 2708000   0.81458056   -8.2173802    556.42427  0.017122854  0.016780292            3 
 2709000   0.83489354   -8.2118709    558.32543  0.017175016  0.016774753            4 
 2710000   0.81212116   -8.2055811    556.67005  0.017117775  0.016769227            6 
 2711000    0.8217873   -8.1765306    558.33865  0.017162752  0.016763704            4 
 2712000   0.83334667   -8.2130915    557.06518  0.017117293  0.016758191            3 
 2713000   0.83878745    -8.223962    555.68197  0.017068496  0.016752655            4 
 2714000   0.82055296    -8.212091    557.86388  0.017129203    0.0167471            2 
 2715000   0.79784619   -8.2100885    557.67947  0.017117233  0.016741519            7 
 2716000   0.80090915   -8.2545278     556.1242  0.017063212  0.016735939            3 
 2717000   0.80771099   -8.2348852    556.01738  0.017053655  0.016730353           10 
 2718000   0.82572349   -8.2384025    556.56847  0.017064277  0.016724779            6 
 2719000   0.82287122   -8.2168311    557.91507  0.017099273  0.016719232            5 
 2720000   0.80856002   -8.2440026    556.06811    0.0170364   0.01671367            2 
 2721000   0.83137861   -8.2336483    557.53593  0.017075093  0.016708108           11 
 2722000   0.81248157   -8.2211701    557.52955  0.017068624  0.016702549           10 
 2723000   0.83056236   -8.2527297    557.12215  0.017049888  0.016696999            5 
 2724000   0.81703908   -8.2044423    558.33574  0.017080756  0.016691466            2 
 2725000   0.83496509   -8.2173899     557.2572  0.017041504  0.016685947            1 
 2726000   0.81362671   -8.2487816    557.10358  0.017030557  0.016680423            3 
 2727000   0.81563196   -8.2130282    558.71746   0.01707363  0.016674863            2 
 2728000   0.80251803   -8.2369263    557.24695  0.017022451  0.016669329            9 
 2729000   0.82613811   -8.2240362    556.94847  0.017007099  0.016663772            1 
 2730000    0.8226378    -8.235019    556.49024  0.016986882  0.016658223            2 
 2731000   0.82783908   -8.2237688    557.18771  0.017001944  0.016652695            2 
 2732000   0.82586513   -8.2166696    557.87324  0.017016631  0.016647157            1 
 2733000   0.80216145   -8.2341049    558.18187  0.017019816  0.016641609            1 
 2734000   0.80597051   -8.2015707    558.26935  0.017016257  0.016636099            4 
 2735000    0.8161222   -8.2147808    558.43538  0.017015094   0.01663057            5 
 2736000   0.82983883   -8.2037513    558.72772  0.017017779  0.016625103            6 
 2737000   0.80738557   -8.2080702    559.15284  0.017024505  0.016619626            2 
 2738000   0.81389821   -8.2174171    558.56594  0.017000424  0.016614135            9 
 2739000   0.79657278   -8.2251962    558.99296   0.01700721  0.016608651            2 
 2740000   0.81467581   -8.2163437    558.40287  0.016983056  0.016603168            1 
 2741000   0.81307445   -8.2128026     558.7413  0.016987149  0.016597707            2 
 2742000   0.80471453    -8.224729     558.9968  0.016988719  0.016592217            1 
 2743000   0.80276281   -8.2305222    558.67388  0.016972715  0.016586705            3 
 2744000    0.8074399   -8.1944458    558.64456  0.016965639  0.016581217            2 
 2745000    0.8103032    -8.229139    558.68024  0.016960542  0.016575746            2 
 2746000   0.80724414   -8.2314485    559.32224  0.016973848  0.016570272            3 
 2747000   0.82378138   -8.2079863    559.09373  0.016960737  0.016564795            3 
 2748000   0.82132996   -8.2109961    558.74086  0.016943864  0.016559326            2 
 2749000   0.80866105   -8.2262358    558.50441  0.016930533  0.016553833            2 
 2750000   0.81825785   -8.2577605    559.04335  0.016940707   0.01654834            3 
 2751000   0.80800066   -8.2250264    559.22881  0.016940168  0.016542859            3 
 2752000   0.81708184   -8.2433968     558.8881  0.016923695  0.016537365            2 
 2753000   0.79721155   -8.2402948    559.27951  0.016929395  0.016531858            8 
 2754000    0.8224215    -8.238239    558.10777  0.016887793  0.016526365            4 
 2755000   0.82364984   -8.2381738    558.57802  0.016895887  0.016520854            3 
 2756000   0.81204943   -8.2365257    558.47838  0.016886743  0.016515351            3 
 2757000   0.80901788   -8.2216373     558.7818   0.01688979  0.016509866            3 
 2758000   0.80913354   -8.2322829    558.80337  0.016884317   0.01650439            6 
 2759000   0.81401242   -8.2371768    559.18624  0.016889762  0.016498905            6 
 2760000   0.81876762   -8.2421632    559.87907  0.016904561   0.01649341            4 
 2761000   0.80311338   -8.2304699     560.8613  0.016928085  0.016487928            3 
 2762000   0.81171102   -8.2345452    559.91837  0.016893506   0.01648244            7 
 2763000   0.80622882   -8.2226311     559.5962  0.016877675  0.016476938            2 
 2764000   0.81962868   -8.2368575     559.3632  0.016864544  0.016471429            1 
 2765000   0.82289263   -8.2551385    558.48822  0.016832074  0.016465932            3 
 2766000   0.80184181   -8.3080276    557.48942  0.016795897  0.016460417           11 
 2767000   0.79458805    -8.261032    558.36236  0.016816117  0.016454899            2 
 2768000   0.81490762   -8.2462727    558.97433  0.016828466  0.016449393            4 
 2769000   0.81677212   -8.2427611    558.01564  0.016793537  0.016443894            3 
 2770000   0.79944114   -8.2333348    558.22362  0.016793731  0.016438398            3 
 2771000   0.80410375   -8.2569662    559.07152   0.01681317  0.016432907            4 
 2772000   0.79020033    -8.261261    559.01356  0.016805362  0.016427423            3 
 2773000   0.81493526   -8.2161419    558.73955  0.016791067  0.016421942            1 
 2774000   0.81446841   -8.2342286    559.59219  0.016810628  0.016416472            2 
 2775000   0.81001505   -8.2397612    559.22317  0.016793489   0.01641101            3 
 2776000   0.79457385   -8.2389181    559.58454  0.016798287  0.016405532            2 
 2777000   0.81113436   -8.2424432    559.90559  0.016801872  0.016400039            4 
 2778000   0.82273134   -8.2635525    559.19824  0.016774605  0.016394533            5 
 2779000     0.811951   -8.2245268    559.74277  0.016784898  0.016389043            3 
 2780000   0.80609731   -8.2316144    558.83688  0.016751705  0.016383562            4 
 2781000   0.78762538   -8.2304562    559.33628  0.016760646  0.016378069            9 
 2782000   0.80635148   -8.2429521    560.10783  0.016777733   0.01637258            3 
 2783000   0.80882021   -8.2442011     559.8612  0.016764319  0.016367077            6 
 2784000   0.79615669   -8.2283741    559.86832  0.016758511  0.016361576            3 
 2785000   0.79666359   -8.2427986    559.16539   0.01673146  0.016356093            1 
 2786000   0.81584857   -8.2627723    559.97166  0.016749571  0.016350633            3 
 2787000   0.79949998   -8.2300825    560.13035  0.016748306  0.016345165            2 
 2788000   0.81431648   -8.2476452    559.90698  0.016735622  0.016339728            6 
 2789000   0.81453219   -8.2352942     559.6483  0.016721892  0.016334268            2 
 2790000   0.81435376   -8.2252153    559.68027  0.016716854  0.016328825            6 
 2791000   0.80463698     -8.26142    559.75229  0.016713015  0.016323374            5 
 2792000   0.81387627   -8.2995466    560.79851  0.016738256   0.01631789            3 
 2793000   0.79958025   -8.2702827    559.86396  0.016704379  0.016312405            3 
 2794000   0.82145483   -8.2602582    559.36907   0.01668364  0.016306947            2 
 2795000   0.80370654   -8.2557984     560.6037  0.016714481   0.01630147            3 
 2796000    0.8074237   -8.2600328    559.57824   0.01667794  0.016296008            2 
 2797000   0.80798845   -8.2412348    560.83143  0.016709314  0.016290566            2 
 2798000   0.79475968   -8.2593645    560.35891  0.016689269  0.016285127            1 
 2799000   0.79025194   -8.2452217    560.61296  0.016690871  0.016279703            2 
 2800000   0.80465068   -8.2611799    559.50172  0.016651837  0.016274245            5 
 2801000   0.80248353    -8.252201    560.25674  0.016668355  0.016268791            2 
 2802000   0.80889204   -8.2727041    559.87985  0.016651197  0.016263341            2 
 2803000   0.79761076   -8.2754691    560.75939  0.016671405   0.01625789            4 
 2804000    0.7929085   -8.2742975    560.88124  0.016669081  0.016252454            2 
 2805000   0.79946865   -8.2848527     560.7024  0.016657825  0.016247015            2 
 2806000   0.79640114   -8.2423159    560.37399  0.016642136  0.016241584            3 
 2807000   0.81177473    -8.254774    561.56105  0.016671448  0.016236171            3 
 2808000   0.79913072   -8.2311935     563.0377  0.016709333   0.01623081            2 
 2809000   0.79658356   -8.2651172    561.25939  0.016650629  0.016225474            1 
 2810000   0.83179785   -8.2390373    561.86611  0.016662696  0.016220126            2 
 2811000   0.79112517   -8.2356076    561.57684  0.016648193  0.016214777            2 
 2812000   0.80702854   -8.2451467    562.24365  0.016662033  0.016209386            1 
 2813000   0.78142422   -8.2279814    563.16817  0.016683498  0.016204003            4 
 2814000   0.78377944   -8.2716826    561.05966  0.016615129  0.016198625            2 
 2815000   0.80440852   -8.2707217     561.4274  0.016620112  0.016193247            2 
 2816000    0.7965497   -8.2494699    562.94141  0.016659014  0.016187863            3 
 2817000   0.81484171   -8.2775731    561.93149  0.016623225   0.01618252            5 
 2818000   0.79494787   -8.2566915    563.02353  0.016649619  0.016177165            3 
 2819000   0.80382129   -8.2431979    562.65205  0.016632732  0.016171811            4 
 2820000   0.80165364   -8.2931565    562.06785   0.01660957  0.016166459            2 
 2821000   0.79877796   -8.2823864    561.42232  0.016584613  0.016161094            1 
 2822000    0.7938682   -8.2596583    562.16085  0.016600545  0.016155733            2 
 2823000   0.80702616   -8.3124888    561.74514  0.016582393  0.016150368            3 
 2824000   0.79067732   -8.2668044     561.7011  0.016575221  0.016145019            3 
 2825000   0.81311129      -8.2794     561.9447   0.01657654  0.016139675            2 
 2826000   0.80167017   -8.2589569     564.0762  0.016633528  0.016134333            4 
 2827000   0.79440808   -8.2676502    562.68836  0.016586734  0.016129023           10 
 2828000   0.81177459   -8.2614044    561.83609  0.016555755  0.016123677            2 
 2829000   0.79965472   -8.2504609    562.77939  0.016577689  0.016118358            6 
 2830000   0.81021955   -8.2843112    561.96507  0.016547852  0.016113055           10 
 2831000   0.78490757   -8.2783958     563.0147  0.016572904  0.016107732            3 
 2832000   0.80937437   -8.2807804    561.75887  0.016530099  0.016102397            4 
 2833000   0.80138345   -8.2706934    562.69223  0.016551719  0.016097073            2 
 2834000   0.77327682   -8.2859164     562.4449  0.016538606  0.016091724            2 
 2835000   0.78771066   -8.3069966    562.78605    0.0165428  0.016086402            1 
 2836000   0.79969188   -8.2831516    562.24992  0.016521213  0.016081071            4 
 2837000   0.81217112   -8.3124358    562.04527  0.016509378  0.016075749            2 
 2838000    0.7753748   -8.2699909    563.33697   0.01654149  0.016070424            2 
 2839000   0.80951509   -8.2663338    562.46964  0.016510204  0.016065091            2 
 2840000   0.78588971   -8.2628159    562.48512  0.016504845  0.016059741            3 
 2841000   0.79887881    -8.276081    562.55737  0.016501155  0.016054415            3 
 2842000   0.80001004     -8.25524    564.97944  0.016566369  0.016049097            5 
 2843000   0.80539819    -8.292393    562.92082    0.0165002  0.016043779            3 
 2844000   0.78203326   -8.2548885    563.40971  0.016508723  0.016038474            1 
 2845000   0.78772189   -8.2639622    562.76242  0.016483961   0.01603315            2 
 2846000   0.77488086    -8.298881    562.83401  0.016480265  0.016027826            2 
 2847000   0.80586209   -8.2466482    563.18313  0.016484695  0.016022504            1 
 2848000   0.80954851   -8.2759725    564.34405  0.016512876  0.016017184            5 
 2849000   0.79281732   -8.2672342    563.44254  0.016480711  0.016011855            2 
 2850000   0.78766436   -8.2757045    562.52731  0.016448167  0.016006516            6 
 2851000   0.79520963   -8.2603806     562.7456  0.016448778  0.016001216            3 
 2852000   0.79277779    -8.288738     563.9633  0.016478591  0.015995884            5 
 2853000   0.80923761   -8.2634642    563.13818  0.016448714   0.01599057            3 
 2854000   0.78552781   -8.2919001    563.05454  0.016440509  0.015985273            2 
 2855000   0.77979179   -8.3105644    564.00828  0.016462588  0.015979968            5 
 2856000   0.78303609   -8.2806394    563.01546  0.016427855   0.01597464            2 
 2857000   0.80082338   -8.2896577    562.31885  0.016401787  0.015969332            3 
 2858000   0.79004355   -8.2868623    563.83553  0.016440271  0.015964017            5 
 2859000   0.80064965    -8.287509    562.98361  0.016409689  0.015958694            2 
 2860000   0.76640093   -8.3126616    561.35503  0.016356498  0.015953339            2 
 2861000   0.81074357   -8.2699871     564.2143  0.016434064  0.015948024            2 
 2862000   0.80643161   -8.2655528    564.02671   0.01642286  0.015942742            9 
 2863000    0.7979673   -8.2947727    562.69434  0.016378343  0.015937468            8 
 2864000   0.78967712   -8.3267838     562.7401  0.016373955  0.015932177            2 
 2865000   0.78913422   -8.2657122    563.31742  0.016385032  0.015926891            1 
 2866000   0.79165948   -8.2801767    563.34076  0.016379994  0.015921606            3 
 2867000   0.80526654   -8.2969071     564.6678  0.016412853  0.015916349            1 
 2868000   0.78631262   -8.2928399    564.22482  0.016394259  0.015911069            3 
 2869000    0.7891642   -8.2793856    563.84651  0.016377556  0.015905778            2 
 2870000   0.80297795   -8.2761735    563.66269  0.016366512  0.015900506            1 
 2871000   0.78959289   -8.2800262     563.5353  0.016357114  0.015895224            1 
 2872000   0.77452736   -8.2910512    562.88608  0.016332581   0.01588995            5 
 2873000   0.79003371   -8.3020059    563.19409   0.01633583  0.015884659            2 
 2874000    0.7946531   -8.2866192    564.12429  0.016357118  0.015879348            4 
 2875000   0.77858328   -8.2913466    563.62432  0.016336937  0.015874047            5 
 2876000    0.8047164   -8.3125866    563.27471  0.016321126  0.015868716            3 
 2877000   0.79165322   -8.3365555    563.06117  0.016309268  0.015863398            3 
 2878000   0.79480854   -8.3324365    561.69831  0.016264139  0.015858068            4 
 2879000   0.80362502   -8.3075778    563.64066  0.016314712   0.01585277            5 
 2880000   0.77840124   -8.2980196    563.95289  0.016318081  0.015847474            5 
 2881000   0.78760203   -8.2983572    563.84295  0.016309237  0.015842182            3 
 2882000   0.77472486   -8.3108054    563.62544  0.016297289  0.015836898            1 
 2883000   0.78894665   -8.2832298    565.08764  0.016333901  0.015831619            2 
 2884000   0.78289214   -8.2705305    563.29755  0.016276513  0.015826365            3 
 2885000   0.78995346   -8.2866662     564.9923  0.016319824  0.015821095            3 
 2886000   0.79522642   -8.2953632    564.09413  0.016288234  0.015815845            3 
 2887000   0.80176972    -8.277954    564.86335  0.016304796  0.015810595            2 
 2888000   0.80428139   -8.2854388    565.30645  0.016311936  0.015805349            2 
 2889000   0.78757671   -8.3193611    564.07032  0.016270634  0.015800103            3 
 2890000   0.77682012   -8.3237946    564.51765  0.016277902  0.015794842            3 
 2891000   0.80075624   -8.2892707    564.07894  0.016259626  0.015789581            3 
 2892000   0.80188529   -8.2955101    564.47983  0.016265555  0.015784328            5 
 2893000     0.791665   -8.2959988    563.90735  0.016243443  0.015779068            2 
 2894000   0.79230731    -8.309549    565.00648  0.016269479   0.01577382            2 
 2895000   0.79729322   -8.2738258    565.36491  0.016274177  0.015768599            3 
 2896000   0.79900253    -8.275317    565.35348  0.016268228  0.015763376            4 
 2897000   0.77962443   -8.3130708    563.27425  0.016202803  0.015758159            2 
 2898000   0.79917988   -8.2756781     565.5715  0.016263271  0.015752922            2 
 2899000   0.80174755   -8.2813681    565.19415  0.016246814  0.015747708            5 
 2900000   0.78453148   -8.2971425    564.96516  0.016234631   0.01574251            2 
 2901000   0.79986795   -8.3041944    564.88687  0.016226786  0.015737295            2 
 2902000   0.77077327    -8.260208    565.76359   0.01624637  0.015732077            2 
 2903000   0.78783756   -8.2730671    565.41798  0.016230853   0.01572687            3 
 2904000   0.79437334   -8.3007568    565.69738  0.016233281   0.01572168            3 
 2905000   0.79573478     -8.28901    565.39183  0.016218928  0.015716459            5 
 2906000   0.78614673   -8.3084537    564.33407  0.016183014  0.015711237            3 
 2907000    0.7793222   -8.3081923    564.51038  0.016182501  0.015706025            8 
 2908000   0.78357478   -8.2957325    564.88213   0.01618759   0.01570082            5 
 2909000   0.79003599   -8.2686383    567.23496  0.016249426  0.015695631            2 
 2910000   0.76853666    -8.284542    565.78917  0.016202439  0.015690453            2 
 2911000   0.79019894   -8.3020593    565.16247  0.016178932  0.015685245            2 
 2912000   0.80790482   -8.3055089    564.26175  0.016147601  0.015680019            2 
 2913000   0.79199269   -8.3189878    563.83631  0.016129886  0.015674816            3 
 2914000   0.79228987   -8.3235045    565.43101  0.016169956  0.015669601            2 
 2915000   0.78882881   -8.2939067    565.96207   0.01617959  0.015664401            1 
 2916000   0.78909485   -8.3128113    565.23953  0.016153393  0.015659209            4 
 2917000   0.78610401   -8.3216328    566.57899  0.016186121  0.015654027            4 
 2918000   0.78826003   -8.3107428     565.9109  0.016161495  0.015648826            6 
 2919000   0.78907349   -8.2994521    566.26263  0.016165999  0.015643641            2 
 2920000   0.77699241   -8.3253249    564.39464  0.016107153  0.015638436            5 
 2921000   0.78587007    -8.302428    565.50914  0.016133434  0.015633229            3 
 2922000   0.77675844   -8.3269954    564.01724  0.016085365   0.01562801            3 
 2923000   0.79541251   -8.3287571    565.42577  0.016120018  0.015622798            2 
 2924000   0.76357451   -8.3255948     565.7127  0.016122683  0.015617597            7 
 2925000   0.78368066   -8.3188046     565.3476  0.016106769  0.015612391            2 
 2926000   0.79276494   -8.3149987    565.09122  0.016093963  0.015607178            4 
 2927000   0.77983211   -8.2887169    565.57217  0.016102157  0.015601975            2 
 2928000   0.79373129   -8.2915184    566.21522  0.016114959    0.0155968            2 
 2929000   0.78517909   -8.2960394    565.76361  0.016096609  0.015591614            2 
 2930000   0.78321547   -8.3354393     566.3245  0.016107068   0.01558642            3 
 2931000   0.80456657   -8.2931147    566.58841  0.016109076  0.015581251            2 
 2932000   0.78305637   -8.3017088    567.41372  0.016127038  0.015576067            1 
 2933000   0.77704814   -8.3267993    567.39761  0.016121082  0.015570918            2 
 2934000   0.76842795   -8.3160592    566.16573  0.016080599  0.015565775            3 
 2935000    0.7754717   -8.3243503    566.18142  0.016075566  0.015560619            3 
 2936000   0.77889534   -8.3179799     566.6734  0.016084054  0.015555445            3 
 2937000   0.76965333   -8.3227209    564.85868  0.016027088  0.015550272            3 
 2938000   0.77771479   -8.3014061    566.98072  0.016081822  0.015545112            3 
 2939000   0.76675895   -8.3033107    566.22691  0.016054977  0.015539953            3 
 2940000   0.78313294   -8.3237091    566.38199  0.016053911   0.01553479            3 
 2941000   0.78441018   -8.3060539    566.10102  0.016040491  0.015529646            3 
 2942000   0.78309819   -8.3304564    566.79134  0.016054593  0.015524514            2 
 2943000   0.79289441    -8.314542     566.4857  0.016040483  0.015519374            3 
 2944000   0.78867963   -8.3232864    565.60059   0.01600998  0.015514237            3 
 2945000   0.77463733   -8.2977788    567.68564  0.016063544  0.015509101            2 
 2946000   0.76848869   -8.3012026    566.73855  0.016031301  0.015503964            3 
 2947000   0.77416918   -8.3366591    566.69067  0.016024507  0.015498834            4 
 2948000   0.77814316   -8.3167757    566.70048  0.016019349  0.015493688            3 
 2949000   0.78674324    -8.342259    566.34772  0.016003948  0.015488549            4 
 2950000    0.7763439   -8.3320929    566.36973  0.015999145  0.015483398            5 
 2951000   0.78937225    -8.319282    567.46558  0.016024669  0.015478254            4 
 2952000   0.78108464   -8.3120515    566.22559  0.015984236  0.015473123            4 
 2953000   0.77605915   -8.3344683    566.33044  0.015981782  0.015467966            2 
 2954000   0.77044696   -8.3357339     567.5365  0.016010395  0.015462841            3 
 2955000   0.77402796   -8.3203201     567.4371  0.016002174  0.015457707            4 
 2956000   0.77841798   -8.3073351    567.53751  0.015999592  0.015452563            3 
 2957000   0.75949241   -8.3309388    565.97177  0.015950056  0.015447437            4 
 2958000   0.76804964   -8.3148163     568.0125  0.016002155  0.015442321            2 
 2959000   0.78240307   -8.3134025    566.98675  0.015967859  0.015437216            3 
 2960000   0.76875375   -8.3223652       567.72  0.015983108  0.015432101            2 
 2961000   0.76649756    -8.338259    567.59123  0.015974086  0.015426994            9 
 2962000   0.75881818   -8.2988524    568.61868    0.0159976  0.015421866            7 
 2963000   0.78640363   -8.3512708     567.9019  0.015972041  0.015416722            4 
 2964000    0.7749215   -8.3194873     565.5441  0.015900363  0.015411594            2 
 2965000   0.77466289   -8.3218762    566.33312  0.015917176  0.015406466            3 
 2966000   0.77077661   -8.3078944     567.7558  0.015951781   0.01540133            3 
 2967000   0.78014933   -8.3194621    567.07198  0.015927199  0.015396211            3 
 2968000   0.76355993   -8.3288273     567.2517  0.015926878  0.015391107            2 
 2969000   0.77156802   -8.3657086    567.51116  0.015928796  0.015385986            4 
 2970000   0.77431039    -8.343881    567.79459  0.015931386  0.015380855            4 
 2971000   0.77694531   -8.3639893    566.92306  0.015901578  0.015375712            6 
 2972000   0.77862562   -8.3570985    566.73689  0.015891008  0.015370574            3 
 2973000   0.77263858   -8.3419453    567.13667  0.015896868  0.015365425            5 
 2974000   0.76525279   -8.3434808    565.92704  0.015857628   0.01536029            3 
 2975000   0.78161344   -8.3695055    565.49509  0.015840199  0.015355142            4 
 2976000   0.75762348   -8.3555216    567.72776  0.015897395  0.015349985            4 
 2977000   0.76452914   -8.3336671    567.02095  0.015872269  0.015344867            3 
 2978000   0.78237859   -8.3298956    566.50273  0.015852438  0.015339735            2 
 2979000   0.78261219   -8.3567215    567.30651  0.015869601  0.015334622            4 
 2980000   0.78181112   -8.3298549    567.61115  0.015872795  0.015329488            1 
 2981000   0.77949344   -8.3370695    567.24072  0.015857115  0.015324377            2 
 2982000   0.77936836   -8.3649764    566.20628   0.01582289  0.015319269            4 
 2983000   0.76633965   -8.3291845    568.25281  0.015874757  0.015314164           15 
 2984000   0.77804324   -8.3184968     568.0266   0.01586312  0.015309061            4 
 2985000   0.76614218   -8.3582503    568.42063  0.015868806  0.015303924            5 
 2986000   0.77692369   -8.3697792    566.27593  0.015803637  0.015298792            3 
 2987000   0.76214259   -8.3489707     566.1682  0.015795341  0.015293657            4 
 2988000   0.78409764   -8.3274817    566.26124  0.015792649  0.015288508            7 
 2989000   0.76373184   -8.3535315    566.52194  0.015794634   0.01528336            2 
 2990000   0.78149151   -8.3283719    566.37701  0.015785312   0.01527822            4 
 2991000   0.76699768   -8.3627752    566.93081  0.015795464  0.015273097            1 
 2992000   0.76218248   -8.3648521    566.47004  0.015777352  0.015267982            3 
 2993000   0.76880272   -8.3545122    567.78124  0.015808588  0.015262877            1 
 2994000    0.7857512   -8.3691723    566.72855  0.015774008  0.015257777            7 
 2995000   0.74230018   -8.3414045     567.9888  0.015803806  0.015252671            4 
 2996000   0.78998606     -8.34008    566.86183  0.015767185  0.015247571            6 
 2997000   0.77462565   -8.3672497      567.517  0.015780141  0.015242466            3 
 2998000   0.78202352   -8.3541108    567.24717  0.015767377  0.015237349            2 
 2999000   0.75936058   -8.3220197    567.05789   0.01575686  0.015232228            3 
 3000000    0.7665031   -8.3821025    566.19806  0.015727724  0.015227118            4 
 3001000   0.77689094   -8.3189977    566.30408  0.015725427  0.015222023            2 
 3002000     0.773391   -8.3720105    567.94729  0.015765803  0.015216949            1 
 3003000   0.78702122   -8.3309546    567.55101  0.015749556  0.015211874            3 
 3004000   0.78945004    -8.348476    568.12984  0.015760371   0.01520681            1 
 3005000   0.78263022   -8.3420915    566.87029  0.015720197  0.015201713            3 
 3006000   0.77478121   -8.3283361    567.38534  0.015729245  0.015196638            4 
 3007000   0.78083145   -8.3401892    567.96125  0.015739975  0.015191597            2 
 3008000   0.77767355    -8.317107    569.12599   0.01576701   0.01518656            1 
 3009000   0.78386335   -8.3222431    569.23528  0.015764797  0.015181529            3 
 3010000   0.77111631   -8.3686369    568.84658  0.015748798  0.015176489            3 
 3011000   0.77066421   -8.3343076    568.42201  0.015731817  0.015171451            2 
 3012000   0.75525285   -8.3265442    568.74619  0.015735563   0.01516641            9 
 3013000   0.78398157   -8.3589575    567.87068  0.015706126  0.015161325            6 
 3014000     0.759879   -8.3396722    567.55568  0.015692205  0.015156262            3 
 3015000     0.766142   -8.3471908    567.93772   0.01569756  0.015151189            7 
 3016000    0.7793664   -8.3533781    568.77781  0.015715567  0.015146147            2 
 3017000   0.76478082   -8.3312482    568.42866  0.015700714  0.015141095            5 
 3018000   0.76669596   -8.3484108     567.2149  0.015661997  0.015136044            3 
 3019000   0.77803272   -8.3144947    569.54837   0.01572122  0.015131008            3 
 3020000   0.77167563   -8.3563211    568.20499  0.015678946  0.015125954            4 
 3021000   0.77850539   -8.3385245    569.37986  0.015706164  0.015120897            5 
 3022000   0.75098027   -8.3372986    569.23633  0.015697009  0.015115825            2 
 3023000   0.77617288   -8.3480627    568.93443  0.015683494  0.015110778            2 
 3024000   0.77925683   -8.3549375    569.23908  0.015686703  0.015105728            4 
 3025000   0.77446192   -8.3623328    568.95827  0.015673781  0.015100682            2 
 3026000   0.77129914    -8.353603    568.38546  0.015652827   0.01509564            2 
 3027000   0.74322733   -8.3564089    569.81882  0.015687116  0.015090586            4 
 3028000   0.77169052   -8.3571621    569.48247  0.015672679  0.015085561            2 
 3029000   0.78045151   -8.3684635    569.41934  0.015665768  0.015080518            3 
 3030000   0.76616903   -8.3716263    568.67087  0.015640013  0.015075471            3 
 3031000   0.76277675   -8.3896002    568.16584  0.015620968  0.015070399            1 
 3032000   0.75596657   -8.3597345    569.62611  0.015655951  0.015065334            3 
 3033000   0.78161926   -8.3638528    568.13869  0.015609921  0.015060252            3 
 3034000   0.76838508   -8.3633118    568.21253  0.015606804  0.015055181            3 
 3035000   0.78604798   -8.3497876    568.67025   0.01561423  0.015050113            4 
 3036000   0.75105706   -8.3550733     569.3226  0.015626993   0.01504506            2 
 3037000   0.75054544   -8.3548679    568.51376  0.015599653  0.015040039            5 
 3038000   0.77887685   -8.3702334    568.30535  0.015588801  0.015034997            1 
 3039000   0.76885786   -8.3555612    567.73911  0.015568145  0.015029973            4 
 3040000   0.75557499    -8.377386    569.85141  0.015620927  0.015024957            3 
 3041000   0.76392113   -8.3652529    568.43371   0.01557694  0.015019906            2 
 3042000    0.7648295   -8.3357407    569.56493  0.015602809  0.015014887            3 
 3043000   0.76114202   -8.3673137    567.80936  0.015549605  0.015009856            2 
 3044000   0.77164131   -8.3730113    567.34963   0.01553191  0.015004813            4 
 3045000   0.75331632   -8.3401312    569.18986  0.015577172  0.014999781            4 
 3046000   0.77146776   -8.3655918    569.68992  0.015585739  0.014994763            2 
 3047000   0.78130306   -8.3700304    567.93819  0.015532715  0.014989735            2 
 3048000   0.75821116   -8.3649879    569.42606  0.015568298  0.014984701            7 
 3049000   0.75111856   -8.3306027    569.49671  0.015565123  0.014979669            4 
 3050000   0.78018408   -8.3670402    569.64928  0.015564188  0.014974654            4 
 3051000   0.75805662   -8.3659405     569.4211  0.015552854   0.01496962            4 
 3052000    0.7864584   -8.3818455    567.84023  0.015504593  0.014964584            2 
 3053000   0.74743676   -8.3792534    568.22123  0.015509914  0.014959554            1 
 3054000   0.78631914   -8.3487807    568.96182  0.015525044  0.014954545            4 
 3055000   0.76100873    -8.339664    570.55339  0.015563377  0.014949545            1 
 3056000   0.75793521   -8.3479292    570.25621   0.01555018  0.014944564            2 
 3057000    0.7728203   -8.3784999    569.32924  0.015519824   0.01493957            3 
 3058000   0.76325765   -8.3594877    570.05745  0.015534594  0.014934588            2 
 3059000   0.76895602   -8.3342099      570.489  0.015541272  0.014929618            3 
 3060000   0.75897151   -8.3336823    569.89265  0.015519952  0.014924659            1 
 3061000   0.76685597   -8.3548718    569.97219  0.015517048  0.014919698            2 
 3062000   0.76315704    -8.343739    570.43134  0.015524476  0.014914748            3 
 3063000   0.77348949   -8.3454345    570.12682  0.015511123  0.014909796            3 
 3064000   0.75561922   -8.3557073     569.4644  0.015488044  0.014904834            3 
 3065000   0.77156477   -8.3407862    569.36149  0.015480193  0.014899878            2 
 3066000    0.7679911   -8.3530433    569.86276  0.015488768  0.014894909            2 
 3067000   0.77665829   -8.3243078     569.7462  0.015480551  0.014889953            4 
 3068000   0.75621477    -8.356297    568.34574  0.015437466     0.014885            4 
 3069000   0.74950005    -8.379006    568.29575  0.015431078  0.014880023            4 
 3070000   0.75822636   -8.3750853    569.41102  0.015456325  0.014875054            2 
 3071000   0.74108975    -8.358207    569.80306  0.015461931  0.014870075            5 
 3072000   0.74793739   -8.3677661    570.03785  0.015463266  0.014865119            3 
 3073000   0.76604743   -8.3666441    570.21975  0.015463167  0.014860147            3 
 3074000   0.76063095   -8.3531401    569.82152  0.015447341  0.014855172            2 
 3075000   0.76390424   -8.3392459     569.4226  0.015431507  0.014850195            2 
 3076000   0.75141625   -8.3851256    569.83504  0.015437664  0.014845217            4 
 3077000   0.75714541   -8.3728353    569.49659   0.01542348  0.014840237            2 
 3078000   0.77156103   -8.3748575    570.14297  0.015435969  0.014835261            2 
 3079000   0.75551276   -8.3525178    569.48543   0.01541316    0.0148303            3 
 3080000   0.76138206   -8.3511566    570.27756  0.015429588  0.014825364            6 
 3081000   0.76369944   -8.3396507    570.72506  0.015436683  0.014820428            1 
 3082000   0.75999268   -8.3309811    570.14437  0.015415974  0.014815488            2 
 3083000   0.76775482   -8.3527128    571.39569  0.015444796  0.014810548            2 
 3084000    0.7558961   -8.3566967     569.5599  0.015390183  0.014805596            1 
 3085000   0.76549225   -8.3535638    570.27391  0.015404482  0.014800657            3 
 3086000   0.75736302   -8.3742989     570.4063  0.015403065   0.01479572            4 
 3087000   0.74502882   -8.3624855    570.21804  0.015392993  0.014790771            4 
 3088000   0.74357315   -8.3859735    570.03867  0.015383168  0.014785822            2 
 3089000   0.75576538   -8.3919239    569.23284  0.015356449  0.014780872            4 
 3090000   0.74632167   -8.3482605    569.96026  0.015371097  0.014775914            3 
 3091000   0.76052417   -8.3739013    569.74229  0.015360247  0.014770959            2 
 3092000   0.75195855   -8.4053601    569.81722  0.015357299  0.014765998            1 
 3093000   0.77592394   -8.3590272    569.76598  0.015350953  0.014761044            1 
 3094000   0.75322888   -8.3744946    570.30077  0.015360396  0.014756109            1 
 3095000   0.75319702   -8.3862165    570.05094  0.015348706   0.01475117            3 
 3096000   0.75598892   -8.3766879    571.23155  0.015375526  0.014746226            3 
 3097000   0.75688896   -8.3818968    569.92315  0.015335355  0.014741297            4 
 3098000   0.75096032   -8.3756843    569.47854  0.015318446  0.014736364            2 
 3099000   0.76892612   -8.3737532    570.37147  0.015337514  0.014731428            2 
 3100000    0.7560205   -8.3666621    568.95748  0.015294556  0.014726488            2 
 3101000   0.74980579   -8.3908168    570.08449   0.01531991  0.014721554            5 
 3102000   0.76001122   -8.3815675    568.14602  0.015262895  0.014716625            3 
 3103000   0.76359778   -8.3899091    569.63833  0.015298054  0.014711677            2 
 3104000   0.74090538   -8.3732276    570.79582    0.0153242  0.014706746            5 
 3105000   0.74256753   -8.3463881    571.95282  0.015350317  0.014701832            2 
 3106000   0.74178741   -8.3963278    568.87687  0.015262848  0.014696922            1 
 3107000   0.76247279    -8.385451    570.22474  0.015294087  0.014691989            3 
 3108000   0.73573613   -8.3546868     570.9424  0.015308408  0.014687037            2 
 3109000    0.7624641   -8.3887098     570.5851  0.015293907  0.014682095            4 
 3110000   0.77468513   -8.3698247    571.50798  0.015313719  0.014677157            6 
 3111000   0.77057395   -8.3864507     569.6476  0.015258963  0.014672215            3 
 3112000   0.75536205    -8.393733    569.25074  0.015243432  0.014667271            3 
 3113000   0.76794157   -8.4078014    569.19709    0.0152371  0.014662309            3 
 3114000   0.76502853    -8.418335    569.26569  0.015234042  0.014657338            4 
 3115000   0.74127413   -8.4002087    570.82979  0.015270995  0.014652369            2 
 3116000   0.75701546   -8.3637481    570.62348  0.015260576  0.014647415            3 
 3117000   0.74700833    -8.392929    568.89235  0.015209399  0.014642463            4 
 3118000   0.73925004   -8.3742653      569.536  0.015221723  0.014637504            5 
 3119000   0.74770342   -8.3755437    569.92362  0.015227199  0.014632554            4 
 3120000    0.7549726   -8.3976223    569.61722  0.015214135  0.014627615            4 
 3121000   0.73623708   -8.3790471    570.13932  0.015223201  0.014622697            3 
 3122000    0.7646777   -8.4039378    570.47036  0.015227161  0.014617774            2 
 3123000   0.75762392   -8.3812315    570.44075  0.015221495  0.014612854            4 
 3124000   0.75880793    -8.401076     570.6822  0.015223063  0.014607947            3 
 3125000   0.74992271   -8.3923391    570.00616  0.015200164  0.014603034            1 
 3126000   0.75390732   -8.4146702    569.72532  0.015187815  0.014598114            2 
 3127000    0.7532031   -8.3933863     570.2091  0.015195851  0.014593174            3 
 3128000   0.75326421   -8.3972707    569.65831  0.015176319  0.014588234            2 
 3129000   0.74836723   -8.4215775    569.61813  0.015170399  0.014583304            6 
 3130000   0.74880138   -8.4010425    571.34662  0.015211571  0.014578387            4 
 3131000   0.75239734   -8.3975808    570.58661  0.015186485  0.014573467            2 
 3132000   0.76550968   -8.4030556     570.6529    0.0151834   0.01456856            2 
 3133000   0.74164984   -8.3832322    570.67965  0.015179265  0.014563655            2 
 3134000   0.75499129   -8.4097038    570.73638   0.01517593  0.014558761            2 
 3135000   0.75446562   -8.3916271    570.27782    0.0151589  0.014553855            7 
 3136000   0.74221769   -8.3823378    571.19059  0.015178321  0.014548946            3 
 3137000    0.7574541   -8.3786305    570.90816   0.01516598  0.014544057            4 
 3138000   0.72677095    -8.399695    569.95134  0.015135738  0.014539157            3 
 3139000   0.74563144   -8.4113234    571.18185  0.015163583  0.014534244            3 
 3140000    0.7503761   -8.3743001    571.03489  0.015154854  0.014529373            6 
 3141000   0.74764836   -8.4070462    571.49238  0.015162167  0.014524482            2 
 3142000   0.76431311   -8.3887342    571.08761  0.015146605  0.014519599            6 
 3143000   0.74245971   -8.4179259    571.30157  0.015147459    0.0145147            2 
 3144000    0.7525581   -8.4045346    569.70957  0.015100444  0.014509789            3 
 3145000   0.75232475   -8.4070676    570.77068  0.015123759  0.014504893            3 
 3146000   0.76119988   -8.3646444    572.49111  0.015164524  0.014500021            3 
 3147000   0.75756926    -8.423008     569.7259  0.015086482  0.014495132            3 
 3148000    0.7570672   -8.3838186    571.49483  0.015128516  0.014490231            4 
 3149000   0.74196021   -8.3825689    571.32926  0.015119331  0.014485344            8 
 3150000   0.74174368    -8.397939    572.01681   0.01513272  0.014480485            1 
 3151000   0.76068522   -8.3724034    571.63985  0.015117948  0.014475623            2 
 3152000   0.74447048   -8.3975046    572.21544  0.015128369  0.014470736            2 
 3153000   0.73304779   -8.3873695    570.32137  0.015073511  0.014465853            3 
 3154000   0.75504737   -8.4077873    570.64373  0.015077249  0.014460959            1 
 3155000   0.73055021   -8.4287647     570.7116  0.015074263  0.014456051            1 
 3156000   0.73813776   -8.4213357    570.02538  0.015051367   0.01445114            4 
 3157000   0.74597101   -8.4193045    571.13823  0.015075975  0.014446231            3 
 3158000   0.74172281   -8.4345738    569.32114  0.015023252  0.014441309            3 
 3159000   0.77809098   -8.4092076    570.67844  0.015054301  0.014436404            2 
 3160000   0.75142458   -8.4111026    570.21086  0.015037206  0.014431504            2 
 3161000   0.74321093   -8.4066006    570.94709  0.015051858  0.014426597            1 
 3162000   0.75876734   -8.4335551    569.81189   0.01501718  0.014421696            6 
 3163000   0.74099085    -8.401772    570.78694  0.015038122  0.014416785            2 
 3164000   0.73186108   -8.4369739    569.60105  0.015002135  0.014411858            4 
 3165000   0.74128722   -8.3835735    570.98268  0.015033773  0.014406951            2 
 3166000   0.74534475   -8.4231995     570.2169  0.015008868  0.014402037            2 
 3167000   0.75489249   -8.4195071    569.45463  0.014984071  0.014397118            4 
 3168000   0.73412806   -8.4113677    570.74963  0.015013406  0.014392201            3 
 3169000   0.73375513   -8.4064432    569.60004  0.014978438  0.014387292            2 
 3170000   0.74053297   -8.4117319     570.3399  0.014993163  0.014382384            1 
 3171000   0.75492824    -8.398535    571.23309  0.015011907  0.014377505            2 
 3172000   0.75438709   -8.3947192    570.06532  0.014976495  0.014372622            3 
 3173000   0.75853069   -8.4005044    570.64203  0.014986922  0.014367719            5 
 3174000   0.74551605   -8.4288996    569.86057  0.014961683  0.014362829            3 
 3175000   0.76277567   -8.4272837    569.42703  0.014945591  0.014357925            2 
 3176000   0.74753768   -8.4221102    569.95983  0.014954865  0.014353006            5 
 3177000   0.74596556   -8.3947478    570.27252   0.01495836  0.014348125            2 
 3178000   0.76235353   -8.4076453    569.57678   0.01493541  0.014343241            3 
 3179000   0.74967292   -8.4092852    571.35862   0.01497742  0.014338346            4 
 3180000   0.74137882   -8.4318027    569.21962  0.014916657  0.014333449            4 
 3181000   0.74678568   -8.4159818    569.45808  0.014918214  0.014328542            5 
 3182000   0.73697007   -8.4315662      570.222  0.014933532  0.014323636            4 
 3183000   0.74762568   -8.4157789     569.3586  0.014906236  0.014318725            7 
 3184000   0.74748725   -8.4515575    568.98335  0.014891734   0.01431382            3 
 3185000   0.74864411   -8.4352899    569.36349  0.014897004  0.014308925            2 
 3186000   0.73951221   -8.4490518    569.55556  0.014897352  0.014304029            2 
 3187000   0.72741527   -8.4617495    569.76408   0.01489813  0.014299124            3 
 3188000   0.73165605   -8.4379193     570.2777  0.014906883   0.01429423            6 
 3189000   0.74363526   -8.4264644    570.17587  0.014899547  0.014289351            2 
 3190000   0.73801006   -8.4371334    570.13763  0.014893878  0.014284462            2 
 3191000    0.7290207   -8.4327474    570.74172  0.014904986  0.014279591            4 
 3192000   0.74287606   -8.4328691    570.73198  0.014900062  0.014274706            3 
 3193000   0.74200795   -8.4698986    569.58584  0.014865483  0.014269821            3 
 3194000   0.74487014   -8.4385602    570.67764  0.014889314  0.014264936            1 
 3195000   0.72345428   -8.4308834    570.36184  0.014876417  0.014260062            1 
 3196000    0.7356615   -8.4444727    569.67803  0.014853933  0.014255193            2 
 3197000   0.74065264   -8.4143799    568.82973  0.014827175  0.014250323            2 
 3198000   0.73693332   -8.4304846    569.99247  0.014852837  0.014245442           10 
 3199000   0.74250615   -8.4501149    569.43373  0.014833639  0.014240556            3 
 3200000   0.73232196   -8.4525236    571.29202  0.014877396  0.014235658            1 
 3201000    0.7477234   -8.4563582    569.71757   0.01483176  0.014230756            6 
 3202000   0.73734469   -8.4636441     570.0605  0.014836053  0.014225847            2 
 3203000   0.73299247   -8.4752833    569.20133  0.014809068  0.014220945            3 
 3204000   0.74073868   -8.4878038    569.34219  0.014808109  0.014216033            2 
 3205000   0.73857085   -8.4902407    568.63805  0.014785181  0.014211126            2 
 3206000   0.75297773   -8.4723723    569.95213  0.014814726  0.014206217            2 
 3207000   0.73866324   -8.4212864    570.70276  0.014829611  0.014201327            5 
 3208000   0.73434925   -8.4549807    570.33108  0.014815334  0.014196432            1 
 3209000   0.74115628   -8.4541279    570.55499  0.014816531   0.01419154            2 
 3210000   0.73546988   -8.4481355    570.78725  0.014817945  0.014186662            3 
 3211000   0.74245473    -8.446575    570.67362  0.014810382  0.014181783            3 
 3212000   0.73698157   -8.4494743    570.49101  0.014801033  0.014176915            2 
 3213000   0.74673891   -8.4414821     571.6359   0.01482612  0.014172056            4 
 3214000   0.73928612   -8.4445913    571.78609  0.014825402  0.014167204            1 
 3215000   0.72707085   -8.4240362    571.00335  0.014800501  0.014162368            3 
 3216000   0.75163271   -8.4467889    568.68845  0.014735916  0.014157502            7 
 3217000   0.73634524   -8.4671782    569.49016  0.014752102  0.014152629            3 
 3218000   0.74130556   -8.4232551    570.71039  0.014779117  0.014147777            4 
 3219000   0.74027699   -8.4516441    570.79017  0.014776591  0.014142913            2 
 3220000   0.72905438   -8.4604203    570.76423  0.014771331  0.014138059            2 
 3221000   0.71279264   -8.4475112    569.36003  0.014730416  0.014133194            1 
 3222000   0.75110499   -8.4757653    570.62819  0.014758644  0.014128333            4 
 3223000   0.73256054   -8.4656356    569.77476  0.014731998  0.014123467            3 
 3224000   0.74461475   -8.4649984    571.47387  0.014771347  0.014118609            4 
 3225000   0.73915878   -8.4685687    570.95352  0.014753321  0.014113752            4 
 3226000   0.73505179   -8.4886442    569.17934  0.014702917  0.014108894            3 
 3227000    0.7274114   -8.4437127     569.7041  0.014711913  0.014104033            1 
 3228000   0.72332543   -8.4480447    570.50963   0.01472815  0.014099176            1 
 3229000   0.74384546   -8.4636395    570.68047  0.014727998  0.014094332            3 
 3230000   0.73296085   -8.4690303    570.88369  0.014728681  0.014089472            2 
 3231000   0.73485829   -8.4752069    569.10476  0.014678241  0.014084621            3 
 3232000   0.73279754   -8.4542877    569.84918  0.014692894  0.014079763            5 
 3233000    0.7287195   -8.4569045    571.53602  0.014731829   0.01407492            8 
 3234000   0.73458697   -8.4604544    570.17233  0.014692134  0.014070056            5 
 3235000   0.71767345   -8.4483719    571.33524  0.014717549  0.014065198            2 
 3236000    0.7391641   -8.4407841    571.40616  0.014714827  0.014060354            2 
 3237000   0.73749672   -8.4502486    569.63814  0.014664765  0.014055508            2 
 3238000   0.73210998   -8.4634063    569.91505  0.014667363  0.014050646            2 
 3239000   0.72157089   -8.4709488    569.62108  0.014655271  0.014045769            5 
 3240000   0.73139046   -8.4631822     569.7984  0.014655309  0.014040901            3 
 3241000   0.73621925   -8.4799538    569.06729  0.014631988  0.014036055            7 
 3242000   0.72676682    -8.455716     571.1663  0.014681429  0.014031205            4 
 3243000   0.72980544   -8.4712922    570.21093  0.014652352  0.014026367            1 
 3244000   0.72311667   -8.4862033    569.94668  0.014641047  0.014021516            2 
 3245000    0.7298388   -8.4594593    570.55447  0.014652143  0.014016666            4 
 3246000    0.7224025   -8.4445597    570.79535  0.014653814   0.01401183            1 
 3247000   0.72694491   -8.4621383    570.42639  0.014639831  0.014006991            4 
 3248000   0.72016078   -8.4605131    570.47369  0.014636538  0.014002155            4 
 3249000   0.72750175   -8.4728125    569.97183  0.014619161  0.013997325            7 
 3250000   0.71828883   -8.4554586    570.66235  0.014632368  0.013992489            4 
 3251000   0.72122607   -8.4868461    569.38236  0.014595057  0.013987644            1 
 3252000   0.70462199   -8.4920425     570.0188  0.014606878    0.0139828            4 
 3253000    0.7455069   -8.4925392    569.66445   0.01459331   0.01397795            4 
 3254000    0.7355769   -8.5042126    569.89544  0.014594741  0.013973101            7 
 3255000   0.72675445   -8.4713153    570.77808  0.014612854  0.013968258            5 
 3256000   0.73577592   -8.4999243    567.85295  0.014533501  0.013963423            2 
 3257000   0.72953298   -8.4759119     569.3725  0.014567918  0.013958579            6 
 3258000   0.73753256   -8.4795198    569.85608  0.014575815  0.013953734            2 
 3259000    0.7380684   -8.4938756    568.70422   0.01454189  0.013948883            3 
 3260000   0.73032326   -8.4685032    570.18966    0.0145754  0.013944026            3 
 3261000   0.73555367   -8.5015845    570.20635  0.014571357  0.013939184            4 
 3262000   0.70840608   -8.4891986    568.22432  0.014516256  0.013934326            2 
 3263000   0.72420137   -8.4880316    569.43518  0.014542731  0.013929483            3 
 3264000   0.72699817   -8.4759008    570.05395  0.014554073  0.013924629            5 
 3265000   0.72841582   -8.4648042     569.4721  0.014534765  0.013919774            5 
 3266000    0.7196881   -8.4590916    569.51958  0.014531526  0.013914935            2 
 3267000   0.73902797   -8.4949145    568.88723  0.014510949  0.013910086            5 
 3268000   0.72215142   -8.4854835    570.03657  0.014535816  0.013905236            2 
 3269000   0.74368426   -8.4758622    570.49406  0.014543032  0.013900382            4 
 3270000   0.71554587   -8.4804863    568.94426  0.014499089  0.013895546            2 
 3271000   0.73428242   -8.4843791    570.69068  0.014539149  0.013890707            3 
 3272000   0.72132439   -8.4967199    569.61577  0.014507329  0.013885874            2 
 3273000   0.73002616    -8.488186    570.63726  0.014528905  0.013881036            3 
 3274000   0.72515666   -8.4846873    569.57589  0.014497452  0.013876192           12 
 3275000   0.72355314   -8.4699452    569.24588  0.014484628  0.013871349            2 
 3276000   0.73312558   -8.5023401    568.95807  0.014472885  0.013866524            2 
 3277000   0.71462104   -8.4993927    569.25499  0.014476019  0.013861697            4 
 3278000   0.72923947   -8.4853814    570.48018   0.01450275  0.013856873            2 
 3279000   0.72714492   -8.4947052    569.58672  0.014475621  0.013852036            4 
 3280000   0.71151448     -8.50845    569.89898  0.014479141  0.013847207            2 
 3281000   0.72920417   -8.4840187    569.49633  0.014464501  0.013842383            3 
 3282000   0.73512394   -8.4965488    569.62591  0.014463384  0.013837563            4 
 3283000   0.72461489   -8.5005654    569.18959  0.014447903  0.013832757            3 
 3284000   0.72276088   -8.4696399    568.77163  0.014432898  0.013827934            3 
 3285000   0.72815676   -8.4810679    569.93295  0.014457964  0.013823115            2 
 3286000   0.72558878   -8.4915156    569.66041  0.014446653  0.013818307            4 
 3287000   0.74175854   -8.4779373    570.38207  0.014460553  0.013813512            3 
 3288000   0.73543099   -8.4956576    571.29849  0.014479382  0.013808711            3 
 3289000   0.72359054   -8.5063475    570.41218  0.014452523  0.013803901            4 
 3290000   0.72639112   -8.5133656    568.82916  0.014408033  0.013799093            3 
 3291000   0.70611469   -8.4802136    571.14562  0.014462312  0.013794292            2 
 3292000   0.73374446   -8.4942407    570.53724  0.014442518  0.013789499            4 
 3293000   0.72930268   -8.4892817    569.89675  0.014421924  0.013784696            4 
 3294000   0.71740658   -8.4760036    570.92198  0.014443483  0.013779895            2 
 3295000   0.72623226   -8.4719663     570.2771   0.01442279    0.0137751            3 
 3296000   0.71893668    -8.499649    570.68117   0.01442863  0.013770311            2 
 3297000    0.7386209   -8.4824039    569.58059  0.014396436  0.013765534            2 
 3298000   0.71352117   -8.4810694    570.80291  0.014422956  0.013760761            2 
 3299000   0.71956678   -8.4911009    570.39721  0.014408336  0.013755992            3 
 3300000   0.73143868   -8.5111674    570.86004  0.014415658   0.01375122            2 
 3301000   0.70771003   -8.4822353    569.86771  0.014386239  0.013746463            2 
 3302000    0.7060017   -8.4804028     570.4712  0.014397113  0.013741705            7 
 3303000   0.70902685   -8.4863845    571.36864  0.014415396   0.01373695            8 
 3304000   0.72102696   -8.5078557    569.94776  0.014375196  0.013732188            6 
 3305000   0.71708046   -8.4620031    570.61215  0.014387598  0.013727419            2 
 3306000   0.71691862   -8.5088938    570.41672   0.01437832   0.01372266            4 
 3307000   0.71576666   -8.4805485    570.60854  0.014378806  0.013717905            5 
 3308000   0.71195229    -8.478095    571.51861  0.014397385  0.013713161            6 
 3309000   0.70969228   -8.5047998    571.79264  0.014399935  0.013708416            5 
 3310000   0.71975873   -8.4877408    571.66135   0.01439228  0.013703661            6 
 3311000   0.72509404    -8.491634    570.13292  0.014349464  0.013698909            4 
 3312000   0.72958147   -8.4860508    570.44214  0.014352912  0.013694156            5 
 3313000   0.73402851   -8.5030591    569.93178  0.014335742  0.013689408            2 
 3314000   0.72634181   -8.4932415    569.85799  0.014329561  0.013684667            2 
 3315000   0.71756287   -8.4950667    570.65716  0.014345328  0.013679902            1 
 3316000   0.71677246    -8.482089    570.60834  0.014339775  0.013675142            2 
 3317000   0.71754479   -8.4892298    570.41691  0.014330643  0.013670387            2 
 3318000   0.71889089   -8.4964788    570.96806  0.014340166  0.013665637            1 
 3319000   0.72958843   -8.4851176    570.76443  0.014330733  0.013660879            1 
 3320000   0.71539576    -8.495471    571.25744  0.014338791  0.013656137            2 
 3321000   0.72369826   -8.4935035    571.26713  0.014334717  0.013651384            3 
 3322000   0.71741018    -8.478507    571.08603  0.014325859  0.013646649            3 
 3323000   0.72446982    -8.476787     570.2423  0.014300389  0.013641909            2 
 3324000   0.72748567   -8.4660501    571.42721  0.014325792  0.013637171            2 
 3325000   0.71787271   -8.4660513    571.90439  0.014333443  0.013632432            3 
 3326000   0.72871956   -8.5091823    569.35642  0.014265294  0.013627693            1 
 3327000   0.72912964   -8.5021808     569.4419  0.014263147  0.013622944            5 
 3328000    0.7324318   -8.4936822    569.98483  0.014272457  0.013618176            6 
 3329000   0.72850045   -8.4864917    570.89054  0.014290842  0.013613436            2 
 3330000   0.72210022   -8.5146902    569.53828   0.01425271  0.013608707            2 
 3331000   0.71065656   -8.4730365     571.3364  0.014293416  0.013603986            4 
 3332000   0.71137303   -8.5030415     570.7069  0.014273382  0.013599254            5 
 3333000   0.71766114   -8.4872326    571.56506  0.014290556  0.013594514            1 
 3334000   0.71185802   -8.4668928    570.89479  0.014269516  0.013589801            2 
 3335000   0.71792701   -8.4998304    568.88334  0.014214976  0.013585067            3 
 3336000   0.72008187   -8.4788918    570.20102  0.014243631  0.013580339            3 
 3337000   0.71009598   -8.4820157    571.16177  0.014263355  0.013575624            4 
 3338000   0.71108556   -8.5140436    571.37669  0.014264447  0.013570922            2 
 3339000   0.71062391   -8.5031997    568.92629  0.014199019   0.01356619            3 
 3340000   0.72315589   -8.4667766    570.20158  0.014226586  0.013561473            3 
 3341000   0.72686235   -8.4847431    571.17143  0.014246519  0.013556772            2 
 3342000   0.71886861   -8.4919964     570.4271  0.014223696  0.013552049            6 
 3343000   0.72137892   -8.4479164    570.81156  0.014229025  0.013547334            2 
 3344000   0.72527573    -8.486492    570.81172  0.014224774  0.013542629            3 
 3345000   0.71803751   -8.4686088    570.31492  0.014208144  0.013537926            5 
 3346000   0.70476188   -8.5031741    570.22196  0.014201583  0.013533219            3 
 3347000   0.71785347   -8.5003652    570.80891  0.014211954  0.013528495            9 
 3348000   0.71636889   -8.5031346    570.76879   0.01420671  0.013523789            3 
 3349000   0.71702997   -8.5257489       569.36  0.014167413  0.013519076            2 
 3350000   0.72316296    -8.484938    570.34539  0.014187696  0.013514372            6 
 3351000   0.71152248   -8.4430546    571.75136  0.014218426  0.013509681            4 
 3352000   0.72578951   -8.4971375    571.24206  0.014201523  0.013504995            5 
 3353000   0.71946506   -8.4994244    570.02982  0.014167159  0.013500298            2 
 3354000   0.70161999    -8.479423    569.71574  0.014155132  0.013495591            3 
 3355000   0.72465418   -8.5243395    570.57883  0.014172351  0.013490883            3 
 3356000   0.70925657   -8.5174686    570.53189  0.014166962  0.013486185            1 
 3357000   0.72865774    -8.501042    570.17509  0.014153885  0.013481477            3 
 3358000   0.70159597   -8.4761005    570.56414  0.014159324  0.013476773            8 
 3359000   0.70269863   -8.5146417    570.69298  0.014158306  0.013472071            4 
 3360000   0.70189535   -8.4969106    570.25371  0.014143197   0.01346737            4 
 3361000   0.70858546   -8.5400018    569.81986  0.014128232   0.01346265            4 
 3362000   0.71917201   -8.5151539    568.65454  0.014095145  0.013457919            4 
 3363000    0.7204709   -8.4963412    569.58746  0.014114071  0.013453208            2 
 3364000   0.70754395   -8.4965141    569.71786  0.014113106  0.013448508            3 
 3365000   0.70355221   -8.4820006     570.6656  0.014132382   0.01344381            4 
 3366000   0.69624809   -8.4706716    570.13465  0.014115039  0.013439123            4 
 3367000   0.70596162    -8.466859    571.22354  0.014137797  0.013434447            8 
 3368000   0.72886684   -8.4879691    571.56732  0.014142105  0.013429756            3 
 3369000   0.71400982   -8.5048449    570.40846  0.014109243  0.013425071            3 
 3370000   0.70763431   -8.4871931    571.37037  0.014128842  0.013420396            3 
 3371000   0.72509684   -8.5216284    570.80391  0.014110647  0.013415714            3 
 3372000   0.71000368   -8.5170377     569.9323  0.014084922  0.013411029            5 
 3373000   0.71380352   -8.5133597     569.7049  0.014075129  0.013406341            3 
 3374000   0.71797778   -8.4862592     570.8005  0.014098017  0.013401665            1 
 3375000   0.72234927   -8.5108198    570.21549  0.014079395  0.013396991            9 
 3376000   0.69543179   -8.5025226    571.70135  0.014111901  0.013392313            3 
 3377000   0.71520665   -8.5046898    570.35217  0.014074429  0.013387627            4 
 3378000   0.71405211   -8.5241364    569.87752  0.014058553  0.013382938            3 
 3379000   0.70494535    -8.518705    570.04701  0.014058573   0.01337825            5 
 3380000   0.70989542   -8.4985344    570.37527  0.014062507  0.013373573            4 
 3381000   0.71208489   -8.5099095     570.8724    0.0140706  0.013368889            3 
 3382000   0.71655916   -8.5130627    570.04761  0.014046117  0.013364213            3 
 3383000   0.70614348    -8.526161    570.00832  0.014040997  0.013359537           15 
 3384000   0.70674126   -8.5184377    569.81382  0.014032058   0.01335486            5 
 3385000    0.7076321   -8.5360915    569.62646    0.0140233  0.013350176            2 
 3386000   0.70669298    -8.551572    570.30284  0.014035805   0.01334549            3 
 3387000   0.70748879   -8.5258882    571.40328  0.014058736   0.01334082           16 
 3388000   0.71973005   -8.5390701    569.74809  0.014013875  0.013336147            7 
 3389000   0.71720219   -8.5225909    570.98458  0.014040144  0.013331467            7 
 3390000   0.70803136   -8.5294428    570.23956  0.014017688  0.013326793            6 
 3391000   0.70852633   -8.5358951    570.69477  0.014024741  0.013322104            8 
 3392000   0.70816956   -8.5411194    568.64361  0.013970214  0.013317411            7 
 3393000   0.71048765   -8.5325146    571.14982  0.014027651  0.013312733            6 
 3394000   0.70787541   -8.5514668    569.58115  0.013985002  0.013308054            3 
 3395000    0.7322588    -8.546708    569.22123  0.013972048  0.013303367            3 
 3396000   0.70987303   -8.5534028    569.96818  0.013986263  0.013298678            3 
 3397000   0.71490603   -8.5270622    570.10428  0.013985484  0.013294005            7 
 3398000   0.68923453   -8.5329926    569.10534   0.01395687  0.013289321            6 
 3399000     0.713397   -8.5360762    570.45839  0.013985937   0.01328463            4 
 3400000   0.70276228   -8.5673643    570.71674  0.013988155  0.013279943            5 
 3401000   0.70495675   -8.5784946     569.0425  0.013943019  0.013275252            4 
 3402000   0.69978949   -8.5577074     569.7285  0.013955725  0.013270565            5 
 3403000   0.71616633   -8.5335118     571.0944  0.013985072  0.013265891            5 
 3404000    0.7165658   -8.5243135    570.03724  0.013955083  0.013261224            9 
 3405000   0.70558445   -8.5433262    569.98741  0.013949765  0.013256544           11 
 3406000   0.70280715   -8.5439585    571.05857  0.013971877  0.013251877           13 
 3407000   0.71163002   -8.5481709     568.9825  0.013916997  0.013247218            3 
 3408000   0.68340772   -8.5137663    569.20171  0.013918274  0.013242551            4 
 3409000   0.70322583   -8.5351554    569.92025  0.013931755  0.013237886           10 
 3410000   0.70240019   -8.5436678    571.22338  0.013959516  0.013233221            6 
 3411000   0.69573511   -8.5500271    569.32589  0.013909066   0.01322856            4 
 3412000   0.70389091    -8.554699    569.13749  0.013900388  0.013223902            3 
 3413000   0.70232159    -8.518111    570.52111  0.013930099  0.013219232            4 
 3414000   0.71569381   -8.5421733    570.38441  0.013922681  0.013214566            4 
 3415000   0.67690384   -8.5322154    570.70997  0.013926549  0.013209917            5 
 3416000   0.68794317    -8.555017    570.66596  0.013921398  0.013205255            8 
 3417000   0.70175828   -8.5480991    570.17612  0.013905378  0.013200594            2 
 3418000   0.70794851   -8.5371251    570.47353  0.013908561  0.013195934            4 
 3419000   0.70359841   -8.5645952     569.0969  0.013870939  0.013191266            7 
 3420000   0.71655278   -8.5567114    568.84961  0.013860858  0.013186604           12 
 3421000   0.69050124   -8.5501979    569.85262  0.013881239   0.01318194            2 
 3422000   0.70474003   -8.5393201     569.7058  0.013873607  0.013177283            4 
 3423000    0.7188241    -8.555205    569.36754  0.013861319   0.01317263            2 
 3424000   0.69905291   -8.5506203    569.63381  0.013863751  0.013167962            5 
 3425000    0.7186161   -8.5674149    569.14052  0.013847701  0.013163315            2 
 3426000   0.69851616   -8.5584542    569.06765  0.013841887  0.013158654            3 
 3427000   0.70853742   -8.5387063    570.17209  0.013864704  0.013153998            4 
 3428000   0.71290166   -8.5306216    569.36223  0.013840972  0.013149359            1 
 3429000   0.71827927   -8.5242756    569.56925  0.013841967  0.013144711            2 
 3430000   0.71159862   -8.5549905    568.92492  0.013822277  0.013140073            1 
 3431000   0.69811236   -8.5609757    569.39541  0.013829676  0.013135426            1 
 3432000    0.6986167   -8.5592221    569.88419  0.013837514  0.013130774            3 
 3433000   0.70193099   -8.5464173    569.42098  0.013822239  0.013126126            2 
 3434000   0.70083523   -8.5671398    568.53731   0.01379677  0.013121474            2 
 3435000   0.72307293   -8.5568895    569.24349  0.013809886  0.013116821            1 
 3436000   0.70929579   -8.5486383    568.82723  0.013795771  0.013112177            5 
 3437000   0.70366897   -8.5622245    570.05594  0.013821548  0.013107509            3 
 3438000   0.71004888   -8.5441211    568.43275  0.013778184  0.013102848            3 
 3439000   0.70517111   -8.5592193     569.2058   0.01379291  0.013098189            4 
 3440000   0.69934057   -8.5346509    570.32612   0.01381604  0.013093537            6 
 3441000   0.70159119   -8.5739699    569.34022  0.013788148  0.013088891            4 
 3442000   0.71179243   -8.5585604     570.0185  0.013800564  0.013084244            3 
 3443000   0.70342011   -8.5603219     570.2525   0.01380222  0.013079593            3 
 3444000   0.69657896   -8.5433798    569.15359  0.013771622  0.013074938            2 
 3445000   0.69376153   -8.5603162    570.70583  0.013805172  0.013070294            2 
 3446000   0.69341371     -8.56534    568.56445  0.013749382   0.01306566            4 
 3447000   0.67930523   -8.5809973    568.54469  0.013744916  0.013061013            6 
 3448000   0.70899075   -8.5365865    569.67082  0.013768146  0.013056369            4 
 3449000   0.70382432   -8.5751921    567.39275  0.013709112  0.013051731            2 
 3450000    0.7027847   -8.5652297    568.98102  0.013743503  0.013047096            2 
 3451000   0.70122536   -8.5558434    569.72243  0.013757424  0.013042466            5 
 3452000   0.69354922    -8.558071     568.3498  0.013720302  0.013037838            3 
 3453000    0.6892055   -8.5857869    568.84666   0.01372832  0.013033214           16 
 3454000   0.69500751    -8.548458    570.00186  0.013752216  0.013028579            5 
 3455000   0.69613181   -8.5608429    569.10286  0.013726552  0.013023956            5 
 3456000   0.68512846     -8.54119    569.84471  0.013740468  0.013019325            4 
 3457000   0.71112077   -8.5619889    569.21053  0.013721206  0.013014695            7 
 3458000   0.71337498   -8.5680031    568.86449  0.013708899  0.013010069           13 
 3459000   0.70740792   -8.5549058    569.33948   0.01371638  0.013005454            2 
 3460000   0.70494822   -8.5587744    569.18993  0.013708813  0.013000835            2 
 3461000   0.69786199   -8.5715026    568.03286  0.013676993  0.012996224            4 
 3462000   0.71068485   -8.5646457      570.177  0.013724653  0.012991614            8 
 3463000   0.69286898   -8.5661977    569.54228  0.013705416  0.012987008            6 
 3464000   0.69471858   -8.5572727    568.98918  0.013688154  0.012982406            2 
 3465000   0.70573524   -8.5781985    569.18605  0.013688938  0.012977804            9 
 3466000   0.69447612   -8.5745867     568.5249  0.013669093  0.012973209            2 
 3467000   0.68667283   -8.5764628     568.7635  0.013670885  0.012968605            5 
 3468000   0.68644782   -8.5749778    569.10265  0.013675093  0.012964005            9 
 3469000   0.70127435   -8.5530609    569.44905  0.013679472  0.012959411            6 
 3470000   0.70791153   -8.5742289    569.00504  0.013664866  0.012954811            2 
 3471000    0.6899578   -8.5645287    569.95454  0.013683726  0.012950226            7 
 3472000   0.69245901   -8.5726845    568.63865  0.013648201  0.012945634            3 
 3473000   0.68642326   -8.5660179    570.60062  0.013691348   0.01294104            3 
 3474000   0.69307689   -8.5687344    569.75799  0.013667194  0.012936445            7 
 3475000   0.69502826   -8.5918055     569.9423  0.013667681  0.012931858            2 
 3476000   0.70348814   -8.5635759    568.39055  0.013626547  0.012927276            3 
 3477000   0.69963881   -8.5882346    569.82837  0.013657089  0.012922691            6 
 3478000   0.69013222   -8.5742605    569.38841  0.013642621  0.012918117            4 
 3479000   0.69541152   -8.5901537    568.87731  0.013626457  0.012913529            3 
 3480000   0.70197635   -8.5679332    570.17021  0.013653501  0.012908961            5 
 3481000   0.68435643   -8.5592622    570.84641  0.013665767  0.012904397            2 
 3482000   0.69256991   -8.5783778    568.83163  0.013613623  0.012899831            6 
 3483000   0.69004588   -8.5593028    570.05412  0.013638964  0.012895276            4 
 3484000    0.6892464   -8.5579329    569.19604  0.013614524   0.01289072            2 
 3485000   0.68396332   -8.5602649    569.37201  0.013614826  0.012886155            8 
 3486000   0.68815124   -8.5589024    570.84874  0.013646222  0.012881594            6 
 3487000   0.68440879   -8.5653057    569.60866  0.013612672  0.012877041            2 
 3488000   0.69843083   -8.5667536    570.12303  0.013621059  0.012872492            3 
 3489000    0.6723038   -8.5712175    570.61428  0.013628888  0.012867949            3 
 3490000   0.68240574   -8.5526361    569.74392  0.013604201  0.012863405            3 
 3491000   0.70359874   -8.5430995    569.45367  0.013593375  0.012858861            7 
 3492000   0.68861952   -8.5580623    570.48961  0.013614204  0.012854312            2 
 3493000    0.6949936    -8.519295    570.34472   0.01360685  0.012849773            5 
 3494000   0.69172451   -8.5816056    570.38639  0.013603949  0.012845234            2 
 3495000   0.69695179   -8.5824437    570.50703  0.013602933  0.012840698            3 
 3496000   0.68872458   -8.5572288    568.89762  0.013560679  0.012836159            2 
 3497000   0.68891005   -8.5652122    568.42079  0.013545439  0.012831615            3 
 3498000   0.70357439   -8.5809526    569.17404  0.013559511   0.01282708            2 
 3499000   0.69452567   -8.5601455    569.71578  0.013568538  0.012822554            3 
 3500000   0.70218477   -8.5795726    570.12425  0.013574387  0.012818014            4 
 3501000   0.68071091   -8.5531425    569.75767  0.013561784  0.012813468            3 
 3502000   0.68471227   -8.5712379    568.93091  0.013538238  0.012808936            3 
 3503000   0.69149813   -8.5705996    569.91397  0.013557759  0.012804409            3 
 3504000   0.66925096   -8.5836111    569.50579  0.013544183  0.012799877            4 
 3505000   0.68540414   -8.5557149    569.13194   0.01353143  0.012795366            3 
 3506000   0.69498746    -8.569325    569.33393  0.013532371  0.012790867            2 
 3507000    0.6968886   -8.5446145    570.61495  0.013558952  0.012786347            4 
 3508000   0.68479662   -8.5751555    570.03452  0.013541299  0.012781841            2 
 3509000   0.67293237   -8.5555539    570.87749  0.013557459  0.012777337            3 
 3510000   0.69771395   -8.5734892    570.44695  0.013543375  0.012772832            1 
 3511000   0.69409016   -8.5782057    569.37947  0.013514181  0.012768324            4 
 3512000   0.68949423   -8.5575063    571.02278  0.013549326  0.012763818            2 
 3513000    0.6945492   -8.5708174    569.94073  0.013519801  0.012759319            2 
 3514000   0.67133085    -8.563113    569.59901   0.01350785  0.012754812            7 
 3515000   0.67798877   -8.5673934    570.13969  0.013516825  0.012750305            4 
 3516000   0.67762694   -8.5438907    570.02615   0.01351029  0.012745806            3 
 3517000   0.69347633   -8.5493714    569.15011  0.013485691  0.012741297            2 
 3518000   0.68781687    -8.564818    570.24234   0.01350773  0.012736803            2 
 3519000   0.69650557   -8.5445488    570.10391  0.013500613  0.012732317            4 
 3520000   0.67487916   -8.5738545    570.46573  0.013505344  0.012727826            3 
 3521000   0.70076674   -8.5624185    570.32031  0.013498067  0.012723325            3 
 3522000   0.69913997   -8.5636078     569.7944  0.013481791   0.01271882            6 
 3523000   0.68405295   -8.5843864    568.66782  0.013451316  0.012714312            2 
 3524000   0.69129796   -8.5928828    569.42628  0.013465434  0.012709797            6 
 3525000   0.68146955   -8.5922808    568.95372  0.013450443  0.012705274           11 
 3526000   0.68078435   -8.5930599    568.08077  0.013425997  0.012700764            7 
 3527000   0.67838139   -8.6073414    567.61743  0.013411243  0.012696237            4 
 3528000   0.68465411   -8.5901767    569.40889  0.013449756  0.012691725            2 
 3529000    0.6848455   -8.5747579    568.87814  0.013433412  0.012687196            3 
 3530000   0.68260717   -8.6019971    568.17975   0.01341312  0.012682668            6 
 3531000   0.70181766   -8.5724211    568.70392  0.013421692  0.012678148            4 
 3532000   0.68100397   -8.6079213    568.18823  0.013405724  0.012673624            3 
 3533000    0.7019128   -8.5912323    569.46767  0.013432108  0.012669109            1 
 3534000   0.68682621   -8.5717311     569.4873   0.01342877  0.012664597            1 
 3535000   0.69702794   -8.5976128    570.32981  0.013444833  0.012660082            1 
 3536000   0.69822027   -8.5989265    568.43389  0.013396349  0.012655571            3 
 3537000   0.68836701   -8.6064942    569.27095  0.013412283  0.012651054            3 
 3538000   0.67879718    -8.624338     569.0442  0.013403151  0.012646535            2 
 3539000   0.67973743   -8.6117025      568.882  0.013395545  0.012642015            3 
 3540000   0.69076083   -8.6054892     570.0453  0.013419145  0.012637502            2 
 3541000   0.69665518   -8.6210923    569.48733  0.013402225  0.012632994            1 
 3542000   0.68335581   -8.6016104    569.29061  0.013393813  0.012628484            1 
 3543000   0.67937422   -8.6143708     568.7107  0.013376392  0.012623965            4 
 3544000   0.69475426   -8.6280524    568.14593  0.013359338  0.012619459            4 
 3545000   0.67229426   -8.5719068    569.72261  0.013392633  0.012614958            4 
 3546000   0.68487164   -8.6055358    568.23635  0.013353928   0.01261046            3 
 3547000   0.67636065   -8.6101913    568.01426  0.013344945  0.012605954            2 
 3548000   0.68693578   -8.6126658    569.43766  0.013374616  0.012601443            3 
 3549000   0.68662734   -8.5996956    568.11821  0.013339866  0.012596942            2 
 3550000    0.6802272   -8.6038461    568.17006  0.013337325  0.012592439            3 
 3551000   0.69296298   -8.6260146    568.61999  0.013344128  0.012587935            2 
 3552000   0.67589837   -8.6162511    569.01943  0.013349743  0.012583419            4 
 3553000   0.69583791   -8.6288904    567.55807   0.01331171  0.012578898            3 
 3554000   0.68866758   -8.6164775      569.728  0.013358844  0.012574402            1 
 3555000   0.68645422   -8.6089959    568.12264  0.013317455  0.012569899            3 
 3556000   0.68197831   -8.6247884    568.18387  0.013315145  0.012565392            2 
 3557000    0.6895421   -8.6053897    568.34923  0.013315276   0.01256089            3 
 3558000   0.68769851   -8.6173634      568.175  0.013307453  0.012556386            4 
 3559000   0.67489636   -8.5903291    568.55295  0.013312563  0.012551875            3 
 3560000   0.68884244   -8.6094125    568.31162  0.013303175  0.012547377            2 
 3561000   0.67173515   -8.6066008    568.51075  0.013304099  0.012542878            1 
 3562000   0.68633058   -8.6174085          569   0.01331181  0.012538387            2 
 3563000   0.67558495   -8.5982187    568.33906  0.013292615  0.012533899            5 
 3564000   0.67103457   -8.6071569    569.18656  0.013308702  0.012529415            2 
 3565000   0.67804147   -8.6219203    569.21349  0.013305598  0.012524934            3 
 3566000   0.67534445   -8.5963905    569.08748  0.013298922  0.012520457            5 
 3567000   0.67159018   -8.6040522    569.26825  0.013299417  0.012515971            5 
 3568000   0.68744977   -8.6147705    568.36149  0.013274512  0.012511477            3 
 3569000   0.67353063   -8.6117902    567.99043  0.013262128  0.012506986            3 
 3570000   0.69366608    -8.622683    568.40202  0.013268021  0.012502506            4 
 3571000   0.68754961   -8.6107043    568.77999  0.013273126  0.012498024            3 
 3572000   0.68195623   -8.6158819    569.18195  0.013278788  0.012493545            6 
 3573000   0.67740024   -8.6214155    567.70383  0.013240597  0.012489063            3 
 3574000   0.68419858   -8.6328416    568.06084  0.013245216   0.01248458            3 
 3575000   0.67323216   -8.6053948    568.66709  0.013255643    0.0124801            5 
 3576000   0.67318663   -8.6374031    569.12229  0.013262544  0.012475625            6 
 3577000   0.66287788   -8.6094772    569.49073   0.01326742  0.012471146            7 
 3578000   0.67741522   -8.6296715    568.25084  0.013234834  0.012466673            4 
 3579000   0.68093692   -8.6226165    568.46747   0.01323618  0.012462209            4 
 3580000    0.6910598   -8.6335664    568.21916  0.013226703  0.012457744            4 
 3581000   0.69592612   -8.6395345    568.30432  0.013224991  0.012453286            4 
 3582000   0.67363128    -8.606351    567.94404  0.013212917  0.012448815            3 
 3583000   0.67294005     -8.62729    568.09767  0.013212803  0.012444345            2 
 3584000    0.6734545   -8.6264535    568.07425  0.013208572  0.012439882            4 
 3585000   0.67135792   -8.6358853    566.91861  0.013178025  0.012435411            3 
 3586000   0.68195476   -8.6401143    567.02396  0.013176798  0.012430944            7 
 3587000   0.68370224   -8.6293837    569.08748  0.013221064  0.012426479            2 
 3588000   0.67104143    -8.632155    567.57845  0.013182331  0.012422016            1 
 3589000   0.67370801    -8.635942    569.09491  0.013213869  0.012417557            2 
 3590000   0.67144165   -8.6359949    567.56154  0.013174595  0.012413091            2 
 3591000   0.65824004   -8.6071164    568.34038     0.013189  0.012408636            2 
 3592000   0.67107233    -8.631306     568.7538  0.013194919  0.012404185            5 
 3593000   0.67797086   -8.6491143    567.49873  0.013162138  0.012399736            9 
 3594000   0.68358908   -8.6349136    568.23938  0.013175649  0.012395287            5 
 3595000   0.67300513   -8.6168866    569.20331  0.013194328  0.012390845            2 
 3596000   0.68200053   -8.6203925    569.23033  0.013191285  0.012386403            2 
 3597000   0.68904023   -8.6381881    567.76891   0.01315376  0.012381961            4 
 3598000   0.67857572   -8.6184761    569.29092  0.013185356  0.012377516            2 
 3599000   0.67901976   -8.6456038    568.67719  0.013167481  0.012373073            5 
 3600000   0.68078605   -8.6449534    568.53662   0.01316057  0.012368627            3 
 3601000   0.66303846    -8.663568    567.18935  0.013125737  0.012364179            2 
 3602000     0.669948   -8.6437931    569.02143  0.013164479  0.012359725            4 
 3603000   0.68694758    -8.628165    567.49076  0.013125422  0.012355283            3 
 3604000   0.67409809   -8.6444187    567.51648  0.013122375  0.012350845            2 
 3605000   0.66810013   -8.6451682     568.0798  0.013131757  0.012346395            3 
 3606000   0.65945666   -8.6200846    568.73726  0.013143309  0.012341956            4 
 3607000   0.68595473   -8.6338042     568.3437  0.013130572  0.012337526            4 
 3608000   0.68786097   -8.6529484    567.67895   0.01311158  0.012333088            3 
 3609000   0.66142089   -8.6160554    568.28424  0.013121923  0.012328644            2 
 3610000   0.69172678   -8.6459278    568.32827  0.013119305  0.012324213            5 
 3611000   0.68083703   -8.6263748    569.14135  0.013134435  0.012319781            4 
 3612000   0.68049151   -8.6623483    567.52342  0.013093471  0.012315354            3 
 3613000   0.67425947   -8.6505814     568.5106  0.013112616  0.012310925            4 
 3614000   0.67313903   -8.6470836    568.23399   0.01310261  0.012306501            3 
 3615000   0.65046753   -8.6474253    567.58953  0.013084129  0.012302065            3 
 3616000   0.65920249   -8.6321704    568.12658  0.013092888  0.012297632            7 
 3617000   0.68049854   -8.6315511    568.34516  0.013094304  0.012293198            8 
 3618000   0.65925913   -8.6642169    567.27306  0.013065991  0.012288766            7 
 3619000   0.68476996   -8.6229511    568.85624  0.013098836  0.012284342            2 
 3620000   0.66906276   -8.6550192    567.75091  0.013069772  0.012279917            6 
 3621000   0.67743823   -8.6215901    567.37846  0.013057591  0.012275489            3 
 3622000   0.66635621    -8.634465    568.14174  0.013071547  0.012271052            3 
 3623000   0.66558346   -8.6398249    568.00085  0.013064699  0.012266618            5 
 3624000   0.67014979    -8.658408     567.5741  0.013051281  0.012262184            2 
 3625000    0.6782296   -8.6467044    567.29951  0.013041368   0.01225776            6 
 3626000   0.67429045   -8.6483931    567.55901  0.013043735   0.01225333            6 
 3627000   0.67802804   -8.6649571    566.21519  0.013009264    0.0122489            2 
 3628000    0.6689634   -8.6321427    567.57323  0.013036871  0.012244463            4 
 3629000   0.66880922   -8.6671852    568.43535  0.013053076  0.012240034            4 
 3630000   0.66516846   -8.6473302    567.23151  0.013021844  0.012235608            6 
 3631000   0.69294044   -8.6487494    568.05701  0.013037203   0.01223119            2 
 3632000   0.65272041   -8.6369995    568.94163   0.01305391  0.012226774            4 
 3633000    0.6786971   -8.6395986    568.64732  0.013043566  0.012222363            3 
 3634000   0.66103222   -8.6582319    567.68016  0.013017799  0.012217953            5 
 3635000   0.67734727   -8.6621359    566.86639  0.012995561  0.012213538            2 
 3636000   0.69221008    -8.660924    566.04835  0.012973239  0.012209124            3 
 3637000   0.68268003   -8.6557583    567.92122  0.013012584  0.012204713            1 
 3638000   0.67174331   -8.6595514    566.66714  0.012980281  0.012200307            5 
 3639000   0.66868617   -8.6355126    567.88077  0.013004506  0.012195909            3 
 3640000   0.66117165   -8.6302179    568.65314  0.013018616  0.012191513            3 
 3641000   0.67211449   -8.6405769    568.44212  0.013010211  0.012187114            1 
 3642000   0.67451976   -8.6368783    568.11663  0.012999191  0.012182718            1 
 3643000   0.66486669   -8.6478129    568.13956  0.012996147  0.012178324            3 
 3644000   0.66422368   -8.6815579     567.1053  0.012968928  0.012173931            3 
 3645000   0.67238641   -8.6288699    567.83092   0.01298196  0.012169532            3 
 3646000   0.66027898   -8.6465616     567.3142  0.012966589  0.012165139            2 
 3647000   0.66958028   -8.6801057      566.615  0.012947057  0.012160735            2 
 3648000   0.67786799   -8.6424703      567.466  0.012962948  0.012156347            2 
 3649000    0.6663491   -8.6306015    567.73186  0.012965467  0.012151971            2 
 3650000   0.66254654   -8.6536173    566.91117  0.012943178   0.01214758            3 
 3651000   0.65193879    -8.659083    567.28387  0.012948139  0.012143184            5 
 3652000    0.6682901   -8.6624304    567.23641  0.012943511   0.01213879            4 
 3653000   0.68240269   -8.6667596    567.90597  0.012955242  0.012134401            1 
 3654000   0.65544717   -8.6480552    567.60081  0.012944736  0.012130021            1 
 3655000   0.66497286   -8.6417574     567.5519   0.01294008  0.012125649            2 
 3656000   0.66139949   -8.6586637    566.43686  0.012911125  0.012121272            2 
 3657000   0.65966758    -8.670003    566.51968  0.012909481  0.012116888            8 
 3658000   0.65996022   -8.6751717    566.57859  0.012907294  0.012112496            3 
 3659000    0.6510956   -8.6666796    566.72069  0.012907003   0.01210811            3 
 3660000    0.6846107    -8.674891    567.59021  0.012923274  0.012103725            7 
 3661000   0.66980812   -8.6797785    566.43331   0.01289341  0.012099344            4 
 3662000   0.67161395   -8.6598568    567.77801   0.01292049   0.01209496            3 
 3663000    0.6784861   -8.6493158    565.79783  0.012871913  0.012090594            2 
 3664000   0.67349742   -8.6579634    567.04651    0.0128968  0.012086221            4 
 3665000   0.66091358   -8.6725932    567.42347  0.012901853  0.012081854            2 
 3666000   0.67217164   -8.6591716    567.87381   0.01290857  0.012077492            3 
 3667000   0.67667979   -8.6460804    567.27327  0.012891402  0.012073125            3 
 3668000   0.66648091   -8.6382288    567.90202  0.012902172   0.01206877            3 
 3669000    0.6588006   -8.6605703    567.91605  0.012898974  0.012064416            2 
 3670000   0.65821964   -8.6217387    567.63731  0.012889131  0.012060062            2 
 3671000   0.65275886   -8.6656004    567.95074  0.012892734  0.012055716            4 
 3672000    0.6699195   -8.6789267     568.1952  0.012894771  0.012051366            1 
 3673000   0.67452436   -8.6904774    566.66333  0.012856505  0.012047008            3 
 3674000   0.65572213    -8.661609    566.57052  0.012850901  0.012042656            9 
 3675000   0.66889387    -8.653148    567.71527  0.012873362  0.012038312            3 
 3676000   0.66864738   -8.6904929    567.44319  0.012863692  0.012033971            7 
 3677000   0.65355899   -8.6490295    567.84942    0.0128694  0.012029619            6 
 3678000   0.66346566   -8.6584546       567.57   0.01285957  0.012025274            4 
 3679000   0.65077348   -8.6651711    566.06725  0.012822036   0.01202093            7 
 3680000   0.66698078   -8.6801651    566.84184  0.012836092   0.01201658            8 
 3681000   0.66183925    -8.664923    566.62935  0.012827795  0.012012225            2 
 3682000   0.66898274   -8.6562241    566.69691   0.01282584  0.012007882            2 
 3683000   0.66818668   -8.6529841    568.55291  0.012864352  0.012003538            4 
 3684000   0.67011451   -8.6425613    567.16539  0.012829474  0.011999202            4 
 3685000   0.65680782   -8.6629037    566.59155  0.012813016  0.011994861            4 
 3686000   0.66866738   -8.6816085     567.1749  0.012822728  0.011990518            4 
 3687000   0.66052051    -8.664371    567.04797  0.012816381  0.011986173            5 
 3688000   0.64881368   -8.6482553    566.89663  0.012809486  0.011981836            5 
 3689000   0.66130386    -8.659166     567.3275  0.012815747  0.011977502            4 
 3690000    0.6607017   -8.6643345    567.15308  0.012808335  0.011973173            6 
 3691000   0.65409507    -8.673829    568.93228  0.012845035  0.011968841            6 
 3692000   0.65932649   -8.6544183    567.06764  0.012799468  0.011964517            9 
 3693000   0.65512967   -8.6715921    567.64068  0.012808933  0.011960199            5 
 3694000   0.66444209   -8.6759483    567.65411  0.012805769  0.011955886            2 
 3695000   0.65659253    -8.652235    567.40535  0.012796693   0.01195157            6 
 3696000   0.64841879   -8.6545327    567.50896  0.012795566  0.011947246            7 
 3697000   0.65547253   -8.6595369    566.76545  0.012775346  0.011942923            4 
 3698000   0.65477795   -8.6614475    566.78487  0.012772329  0.011938599            4 
 3699000   0.65186189   -8.6841317    567.07658  0.012775448   0.01193428            4 
 3700000    0.6544846   -8.6629317    566.84902   0.01276687  0.011929965            5 
 3701000   0.67371757   -8.6546149    566.55089  0.012756708   0.01192565            5 
 3702000   0.66243061   -8.6725772    567.33591  0.012770933  0.011921337            7 
 3703000   0.65518502   -8.6734791    566.29035  0.012743954  0.011917027            4 
 3704000   0.66898391   -8.6701565    567.34984   0.01276435  0.011912726            7 
 3705000   0.65038959   -8.6822091     566.4504  0.012740675  0.011908412            4 
 3706000   0.66271987   -8.6736412    566.52058  0.012738815  0.011904098            7 
 3707000    0.6727485   -8.6570092    567.08947  0.012748167  0.011899789            5 
 3708000   0.66224788    -8.645958    568.63287  0.012779415  0.011895485            4 
 3709000   0.64133241   -8.6683908    566.56251  0.012729453  0.011891182            5 
 3710000   0.66077604   -8.6806724     565.6204  0.012704861  0.011886868            2 
 3711000   0.67738116    -8.684308    567.30228  0.012739205  0.011882572            2 
 3712000   0.65380211   -8.6881292    566.70519  0.012722369  0.011878274            4 
 3713000   0.66115843   -8.6643271    566.71257  0.012719108  0.011873983            2 
 3714000    0.6576745   -8.6573631    567.35585  0.012730117  0.011869691            3 
 3715000    0.6605776   -8.6362749    568.26193  0.012747015  0.011865406            4 
 3716000   0.65704639   -8.6539558    566.44754  0.012702896  0.011861121            3 
 3717000   0.65095231   -8.6850394    566.25934  0.012695259  0.011856834            6 
 3718000   0.66794976   -8.6749822    566.52225  0.012697737  0.011852546            3 
 3719000   0.64890402   -8.6697178    567.29127  0.012711555  0.011848263            5 
 3720000   0.66527809   -8.6694572    566.28695  0.012685639  0.011843977            3 
 3721000   0.66602557   -8.6799166    568.29444  0.012727189    0.0118397            2 
 3722000   0.66615246   -8.6550456    567.03407  0.012695551  0.011835421            7 
 3723000   0.66054573   -8.6567428    566.40489  0.012678057  0.011831142            3 
 3724000   0.64934299   -8.6719005    566.40899  0.012674745  0.011826868            3 
 3725000   0.66204243   -8.6503928    566.26076  0.012668026  0.011822594            2 
 3726000   0.66873028   -8.6883782    566.31706  0.012665885  0.011818315            5 
 3727000   0.65927729    -8.678465    567.12837  0.012680627  0.011814036            5 
 3728000   0.66110277    -8.673135    566.75741  0.012668933  0.011809761            7 
 3729000   0.64068932    -8.683085    566.99296    0.0126708  0.011805486            5 
 3730000    0.6576292   -8.6726425    566.42103  0.012654625  0.011801215            3 
 3731000   0.67321677   -8.6849112     567.1433  0.012667366  0.011796946            3 
 3732000   0.64690156   -8.6833762    566.66029  0.012653186  0.011792675            5 
 3733000   0.66438974   -8.6623015    567.07866  0.012659136  0.011788407            4 
 3734000   0.65282505   -8.7000299    567.08624  0.012655915  0.011784144            5 
 3735000   0.64811677   -8.6532348    567.18748  0.012654785  0.011779883            6 
 3736000   0.66893511   -8.6865622    566.57507  0.012637738  0.011775626            7 
 3737000   0.64731444   -8.6847583    566.59861  0.012634881  0.011771373            6 
 3738000   0.64939425   -8.6815183    567.15944  0.012644004  0.011767117            3 
 3739000   0.67023733   -8.6642111    567.46834  0.012647507  0.011762864            6 
 3740000    0.6577652   -8.6969734    565.86529  0.012608407  0.011758606            6 
 3741000   0.64366959   -8.6980934    566.24286  0.012613447  0.011754347            3 
 3742000   0.65204359   -8.6936103    567.11894  0.012629586  0.011750083            4 
 3743000   0.65120367    -8.711788    567.10243  0.012625844  0.011745836            6 
 3744000   0.65926521   -8.6950503    567.18049   0.01262421  0.011741584            3 
 3745000   0.64928045   -8.6752489    566.92792  0.012615219   0.01173733            4 
 3746000   0.64808668   -8.6537525    567.05292  0.012614632  0.011733079            8 
 3747000   0.64723221   -8.6830854    567.10285  0.012612375  0.011728841            3 
 3748000   0.65850154    -8.695764    567.53412  0.012618599  0.011724598           10 
 3749000   0.64975455   -8.6987505    566.99838  0.012603325  0.011720359            3 
 3750000   0.67268742   -8.7015385     567.5315  0.012611811  0.011716121            5 
 3751000    0.6641854   -8.6935627    566.96207  0.012595798  0.011711894            4 
 3752000   0.65255685   -8.6800023    567.26003  0.012599059  0.011707661            4 
 3753000   0.66890569   -8.6777387    567.00459   0.01259003  0.011703434            5 
 3754000   0.64444224    -8.669038    567.15467  0.012590008  0.011699204            5 
 3755000   0.63958029   -8.6808916    566.73909  0.012577432  0.011694983            4 
 3756000   0.65975958   -8.6843925    566.58846  0.012570741  0.011690766            5 
 3757000   0.66250653    -8.691315     567.3903  0.012585181  0.011686545            7 
 3758000   0.65949522   -8.7012171     567.4389   0.01258291  0.011682325            2 
 3759000   0.65297172   -8.7062321    566.57114  0.012560325  0.011678101            8 
 3760000   0.65355434   -8.7168317    566.35734  0.012552246  0.011673878            5 
 3761000   0.65656415   -8.6858893    567.56797  0.012575733   0.01166965            5 
 3762000   0.63833225   -8.6864399    565.83458  0.012533993  0.011665431            9 
 3763000   0.65729889   -8.7026092    566.71705  0.012550205  0.011661215           11 
 3764000   0.65344041   -8.6877987    567.65052  0.012567537  0.011657005            5 
 3765000   0.65064109   -8.6865774    568.22913  0.012577006  0.011652784            7 
 3766000   0.64790205   -8.6948241    565.96563   0.01252358  0.011648571            4 
 3767000   0.65299961   -8.6875358    566.52868  0.012532711  0.011644358            5 
 3768000   0.64326116   -8.7105425    565.97888  0.012517226  0.011640148            4 
 3769000   0.65378463   -8.6944435    565.41685  0.012501478  0.011635941            4 
 3770000    0.6561501   -8.7116409    566.62994  0.012524977  0.011631727            5 
 3771000   0.64417194   -8.6961684    566.71139  0.012523455  0.011627522            8 
 3772000   0.64445678   -8.6902926    565.50342  0.012493448  0.011623318            8 
 3773000   0.64333561   -8.7122707    565.58941  0.012492036  0.011619104            5 
 3774000   0.64060823   -8.6896578    565.39166  0.012484359  0.011614898            8 
 3775000   0.65616319   -8.7131433    565.61076  0.012485889  0.011610698            5 
 3776000   0.65879536   -8.6718483    566.08613  0.012493073  0.011606502            8 
 3777000   0.65520257    -8.673257    566.09602  0.012489984  0.011602305            5 
 3778000   0.66014651   -8.6668348    567.84503  0.012525257  0.011598111            4 
 3779000   0.64334273   -8.6829333    566.97265  0.012502705  0.011593911            5 
 3780000   0.64572483   -8.6976094    566.88383  0.012497439  0.011589715            8 
 3781000   0.65600245   -8.6953486    567.24065  0.012501998  0.011585519            3 
 3782000   0.66116047   -8.6970165    566.61243   0.01248485   0.01158133            5 
 3783000   0.63990404   -8.7067448     565.7447  0.012462435  0.011577136            3 
 3784000   0.65026544   -8.7237711    565.60701  0.012456109   0.01157295            5 
 3785000   0.64178121   -8.7131008    566.45231  0.012471429  0.011568761            3 
 3786000   0.64389811   -8.7307095    565.91206  0.012456244  0.011564565            2 
 3787000   0.63159116   -8.7136794    565.96853  0.012454197  0.011560367            2 
 3788000   0.65239696   -8.7170497    566.01216  0.012451869  0.011556174            4 
 3789000   0.63514721   -8.7158537    565.83945  0.012444784  0.011551988            4 
 3790000   0.64309678   -8.7192803    567.13223  0.012469926  0.011547804            3 
 3791000    0.6565858    -8.690905    566.33164  0.012449038  0.011543619            1 
 3792000   0.64198103   -8.7056332    565.88342  0.012435905   0.01153943            5 
 3793000   0.63391476   -8.6941013    565.70863  0.012428786  0.011535244            1 
 3794000   0.64751451   -8.7008882    565.74974  0.012426413  0.011531057            4 
 3795000   0.63890599    -8.704292    566.45732  0.012438676  0.011526872            2 
 3796000   0.65043534   -8.7078661    565.77324  0.012420382  0.011522686            5 
 3797000    0.6523722   -8.7122486    565.79106  0.012417502  0.011518509            4 
 3798000    0.6473109   -8.7184769    566.21791  0.012423598   0.01151433            4 
 3799000   0.64855844   -8.7215502    566.22028   0.01242038  0.011510145            5 
 3800000    0.6480317   -8.6909291    565.73225  0.012406409  0.011505967            6 
 3801000   0.64971734   -8.7007716    565.76963  0.012403964  0.011501793            4 
 3802000   0.66942408   -8.7188705    566.77349  0.012422705  0.011497617            2 
 3803000   0.64256536   -8.7213455    566.60047  0.012415647  0.011493442            2 
 3804000   0.65415561   -8.7200585    565.59042  0.012390256  0.011489273            8 
 3805000   0.63795692   -8.6833919    565.82948  0.012392236   0.01148511            3 
 3806000   0.63881978   -8.7165649    565.20753  0.012375362  0.011480945            6 
 3807000   0.64557087   -8.7003631    566.15005  0.012392742   0.01147678            5 
 3808000   0.65284854   -8.7131765    566.86262  0.012405082  0.011472613            4 
 3809000   0.65622958   -8.7009871    565.98061  0.012382529  0.011468449            8 
 3810000   0.63833875   -8.7191754    565.82173  0.012375803  0.011464285            3 
 3811000   0.65444686   -8.7407262    565.58268  0.012367329  0.011460124            4 
 3812000   0.66002615   -8.7230298    566.23717  0.012378392  0.011455968            2 
 3813000   0.63185864   -8.7197308    564.96895  0.012347429  0.011451818            5 
 3814000   0.66054528   -8.7120505    566.13473  0.012369663  0.011447664            2 
 3815000   0.64349246   -8.7131633    565.97552  0.012362943  0.011443515            5 
 3816000   0.65344646   -8.7002145    566.20842  0.012364789  0.011439369            4 
 3817000   0.65053504    -8.707043    566.28629   0.01236325  0.011435228            4 
 3818000   0.64629421   -8.7266715    566.19719  0.012358067  0.011431089            6 
 3819000   0.64382368   -8.7339161    565.77563  0.012345632  0.011426943            2 
 3820000   0.64072668   -8.7314259    565.52782  0.012336994  0.011422802            5 
 3821000   0.62755213   -8.7346733    566.16371  0.012347634  0.011418658            2 
 3822000   0.63976951    -8.735833    565.13877  0.012322056  0.011414519            3 
 3823000   0.64163045   -8.7123183    566.82239  0.012355532  0.011410382            7 
 3824000   0.62374916   -8.7352421    563.95649  0.012289847  0.011406242            9 
 3825000   0.63515565   -8.7049412     566.2756  0.012337159  0.011402102            1 
 3826000   0.63481641   -8.7374486    564.79214  0.012301624  0.011397969            4 
 3827000   0.64988922   -8.7120312    567.06461  0.012347892  0.011393837            4 
 3828000     0.631592   -8.7199496    567.31547  0.012350128    0.0113897            4 
 3829000   0.62582709   -8.7460306    564.71101   0.01229022   0.01138557            3 
 3830000   0.63331371   -8.7240403    566.57795  0.012327632  0.011381442            2 
 3831000   0.63797371   -8.7097027    565.31808  0.012297009  0.011377319            8 
 3832000   0.63380112   -8.7369988    566.60671  0.012321823  0.011373188            2 
 3833000   0.64436654   -8.7442934    565.94334  0.012304186   0.01136907            4 
 3834000    0.6428638   -8.7211722    564.94939  0.012279373  0.011364951            3 
 3835000   0.63478177   -8.7230308    565.54681  0.012289153  0.011360843            4 
 3836000   0.62072751   -8.6996615    565.99136  0.012295606  0.011356724            1 
 3837000   0.63699609   -8.7410522    566.60171  0.012305658  0.011352613            2 
 3838000   0.62829604   -8.7190725    566.02748  0.012289984  0.011348499            5 
 3839000   0.62474603   -8.7292405    565.52631  0.012275903  0.011344384            3 
 3840000   0.63626295   -8.7098777    566.01803  0.012283377  0.011340266            4 
 3841000   0.63043215   -8.7190883    566.22686   0.01228471  0.011336159            3 
 3842000   0.63702059    -8.716158     565.8054  0.012272371  0.011332054            4 
 3843000   0.62968707     -8.70471    565.54905  0.012263619  0.011327951            2 
 3844000   0.64444287   -8.7116488    566.84514  0.012288526  0.011323852            3 
 3845000   0.64486341   -8.7192992    566.04581  0.012268006   0.01131976            3 
 3846000   0.62748437   -8.7246715    566.27286  0.012269736  0.011315661            4 
 3847000   0.64756736   -8.7021774    566.24402  0.012265922  0.011311564            3 
 3848000   0.63105696   -8.7166691    566.60653  0.012270585  0.011307469            4 
 3849000   0.62587346   -8.7388391     565.5722  0.012245003   0.01130337            7 
 3850000   0.63053312   -8.7483545    565.44126  0.012238988  0.011299268            2 
 3851000   0.63712222   -8.7391114    565.67376  0.012240841  0.011295164            8 
 3852000   0.63771252   -8.7305657     565.0108  0.012223321   0.01129107            7 
 3853000   0.62659974   -8.7350982     566.1104  0.012243931  0.011286973            2 
 3854000   0.65561093   -8.7382457    565.88705  0.012235925  0.011282879            4 
 3855000   0.64024558   -8.7331192    565.15209  0.012216863  0.011278787            5 
 3856000   0.64418093   -8.7280477    566.01478  0.012232339  0.011274693            4 
 3857000   0.62882447   -8.7399462    565.60667   0.01222035  0.011270602            2 
 3858000   0.63726724    -8.729489    565.67535  0.012218666   0.01126651            2 
 3859000   0.62981318   -8.7371409    566.15379  0.012225831  0.011262427            3 
 3860000   0.63442484   -8.7424268     565.8995  0.012217174  0.011258347            4 
 3861000   0.61851677   -8.7478061    565.13291  0.012197464  0.011254265            4 
 3862000   0.64229809   -8.7175615    565.63973  0.012205242  0.011250191            8 
 3863000   0.64262445   -8.7496653    564.66434  0.012181041  0.011246114            2 
 3864000   0.62512149     -8.72106    564.17208  0.012167272  0.011242033            3 
 3865000   0.63615221   -8.7495292    565.03194  0.012182664  0.011237953            2 
 3866000   0.63176197   -8.7406736    566.47034  0.012210518  0.011233876            6 
 3867000   0.62987323   -8.7528205    565.82089  0.012193365  0.011229801            2 
 3868000   0.62553599   -8.7460866    565.88461  0.012191585  0.011225721            3 
 3869000   0.62316138   -8.7295301    565.86707  0.012188056  0.011221645            4 
 3870000   0.63295852   -8.7278935    565.36228  0.012174037  0.011217582            5 
 3871000   0.64636345   -8.7433363    565.09927   0.01216523  0.011213513            6 
 3872000   0.63494233    -8.748401    564.16672  0.012142018  0.011209446            4 
 3873000   0.63693892   -8.7720915    563.98513  0.012134976  0.011205376            5 
 3874000   0.64222879    -8.754164     565.2085  0.012158159   0.01120131            6 
 3875000   0.63724184   -8.7632988    564.82005  0.012146668  0.011197246            2 
 3876000   0.63659395   -8.7383175    565.19302  0.012151553  0.011193183            4 
 3877000   0.62198334   -8.7451724    566.27078  0.012171584  0.011189125           10 
 3878000   0.63495353   -8.7436791     565.1287  0.012143904  0.011185061            3 
 3879000   0.60749004   -8.7332688    565.19759  0.012142253  0.011181001            3 
 3880000   0.62366152   -8.7433448     564.4398  0.012122848  0.011176944            2 
 3881000   0.62320604   -8.7301222    565.09032  0.012133692  0.011172889            5 
 3882000   0.63777118   -8.7439965    566.03896  0.012150931  0.011168837            4 
 3883000   0.64169896   -8.7356558    564.97919  0.012125058  0.011164793            8 
 3884000   0.62962252   -8.7520811    565.32598  0.012129376  0.011160752            4 
 3885000   0.62476182   -8.7499907    566.62933  0.012154211  0.011156718            3 
 3886000   0.62199997   -8.7483669    565.86041  0.012134595  0.011152683            4 
 3887000   0.62645903   -8.7199764    565.30769  0.012119623  0.011148644            5 
 3888000   0.64050958   -8.7202234    566.63901  0.012145041  0.011144612            5 
 3889000   0.62803661   -8.7359552    565.27672  0.012112726  0.011140576            7 
 3890000   0.63788434    -8.738292    565.84379  0.012121761  0.011136542            7 
 3891000   0.64163153    -8.737133    565.05071   0.01210166   0.01113251            5 
 3892000   0.62571455   -8.7396103    565.25798  0.012102989  0.011128481           10 
 3893000   0.64345232   -8.7332992     565.4671  0.012104356  0.011124455            3 
 3894000   0.62709679   -8.7300639    565.51661  0.012102307  0.011120427            9 
 3895000   0.62581457   -8.7267327    564.75927  0.012082997  0.011116407            7 
 3896000   0.61613083    -8.748592    565.85791  0.012103395  0.011112382           12 
 3897000   0.62062348    -8.743443    565.11114   0.01208432  0.011108366            5 
 3898000   0.62673973   -8.7412856    565.54262  0.012090444  0.011104342            7 
 3899000   0.64837323   -8.7383206    564.56843  0.012066522  0.011100325            5 
 3900000   0.63804448   -8.7606968    565.37617  0.012080687  0.011096308            2 
 3901000   0.61658982   -8.7572428    565.34996  0.012077031   0.01109229            3 
 3902000    0.6342104   -8.7529204    565.77148  0.012082938  0.011088275            3 
 3903000   0.62586562   -8.7406371    565.72592  0.012078869  0.011084265            3 
 3904000   0.60971977   -8.7380896    566.18022  0.012085473  0.011080259            7 
 3905000   0.62138506   -8.7370976    565.02145  0.012057649  0.011076247            5 
 3906000   0.62239217   -8.7703078    564.65593  0.012046764  0.011072237            6 
 3907000   0.62328045   -8.7633451    565.86871  0.012069548  0.011068226            5 
 3908000   0.62674557   -8.7308819    565.24717  0.012053206   0.01106422            7 
 3909000    0.6278827   -8.7597616    564.73903   0.01203929  0.011060219            5 
 3910000   0.62934928    -8.762771    563.75029  0.012015138   0.01105621            3 
 3911000   0.63152884   -8.7315215    565.70311  0.012053676  0.011052206            5 
 3912000   0.62652606   -8.7500685    565.55144  0.012047364  0.011048214            6 
 3913000   0.61824341   -8.7423086    564.04622  0.012012229  0.011044215            2 
 3914000   0.63603642   -8.7462754    565.75789  0.012045603  0.011040224            5 
 3915000   0.62105082   -8.7138554    564.80932  0.012022335  0.011036228            4 
 3916000   0.61448798   -8.7370102    566.52086  0.012055687  0.011032241            1 
 3917000   0.62166857   -8.7357332    565.81762  0.012037648  0.011028255            3 
 3918000   0.63460319    -8.724481    564.55958  0.012007818  0.011024273            8 
 3919000    0.6182335   -8.7470149    565.91466  0.012033569  0.011020295            5 
 3920000   0.62690565    -8.739246    565.46529  0.012020946   0.01101631            4 
 3921000   0.62805203   -8.7637541    565.07766  0.012009642  0.011012327            4 
 3922000   0.61866132    -8.744593    565.08054  0.012006641  0.011008342            5 
 3923000   0.62534815   -8.7464446    564.84792  0.011998639  0.011004357            4 
 3924000   0.61714198   -8.7436309    565.95642  0.012019122  0.011000376            2 
 3925000   0.63121048   -8.7446506     566.0705  0.012018482  0.010996401            2 
 3926000   0.61570374   -8.7564659    566.63274  0.012027355  0.010992424            3 
 3927000    0.6268513   -8.7540335    564.87584   0.01198701  0.010988451            4 
 3928000   0.61215835   -8.7790939    566.02309  0.012008297  0.010984479            2 
 3929000    0.6261762   -8.7407122    565.82254  0.012000987  0.010980512            2 
 3930000   0.62088489    -8.741309    564.82538  0.011976789  0.010976549            3 
 3931000   0.61880976   -8.7510689    566.15824  0.012001998  0.010972583            4 
 3932000   0.62904227   -8.7379821    565.53212  0.011985676  0.010968616            2 
 3933000   0.62606877    -8.738582    565.41703   0.01198019  0.010964655            2 
 3934000   0.62981731   -8.7553407    564.51613  0.011958061  0.010960695            4 
 3935000   0.62779302   -8.7644911    564.50804   0.01195485  0.010956729            2 
 3936000   0.61165703   -8.7522533     565.1754  0.011965943  0.010952763            2 
 3937000   0.62803425   -8.7652598    564.74594  0.011953813    0.0109488            3 
 3938000    0.6194056   -8.7596449    564.34438   0.01194228  0.010944832            4 
 3939000   0.63327474   -8.7483335    564.78289  0.011948525  0.010940876            2 
 3940000   0.63883544   -8.7318957    565.58791  0.011962519  0.010936925            3 
 3941000   0.62416694   -8.7765021    564.94968  0.011945988  0.010932971            2 
 3942000   0.62630198   -8.7507746    564.52598  0.011934001  0.010929017            3 
 3943000   0.62719561   -8.7359635    565.50741  0.011951716  0.010925065            2 
 3944000   0.62367861   -8.7640292    565.18827  0.011941943  0.010921116            2 
 3945000    0.6149308   -8.7532318    566.30028  0.011962406  0.010917165            2 
 3946000    0.6278993   -8.7670121    565.13107  0.011934682  0.010913215            2 
 3947000    0.6259119   -8.7396684    565.16643  0.011932405  0.010909266            2 
 3948000   0.61010109   -8.7623537    565.40824  0.011934487  0.010905317            2 
 3949000   0.64058138   -8.7600483    564.49456  0.011912184  0.010901367            2 
 3950000    0.6199837   -8.7929697    564.32233  0.011905534  0.010897418            2 
 3951000   0.62930486   -8.7660064    564.56692   0.01190768  0.010893475            2 
 3952000   0.61582725   -8.7642172    563.95892  0.011891846  0.010889539            3 
 3953000   0.61132209   -8.7592674    563.88252  0.011887227  0.010885598            4 
 3954000   0.60990199   -8.7814554    566.23679  0.011933839  0.010881658            5 
 3955000   0.61993634   -8.7642402    565.26849  0.011910419  0.010877727            2 
 3956000   0.62809492   -8.7588735    565.15981  0.011905119  0.010873791            3 
 3957000   0.59832688    -8.763632    565.41179  0.011907417  0.010869862            5 
 3958000   0.62837136   -8.7385944    564.83453  0.011892255  0.010865931            4 
 3959000   0.62946605   -8.7589639    564.24564  0.011876855  0.010861996            5 
 3960000   0.62540075   -8.7824525    564.61893  0.011881712   0.01085806            4 
 3961000   0.61592141   -8.7636327    564.30643  0.011872137   0.01085413            5 
 3962000   0.62037844   -8.7651393     563.7915   0.01185831  0.010850205            4 
 3963000    0.6226924   -8.7717117    565.22124  0.011885382  0.010846283            3 
 3964000    0.6134715    -8.764754    565.35999  0.011885301  0.010842358            4 
 3965000   0.61213124   -8.7672927    564.90093  0.011872655  0.010838433            5 
 3966000   0.62162185   -8.7753936    564.28669  0.011856755  0.010834509           11 
 3967000   0.60969538   -8.7829431    564.12616  0.011850394  0.010830582            7 
 3968000   0.63218082   -8.7674586    563.93873  0.011843471  0.010826667            6 
 3969000   0.62026862   -8.7802761    564.03028  0.011842409  0.010822749            7 
 3970000   0.61799467   -8.7663055    565.27905  0.011865639  0.010818835            3 
 3971000   0.62172927   -8.7516367     564.5086  0.011846483   0.01081492            4 
 3972000    0.6155461   -8.7707437     564.6412  0.011846282  0.010811014            5 
 3973000   0.61278999   -8.7709907      565.051  0.011851896  0.010807107            3 
 3974000   0.63271053   -8.7505988     564.1847  0.011830748  0.010803199            7 
 3975000   0.61797913   -8.7681377     564.0103  0.011824115  0.010799293            4 
 3976000   0.61400032    -8.775137    564.66525  0.011834869  0.010795385            2 
 3977000   0.62264474   -8.7629593    565.02333  0.011839396  0.010791476            2 
 3978000   0.61754221   -8.7499704    565.04749  0.011836926  0.010787568            4 
 3979000   0.62164686   -8.8044044    565.80573  0.011849831  0.010783665            6 
 3980000   0.61353156   -8.8037571    564.08879  0.011810904  0.010779762            7 
 3981000   0.60814791   -8.7905449    563.96948   0.01180544   0.01077586            4 
 3982000   0.60766458    -8.760991    565.44346  0.011833322   0.01077196            7 
 3983000   0.61371855   -8.7758411    564.81428  0.011817187  0.010768064            3 
 3984000   0.62840273   -8.7643022     564.5248  0.011808166   0.01076417            4 
 3985000   0.61823469   -8.7617073    563.96065  0.011793405  0.010760276            4 
 3986000   0.60888303   -8.7765867    565.00332  0.011812245  0.010756384            5 
 3987000   0.61348479   -8.7986628    563.71635  0.011782383    0.0107525            4 
 3988000   0.60077399   -8.7816926    564.09417  0.011787324  0.010748611            4 
 3989000   0.61347879   -8.7643613    564.56896  0.011794288  0.010744728            3 
 3990000   0.60441092   -8.7843898    564.19021  0.011783421  0.010740843            3 
 3991000   0.61941596    -8.762373    564.20521  0.011780782  0.010736959            3 
 3992000   0.61504313   -8.7876469    564.35695  0.011780998  0.010733083            3 
 3993000   0.61243648   -8.7634707    565.17145  0.011795046  0.010729201            4 
 3994000   0.60297627   -8.7900215    564.59369  0.011780039  0.010725322            4 
 3995000    0.6204134   -8.7818358    564.37625  0.011772554  0.010721446            2 
 3996000   0.62067973   -8.7799713    565.36449  0.011790217  0.010717567            7 
 3997000   0.60449602   -8.7558886    564.76011  0.011774667  0.010713687            2 
 3998000   0.60787818   -8.7702342    563.87925  0.011753361  0.010709811            3 
 3999000   0.62355201    -8.779058     564.6246  0.011765954  0.010705939            3 
 4000000   0.62560412   -8.8082849    563.89037  0.011747716  0.010702064            5 
 4001000   0.62726194   -8.7768778    563.78752  0.011742638  0.010698193            8 
 4002000   0.61819544   -8.7835154    563.54715  0.011734698  0.010694322            5 
 4003000   0.61547923   -8.7723931     563.9153  0.011739431  0.010690451            5 
 4004000   0.62066947   -8.7560238    564.27672  0.011744021  0.010686586            4 
 4005000   0.60778607   -8.7935972     563.8827   0.01173289  0.010682721            6 
 4006000   0.61314472   -8.7922959    564.38127  0.011740333  0.010678862            3 
 4007000   0.61376003    -8.781301    563.86756  0.011726719  0.010674998            3 
 4008000   0.60966086   -8.7740092    564.18558  0.011730405  0.010671141            3 
 4009000   0.60788244   -8.7848919    564.09427  0.011725581  0.010667281            3 
 4010000    0.6099757   -8.7732915    565.24658  0.011746604  0.010663421            3 
 4011000   0.60994982   -8.7732899    563.73578  0.011712287  0.010659568            7 
 4012000   0.60518744   -8.7807743    564.41132  0.011723399  0.010655716            5 
 4013000    0.5990327   -8.7937618    564.58183  0.011724018  0.010651861            9 
 4014000   0.60830384   -8.8086172     564.2954  0.011715151   0.01064801            3 
 4015000   0.62364391   -8.7880135    564.76032  0.011721883  0.010644159            2 
 4016000   0.60018935   -8.7708618     563.2501  0.011687626  0.010640312            6 
 4017000   0.61885659   -8.7764022    564.17509  0.011703906  0.010636463            4 
 4018000   0.60202372   -8.7688464    565.74743  0.011733604  0.010632618            2 
 4019000   0.60989643   -8.7823957      564.857  0.011712221  0.010628773            3 
 4020000   0.61182861   -8.8182575    565.24883   0.01171743  0.010624934            3 
 4021000   0.60467686   -8.7899231    563.88824  0.011686319  0.010621092            4 
 4022000   0.61924665   -8.7993656    564.44682  0.011694986  0.010617254            2 
 4023000   0.61249081   -8.7925909    564.38536  0.011690806  0.010613419            3 
 4024000   0.60866007   -8.7881879    563.59744  0.011671584  0.010609588            3 
 4025000   0.60453159   -8.7967416    564.36887  0.011684656  0.010605755            5 
 4026000   0.60065074   -8.7804258    564.92679  0.011693302  0.010601927            4 
 4027000    0.6044269   -8.7806255    563.48949  0.011660655  0.010598096            6 
 4028000   0.60701539   -8.8029073    564.49394  0.011678541  0.010594267            4 
 4029000   0.59501776   -8.8025033    563.26772   0.01165028  0.010590438            4 
 4030000   0.60118535   -8.7977362    563.62584  0.011654794   0.01058661            4 
 4031000   0.61572542   -8.7873087    565.09112  0.011682195  0.010582792            3 
 4032000   0.60120866   -8.7946362    564.01322  0.011657019  0.010578968            5 
 4033000   0.60839159   -8.8175948    564.40479   0.01166222  0.010575147            4 
 4034000   0.61002007   -8.7948703    563.72215  0.011645227  0.010571326            2 
 4035000   0.59866513   -8.7980764    563.93545  0.011646746  0.010567506            4 
 4036000   0.60835563   -8.8194761    563.87833  0.011642681  0.010563687            3 
 4037000    0.5954049   -8.7961139    563.92233  0.011640705  0.010559868            3 
 4038000    0.6172394   -8.8043327    564.95282  0.011659089  0.010556054            3 
 4039000   0.58632199   -8.8322133    563.57815   0.01162784  0.010552242            3 
 4040000   0.59886415   -8.7968146    563.43386  0.011621985   0.01054843            4 
 4041000   0.59764735   -8.8092505    562.64558  0.011602854  0.010544617            2 
 4042000   0.61612508   -8.7988855    563.12063  0.011609777  0.010540813            4 
 4043000   0.60965519   -8.8035595    563.16252  0.011607769   0.01053701            5 
 4044000   0.59719136   -8.8153975    564.49403  0.011632337  0.010533205            3 
 4045000   0.60771833    -8.789003    565.97556  0.011659983  0.010529401            2 
 4046000   0.59123041    -8.793264    564.06107  0.011617669  0.010525605            2 
 4047000   0.60632373   -8.8049306    564.01296  0.011613808  0.010521807            4 
 4048000   0.60185764   -8.8049921    563.44486  0.011599244  0.010518008            5 
 4049000   0.60926603   -8.8041465    563.63623  0.011600318  0.010514209            4 
 4050000   0.62123409    -8.803761    563.56664  0.011596021  0.010510411            6 
 4051000   0.60618365   -8.8192049     563.8755  0.011599512   0.01050662            5 
 4052000   0.61675215   -8.8156222    563.73831  0.011593828   0.01050283            3 
 4053000   0.59723287   -8.8034367    563.92869  0.011594882  0.010499039            8 
 4054000   0.61214485   -8.8054576    564.51268  0.011604027  0.010495256            3 
 4055000   0.59639087   -8.8041865     564.1834  0.011594398  0.010491471            7 
 4056000   0.59958431    -8.776501    563.75429  0.011582723   0.01048769            4 
 4057000   0.60639724   -8.8106516    563.95367  0.011583963  0.010483906            5 
 4058000   0.60836914   -8.8109825    563.69046  0.011575704  0.010480123            4 
 4059000   0.62335157   -8.7915445    564.86943  0.011597056   0.01047634            5 
 4060000   0.59071515   -8.8120323    564.03355  0.011577043  0.010472565            3 
 4061000   0.59519371   -8.8034266    563.06145  0.011554245  0.010468787            3 
 4062000   0.60207999   -8.8048797    563.27751  0.011555833   0.01046501            4 
 4063000   0.61232685   -8.7858344    564.09929  0.011569844  0.010461236            3 
 4064000   0.59693644   -8.8101913    564.21124  0.011569292  0.010457459            3 
 4065000   0.61572862    -8.801193    563.02633  0.011542155  0.010453689            5 
 4066000    0.6078286   -8.8294843    563.26384  0.011544184  0.010449917            2 
 4067000   0.59165537   -8.8164638    562.66721  0.011529121  0.010446148            4 
 4068000   0.60498557   -8.8060161    563.53211  0.011544004  0.010442379            5 
 4069000   0.58998739   -8.8116607    564.27294  0.011556339  0.010438619            3 
 4070000   0.60138982   -8.7892289    563.99576  0.011547825  0.010434859            4 
 4071000   0.59423289   -8.8180198    563.95173  0.011544087  0.010431092            7 
 4072000   0.59814707   -8.8193589    563.74039  0.011536927  0.010427329            4 
 4073000   0.59552566   -8.8152434    563.19678  0.011522972  0.010423566            5 
 4074000   0.59817108   -8.7981003    564.15408  0.011539725  0.010419804            5 
 4075000   0.59770092   -8.7816106    564.47368  0.011543429  0.010416042            6 
 4076000   0.60323218   -8.7923481    563.84789  0.011527803  0.010412285            4 
 4077000   0.58578297    -8.801462    563.57166  0.011519329   0.01040853            2 
 4078000   0.59086855   -8.8035495    563.15243  0.011507938  0.010404782            4 
 4079000   0.60582876    -8.818374    563.47201  0.011511645  0.010401034            5 
 4080000   0.60636281   -8.8181989    563.60092  0.011511457  0.010397288            2 
 4081000   0.59298733   -8.8221055     564.2333  0.011521549  0.010393541            6 
 4082000    0.6069023   -8.7998499    564.34046  0.011520914  0.010389795            6 
 4083000   0.60296395   -8.7921372    563.64098  0.011503816   0.01038605            5 
 4084000   0.59530448   -8.7920078    564.11446  0.011510661  0.010382308            3 
 4085000    0.5958133   -8.8004951     564.0624  0.011506781  0.010378565            4 
 4086000    0.6088601   -8.7964619    562.59481  0.011474033  0.010374829            4 
 4087000   0.59166292   -8.7756718    562.97786  0.011479036  0.010371096            2 
 4088000   0.58841695   -8.7975383    564.06239  0.011498336   0.01036736            2 
 4089000   0.59250033   -8.7908051    564.37421  0.011501879  0.010363626            4 
 4090000   0.60400639    -8.809299    563.77994  0.011486959  0.010359898            3 
 4091000   0.60126959   -8.8182494    564.74001  0.011503708   0.01035617            2 
 4092000   0.60371478   -8.7999599    564.54476   0.01149692  0.010352445            6 
 4093000    0.5883666   -8.7979876    563.73659  0.011477657  0.010348726            2 
 4094000   0.60463857   -8.8092627    563.66603  0.011473417  0.010345012            3 
 4095000   0.59097445   -8.7798863    563.28236  0.011462807  0.010341299            2 
 4096000   0.59782786   -8.8019029    564.25238  0.011479744  0.010337584            1 
 4097000   0.58324164   -8.8078437    564.49194  0.011481815  0.010333864            7 
 4098000   0.59340697   -8.7961036    564.67405  0.011482716  0.010330151            4 
 4099000    0.6101367    -8.812285    564.19839  0.011470245  0.010326437            4 
 4100000   0.59171392   -8.8073548    565.06071  0.011484974  0.010322722            4 
 4101000   0.58240147   -8.8170196    562.99581  0.011440214   0.01031901            3 
 4102000   0.61734411   -8.8273767     564.0964  0.011459784  0.010315302            3 
 4103000   0.59625275   -8.8026041    562.96426  0.011433997  0.010311596            5 
 4104000   0.58514957   -8.8073963    563.95532  0.011451334  0.010307888            7 
 4105000   0.59034039   -8.7969274    563.23059  0.011433833   0.01030418            3 
 4106000   0.60662083   -8.8061881    562.96738  0.011425706   0.01030048            2 
 4107000   0.60199187   -8.7791797    564.04578  0.011444805  0.010296778            2 
 4108000   0.58671181   -8.7894512    563.56433  0.011432253  0.010293078            4 
 4109000   0.58466967   -8.8093797    564.28871  0.011444161  0.010289377            7 
 4110000   0.57967862   -8.8029437      563.204  0.011419384  0.010285679            5 
 4111000   0.58780838   -8.8031637    563.86058  0.011429915  0.010281984            8 
 4112000   0.59020033   -8.8111159     563.3079  0.011415935  0.010278289            5 
 4113000   0.59434337   -8.8042028    563.24714  0.011411928  0.010274593            4 
 4114000   0.59609515   -8.8177113    563.40063  0.011412264  0.010270903            3 
 4115000   0.59016417    -8.824353    564.17621  0.011425197  0.010267207            3 
 4116000   0.59572342   -8.8302944    562.86723  0.011395919  0.010263512            3 
 4117000   0.58276679   -8.8094306    563.13579  0.011398587  0.010259821           10 
 4118000   0.59198457   -8.8278796    563.39874   0.01140114  0.010256127            6 
 4119000   0.59356496   -8.7999908    562.51303  0.011380453  0.010252434            2 
 4120000   0.57924802   -8.8263659    563.47975  0.011397244  0.010248744            3 
 4121000   0.58378518   -8.8254237    563.41068  0.011393082  0.010245057            3 
 4122000   0.58816972   -8.8119245    563.64141  0.011394983  0.010241374            4 
 4123000   0.59842769   -8.8275423    563.04121  0.011380088   0.01023769            3 
 4124000   0.58684404   -8.8110424    563.51625  0.011386927  0.010234007            5 
 4125000   0.58756992   -8.8085983    562.40696  0.011361757  0.010230323            2 
 4126000   0.59347343   -8.8175772    563.71713  0.011385465  0.010226648            3 
 4127000   0.58664076   -8.8203632    562.73645  0.011362904  0.010222974            5 
 4128000   0.60082606   -8.8056966    564.71894  0.011400172  0.010219303            5 
 4129000   0.59514223   -8.8324154    563.35411  0.011369866  0.010215629            7 
 4130000   0.59864411   -8.8372563    563.30944  0.011366211  0.010211956            5 
 4131000   0.58677749   -8.8036013     563.1111  0.011359459  0.010208283            4 
 4132000   0.58686241   -8.8060586     563.8858  0.011372334  0.010204613            2 
 4133000    0.5990876   -8.8240691    562.51448  0.011341932  0.010200944            2 
 4134000   0.59123788   -8.8167685     562.8606  0.011346166  0.010197281            4 
 4135000   0.59497446   -8.8141451    563.27822  0.011351838   0.01019362            4 
 4136000   0.59188658   -8.8291491    563.80429  0.011359693  0.010189956            5 
 4137000   0.58678956    -8.820936    562.93818  0.011339501  0.010186292            3 
 4138000   0.59400513   -8.8191013    563.58878  0.011349863  0.010182629           10 
 4139000   0.57632325   -8.8109066    563.80221  0.011351418  0.010178975           18 
 4140000   0.58816365   -8.8164442    562.86043  0.011329719  0.010175322            5 
 4141000   0.59829393     -8.81433     563.3755  0.011337348  0.010171674            4 
 4142000   0.59122133   -8.8147881    562.97868  0.011326627  0.010168023            6 
 4143000   0.59091934   -8.8076543     564.1394   0.01134724  0.010164372            7 
 4144000   0.58019047   -8.8049817    563.05546  0.011322705  0.010160724            6 
 4145000   0.58628324   -8.8079863    563.28506  0.011324589  0.010157072            4 
 4146000   0.59661247   -8.8142483    562.76875   0.01131148  0.010153429            6 
 4147000   0.58145772   -8.8098762    564.45809  0.011342699  0.010149786            5 
 4148000   0.58337965   -8.8272408    564.05854  0.011331938  0.010146147            3 
 4149000   0.60118245   -8.8149972    563.81015  0.011324218  0.010142505            8 
 4150000   0.59101202   -8.8286931    562.94309  0.011304078  0.010138863            4 
 4151000   0.59169915   -8.8359213    563.20234  0.011306559   0.01013522            7 
 4152000   0.57689943   -8.8385362    562.77894  0.011295338  0.010131579            6 
 4153000    0.5917208   -8.8142678    562.81755  0.011293393   0.01012794            5 
 4154000   0.58618278   -8.8136698    564.14613  0.011317327  0.010124304            6 
 4155000   0.59042962   -8.8257807    563.24126  0.011296455  0.010120672            5 
 4156000   0.59226584   -8.8343359     563.1369  0.011291645  0.010117044            6 
 4157000   0.56813279   -8.8336819    564.31572   0.01131256  0.010113412            6 
 4158000   0.59118949   -8.7954439    562.80942   0.01127965  0.010109789            4 
 4159000   0.59060321   -8.8125868    563.17063  0.011284176  0.010106168            6 
 4160000   0.58821187   -8.8394633     562.2015  0.011262049  0.010102545            6 
 4161000   0.58647491   -8.8211399    562.88672  0.011273066  0.010098918            5 
 4162000   0.59731674   -8.8396325    562.95948  0.011271814  0.010095298            5 
 4163000   0.58400356   -8.8275609    562.53883  0.011260686  0.010091671            3 
 4164000   0.58957289   -8.8251665    563.61678  0.011279555  0.010088053            5 
 4165000   0.58055013   -8.8318169    563.25021  0.011269512  0.010084434            2 
 4166000   0.57937148   -8.8296797     563.5039  0.011271882  0.010080818            3 
 4167000   0.58770384   -8.8368771    562.84177  0.011255935  0.010077207            7 
 4168000   0.59818567   -8.8264252    562.31258  0.011242654  0.010073592            6 
 4169000   0.59292832    -8.820798    563.26503  0.011258996  0.010069983            4 
 4170000   0.57596254   -8.8361385    562.99809  0.011250961  0.010066376            5 
 4171000   0.57322113   -8.8349955    563.00361  0.011248374  0.010062767            9 
 4172000   0.58762485   -8.8357048    562.77515  0.011241114  0.010059161            4 
 4173000   0.57726006   -8.8397635    563.35024  0.011249905  0.010055553            6 
 4174000   0.58311616   -8.8415188    563.26219  0.011245452  0.010051941            4 
 4175000   0.58987667   -8.8321546    563.46132  0.011246733   0.01004834            8 
 4176000   0.58245487   -8.8165971    563.99699  0.011254729  0.010044738            7 
 4177000   0.57797391   -8.8397578     563.1446  0.011235029  0.010041141            4 
 4178000   0.57919651    -8.845751    562.85752  0.011226614  0.010037542            5 
 4179000    0.5758091   -8.8379538     563.2518   0.01123179  0.010033947            8 
 4180000   0.58110943   -8.8388812    563.69753  0.011237989  0.010030347            7 
 4181000   0.57521234   -8.8316219    563.35021  0.011228379   0.01002675            4 
 4182000   0.59144301   -8.8083424    563.00114  0.011218738  0.010023157            8 
 4183000   0.59341412    -8.832388    562.69303  0.011209918   0.01001957            5 
 4184000   0.59593501   -8.8292058    561.73559  0.011188169  0.010015985            8 
 4185000   0.58890156   -8.8365264    562.29999  0.011196734  0.010012397            6 
 4186000   0.57698851   -8.8311396    563.12859  0.011210555  0.010008814            4 
 4187000   0.57464674   -8.8301667    562.79592  0.011201256  0.010005233            3 
 4188000   0.58492487     -8.81751    563.08673  0.011204368  0.010001646            5 
 4189000   0.57636551   -8.8395797     562.6368  0.011192743 0.0099980667            5 
 4190000   0.57867972   -8.8275899     563.5258  0.011207753 0.0099944886            4 
 4191000   0.57910753   -8.8258165    562.34046  0.011181509 0.0099909043            6 
 4192000   0.58793403   -8.8454667    562.34997  0.011179031 0.0099873272            4 
 4193000   0.57933068    -8.841189    563.11304   0.01119153 0.0099837521            8 
 4194000    0.5806472   -8.8288501    562.43518  0.011175393 0.0099801787            6 
 4195000   0.58168602   -8.8335686    562.26333  0.011169315 0.0099765982            6 
 4196000   0.59079664   -8.8345551    563.30646   0.01118737 0.0099730228            6 
 4197000    0.5879929   -8.8237346    562.28703  0.011164463  0.009969452            3 
 4198000   0.59662626   -8.8596447    562.01217  0.011156348 0.0099658828            4 
 4199000   0.57768216   -8.8357013    562.04602  0.011154363 0.0099623127            4 
 4200000   0.59950881   -8.8254694    562.94375  0.011169519 0.0099587454            3 
 4201000    0.5797325   -8.8426675    562.17539  0.011151618 0.0099551778            4 
 4202000   0.58706223   -8.8240976     561.9145  0.011143791 0.0099516136            6 
 4203000   0.57565762   -8.8261012    563.08895  0.011164425 0.0099480456            3 
 4204000     0.595171   -8.8628329    561.85584  0.011137326 0.0099444807            9 
 4205000   0.58284954   -8.8225001    563.23173  0.011161945 0.0099409175            7 
 4206000    0.5862644   -8.8493014     562.9849  0.011154401 0.0099373598            5 
 4207000   0.57406608   -8.8236721    562.92103  0.011150484 0.0099338014            3 
 4208000   0.55644391   -8.8462424    563.14593  0.011152288 0.0099302425            6 
 4209000   0.58915313   -8.8379521    562.18723  0.011130657  0.009926687            5 
 4210000   0.56444482   -8.8416006    563.17843  0.011147633 0.0099231314            7 
 4211000   0.59028001   -8.8205573    561.82259  0.011118155 0.0099195787            6 
 4212000    0.5595211   -8.8256256    562.87913  0.011136418 0.0099160223            3 
 4213000   0.57637565   -8.8545938    562.47283  0.011125738 0.0099124698            4 
 4214000   0.56602111   -8.8501312    562.43692  0.011122388 0.0099089203            3 
 4215000   0.58387178   -8.8363297    563.16677  0.011134179 0.0099053673            9 
 4216000   0.56909584   -8.8379873    563.03956  0.011129024 0.0099018177            8 
 4217000    0.5692159   -8.8375895    562.71637  0.011119998 0.0098982752            3 
 4218000   0.58371675   -8.8485408    562.58487  0.011114764 0.0098947282            5 
 4219000   0.57490218   -8.8330469    562.00496  0.011100675 0.0098911924            5 
 4220000   0.57505815    -8.846471      562.228  0.011102449 0.0098876534            5 
 4221000   0.57850164    -8.848334    562.60125  0.011107187 0.0098841136            3 
 4222000     0.578906   -8.8476403    562.39792  0.011100543 0.0098805773            6 
 4223000   0.58833365   -8.8387534    562.26684  0.011095328 0.0098770431            4 
 4224000    0.5717446   -8.8329722    562.22826   0.01109194 0.0098735079            3 
 4225000   0.57893477   -8.8449487    561.34224  0.011071839 0.0098699738            5 
 4226000   0.57672636   -8.8353718    562.79556  0.011097877 0.0098664427            2 
 4227000   0.56723573   -8.8339593    562.79699   0.01109528 0.0098629124            5 
 4228000   0.57429027   -8.8366833    561.77948  0.011072601 0.0098593805            5 
 4229000   0.58038681   -8.8342778    562.07107  0.011075728   0.00985585            4 
 4230000   0.56847866   -8.8487038     562.1538   0.01107474 0.0098523236            7 
 4231000   0.58211136   -8.8456193    562.47227  0.011078395 0.0098487944            5 
 4232000   0.58583117   -8.8426625    562.19509  0.011070319 0.0098452681            4 
 4233000   0.57080351   -8.8412722     561.4678  0.011053386 0.0098417449            5 
 4234000   0.57247511    -8.843141    562.03024  0.011061845 0.0098382222            7 
 4235000   0.57790645   -8.8645957    561.99634  0.011058566 0.0098347021            5 
 4236000   0.57867341   -8.8596472    562.14868  0.011058953 0.0098311853           14 
 4237000   0.57937383   -8.8341727    562.44255  0.011062122 0.0098276667            8 
 4238000   0.56983302   -8.8623386    562.91078  0.011068719 0.0098241516            2 
 4239000   0.57078988   -8.8450053    562.81489  0.011064223 0.0098206406            4 
 4240000   0.57870521   -8.8614242    562.60423  0.011057473   0.00981713            6 
 4241000    0.5827207     -8.85775    561.97465  0.011042495 0.0098136182            4 
 4242000   0.57106702   -8.8575595     562.2407  0.011045118 0.0098101098            2 
 4243000   0.55694952   -8.8477304    562.65924  0.011050735 0.0098066009            5 
 4244000   0.57475776   -8.8537736    562.66704  0.011048285 0.0098030955            7 
 4245000   0.57946864   -8.8586864    562.22531   0.01103701  0.009799592            5 
 4246000   0.56322769   -8.8468081    561.67202  0.011023552 0.0097960862            3 
 4247000    0.5696144   -8.8381482    561.74752  0.011022438 0.0097925859            6 
 4248000   0.57389438   -8.8350068    562.36778  0.011032011 0.0097890901            9 
 4249000   0.56534246   -8.8525359    562.64431  0.011034838 0.0097855914            5 
 4250000    0.5737502   -8.8331191    562.71721  0.011033671 0.0097820949            6 
 4251000   0.56419344   -8.8538174    562.60013   0.01102878 0.0097785964            6 
 4252000   0.57212162   -8.8694516    561.69987  0.011008542 0.0097751001            5 
 4253000   0.56976163   -8.8395682      561.694  0.011005839 0.0097716023            3 
 4254000   0.57560533   -8.8534131    561.00833   0.01098982 0.0097681076            7 
 4255000    0.5680129   -8.8581972    562.84826  0.011023272 0.0097646131            3 
 4256000    0.5714676    -8.862266    561.82528  0.011000652 0.0097611214            5 
 4257000   0.56606179   -8.8335051    562.88896   0.01101889 0.0097576365            4 
 4258000   0.58031909   -8.8728844    561.53701  0.010989843 0.0097541463            3 
 4259000    0.5711546    -8.855542    561.21053  0.010980874 0.0097506617            3 
 4260000   0.57591356   -8.8576539    562.39559  0.011001479 0.0097471771            3 
 4261000   0.57361611   -8.8673015    561.83113  0.010987857  0.009743695            7 
 4262000   0.57064762   -8.8405764      562.124  0.010991006 0.0097402131            7 
 4263000   0.56692313    -8.839854    562.38495  0.010993529 0.0097367311            4 
 4264000    0.5674952   -8.8627877    562.25192  0.010988351 0.0097332485            3 
 4265000   0.57688902   -8.8373623     562.5937  0.010992452 0.0097297694            5 
 4266000   0.55446767   -8.8639916    562.59976  0.010989994 0.0097262918            7 
 4267000   0.57154002   -8.8760556    560.88668  0.010953962 0.0097228136            4 
 4268000   0.56764824   -8.8641439     561.3584  0.010960606 0.0097193381            5 
 4269000    0.5609072    -8.872976    561.57077  0.010962184  0.009715866            3 
 4270000   0.55633747   -8.8761647    561.49306    0.0109581 0.0097123941            3 
 4271000   0.56556215   -8.8632925     562.6152  0.010977429 0.0097089243            3 
 4272000   0.58316882   -8.8688588    562.43145  0.010971275 0.0097054561            3 
 4273000   0.57655208   -8.8744362    562.34983  0.010967116  0.009701991            2 
 4274000   0.56304338   -8.8586529    561.73341  0.010952531 0.0096985303            4 
 4275000   0.57492642   -8.8621117     561.7949  0.010951168 0.0096950715            6 
 4276000   0.56921499   -8.8665236    561.25529   0.01093809 0.0096916119            5 
 4277000   0.57644406   -8.8673315    561.81636  0.010946465 0.0096881533            4 
 4278000   0.57411143   -8.8642683      561.018  0.010928354 0.0096846949            3 
 4279000   0.57048527   -8.8784345    562.28832   0.01095054 0.0096812371            2 
 4280000   0.57143044   -8.8750099    562.83616  0.010958648 0.0096777832            6 
 4281000   0.57473875   -8.8707417     561.6375  0.010932755 0.0096743285            5 
 4282000   0.57522518   -8.8515742    562.35154  0.010944098 0.0096708791            8 
 4283000   0.56172494    -8.873263    561.58002  0.010926532 0.0096674288            3 
 4284000    0.5640217   -8.8589788    561.68962  0.010926113 0.0096639808            5 
 4285000   0.56788067    -8.855848      561.612  0.010922054 0.0096605362            4 
 4286000    0.5564659   -8.8612311    562.39111  0.010934654 0.0096570918            5 
 4287000   0.56568253   -8.8800405    562.67811  0.010937682 0.0096536442            3 
 4288000   0.57515746   -8.8345413    562.15722  0.010925008 0.0096502032            2 
 4289000   0.56769969   -8.8523368    561.43608  0.010908449 0.0096467636            2 
 4290000   0.56946664    -8.855416    563.32329  0.010942566 0.0096433257            5 
 4291000   0.55962707   -8.8527529    562.35505  0.010921212  0.009639894            2 
 4292000   0.56107134   -8.8671025    562.23387  0.010916315 0.0096364602            6 
 4293000   0.56764859    -8.856346    563.10388   0.01093066 0.0096330315            2 
 4294000   0.56673663   -8.8832105    562.02721   0.01090722 0.0096296007            5 
 4295000   0.56267591   -8.8664119    562.18785  0.010907797 0.0096261657            2 
 4296000   0.55836407    -8.861778    561.98296  0.010901283 0.0096227349            5 
 4297000   0.55096071   -8.8554668    562.28201  0.010904546 0.0096193056            3 
 4298000   0.56602382   -8.8719867    560.63073  0.010869992 0.0096158769            5 
 4299000   0.57099545   -8.8677028    562.60041  0.010905645 0.0096124542            4 
 4300000   0.57194621   -8.8768008    561.26333  0.010877196 0.0096090279            6 
 4301000   0.57243323   -8.8802984    561.69933  0.010883115 0.0096056062            1 
 4302000   0.55992053   -8.8777915    561.21616  0.010871226 0.0096021841            3 
 4303000   0.56684477   -8.8604382    561.95228  0.010882955 0.0095987649            2 
 4304000   0.56112879   -8.8535468    562.56547  0.010892299 0.0095953505            3 
 4305000   0.56313126   -8.8723362    562.63558  0.010891126 0.0095919354            4 
 4306000   0.56990415   -8.8858099    562.39742  0.010883988 0.0095885239            3 
 4307000   0.56400611    -8.881109    560.86742  0.010851858 0.0095851079            3 
 4308000    0.5736844   -8.8598156    562.19121  0.010874946 0.0095816955            5 
 4309000   0.55356752   -8.8679348    562.35225  0.010875537 0.0095782853            2 
 4310000   0.55898946    -8.858999    562.43786  0.010874669 0.0095748747            4 
 4311000   0.57244384   -8.8621302    561.69391  0.010857765 0.0095714679            3 
 4312000   0.57298156   -8.8480558    561.80657  0.010857424 0.0095680647            2 
 4313000    0.5604347   -8.8783045    562.09881  0.010860554 0.0095646599            4 
 4314000   0.56460955   -8.8643686    561.53307  0.010847108 0.0095612588            6 
 4315000    0.5576382   -8.8616674    562.33121  0.010860008 0.0095578579            3 
 4316000   0.56813246   -8.8490095    561.91581  0.010849471 0.0095544595            6 
 4317000   0.56041388     -8.86661    562.33965  0.010855139 0.0095510653            4 
 4318000   0.56611538   -8.8637278    562.89135  0.010863273 0.0095476726            3 
 4319000   0.55997404   -8.8894826    561.39899  0.010831963 0.0095442781            3 
 4320000   0.55872046   -8.8864013     561.7274  0.010835791 0.0095408878            2 
 4321000   0.55440954   -8.8826799    561.61691  0.010831152 0.0095374961            2 
 4322000   0.56018178   -8.8766579     561.4098  0.010824653 0.0095341013            2 
 4323000   0.56003264   -8.8942859    561.12244   0.01081661 0.0095307042            6 
 4324000   0.56605145   -8.8769006     562.9139  0.010848634 0.0095273145            6 
 4325000   0.56035139   -8.8762565    561.45294  0.010817976 0.0095239267            4 
 4326000   0.56273607   -8.8777034     561.5898  0.010818111 0.0095205426            3 
 4327000   0.56389413   -8.8859618    561.81152  0.010819881 0.0095171597            3 
 4328000   0.57277148   -8.8820113    562.07197  0.010822396 0.0095137736            9 
 4329000   0.55401822   -8.8483345    561.79652  0.010814594 0.0095103919            6 
 4330000   0.55386466   -8.8629804    562.78476  0.010831115 0.0095070105            4 
 4331000   0.56647042   -8.8769277    560.89753  0.010792302 0.0095036326            7 
 4332000   0.57133413   -8.8757248    561.45611  0.010800556 0.0095002564            3 
 4333000   0.56886722   -8.8586032    560.89255  0.010787225 0.0094968814            3 
 4334000   0.55888994   -8.8668511    562.24001  0.010810645 0.0094935074            3 
 4335000   0.57032691   -8.8696569    562.39618  0.010811153   0.00949014            8 
 4336000   0.56237364   -8.8718599    562.16474  0.010804212 0.0094867729            3 
 4337000   0.55353673   -8.8688785    562.15562  0.010801545 0.0094834036            7 
 4338000    0.5437041   -8.8755647    561.48576  0.010786187 0.0094800355            2 
 4339000   0.55703407   -8.8656315    560.64858  0.010767623 0.0094766711            9 
 4340000   0.55231788   -8.8863207    561.29448  0.010777544 0.0094733047            5 
 4341000   0.56362488    -8.884898    560.04229  0.010751023 0.0094699439            6 
 4342000   0.56085901   -8.8921382    562.07137   0.01078749 0.0094665861            5 
 4343000    0.5622922   -8.8746199    561.40056  0.010772134 0.0094632235            2 
 4344000   0.55073867   -8.8651283    560.83683   0.01075884 0.0094598673            8 
 4345000   0.55905222   -8.8681304    561.40638  0.010767288 0.0094565094            3 
 4346000   0.56213795   -8.8626146    562.07973  0.010777722  0.009453155            3 
 4347000   0.55228542   -8.8785035    562.42761  0.010781911 0.0094497989            3 
 4348000   0.56448847   -8.8804046    562.17267  0.010774545 0.0094464456            3 
 4349000   0.54950931   -8.8700955    562.02579  0.010769253 0.0094430979            5 
 4350000   0.55022595    -8.889918    561.69272  0.010760397 0.0094397455            3 
 4351000   0.56723224   -8.8787136    560.86356  0.010742043 0.0094363951            2 
 4352000   0.56565061   -8.8863096    560.86335  0.010739571 0.0094330454            4 
 4353000   0.55335501   -8.9012269    560.94015  0.010738574 0.0094297004            3 
 4354000   0.56702664   -8.8853627    561.77344  0.010752056 0.0094263535            5 
 4355000   0.56067664   -8.8865602    561.00684  0.010734919 0.0094230125            3 
 4356000    0.5590823    -8.867451     562.5497   0.01076197 0.0094196697            2 
 4357000   0.54094255   -8.8863349    561.77368  0.010744658 0.0094163264            5 
 4358000   0.54911589   -8.8657622    561.97912  0.010746121 0.0094129871            5 
 4359000    0.5512871   -8.8806728    561.42406  0.010733044 0.0094096502            5 
 4360000    0.5560655   -8.8936495    560.84725  0.010719558  0.009406313            4 
 4361000   0.54472377   -8.8821626    560.89057  0.010717927 0.0094029753            4 
 4362000   0.54469567   -8.8822577    561.43065  0.010725788 0.0093996399            3 
 4363000   0.54336117   -8.8872241    561.00414  0.010715183 0.0093963047            4 
 4364000   0.55404021    -8.895261    562.04531   0.01073261 0.0093929725            2 
 4365000   0.54766818    -8.899664    561.66764  0.010722941 0.0093896428            3 
 4366000   0.55349938   -8.8784415    561.01935  0.010708111 0.0093863106           12 
 4367000   0.55656822   -8.8810131    562.14992  0.010727233 0.0093829819            6 
 4368000   0.55043089    -8.872596    561.96789  0.010721304 0.0093796542            4 
 4369000   0.54003525   -8.9009083    561.75157  0.010714724 0.0093763291            3 
 4370000   0.56661816   -8.8812211    561.17012  0.010701184 0.0093730063            4 
 4371000   0.55367238   -8.8833336    561.35169  0.010702198 0.0093696823            3 
 4372000   0.55359123   -8.8797984    561.08487  0.010694664 0.0093663629            3 
 4373000   0.56535853   -8.8609456    562.24865  0.010714396 0.0093630424            3 
 4374000   0.54691763   -8.8917767    561.42323  0.010696221 0.0093597241            2 
 4375000   0.54781513   -8.8857999    562.26586  0.010709826 0.0093564048            4 
 4376000   0.55118113   -8.8874141    561.44249  0.010691699 0.0093530862            3 
 4377000   0.55602276   -8.9006328     561.0259  0.010681325 0.0093497677            5 
 4378000   0.55008453    -8.884503    561.11885  0.010680654 0.0093464524            3 
 4379000   0.55333698   -8.8929124    561.10725  0.010677994 0.0093431353            6 
 4380000   0.55491394   -8.8892512    561.77898  0.010688337 0.0093398202            4 
 4381000   0.54609541   -8.9052667    561.11669  0.010673299 0.0093365085            9 
 4382000   0.55243137   -8.8838958    561.67474  0.010681476 0.0093331977            5 
 4383000   0.55321507   -8.8979831    560.37147   0.01065426 0.0093298899            6 
 4384000   0.55173439   -8.9016222    561.44696  0.010672273 0.0093265813            5 
 4385000   0.55438267   -8.8787261    560.77098  0.010656993 0.0093232751            2 
 4386000   0.55942021    -8.907255    560.89869   0.01065699 0.0093199696            4 
 4387000   0.54353536   -8.8849466    561.25801  0.010661386 0.0093166626            3 
 4388000   0.54486899   -8.8956278    561.09624  0.010655884 0.0093133617            3 
 4389000   0.55858988   -8.8889149    560.65022  0.010644988 0.0093100631            4 
 4390000   0.55692869   -8.8983422    562.01779  0.010668523 0.0093067643            2 
 4391000   0.55209076   -8.8937271    561.08867   0.01064846 0.0093034678            3 
 4392000   0.54599875   -8.9002077     561.7133  0.010657887 0.0093001733            5 
 4393000   0.54652645   -8.8954683    561.04606  0.010642804 0.0092968819            2 
 4394000   0.53933292   -8.8925198    560.85061  0.010636675 0.0092935905            6 
 4395000   0.54955349   -8.8949079    560.40924  0.010625886  0.009290297            4 
 4396000   0.55014029   -8.9046169    562.16655  0.010656782  0.009287009            3 
 4397000   0.53956875   -8.8890233    560.40235  0.010620922 0.0092837229            4 
 4398000   0.55069324   -8.8868787    560.63667  0.010622947 0.0092804309            3 
 4399000   0.54221628   -8.8969337    561.60407  0.010638859 0.0092771416            4 
 4400000   0.54556257    -8.881474    561.78021  0.010639777 0.0092738543            5 
 4401000   0.55286052   -8.8999884    560.94803  0.010621602 0.0092705683            2 
 4402000     0.552403   -8.8963355    561.86053  0.010636463 0.0092672842            3 
 4403000   0.55048405   -8.8857692    561.88957  0.010634597 0.0092640066            3 
 4404000    0.5518175   -8.8903563    561.74684  0.010629481 0.0092607286            2 
 4405000   0.54406745    -8.896547     560.1704  0.010597246 0.0092574472            5 
 4406000   0.54899233   -8.8983216    561.16022  0.010613561 0.0092541676            3 
 4407000   0.54254995   -8.9048208    560.67179  0.010601917  0.009250894            2 
 4408000   0.55606443   -8.8896829    560.60317  0.010598215 0.0092476225            3 
 4409000     0.549093   -8.9075067    561.03454  0.010603964 0.0092443539            2 
 4410000   0.55137358   -8.8974774    561.51099  0.010610563 0.0092410823            2 
 4411000    0.5449142   -8.8907539    560.53676  0.010589752 0.0092378145            2 
 4412000    0.5529146   -8.9145145    560.48145  0.010586307 0.0092345428            3 
 4413000   0.54780035   -8.8897256    561.45374  0.010602269  0.009231273            2 
 4414000   0.53885073   -8.8958477    560.59673  0.010583687 0.0092280064            3 
 4415000   0.54745586   -8.9036128    560.25909  0.010574917 0.0092247406            3 
 4416000   0.54351602   -8.8953856    561.65291  0.010598825  0.009221474            2 
 4417000   0.54634101    -8.895022     560.2954  0.010570814 0.0092182109            3 
 4418000   0.54809571   -8.9032549    561.73983  0.010595666 0.0092149538            4 
 4419000   0.55604202   -8.9056674      561.607  0.010590763 0.0092116973            2 
 4420000    0.5372366   -8.9084119    560.90047  0.010575046 0.0092084435            3 
 4421000    0.5398165   -8.8856937    561.26329  0.010579494 0.0092051904            5 
 4422000   0.54208111   -8.8974225    560.80057  0.010568381 0.0092019354            3 
 4423000   0.54153886   -8.9130459    561.10616  0.010571749 0.0091986805            3 
 4424000   0.53046463   -8.9117973    560.27773  0.010553755 0.0091954264            2 
 4425000   0.54201374   -8.9047962    561.51648  0.010574698 0.0091921775            4 
 4426000   0.53387883   -8.9221708    561.17201  0.010565823 0.0091889322            4 
 4427000     0.544617    -8.896918    561.66911  0.010572794 0.0091856866            2 
 4428000   0.54874935   -8.9071095    560.67225  0.010551646 0.0091824392            6 
 4429000   0.54522873   -8.8929375    561.40375  0.010563027 0.0091791962            2 
 4430000   0.55848595   -8.8971317     561.5692  0.010563755 0.0091759553            6 
 4431000   0.55579432   -8.9016136    560.93928  0.010549524 0.0091727136            6 
 4432000   0.53753749   -8.9115077     559.8386  0.010526448 0.0091694718            3 
 4433000   0.54898816   -8.9172139    561.52458  0.010555767 0.0091662319            4 
 4434000   0.55098644   -8.9064973    560.46465  0.010533466 0.0091629935            8 
 4435000   0.54347122   -8.8975711    559.85451  0.010519626 0.0091597572            4 
 4436000   0.54867541   -8.9013949    561.28254  0.010544081 0.0091565248            3 
 4437000   0.54813129   -8.9060321    561.20377  0.010540226 0.0091532931            4 
 4438000   0.54601158   -8.9017263     561.0063  0.010534143 0.0091500621            2 
 4439000   0.54171359   -8.9148584    561.79826  0.010546637 0.0091468339            3 
 4440000   0.54461123   -8.8884051    561.05845  0.010530376 0.0091436049            6 
 4441000   0.55010324   -8.8952047      560.558  0.010518614 0.0091403823            3 
 4442000   0.55573556   -8.9307292    559.95256  0.010504888  0.009137159            4 
 4443000   0.53483838   -8.9177422    560.66801  0.010515943 0.0091339372            3 
 4444000   0.54783896     -8.88976    561.39858  0.010527276 0.0091307127            5 
 4445000   0.54763043   -8.9174399    560.99607  0.010517362 0.0091274933            3 
 4446000   0.54036217   -8.9121549    560.66399  0.010508772 0.0091242726            2 
 4447000   0.54236758   -8.9132947     561.3115  0.010518543 0.0091210528            3 
 4448000   0.52791839   -8.8962048    561.03524  0.010511002 0.0091178348            3 
 4449000   0.54183535   -8.9156388    559.80722  0.010485638 0.0091146156            3 
 4450000   0.54053071   -8.9046261    560.07714  0.010488336 0.0091113941            2 
 4451000   0.53972241   -8.9168134    560.85252  0.010500497 0.0091081793            2 
 4452000   0.54680313   -8.9289116    560.97321  0.010500397  0.009104966            4 
 4453000   0.55056114   -8.9354254    561.31121  0.010504364 0.0091017527            3 
 4454000   0.53945451   -8.9115599    560.42379  0.010485403 0.0090985405            4 
 4455000   0.55022617   -8.9251183    560.65693   0.01048741 0.0090953259            4 
 4456000   0.54426753   -8.9027756    561.23184  0.010495808 0.0090921146            6 
 4457000   0.53854379   -8.9169207    560.48558    0.0104795  0.009088906            2 
 4458000   0.52966622   -8.9017278    559.98138  0.010467724    0.0090857            3 
 4459000   0.53581803   -8.9105432    561.34247  0.010490814  0.009082497            4 
 4460000   0.54120222   -8.9061246    561.47042  0.010490852 0.0090792971            3 
 4461000   0.53757693   -8.9053807     560.5516  0.010471337 0.0090760932            2 
 4462000   0.53071271   -8.9225939    560.86141  0.010474776 0.0090728945            3 
 4463000   0.53254888    -8.898574    561.01003  0.010475204 0.0090696957            3 
 4464000   0.54032103   -8.9049155    560.27541  0.010459144 0.0090665009            2 
 4465000   0.54612472   -8.8922829    560.19614  0.010455322 0.0090633111            4 
 4466000   0.53940847   -8.9038238    560.37435  0.010456306 0.0090601182            2 
 4467000   0.52966652   -8.9157952    560.88741  0.010463537  0.009056927            5 
 4468000    0.5286625   -8.9046604    561.13917   0.01046589 0.0090537388            2 
 4469000   0.53961571   -8.9111352    560.46921  0.010451056 0.0090505494            4 
 4470000   0.54362927    -8.919076    559.93692  0.010438794 0.0090473598            2 
 4471000    0.5497939   -8.9147346    560.69162  0.010450526 0.0090441762            2 
 4472000   0.53776876   -8.9017209    561.04741  0.010454819  0.009040994            3 
 4473000   0.53226628   -8.9080429    560.62973    0.0104447 0.0090378116            3 
 4474000    0.5361756   -8.9204701    560.57396  0.010441327 0.0090346302            5 
 4475000   0.53664715   -8.9165972    559.72675  0.010423217   0.00903145            2 
 4476000   0.53170475   -8.9305466    559.36149  0.010414088 0.0090282698            2 
 4477000   0.53979381   -8.9010867    560.70391  0.010436749 0.0090250879            3 
 4478000   0.53468572   -8.9212735    560.78171  0.010435866 0.0090219092            6 
 4479000   0.53171441   -8.9326476     559.9979  0.010418953 0.0090187342            8 
 4480000    0.5366086   -8.9120602    561.39259  0.010442571   0.00901556            3 
 4481000   0.50822601   -8.9127694    560.55044  0.010424579 0.0090123855            3 
 4482000   0.54557345   -8.9266561     560.5142  0.010421579 0.0090092119            4 
 4483000   0.54072455   -8.9202705    560.45676  0.010418187 0.0090060439            4 
 4484000   0.53305049   -8.9253348    561.04469  0.010426789 0.0090028753            5 
 4485000   0.53848802   -8.9054228    561.32495  0.010429672 0.0089997078            2 
 4486000   0.52380368   -8.9169242    560.50417    0.0104121  0.008996542           10 
 4487000   0.53789472   -8.9308595    561.42761   0.01042693 0.0089933746            2 
 4488000   0.52452465   -8.9344342    560.45777  0.010406598 0.0089902094            3 
 4489000   0.53599432   -8.9225672     561.2201  0.010418432 0.0089870404            2 
 4490000   0.53433758   -8.8999849    560.31182  0.010399254 0.0089838783            4 
 4491000   0.54433359   -8.9355745    560.70794  0.010404289 0.0089807162            5 
 4492000   0.52168651   -8.9136033    560.51723  0.010398435 0.0089775572            4 
 4493000   0.53187145   -8.9401211    559.50036   0.01037726 0.0089743994            4 
 4494000   0.53329168    -8.922171    559.26102  0.010370513 0.0089712415            3 
 4495000   0.53531965    -8.918844    560.51088  0.010391377 0.0089680859            5 
 4496000    0.5237593   -8.9230149     559.9909  0.010379428 0.0089649299            1 
 4497000   0.53270501   -8.9235964    560.78292  0.010391797 0.0089617805            3 
 4498000   0.52976764   -8.9205001     560.9865  0.010393258 0.0089586267            3 
 4499000   0.52432973   -8.9289606    560.73541  0.010386297 0.0089554762            5 
 4500000   0.52484818   -8.9199734    560.58963  0.010381289 0.0089523269            5 
 4501000    0.5339484   -8.9291634    559.94429  0.010367035 0.0089491812            4 
 4502000   0.53043101   -8.9319093    560.39627  0.010373098 0.0089460367            3 
 4503000   0.52068899   -8.9331843    559.59432  0.010355954 0.0089428905            4 
 4504000   0.52468074   -8.9343816    559.91066  0.010359507 0.0089397453            4 
 4505000   0.52592377   -8.9332648    559.62918  0.010352001 0.0089366075            4 
 4506000   0.53123427   -8.9291056    559.87667  0.010354281 0.0089334669            6 
 4507000   0.52452356   -8.9298893    560.78022   0.01036869 0.0089303319            2 
 4508000   0.52630377    -8.931043    559.57848  0.010344175 0.0089271965            4 
 4509000   0.53072134   -8.9453937    559.46955  0.010339868 0.0089240619            3 
 4510000   0.53775987   -8.9329587    559.85171  0.010344636 0.0089209302            4 
 4511000   0.53657847   -8.9369359     560.9118  0.010361926 0.0089177999            2 
 4512000   0.52961548    -8.918817    559.61709  0.010335717 0.0089146668            6 
 4513000   0.52258475   -8.9234305    559.65693  0.010334163 0.0089115383            3 
 4514000   0.52784514   -8.9138211    560.78997  0.010352791 0.0089084127           10 
 4515000   0.51765844   -8.9237843    560.49626  0.010345077 0.0089052868            4 
 4516000    0.5192714   -8.9229871    560.14711  0.010336343 0.0089021613            2 
 4517000   0.52657343   -8.9442022    559.67115  0.010325274 0.0088990366            7 
 4518000    0.5181588   -8.9324213     560.1264  0.010331386 0.0088959173           14 
 4519000   0.52453819    -8.904524    561.01463  0.010345479 0.0088928001            6 
 4520000   0.53675597   -8.9362166     559.7452  0.010319786 0.0088896811            4 
 4521000   0.53427833   -8.9033849    560.82343  0.010337378 0.0088865669            2 
 4522000   0.54194998   -8.9221665    560.09727   0.01032171 0.0088834532            2 
 4523000   0.52540317   -8.9193847    561.13949   0.01033863 0.0088803387            9 
 4524000   0.53501038   -8.9237649     560.4388  0.010323438 0.0088772246           11 
 4525000   0.51643344   -8.9266888    559.98699  0.010312836 0.0088741146           10 
 4526000   0.52708598   -8.9215252    560.72678  0.010324178 0.0088710052            7 
 4527000   0.51987191   -8.9398956    560.30631  0.010314158 0.0088678941            7 
 4528000   0.51662008   -8.9180801    560.86861  0.010322229 0.0088647874            5 
 4529000   0.51875952   -8.9293653    559.92903  0.010302661 0.0088616802            5 
 4530000   0.51845179   -8.9343797    560.33505  0.010307856 0.0088585691            4 
 4531000   0.52588829   -8.9370134    560.44982  0.010307692 0.0088554654           10 
 4532000   0.52347929   -8.9364387    559.71515  0.010291908 0.0088523595            8 
 4533000   0.52050588     -8.92954    560.37521  0.010301772 0.0088492534           12 
 4534000   0.53139292   -8.9236578    560.44994  0.010300874 0.0088461485           13 
 4535000   0.51804995   -8.9377896    559.77637  0.010286225 0.0088430454           11 
 4536000   0.51766487   -8.9196529    560.33174   0.01029416 0.0088399475           10 
 4537000   0.52127129   -8.9436541    560.50378  0.010295051 0.0088368531            1 
 4538000   0.52376511   -8.9234634     560.5468  0.010293573 0.0088337612           12 
 4539000   0.53838167   -8.9387198    559.96981  0.010280712 0.0088306662            3 
 4540000   0.53234295   -8.9345308    560.29163  0.010284354 0.0088275746            6 
 4541000    0.5178842   -8.9129973    560.65279  0.010288717 0.0088244842            9 
 4542000   0.51891202   -8.9398751    559.88737  0.010272409 0.0088213946            8 
 4543000   0.53208885   -8.9518755    559.64963  0.010265787 0.0088183046            8 
 4544000    0.5196871   -8.9304492    559.14981  0.010254361 0.0088152147           11 
 4545000   0.53179614   -8.9434477    559.96963  0.010267137 0.0088121249           15 
 4546000   0.52484231   -8.9253605    560.38402  0.010272474 0.0088090375            5 
 4547000   0.52986913   -8.9385642    559.70139  0.010257705 0.0088059505           10 
 4548000   0.52659473   -8.9235991    559.58731  0.010253359 0.0088028658           12 
 4549000   0.51788288   -8.9479754    559.78428  0.010254713  0.008799783            3 
 4550000    0.5208469   -8.9397816    559.56368  0.010248419  0.008796703           12 
 4551000   0.52358478   -8.9348126    559.44598  0.010244012 0.0087936231           12 
 4552000   0.52947203   -8.9507416    560.49916  0.010261042 0.0087905481           11 
 4553000   0.52316499   -8.9417056    559.65968  0.010243423 0.0087874671            9 
 4554000   0.51953771   -8.9417453    559.69409  0.010241804 0.0087843887            6 
 4555000   0.51643489   -8.9391279    559.19483  0.010230421 0.0087813131            3 
 4556000      0.50748   -8.9462237    559.88197  0.010240744 0.0087782357           12 
 4557000   0.51758975   -8.9583337    560.13058  0.010243043 0.0087751623            4 
 4558000   0.52353043   -8.9369049    559.47104  0.010228738 0.0087720894            9 
 4559000   0.52425293   -8.9494016    559.95572  0.010235354 0.0087690205           10 
 4560000   0.51387402   -8.9527447    559.73607  0.010229095 0.0087659522            4 
 4561000   0.52756359   -8.9313136    560.13009  0.010234051 0.0087628854            8 
 4562000   0.50540153   -8.9446669    559.82733  0.010226277 0.0087598184            5 
 4563000   0.52951019   -8.9537479    559.59174  0.010219734 0.0087567547            8 
 4564000   0.52449565     -8.94459    559.63185  0.010218227 0.0087536911            4 
 4565000   0.53434634   -8.9420068      559.481  0.010213235 0.0087506282            3 
 4566000   0.52028795   -8.9468213    559.52934   0.01021188 0.0087475653            7 
 4567000   0.52214274   -8.9362842    559.34341  0.010206252 0.0087445055           12 
 4568000   0.51155695   -8.9411949     559.6155  0.010208981  0.008741447            8 
 4569000   0.50723568   -8.9376839    559.22961  0.010199708 0.0087383866           10 
 4570000   0.51543119    -8.945204    559.87074  0.010209167 0.0087353318            7 
 4571000    0.5247089   -8.9351238    559.66528  0.010203188 0.0087322768           11 
 4572000   0.51672419   -8.9431442     559.9721  0.010206549 0.0087292237            4 
 4573000   0.51828509   -8.9559722    559.29086  0.010191903 0.0087261704           12 
 4574000   0.52186913   -8.9405089    559.65944   0.01019639 0.0087231186            5 
 4575000   0.51331953   -8.9564582    559.39989  0.010189433  0.008720071            7 
 4576000   0.52795867   -8.9488528    559.59428  0.010190747 0.0087170241           11 
 4577000   0.52148533   -8.9392775    560.03189  0.010196488 0.0087139773           15 
 4578000   0.52003019   -8.9336391    560.22661  0.010197805 0.0087109321           13 
 4579000   0.51744089   -8.9333138    559.94395  0.010190434 0.0087078898            5 
 4580000   0.50530866   -8.9395302    559.52889  0.010180657 0.0087048485            2 
 4581000   0.51536424   -8.9471326    560.20222  0.010190683 0.0087018094            9 
 4582000   0.53020897   -8.9699551    559.43417   0.01017449 0.0086987707            9 
 4583000   0.53225663   -8.9373707    559.06038  0.010165473 0.0086957322           11 
 4584000   0.53153431   -8.9405812    560.09871  0.010182132 0.0086926975            8 
 4585000   0.52297866   -8.9433845    559.70296  0.010172718 0.0086896673            5 
 4586000    0.5187744    -8.961415    559.96685  0.010175295 0.0086866358            8 
 4587000   0.51018355   -8.9532007    559.46649  0.010163987 0.0086836025            4 
 4588000   0.51272781   -8.9426051    558.98377  0.010153004  0.008680572           12 
 4589000   0.51450026   -8.9584114    559.06877  0.010152335 0.0086775425           12 
 4590000   0.52159913   -8.9623954    559.57386  0.010159293  0.008674514            3 
 4591000   0.50641615   -8.9330672     559.9057  0.010163103  0.008671486            4 
 4592000   0.51441353   -8.9405822    559.65808  0.010156397 0.0086684592            2 
 4593000   0.51768387   -8.9419897    560.17884  0.010163634 0.0086654367            3 
 4594000   0.51644999   -8.9591907    560.01961  0.010158533 0.0086624144           13 
 4595000   0.51822791   -8.9549564     560.0459  0.010156799 0.0086593924           11 
 4596000   0.52517199     -8.94996    559.43143  0.010143448 0.0086563691            9 
 4597000   0.50243357    -8.958648    559.13393  0.010135848 0.0086533481            7 
 4598000   0.51708961   -8.9429927    558.72738  0.010126275 0.0086503303           12 
 4599000   0.50703648   -8.9530579    558.95923  0.010128275 0.0086473165           13 
 4600000    0.5106481    -8.934088    560.05031  0.010145839 0.0086443013            4 
 4601000    0.5261284   -8.9448999    559.93988  0.010141634 0.0086412907            4 
 4602000   0.51131341   -8.9334005    559.76944  0.010136344 0.0086382791            6 
 4603000   0.51707929   -8.9582699    559.08544  0.010121758 0.0086352701            7 
 4604000    0.5148374   -8.9489907    559.18542   0.01012137  0.008632264            8 
 4605000    0.5244297   -8.9403336    560.20699  0.010137658 0.0086292579           11 
 4606000   0.51279154   -8.9441995    560.89681  0.010147938 0.0086262523            2 
 4607000   0.52134747   -8.9365696    559.89248  0.010127568 0.0086232462            3 
 4608000    0.5015642   -8.9478142    560.03539  0.010127955 0.0086202421           11 
 4609000   0.50510833   -8.9357052    559.83046  0.010122052 0.0086172383           12 
 4610000   0.50584347   -8.9447235    559.27935  0.010109894 0.0086142388           10 
 4611000   0.51444933   -8.9567212    560.35711   0.01012718 0.0086112407            8 
 4612000   0.50791903   -8.9438571    558.87309  0.010098169 0.0086082439           13 
 4613000   0.52509537   -8.9522518    559.61957  0.010109465 0.0086052483            7 
 4614000    0.5153001   -8.9558116    560.26143  0.010118867 0.0086022533            9 
 4615000   0.50634825    -8.943933      559.832   0.01010892 0.0085992598            9 
 4616000   0.51583461   -8.9561012    559.80928   0.01010632 0.0085962686           13 
 4617000   0.50123528   -8.9558395    559.59773  0.010100313 0.0085932803            6 
 4618000   0.50404114   -8.9549088    560.02445  0.010105826 0.0085902948            8 
 4619000   0.51069391     -8.96527     559.4468  0.010093216 0.0085873055            4 
 4620000   0.50501576   -8.9567481    559.65702  0.010094824 0.0085843189            4 
 4621000   0.52297699   -8.9484008    559.41038  0.010088191 0.0085813318           19 
 4622000   0.51103482   -8.9521337    559.52961  0.010088158  0.008578348            9 
 4623000   0.50124959   -8.9523686    559.59964  0.010087238 0.0085753668            9 
 4624000   0.51732786   -8.9494566    560.28276  0.010097368 0.0085723885           14 
 4625000   0.51142544   -8.9484076    559.74785  0.010085547  0.008569409            8 
 4626000   0.50762411   -8.9520417    559.84033  0.010085033 0.0085664324            7 
 4627000   0.50739317   -8.9599829    559.83497  0.010082757 0.0085634578           10 
 4628000   0.50557042   -8.9589568    559.20067  0.010069156 0.0085604813            9 
 4629000   0.50330085   -8.9540052    559.90529  0.010079666 0.0085575064            4 
 4630000   0.51098042   -8.9502893    559.32307   0.01006701 0.0085545335            3 
 4631000   0.50839738   -8.9713336    559.05325  0.010059981 0.0085515598            5 
 4632000   0.51374149   -8.9405786    559.18915  0.010060254 0.0085485872            6 
 4633000   0.50383143    -8.936688    560.24109  0.010077004 0.0085456172            8 
 4634000   0.51247229   -8.9728064    559.14612  0.010055138 0.0085426481            6 
 4635000   0.51564842   -8.9586141    559.45686  0.010058556 0.0085396783            9 
 4636000   0.51620038   -8.9648515    559.89777  0.010064311 0.0085367119            6 
 4637000   0.51433705   -8.9634273    559.84643  0.010061218 0.0085337489            7 
 4638000    0.5049186     -8.95602    558.94205  0.010042799 0.0085307836            9 
 4639000   0.51687212   -8.9730712    559.26555  0.010046446 0.0085278215            5 
 4640000   0.50561149   -8.9616101    558.33349  0.010027541 0.0085248599            3 
 4641000   0.52181194   -8.9711691    559.04263  0.010038114 0.0085218968           11 
 4642000   0.51290147   -8.9627713    559.12168   0.01003737 0.0085189353            2 
 4643000   0.51286841   -8.9648454    559.17425  0.010036152 0.0085159769            9 
 4644000   0.50781461   -8.9484016    559.20451  0.010034534 0.0085130197            2 
 4645000   0.51300646   -8.9460165    558.42734  0.010018431 0.0085100626            7 
 4646000   0.49928699   -8.9669747    559.39859  0.010033696  0.008507111           15 
 4647000   0.49952865   -8.9570055    559.07339  0.010025705 0.0085041569           11 
 4648000   0.50101608   -8.9703548    558.45256  0.010012417 0.0085012059           11 
 4649000    0.5053307   -8.9720751    558.94544  0.010019098 0.0084982556            8 
 4650000   0.51240621   -8.9663498    559.39564  0.010025011 0.0084953057           14 
 4651000   0.50503939   -8.9631106    559.82834  0.010030609 0.0084923588            9 
 4652000   0.50620056   -8.9605858     559.0126   0.01001384 0.0084894129            9 
 4653000   0.49329505   -8.9726588    559.08398  0.010012966 0.0084864663            2 
 4654000   0.51838968   -8.9670743    559.35187  0.010015611  0.008483523            5 
 4655000   0.50910055   -8.9877855    559.11915  0.010009294 0.0084805785            3 
 4656000   0.50799632   -8.9771937    558.93493  0.010003847 0.0084776389            9 
 4657000   0.50482892   -8.9730026    558.70333 0.0099975543 0.0084747023            6 
 4658000   0.50599009   -8.9728688    558.95076 0.0099998348 0.0084717653            2 
 4659000   0.51661779   -8.9707254    559.48715  0.010007282 0.0084688289            3 
 4660000   0.50831455   -8.9603916    558.88042 0.0099942851 0.0084658929            8 
 4661000   0.49954426   -8.9786154     559.6158  0.010005289 0.0084629591            5 
 4662000   0.49537845   -8.9550911    558.86662 0.0099897509 0.0084600281            3 
 4663000   0.51287108   -8.9681549    558.78354 0.0099861237 0.0084570952            3 
 4664000   0.51299974   -8.9613459    559.64231 0.0099993265 0.0084541645            5 
 4665000   0.50778946    -8.968022    558.83381 0.0099827404 0.0084512335           11 
 4666000   0.50933223   -8.9656441    559.45185  0.009991639 0.0084483042            2 
 4667000   0.50629968   -8.9799367    559.21631 0.0099852923 0.0084453764           10 
 4668000    0.4995522   -8.9676634    560.31673  0.010002798  0.008442451           11 
 4669000   0.50439783   -8.9741361    559.49854 0.0099860523 0.0084395239            3 
 4670000   0.50406205   -8.9724402    558.76204 0.0099707716 0.0084366004            4 
 4671000   0.51749969   -8.9672719    558.68884  0.009967331 0.0084336763            4 
 4672000   0.49986357   -8.9630845    559.42089 0.0099782551 0.0084307557            3 
 4673000   0.51699439   -8.9600799    558.14544 0.0099533748 0.0084278356            8 
 4674000   0.51183242   -8.9633161    558.78555 0.0099626577 0.0084249167           10 
 4675000   0.51175889   -8.9538134    559.13493 0.0099667545  0.008422001            3 
 4676000   0.50377045   -8.9863226    559.52759 0.0099716209  0.008419086            7 
 4677000   0.50673434   -8.9686033    558.89769 0.0099582655 0.0084161719            6 
 4678000   0.50822723   -8.9688445    558.87671 0.0099557629 0.0084132597            4 
 4679000   0.49894316   -8.9840028    558.80145 0.0099522948 0.0084103505            4 
 4680000   0.50352735    -8.957019    559.32882 0.0099595588 0.0084074403            7 
 4681000   0.50962844    -8.969053    559.07524 0.0099529167 0.0084045337           11 
 4682000   0.49893218   -8.9805539    558.71714 0.0099444173 0.0084016254           13 
 4683000   0.50235767   -8.9746589     559.2344 0.0099514983 0.0083987206            9 
 4684000   0.49990128   -8.9738395    559.24877 0.0099496294 0.0083958158            8 
 4685000   0.50589271   -8.9692088     558.7557 0.0099387354 0.0083929133            8 
 4686000   0.49797032   -8.9547726    558.46448 0.0099314356 0.0083900099            4 
 4687000   0.51323174   -8.9700327      559.347 0.0099450075 0.0083871084           10 
 4688000   0.49927593   -8.9649119    558.56269 0.0099289443 0.0083842095            2 
 4689000   0.50885755   -8.9818673    558.49234 0.0099255765 0.0083813098            7 
 4690000   0.50069137   -8.9695912    559.04246 0.0099332349 0.0083784139            8 
 4691000   0.50549449   -8.9708379    558.97793 0.0099299711 0.0083755199            7 
 4692000   0.49034037    -8.978475    559.33241 0.0099341505 0.0083726252            5 
 4693000   0.50301947   -8.9693238    559.68366 0.0099382708 0.0083697315            4 
 4694000   0.49715927   -8.9766856    559.32386 0.0099297661 0.0083668383            3 
 4695000   0.49273022   -8.9728084    558.98469  0.009921631 0.0083639457            7 
 4696000   0.50296514   -8.9811101    558.20701 0.0099057178 0.0083610566            8 
 4697000   0.49736979    -8.971053    558.86936 0.0099153602 0.0083581674            3 
 4698000   0.49168239   -8.9786542    558.96933 0.0099150229 0.0083552802           10 
 4699000   0.49342553   -8.9984211    559.35925 0.0099198278 0.0083523923            7 
 4700000   0.50329156    -8.976185    559.71913  0.009924098  0.008349508           12 
 4701000    0.5003953   -8.9710276    558.62901 0.0099026627  0.008346622            6 
 4702000   0.50282288   -8.9827092    558.90711 0.0099054854 0.0083437386            4 
 4703000   0.50969575   -8.9758371    558.72609 0.0099001717 0.0083408568           13 
 4704000   0.50967955   -8.9712909    558.60979 0.0098960068 0.0083379755           13 
 4705000   0.49068223    -8.988592    558.57939 0.0098933649 0.0083350948            6 
 4706000   0.49971412   -8.9689759    559.56652 0.0099087427 0.0083322181           12 
 4707000   0.48796262    -8.984766    559.17111 0.0098996372 0.0083293407            5 
 4708000   0.49973444   -8.9739535    558.47345 0.0098851858 0.0083264642            3 
 4709000   0.49127038   -8.9686364    559.33369 0.0098983098 0.0083235882           12 
 4710000   0.50347022   -8.9631393    559.72686 0.0099031645 0.0083207134           10 
 4711000   0.49057429   -8.9836022    558.68053 0.0098825538 0.0083178425            8 
 4712000   0.49632374    -8.988476    558.36829 0.0098749344 0.0083149724            1 
 4713000   0.49231865   -8.9797844    558.27612 0.0098712094    0.0083121            3 
 4714000   0.48755971   -8.9837578    557.77818 0.0098603129 0.0083092304            5 
 4715000   0.49545994   -8.9690549    558.26536 0.0098668321 0.0083063625           10 
 4716000   0.48581781   -8.9837847    558.64786 0.0098714988 0.0083034981            5 
 4717000    0.4952127    -8.980048    558.81565 0.0098723703 0.0083006353            6 
 4718000   0.50790899   -8.9849534    558.24869 0.0098602637 0.0082977702            9 
 4719000   0.49673263    -8.988816    558.44167 0.0098615821 0.0082949095            9 
 4720000    0.4964234   -8.9765693    559.06104  0.009870428 0.0082920462            7 
 4721000   0.50900241   -8.9937449    559.27293 0.0098720775 0.0082891881            8 
 4722000   0.50009521   -8.9753479    559.09656 0.0098668742 0.0082863283            3 
 4723000   0.49397334   -8.9897594    558.51307 0.0098544898 0.0082834703            2 
 4724000   0.49913525   -8.9601219    558.69434 0.0098556015  0.008280613            7 
 4725000   0.49521338   -8.9792786    559.54637 0.0098685426  0.008277759           11 
 4726000    0.5005004   -8.9792291    559.03642 0.0098574626 0.0082749045            7 
 4727000   0.49477115   -8.9924662    560.26067 0.0098769599 0.0082720524            7 
 4728000   0.50770547   -8.9847384    558.72516 0.0098478067 0.0082691999            9 
 4729000   0.49799905   -8.9651367    558.80811  0.009847186 0.0082663502            3 
 4730000   0.49360568    -8.982665     558.6087  0.009841591 0.0082634984            9 
 4731000   0.49046165   -8.9744995    559.58571   0.00985672 0.0082606491            7 
 4732000   0.49522054   -8.9691364    558.90664 0.0098426782 0.0082578041           12 
 4733000   0.49671626   -8.9719979    558.28828 0.0098297113 0.0082549577            5 
 4734000   0.50114418   -8.9886259    558.89082 0.0098382415 0.0082521159            2 
 4735000   0.48987682   -8.9876442    559.00537 0.0098381797 0.0082492756           10 
 4736000   0.49294989   -8.9947451    558.83408 0.0098330883 0.0082464358            2 
 4737000   0.48825854   -8.9713853    558.49856 0.0098251101 0.0082435986           10 
 4738000   0.48446058   -8.9772619    557.65479 0.0098081959 0.0082407574           11 
 4739000   0.49030314   -8.9670668     559.0267 0.0098302508 0.0082379225           11 
 4740000   0.50466207   -8.9913451     558.6745 0.0098219848 0.0082350837           11 
 4741000   0.48686341   -8.9879191    558.18055  0.009811231 0.0082322504            6 
 4742000   0.50405025   -8.9863506    559.51078 0.0098325387 0.0082294203           11 
 4743000   0.49488673   -8.9875754    558.77647 0.0098175639 0.0082265858            9 
 4744000   0.49056734   -8.9792489    558.38912 0.0098086903 0.0082237532           10 
 4745000   0.50006043   -8.9915417    557.81806  0.009796594 0.0082209235            9 
 4746000   0.49765833   -8.9698728    558.23458 0.0098018434 0.0082180957            9 
 4747000   0.50038164   -8.9755664    558.28832 0.0098007218 0.0082152681           10 
 4748000   0.49584395   -8.9881806    558.54146 0.0098031007 0.0082124402            4 
 4749000   0.49988747    -8.966567    558.84905 0.0098064339 0.0082096163           10 
 4750000   0.49841707   -8.9859912    558.68635 0.0098015149   0.00820679            9 
 4751000   0.49137681   -8.9909698    558.11479 0.0097894267  0.008203966            7 
 4752000   0.49738937   -8.9763703    558.06092 0.0097864218 0.0082011442            8 
 4753000    0.4964989   -9.0004878    557.54805 0.0097753708  0.008198323            8 
 4754000   0.49595762    -8.980923    558.13811 0.0097836578 0.0081955014            5 
 4755000   0.48609106   -8.9880481    559.36282 0.0098030638 0.0081926822           11 
 4756000   0.48426322   -8.9957437    557.45251 0.0097675307 0.0081898654            7 
 4757000   0.48757082   -8.9909839    558.65215 0.0097864927  0.008187049           11 
 4758000   0.49362198    -8.991434    558.56448 0.0097829004 0.0081842313            6 
 4759000   0.48638552   -8.9975332     558.0313 0.0097715083 0.0081814194            8 
 4760000   0.49221193   -8.9906244    558.60485 0.0097794967 0.0081786061           11 
 4761000   0.48979278   -9.0011759    559.01468  0.009784616 0.0081757927           10 
 4762000     0.486466   -8.9944992    559.25819 0.0097868226 0.0081729819            6 
 4763000   0.48339541   -8.9973817    557.77172 0.0097587606 0.0081701706            5 
 4764000   0.50589855   -8.9922013    557.68754 0.0097552397 0.0081673621            7 
 4765000   0.48365259   -8.9883234    558.41006 0.0097658282 0.0081645534            4 
 4766000   0.49120438   -8.9828374    558.11514 0.0097586226 0.0081617473            7 
 4767000   0.49918958   -8.9847399    557.94677 0.0097536322 0.0081589403           10 
 4768000   0.49747226   -9.0096101    558.87608 0.0097678286 0.0081561362            4 
 4769000   0.48501862    -8.989058    558.14451 0.0097529969  0.008153334            9 
 4770000   0.49242663   -8.9826427    558.32812   0.00975416 0.0081505312           10 
 4771000   0.48501822   -8.9891111    558.17542 0.0097494483 0.0081477302            9 
 4772000   0.48634221   -9.0018294    558.23977 0.0097485291 0.0081449293            8 
 4773000   0.49004488    -8.988335     557.8955 0.0097404759 0.0081421318            7 
 4774000   0.49369027   -8.9873383    558.53863  0.009749662 0.0081393387            6 
 4775000   0.48870847   -8.9906943    558.39495 0.0097451125 0.0081365434            7 
 4776000    0.4895233   -9.0040789     558.6807  0.009748058 0.0081337511            9 
 4777000   0.48205418   -8.9856006    558.64635 0.0097454181 0.0081309585            5 
 4778000   0.48133138   -8.9834538    558.13143 0.0097343977 0.0081281676            5 
 4779000   0.48460878   -9.0028369    558.56482  0.009739918 0.0081253781            6 
 4780000   0.50530825   -8.9984692    557.33971 0.0097165222 0.0081225893            6 
 4781000    0.4897084   -8.9812102    557.92778 0.0097247399 0.0081198029           10 
 4782000   0.49067702   -8.9967815    559.49085 0.0097499451 0.0081170177            5 
 4783000   0.48315967   -9.0020106     557.7451 0.0097174907 0.0081142319            7 
 4784000   0.49152519   -8.9884601    558.85224 0.0097347451 0.0081114478           11 
 4785000   0.48762024   -8.9870879    558.57938 0.0097279586  0.008108666            7 
 4786000   0.49129949   -8.9798716    558.94796 0.0097323436 0.0081058863            3 
 4787000   0.49432454    -9.004594    558.40518 0.0097208617 0.0081031067            6 
 4788000   0.49009563   -8.9976851    557.97501 0.0097113446 0.0081003277            7 
 4789000   0.48259903   -9.0020045    558.53427 0.0097190484 0.0080975503            4 
 4790000   0.47631636   -9.0054447    558.07733 0.0097090698 0.0080947719            9 
 4791000    0.4901255   -9.0165305    558.34875 0.0097117642 0.0080919951            2 
 4792000   0.48525987   -9.0092579    558.53348 0.0097129501 0.0080892196            9 
 4793000   0.48145423   -8.9920503     558.0768 0.0097029835 0.0080864468            5 
 4794000   0.48244895   -9.0010846    558.51724 0.0097086156 0.0080836741            5 
 4795000   0.47519144   -8.9859637    558.95116  0.009714132 0.0080809032            5 
 4796000    0.4902919   -9.0051024    558.39027 0.0097023609 0.0080781348           13 
 4797000   0.50005053   -9.0034098    557.98801 0.0096933503 0.0080753668            6 
 4798000   0.49412971   -9.0010068    557.05699 0.0096751597 0.0080725982            8 
 4799000   0.48422896   -9.0059433    557.57021 0.0096820554 0.0080698302            8 
 4800000    0.4781224    -8.989904    557.94324 0.0096865145 0.0080670672           16 
 4801000   0.47638323   -9.0062207    558.07964 0.0096868646 0.0080643028            3 
 4802000   0.47760951   -9.0238402    558.27418 0.0096882233 0.0080615376            6 
 4803000   0.47936937   -8.9971151    558.47891 0.0096897583 0.0080587762           11 
 4804000   0.48734611   -9.0029148    557.53956 0.0096714467 0.0080560176           11 
 4805000   0.47470475   -8.9945219    557.42287 0.0096674101 0.0080532599            9 
 4806000   0.48108984   -9.0063258    558.55815 0.0096850837 0.0080505035            9 
 4807000   0.48397836   -8.9966589    558.15934 0.0096761553 0.0080477447            2 
 4808000   0.48568428    -8.994866    558.11328 0.0096733445 0.0080449903            3 
 4809000   0.48391717   -9.0034035    558.04385 0.0096701298 0.0080422361            8 
 4810000   0.48589908    -9.001162    557.89954 0.0096656192  0.008039481            4 
 4811000   0.48540214   -9.0074629    558.28743  0.009670329 0.0080367307            8 
 4812000    0.4890054   -9.0067096    557.53175 0.0096552326 0.0080339806            4 
 4813000   0.47863939   -9.0066888    557.86808 0.0096590498 0.0080312319            7 
 4814000   0.47887746   -9.0112008    558.79275 0.0096730499 0.0080284834            8 
 4815000   0.49047876   -8.9914954    557.39591 0.0096468659 0.0080257362           10 
 4816000   0.48115571   -9.0163141    557.43891 0.0096456069 0.0080229894           12 
 4817000   0.47647729   -9.0096672    557.71207 0.0096483301 0.0080202435            6 
 4818000    0.4775931   -9.0117151    557.91505 0.0096498383 0.0080174993            8 
 4819000   0.48721471   -9.0176757    558.30516 0.0096545818 0.0080147572            6 
 4820000   0.48729018   -9.0100189    558.13489 0.0096496351 0.0080120153            7 
 4821000   0.48679627   -9.0066498    557.48899 0.0096364688 0.0080092751            4 
 4822000   0.48302122   -8.9846374    557.79084 0.0096396868 0.0080065377            8 
 4823000   0.47708945   -9.0168715    558.22503 0.0096451902 0.0080038025            5 
 4824000   0.48244939    -9.007375    557.55445 0.0096316067 0.0080010678            8 
 4825000   0.46377993   -9.0011772    558.49622 0.0096458759 0.0079983336            9 
 4826000   0.47833224   -9.0121962    558.22236 0.0096391484 0.0079956023            3 
 4827000   0.47782381   -8.9986917    558.10395 0.0096351071 0.0079928713            4 
 4828000   0.46899876   -9.0119884    558.30971  0.009636663 0.0079901382            5 
 4829000   0.47407165    -9.016328    557.97656 0.0096289183 0.0079874087           16 
 4830000   0.47802827   -9.0226474    558.00377 0.0096273943 0.0079846798           11 
 4831000     0.487697   -9.0088331    557.72565  0.009620604 0.0079819506            6 
 4832000   0.47432779   -9.0045714    557.90021 0.0096216233  0.007979226            4 
 4833000   0.47354646   -8.9935283    558.16512 0.0096242003 0.0079764997            9 
 4834000   0.48891842   -9.0033898    558.98156  0.009636284 0.0079737776            8 
 4835000   0.48246734   -9.0101134    557.61905 0.0096108075 0.0079710529            5 
 4836000   0.47014252   -9.0188669    557.70616 0.0096103212 0.0079683307            4 
 4837000   0.48162132     -9.02407    556.72008  0.009591346 0.0079656093            5 
 4838000   0.47542136   -9.0109224    557.46162 0.0096021363 0.0079628914            5 
 4839000   0.47626727   -9.0141732    557.71964 0.0096045953 0.0079601746            8 
 4840000   0.48239103   -9.0000849     557.6644 0.0096016597 0.0079574581            5 
 4841000   0.48263045   -9.0150485    557.60862 0.0095987162 0.0079547427            3 
 4842000   0.47871826   -9.0069054    557.07243 0.0095875056 0.0079520262            9 
 4843000   0.48116202   -9.0206502    557.35097 0.0095903188 0.0079493118            5 
 4844000   0.47739125   -9.0125434    558.36737 0.0096058245 0.0079466003            3 
 4845000   0.48722844   -9.0058941    557.42369 0.0095876108 0.0079438909            2 
 4846000   0.47596742   -9.0369311    557.90168  0.009593852  0.007941182            9 
 4847000   0.48425923   -9.0042885     557.4621  0.009584315 0.0079384738            5 
 4848000   0.48163208   -9.0121234     557.5987 0.0095846862 0.0079357666            4 
 4849000   0.47745259   -9.0120306    558.11754 0.0095916261 0.0079330606            8 
 4850000   0.46900326   -9.0089186    556.99949 0.0095704379 0.0079303562            6 
 4851000   0.47008931    -9.008358    557.67188 0.0095800157 0.0079276519            3 
 4852000   0.47240346   -9.0194833    557.58398 0.0095765317 0.0079249479            4 
 4853000   0.46359336   -9.0266217    556.78925 0.0095609116 0.0079222442            8 
 4854000   0.47094567   -9.0259898    558.81949  0.009593797 0.0079195449            6 
 4855000    0.4685103   -9.0089761    557.74353 0.0095733526 0.0079168459            8 
 4856000   0.46885771   -9.0296612    557.19607 0.0095619863 0.0079141479           11 
 4857000   0.48327852   -9.0102033    557.29868 0.0095617781 0.0079114506            3 
 4858000   0.47714314   -9.0215209    558.19103 0.0095751171 0.0079087536            2 
 4859000   0.47240122    -9.023501    557.70988 0.0095648948 0.0079060589            9 
 4860000   0.47215306   -9.0160918    557.75694 0.0095637335 0.0079033659            9 
 4861000   0.47888914    -9.008793    557.84755 0.0095633194 0.0079006758            5 
 4862000   0.47484748   -9.0129844    558.37406 0.0095703767  0.007897985            3 
 4863000   0.48180943   -9.0135531     557.1898 0.0095481151 0.0078952954           10 
 4864000   0.46315817   -9.0217665    557.10279 0.0095446613 0.0078926066            4 
 4865000   0.46939175   -9.0045382    557.53845 0.0095501618 0.0078899177            3 
 4866000   0.46574292     -9.03426    557.68832 0.0095507659 0.0078872313            3 
 4867000   0.47571544   -9.0190259    558.14777 0.0095566702 0.0078845452            3 
 4868000   0.47298413   -9.0059436    557.18455 0.0095382182  0.007881861            7 
 4869000   0.47761092    -9.005205    557.90811 0.0095486429 0.0078791786            6 
 4870000   0.47583055   -9.0241052    557.25301 0.0095354725 0.0078764967            3 
 4871000   0.47502596   -9.0210459    557.51603 0.0095380145 0.0078738153            6 
 4872000   0.47278511   -9.0274807    557.89471 0.0095425341 0.0078711368            6 
 4873000   0.47381716   -9.0103291    557.97236 0.0095419037 0.0078684597           12 
 4874000   0.47121064   -9.0369435    557.42926 0.0095306603 0.0078657842            7 
 4875000   0.46995836    -9.012955    557.52282 0.0095303046 0.0078631072            4 
 4876000   0.47210731   -9.0294965    557.26858  0.009524005 0.0078604324            6 
 4877000   0.47283828   -9.0177812    557.19666 0.0095208232 0.0078577599            7 
 4878000   0.46785519   -9.0143227    556.99858 0.0095154875  0.007855087            9 
 4879000   0.47950351   -9.0156904    557.51946 0.0095224338 0.0078524158            3 
 4880000   0.46305708   -9.0434572    556.94084 0.0095106018 0.0078497466            8 
 4881000   0.46356831   -9.0347337    558.15663 0.0095294105 0.0078470773           10 
 4882000   0.47556122   -9.0185992    557.21144 0.0095113246 0.0078444104            5 
 4883000   0.46201986   -9.0306883    558.89721 0.0095381461 0.0078417463            3 
 4884000   0.47248408   -9.0233326    557.30983 0.0095091084 0.0078390831            9 
 4885000    0.4649903   -9.0241253    558.06777 0.0095200915 0.0078364207           11 
 4886000   0.47177543    -9.008577     556.9465 0.0094990192 0.0078337582           10 
 4887000   0.47093575   -9.0275994    558.39696 0.0095218088 0.0078310972           13 
 4888000   0.46123469   -9.0219648    557.02068 0.0094963973 0.0078284354           10 
 4889000   0.46676054   -9.0237742    557.59475   0.00950424 0.0078257785            9 
 4890000   0.47021376    -9.009456    558.27045 0.0095138114 0.0078231222            7 
 4891000   0.47256143   -9.0174084    556.74268 0.0094858359 0.0078204661           14 
 4892000     0.465683   -9.0297583    557.49706 0.0094967474 0.0078178124           12 
 4893000   0.47626847    -9.015936    556.80519 0.0094830231 0.0078151569            7 
 4894000    0.4651574    -9.020239    557.91965 0.0095000622 0.0078125047            7 
 4895000   0.46210955   -9.0073351     557.9506 0.0094986482 0.0078098535            9 
 4896000   0.47315524   -9.0215802     557.6961 0.0094923764 0.0078072034            7 
 4897000   0.47075189   -9.0439975    557.54708 0.0094879021 0.0078045556            5 
 4898000   0.46554469   -9.0137188    557.93921 0.0094926365 0.0078019067           11 
 4899000   0.46483898   -9.0269225    558.27154  0.009496352 0.0077992603            6 
 4900000   0.45380674   -9.0123355     558.0355 0.0094903997 0.0077966136            4 
 4901000    0.4711345   -9.0349123    557.49216 0.0094792247 0.0077939694           11 
 4902000    0.4559927   -9.0400628    556.55451  0.009461351  0.007791323            4 
 4903000    0.4613994   -9.0434278     557.5677 0.0094766418 0.0077886787           11 
 4904000   0.46235051   -9.0320087    557.63469 0.0094758479 0.0077860369            5 
 4905000   0.46438993    -9.018156    556.67101 0.0094575436 0.0077833976            7 
 4906000   0.46251243   -9.0431736    557.09383 0.0094627978 0.0077807586           16 
 4907000   0.46358249    -9.027475    557.33611 0.0094649839 0.0077781184            8 
 4908000    0.4656726    -9.020821     557.6794 0.0094688841 0.0077754793           15 
 4909000   0.45552068   -9.0327696    557.72697 0.0094677628 0.0077728471            7 
 4910000   0.47015987   -9.0261734    557.38021 0.0094599492 0.0077702135            4 
 4911000   0.46553776   -9.0265405    556.78297 0.0094478886 0.0077675797            6 
 4912000   0.47310867   -9.0146446    556.73082 0.0094450804 0.0077649466            5 
 4913000   0.46265214   -9.0284566    556.93043 0.0094465438 0.0077623149            6 
 4914000   0.46165292   -9.0331485    556.94892 0.0094449349 0.0077596861           16 
 4915000   0.46743975   -9.0444744    557.29444 0.0094488715  0.007757058            6 
 4916000   0.46550065   -9.0291907    557.23526 0.0094459462 0.0077544302            8 
 4917000   0.46213867   -9.0163386    557.41674 0.0094471009 0.0077518033            6 
 4918000   0.46361608   -9.0335874    556.56292 0.0094307124 0.0077491769           16 
 4919000   0.47200244   -9.0324976    557.29233 0.0094411521 0.0077465492            7 
 4920000   0.46208395   -9.0275869     556.9946 0.0094341904 0.0077439272            9 
 4921000   0.46511159   -9.0191183    557.45519 0.0094400731 0.0077413046           10 
 4922000   0.46929137   -9.0331546    557.34368 0.0094362671 0.0077386844            5 
 4923000   0.46678132    -9.022763    556.60123 0.0094217827  0.007736065            4 
 4924000   0.46990656   -9.0403064    557.40435 0.0094334612 0.0077334452            5 
 4925000   0.46577822   -9.0421139    556.72817 0.0094201044 0.0077308299           12 
 4926000   0.45474214   -9.0285293    557.26135  0.009427212 0.0077282121            8 
 4927000   0.45990649   -9.0289901    557.44889 0.0094284706 0.0077255959            7 
 4928000   0.46090705   -9.0326857    557.31599 0.0094243098 0.0077229826            9 
 4929000   0.47394094   -9.0235648    556.77848 0.0094133104 0.0077203692           10 
 4930000   0.45607896    -9.022665    557.41783  0.009422208 0.0077177587            7 
 4931000    0.4599473   -9.0481152    557.36026 0.0094193243 0.0077151509            6 
 4932000   0.45972234    -9.024395    556.43007 0.0094016976 0.0077125405            6 
 4933000   0.46401001   -9.0257563    557.06389 0.0094104988 0.0077099325            8 
 4934000   0.46448521   -9.0268016    557.65449 0.0094185667 0.0077073262           10 
 4935000   0.46060488   -9.0214863    557.40387 0.0094124261 0.0077047218           10 
 4936000   0.45708387   -9.0422593     556.9514 0.0094028802 0.0077021154            8 
 4937000   0.46002376   -9.0392141    557.08564 0.0094032415 0.0076995121            4 
 4938000   0.46052705   -9.0296813    557.29284  0.009404834 0.0076969092            6 
 4939000   0.46286958   -9.0280535    557.60873 0.0094082596 0.0076943087            8 
 4940000   0.47075901   -9.0411437    556.42242 0.0093863431 0.0076917096            8 
 4941000   0.46108372   -9.0306538     556.4462 0.0093848445 0.0076891114           11 
 4942000   0.46002855   -9.0419928    556.53644 0.0093844671 0.0076865124            7 
 4943000    0.4708142    -9.033683    557.36444 0.0093965278 0.0076839161            5 
 4944000   0.45834328   -9.0344157    557.04676 0.0093892725   0.00768132            5 
 4945000   0.46384381   -9.0455664    557.23412 0.0093905312 0.0076787248            8 
 4946000   0.46611636   -9.0391158    556.74998 0.0093804755 0.0076761334            4 
 4947000   0.45323527   -9.0437026    557.52484 0.0093916319 0.0076735443            9 
 4948000   0.46977676   -9.0428845    556.78505 0.0093772745 0.0076709526            9 
 4949000   0.46261312   -9.0330993    557.63313   0.00938966  0.007668364            9 
 4950000   0.46408362   -9.0399237    557.51865 0.0093858358 0.0076657755           11 
 4951000    0.4597462   -9.0411092    556.96823 0.0093746756 0.0076631873            5 
 4952000   0.46319004   -9.0429231    557.78774 0.0093865735 0.0076606002            4 
 4953000   0.45924928   -9.0410055    556.87098  0.009369254 0.0076580153            7 
 4954000   0.46792503   -9.0201966    557.74715 0.0093821011 0.0076554325           13 
 4955000   0.47184371   -9.0360624    557.14506 0.0093700818 0.0076528509            6 
 4956000   0.45384302   -9.0342651    556.88787 0.0093638665 0.0076502693            7 
 4957000    0.4615782   -9.0407793    557.06102 0.0093648883 0.0076476858           10 
 4958000   0.44781054    -9.028764    556.57162 0.0093547737 0.0076451064            6 
 4959000    0.4649604   -9.0453326    556.80768 0.0093568542 0.0076425283            4 
 4960000   0.45501003   -9.0388204    557.43371 0.0093654858 0.0076399495            7 
 4961000   0.45115433   -9.0461544    557.72239  0.009368447 0.0076373739            3 
 4962000   0.44836431   -9.0282134    556.49548 0.0093459539 0.0076347975            6 
 4963000   0.45224974   -9.0351541     556.3469 0.0093415761 0.0076322223            8 
 4964000   0.45718819   -9.0410912    557.03323 0.0093512159 0.0076296483            9 
 4965000   0.45522693   -9.0381061     557.1655 0.0093515525 0.0076270757            6 
 4966000   0.45526515   -9.0390996    556.59722 0.0093401332 0.0076245061           10 
 4967000   0.45232008   -9.0273144    557.48476 0.0093531434 0.0076219342            5 
 4968000   0.45503361   -9.0455065    557.56258  0.009352566 0.0076193633           11 
 4969000    0.4568195   -9.0394594    557.71655 0.0093532661 0.0076167961            4 
 4970000   0.45745021   -9.0432645    557.64228 0.0093501389 0.0076142322            7 
 4971000   0.45091411   -9.0316959    556.86186  0.009335175 0.0076116669            8 
 4972000   0.43677306   -9.0527243    556.73476 0.0093311673 0.0076091008            9 
 4973000   0.46171637   -9.0389055    556.96388 0.0093331303 0.0076065351            8 
 4974000   0.44850357   -9.0319849    556.49534 0.0093234041 0.0076039714            8 
 4975000   0.45608486   -9.0280658    556.72831 0.0093254323 0.0076014102            6 
 4976000   0.44835173   -9.0424086    557.10993 0.0093299492 0.0075988493            5 
 4977000   0.44468433   -9.0417026    556.14496 0.0093119174  0.007596291            4 
 4978000    0.4608544   -9.0440764    556.29752 0.0093126008 0.0075937319            5 
 4979000   0.45194924   -9.0402316    556.21659 0.0093093759 0.0075911759            8 
 4980000   0.45009343    -9.033548    557.08245 0.0093219954 0.0075886205           11 
 4981000    0.4565521   -9.0508298    557.22867 0.0093225702  0.007586065            6 
 4982000   0.45071925   -9.0431339    557.04654 0.0093176525 0.0075835117           14 
 4983000   0.46249839   -9.0373499    556.57144 0.0093078372 0.0075809603            6 
 4984000   0.45480022   -9.0380212    556.88001 0.0093111291 0.0075784084            7 
 4985000   0.44917833   -9.0645413    556.38645 0.0093010105  0.007575858            5 
 4986000   0.45860707   -9.0573179    556.32526 0.0092981224 0.0075733087            4 
 4987000    0.4486172   -9.0456608    556.81921  0.009304512 0.0075707611            4 
 4988000   0.45761751   -9.0386227    556.69533 0.0093005769 0.0075682133            9 
 4989000   0.44135903   -9.0374373    556.69738 0.0092987469 0.0075656668            9 
 4990000   0.45418445   -9.0591955    557.28398 0.0093066796 0.0075631249            9 
 4991000   0.45350486    -9.048443    557.31523 0.0093053368 0.0075605845           11 
 4992000   0.45638587   -9.0441059    556.50205  0.009289898 0.0075580427            4 
 4993000   0.44919705   -9.0599347    557.10294 0.0092980664 0.0075555014           13 
 4994000   0.45500052   -9.0392113    556.71155 0.0092896734 0.0075529626            7 
 4995000   0.45184944   -9.0519376     557.3103 0.0092978028 0.0075504244           11 
 4996000   0.44888796   -9.0514914    556.20989  0.009277587 0.0075478859           13 
 4997000     0.453779   -9.0546792    556.96617 0.0092883425   0.00754535           11 
 4998000   0.45477556   -9.0541834    556.59804 0.0092803462 0.0075428147            9 
 4999000   0.44952168   -9.0368641    556.80583 0.0092819535 0.0075402838            8 
 5000000   0.45755776   -9.0477737    556.60034 0.0092766724 0.0075377497            4 
 5001000   0.45004571   -9.0444514     557.0639 0.0092825418 0.0075352159            9 
 5002000   0.44280274    -9.045953    556.17412 0.0092658624 0.0075326846           11 
 5003000   0.44891241   -9.0396108     557.3659 0.0092838613 0.0075301515            5 
 5004000    0.4554361   -9.0397838     556.6994 0.0092709067 0.0075276234            6 
 5005000   0.45419281   -9.0558195    556.08457 0.0092588173 0.0075250931            6 
 5006000   0.44846747   -9.0568797    556.93101 0.0092710583 0.0075225681           12 
 5007000   0.46051945   -9.0292101    556.04425 0.0092544479 0.0075200445            4 
 5008000   0.44257449   -9.0526696    556.58059 0.0092615247 0.0075175221            6 
 5009000   0.46317995   -9.0475872    555.97035 0.0092495234  0.007514997            6 
 5010000   0.45560544   -9.0586094    557.36796 0.0092709241 0.0075124751            4 
 5011000   0.44616645    -9.054585    558.05689  0.009280531 0.0075099535            8 
 5012000   0.44509293   -9.0478493    556.44038  0.009251802 0.0075074321            9 
Loop time of 12436.6 on 48 procs for 5000000 steps with 4000 atoms

Performance: 69472.222 tau/day, 402.038 timesteps/s
99.4% CPU use with 48 MPI tasks x no OpenMP threads

MPI task timing breakdown:
Section |  min time  |  avg time  |  max time  |%varavg| %total
---------------------------------------------------------------
Pair    | 849.41     | 899.76     | 952.3      |  85.8 |  7.23
Neigh   | 82.211     | 85.585     | 88.843     |  19.6 |  0.69
Comm    | 801.62     | 849.04     | 901.62     |  87.2 |  6.83
Output  | 13.999     | 14.004     | 14.082     |   0.3 |  0.11
Modify  | 10449      | 10473      | 10516      |  15.3 | 84.21
Other   |            | 115.4      |            |       |  0.93

Nlocal:        83.3333 ave          90 max          78 min
Histogram: 4 5 5 5 7 11 4 2 3 2
Nghost:        2207.25 ave        2232 max        2189 min
Histogram: 10 1 2 5 11 6 7 4 1 1
Neighs:        14738.5 ave       16629 max       13479 min
Histogram: 3 7 6 7 11 6 5 2 0 1
FullNghs:      29478.2 ave       31864 max       27410 min
Histogram: 4 5 4 5 7 11 4 2 3 3

Total # of neighbors = 1414953
Ave neighs/atom = 353.73825
Neighbor list builds = 266842
Dangerous builds = 0

#clear
#
#next RN
#
#jump SELF
Total wall time: 3:27:20
