
units lj                  # Use reduced LJ style units
atom_style atomic         # Uncharged point particles
atom_modify map hash      # Needed for indexing of clusters etc
                          # Used to be able to find where atoms are in relation to each other.

lattice fcc 1.0 spacing 1 1 1
Lattice spacing in x,y,z = 1.5874011 1.5874011 1.5874011
region box block 0 10 0 10 0 10 units lattice
create_box 2 box
Created orthogonal box = (0.0000000 0.0000000 0.0000000) to (15.874011 15.874011 15.874011)
  3 by 4 by 4 MPI processor grid
create_atoms 1 box
Created 4000 atoms
  using lattice units in orthogonal box = (0.0000000 0.0000000 0.0000000) to (15.874011 15.874011 15.874011)
  create_atoms CPU = 0.027 seconds
set type 1 type/fraction 2 0.47 78393
Setting atom values ...
  1873 settings made for type/fraction
mass 1 1.0
mass 2 1.0
pair_style lj/cut  3.5
pair_modify tail  yes
pair_coeff 1  1  1.0  1.0   # Intearaction between 1 and 1 set with epsilon = 1 and sigma = 1
pair_coeff 1  2  1.5  0.8
pair_coeff 2  2  0.5  0.88

write_data data.0
System init for write_data ...
Neighbor list info ...
  update every 1 steps, delay 10 steps, check yes
  max neighbors/atom: 2000, page size: 100000
  master list distance cutoff = 3.8
  ghost atom cutoff = 3.8
  binsize = 1.9, bins = 9 9 9
  1 neighbor lists, perpetual/occasional/extra = 1 0 0
  (1) pair lj/cut, perpetual
      attributes: half, newton on
      pair build: half/bin/atomonly/newton
      stencil: half/bin/3d
      bin: standard
WARNING: Not all mixed pair coeffs generated from mixing. Use write_data with 'pair ij' option to store all pair coeffs. (../write_data.cpp:312)


#############################
#   M E L T   S Y S T E M   #
#############################

velocity all create 2.4 9622624 mom yes dist gaussian # Assign velocities
                                                    # Temperature 2.4, random number seed, zero linear momentum
                                                                                # Gaussian distribution

timestep 0.002   # simulation timestep
thermo 1000       # output thermodynamic data every 1000 steps bf 100

# Define a fix  in this case with index 1 applied to all
# particles in the simulation. This fix is for simulations
# in the anisotropic NPT ensemble. Note that we use the MTK
# correction.
fix 1 all npt temp 2.4 2.4 0.1 iso 5.68 5.68 0.5 mtk yes tchain 5 pchain 5 # Use NPT ensemble
                                                                         # Set temperature and pressure and damping
                                                                         # Numbers of thermostats in chain and in barostat
run 10000          # run for 10000 steps
Per MPI rank memory allocation (min/avg/max) = 3.642 | 3.644 | 3.648 Mbytes
Step Temp E_pair E_mol TotEng Press Volume 
       0          2.4   -5.4815223            0   -1.8824223   -4.2035566         4000 
    1000    2.4181925   -4.9758625            0   -1.3494806    5.8449821    3734.3199 
    2000    2.4071931   -4.9307089            0    -1.320822      5.67346    3773.5517 
    3000    2.3968015   -5.0180878            0   -1.4237844    5.7994576    3722.8114 
    4000    2.3780009   -4.9694328            0   -1.4033233    5.6993766    3745.5686 
    5000    2.4172527    -4.968889            0   -1.3439164    5.6134118     3755.655 
    6000    2.3715392   -4.9242718            0   -1.3678524     5.434315    3791.0413 
    7000    2.4287157   -4.9580712            0   -1.3159084    5.9171236      3731.59 
    8000    2.4418558   -4.9889813            0   -1.3271133    5.5459923    3757.0818 
    9000    2.3632732   -4.9456173            0   -1.4015938    5.6361235    3761.2996 
   10000    2.3787814   -5.0298471            0   -1.4625671    5.5802569    3734.8311 
Loop time of 2.64868 on 48 procs for 10000 steps with 4000 atoms

Performance: 652400.799 tau/day, 3775.468 timesteps/s
99.6% CPU use with 48 MPI tasks x no OpenMP threads

MPI task timing breakdown:
Section |  min time  |  avg time  |  max time  |%varavg| %total
---------------------------------------------------------------
Pair    | 1.1457     | 1.2282     | 1.3731     |   4.1 | 46.37
Neigh   | 0.21043    | 0.22096    | 0.24698    |   1.4 |  8.34
Comm    | 0.76293    | 0.91463    | 1.0255     |   5.7 | 34.53
Output  | 0.00024675 | 0.00025097 | 0.00032425 |   0.0 |  0.01
Modify  | 0.23982    | 0.26909    | 0.32992    |   4.9 | 10.16
Other   |            | 0.01553    |            |       |  0.59

Nlocal:        83.3333 ave          92 max          75 min
Histogram: 2 4 8 5 6 8 3 6 3 3
Nghost:        1720.06 ave        1766 max        1695 min
Histogram: 4 5 9 15 6 7 0 1 0 1
Neighs:        10220.2 ave       11472 max        8903 min
Histogram: 2 2 5 10 4 4 11 5 0 5

Total # of neighbors = 490570
Ave neighs/atom = 122.64250
Neighbor list builds = 905
Dangerous builds = 201

# Equilibrate just above the melting temperature to avoid step fn in T

fix 1 all npt temp 1.25 1.25 0.1 iso 5.68 5.68 0.5 mtk yes tchain 5 pchain 5
run 2000
Per MPI rank memory allocation (min/avg/max) = 3.644 | 3.646 | 3.649 Mbytes
Step Temp E_pair E_mol TotEng Press Volume 
   10000    2.3787814   -5.0298471            0   -1.4625671    5.5802569    3734.8311 
   11000    1.2317296    -7.041578            0   -5.1944455    5.7323103    2941.2482 
   12000    1.2643855   -7.1259087            0   -5.2298045    5.6316423    2924.1827 
Loop time of 0.632812 on 48 procs for 2000 steps with 4000 atoms

Performance: 546134.081 tau/day, 3160.498 timesteps/s
99.7% CPU use with 48 MPI tasks x no OpenMP threads

MPI task timing breakdown:
Section |  min time  |  avg time  |  max time  |%varavg| %total
---------------------------------------------------------------
Pair    | 0.28471    | 0.30758    | 0.34727    |   2.2 | 48.60
Neigh   | 0.040473   | 0.042866   | 0.047985   |   0.6 |  6.77
Comm    | 0.1888     | 0.23273    | 0.26214    |   2.9 | 36.78
Output  | 5.2584e-05 | 5.4098e-05 | 7.771e-05  |   0.0 |  0.01
Modify  | 0.040115   | 0.044716   | 0.049074   |   1.3 |  7.07
Other   |            | 0.00487    |            |       |  0.77

Nlocal:        83.3333 ave          92 max          74 min
Histogram: 2 3 5 8 3 5 10 6 5 1
Nghost:        2040.35 ave        2060 max        2022 min
Histogram: 3 2 7 7 8 6 5 4 4 2
Neighs:        13078.9 ave       14569 max       11574 min
Histogram: 4 3 5 7 6 4 5 5 6 3

Total # of neighbors = 627789
Ave neighs/atom = 156.94725
Neighbor list builds = 144
Dangerous builds = 13

#############################
# L I N E A R  Q U E N C H  #
#############################

# Define solid atoms. This closely follows ten Wolde  Ruiz-Montero and Frenkel  Faraday Discuss  1996  104  93-110
# Compute components of the per-atom q6 vector
compute q6 all orientorder/atom degrees 1 6 components 6 nnn NULL cutoff 1.3 # compute the Q6 parameter.
                                                                             # Use all neighbours within 1.3 unit cell.

# get number of connections
compute coord_number all coord/atom orientorder q6 0.5

# An atom is solid if it has 8 or more connections (of a possible 14)
variable is_solid atom c_coord_number>=8
group solid dynamic all var is_solid    # Must be dynamic to update
dynamic group solid defined

# do clustering
compute cluster solid cluster/atom 1.3 # Create a cluster where all atoms within are solid and max 1.3 units from another member

# define chunks one chunk per cluster
compute clus_chunks solid chunk/atom c_cluster nchunk every compress yes  # Says which atoms are in which chunk

# count the size of each chunk
compute size_chunks solid property/chunk clus_chunks count


# Find the maximum entry in the vector of chunk sizes
variable max_n equal max(c_size_chunks)


# Thermo style which includes this variable
# thermo_style custom step temp pe vol v_max_n

thermo ${N}  # Print the thermo information every 100 steps
thermo 1000  

# Reset the npt fix at a lower temperature (below freezing)
fix 1  all npt temp  ${temp} ${temp}  0.1  iso  5.68  5.68  0.5  mtk yes tchain  5  pchain  5
fix 1  all npt temp  0.45 ${temp}  0.1  iso  5.68  5.68  0.5  mtk yes tchain  5  pchain  5
fix 1  all npt temp  0.45 0.45  0.1  iso  5.68  5.68  0.5  mtk yes tchain  5  pchain  5

dump dmp2 all dcd ${N} traj.dcd
dump dmp2 all dcd 1000 traj.dcd


compute msd all msd com yes
variable twopoint equal c_msd[4]/6/(step*dt+1.0e-6)
fix 9 all vector 10 c_msd[4]
variable fit equal slope(f_9)/6/(10*dt)
thermo_style custom step temp pe c_msd[4] v_twopoint v_fit v_max_n

fix 1 all npt temp 1.25 ${temp} 0.1 iso 5.68 5.68 0.5 mtk yes tchain 5 pchain 5
fix 1 all npt temp 1.25 0.45 0.1 iso 5.68 5.68 0.5 mtk yes tchain 5 pchain 5
run 2000000 # 5000000  # Run for this many steps
Neighbor list info ...
  update every 1 steps, delay 10 steps, check yes
  max neighbors/atom: 2000, page size: 100000
  master list distance cutoff = 3.8
  ghost atom cutoff = 3.8
  binsize = 1.9, bins = 8 8 8
  4 neighbor lists, perpetual/occasional/extra = 1 3 0
  (1) pair lj/cut, perpetual
      attributes: half, newton on
      pair build: half/bin/atomonly/newton
      stencil: half/bin/3d
      bin: standard
  (2) compute orientorder/atom, occasional
      attributes: full, newton on
      pair build: full/bin/atomonly
      stencil: full/bin/3d
      bin: standard
  (3) compute coord/atom, occasional
      attributes: full, newton on
      pair build: full/bin/atomonly
      stencil: full/bin/3d
      bin: standard
  (4) compute cluster/atom, occasional
      attributes: full, newton on
      pair build: full/bin/atomonly
      stencil: full/bin/3d
      bin: standard
Per MPI rank memory allocation (min/avg/max) = 9.835 | 9.841 | 9.844 Mbytes
Step Temp PotEng c_msd[4] v_twopoint v_fit v_max_n 
   12000    1.2643855   -7.1259087 5.9164568e-34 4.1086504e-36 8.3333333e+20            2 
   13000    1.2534692   -7.1125372   0.47574269 0.0030496325  0.038509341            1 
   14000    1.2522783   -7.1178546   0.88555973 0.0052711887  0.036775966            3 
   15000    1.2630111   -7.0922816     1.248945 0.0069385832  0.034092753            1 
   16000    1.2263135   -7.1440763    1.6081673  0.008375871  0.032746279            1 
   17000    1.2439011   -7.1552666    2.0394352  0.009997231  0.032811448            1 
   18000    1.2286898   -7.1292881    2.4245168  0.011224614  0.032782369            3 
   19000    1.2743654   -7.1494521    2.8287049    0.0124066  0.032789854            1 
   20000    1.2554404   -7.1396633    3.1819312  0.013258046  0.032757225            2 
   21000      1.22044   -7.1681739     3.542175   0.01405625  0.032529615            3 
   22000    1.2271378   -7.1796573    3.9173704  0.014838524  0.032268481            1 
   23000    1.2553702   -7.1881242    4.2814211  0.015512395  0.032103106            2 
   24000    1.2337005   -7.1732504    4.6435189  0.016123329  0.031957252            2 
   25000    1.2446245    -7.192939    5.0405109  0.016801703  0.031785096            1 
   26000    1.2537525   -7.1640562    5.4471906  0.017458944  0.031703721            2 
   27000    1.2619118   -7.1418706    5.8403074   0.01802564  0.031801169            1 
   28000    1.2345733    -7.163224    6.2116857  0.018487159  0.031838898            3 
   29000    1.2214244   -7.1663876    6.6631098  0.019146867  0.031861129            1 
   30000    1.2545253   -7.1633818    6.9785104  0.019384751  0.031924836            2 
   31000    1.2328783   -7.1438158    7.4099094  0.019919111  0.031964179            1 
   32000    1.2343648   -7.2047848    7.7979051  0.020307044  0.031995433            2 
   33000    1.2452449   -7.1966736    8.1585642  0.020602435  0.032029346            1 
   34000    1.2171421   -7.1660273    8.5464811  0.020947257  0.032038496            1 
   35000     1.242349   -7.2009399    8.9219562  0.021242753  0.032025291            2 
   36000    1.2229548   -7.1694789    9.3035395  0.021535971  0.032020419            3 
   37000    1.2558223   -7.1480391    9.6038478  0.021630288  0.031970393            1 
   38000    1.2056003   -7.1345004    10.021442  0.021976845  0.031913024            2 
   39000    1.2686341   -7.1729719    10.434125  0.022295139  0.031905535            1 
   40000    1.2349316   -7.1088577    10.814661  0.022530543  0.031887879            2 
   41000    1.2476795   -7.2044249    11.150791  0.022664208   0.03188014            1 
   42000    1.2441413   -7.1914199    11.632687  0.023080728  0.031881113            2 
   43000    1.2421841   -7.1950063     12.12122  0.023490737  0.031949271            4 
   44000    1.2420436   -7.2153605    12.337245  0.023365994  0.031963253            1 
   45000    1.2466709   -7.2016441     12.57514  0.023287296  0.031929069            2 
   46000    1.2338582   -7.1818894    13.080127  0.023695882  0.031890449            1 
   47000    1.2367902   -7.1395048    13.558881  0.024040569   0.03187947            1 
   48000    1.2447689   -7.1613581    13.938482  0.024198753   0.03189461            3 
   49000    1.2660766   -7.2084833    14.317333  0.024349205  0.031908351            3 
   50000    1.2219374   -7.2068366    14.744125  0.024573541  0.031940367            1 
   51000    1.2403216   -7.1949904    15.183974  0.024810414  0.031982704            3 
   52000    1.2264331   -7.1505986    15.604536   0.02500727  0.032024535            2 
   53000    1.2491932   -7.1729262    15.891123  0.024986042  0.032041232            2 
   54000    1.2071258   -7.1704263    16.236441  0.025056236  0.032037749            2 
   55000    1.2179793   -7.1810491    16.594269  0.025142831  0.032039493            3 
   56000    1.2318686    -7.184703    16.960835  0.025239337  0.032031652            4 
   57000    1.2506872   -7.1894262    17.405705  0.025446937  0.032036551            2 
   58000    1.2450411   -7.2292563    17.798043    0.0255719  0.032063786            2 
   59000    1.2270014   -7.2338979    18.159676  0.025649259  0.032071791            3 
   60000    1.2416151   -7.1867692    18.540921  0.025751279  0.032072913            1 
   61000    1.2414469   -7.2056553    18.922411  0.025850288   0.03206507            1 
   62000    1.2334787   -7.2022631    19.205115  0.025813327  0.032050362            2 
   63000     1.236005   -7.1905067    19.652366  0.025995193  0.032037461            1 
   64000    1.2334287   -7.1827018    20.028616  0.026078927  0.032017436            3 
   65000    1.2529978   -7.1753316    20.429365  0.026191493  0.032014433            1 
   66000    1.2155126   -7.1912869     20.71285  0.026152588  0.032004298            2 
   67000    1.2259531   -7.1907712    21.151602  0.026307963  0.031994851            1 
   68000    1.2401084   -7.1720976    21.564502  0.026427086  0.031988031            1 
   69000    1.2292012   -7.2114564    21.887601  0.026434301   0.03198795            1 
   70000    1.2076574   -7.1956452     22.34462  0.026600738   0.03198945            1 
   71000    1.2274672   -7.2065722    22.792939  0.026752275  0.031995319            2 
   72000    1.2100772   -7.2055147    23.059722  0.026689493  0.031993591            2 
   73000    1.2359639   -7.2521651    23.361994  0.026668943   0.03197903            2 
   74000    1.2159454   -7.1847556    23.746806  0.026741899  0.031954556            1 
   75000    1.2036097   -7.1790157    24.026941  0.026696601  0.031929584            1 
   76000    1.2187377   -7.2272422    24.404447  0.026759262   0.03190969            2 
   77000    1.2036987   -7.2479317    24.758345  0.026794745  0.031890725            3 
   78000    1.2306453   -7.2605359    25.162008  0.026882487  0.031866366            3 
   79000    1.2226715   -7.2427626    25.606789   0.02701138  0.031852125            2 
   80000    1.2421103   -7.2258541     25.96537   0.02704726  0.031837072            4 
   81000    1.2277984   -7.2390817    26.184273  0.026938552  0.031811496            2 
   82000    1.2150616   -7.1791685    26.699066  0.027133197  0.031782665            1 
   83000    1.2542289   -7.2313712     26.96967  0.027077982  0.031757529            1 
   84000      1.23257   -7.2242285    27.274416  0.027057953  0.031730837            2 
   85000    1.1960398   -7.1831822    27.582706  0.027041868  0.031695258            2 
   86000    1.2308854   -7.2083922    27.902541  0.027037346  0.031656463            1 
   87000    1.2072782   -7.2175711    28.308392  0.027115318  0.031619804            1 
   88000    1.2124432   -7.1855424     28.60326  0.027086421  0.031585134            2 
   89000     1.266163   -7.2098572    28.995379  0.027149231  0.031548436            3 
   90000    1.2324192    -7.208908     29.23168  0.027066371  0.031514871            3 
   91000    1.2299568   -7.2241842    29.684021  0.027183169  0.031483228            1 
   92000    1.2212282   -7.1947735    29.966948  0.027143975  0.031448088            2 
   93000    1.2084694   -7.1976447    30.354082  0.027198998   0.03141471            1 
   94000    1.2126133   -7.2101761     30.84286   0.02734296  0.031386121            3 
   95000    1.2124189   -7.2435127    31.122948  0.027300832  0.031365048            3 
   96000    1.2108762   -7.1996092    31.661375  0.027483832  0.031344603            1 
   97000    1.2322915   -7.2283211     32.00659   0.02749707   0.03132811            2 
   98000    1.2024063   -7.2529724    32.468554  0.027609315  0.031318058            2 
   99000    1.2299391   -7.2144548    32.896276  0.027690468  0.031308026            2 
  100000    1.2007928   -7.2442462    33.269091  0.027724243  0.031303708            1 
  101000    1.1818628   -7.2612167    33.698053  0.027803674  0.031306465            1 
  102000    1.2081139   -7.1485372    34.325937  0.028044066   0.03131806            2 
  103000    1.2267152   -7.1905106    34.758631   0.02812187  0.031333883            2 
  104000    1.2119519   -7.2864934    35.051094  0.028085812  0.031352235            3 
  105000    1.2227002   -7.2325452     35.48342  0.028161444  0.031365187            2 
  106000    1.2429958   -7.2083749    35.752826  0.028107568  0.031370439            4 
  107000    1.2020548   -7.1647059    36.007178  0.028042973  0.031370257            2 
  108000    1.2190323   -7.2528701    36.257473  0.027976445  0.031365192            1 
  109000    1.1947464   -7.2230133    36.799318  0.028134035  0.031360808            3 
  110000    1.2348729   -7.2287115    37.028473  0.028051874  0.031359404            1 
  111000    1.1912777   -7.2663591    37.138237  0.027881559  0.031353077            7 
  112000    1.2081854   -7.2106891    37.758304  0.028093976  0.031345529            4 
  113000    1.2114168   -7.2321843    38.336494  0.028271751  0.031339227            1 
  114000    1.2078472   -7.2160118    38.479657  0.028128404  0.031337388            1 
  115000    1.2303828   -7.2238035    38.872514  0.028168488  0.031333355            4 
  116000    1.2237132   -7.2480108    39.260677  0.028204509  0.031330986            3 
  117000    1.2319081   -7.2125409    39.573489  0.028186246  0.031323393            4 
  118000    1.1929162   -7.2478339    40.056292  0.028288341  0.031315636            1 
  119000    1.1952688   -7.2050871    40.361848  0.028264599   0.03130953            1 
  120000    1.2045973    -7.250317    40.555548  0.028163575  0.031303297            3 
  121000    1.2189041   -7.2837086    41.131877  0.028327739  0.031298956            1 
  122000    1.1682246   -7.2437935     41.75611  0.028521933  0.031297217            2 
  123000    1.1869589   -7.2153047    42.092034  0.028517638  0.031297401            2 
  124000    1.1988191   -7.2421765    42.332341  0.028449154  0.031297757            2 
  125000     1.242454   -7.2755184    42.244677  0.028163118  0.031286533            1 
  126000    1.1578373   -7.2444795    42.573962  0.028157382  0.031267312            2 
  127000    1.2202359   -7.2561915    42.864364  0.028126223  0.031247721            2 
  128000    1.1831653   -7.2220027    43.265672  0.028167755  0.031226235            1 
  129000    1.1987219   -7.2428286    43.475744  0.028085106   0.03120504            2 
  130000    1.2153027   -7.2354636    43.925502  0.028157373  0.031184411            2 
  131000    1.2212144   -7.2328208    44.175199  0.028101271   0.03116251            2 
  132000    1.1929766   -7.2586044    44.402958  0.028032171  0.031135288            2 
  133000     1.206706    -7.237438    44.790258  0.028064071  0.031111114            2 
  134000    1.1924105   -7.2576083    45.189624     0.028103  0.031085735            1 
  135000    1.2126446   -7.3017567    45.216512  0.027911427  0.031058798            2 
  136000    1.1764214   -7.1604467    45.799238  0.028063258  0.031029081            1 
  137000    1.1598757   -7.2646975    46.087085  0.028033507  0.030999163            1 
  138000    1.1663668    -7.291291    46.314953  0.027967967  0.030967767            2 
  139000    1.1813674   -7.2626117      46.7393  0.028021163  0.030936617            2 
  140000    1.1933804   -7.2358041    47.043527  0.028002099  0.030908596            8 
  141000     1.214238   -7.2731665    47.537987  0.028095737  0.030883737            3 
  142000    1.1909539   -7.2674086    47.704361  0.027995517  0.030858309            1 
  143000     1.204958   -7.2635924    48.185725  0.028080259  0.030835629            3 
  144000    1.1782368   -7.2446526    48.652149  0.028155179  0.030815128            2 
  145000    1.1873486   -7.2200626    49.253542  0.028306633  0.030796162            2 
  146000    1.2075648   -7.2683417    49.430184  0.028213575  0.030779492            1 
  147000    1.1794723    -7.323666    49.774924  0.028217077  0.030762139            3 
  148000     1.190659   -7.2665226    50.106588  0.028213169  0.030747022            1 
  149000    1.2133745   -7.2540125    50.723623  0.028368917  0.030732959            1 
  150000    1.1695497   -7.2471697    50.945017  0.028302787   0.03071904            1 
  151000    1.2002837   -7.3256848    51.254833  0.028286332   0.03070459            2 
  152000    1.2014874   -7.2757549    51.649336  0.028316522  0.030690027            2 
  153000    1.1880961   -7.3005532    52.033505  0.028340689  0.030677923            1 
  154000    1.1712228   -7.3226672    52.470963  0.028393378  0.030667393            3 
  155000    1.1667498   -7.2875835    52.742453  0.028356157  0.030656414            2 
  156000    1.2045946   -7.3159064    53.088989  0.028359502  0.030644294            2 
  157000    1.1876085   -7.3000978    53.147476  0.028209913  0.030628266            2 
  158000    1.2018661    -7.208604    53.874971  0.028415069  0.030616074            2 
  159000    1.1774855   -7.2806735    53.895047   0.02824688  0.030601581            1 
  160000    1.2021381   -7.2835521    54.353086  0.028308899  0.030586352            1 
  161000    1.1873157   -7.3040099    54.740438   0.02833356  0.030573839            2 
  162000    1.1737962   -7.2756129    55.198587  0.028394335  0.030558592            2 
  163000    1.1938913   -7.3332689    55.303167  0.028273603  0.030545247            3 
  164000    1.1927562   -7.2775349    55.871038  0.028389755  0.030534639            2 
  165000    1.2003504   -7.2742206    56.443181  0.028506657  0.030524284            3 
  166000    1.1851162   -7.2785051     56.98532  0.028607088  0.030520075            3 
  167000    1.1875547   -7.2715047    57.533451  0.028709307  0.030518435            3 
  168000      1.18975   -7.2702227    58.035672  0.028787536  0.030518205            2 
  169000    1.1714937   -7.3072031    57.927501  0.028563856  0.030515979            2 
  170000    1.1905921   -7.3071175    58.414847  0.028634729  0.030511316            2 
  171000    1.1780832   -7.3219291    58.837774  0.028673379  0.030505672            2 
  172000    1.1924187   -7.2720723    59.088704  0.028628248  0.030502604            2 
  173000    1.1812466   -7.3152489    59.285522  0.028557573  0.030497693            1 
  174000     1.171817   -7.2874248    59.729419  0.028606044  0.030494366            2 
  175000    1.1737247   -7.2381766    60.169789   0.02865228  0.030490418            2 
  176000    1.2039065   -7.3238691    60.228146  0.028517115  0.030483613            2 
  177000    1.1788861   -7.3484581     60.55828  0.028511431  0.030477079            2 
  178000     1.196853   -7.3005052    60.996673  0.028556495  0.030469798            3 
  179000    1.1844922   -7.3029244    61.243286  0.028511772   0.03046254            7 
  180000    1.2074979   -7.3017247    61.718862  0.028573547  0.030452903            2 
  181000    1.1632755   -7.3094636    61.683227  0.028399276  0.030440816            2 
  182000    1.1600188    -7.312748    62.073039  0.028421721  0.030430003            1 
  183000    1.2062552   -7.3006503    62.409399  0.028419581  0.030417253            1 
  184000    1.1783806   -7.2768754    62.581725  0.028343172  0.030403569            1 
  185000    1.1870404   -7.3200406    62.903317  0.028334827  0.030386884            3 
  186000    1.1543055   -7.3301331    63.111591  0.028275802  0.030368833            1 
  187000    1.1921638   -7.3285942    63.444632  0.028273009   0.03035017            2 
  188000    1.1684834   -7.2870592    63.749915  0.028257941   0.03033208            4 
  189000    1.1715068   -7.2938843    64.032127   0.02823286  0.030313399            1 
  190000    1.1538762   -7.2964207    64.420944    0.0282548  0.030295675            2 
  191000    1.1922156   -7.3051344    64.789997  0.028267887  0.030278464            2 
  192000     1.194593   -7.2837559    65.269129  0.028328615  0.030261659            2 
  193000    1.1982441   -7.3260631    65.421882   0.02824779    0.0302438            1 
  194000    1.1703699   -7.3261428    65.944886  0.028326841  0.030226078            2 
  195000    1.1767206   -7.3418714    66.087445  0.028242498  0.030210005            2 
  196000    1.1672048   -7.3071614     66.81237   0.02840662  0.030196171            1 
  197000    1.1838263   -7.3266918    67.026972  0.028353203  0.030183764            3 
  198000     1.164276   -7.2951282    67.254697  0.028305849  0.030168854            1 
  199000    1.1938767   -7.2387028      67.8569  0.028415787  0.030154989            1 
  200000    1.1413981   -7.3247769    67.863489  0.028276454  0.030143458            2 
  201000    1.1505082   -7.3286983    68.061192  0.028217741  0.030128904            2 
  202000    1.1957497   -7.3158138    68.492641   0.02825604  0.030113982            1 
  203000     1.157776   -7.2929303    68.965662  0.028311027   0.03010003            2 
  204000    1.1425458   -7.3750574    68.814282  0.028110409  0.030082558            2 
  205000    1.1648535    -7.307505    69.653347  0.028314369  0.030065101            2 
  206000    1.1690914   -7.3552821    69.766831  0.028222828  0.030049968            1 
  207000    1.1919994   -7.3355605    70.193046   0.02825807  0.030035803            3 
  208000    1.1617176   -7.3580029    70.581256  0.028277747  0.030022501            2 
  209000    1.1626643   -7.3531861    70.878809  0.028261088  0.030009773            3 
  210000    1.1813844   -7.2981651     71.31077  0.028297924   0.02999646            3 
  211000    1.1888546   -7.3286886    71.693719  0.028315055  0.029983976            3 
  212000    1.1651708   -7.3324023     72.05117  0.028322001  0.029970051            1 
  213000    1.1701849   -7.3601977       72.354  0.028307512  0.029956954            3 
  214000     1.140107   -7.2802566     72.73072  0.028321931  0.029943119            2 
  215000    1.1620671   -7.3234296    72.984717   0.02828865  0.029929803            1 
  216000     1.138533   -7.3077523    73.530027  0.028368066   0.02991617            1 
  217000    1.1568531   -7.3683688     73.35972  0.028171936  0.029901654            2 
  218000    1.1754789   -7.3522981    73.740883  0.028188411  0.029886567            3 
  219000    1.1431086   -7.3511805    74.015749  0.028164288  0.029871202            1 
  220000    1.1670135   -7.3283586    74.169675  0.028094574  0.029853823            1 
  221000    1.1898157   -7.3046895    74.530497  0.028103506  0.029835233            1 
  222000    1.1717974   -7.2969883      74.7363  0.028054166  0.029815505            2 
  223000    1.1573593   -7.3385409    75.364896  0.028163265  0.029796904            3 
  224000    1.1552674   -7.3308407    75.746752  0.028179595  0.029779875            3 
  225000     1.136897   -7.2971778    76.167601  0.028210222  0.029766125            2 
  226000    1.1435273   -7.3484199    76.145059  0.028077086  0.029750239            3 
  227000    1.1609834    -7.343221    76.670676  0.028146357  0.029733899            3 
  228000       1.1872   -7.3824187    76.695484  0.028031975  0.029717034            1 
  229000     1.161199   -7.3782569    76.976927  0.028011982  0.029700665            2 
  230000    1.1509872   -7.3685525    77.314252   0.02801241  0.029683884            2 
  231000    1.1643945   -7.3809437    77.625761  0.028003521  0.029666335            4 
  232000    1.1420168   -7.3295114    78.011988  0.028021547  0.029648644            5 
  233000    1.1620588   -7.3361691    78.533894  0.028087945   0.02963247            3 
  234000    1.1304443   -7.3612682     78.97494  0.028124979  0.029616752            2 
  235000    1.1576178   -7.3511692    79.138582  0.028063327  0.029600756            4 
  236000    1.1691681   -7.3636991    79.565624  0.028095206  0.029586135            3 
  237000    1.1327801   -7.3814803    79.688597    0.0280199  0.029570914            1 
  238000    1.1542022   -7.3570327    80.074276  0.028037211  0.029555374            3 
  239000    1.1362475   -7.3232067    80.501076  0.028068716  0.029539283            2 
  240000    1.1585323   -7.3688257    80.504199  0.027952847  0.029523667            1 
  241000    1.1565399   -7.3850743    80.947753  0.027990233    0.0295071            5 
  242000    1.1641841   -7.3688897    81.336995  0.028008607  0.029490004            2 
  243000    1.1631997    -7.360798    81.336368   0.02789313  0.029472643            2 
  244000    1.1230324    -7.358725    81.511372  0.027838583   0.02945445            3 
  245000    1.1578183    -7.333684    81.638329  0.027768139  0.029434792            1 
  246000    1.1587633   -7.3972614    82.126762  0.027820719   0.02941692            2 
  247000    1.1591677    -7.296856    83.145453  0.028051772  0.029401478            2 
  248000    1.1746838   -7.3745025     82.94431  0.027871072  0.029387209            2 
  249000    1.1556447   -7.3407822    83.845548  0.028060759  0.029371952            2 
  250000    1.1431791    -7.381001     84.04858  0.028016193  0.029358243            1 
  251000    1.1719968   -7.3288454    84.368265  0.028010712  0.029345281            1 
  252000    1.1538817     -7.35249    84.793347  0.028040128  0.029334469            2 
  253000    1.1765249   -7.3629204     85.12662  0.028039071  0.029323605            2 
  254000    1.1576267   -7.3917341    85.306435  0.027987675  0.029310497            3 
  255000    1.1500007   -7.3689048    85.743189   0.02802065  0.029297765            2 
  256000    1.1180523   -7.3513707    86.068809   0.02801719  0.029285681            2 
  257000    1.1584494   -7.3705137    85.940046  0.027866422  0.029273124            1 
  258000    1.1442295   -7.3852444    86.369157  0.027897014  0.029259147            1 
  259000    1.1503063   -7.3947431    86.630933   0.02787353  0.029245321            2 
  260000    1.1506835   -7.4172953    86.746693  0.027803427  0.029230989            1 
  261000    1.1567696    -7.383937    87.425935  0.027913772  0.029217874            2 
  262000    1.1420078   -7.3610665    87.979256  0.027983224  0.029205578            3 
  263000    1.1876959   -7.3894686    88.167986  0.027936624  0.029193515            4 
  264000    1.1593428   -7.3779047    88.574172  0.027959019   0.02918136            3 
  265000    1.1725517   -7.4041676    88.967959  0.027977345  0.029169491            1 
  266000    1.1696938   -7.3887773    89.481555  0.028033068  0.029158291            3 
  267000    1.1601777   -7.3712731    89.519246   0.02793984  0.029146861            1 
  268000    1.1422029   -7.3721627    89.875271  0.027946291  0.029135057            2 
  269000    1.1270915   -7.3989914    89.637599  0.027768773   0.02912162            2 
  270000     1.161375   -7.4128191    89.999084  0.027777495  0.029106914            1 
  271000    1.1318148    -7.370819    90.343142  0.027780794  0.029092398            2 
  272000    1.1648673   -7.4105698    90.433731  0.027706413  0.029076809            1 
  273000    1.1443838   -7.4141836    90.856505  0.027733976  0.029059917            1 
  274000    1.1481686   -7.4079979    91.194967  0.027735695  0.029044201            1 
  275000    1.1570576   -7.3698372    91.632111  0.027767306  0.029029935            2 
  276000    1.1571883   -7.3726124     92.33846   0.02787997  0.029017687            5 
  277000    1.1504663   -7.3880553    92.307961  0.027770145  0.029004218            3 
  278000    1.1288775   -7.4117632    92.417779  0.027703171  0.028989795            3 
  279000    1.1372185   -7.4334488    92.696554  0.027687143   0.02897456            2 
  280000    1.1665793    -7.368773    93.457437  0.027814713  0.028961141            1 
  281000    1.1225738   -7.4089901    93.782311  0.027812073  0.028949417            2 
  282000    1.1227418   -7.4021267    93.856975  0.027735513  0.028936684            6 
  283000    1.1247657   -7.4233413     93.91066  0.027653316  0.028922154            1 
  284000    1.1455396   -7.3881367    94.510621   0.02773199  0.028907373            3 
  285000    1.1333225   -7.4266848    94.360955  0.027590922  0.028893135            1 
  286000     1.152303   -7.4303926    94.695855  0.027592032  0.028877421            1 
  287000    1.1260654   -7.3939505    95.354164  0.027687039  0.028862224            1 
  288000    1.1372225    -7.388015     95.59236  0.027659826  0.028847591            3 
  289000    1.1435687   -7.3846568    95.587484  0.027562712  0.028832303            2 
  290000    1.1565595   -7.4220874    95.530505  0.027451295   0.02881637            2 
  291000    1.1397882   -7.4029088     95.87331  0.027455129  0.028798898            4 
  292000    1.1475097   -7.4701117    96.224725  0.027461394  0.028782216            2 
  293000    1.1443883   -7.4212088    96.529691  0.027454406  0.028765564            1 
  294000    1.1166866   -7.4381126    96.623926  0.027387734  0.028748498            1 
  295000    1.1154708   -7.4392467    96.642348  0.027300098  0.028729537            2 
  296000    1.1364219   -7.3876506    97.056767   0.02732454  0.028710132            2 
  297000    1.0958576   -7.4164681    97.342123  0.027312605  0.028691523            2 
  298000    1.1450913   -7.4252761      97.5828  0.027288255  0.028672125            1 
  299000    1.1347656   -7.4886931    97.778626  0.027251568  0.028652088            2 
  300000    1.1414605   -7.4148434     98.21571  0.027282142  0.028632388            3 
  301000    1.1456048   -7.4300896    98.380261   0.02723706   0.02861443            1 
  302000    1.1188175    -7.404079     98.99796  0.027317318  0.028596916            4 
  303000    1.1486886    -7.423292    99.043732   0.02723975  0.028579278            2 
  304000    1.1280515   -7.4089406    99.716844  0.027334661  0.028561597            1 
  305000    1.1466567   -7.4256133    100.00092  0.027322655   0.02854399            1 
  306000    1.1156681   -7.4603568    99.876984  0.027199614  0.028526685            2 
  307000    1.1412161   -7.4384989    100.43295   0.02726193  0.028509129            2 
  308000    1.1353471   -7.4492495    100.43638  0.027174346  0.028491442            1 
  309000    1.1374988   -7.4043589    101.03332   0.02724739  0.028473951            2 
  310000    1.1316781   -7.4106054    101.25354  0.027218692  0.028455529            1 
  311000    1.1235819   -7.4854154    101.04131  0.027074305  0.028437229            2 
  312000    1.1204927   -7.4550083    101.21534  0.027034011  0.028417936            1 
  313000     1.125958   -7.4494791    101.46522   0.02701417  0.028398136            2 
  314000    1.1309035   -7.4404255    102.01847  0.027074965  0.028377818            2 
  315000    1.1187856   -7.4494215    101.96744  0.026975514  0.028357397            1 
  316000      1.16796   -7.4351859    102.00379  0.026899734  0.028336383            2 
  317000     1.143078   -7.4157226    102.79289  0.027022317  0.028315508            2 
  318000    1.1596963   -7.4178547    102.92988  0.026973238  0.028295724            3 
  319000    1.1189036   -7.4529384    103.21759  0.026963843  0.028274639            1 
  320000    1.1410155   -7.4377202    103.10271  0.026849664  0.028253444            1 
  321000    1.1190015   -7.4775221     103.5058  0.026870665  0.028232049            2 
  322000    1.1075486   -7.4306055    103.54546  0.026797479  0.028210872            3 
  323000    1.1216369   -7.4185073    104.16122  0.026873379  0.028190118            1 
  324000    1.1273769   -7.4226184    104.54021  0.026887913  0.028169632            2 
  325000    1.1242308   -7.4310404    104.65289  0.026834075  0.028148986            3 
  326000    1.1215396   -7.4404001    105.38204  0.026938149  0.028128753            3 
  327000    1.1338576   -7.4457729    105.16765  0.026801135   0.02810894            2 
  328000    1.1542855   -7.5150383    105.11752  0.026706687  0.028088515            4 
  329000    1.1096312   -7.4677615     106.0779   0.02686877  0.028069332            2 
  330000    1.1055098   -7.4944471    106.16192  0.026808566  0.028050035            3 
  331000    1.1090018     -7.47964    106.14857  0.026724212  0.028029702            2 
  332000    1.1185903    -7.498047    106.61522  0.026760849  0.028009214            3 
  333000    1.1249123   -7.4840163    107.11363  0.026805213  0.027989545            1 
  334000      1.11145   -7.4527943    106.81454  0.026650333  0.027969667            3 
  335000    1.1234003   -7.4258771    107.86778  0.026832782  0.027950403            3 
  336000    1.1351203   -7.5187329    107.51932  0.026666497  0.027930464            2 
  337000    1.1085279   -7.4418676    108.17447  0.026749373  0.027910934            1 
  338000    1.1240602   -7.4628835    108.40136  0.026726174  0.027891942            3 
  339000    1.1390851    -7.450321    108.82332  0.026751061  0.027873113            7 
  340000    1.1348829   -7.5105975    108.55593  0.026606845  0.027854646            2 
  341000    1.1027303   -7.4773206    108.99102  0.026635147  0.027835008            2 
  342000     1.111865   -7.4197301    109.30493  0.026633755  0.027815462            3 
  343000    1.1335024   -7.5025206    109.10812   0.02650829   0.02779532            2 
  344000    1.0970688   -7.4652498    110.05141  0.026659741  0.027775286            1 
  345000    1.1037545   -7.4812422    109.74171  0.026507659  0.027755386            1 
  346000    1.1293391   -7.4816308    110.64162  0.026647789  0.027736351            3 
  347000    1.1091086   -7.4778493    109.99843   0.02641653  0.027716587            1 
  348000    1.1083168   -7.4471351     110.7404  0.026518295  0.027695903            2 
  349000    1.1210528   -7.4751344    110.62255  0.026414171  0.027675354            1 
  350000    1.0958852   -7.5044786    110.60758  0.026335137  0.027654626            1 
  351000    1.1231429   -7.4296083    111.80801  0.026545111  0.027634228            3 
  352000    1.1040264   -7.5120338    111.77023  0.026460755  0.027614404            2 
  353000    1.0826639     -7.49847    111.82514  0.026398757  0.027594414            2 
  354000    1.0915983   -7.4527989    112.26283   0.02642722  0.027575371            2 
  355000    1.1431287   -7.4566036    112.18884  0.026335407  0.027555226            2 
  356000    1.1079111   -7.5046948    113.11549  0.026478345  0.027534827            3 
  357000    1.1137138   -7.4899374    112.98403   0.02637349  0.027514599            3 
  358000    1.0940834   -7.4961325    113.80951  0.026491972  0.027495818            4 
  359000    1.1229683   -7.4781741    113.53157  0.026353661  0.027477545            2 
  360000    1.1206959   -7.5357183    113.89762  0.026365189  0.027458899            4 
  361000    1.1176133   -7.5014497    113.88536  0.026289325  0.027439352            1 
  362000    1.0880801   -7.5005789    113.95957  0.026233786   0.02741962            2 
  363000    1.1137527   -7.4780708    114.57148  0.026301992  0.027399578            3 
  364000    1.0962985   -7.4665359     114.4956  0.026212363  0.027379299            1 
  365000    1.1125916   -7.4889161    114.86024    0.0262238  0.027358173            5 
  366000    1.1075206   -7.4929757    115.51914  0.026302172  0.027337829            1 
  367000    1.0974013   -7.4862371    115.57414  0.026242993  0.027318105            4 
  368000    1.1164806   -7.4673988     115.8037  0.026223663  0.027298657            1 
  369000    1.0760486   -7.4978777    116.08436  0.026215981  0.027279071            4 
  370000    1.1044108   -7.5183693    116.66945  0.026276903  0.027260326            6 
  371000    1.0988891   -7.5357417    116.61243  0.026193267  0.027241568            3 
  372000     1.111853   -7.4425547    117.12943  0.026238672  0.027222771            2 
  373000    1.0853201   -7.4370988    117.17397  0.026178279  0.027203902            3 
  374000     1.094356   -7.4841857    117.04049  0.026078541  0.027184907            5 
  375000     1.103319    -7.502646     117.4726  0.026105023  0.027164679            2 
  376000     1.100834   -7.4867924    117.85636  0.026120647  0.027144905            3 
  377000    1.1098231   -7.4962918    117.88705  0.026058145  0.027125199            4 
  378000    1.0973488   -7.5293032    118.03261  0.026021298  0.027105076            2 
  379000    1.1130897   -7.5109278     117.8172  0.025905277  0.027083713            1 
  380000    1.1279036   -7.5214782    118.29357  0.025941572  0.027062489            1 
  381000    1.1111134   -7.5161503    118.62557    0.0259461   0.02704191            2 
  382000    1.0903099   -7.4978496    118.93656  0.025946021  0.027022155            2 
  383000      1.10072   -7.4865892    119.19541  0.025934597  0.027002146            2 
  384000    1.1036941    -7.513298    119.31151  0.025892254  0.026981616            2 
  385000    1.1037277   -7.5377634    119.56844  0.025880615  0.026960844            1 
  386000    1.0919733   -7.5211201    120.07854  0.025923691  0.026940024            1 
  387000    1.0895523   -7.5517871    119.65784  0.025766116  0.026918827            3 
  388000    1.0934294   -7.5038338    120.50223  0.025881063  0.026897481            1 
  389000    1.0766594   -7.5655337    120.30571  0.025772431  0.026876651            6 
  390000    1.1176187    -7.544861    121.05789   0.02586707  0.026855731            2 
  391000    1.0707134    -7.539668    120.41538  0.025663977  0.026834959            4 
  392000    1.0873684   -7.5917765    120.60162  0.025638099   0.02681354            2 
  393000    1.0996786   -7.5071669    121.86728  0.025841239  0.026793629            3 
  394000    1.1029931   -7.4494623    122.11334  0.025827694  0.026773748            1 
  395000    1.0875308   -7.5031623    122.08026   0.02575533  0.026753584            1 
  396000    1.1247363   -7.5060142    122.43008  0.025763905  0.026733567            2 
  397000    1.1062303   -7.5168889    122.56591  0.025727521  0.026713545            4 
  398000    1.1091442   -7.5273223    122.91483  0.025735935  0.026693329            4 
  399000    1.1042094   -7.5096317    123.42971  0.025778971  0.026673587            2 
  400000    1.0770269   -7.5340278    123.41083  0.025710589  0.026654201            2 
  401000    1.1058388   -7.5110025    123.62431  0.025690837  0.026634766            2 
  402000     1.087342   -7.5151609    123.86576  0.025676983  0.026615372            3 
  403000    1.1027354   -7.5353619    123.73452  0.025586128  0.026595942            1 
  404000    1.0947325   -7.5352478    124.11637  0.025601562  0.026576517            2 
  405000     1.089689   -7.5766149    124.50559  0.025618434  0.026557375            1 
  406000    1.0863972     -7.49669    125.38327  0.025735483  0.026539224            4 
  407000    1.1074098   -7.5256176    125.10315  0.025614896  0.026521322            6 
  408000    1.0965768   -7.5388325    125.15208  0.025562107  0.026502671            2 
  409000    1.1051573   -7.4996703    126.24723  0.025722745  0.026483891            3 
  410000    1.0890877   -7.5193872    125.82632  0.025574455  0.026465289            2 
  411000    1.0990643   -7.5246354    126.72982  0.025695421  0.026446596            2 
  412000    1.0919463   -7.5629612    126.02043  0.025489568  0.026427496            2 
  413000     1.096515   -7.6167466    125.66521  0.025356176  0.026407335            2 
  414000    1.1213874   -7.5753287    126.55416  0.025473865  0.026386996            3 
  415000     1.109697   -7.5426229    126.32424  0.025366312  0.026366455            5 
  416000     1.104551   -7.5824429     126.6519  0.025370974  0.026346277            3 
  417000    1.0828484   -7.5232105     126.9078  0.025361271  0.026325933            1 
  418000    1.0819731   -7.5267018    127.57828  0.025434267  0.026306006            1 
  419000    1.0928399   -7.5437803    127.17691  0.025293737  0.026286207            1 
  420000    1.1118955   -7.5480913    127.83124  0.025363342  0.026266329            3 
  421000     1.089217   -7.5540681    127.69595  0.025276315  0.026246819            2 
  422000    1.0907612   -7.5467357     127.9709  0.025270714  0.026226309            3 
  423000    1.0995134   -7.5628844    128.45729  0.025306795  0.026206506            4 
  424000    1.0854675   -7.5531698    128.68335  0.025291539  0.026186732            2 
  425000    1.0654715   -7.5372212    128.80593  0.025256064  0.026167246            3 
  426000    1.1007013   -7.5490631    128.79227  0.025194107  0.026147443            5 
  427000    1.1022973   -7.5724768     129.1911  0.025212939  0.026128055            2 
  428000    1.0991907   -7.5583454    129.49351  0.025212911  0.026108507            4 
  429000    1.0805703   -7.5256698    129.95887  0.025244536  0.026089215            3 
  430000     1.085501   -7.5557277    129.35273  0.025068358   0.02606917            2 
  431000    1.0904265   -7.5332436    130.22863   0.02517955  0.026048799            2 
  432000    1.0787576   -7.5706523    130.70189  0.025212555  0.026029467            4 
  433000    1.0575494   -7.5472032    130.85143  0.025183107  0.026010317            3 
  434000    1.0692919   -7.5786768    130.64736  0.025085899  0.025990721            2 
  435000    1.0532546   -7.5780548    131.23035  0.025139913  0.025971821            2 
  436000    1.0922591    -7.544604    131.44761  0.025123779  0.025952597            2 
  437000     1.052292    -7.584119    131.71818  0.025117883  0.025933521            2 
  438000    1.1109542   -7.5853521    131.62296   0.02504242  0.025914233            4 
  439000    1.0758631   -7.5555745    131.85611  0.025029633  0.025895023            1 
  440000    1.0796565   -7.5741088    132.02637  0.025004993  0.025875798            1 
  441000    1.0990686   -7.5918102    132.27857  0.024995951  0.025856626            3 
  442000    1.1099636   -7.5676947    133.05633  0.025086035  0.025837736            3 
  443000    1.0861842   -7.5477347    132.98974  0.025016881   0.02581847            1 
  444000    1.0871952   -7.5200846    133.25642  0.025010589  0.025799921            3 
  445000    1.0785918   -7.6048061    133.06705  0.024918924  0.025780822            1 
  446000     1.069575   -7.5473995      133.835   0.02500654  0.025761917            2 
  447000    1.0809984   -7.5814064    133.89845  0.024962425  0.025743497            3 
  448000    1.0849372   -7.6165286    134.32641  0.024986311  0.025724901            2 
  449000    1.0690567   -7.5681922    134.35222  0.024935452   0.02570643            3 
  450000    1.0571183   -7.5129056    135.00584  0.025001081   0.02568787            5 
  451000    1.0783584   -7.5877678    134.55686  0.024862687  0.025669473            3 
  452000    1.0535066    -7.625817    134.66934  0.024828417  0.025650986            5 
  453000    1.0757758   -7.5903889    135.25283  0.024880947  0.025632518            7 
  454000    1.0904933   -7.6595857    134.80693  0.024744296  0.025613591            2 
  455000    1.0661407   -7.5852857    135.35182  0.024789711  0.025594574            2 
  456000    1.0848763   -7.5634764    135.74689  0.024807546  0.025576384            2 
  457000     1.078592   -7.6142311    136.28144  0.024850736  0.025558107            3 
  458000    1.0533366   -7.5436508    136.75196  0.024882089  0.025540277            3 
  459000     1.056241   -7.5721037    136.99706  0.024872379  0.025522967            1 
  460000    1.0752199   -7.5989797    137.12786  0.024842004  0.025505616            2 
  461000    1.0331475   -7.5905562      137.363  0.024830622  0.025487693            6 
  462000    1.0485154   -7.6166211      137.018  0.024714647  0.025469915            4 
  463000    1.0614543   -7.5825784    138.03619  0.024844527  0.025452557            2 
  464000    1.0662423   -7.6006814     138.0408   0.02479181  0.025435224            2 
  465000    1.0505248   -7.5873526    138.23527  0.024773346  0.025417652            1 
  466000    1.0429491   -7.6419382    138.34832  0.024740401  0.025400215            4 
  467000    1.0637977   -7.6082365      138.867  0.024779979  0.025382943            3 
  468000    1.0595824   -7.5841445    139.21872  0.024789658  0.025365832            3 
  469000    1.0597827   -7.5780885     139.3104  0.024753092  0.025349227            2 
  470000    1.0533465   -7.6730959    138.61947  0.024577921  0.025331652            2 
  471000    1.0562188    -7.611237    138.98082  0.024589671  0.025313035            4 
  472000    1.0832503   -7.5862168    139.22738  0.024581105  0.025294884            2 
  473000    1.0402609   -7.5946274    139.55929  0.024587612  0.025276714            1 
  474000    1.0740368   -7.5633791    140.05705  0.024623251  0.025258509            1 
  475000    1.0655067    -7.568176    140.15129  0.024587945  0.025240237            2 
  476000    1.0609422   -7.6085931    139.57715  0.024435776  0.025221897            4 
  477000    1.0659548   -7.6433657    140.13331   0.02448171  0.025203144            2 
  478000    1.0451505   -7.6369206    140.15076  0.024433536  0.025184226            2 
  479000    1.0815647   -7.6286749    140.57591  0.024456491   0.02516518            3 
  480000    1.0749652   -7.6308196     140.1924  0.024338959  0.025145766            8 
  481000    1.0519886   -7.5954411    140.95466  0.024420419  0.025126857            2 
  482000    1.0536969   -7.6018344    141.35292  0.024438609  0.025108563            3 
  483000     1.061244   -7.6145975    141.83376  0.024470973  0.025090371            4 
  484000    1.0487247   -7.6308824    141.65164  0.024389057  0.025072301            1 
  485000    1.0654252   -7.6221393    141.86467  0.024375374  0.025053976            1 
  486000    1.0570079   -7.5954763    141.81454  0.024316621  0.025035751            2 
  487000    1.0634559   -7.5786097    142.46627  0.024378211  0.025017632            3 
  488000    1.0828028   -7.6357181    142.30122  0.024300072  0.024999605            3 
  489000    1.0584257   -7.5981782    142.60647  0.024302397  0.024981343            2 
  490000    1.0672227   -7.6242343    142.88798  0.024300678  0.024962884            1 
  491000    1.0599715   -7.5802241    143.23943  0.024310833  0.024944715            3 
  492000    1.0564089    -7.664644    142.71115  0.024171943    0.0249263            3 
  493000    1.0535428   -7.5879973    143.01135  0.024173657  0.024907418            4 
  494000    1.0423457   -7.6384438    143.47823  0.024203479  0.024888701            3 
  495000    1.0421492   -7.6594554    143.61888  0.024178263  0.024869678            1 
  496000    1.0800059   -7.5767331      144.133  0.024215893  0.024850711            2 
  497000    1.0657863   -7.6454773    143.78743  0.024109228  0.024831801            1 
  498000    1.0631281   -7.6423549    144.42062  0.024166771  0.024813354            1 
  499000     1.068314   -7.6114493    144.42708  0.024119418  0.024794885            5 
  500000    1.0402614   -7.6846141    144.32854  0.024054757  0.024775678            4 
  501000     1.069434   -7.6205014    144.32731  0.024006539   0.02475626            1 
  502000    1.0555341   -7.6178832    144.64996  0.024012277  0.024736764            5 
  503000    1.0684649   -7.6184744     144.7799  0.023986066  0.024717807            4 
  504000    1.0351348   -7.6333863    145.17237  0.024003369  0.024699102            2 
  505000    1.0576163   -7.6338288    145.25256  0.023969069  0.024679848            1 
  506000    1.0494819   -7.6189348     145.9321  0.024033613  0.024661073            3 
  507000     1.057132   -7.6163628    145.99407  0.023996395  0.024642473            4 
  508000    1.0587079   -7.6091982    146.18454  0.023980404  0.024623449            2 
  509000    1.0504598   -7.6239698    145.83944  0.023876791  0.024604704            2 
  510000    1.0475849   -7.6289724    146.51571  0.023940476   0.02458608            6 
  511000    1.0484938   -7.6839296    146.38248  0.023871899   0.02456733            2 
  512000    1.0419708   -7.6473999    147.03919   0.02393216  0.024548737            8 
  513000     1.066412   -7.6771792    147.04264  0.023886069  0.024530338            2 
  514000    1.0427924   -7.6602647    147.03012  0.023837568  0.024511847            2 
  515000     1.038015   -7.6595757    146.84719  0.023761682  0.024492829            1 
  516000    1.0441707    -7.703631    147.23307   0.02377795  0.024474088            2 
  517000    1.0642088   -7.6565222    147.63488  0.023796725  0.024455181            1 
  518000    1.0422713   -7.6642375     147.8832  0.023790733  0.024436812            3 
  519000    1.0580665    -7.657382    148.30103  0.023811983  0.024418605            2 
  520000    1.0303126   -7.6407413    148.40505  0.023782861  0.024400244            4 
  521000    1.0728737     -7.62458    148.54071   0.02375891  0.024381734            2 
  522000    1.0282371   -7.6238304    149.02339  0.023790451  0.024363292            3 
  523000    1.0544446   -7.6275068    149.00933  0.023742722  0.024344945            6 
  524000     1.048478   -7.6310254    149.43804  0.023765592  0.024326571            2 
  525000    1.0484154   -7.6461732    149.78057  0.023774694  0.024308577            1 
  526000    1.0316362   -7.6872441    149.27274  0.023649039  0.024290457            4 
  527000    1.0646782   -7.6780889    149.58187  0.023653047  0.024272161            3 
  528000    1.0404298   -7.6906685    149.76472  0.023637109  0.024253773            3 
  529000    1.0432673   -7.6427953    150.16492  0.023655469  0.024235239            1 
  530000    1.0288191   -7.6601759     150.2691  0.023627218  0.024217141            3 
  531000    1.0551535   -7.6562162    150.72986  0.023655031   0.02419892            2 
  532000    1.0572278   -7.6651869    150.68977  0.023604287  0.024180809            3 
  533000    1.0443655   -7.6640699    150.64218  0.023552561  0.024162254            5 
  534000    1.0369597   -7.6585094    150.40787   0.02347189  0.024143505            4 
  535000    1.0372437   -7.6478599    151.15065  0.023543714  0.024124848            1 
  536000    1.0572266   -7.6589353    150.97922  0.023473137  0.024106317            2 
  537000    1.0559705   -7.6830751    151.75196  0.023549342  0.024088012            2 
  538000    1.0377402   -7.6509638    151.64199  0.023488537  0.024070063            2 
  539000    1.0278409    -7.694788    151.71001  0.023455475  0.024051532            1 
  540000    1.0523492   -7.6715232    151.71106  0.023412201  0.024033276            2 
  541000      1.02025   -7.6725829    152.00863  0.023414761  0.024014841            1 
  542000    1.0354577   -7.6844609    152.28941   0.02341473  0.023996545            2 
  543000    1.0553993   -7.7212059    152.16889  0.023353113  0.023977697            1 
  544000    1.0307472   -7.6860396    152.29094  0.023328882  0.023959121            2 
  545000    1.0305658   -7.6829401    153.14149  0.023416129  0.023940883            5 
  546000    1.0251718    -7.655635    152.87263  0.023332209  0.023923079            1 
  547000    1.0352075   -7.6682226    153.26505  0.023349337  0.023905138            2 
  548000    1.0393614   -7.7018941    153.18077  0.023293913  0.023887268            3 
  549000    1.0188513   -7.6449988    153.93523  0.023366003  0.023869471            3 
  550000    1.0432297   -7.6537446     154.0739  0.023344531   0.02385136            2 
  551000    1.0150687   -7.6873404     154.4253  0.023355309  0.023833691            2 
  552000    1.0299011   -7.7164963    154.20853  0.023280274  0.023816039            4 
  553000    1.0311428    -7.693321    154.11808  0.023224545  0.023797815            5 
  554000    1.0194511   -7.6713515    154.65091  0.023262772   0.02377988            3 
  555000     1.060589   -7.6933379    154.44175  0.023189452  0.023762049            5 
  556000    1.0085488   -7.7029135    154.48005  0.023153484  0.023743961            3 
  557000    1.0556259   -7.7091451    154.76253  0.023154179  0.023725291            2 
  558000    0.9965074   -7.6999754    155.14675  0.023170064  0.023706818            2 
  559000    1.0183198   -7.6980981    154.76892   0.02307229  0.023688312            3 
  560000    1.0514613     -7.66451    155.09709  0.023079924  0.023669965            3 
  561000    1.0300727   -7.7225748    155.20437   0.02305472  0.023651195            5 
  562000    1.0127253   -7.7092936    155.55991  0.023066417  0.023632568            5 
  563000    1.0474889   -7.6992049    155.95345  0.023083696  0.023614366            3 
  564000    1.0371443   -7.7255859    155.60102  0.022990694  0.023596345            2 
  565000    1.0443705    -7.688428      156.791  0.023125516  0.023578485            1 
  566000    1.0194885   -7.7143373    156.46417  0.023036539  0.023560826            3 
  567000    1.0226329   -7.6789668    156.91847   0.02306268  0.023542962            2 
  568000    1.0348465   -7.6726359    157.17921   0.02306033  0.023525175            3 
  569000     1.036136   -7.7186877    156.70246  0.022949979  0.023507506            4 
  570000    1.0153483   -7.7157441    156.80958  0.022925376  0.023489608            2 
  571000    1.0290607   -7.7041956    157.35442  0.022964742  0.023471948            3 
  572000    1.0216789    -7.707537    157.68464  0.022972704  0.023454672            2 
  573000    1.0417013   -7.7278541    157.73026  0.022939247  0.023437126            5 
  574000    1.0367515   -7.7355942    157.87835  0.022920783   0.02341923            5 
  575000    1.0162956   -7.7534032    157.80202  0.022869858  0.023401422            5 
  576000    1.0118174   -7.6939407    158.63519  0.022950693  0.023383566            1 
  577000    1.0112692   -7.7064228    159.07344  0.022974212  0.023366079            3 
  578000    1.0271184   -7.7679037    158.47786  0.022848595  0.023348538            2 
  579000    1.0214908   -7.7425489    159.02286  0.022887573   0.02333092            5 
  580000    1.0344568   -7.6894967    159.50695  0.022917666  0.023313992            4 
  581000    1.0237514   -7.7116511    160.09125  0.022962027  0.023296734            2 
  582000    1.0195485   -7.7263669     159.6517  0.022859636  0.023279617            2 
  583000    1.0190295   -7.7209575    159.33072  0.022774546  0.023262696            2 
  584000    1.0022182   -7.7387387    159.87672  0.022813458  0.023245616            3 
  585000    1.0267439   -7.7405267    160.36263  0.022843679  0.023228281            3 
  586000    1.0650989   -7.7212188    160.29747   0.02279543   0.02321116            4 
  587000    1.0008695   -7.6932962    160.82363  0.022831294  0.023194365            3 
  588000    1.0250838   -7.7499437    160.37216   0.02272848   0.02317749            4 
  589000    1.0140207    -7.763239    160.57686  0.022718854  0.023160366            2 
  590000    1.0001939   -7.7103107    161.31108  0.022784051  0.023143619            5 
  591000    1.0269947   -7.7617272    161.06841  0.022711282  0.023126925            5 
  592000    1.0280124   -7.7324026    161.84486  0.022782215  0.023110296            2 
  593000    1.0045014   -7.7333363    162.15136  0.022786869   0.02309405            6 
  594000    1.0261253   -7.7347773    162.51617  0.022799688  0.023078001            4 
  595000    1.0199903    -7.778136    162.14597   0.02270952  0.023061818            2 
  596000    1.0015635   -7.7530882    162.21883  0.022681603  0.023045404            5 
  597000    1.0191734   -7.7397902    162.66388  0.022705734  0.023029196            3 
  598000    1.0136857    -7.740245    163.00459  0.022715244  0.023013141            4 
  599000    1.0384029   -7.6959472    163.56332  0.022755053   0.02299742            2 
  600000     1.003085   -7.7532132    163.52902  0.022712363  0.022981402            2 
  601000    1.0218299    -7.738799    163.65961   0.02269268  0.022965315            2 
  602000     1.010368   -7.7514571    163.75163  0.022667723  0.022949831            1 
  603000    1.0182657   -7.7573994    164.48892  0.022732023  0.022934457            2 
  604000      1.00992   -7.7870176    164.01965  0.022629643  0.022918764            2 
  605000    1.0182024   -7.7581628    164.13095  0.022607569   0.02290309            3 
  606000    1.0163991   -7.7867898    164.89295  0.022675049  0.022887352            2 
  607000    1.0163775   -7.7656364    163.96378  0.022510129   0.02287135            6 
  608000    1.0082881   -7.7535244    164.81706  0.022590057  0.022855633            3 
  609000    1.0322681   -7.7651189    164.71683  0.022539248  0.022840241            4 
  610000   0.99797655   -7.7657332    164.91369  0.022529192  0.022824532            3 
  611000    1.0135604   -7.7314267    165.36407  0.022553747  0.022808746            5 
  612000    1.0277827   -7.7561364    165.59209  0.022547943   0.02279295            5 
  613000   0.99047318   -7.7386053    166.03993  0.022572041  0.022777151            3 
  614000   0.99142998   -7.7475148    166.18174  0.022554525  0.022761628            3 
  615000   0.99724614   -7.7777564    165.26335  0.022393407  0.022746078            3 
  616000    1.0180348   -7.7425519    166.04383  0.022462639  0.022730209            4 
  617000    1.0064345   -7.7553771    165.65836   0.02237417  0.022714049            2 
  618000    1.0117852   -7.7565581    166.41215   0.02243961  0.022698164            2 
  619000    1.0004127   -7.8055289    166.50677  0.022416097  0.022682278            2 
  620000    1.0150477   -7.7307713    166.92098  0.022435615  0.022666737            2 
  621000    1.0187887   -7.7774571    166.91848  0.022399152  0.022651256            3 
  622000    1.0180627   -7.7663995    167.05696  0.022381694  0.022635503            5 
  623000   0.98921583   -7.8010957    167.58389  0.022416251  0.022619987            1 
  624000    1.0071726   -7.7753058    167.61302  0.022384217  0.022604758            4 
  625000   0.98499017   -7.7425047    167.70338  0.022360451  0.022589413            1 
  626000    1.0059109   -7.7798686    167.66456  0.022319563  0.022573808            4 
  627000   0.99777398   -7.7433198    168.67897  0.022418789  0.022558283            3 
  628000   0.99186026    -7.737128     168.4962  0.022358838  0.022542906            6 
  629000   0.98683091   -7.7518578    168.82351  0.022366654  0.022527719            2 
  630000   0.99463173   -7.8048114    168.74415  0.022320655  0.022512568            6 
  631000   0.97358452   -7.7974542    168.88385   0.02230373  0.022497281            4 
  632000    1.0141613   -7.8116795     168.6656  0.022239663  0.022481927            2 
  633000   0.98458462   -7.7703988    168.90274  0.022235748  0.022466422            2 
  634000   0.97555487   -7.8067131    169.18438  0.022237695  0.022450803            2 
  635000    1.0123083   -7.7782291    169.21961  0.022207298  0.022435096            2 
  636000   0.99888973   -7.7516272    169.86922  0.022257498  0.022419688            3 
  637000   0.97533596   -7.7489055    169.72741  0.022204004  0.022404098            1 
  638000   0.99060939   -7.7469449     169.5014  0.022139682  0.022388428            4 
  639000    1.0067417   -7.7698834    169.88353  0.022154869  0.022372791            1 
  640000    1.0082835   -7.7596543    169.94419   0.02212815  0.022357017            2 
  641000    1.0048687   -7.8012113    169.87412  0.022084519  0.022341085            5 
  642000   0.99417735   -7.8436367     169.1606  0.021957502  0.022324897            6 
  643000    1.0010331   -7.7825401    169.85274  0.022013056  0.022308519            1 
  644000   0.99277218   -7.7910164    169.96853  0.021993858  0.022292073            2 
  645000    1.0061734   -7.7758723    169.46553  0.021894771  0.022275577            2 
  646000    1.0046766   -7.7413121    170.38298  0.021979228  0.022259422            2 
  647000    1.0082423   -7.7665444     170.6179  0.021975516  0.022243303            2 
  648000    1.0048317    -7.787574    170.98773  0.021989163  0.022227358            3 
  649000    1.0074219    -7.726212    171.62635  0.022037282  0.022211668            6 
  650000    1.0201964   -7.7914561    171.09287  0.021934983  0.022195742            1 
  651000   0.98630287   -7.8085994    171.24651  0.021920956  0.022179729            2 
  652000   0.97844448   -7.7536643    171.73342  0.021949568  0.022164006            3 
  653000    1.0041992   -7.7786637    171.92326  0.021940181  0.022148332            2 
  654000   0.99671835   -7.7813962    171.28107  0.021824805  0.022132252            5 
  655000   0.97205599   -7.8131399    172.02919  0.021886665  0.022116074            1 
  656000    1.0227051     -7.78883    171.94881  0.021843091   0.02210005            5 
  657000   0.98552725   -7.7785034    172.47065  0.021876034  0.022084103            5 
  658000   0.99705182   -7.7802022    172.23408  0.021812826   0.02206823            4 
  659000   0.99387592   -7.8368697    171.59271  0.021698623  0.022051892            2 
  660000    1.0006373   -7.8471619    171.82057  0.021694516  0.022035516            8 
  661000    0.9787684   -7.8454222    172.02098  0.021686962   0.02201902            3 
  662000    1.0036354   -7.7920223    172.88336   0.02176276  0.022002832            1 
  663000   0.98444507    -7.816242    172.49871  0.021681588  0.021986598            5 
  664000   0.98505021    -7.771853    172.99656  0.021711416  0.021970517            4 
  665000   0.96829073   -7.8112283    172.60883   0.02163018  0.021954219            3 
  666000   0.98431593   -7.8137887    173.20043  0.021671725  0.021937842            8 
  667000    1.0052184   -7.7930347    173.51864  0.021678991  0.021921484            2 
  668000   0.99694289   -7.7855015    173.84183  0.021686854  0.021905325            2 
  669000   0.98179425    -7.784001    173.75673  0.021643838  0.021889242            3 
  670000   0.98073408   -7.8314935    173.63948   0.02159695  0.021873402            2 
  671000   0.99051327   -7.8296239    173.99573  0.021609008  0.021857501            2 
  672000    0.9816569   -7.8527122    174.86864  0.021685099  0.021841631            3 
  673000   0.97913737   -7.8283738    174.89944  0.021656691   0.02182621            2 
  674000   0.99341797   -7.7816885    175.40712  0.021687329  0.021810787            3 
  675000   0.98365693   -7.8172632    174.42933  0.021534485  0.021795406            3 
  676000   0.97561879   -7.8200534    174.68075  0.021533623  0.021779671           13 
  677000   0.98108268   -7.7907696    175.76977  0.021635865    0.0217642            4 
  678000   0.96759855   -7.8353515    174.67821   0.02146979  0.021748678            4 
  679000   0.98738283   -7.8214148    174.98889    0.0214763  0.021732868            1 
  680000   0.98830733   -7.8393122    175.29885  0.021482702   0.02171714            6 
  681000   0.98360066   -7.8275677    175.46674    0.0214717  0.021701419            2 
  682000   0.98105539   -7.8339874    175.60525  0.021457142  0.021685751            2 
  683000   0.96082139   -7.8430561     175.5663  0.021420974  0.021670037            5 
  684000    1.0025911   -7.8292289    175.45906  0.021376591  0.021653994            4 
  685000   0.99118383   -7.8477779    175.69331  0.021373882  0.021638158            4 
  686000   0.98247266   -7.8659073    176.16402  0.021399905   0.02162269            6 
  687000    0.9745287   -7.8231566    176.82685  0.021449156  0.021607192            4 
  688000   0.98769387   -7.8346986    176.61358  0.021392149   0.02159174            4 
  689000   0.98792268   -7.8497081    176.43263  0.021339215  0.021575873            4 
  690000     0.988846   -7.8865553    176.48692  0.021314846  0.021560043            2 
  691000   0.99438834    -7.845902    176.29461  0.021260806   0.02154416            5 
  692000   0.97971313   -7.8699932    176.77419  0.021287836   0.02152815            2 
  693000    0.9955752   -7.8659575    176.53492  0.021228345  0.021511994            5 
  694000   0.96873395   -7.8362017    177.25185  0.021283844  0.021495994            5 
  695000   0.96917805   -7.8130366    177.98817  0.021341507  0.021480187            2 
  696000    0.9769044   -7.8444068    177.39798  0.021240179  0.021464269            4 
  697000    0.9918346    -7.834746    177.50858  0.021222929   0.02144842            7 
  698000    0.9882235   -7.8617834     177.6806  0.021213061  0.021432691            2 
  699000   0.97026612   -7.8261376    178.14482  0.021238056  0.021417073            4 
  700000    0.9768725   -7.8426265    177.86845  0.021174815   0.02140152            1 
  701000    0.9456242   -7.8267736    178.00632  0.021160998  0.021385757            5 
  702000   0.99095873   -7.8584578    178.24225  0.021158862  0.021370037            4 
  703000   0.96066056   -7.8729058     178.0459  0.021105488  0.021354065            3 
  704000   0.97517733   -7.8667011    178.21569  0.021095607  0.021338054            3 
  705000   0.98672652   -7.8537918     178.1676      0.02106   0.02132178            2 
  706000   0.95703366   -7.8310803     178.7636  0.021100519  0.021305722            3 
  707000   0.98003372   -7.8751203    178.60721  0.021052241  0.021289702            4 
  708000   0.97903672   -7.8843174     178.1285   0.02096616  0.021273523            2 
  709000    0.9735091   -7.8306964    179.23895  0.021067108  0.021257199            3 
  710000   0.95958533   -7.8338983     178.9423  0.021002617  0.021241017            2 
  711000   0.94975507    -7.878903    178.86974  0.020964574  0.021224928            3 
  712000   0.95580126   -7.8302361    179.34254  0.020990466  0.021208777            4 
  713000   0.97669061   -7.8758169    179.08082  0.020930438   0.02119275            3 
  714000   0.98089005    -7.839801     179.8925  0.020995857  0.021176636            2 
  715000   0.96265691   -7.8860071      179.405  0.020909673  0.021160621            2 
  716000   0.95831556   -7.8307036    179.71997  0.020917129  0.021144624            4 
  717000    0.9771296    -7.856653    180.21722  0.020945749  0.021128613            3 
  718000   0.98421471   -7.8721463     179.6218   0.02084747  0.021112616            2 
  719000   0.96084293   -7.8580129    180.25155  0.020891464  0.021096838            2 
  720000   0.96809808   -7.8554777     180.2985  0.020867882  0.021081134            3 
  721000   0.97817107   -7.8743324     180.1701  0.020824099  0.021065279            4 
  722000   0.96585449   -7.8742243    179.99152  0.020774645  0.021049369            3 
  723000   0.96852821   -7.8586003    180.49691  0.020804162  0.021033396            4 
  724000   0.97398424   -7.8636708    180.66509  0.020794784  0.021017617            2 
  725000   0.94566839   -7.8438305    180.88316  0.020791168  0.021001583            4 
  726000    0.9643669   -7.8665436    181.12933  0.020790786   0.02098554            4 
  727000    0.9884181   -7.9011816    181.12992  0.020762256  0.020969507            3 
  728000   0.99495606   -7.8975902    180.54891  0.020667229   0.02095341            4 
  729000   0.96622322   -7.8973988    181.08841  0.020700549  0.020937324            2 
  730000    0.9786819    -7.884302    181.47395  0.020716205  0.020921362            5 
  731000   0.95623706   -7.8547725    181.94551  0.020741622  0.020905668            2 
  732000   0.95848459   -7.8460787    182.21504  0.020743971  0.020889928            2 
  733000   0.97323162   -7.8310501    182.52267  0.020750645  0.020874373            2 
  734000   0.96189922   -7.8987791    182.10594  0.020675061  0.020858689            4 
  735000   0.96774196   -7.8853985    182.26775  0.020665277  0.020842916           15 
  736000   0.97613671   -7.9206648    182.12236  0.020620738  0.020827211            6 
  737000   0.94555027     -7.92041    182.41055  0.020625345   0.02081135            2 
  738000   0.97903818   -7.8896734    182.56101  0.020614387  0.020795606            2 
  739000   0.95827108   -7.8569949    183.13027  0.020650685  0.020780061            4 
  740000   0.94204498   -7.8991824    182.97961  0.020605812  0.020764425            2 
  741000   0.94375565   -7.9009459    182.42878  0.020516057   0.02074855            5 
  742000   0.93466478   -7.9691825    182.88838  0.020540025  0.020732545            4 
  743000   0.96284107   -7.8987025    182.72494  0.020494048  0.020716447            2 
  744000   0.95624112    -7.885795    183.19601  0.020519267  0.020700505            2 
  745000   0.96452878   -7.9003412    183.25385  0.020498194  0.020684534            2 
  746000   0.97015904   -7.9191025     183.2974  0.020475581  0.020668662            2 
  747000   0.95939736   -7.9280315    183.22783  0.020440409  0.020652679            2 
  748000   0.97819334   -7.9206212    183.42014  0.020434507  0.020636754            3 
  749000   0.93865065   -7.9216796    183.27611    0.0203912  0.020620815            1 
  750000    0.9545067   -7.9139726    183.43567  0.020381742  0.020604954            5 
  751000    0.9450707   -7.9261056    183.84365  0.020399872  0.020588821            2 
  752000   0.93509159     -7.93659     183.5833  0.020343894   0.02057273            2 
  753000   0.94560733   -7.9390022     183.7496  0.020335281  0.020556702            4 
  754000   0.93709805   -7.9453272     182.8817   0.02021239   0.02054055            8 
  755000   0.97115316    -7.900095    184.13826  0.020324311  0.020524459            3 
  756000   0.95240675   -7.9621327    184.21617  0.020306016  0.020508462            3 
  757000   0.96673482   -7.9188193    184.17324  0.020274465  0.020492492            4 
  758000   0.94394309   -7.8988546    184.53705  0.020287714  0.020476564            6 
  759000   0.95484105   -7.9152534     184.7173  0.020280775  0.020460584            2 
  760000   0.95626795   -7.9540282     184.2396   0.02020171  0.020444372            4 
  761000   0.93996059   -7.9038446     184.9824  0.020256504  0.020428262            4 
  762000   0.95412841   -7.9186525    184.27588  0.020152655  0.020412208            2 
  763000   0.96552961   -7.9419424    184.90166  0.020194589  0.020396232            3 
  764000   0.93808502   -7.9504372    185.23165   0.02020415  0.020380343            2 
  765000   0.95601926   -7.9456309     185.0805  0.020161274    0.0203646            2 
  766000   0.95448275   -7.9582859    185.37337  0.020166815  0.020348741            3 
  767000   0.96150882   -7.9334201    185.19029  0.020120631  0.020332949            4 
  768000   0.96276412   -7.9171416     185.8655  0.020167698  0.020317099            2 
  769000   0.95168785   -7.9506718    185.64151  0.020117199  0.020301415            2 
  770000    0.9628587   -7.9422726    185.77837  0.020105884  0.020285529            5 
  771000   0.91852283   -7.9086718    186.28517  0.020134583  0.020269771            1 
  772000   0.92810829   -7.9268487    185.38361  0.020011184  0.020253894            3 
  773000   0.92672521   -7.9503574    185.54417  0.020002606  0.020237867            1 
  774000   0.94954233   -7.9197906    186.44643  0.020073905  0.020221914            2 
  775000   0.92387978   -7.9259412    186.17645  0.020018974  0.020206106            2 
  776000   0.93993988   -7.8642392    187.70727  0.020157567  0.020190475            1 
  777000   0.95401473   -7.9451579    186.29461  0.019980117  0.020174912            4 
  778000   0.95625719     -7.95714    186.61437  0.019988686  0.020159179            3 
  779000     0.949426   -7.9412151     186.5455  0.019955658  0.020143147            3 
  780000   0.94758207   -7.9121931    186.89076  0.019966962  0.020127023            8 
  781000   0.93879014   -7.9249404    187.28397  0.019983352  0.020110849            3 
  782000   0.93954334   -7.9679221    186.31208  0.019854229  0.020094651            4 
  783000   0.92477854   -7.9949952    186.21678  0.019818729  0.020078296            3 
  784000   0.92223735   -7.9929615    186.50137    0.0198237  0.020061944            2 
  785000   0.96161358   -7.9853181    187.00138  0.019851527  0.020045816            2 
  786000   0.96085917    -7.943723    187.22173  0.019849632  0.020029932            6 
  787000   0.95034012   -7.9141486     187.3306  0.019835938  0.020013968            2 
  788000   0.94361281   -7.9524837    187.19306   0.01979622  0.019997865            4 
  789000   0.92845197   -7.9261752     187.1914  0.019770955  0.019981755            3 
  790000    0.9608217   -7.9300952    187.45403  0.019773632  0.019965688            3 
  791000   0.93190964   -7.9877255    186.92334  0.019692724  0.019949412            4 
  792000    0.9260392   -7.9808956     187.3772  0.019715614  0.019933131            2 
  793000   0.96365626   -7.9749487    187.44551  0.019697931  0.019916733            3 
  794000   0.95072658   -7.9867075    187.36185  0.019664342  0.019900359            3 
  795000   0.93456055   -7.9665155    187.45322  0.019649184    0.0198842            9 
  796000   0.91596664   -7.9715181     187.7002  0.019650356  0.019867948            7 
  797000   0.92177036   -7.9684565    187.48588  0.019603291  0.019851752            1 
  798000    0.9588235   -7.9748919    187.62208  0.019592949   0.01983545            1 
  799000   0.93870139   -7.9062081    188.51326  0.019661375  0.019819129            3 
  800000   0.94911929   -7.9931027    187.84227  0.019566903   0.01980297            5 
  801000   0.95303523   -7.9722274    188.32241  0.019592427  0.019786663            3 
  802000   0.93580417   -7.9541716    188.48528  0.019584921  0.019770433            2 
  803000   0.94859422    -7.941526    188.83334  0.019596653  0.019754268            1 
  804000    0.9307599   -7.9632567    188.48706  0.019536386  0.019738092            7 
  805000   0.93645138   -7.9802552    188.27875  0.019490553  0.019721917            3 
  806000   0.92236654   -7.9586218    188.65761  0.019505543  0.019705847            3 
  807000   0.95377765    -7.965383    189.08747  0.019525761  0.019689768            3 
  808000   0.93441131   -8.0041918    188.69408  0.019461023  0.019673657            2 
  809000   0.92708081   -7.9734115    188.65338  0.019432775  0.019657397            9 
  810000   0.93661837     -7.94985    189.67019  0.019513394  0.019641419           10 
  811000   0.93884766   -7.9424206    189.37366  0.019458864  0.019625516            2 
  812000    0.9011029   -7.9733761    189.39375  0.019436962  0.019609572            3 
  813000   0.95804273   -7.9774679    189.28176  0.019401575  0.019593615            2 
  814000   0.94062219   -7.9787549    190.06336  0.019457756  0.019577779            2 
  815000   0.92500984   -7.9331256    189.97963   0.01942532  0.019562054            5 
  816000   0.92668509   -7.9775619    190.34842  0.019439177  0.019546392            3 
  817000   0.93008112   -7.9925214    189.80953  0.019360417  0.019530563            6 
  818000   0.91896604   -7.9759688    190.18125  0.019374618  0.019514951            7 
  819000   0.90742812   -7.9895152    190.50389   0.01938379  0.019499295            2 
  820000   0.89076687   -7.9816842    190.46699  0.019356401   0.01948361            3 
  821000   0.92918641   -7.9897959    190.58107  0.019344404  0.019468136            5 
  822000   0.93828054   -7.9707752    190.86669  0.019349827  0.019452689            2 
  823000   0.93352248   -7.9992875    191.00556  0.019340377  0.019437264           11 
  824000   0.92325737   -8.0191003    190.30981  0.019246542  0.019421641            3 
  825000   0.93059406   -7.9977479     190.8915   0.01928197  0.019405893            5 
  826000   0.90953775    -8.027989    190.83445  0.019252871  0.019390283            6 
  827000   0.91134477   -8.0029738    191.07612  0.019253942  0.019374549            8 
  828000   0.93725587   -7.9968939    191.44821  0.019268137  0.019358835            5 
  829000   0.91401007   -7.9785033    191.19955  0.019219899  0.019343518            1 
  830000   0.90966373   -7.9944237    191.82583  0.019259622  0.019328074            3 
  831000   0.92997534   -8.0083799    191.24417  0.019178115  0.019312523            3 
  832000   0.90720039    -7.994699    191.69042  0.019199762  0.019296861            2 
  833000   0.94420241   -7.9786942    192.16149  0.019223839  0.019281416            2 
  834000   0.92362328   -7.9869149    192.11655  0.019196298  0.019266196           12 
  835000   0.92126539   -7.9881364    192.51093  0.019212668  0.019250866            4 
  836000   0.93464228   -8.0090217    192.10229  0.019148952  0.019235437            4 
  837000   0.91947989   -7.9875543    192.40978  0.019156689  0.019220265            2 
  838000   0.90647436   -7.9914245     192.1365  0.019106652  0.019204965            6 
  839000    0.9192449   -7.9786893    192.11804  0.019082047  0.019189737            4 
  840000   0.89649883   -7.9993626    192.83315  0.019130273  0.019174458            4 
  841000   0.93116232   -8.0200197    192.15797  0.019040624  0.019159141            5 
  842000   0.93242213   -7.9909947    192.56549  0.019058342  0.019143974            5 
  843000   0.93016728   -8.0216128    193.13708  0.019092238  0.019128745            1 
  844000   0.92471039   -7.9879429    193.09124  0.019065091  0.019113605            2 
  845000   0.90462503   -7.9974461    193.38191  0.019071194  0.019098406            4 
  846000   0.91357653   -8.0188802     193.1537  0.019026172  0.019083237            4 
  847000   0.92305184   -8.0420283    193.46116  0.019033959  0.019068091            6 
  848000   0.91949943   -8.0165606    193.65212  0.019030279  0.019052992            2 
  849000   0.92696846    -7.997796    193.31498  0.018974773  0.019037858            3 
  850000   0.89659673   -8.0408244    193.21275  0.018942427  0.019022582            3 
  851000    0.9048186   -8.0453663    193.22369  0.018921239  0.019007279            4 
  852000   0.91414732   -8.0705716    193.21313  0.018897998  0.018991809            9 
  853000   0.89789524   -8.0085113     193.5627  0.018909995  0.018976538            3 
  854000   0.89719328    -8.048842    193.68805  0.018900083  0.018961268            3 
  855000   0.90635522    -8.014984     194.0014  0.018908519  0.018946019            8 
  856000   0.91831023    -8.011191    194.23337  0.018909012  0.018930771            6 
  857000    0.9125793   -8.0130139    194.40414  0.018903553   0.01891555            5 
  858000   0.92257447   -8.0269662    194.05052  0.018847175  0.018900427            5 
  859000   0.90690776   -8.0315462    194.62453  0.018880921  0.018885383            2 
  860000   0.89968067   -8.0421649    193.99196  0.018797671   0.01887008            5 
  861000   0.90936723    -8.018698    194.21362  0.018797292  0.018854907            4 
  862000   0.91117044   -8.0155037    194.44066  0.018797434  0.018839696            2 
  863000   0.90303246   -8.0356178    194.54856  0.018786072  0.018824613            6 
  864000    0.9184363   -8.0205911    194.84955  0.018793359  0.018809474            2 
  865000   0.88508199   -8.0343134    194.58726  0.018746364  0.018794293            2 
  866000   0.90348724   -8.0781565    194.27941  0.018695094  0.018779088            4 
  867000   0.93621952   -8.0844784    194.82699  0.018726162  0.018763769            3 
  868000   0.89479852   -8.0426366    194.35964  0.018659719  0.018748346            4 
  869000   0.89824287   -8.0835248     193.9336  0.018597392  0.018732854            5 
  870000   0.92019642   -8.0518713    194.58289  0.018638208  0.018717165            2 
  871000   0.89500426   -8.0585213    194.49904  0.018608787   0.01870162            3 
  872000    0.8941456   -8.0439315    194.92667  0.018628313  0.018686166            2 
  873000   0.91124307    -8.056108    194.97013  0.018611123  0.018670742            3 
  874000    0.8948109   -8.0605971    194.90554   0.01858367  0.018655106            2 
  875000   0.90385271   -8.0667816    194.83164  0.018555395  0.018639566            3 
  876000   0.90617897   -8.0426515    194.90666  0.018541349  0.018624078            2 
  877000    0.9189291   -8.0638785    194.61311  0.018492314  0.018608613            3 
  878000   0.91024521   -8.0594296    194.79761  0.018488763  0.018593062            8 
  879000   0.88795451   -8.0429283    195.18939  0.018504872  0.018577595            3 
  880000   0.90539853   -8.0481872    195.45805  0.018509285  0.018562141            3 
  881000   0.92377661    -8.061561    195.09455  0.018453892  0.018546702            8 
  882000   0.90213642   -8.0567792    195.70006   0.01849018  0.018531338            7 
  883000   0.90397837   -8.0395722    195.41792  0.018442612  0.018516211            4 
  884000   0.89413458   -8.0409899     195.7475  0.018452819  0.018501056            4 
  885000   0.88892163   -8.0993376     194.8418  0.018346686  0.018485763            2 
  886000   0.90662233   -8.0817459    195.25642  0.018364976   0.01847051            4 
  887000   0.92438158   -8.0697429    195.53924  0.018370842  0.018455328            5 
  888000   0.90614873   -8.0413158    195.88238  0.018382356  0.018440056            4 
  889000   0.90959201   -8.0440691     196.0724   0.01837949  0.018424928            7 
  890000   0.90839421   -8.0862172    195.99006  0.018351129  0.018409718            3 
  891000   0.90411736   -8.0919841    196.04488   0.01833566  0.018394459            2 
  892000   0.90086038   -8.0896391    195.86789  0.018298569  0.018379025            3 
  893000   0.89081094   -8.0672628     196.4277  0.018330319  0.018363791            9 
  894000   0.89015336    -8.075637    196.31576  0.018299381  0.018348494            6 
  895000   0.90656281   -8.0773396    196.66329  0.018311293  0.018333274            3 
  896000   0.91620901   -8.0906071    196.05436  0.018234222  0.018318011           10 
  897000   0.89120011   -8.0801752     196.6897  0.018272919  0.018302808            4 
  898000   0.88805475   -8.0711228    196.59102  0.018243413  0.018287586            1 
  899000   0.90291082   -8.0962301    195.92161  0.018161069   0.01827235            2 
  900000   0.89098178   -8.0261373    197.10733  0.018250679  0.018257191            4 
  901000   0.90718947   -8.0375377     197.1672   0.01823596  0.018242077            3 
  902000   0.89303526   -8.0835099    197.10867  0.018210335  0.018226987            2 
  903000   0.89029364   -8.0552782    197.27135  0.018205182   0.01821184            5 
  904000   0.89584495   -8.0892392    196.95227  0.018155629  0.018196715           16 
  905000   0.90194243   -8.0594506    197.23283  0.018161402  0.018181613            2 
  906000   0.88009825   -8.0764295     197.3408  0.018151288  0.018166535            6 
  907000   0.89534745   -8.0816627    197.07695  0.018107033  0.018151413            2 
  908000   0.89095649   -8.0745467    196.97261  0.018077516  0.018136284            5 
  909000   0.88984057   -8.1246288    197.16133  0.018074929  0.018121182            2 
  910000   0.88701139   -8.0924182    197.16597  0.018055492  0.018106027            4 
  911000   0.88258745   -8.1006293    197.58202  0.018073731  0.018090896            1 
  912000   0.88598479   -8.0580861    197.78801  0.018072734  0.018075822            2 
  913000   0.90258004   -8.1032417    197.59288   0.01803513  0.018060716            5 
  914000   0.89844375   -8.0515474    197.78789  0.018033177  0.018045592            4 
  915000   0.90072477   -8.0586273    198.26108  0.018056564  0.018030515            4 
  916000   0.91065358    -8.089041    197.59146  0.017975934  0.018015565            2 
  917000   0.89639389    -8.081731    198.05582  0.017998529  0.018000677            5 
  918000   0.87937398   -8.1011592    198.09477  0.017982459  0.017985641            3 
  919000   0.88458305     -8.10534    198.32866  0.017984101  0.017970546            5 
  920000   0.87569876    -8.090794    197.90152  0.017925862  0.017955486            3 
  921000   0.89352289   -8.0900537    198.37034  0.017948818  0.017940396            4 
  922000   0.88731566   -8.1133453    198.15618  0.017909995  0.017925317            2 
  923000   0.87086645   -8.1205051    198.44401  0.017916578  0.017910243            3 
  924000   0.87593721   -8.0893992    198.60963  0.017912124  0.017895422            4 
  925000   0.87772951   -8.0677644    199.55446   0.01797788  0.017880773            4 
  926000   0.89152014   -8.0874426    199.02186  0.017910535  0.017866233            5 
  927000   0.90690963   -8.0851514    199.79936  0.017961108  0.017851721            6 
  928000   0.87985092   -8.1030178    199.72869  0.017935407  0.017837301            2 
  929000   0.89153972   -8.1446967    198.99773  0.017850532  0.017822664            5 
  930000   0.88313442   -8.1405393    199.00562  0.017832045  0.017807822            7 
  931000   0.88217735   -8.1218201    199.44888  0.017852567  0.017793034            4 
  932000   0.89450795   -8.1286391     199.2572  0.017816273  0.017778312            3 
  933000   0.86007242   -8.1322585    199.28992    0.0178001  0.017763642            5 
  934000    0.8760024   -8.1539835    199.90364    0.0178358  0.017748961           11 
  935000   0.87125757   -8.1399546    199.79743  0.017807258  0.017734282            5 
  936000   0.88077096   -8.1172635    199.91591  0.017798781  0.017719684            3 
  937000   0.88055625   -8.1336475     199.9292  0.017780968  0.017705051            4 
  938000   0.87546724   -8.1235771     199.8961   0.01775907  0.017690468            2 
  939000   0.86737638   -8.1435947    199.83696   0.01773491  0.017676051            3 
  940000   0.88842338   -8.1225813    200.28104  0.017755411  0.017661604            5 
  941000   0.88995207   -8.1295131    199.92439  0.017704958  0.017647225            3 
  942000   0.90443621   -8.1094059    200.15592  0.017706646  0.017632843            4 
  943000   0.86839011   -8.1427105    199.82159  0.017658324  0.017618388            4 
  944000   0.89700583   -8.1244416    199.76368  0.017634505  0.017603864            3 
  945000   0.87648928   -8.1090352    200.50849  0.017681525  0.017589382            4 
  946000   0.87512514   -8.1142806    200.24044  0.017639221  0.017574912            3 
  947000   0.87816354    -8.070623      200.849  0.017674147  0.017560577            3 
  948000   0.86193866   -8.1700729     200.0774  0.017587676  0.017546121            3 
  949000   0.87818114   -8.1502195    200.40732  0.017598114  0.017531593            3 
  950000   0.88963551   -8.0960112    201.22987  0.017651743  0.017517236            7 
  951000   0.86226148   -8.1294053    199.93064  0.017519334  0.017502977            3 
  952000   0.89699004   -8.1573309    200.18733  0.017523401  0.017488407            6 
  953000   0.88554801   -8.1567863    200.74504  0.017553781  0.017473744            5 
  954000   0.87611481   -8.1363327    200.84688  0.017544276  0.017459164            9 
  955000   0.86498407   -8.1614422    200.84834  0.017526033  0.017444694            2 
  956000    0.8778009   -8.1817563    200.23239  0.017454009  0.017430296            4 
  957000   0.85720909    -8.117546    201.27745  0.017526772  0.017415958            7 
  958000   0.86129644   -8.1588573    200.89451  0.017475166  0.017401603            4 
  959000   0.86853678   -8.1467605    201.52568   0.01751179  0.017387163            2 
  960000   0.87542289   -8.1176409     201.5761  0.017497925  0.017372864            3 
  961000   0.87524885   -8.1634426    201.42477  0.017466595  0.017358596            3 
  962000   0.87896305   -8.1698466    201.17793  0.017427055  0.017344276            6 
  963000    0.8745943   -8.1292008    201.30027  0.017419546  0.017329893            5 
  964000   0.86715428   -8.1331053    201.69575  0.017435663  0.017315648            9 
  965000   0.87235279   -8.1354369    201.43521  0.017395096  0.017301431            8 
  966000   0.87697739   -8.1465923    201.86793  0.017414417  0.017287246            6 
  967000   0.86582634   -8.1681591    201.96955  0.017405167  0.017273052            7 
  968000   0.88234424   -8.1737906    201.86716  0.017378371  0.017258799            3 
  969000   0.89928888   -8.1694255    201.65485  0.017342178   0.01724449            3 
  970000   0.86656765   -8.1619999    202.05245  0.017358458  0.017230297            3 
  971000   0.87478308   -8.1464741    202.26947  0.017359206  0.017216225            3 
  972000   0.85121126    -8.130633    201.72117  0.017294339  0.017202175            2 
  973000   0.86429476    -8.123878    202.32073  0.017327915   0.01718812           19 
  974000   0.86192904   -8.1227701    202.82149  0.017352968  0.017174133            5 
  975000   0.85958697   -8.1411976    202.25161  0.017286462  0.017160102            5 
  976000   0.86813766   -8.1472593    202.47315  0.017287667  0.017146051            6 
  977000   0.87583091   -8.1240984    202.31985  0.017256896  0.017131955            3 
  978000   0.85738959   -8.1510626    202.37048  0.017243565  0.017117802           13 
  979000   0.82815784   -8.1617383    202.44557  0.017232343  0.017103619            7 
  980000   0.86726298   -8.1407383    202.21475  0.017195132  0.017089473            4 
  981000   0.86625976   -8.1849584    202.23391  0.017179232  0.017075391            3 
  982000   0.87266128   -8.1519393    202.53137   0.01718698  0.017061352            8 
  983000   0.86502616   -8.1667481    202.82692   0.01719455  0.017047315            6 
  984000   0.84772662   -8.1246313    203.15149  0.017204564  0.017033292            7 
  985000   0.83706157   -8.1451643    202.89124   0.01716508  0.017019354           11 
  986000    0.8411654   -8.1514747    203.17668  0.017171795  0.017005404            7 
  987000   0.86964485   -8.1458255    203.22534  0.017158506  0.016991325            5 
  988000   0.84896138   -8.1659134    202.66223  0.017093643   0.01697723            3 
  989000   0.86274051   -8.1920863    202.66377  0.017076489  0.016963014           20 
  990000   0.86009822   -8.1840315    203.25975  0.017109406  0.016948837            5 
  991000   0.85037483   -8.1885972    202.55733  0.017033075  0.016934508           11 
  992000   0.85934305   -8.1843754     202.7387  0.017031141  0.016920191            5 
  993000   0.84304692   -8.1537218    203.19115  0.017051959  0.016905984            7 
  994000   0.85042585   -8.1840147    202.83779   0.01700518  0.016891773           12 
  995000   0.85075164   -8.2241944    202.84855  0.016988991  0.016877489           22 
  996000   0.84493739   -8.2004792    203.15903  0.016997911  0.016863215            7 
  997000   0.86097961   -8.1869015    203.35278  0.016997056  0.016849085           16 
  998000   0.84347741   -8.1942771    203.38806  0.016982971  0.016834889           23 
  999000   0.84631226   -8.1892155    202.22238  0.016868734  0.016820709           15 
 1000000   0.85422241   -8.1868585    203.01562  0.016917968  0.016806534           13 
 1001000   0.84768027    -8.157865    203.38652  0.016931944  0.016792301            9 
 1002000    0.8368442   -8.1998392    203.40577  0.016916648  0.016778118            2 
 1003000   0.83980139   -8.1862346    203.53149  0.016910227  0.016763934            6 
 1004000   0.85567442   -8.2220896    203.16722  0.016863149   0.01674976           16 
 1005000   0.84446766   -8.1995207      203.117  0.016842206  0.016735544            8 
 1006000   0.84204728   -8.2042515    202.85136  0.016803459   0.01672138            6 
 1007000   0.85044776   -8.1827056    203.90089  0.016873626  0.016707174            5 
 1008000   0.87425366   -8.2070956    203.45837  0.016820302  0.016693024            5 
 1009000   0.87079259   -8.2191844    203.13037  0.016776542   0.01667881           11 
 1010000   0.84428437    -8.226063    203.80666  0.016815731  0.016664608           28 
 1011000   0.85036697   -8.1911934    203.82683   0.01680076  0.016650484           13 
 1012000   0.84231907   -8.2015061    203.59949  0.016765439  0.016636473            5 
 1013000   0.86072616   -8.1687054    204.33076  0.016809045  0.016622397            4 
 1014000    0.8753471   -8.1739198    204.14308  0.016777044  0.016608351            3 
 1015000   0.84656985   -8.1971388    204.01441  0.016749951  0.016594341            3 
 1016000    0.8340445   -8.2216568      203.171  0.016664288   0.01658025            5 
 1017000   0.84045977   -8.1981876    203.95886   0.01671246  0.016566158            5 
 1018000   0.85150865    -8.208959    204.42412  0.016734129  0.016552151            4 
 1019000   0.81269279   -8.2329186    203.42376  0.016635898  0.016538158            3 
 1020000   0.84012353   -8.2264301    204.40611  0.016699845  0.016524051            3 
 1021000   0.84182039   -8.1799895    204.35166  0.016679045   0.01651012            8 
 1022000   0.84149651   -8.2083189    204.73257  0.016693784  0.016496216            6 
 1023000   0.88296162   -8.2116148    204.37315  0.016648187  0.016482301            4 
 1024000   0.86306972   -8.2342341    204.16257  0.016614793  0.016468447           14 
 1025000   0.84473607   -8.2050485    204.84596  0.016654143  0.016454588            6 
 1026000   0.84412216   -8.2270551    205.04241  0.016653867  0.016440837            3 
 1027000   0.82636806   -8.1958514    205.17909  0.016648742  0.016427114            3 
 1028000   0.84561063   -8.2104751    204.38455  0.016568138  0.016413394            4 
 1029000   0.81377389   -8.2157525    204.78371  0.016584362  0.016399631            4 
 1030000   0.85185098   -8.2186831    205.16477  0.016599092  0.016385958            2 
 1031000   0.84574561    -8.191281    205.09645  0.016577469  0.016372347           12 
 1032000   0.84512912   -8.1777492    205.79679  0.016617958  0.016358654           14 
 1033000   0.82415336   -8.1977312    204.96514   0.01653478  0.016345008            3 
 1034000   0.83636925   -8.2271334     204.9748  0.016519568  0.016331364            5 
 1035000   0.85100375   -8.2298866    205.43232  0.016540445  0.016317739            4 
 1036000   0.85133412   -8.2215318     205.3887   0.01652097  0.016304037            6 
 1037000   0.84413329   -8.2380591    205.25497  0.016494292  0.016290331            2 
 1038000    0.8511801   -8.2448374    205.43367  0.016492748  0.016276644            8 
 1039000   0.84512991   -8.2414455    205.67735  0.016496419  0.016263039            1 
 1040000   0.84458085     -8.20552    205.63749  0.016477363   0.01624936            2 
 1041000   0.83798384   -8.2126227    205.61151  0.016459455  0.016235664            3 
 1042000   0.82633921   -8.2591847    204.98459  0.016393521  0.016221927            4 
 1043000   0.81511628   -8.2325127    205.47278  0.016416809  0.016208238            9 
 1044000       0.8451   -8.2449103      205.306  0.016387771   0.01619452            6 
 1045000   0.83187215    -8.237917    205.72678  0.016405644  0.016180775            5 
 1046000   0.83345432   -8.2371962    205.36219  0.016360914  0.016167116            2 
 1047000   0.83836501   -8.2572488    205.57289  0.016362057  0.016153411            4 
 1048000   0.83344756    -8.260855    205.45958  0.016337435  0.016139697            3 
 1049000   0.85321097   -8.2754892    205.72484  0.016342933  0.016126028            9 
 1050000   0.83030662   -8.2558186    206.01706  0.016350561  0.016112414            4 
 1051000   0.85276947   -8.2449934    205.74072  0.016313092  0.016098772           24 
 1052000   0.82842515   -8.2519109    205.76433  0.016299456  0.016085198            6 
 1053000   0.83263927   -8.2418882    205.97407  0.016300575  0.016071663           16 
 1054000   0.86336065   -8.2493837    205.99488  0.016286755  0.016058069            9 
 1055000   0.84695956   -8.2755888     206.1947  0.016287101  0.016044463            9 
 1056000   0.83109833   -8.2648986    205.74967  0.016236558  0.016030855           10 
 1057000   0.82585646   -8.2841106    205.84019  0.016228334  0.016017239            7 
 1058000     0.832062   -8.2723465    206.00248  0.016225778  0.016003526           10 
 1059000   0.82537098    -8.252687    206.13662  0.016221012  0.015989851           16 
 1060000   0.83826134    -8.261649    205.96512  0.016192226  0.015976261            8 
 1061000   0.83095006   -8.2441128    207.19543  0.016273596  0.015962738           14 
 1062000   0.81378677    -8.262688    206.17372  0.016178101  0.015949274           15 
 1063000   0.83229318   -8.3071728    206.03859  0.016152288  0.015935741           18 
 1064000   0.84157271   -8.2756947    206.21738  0.016151111  0.015922223           14 
 1065000    0.8159504   -8.2624659    206.45259   0.01615435  0.015908711            7 
 1066000   0.85516336   -8.2625019    206.28267  0.016125912  0.015895286            5 
 1067000   0.83523728   -8.2478047    206.42438  0.016121867  0.015881805            6 
 1068000   0.82149791   -8.2648569    206.41337  0.016105912   0.01586834           10 
 1069000   0.84240787   -8.2780084    206.24134  0.016077435  0.015854879           16 
 1070000   0.82658293   -8.2553827    206.72597  0.016100153  0.015841469            3 
 1071000   0.82862808    -8.263791    206.63894  0.016078349  0.015828091            3 
 1072000   0.81546064    -8.247192    207.08784  0.016098246  0.015814664            4 
 1073000   0.82489378   -8.3099997    206.59336   0.01604484  0.015801236            5 
 1074000   0.82381534   -8.2591768    206.68574  0.016037068  0.015787785            6 
 1075000   0.82332092   -8.2600875    207.07196   0.01605209   0.01577438            6 
 1076000   0.81944318   -8.2928845    206.94623  0.016027434  0.015760997           14 
 1077000   0.82481251   -8.3086033    206.73297  0.015996052   0.01574762            7 
 1078000   0.82311103   -8.2745025     207.0667  0.016007011  0.015734198            9 
 1079000   0.83675657   -8.2670667    207.78715  0.016047818  0.015720875           10 
 1080000   0.81882001     -8.25877    207.53345  0.016013384   0.01570762            9 
 1081000   0.81774964    -8.308231    207.32293  0.015982341  0.015694305           13 
 1082000   0.82641364   -8.3207662    206.89414  0.015934546  0.015680977            3 
 1083000   0.79434423   -8.2555149    207.19828  0.015943235  0.015667657            4 
 1084000   0.82724289   -8.3063971    206.83599  0.015900676  0.015654355            6 
 1085000   0.81103828    -8.321298     206.9087  0.015891605  0.015641037            6 
 1086000   0.83601635   -8.3091043    206.74088  0.015864095  0.015627656            7 
 1087000    0.8097485   -8.2722844    207.20415  0.015885016  0.015614298            3 
 1088000   0.83069277   -8.2736642    207.17311  0.015868038  0.015600984            4 
 1089000   0.82971634   -8.3134813    206.62739  0.015811707  0.015587643            3 
 1090000    0.8200511    -8.286019    207.53017  0.015866221  0.015574391            2 
 1091000   0.82085018   -8.2873317    207.46216  0.015846483  0.015561188            3 
 1092000   0.81106836   -8.2904563    207.62722  0.015844568  0.015547966            5 
 1093000   0.81636843   -8.2653965    207.64417  0.015831364  0.015534781            3 
 1094000   0.82999549   -8.2821705    207.67545  0.015819276   0.01552157            4 
 1095000   0.83551656   -8.2823165     207.6945  0.015806279  0.015508386            8 
 1096000   0.81780302   -8.3133624    207.57307  0.015782624  0.015495231            8 
 1097000   0.81017681   -8.3007077    207.40724  0.015755639  0.015482036            4 
 1098000   0.82514235   -8.3302664    207.91383  0.015779738  0.015468784            3 
 1099000   0.80245073   -8.3168639    206.69601  0.015673037  0.015455535           10 
 1100000   0.81382052   -8.2987781    207.82612  0.015744403  0.015442311            4 
 1101000   0.81971993   -8.3259663    207.51612  0.015706639  0.015429073            4 
 1102000   0.81986081   -8.3445848    207.34815  0.015679685  0.015415836            5 
 1103000   0.80757795   -8.3235032    207.83755  0.015702444  0.015402643            8 
 1104000    0.8123751   -8.3118546    207.62423  0.015672119    0.0153894            8 
 1105000   0.79898729   -8.3591058    207.11859  0.015619803  0.015376157            2 
 1106000   0.80270441    -8.306659     207.8208   0.01565859  0.015362951            8 
 1107000   0.82333802   -8.3075816    207.37279  0.015610719  0.015349857            5 
 1108000    0.8102991   -8.3377311    208.12299  0.015653053  0.015336688            9 
 1109000    0.8192986   -8.3362009    207.42018  0.015586127  0.015323525            2 
 1110000   0.79251693   -8.3342876    207.84467  0.015603954  0.015310288            5 
 1111000   0.80973726   -8.3173086    207.70955  0.015579774  0.015297026            3 
 1112000   0.82840849   -8.3237828    208.34441   0.01561334  0.015283843            5 
 1113000   0.82242195   -8.3217964    207.37026  0.015526375  0.015270667            4 
 1114000   0.82208786   -8.3213094     208.3602   0.01558649  0.015257504            4 
 1115000   0.81349503   -8.3270493    207.90763  0.015538687  0.015244333            5 
 1116000   0.79509805    -8.346164    208.28617  0.015553029   0.01523126            4 
 1117000    0.8039441   -8.3050168    208.17844  0.015531069  0.015218214            9 
 1118000   0.81868352   -8.3229473    208.20102   0.01551886  0.015205193            5 
 1119000    0.8033666   -8.3122945    208.15789  0.015501779  0.015192186            9 
 1120000   0.81948192    -8.317418    207.93004  0.015470985  0.015179112            3 
 1121000   0.79837415   -8.3066328    208.09575  0.015469503  0.015166026            3 
 1122000   0.82096446   -8.3596276    207.44657  0.015407499  0.015152863            5 
 1123000    0.8076894   -8.3395834    207.67719  0.015410893  0.015139689            5 
 1124000   0.81485689   -8.3258757    208.03218  0.015423501  0.015126556            6 
 1125000     0.797085   -8.3132259    208.08632  0.015413802  0.015113396            9 
 1126000   0.80842198   -8.3447709    207.70183  0.015371657   0.01510018            2 
 1127000   0.80530532   -8.3445265    207.91293  0.015373627  0.015086997           14 
 1128000   0.80308075    -8.332612     207.8813  0.015357661   0.01507382           13 
 1129000   0.80757148   -8.3433579    207.90226  0.015345605  0.015060691            5 
 1130000   0.81567822   -8.3237682    208.37546  0.015366922  0.015047622            6 
 1131000   0.81819585   -8.3103479    208.30225  0.015347941  0.015034606            5 
 1132000   0.79114458   -8.3102664     208.7449  0.015366969  0.015021675            3 
 1133000    0.8044583   -8.3065348    208.62027  0.015344239  0.015008761            6 
 1134000   0.82163216   -8.3235108    208.79532  0.015343571  0.014995783            7 
 1135000   0.80728447   -8.3230655    208.49721  0.015308165  0.014982786            3 
 1136000   0.79867778   -8.3241508    208.48543  0.015293825  0.014969829            9 
 1137000   0.80029793   -8.3285248    208.66879  0.015293813  0.014956922            3 
 1138000   0.81904916   -8.3318155    208.72151  0.015284235  0.014944026            3 
 1139000   0.80523445   -8.3500473    208.62095  0.015263458   0.01493108            6 
 1140000   0.81122419   -8.3559022    207.76253  0.015187319  0.014918055            6 
 1141000   0.79832662   -8.3819019    208.13279  0.015201051  0.014904988            3 
 1142000   0.80577748   -8.3604975    208.59858  0.015221729  0.014891937            4 
 1143000   0.81084837   -8.3728754    208.42382   0.01519567  0.014878917            5 
 1144000   0.81247549   -8.3333941      208.486  0.015186917  0.014865959            4 
 1145000   0.81251002   -8.3522531    208.69849  0.015189119  0.014853044            4 
 1146000   0.77630982   -8.3742781     208.8406  0.015186198  0.014840081            5 
 1147000   0.78752636   -8.3749658    208.87941  0.015175778  0.014827135            3 
 1148000   0.80168879   -8.3537502    208.87488   0.01516223  0.014814222           10 
 1149000   0.81201922   -8.3609788    209.02354  0.015159816  0.014801366            5 
 1150000   0.80173462   -8.3712407    209.08264  0.015150916  0.014788546            2 
 1151000   0.77409287     -8.36356    208.77228  0.015115282  0.014775684            4 
 1152000   0.78548638   -8.3524631    209.15811  0.015130072  0.014762863            7 
 1153000   0.80469735   -8.3384917    209.24577  0.015123285  0.014750075            4 
 1154000   0.79291403   -8.3575419    209.29777  0.015113935  0.014737305           13 
 1155000   0.78854567   -8.3516002    208.62503  0.015052311  0.014724548            2 
 1156000   0.78664727   -8.3649943    208.67249  0.015042711  0.014711711            9 
 1157000    0.7917661   -8.3749788     209.0973  0.015060307  0.014698911            3 
 1158000   0.81297024   -8.3700093    209.20021  0.015054707  0.014686078            7 
 1159000   0.78480027   -8.3841746    209.06278  0.015031836  0.014673285            5 
 1160000   0.79357049   -8.3712131    208.95647  0.015011241  0.014660527            4 
 1161000   0.80007652    -8.385855    209.34152  0.015025949  0.014647767            2 
 1162000   0.78128512   -8.3770634      209.398  0.015017068  0.014635061            5 
 1163000   0.77142711   -8.3834798     209.5306  0.015013657  0.014622367            5 
 1164000   0.77328693   -8.3703113    209.81017  0.015020774  0.014609736            3 
 1165000   0.76723285   -8.3912267    209.24148  0.014967202  0.014597048            2 
 1166000   0.78942936   -8.3492506    209.84749  0.014997676   0.01458443           10 
 1167000   0.78880724   -8.4069363    209.47748  0.014958403  0.014571779            2 
 1168000   0.78730143   -8.3996714    209.25183  0.014929497  0.014559117           11 
 1169000   0.78260771   -8.3969206    209.15896  0.014910105  0.014546487            3 
 1170000   0.79110675   -8.3754761    209.57336  0.014926878  0.014533827            3 
 1171000   0.80653639   -8.4060575    209.67806  0.014921581  0.014521243            3 
 1172000   0.78369752   -8.3598848    209.56885  0.014901084  0.014508629            3 
 1173000   0.76495087   -8.4174117    209.13631  0.014857652   0.01449597            5 
 1174000   0.78527932   -8.3564849    209.81503  0.014893174  0.014483329           14 
 1175000   0.77021764   -8.3914815    209.33335  0.014846337   0.01447071           33 
 1176000    0.7957351   -8.3612567    209.70839  0.014860288  0.014458102            8 
 1177000   0.78116081   -8.3911458    208.91807  0.014791707  0.014445486            8 
 1178000   0.78833111   -8.4232698    209.49809  0.014820181  0.014432869            6 
 1179000   0.79055939   -8.3890962    209.37205  0.014798703  0.014420197            3 
 1180000   0.78227759   -8.3776362     208.9739  0.014758044  0.014407562           10 
 1181000   0.79946556    -8.397033    209.50052  0.014782707  0.014394925            6 
 1182000   0.79564773    -8.380835    209.52659  0.014772038  0.014382267           17 
 1183000   0.75150171   -8.3908462    209.60795  0.014765282  0.014369661            4 
 1184000   0.77170311   -8.3986098    209.28019  0.014729743  0.014357015            4 
 1185000   0.78067037   -8.3958599     209.2716  0.014716709  0.014344348            5 
 1186000   0.78157758   -8.4009175    209.15123  0.014695842   0.01433166            9 
 1187000   0.80139849   -8.4357734    208.89706  0.014665618  0.014318927            8 
 1188000   0.76768155   -8.4356999     209.2502  0.014678045  0.014306216            7 
 1189000   0.77954582   -8.4158594    209.12087  0.014656635  0.014293517            4 
 1190000   0.77079874    -8.418041    209.28911    0.0146561  0.014280851            5 
 1191000    0.7828632   -8.4137716    209.22776  0.014639502  0.014268199            4 
 1192000   0.76338189   -8.4258324    209.14551   0.01462147  0.014255565            3 
 1193000   0.77808053   -8.3878093    209.63712  0.014643554  0.014242899           11 
 1194000   0.77959085    -8.394873    209.60004  0.014628702  0.014230362            7 
 1195000   0.79206588   -8.4117977    209.29409  0.014595125  0.014217755           11 
 1196000   0.77808582   -8.3907087    210.17703  0.014644442  0.014205195            6 
 1197000   0.75556661   -8.4137461    209.68117  0.014597686  0.014192662            4 
 1198000    0.7805738   -8.4423024    209.04753  0.014541426  0.014180073            3 
 1199000   0.74922889   -8.3963532    209.36553  0.014551399  0.014167521            6 
 1200000   0.79353568   -8.3863653    209.42057  0.014543095  0.014155024           10 
 1201000   0.78370983   -8.4147507    209.44768  0.014532867  0.014142551            6 
 1202000   0.78930229   -8.3574802    209.95346  0.014555842  0.014130079            8 
 1203000    0.7475987    -8.445779    209.83692  0.014535669  0.014117611            5 
 1204000   0.76255597   -8.4199588    209.40547  0.014493734  0.014105163            3 
 1205000    0.7727584    -8.393743    209.89975  0.014515889  0.014092732            5 
 1206000   0.77747739   -8.4250828    209.88424   0.01450278  0.014080321            7 
 1207000   0.77557997    -8.401097     209.7059  0.014478452  0.014067947            7 
 1208000   0.78669316   -8.3968108    210.08113  0.014492352  0.014055543            5 
 1209000   0.78167539   -8.3692569    210.41442  0.014503337  0.014043175            3 
 1210000   0.78397806   -8.3956147      209.857  0.014452961  0.014030824            4 
 1211000   0.79800906   -8.4052811    209.98584  0.014449893  0.014018501            7 
 1212000   0.76119042   -8.4113917    210.35556  0.014463391  0.014006142            9 
 1213000   0.76538971   -8.4283016    209.91755  0.014421376  0.013993836            5 
 1214000   0.75013209    -8.411019    210.23004  0.014430947  0.013981542            5 
 1215000   0.76576795   -8.4026324    210.20265  0.014417191  0.013969251            8 
 1216000   0.76629381   -8.4414533    209.37093  0.014348337  0.013956938           11 
 1217000   0.76418005   -8.4625711    209.93081  0.014374885  0.013944553            5 
 1218000   0.77334675   -8.4461827    210.12071  0.014376075  0.013932209           10 
 1219000   0.77476005    -8.425026     209.9573   0.01435311  0.013919875            6 
 1220000   0.76019568   -8.4415421    209.98545  0.014343268  0.013907583           17 
 1221000   0.77364331   -8.4590969    209.61495  0.014306235  0.013895271           13 
 1222000   0.74211985   -8.4489044    210.08995   0.01432692  0.013882983           19 
 1223000   0.75814251   -8.4473044     209.7419   0.01429149  0.013870639            4 
 1224000   0.76271492    -8.429544    209.75467  0.014280683  0.013858311           22 
 1225000   0.76796599   -8.4152684    210.16631  0.014297028  0.013846056           10 
 1226000   0.77716235   -8.4417913    209.86147  0.014264646  0.013833869           18 
 1227000   0.74897653   -8.4060362    210.10615  0.014269638  0.013821714           10 
 1228000   0.76284703   -8.4593614    210.51302  0.014285628  0.013809589           16 
 1229000   0.75780273   -8.4489869    210.15677  0.014249849  0.013797492            7 
 1230000   0.78123697   -8.4345511    210.08135  0.014233154  0.013785402            4 
 1231000   0.75412553   -8.4276216    210.45445  0.014246849  0.013773359            3 
 1232000   0.78144331   -8.4273014    210.66284  0.014249381  0.013761331            4 
 1233000   0.77763977   -8.4623991    210.62944  0.014235567  0.013749322            4 
 1234000   0.75076671   -8.4278299    210.61673  0.014223172  0.013737346            4 
 1235000   0.76260515   -8.4438288    210.65128  0.014213987  0.013725337            2 
 1236000   0.76029434   -8.4556983    210.50526  0.014192642  0.013713353            2 
 1237000   0.75539297   -8.4476783    210.83142  0.014203141  0.013701372            6 
 1238000   0.76855248   -8.4471692     211.1842  0.014215414  0.013689365            5 
 1239000   0.75363202   -8.4878831    210.58326  0.014163523  0.013677399            5 
 1240000   0.74623397   -8.4407711     211.0513  0.014183555  0.013665442            6 
 1241000   0.74530199   -8.4810342    210.86245  0.014159445  0.013653479           16 
 1242000   0.75338678   -8.4299582    211.34963  0.014180732  0.013641514            5 
 1243000    0.7549506   -8.4616626    211.26688  0.014163776  0.013629583            7 
 1244000   0.77200818   -8.4454923    211.38958   0.01416061  0.013617644            7 
 1245000    0.7564405     -8.45051    211.38939  0.014149223  0.013605701            3 
 1246000   0.75275885   -8.4549336    210.94552  0.014108181  0.013593768            4 
 1247000   0.77274337   -8.4374517    211.04206  0.014103318  0.013581872            8 
 1248000   0.75499451   -8.4960892    210.42509  0.014050821  0.013569968            6 
 1249000   0.72879525   -8.4517643    211.00237  0.014078087  0.013558073            6 
 1250000   0.76153228   -8.4910026    210.79097  0.014052732  0.013546144            5 
 1251000   0.74429463   -8.4871948    210.86065   0.01404614  0.013534254            6 
 1252000   0.75025353   -8.4791491    210.82745  0.014032711  0.013522342            6 
 1253000   0.75253756   -8.4480773    210.58267  0.014005232  0.013510411            9 
 1254000   0.76206564   -8.4746302    210.89353  0.014014722  0.013498539            9 
 1255000   0.73405163   -8.4732863    210.95416   0.01400758  0.013486638            6 
 1256000   0.75633032   -8.4978516    210.86583  0.013990567  0.013474783            8 
 1257000   0.75358291   -8.4880841    210.60307  0.013962018  0.013462883            6 
 1258000   0.74353081   -8.4570905    210.75769  0.013961161  0.013450938           17 
 1259000   0.74465138   -8.5037569    210.68526  0.013945278  0.013438965            7 
 1260000    0.7632371   -8.4930903    210.28618  0.013907816  0.013426968            8 
 1261000   0.74299729   -8.5111564     209.8627  0.013868801  0.013415007            4 
 1262000   0.74833143   -8.4989173    210.76831  0.013917611  0.013403046            9 
 1263000   0.75908107   -8.5198626    210.66283  0.013899632  0.013391118           13 
 1264000   0.74543263   -8.4850841    210.46381  0.013875515  0.013379182           11 
 1265000   0.74702145   -8.5142072    210.06635  0.013838363  0.013367293            7 
 1266000   0.75292719   -8.5021287    210.33391  0.013845044  0.013355372            7 
 1267000   0.73325256   -8.5152318     210.3945  0.013838102  0.013343507            7 
 1268000   0.74462384   -8.5097075    210.88286  0.013859284  0.013331636            8 
 1269000   0.76075701    -8.492694    211.00315  0.013856261  0.013319783            6 
 1270000   0.73338463   -8.4938298    210.59857  0.013818804  0.013307969            7 
 1271000   0.78197876   -8.5156096    210.74446  0.013817496  0.013296148            8 
 1272000   0.75436895    -8.474403    211.27584  0.013841446  0.013284379            4 
 1273000   0.74123756   -8.4959036    210.83691   0.01380184  0.013272661           11 
 1274000    0.7452008   -8.4777846    210.94085  0.013797806  0.013260932           10 
 1275000   0.74764402   -8.4935519    210.94299  0.013787124  0.013249215            9 
 1276000   0.73409014    -8.492149    210.99885  0.013779967  0.013237499            8 
 1277000   0.74825225   -8.4944647    211.46277   0.01379945  0.013225832           12 
 1278000   0.74676946   -8.5086592    211.11798   0.01376617  0.013214198           19 
 1279000   0.74816851   -8.4864073    211.68063  0.013792066  0.013202553           10 
 1280000   0.73650213   -8.5094674    210.65552  0.013714552  0.013190863            6 
 1281000   0.74100306    -8.498035    211.11525  0.013733753  0.013179176           13 
 1282000   0.74537126   -8.5002835    211.05029  0.013718818  0.013167503            6 
 1283000   0.74414971   -8.5185184    210.56001   0.01367628  0.013155835            5 
 1284000   0.73513201   -8.4994596    211.18583  0.013706246  0.013144147           15 
 1285000   0.75355385   -8.5191713    211.10966   0.01369064  0.013132438           11 
 1286000   0.74883067   -8.5023092    211.09003  0.013678721  0.013120758            7 
 1287000   0.74393724   -8.4614153    211.80429  0.013714341  0.013109133            9 
 1288000   0.71903938    -8.510148    210.98873  0.013650927  0.013097477            6 
 1289000   0.73196833   -8.5206823    210.43876  0.013604782  0.013085877            3 
 1290000   0.74327185   -8.4895974     210.8052  0.013617907  0.013074286            4 
 1291000   0.74895416    -8.493854    211.03943  0.013622478  0.013062736            6 
 1292000   0.74739408   -8.4873662    211.11685  0.013616928  0.013051183            6 
 1293000    0.7425777   -8.4904846    210.56618  0.013570906  0.013039614            5 
 1294000   0.74394152   -8.5133967    211.13612  0.013597122   0.01302806            3 
 1295000   0.74798092   -8.5164506    211.33885  0.013599668  0.013016532            7 
 1296000   0.72978622   -8.5205426    210.54232  0.013537958  0.013004985            7 
 1297000   0.75217516   -8.5230399    210.93992  0.013553066  0.012993432           14 
 1298000   0.73663395   -8.5182979     211.2751  0.013564144  0.012981894           17 
 1299000   0.73401966   -8.5329039    211.46093  0.013565623   0.01297039           12 
 1300000   0.75402179    -8.530907    210.91056  0.013519908  0.012958861           19 
 1301000    0.7319308    -8.521789    211.18645  0.013527187  0.012947324           12 
 1302000   0.74725186   -8.5480871    211.15947  0.013515071  0.012935818           17 
 1303000   0.73317489   -8.5079786    211.17657  0.013505792  0.012924321            8 
 1304000   0.70775044   -8.5415407    211.39359  0.013509304  0.012912846           13 
 1305000   0.72423833   -8.5404942    211.08095  0.013478988   0.01290137           14 
 1306000    0.7187253    -8.547541    210.99413  0.013463127  0.012889839            7 
 1307000    0.7320346   -8.5518153    211.07425  0.013457935  0.012878262            7 
 1308000   0.72348234   -8.5177755    211.07846  0.013447914  0.012866738            8 
 1309000   0.71654052   -8.5515826    210.80284  0.013420094   0.01285522           11 
 1310000   0.72143956   -8.5508116    210.84555  0.013412567  0.012843706           14 
 1311000   0.73890235   -8.5288224    210.79255  0.013398967    0.0128322           16 
 1312000   0.73172773   -8.5412331    211.08273  0.013407186  0.012820713           14 
 1313000   0.71772057   -8.5380868    210.92579  0.013387014  0.012809228           19 
 1314000   0.72756533    -8.531328    210.89546  0.013374902  0.012797783           17 
 1315000   0.74920172   -8.5366621    211.36742   0.01339464  0.012786317           10 
 1316000   0.71749779   -8.5426697    211.09996  0.013367525  0.012774892           10 
 1317000   0.73984998   -8.5328632    211.14724  0.013360367  0.012763437           19 
 1318000   0.74993505   -8.5384364    210.94422  0.013337394  0.012752043            6 
 1319000   0.72972825   -8.5500898    210.71733  0.013312947  0.012740684           12 
 1320000   0.74442064   -8.5624196    211.19903  0.013333272  0.012729296            4 
 1321000   0.72850682   -8.5461481    211.35847  0.013333237  0.012717919            8 
 1322000   0.73643063   -8.5851032     210.9053  0.013294585   0.01270654            7 
 1323000   0.74743924   -8.5642766    210.89059   0.01328361  0.012695135           14 
 1324000   0.71381095   -8.5957375    210.58663  0.013254446  0.012683737           18 
 1325000   0.73906019   -8.5409541    210.98836  0.013269708  0.012672369           11 
 1326000    0.7151402   -8.5652398    211.05209  0.013263706  0.012661025            6 
 1327000   0.72693012   -8.5517247    211.03227  0.013252466  0.012649682            7 
 1328000   0.72549778   -8.5507077    211.16405  0.013250756  0.012638307            7 
 1329000   0.73195938   -8.5772598     210.9739  0.013228862  0.012626954            6 
 1330000   0.72839805   -8.5346052    211.35944  0.013243073  0.012615596            5 
 1331000   0.69277832   -8.5404626     211.0509  0.013213805  0.012604299           14 
 1332000   0.72493061   -8.5451166    211.40311   0.01322592  0.012593019            8 
 1333000    0.7164402   -8.5740182    211.10521  0.013197375  0.012581734            5 
 1334000   0.71523817   -8.5395228    211.33433  0.013201795  0.012570441            6 
 1335000   0.72257553   -8.5331193    211.69565   0.01321446  0.012559186            7 
 1336000   0.73032643   -8.5231795     211.4219  0.013187494  0.012547952            5 
 1337000   0.72061773   -8.5531632    210.90803  0.013145602  0.012536737            8 
 1338000   0.71984981   -8.5558433     211.3867  0.013165589  0.012525518           13 
 1339000   0.73534027   -8.5499538    211.20191  0.013144256   0.01251427            8 
 1340000   0.70643765   -8.5694695    211.19533  0.013134038  0.012503039            8 
 1341000    0.7091416    -8.558036    211.05119  0.013115287   0.01249179            8 
 1342000   0.71004841   -8.5493384    211.19749  0.013114598  0.012480568            7 
 1343000   0.71290407    -8.568642    210.66637  0.013071877  0.012469359            4 
 1344000   0.70777978   -8.6052175    211.08414  0.013088054  0.012458132            7 
 1345000   0.71690762   -8.5852465    210.66139  0.013052131  0.012446897            4 
 1346000   0.71836931   -8.5324349    211.01318  0.013064214   0.01243569            5 
 1347000   0.72349266   -8.5777707    211.09984  0.013059876  0.012424542            4 
 1348000   0.72583925   -8.5595775    211.19571  0.013056115  0.012413388            7 
 1349000    0.7188732   -8.5750465    211.29528  0.013052587  0.012402242            9 
 1350000   0.70196146   -8.5739595    211.20238  0.013037184   0.01239111           12 
 1351000   0.72582619   -8.5280712     211.6281  0.013053794  0.012380002            6 
 1352000    0.7113809   -8.5795917    210.82273  0.012994498  0.012368878           12 
 1353000   0.70422778   -8.5746859    211.03458  0.012997941   0.01235774           10 
 1354000   0.71954269   -8.5704633    210.84387  0.012976605  0.012346618            5 
 1355000   0.70960736     -8.58429    210.93131  0.012972405  0.012335494           16 
 1356000   0.72473143   -8.5831101    210.64687  0.012945358  0.012324346            5 
 1357000   0.71505452   -8.5624987    211.17775   0.01296842   0.01231323            6 
 1358000   0.70091873   -8.5839479    210.88277  0.012940769  0.012302098           10 
 1359000   0.72099075   -8.5920157    210.35442  0.012898848  0.012290972           16 
 1360000   0.71199402    -8.570157    210.89468  0.012922468  0.012279862            8 
 1361000   0.70694563   -8.5750695    211.23311  0.012933695  0.012268784            9 
 1362000   0.70305929   -8.5717186    210.82061   0.01289896  0.012257708           10 
 1363000   0.72473763   -8.5840378    210.80216  0.012888369  0.012246636            7 
 1364000   0.70688192   -8.5843199    210.78144  0.012877654   0.01223556            8 
 1365000   0.74061645   -8.5928402    210.80679  0.012869767  0.012224492            4 
 1366000    0.7025162   -8.6133251    210.83781  0.012862238  0.012213443            6 
 1367000   0.70684631   -8.6207456    210.92767  0.012858307  0.012202384            5 
 1368000    0.6867523   -8.6063248    211.32931  0.012873374  0.012191327           10 
 1369000    0.7105962   -8.5925276    210.46477  0.012811345  0.012180277            6 
 1370000    0.7099754   -8.6039432    211.23091  0.012848596  0.012169288            5 
 1371000   0.69488107   -8.5786951    210.90069  0.012819152    0.0121583           11 
 1372000    0.7010249   -8.6236809    210.36951  0.012777545  0.012147289            6 
 1373000    0.7111165   -8.5973578    210.45074  0.012773169  0.012136278           10 
 1374000   0.71932432   -8.6102659     211.1899  0.012808704  0.012125296            5 
 1375000   0.69860416    -8.614175    210.38625  0.012750682  0.012114316           15 
 1376000   0.70085055   -8.6237891    210.28302  0.012735164  0.012103352           16 
 1377000   0.69496162   -8.6076476    210.70064  0.012751189  0.012092365            6 
 1378000   0.70433253   -8.6330471    210.95631  0.012757397  0.012081372            5 
 1379000   0.70419774   -8.6176735    210.95201  0.012747886   0.01207038            6 
 1380000   0.70132883   -8.6300503    210.80789  0.012729945  0.012059416            9 
 1381000   0.70038585   -8.6231963     210.5159  0.012703107  0.012048455           10 
 1382000   0.70317533   -8.6124119    210.69015  0.012704423  0.012037502           11 
 1383000   0.70188985   -8.6502773    210.53803   0.01268607  0.012026574            7 
 1384000   0.69869138   -8.6189864    210.67052  0.012684882  0.012015642            5 
 1385000   0.70808019   -8.6291601    210.76005   0.01268111  0.012004754            5 
 1386000    0.6980847   -8.6219192    210.63346   0.01266435  0.011993866            7 
 1387000   0.69681989   -8.6226844    210.78543  0.012664349  0.011982979            5 
 1388000   0.71102904   -8.6217772    210.93482  0.012664194  0.011972121            6 
 1389000   0.71728832   -8.6130997    211.02935  0.012660748   0.01196125            3 
 1390000   0.69165657   -8.6234113    210.73178    0.0126338  0.011950393            4 
 1391000   0.69937406   -8.6303479    210.99542  0.012640512  0.011939546            7 
 1392000   0.70590948   -8.6260744    210.99648  0.012631495  0.011928704            4 
 1393000   0.69972717    -8.608573    211.34766  0.012643435  0.011917884            5 
 1394000   0.69949151   -8.6403513    210.59952  0.012589642  0.011907071            6 
 1395000   0.68515906   -8.6594306     210.4879  0.012573949  0.011896239            6 
 1396000   0.70796934   -8.6493987    210.67658  0.012576205  0.011885399            6 
 1397000   0.70913406   -8.6492837    210.78646  0.012573757  0.011874559           11 
 1398000   0.69812466   -8.6346561    210.86009  0.012569152  0.011863751            9 
 1399000   0.68901243   -8.6688914    210.51065  0.012539352  0.011852928           15 
 1400000   0.70312798   -8.6577208    210.75301  0.012544822  0.011842114           11 
 1401000    0.6794962   -8.6715184    210.54399  0.012523435  0.011831282           13 
 1402000   0.69011426   -8.6380572    210.72714  0.012525389  0.011820462            8 
 1403000    0.6998194   -8.6572819     210.6732  0.012513258  0.011809666            6 
 1404000   0.70151578   -8.6637268    210.74088  0.012508362  0.011798883           10 
 1405000   0.69111838   -8.6798059    210.75459  0.012500272  0.011788106           10 
 1406000   0.69523911   -8.6589545    210.65174  0.012485286  0.011777335            7 
 1407000   0.68835519   -8.6705276    210.75404  0.012482471  0.011766581            2 
 1408000   0.68749336   -8.6849171    210.40418  0.012452899  0.011755824            6 
 1409000   0.69070725   -8.6600623    210.51283  0.012450487  0.011745055           11 
 1410000   0.69599591   -8.6673714    210.28918  0.012428439  0.011734316            4 
 1411000   0.70719883   -8.6530944    210.67321  0.012442311  0.011723602            8 
 1412000   0.69769962   -8.6658297    210.71912  0.012436209   0.01171289           10 
 1413000   0.69521748   -8.6575919    210.35594  0.012405989   0.01170219           15 
 1414000   0.69070289   -8.6598674    210.34966  0.012396844  0.011691494            8 
 1415000   0.68624701   -8.6449176    211.42382  0.012451344  0.011680834            6 
 1416000   0.68599754   -8.6571124    210.52636  0.012389734   0.01167016            7 
 1417000   0.68636463   -8.6558328    210.47885  0.012378196    0.0116595           11 
 1418000   0.67673907   -8.6521485    210.20643  0.012353457  0.011648847            9 
 1419000   0.68973387   -8.6699761    210.22096  0.012345605  0.011638186            9 
 1420000   0.69866309   -8.6588684    210.10671  0.012330206  0.011627516            9 
 1421000   0.68169618   -8.6398108    211.00586  0.012374259  0.011616893           12 
 1422000   0.68637731   -8.6672295    210.59988  0.012341765  0.011606299            8 
 1423000   0.70899503   -8.6562814    210.86317  0.012348511  0.011595713            9 
 1424000   0.67330896   -8.6696513    210.17328  0.012299466  0.011585113            9 
 1425000   0.67729402   -8.6741585    210.62834  0.012317447  0.011574505           20 
 1426000   0.67637711   -8.6650758    210.41057  0.012296083  0.011563914            9 
 1427000   0.68582405   -8.6789057     210.7647  0.012308146  0.011553348           13 
 1428000    0.6858836   -8.6764187    210.39515  0.012277962  0.011542761            9 
 1429000   0.69988142   -8.6432658    210.48184  0.012274425  0.011532191           13 
 1430000   0.69168947   -8.6752737    210.08374  0.012242642  0.011521638           16 
 1431000   0.69474098   -8.6833905    210.49893  0.012258265  0.011511066           12 
 1432000   0.69829079    -8.695357    209.92016  0.012216024  0.011500484           12 
 1433000   0.68399304   -8.7048871    209.92208  0.012207611  0.011489909           11 
 1434000   0.67205711   -8.6901263     209.9619  0.012201412  0.011479354           10 
 1435000    0.6708394   -8.6777854    210.31664   0.01221351  0.011468796           15 
 1436000   0.68175575   -8.6847406    210.13139  0.012194254  0.011458262           16 
 1437000   0.68644644   -8.6807837    210.70959  0.012219299  0.011447754           14 
 1438000   0.67799256   -8.7138674    210.15941  0.012178918  0.011437211           11 
 1439000   0.67304551   -8.6993993    210.25354  0.012175906  0.011426686           12 
 1440000   0.67303023    -8.695813    210.38873  0.012175274  0.011416169           18 
 1441000   0.68862348   -8.6914282    210.09716  0.012149963  0.011405657           10 
 1442000   0.67795695   -8.6840922    209.96142  0.012133693  0.011395164           18 
 1443000   0.66495289   -8.6875025    210.08673  0.012132521  0.011384686           12 
 1444000   0.68635368   -8.7080955    210.17155  0.012129014   0.01137422           16 
 1445000   0.67348855   -8.7209284     210.0661  0.012114539   0.01136376            9 
 1446000   0.68360573   -8.6995155    210.03154  0.012104169  0.011353324           11 
 1447000   0.65867234   -8.7362121    210.04309  0.012096469  0.011342879           15 
 1448000   0.67784487   -8.6717014    210.12491  0.012092824  0.011332456           12 
 1449000   0.68260421   -8.7051826    210.29987   0.01209454  0.011322038           11 
 1450000   0.68043243    -8.680664     210.5239  0.012099075  0.011311632            8 
 1451000   0.67873149   -8.6941062     209.9213  0.012056128  0.011301212           10 
 1452000   0.67696925   -8.7181058    209.98969   0.01205175  0.011290804           11 
 1453000   0.68680396   -8.7161518     209.7557  0.012030035  0.011280385           10 
 1454000   0.66136671   -8.7106287    209.74013  0.012020869  0.011269999           15 
 1455000     0.677325   -8.7235965    210.30754  0.012045106  0.011259583           11 
 1456000   0.67489684   -8.7171522    210.10043  0.012024979   0.01124919           11 
 1457000   0.68276017   -8.7354747    209.60925  0.011988632  0.011238826           11 
 1458000   0.65143778   -8.7303796     210.1474  0.012011168  0.011228468           13 
 1459000   0.67296788   -8.7343537    209.89155  0.011988322  0.011218128           10 
 1460000   0.67018619   -8.7149693    210.11765  0.011993016   0.01120779           16 
 1461000   0.67648546   -8.7507709    209.87351  0.011970882  0.011197445           14 
 1462000   0.65770694   -8.7143649    210.27198  0.011985407  0.011187118           13 
 1463000   0.65567412   -8.7242615    209.42798   0.01192914  0.011176773           21 
 1464000   0.66904368    -8.712311    209.80742   0.01194259   0.01116644           10 
 1465000   0.66358301   -8.7507917     209.7539  0.011931394  0.011156134           13 
 1466000   0.68227508   -8.7472546    209.67904  0.011918999   0.01114579           15 
 1467000   0.67134661   -8.7221595    209.85472  0.011920854  0.011135468           11 
 1468000   0.67450363   -8.7227132      209.648  0.011900999  0.011125177           12 
 1469000   0.65770575   -8.7357734    210.03478  0.011914839  0.011114877           14 
 1470000   0.65921063   -8.7245645    209.71484  0.011888596  0.011104598           20 
 1471000   0.67529219   -8.7103859     209.4415  0.011865029   0.01109433           20 
 1472000   0.67279843   -8.7369166    209.65202  0.011868887  0.011084053           13 
 1473000   0.66962564   -8.7497102     209.4652   0.01185026  0.011073813           23 
 1474000   0.67637215   -8.7437256    209.64717  0.011852509   0.01106356           20 
 1475000   0.65193236   -8.7272754    209.63705  0.011843901  0.011053312           20 
 1476000   0.66311276   -8.7388579    209.97078  0.011854719  0.011043072           17 
 1477000   0.65410029    -8.740075    209.92009  0.011843833  0.011032846           15 
 1478000   0.66530555    -8.723618    209.88187  0.011833664  0.011022636           11 
 1479000   0.65958789   -8.7356822    210.18069    0.0118425  0.011012453           15 
 1480000   0.66956471    -8.735852    209.52224  0.011797424  0.011002273           22 
 1481000   0.67626327   -8.7319281    209.40691  0.011782968  0.010992097           25 
 1482000   0.65508936   -8.7368938    209.95018  0.011805566  0.010981943           28 
 1483000   0.64993195   -8.7289057    210.01661  0.011801338  0.010971806           23 
 1484000   0.64748765    -8.723762    209.81473  0.011782049  0.010961672           26 
 1485000   0.66557074   -8.7313449     209.8709  0.011777267  0.010951549           18 
 1486000   0.65267879   -8.7347477    210.20644  0.011788158  0.010941438           13 
 1487000   0.66040591   -8.7607706    209.82934  0.011759098  0.010931326           24 
 1488000   0.65827603   -8.7202515    209.78616  0.011748777  0.010921226           10 
 1489000   0.66586543   -8.7453205     209.5243  0.011726231  0.010911155           24 
 1490000   0.66359541   -8.7608996    209.64859  0.011725313  0.010901079           17 
 1491000   0.64713707   -8.7352916    209.87604  0.011730161  0.010891005           13 
 1492000   0.65657661   -8.7343729    209.91429  0.011724435  0.010880938           14 
 1493000   0.64629037   -8.7416703    209.79361  0.011709847  0.010870883           16 
 1494000   0.65290688   -8.7698578    209.78674  0.011701625  0.010860832           13 
 1495000   0.65396883   -8.7706296    209.56252    0.0116813   0.01085078           15 
 1496000   0.66753091   -8.7471988    209.46764  0.011668206  0.010840756           10 
 1497000   0.65532235    -8.763528     209.9111  0.011685098  0.010830727           21 
 1498000   0.63974235    -8.751503     210.0955  0.011687556  0.010820719           23 
 1499000   0.66584882   -8.7637527    209.66284  0.011655706  0.010810701           18 
 1500000   0.64915502   -8.7263116    209.84803  0.011658224  0.010800719           19 
 1501000   0.66321958    -8.748005    209.33612  0.011622036  0.010790737           17 
 1502000   0.65634042   -8.7406952    209.28667  0.011611555   0.01078075           11 
 1503000   0.64804576   -8.7534651    209.72243   0.01162799  0.010770777           15 
 1504000   0.66298414   -8.7531091     210.2015  0.011646803  0.010760811           17 
 1505000   0.66860995   -8.7509156    209.71908  0.011612352  0.010750844           18 
 1506000   0.64624377   -8.7591875    209.78897  0.011608509  0.010740883           16 
 1507000    0.6434969   -8.7676168    209.28157  0.011572747  0.010730918           15 
 1508000   0.65089314   -8.7604056    209.62445  0.011584022  0.010720955           17 
 1509000    0.6531439   -8.7487585     209.1696  0.011551226  0.010711028           10 
 1510000   0.64140663   -8.7596867    209.43941  0.011558466  0.010701098           13 
 1511000   0.63296889   -8.7726867    209.62478   0.01156104  0.010691162           12 
 1512000   0.64329623   -8.7889393    209.50699  0.011546902   0.01068125           19 
 1513000   0.66176481   -8.7476141    209.22351  0.011523657  0.010671371           24 
 1514000   0.65396081    -8.773939    209.39197  0.011525317   0.01066149           20 
 1515000   0.64760625   -8.7874791    209.67683  0.011533379  0.010651605           27 
 1516000   0.65581674   -8.7962212    209.02364  0.011489866  0.010641705           24 
 1517000   0.63955969   -8.7789556    209.41463   0.01150377  0.010631805           24 
 1518000   0.64513992    -8.771422    209.54484   0.01150334  0.010621918           25 
 1519000   0.65316671   -8.7967868     209.3436  0.011484727  0.010612042           17 
 1520000   0.65971706   -8.7776901    209.05665  0.011461439  0.010602178           21 
 1521000   0.63954879   -8.7801123    209.01282  0.011451502  0.010592337           19 
 1522000   0.66090582   -8.7871737    208.88316  0.011436879  0.010582487           23 
 1523000   0.64458628   -8.8124235    208.84556  0.011427312  0.010572661           30 
 1524000   0.65480593   -8.7922902    208.74943  0.011414558  0.010562848           18 
 1525000    0.6320145   -8.7824808    208.75911  0.011407602  0.010553034           21 
 1526000   0.65212332   -8.7867626    209.21459     0.011425  0.010543216           21 
 1527000   0.65392832   -8.7853661    209.37998  0.011426543   0.01053342           14 
 1528000   0.64453268   -8.8035445    208.91828  0.011393885  0.010523632           14 
 1529000   0.64427642   -8.7777161    209.50993  0.011418679  0.010513842           19 
 1530000   0.64804815   -8.7887988    209.45383   0.01140816   0.01050408           23 
 1531000   0.63559555   -8.7821842    209.16494  0.011384985  0.010494331           16 
 1532000   0.63890888   -8.7755026    209.26288  0.011382881  0.010484586           13 
 1533000   0.65148668    -8.807174     208.8901  0.011355192  0.010474859           18 
 1534000   0.64835347   -8.8075712    209.02752  0.011355254  0.010465134           23 
 1535000   0.63018209   -8.8103878    209.26926   0.01136098  0.010455414           27 
 1536000   0.63658333   -8.8145021     209.4035  0.011360867  0.010445721           25 
 1537000   0.61839666   -8.7869765    209.15338  0.011339914  0.010436036           16 
 1538000   0.63413933   -8.8026114     209.5182  0.011352308  0.010426351           23 
 1539000   0.64013587   -8.7970571    209.36044   0.01133639  0.010416688           22 
 1540000   0.62418612   -8.8046441    209.07628  0.011313652  0.010407017           21 
 1541000   0.63207505   -8.7736534    209.43443  0.011325678  0.010397358           18 
 1542000   0.63898691   -8.7897149    209.28046  0.011310012  0.010387739           31 
 1543000   0.64560166   -8.7732776     209.2022  0.011298456  0.010378116           19 
 1544000   0.63089383   -8.8047741    209.10894  0.011286104  0.010368517           40 
 1545000   0.64212835    -8.777994    209.33531  0.011291009  0.010358911           20 
 1546000   0.62348221   -8.8061292    208.94264   0.01126254  0.010349331           32 
 1547000   0.64696646   -8.7952836    208.88901  0.011252371  0.010339753           24 
 1548000   0.64162562   -8.8026185    209.13323  0.011258249  0.010330174           28 
 1549000   0.63179885   -8.8202037    209.13404  0.011251024   0.01032061           27 
 1550000   0.63923132   -8.8148943    208.94368  0.011233531   0.01031105           15 
 1551000   0.64244681   -8.8291833    209.09161  0.011234237  0.010301487           29 
 1552000    0.6365978   -8.7941077    208.88268  0.011215779  0.010291939           16 
 1553000   0.65049264   -8.8116274    209.47204  0.011240182  0.010282412           15 
 1554000   0.64264843   -8.8269958     209.1333  0.011214784  0.010272888           20 
 1555000   0.63165278   -8.7924206    209.14172  0.011208024  0.010263391           24 
 1556000   0.62014693   -8.7893632    209.33449  0.011211145  0.010253883           26 
 1557000   0.62772685   -8.7687604    209.38972    0.0112069  0.010244389           25 
 1558000   0.62762625   -8.8038131    208.55708  0.011155171  0.010234902           17 
 1559000   0.63573585   -8.8167428    209.23345   0.01118417  0.010225413           25 
 1560000   0.63920799   -8.8008948    208.88562   0.01115842  0.010215951           18 
 1561000    0.6359867   -8.8018872    209.06603  0.011160903  0.010206498           19 
 1562000   0.62143394   -8.7891745    209.04441  0.011152604  0.010197053           19 
 1563000   0.63988247   -8.8051212    209.05452  0.011146008  0.010187624           15 
 1564000   0.63457666   -8.8041782    209.16104  0.011144557  0.010178204           16 
 1565000   0.63409498   -8.8236017    208.67314  0.011111456  0.010168796           24 
 1566000   0.61812767   -8.7931118    208.90552  0.011116727  0.010159407           15 
 1567000   0.62974159   -8.7940124    208.79178  0.011103583  0.010150014           17 
 1568000   0.63877632   -8.8089143    209.00895  0.011108044   0.01014064           26 
 1569000   0.61123031   -8.8112933    208.95632  0.011098169  0.010131263           21 
 1570000   0.63085233   -8.8225529    208.66853  0.011075825  0.010121892           26 
 1571000   0.62600957   -8.8194887    208.67705  0.011069226   0.01011253           22 
 1572000   0.61848089   -8.8158408    209.11289  0.011085289   0.01010316           20 
 1573000   0.63845663   -8.8146855    208.90238  0.011067089  0.010093803           24 
 1574000   0.63902793   -8.8070092    208.93139  0.011061594  0.010084483           36 
 1575000   0.63490757   -8.8131812    208.81547  0.011048438  0.010075157           19 
 1576000   0.63910806   -8.8253062    208.73004   0.01103691  0.010065852           15 
 1577000   0.61937762   -8.8221072    208.91872  0.011039882  0.010056543           19 
 1578000   0.62678705   -8.8189153    208.73458  0.011023161  0.010047254           27 
 1579000   0.61936984   -8.7990773    208.91233  0.011025561  0.010037974           28 
 1580000   0.63320469   -8.8226066    208.73778  0.011009377  0.010028698           24 
 1581000   0.62124456   -8.8189404    208.81629  0.011006551  0.010019423           25 
 1582000   0.62461962   -8.8251819    208.83863  0.011000771  0.010010169           21 
 1583000   0.62716382   -8.8154897    209.12187  0.011008732   0.01000093           27 
 1584000   0.62999422   -8.8780064    208.85486  0.010987735 0.0099916962           26 
 1585000   0.62939778   -8.8183336    208.52912  0.010963676 0.0099824602           19 
 1586000   0.62190602     -8.81902    208.74132  0.010967913 0.0099732479           22 
 1587000   0.61286867   -8.8161744    208.74054  0.010960961 0.0099640654           22 
 1588000   0.61970078   -8.8220388    208.90167  0.010962514 0.0099548724           21 
 1589000    0.6172798   -8.8417101    208.51012  0.010935081  0.009945698           24 
 1590000   0.62402005   -8.8612499    208.84148   0.01094557 0.0099365315           27 
 1591000   0.61176701   -8.8407157    208.58184  0.010925091 0.0099273631           23 
 1592000   0.61368479   -8.8219139    208.69202  0.010923996 0.0099182091           24 
 1593000   0.62388217   -8.8190739    208.49815  0.010906997 0.0099090756           22 
 1594000   0.61587465   -8.8389724    208.49134  0.010899798 0.0098999574           27 
 1595000   0.60405944   -8.8196078    208.84687   0.01091154 0.0098908332           19 
 1596000   0.61312067   -8.8489297    208.50714  0.010886964  0.009881719           24 
 1597000   0.62427152   -8.8076284    209.02458  0.010907148 0.0098726231           22 
 1598000   0.61090112   -8.8496781    208.82626   0.01088998 0.0098635238           31 
 1599000   0.62775798   -8.8380386    208.77165  0.010880324 0.0098544438           30 
 1600000   0.61271566   -8.8405158    208.74291  0.010872026  0.009845347           28 
 1601000   0.62704825   -8.8503311    208.60319  0.010857963 0.0098362633           22 
 1602000   0.61315294   -8.8436506    208.84204   0.01086361 0.0098271901           30 
 1603000   0.62071007   -8.8319516    208.64199  0.010846433 0.0098181234           27 
 1604000   0.60828051   -8.8326738    208.51933  0.010833299 0.0098090798           29 
 1605000   0.60974784   -8.8355473    208.39472  0.010820079 0.0098000441           25 
 1606000   0.60481228   -8.8427437    208.47556  0.010817536  0.009791032           17 
 1607000   0.61044949   -8.8200452     208.7916  0.010827194 0.0097820385           23 
 1608000   0.61840815   -8.8594247    208.41231  0.010800804 0.0097730428           19 
 1609000   0.62601978   -8.8457269    208.79337  0.010813827 0.0097640603           29 
 1610000   0.60878158   -8.8498077     208.6237  0.010798328 0.0097550691           19 
 1611000   0.60194168   -8.8477299    208.56263  0.010788466 0.0097460855           21 
 1612000   0.61570927   -8.8812161    208.70538  0.010789153 0.0097370954           30 
 1613000   0.62023495   -8.8551357     208.5969   0.01077686 0.0097281322           20 
 1614000   0.61822837     -8.85844    208.80401  0.010780876 0.0097191891           21 
 1615000   0.61396096   -8.8344314    208.67322  0.010767452 0.0097102477           17 
 1616000   0.61251561   -8.8510736    208.64625  0.010759398 0.0097013197           16 
 1617000   0.60847922   -8.8587091    208.80604  0.010760979 0.0096924061           27 
 1618000     0.613737   -8.8532405    208.74496  0.010751182 0.0096835038           20 
 1619000   0.59886893   -8.8291339    209.15102  0.010765443 0.0096746102           32 
 1620000   0.59756446   -8.8616126    208.20648   0.01071021 0.0096657233           32 
 1621000   0.60866238   -8.8521708     208.9651  0.010742602 0.0096568449           28 
 1622000   0.61703818   -8.8346514    208.11857  0.010692487 0.0096479778           21 
 1623000   0.60744652   -8.8434116    208.62186   0.01071174 0.0096391123           22 
 1624000   0.60496391   -8.8543343    208.62315  0.010705211 0.0096302669           36 
 1625000   0.60394664    -8.853688    208.61476  0.010698193 0.0096214276           20 
 1626000   0.62217819    -8.874298    208.30184  0.010675576 0.0096126065           32 
 1627000   0.60524391   -8.8588235     208.1798  0.010662764 0.0096037938           38 
 1628000   0.60865443   -8.8645997    208.35121  0.010664988 0.0095949973           22 
 1629000   0.60415074   -8.8693591     208.7094  0.010676765 0.0095861957           27 
 1630000   0.60033484   -8.8345337    208.27972  0.010648248 0.0095774043           25 
 1631000   0.61263943   -8.8618593    208.34195  0.010644898 0.0095686182           32 
 1632000    0.6072266   -8.8564637    208.58317  0.010650693 0.0095598522           24 
 1633000   0.60124731   -8.8466883    208.13663  0.010621383 0.0095510835           31 
 1634000   0.60539848   -8.8730736    208.19985  0.010618107 0.0095423145           24 
 1635000   0.60239619    -8.849545    208.39058  0.010621334 0.0095335602           23 
 1636000   0.59960605   -8.8615369    208.52984  0.010621936  0.009524822           31 
 1637000   0.60317167   -8.8780261    208.41891    0.0106098 0.0095161005           21 
 1638000   0.61140456   -8.8797321    208.52946  0.010608947 0.0095073907           29 
 1639000   0.58776539   -8.8718706    208.47703  0.010599808  0.009498687           25 
 1640000   0.61080251   -8.8434798    208.67076  0.010603189  0.009490006           26 
 1641000   0.58422815   -8.8708591    208.56978    0.0105916 0.0094813308           24 
 1642000   0.59859262    -8.872111     208.6917  0.010591337 0.0094726549           32 
 1643000   0.59581405   -8.9064014    208.27188  0.010563597 0.0094639786           21 
 1644000   0.60768125   -8.8771574    208.71295  0.010579529 0.0094553339           16 
 1645000   0.59749404   -8.8644384    208.72332  0.010573623 0.0094466859           19 
 1646000   0.60015035   -8.8592439    208.19735  0.010540571  0.009438049           34 
 1647000   0.58476893   -8.8746687     207.9766  0.010523001 0.0094294118           21 
 1648000    0.6008933   -8.8547862    209.10035   0.01057344 0.0094207903           45 
 1649000   0.59997659     -8.88106    208.19434  0.010521242 0.0094121768           33 
 1650000   0.60295516   -8.8500276    208.58833  0.010534764  0.009403569           30 
 1651000   0.59896465   -8.8648512     208.2958  0.010513618 0.0093949647           40 
 1652000   0.58768842   -8.8987668    208.37503   0.01051125 0.0093863772           25 
 1653000    0.5987374    -8.875632    208.08395  0.010490217 0.0093778044           26 
 1654000   0.60107436   -8.8625056    208.35756   0.01049766 0.0093692342           38 
 1655000   0.59216993   -8.8883595    208.30071  0.010488455 0.0093606739           20 
 1656000   0.58663948   -8.8766726     208.1536  0.010474718 0.0093521202           21 
 1657000   0.60062508   -8.8781808    208.31363  0.010476445 0.0093435841           39 
 1658000   0.59727954   -8.8976389    208.56149  0.010482584 0.0093350497           37 
 1659000   0.60018417   -8.8670572    208.58287  0.010477339 0.0093265298           21 
 1660000   0.59922422   -8.8883687    208.15247  0.010449421 0.0093180146           21 
 1661000   0.58540137   -8.9009213    208.18241  0.010444632 0.0093095109           34 
 1662000   0.58695242   -8.8622537    208.55012  0.010456785 0.0093010099           30 
 1663000   0.58397278   -8.8797579    208.39844  0.010442896 0.0092925246           46 
 1664000   0.58471544   -8.9143259    208.23595  0.010428483 0.0092840384           33 
 1665000   0.57849004   -8.8710877    208.22826  0.010421835 0.0092755546           30 
 1666000   0.59585808   -8.8819639    208.05071  0.010406698 0.0092670822           40 
 1667000   0.59542892    -8.894644    208.28017  0.010411926 0.0092586234           42 
 1668000    0.5757193   -8.9032647    208.29594  0.010406472 0.0092501702           26 
 1669000   0.59611539   -8.8779695    208.32952  0.010401913 0.0092417245           25 
 1670000   0.59223109   -8.9087594    208.29011  0.010393718 0.0092332838           35 
 1671000   0.59399937   -8.9081678     208.2798  0.010386984  0.009224861           30 
 1672000   0.58276046   -8.8899108    208.32424  0.010382986 0.0092164479           41 
 1673000   0.57921232   -8.8939963    208.44835  0.010382962 0.0092080291           39 
 1674000   0.59342456   -8.8936689    208.26673  0.010367719 0.0091996459           41 
 1675000   0.57630539   -8.9206548    208.45303  0.010370797 0.0091912535           24 
 1676000   0.57678713   -8.8974465    208.08259  0.010346191 0.0091828695           22 
 1677000   0.59429958   -8.9009324    208.19996  0.010345854 0.0091745026           43 
 1678000   0.58287958   -8.8906501    208.01737   0.01033062 0.0091661395           35 
 1679000   0.57510593   -8.8807234    208.36754  0.010341847 0.0091577974           46 
 1680000   0.59232433   -8.9115203    207.96415  0.010315682  0.009149456           41 
 1681000   0.59690533   -8.9154719    207.97096  0.010309883 0.0091411324           33 
 1682000   0.59035794   -8.9005978    208.01056  0.010305715 0.0091328061           31 
 1683000   0.58767127   -8.8945295    208.24144  0.010311024 0.0091244869           17 
 1684000    0.5799659   -8.9050979    208.22033  0.010303857 0.0091161816           16 
 1685000   0.59733506   -8.9146994    207.83802  0.010278834 0.0091078921           30 
 1686000   0.59113669   -8.9010196    207.69428  0.010265633 0.0090996114           42 
 1687000   0.57382285   -8.9180426    207.75971   0.01026278 0.0090913353           25 
 1688000   0.59009136   -8.9108322     208.1513  0.010276032 0.0090830614           19 
 1689000   0.58466804   -8.9170896    208.43929  0.010284157 0.0090747914           50 
 1690000   0.56511488   -8.9030043    208.01823  0.010257309 0.0090665384           30 
 1691000   0.56869557   -8.9043172    208.31337  0.010265788 0.0090582942           32 
 1692000   0.57391507   -8.8999638    208.05528  0.010247009 0.0090500625           31 
 1693000   0.58734891   -8.8975005    207.67085  0.010222035 0.0090418404           38 
 1694000   0.57215786   -8.9281232    208.07325  0.010235795 0.0090336128           20 
 1695000   0.58109732   -8.8914698    208.00644  0.010226472 0.0090253958           41 
 1696000   0.57947211   -8.9170931     207.9833  0.010219305 0.0090171849           33 
 1697000   0.57768166   -8.9119479    207.95822  0.010212052 0.0090089899           47 
 1698000   0.58778274   -8.8887345    207.62076  0.010189476 0.0090008006           42 
 1699000   0.58958964   -8.9232702    208.01014  0.010202577 0.0089926219           41 
 1700000    0.5816556   -8.9096241    208.03327  0.010197709 0.0089844495           20 
 1701000   0.56016859   -8.9323633    208.04365  0.010192223 0.0089762759           48 
 1702000    0.5696223   -8.9105004    207.90643  0.010179516 0.0089681165           32 
 1703000    0.5781705   -8.9130344    207.97616  0.010176951  0.008959968           49 
 1704000   0.58382766   -8.9200379     207.6546  0.010155252 0.0089518253           23 
 1705000   0.57967131   -8.9193945    207.90252  0.010161413 0.0089436989           41 
 1706000   0.56419257   -8.9344083    208.13431  0.010166779 0.0089355683           31 
 1707000   0.56828811   -8.9256632    207.92755   0.01015073 0.0089274446           31 
 1708000     0.576976   -8.9206842    207.91769  0.010144306 0.0089193351           37 
 1709000   0.57450501   -8.9290891    207.74157  0.010129782 0.0089112231           38 
 1710000   0.57726596   -8.9369742    207.56973  0.010115484 0.0089031262           38 
 1711000   0.56015403   -8.9185109    207.94406  0.010127803 0.0088950595           25 
 1712000   0.56851968    -8.916432     207.4057  0.010095682  0.008887001           43 
 1713000    0.5808373   -8.9175065    207.85073  0.010111438 0.0088789408           43 
 1714000    0.5668916   -8.9282383    207.65516  0.010096031 0.0088708859           37 
 1715000   0.57283773   -8.9589384    207.59938  0.010087433  0.008862843           41 
 1716000   0.56287357   -8.9194969    207.85862  0.010094144 0.0088547927           25 
 1717000   0.56220056   -8.9293043    207.91079  0.010090797 0.0088467662           41 
 1718000   0.56472337   -8.9379872     207.7364  0.010076465 0.0088387458           39 
 1719000   0.56081734   -8.9194799    207.94188  0.010080564 0.0088307351           38 
 1720000   0.55857787   -8.9426082    207.82073  0.010068834 0.0088227267           34 
 1721000   0.55963037    -8.932369    207.88669  0.010066177 0.0088147329           45 
 1722000   0.57456151   -8.9342744    207.95745  0.010063756 0.0088067521           29 
 1723000   0.55717258   -8.9270218    207.96773  0.010058412 0.0087987723           31 
 1724000   0.55631549   -8.9450305    207.86264  0.010047498 0.0087907991           40 
 1725000   0.57154712   -8.9421868    207.76828  0.010037115 0.0087828305           53 
 1726000   0.56962714   -8.9258945    207.77685  0.010031713 0.0087748799           17 
 1727000    0.5685745   -8.9398763    207.41293  0.010008344 0.0087669305           30 
 1728000   0.56457214   -8.9420726    207.29375 0.0099968053 0.0087589923           47 
 1729000   0.57064792   -8.9363749     207.6964   0.01001043 0.0087510664           41 
 1730000   0.56128942    -8.922974    207.82074  0.010010633 0.0087431478           26 
 1731000    0.5533885   -8.9313273    207.58683 0.0099935888 0.0087352458           29 
 1732000   0.53512828   -8.9415583    207.69172 0.0099928656 0.0087273571           24 
 1733000   0.55320545   -8.9228826    207.74938 0.0099898719 0.0087194662           35 
 1734000   0.55007679   -8.9431627    207.66836 0.0099802173 0.0087115935           41 
 1735000   0.55456474    -8.941416    208.06645 0.0099935856 0.0087037198           28 
 1736000   0.55355546   -8.9249756    207.46299  0.009958861  0.008695869           32 
 1737000   0.55339185   -8.9451822    207.61848 0.0099605873 0.0086880095           35 
 1738000   0.55698983   -8.9455052    207.63161 0.0099554858 0.0086801572           33 
 1739000   0.55328474   -8.9467089    207.42654 0.0099399338 0.0086723225           36 
 1740000   0.54861333   -8.9450039    207.96428 0.0099599752 0.0086644989           31 
 1741000   0.56190129   -8.9584907    207.72228 0.0099426709 0.0086566827           26 
 1742000   0.56253913   -8.9667596    207.64956 0.0099334843 0.0086488656           27 
 1743000   0.55127262   -8.9554404    207.68912 0.0099296768 0.0086410621           41 
 1744000   0.55564854   -8.9328937    207.61402 0.0099203945 0.0086332705           26 
 1745000   0.57172276   -8.9493618     208.1182  0.009938787  0.008625486           25 
 1746000   0.57165995   -8.9547363    207.39478 0.0098985672 0.0086177184           34 
 1747000   0.54639341   -8.9537329    207.57578  0.009901535 0.0086099516           32 
 1748000   0.55222693   -8.9510541    208.04465 0.0099182233 0.0086021979           29 
 1749000   0.54385098    -8.946591    207.29854 0.0098770033  0.008594444           41 
 1750000   0.55599456   -8.9503607    207.43006 0.0098776217 0.0085866997           39 
 1751000   0.55528523   -8.9625737    207.47259 0.0098740049 0.0085789788           28 
 1752000   0.55452537    -8.944022    207.22201 0.0098564502 0.0085712679           21 
 1753000   0.56140765    -8.966056    207.40456 0.0098595056 0.0085635624           31 
 1754000   0.56078017   -8.9538478    207.94027 0.0098793361 0.0085558677           29 
 1755000   0.55927197   -8.9448933    207.39184 0.0098476657 0.0085481688           52 
 1756000   0.56051759   -8.9716485    207.62514 0.0098531291 0.0085404915           30 
 1757000   0.55786924   -8.9503371    207.82278 0.0098568954 0.0085328157           35 
 1758000   0.54436747   -8.9417062    207.51082 0.0098365009 0.0085251604           32 
 1759000   0.53566545   -8.9538563    207.60168 0.0098352132 0.0085174962           16 
 1760000   0.54445995   -8.9438996    207.57892 0.0098285473 0.0085098418           32 
 1761000   0.55560402    -8.951735    207.64817 0.0098262433  0.008502204           36 
 1762000   0.54281434   -8.9774919    207.73678 0.0098248572 0.0084945702           57 
 1763000   0.54159101    -8.958637    207.47825  0.009807064 0.0084869444           39 
 1764000   0.55233481   -8.9491198     207.6894 0.0098114797  0.008479334           40 
 1765000   0.55832203   -8.9404272    207.66318 0.0098046827 0.0084717344           21 
 1766000   0.55616255   -8.9690705     207.6396 0.0097980182 0.0084641334           43 
 1767000   0.54826352   -8.9441887    207.60959 0.0097910577 0.0084565325           42 
 1768000   0.55703733   -8.9667175    207.43227 0.0097771619 0.0084489464           31 
 1769000   0.54910773   -8.9793722    207.14437 0.0097580727 0.0084413712           28 
 1770000   0.54403829   -8.9660876     207.3593 0.0097626789  0.008433801           36 
 1771000   0.54812677   -8.9625958    207.42914 0.0097604528 0.0084262389           19 
 1772000   0.54907356   -8.9637978    207.29918 0.0097488329 0.0084186973           24 
 1773000   0.55462511   -8.9652078    207.53758 0.0097545396 0.0084111623           27 
 1774000   0.54493089   -8.9869539    207.30537 0.0097381327 0.0084036299           33 
 1775000      0.55484   -8.9701273    207.52523 0.0097429685  0.008396102           68 
 1776000   0.52935539   -8.9678784    207.44345 0.0097336452 0.0083885895           47 
 1777000   0.54368662   -8.9762354    207.54289 0.0097328309 0.0083810819           51 
 1778000   0.53912501   -8.9438116    207.22692 0.0097125478  0.008373588           32 
 1779000   0.54268614   -8.9859847    207.51004 0.0097203505 0.0083660929           47 
 1780000    0.5441689    -8.986523     207.4915 0.0097140216 0.0083586152           35 
 1781000   0.52918293   -8.9871358    207.01922 0.0096864693 0.0083511448           23 
 1782000   0.52150381   -8.9644862    207.51731  0.009704326 0.0083436781           40 
 1783000   0.54800477   -8.9742184    207.30363 0.0096888964 0.0083362282           43 
 1784000   0.54299994   -8.9649073    207.58948 0.0096968178  0.008328793           62 
 1785000   0.53520623   -8.9696695    207.68616 0.0096958991 0.0083213593           36 
 1786000   0.54084763   -8.9756623    207.37443 0.0096759251 0.0083139393           43 
 1787000   0.54404762   -8.9502809    207.52679 0.0096776155 0.0083065307           38 
 1788000   0.54686479   -8.9699134    207.85918 0.0096876948 0.0082991269           41 
 1789000   0.55097335   -8.9843221    207.20523 0.0096518183 0.0082917282           42 
 1790000   0.54003966   -8.9646136    207.06689 0.0096399858 0.0082843387           43 
 1791000   0.52451306   -8.9860473    207.55719 0.0096574164 0.0082769568           40 
 1792000   0.53463481   -8.9569614    207.23096 0.0096368565 0.0082695812           48 
 1793000   0.54500088   -8.9890712    207.32287 0.0096357532 0.0082622182           50 
 1794000   0.53384135   -8.9705792    207.93327  0.009658736 0.0082548583           55 
 1795000   0.53958908   -8.9733446    207.58049  0.009636977 0.0082475121           37 
 1796000   0.54280963   -8.9704969    207.30742 0.0096189413 0.0082401704           49 
 1797000   0.52318532    -8.981577    207.75394 0.0096342953 0.0082328331           69 
 1798000   0.53276924   -8.9681411    207.25081 0.0096056178 0.0082255132           52 
 1799000   0.54996387   -8.9514374    207.46081 0.0096100062 0.0082181981           54 
 1800000    0.5325465   -8.9848457    207.71538 0.0096164529  0.008210896           26 
 1801000   0.53601946    -8.966923    207.95184 0.0096220545 0.0082035886           36 
 1802000   0.52265909   -8.9801406    207.28785 0.0095860084 0.0081962933           35 
 1803000   0.53364776   -8.9913927    207.02309 0.0095684547 0.0081889986           53 
 1804000   0.53830598    -8.983254    207.17936 0.0095703695 0.0081817169           22 
 1805000   0.53162436    -9.006848    207.27254 0.0095693692 0.0081744466           49 
 1806000   0.53899034   -9.0039784    207.34256 0.0095673015 0.0081671806           48 
 1807000   0.53654339   -9.0080753    207.19449 0.0095551784 0.0081599166           39 
 1808000     0.537296   -8.9890837    207.01101 0.0095414366 0.0081526619           49 
 1809000   0.53066829   -8.9867301    207.31921 0.0095503596 0.0081454137           48 
 1810000    0.5296728   -8.9713994    207.31621  0.009544945 0.0081381845           21 
 1811000   0.52162307   -9.0013853    207.20208 0.0095344228 0.0081309558           45 
 1812000   0.51705973   -9.0050519    207.02639 0.0095210811   0.00812374           25 
 1813000   0.52361905   -8.9772525    207.14288 0.0095211842 0.0081165283           51 
 1814000   0.52470556   -8.9917845    207.24561 0.0095206547 0.0081093202           45 
 1815000   0.52992835   -8.9852277    206.99722 0.0095040046 0.0081021322           49 
 1816000   0.52930423   -9.0128967    207.17195  0.009506789 0.0080949438           20 
 1817000   0.51980932   -8.9841435    207.05324 0.0094961125 0.0080877581           22 
 1818000   0.52620178   -8.9809312    207.17599  0.009496516 0.0080805947           46 
 1819000   0.52509015   -9.0058385    207.06298 0.0094861179 0.0080734243           20 
 1820000   0.51522021    -8.996216    207.41545 0.0094970446 0.0080662544           41 
 1821000   0.53593215   -8.9977834    207.36828 0.0094896705 0.0080590975           25 
 1822000   0.54046161   -8.9892492    206.74081 0.0094557633 0.0080519511           55 
 1823000   0.51678765   -8.9761702    207.11535 0.0094676975 0.0080448151           49 
 1824000   0.52042124   -9.0018263    207.23493 0.0094679699 0.0080376919           48 
 1825000    0.5139504   -9.0035625    207.22288  0.009462232 0.0080305751           62 
 1826000   0.53904222   -9.0152232    206.93611 0.0094439629 0.0080234601           22 
 1827000   0.52027861   -8.9984103    207.02705 0.0094429415 0.0080163553           19 
 1828000   0.53587482   -8.9917832    207.15438 0.0094435803  0.008009256           46 
 1829000   0.52445121   -9.0071067    207.10659 0.0094362396 0.0080021627           47 
 1830000   0.52563822   -9.0076636    207.01757 0.0094270295 0.0079950831           22 
 1831000   0.52526787   -9.0024407    206.93295 0.0094180297 0.0079880093           57 
 1832000   0.51715389   -9.0078237    206.81736 0.0094076308 0.0079809432           54 
 1833000   0.52858879   -9.0181859    207.16302 0.0094182135 0.0079738876           70 
 1834000   0.52536771   -9.0085773    206.71742 0.0093928307  0.007966846           49 
 1835000   0.52667314   -8.9921723    206.94422 0.0093980118  0.007959796           44 
 1836000   0.53080929   -8.9977974    207.14051 0.0094018025 0.0079527638           53 
 1837000   0.51443502   -8.9979663    206.97411 0.0093891358  0.007945734           44 
 1838000    0.5201554   -9.0025238    207.10035  0.009389751 0.0079387117           48 
 1839000   0.52807478   -9.0336039    206.84545 0.0093730944 0.0079317026           40 
 1840000   0.52546828   -9.0081658    207.12098 0.0093804792  0.007924692           54 
 1841000   0.52035639   -9.0196987    206.96158 0.0093681687 0.0079176964           49 
 1842000    0.5268458   -9.0164718      206.857 0.0093583514 0.0079107058           48 
 1843000   0.51946723   -8.9975353    207.16827 0.0093673481 0.0079037255           49 
 1844000    0.5097468   -9.0179159    207.43624 0.0093743782 0.0078967551           46 
 1845000   0.50133754   -9.0129883    206.96492  0.009348009 0.0078897844           55 
 1846000   0.52208038   -9.0132204    207.10717 0.0093493664 0.0078828301           40 
 1847000   0.51359891   -9.0189613    207.25147 0.0093508152 0.0078758819           46 
 1848000   0.51858768   -9.0235262    206.79887 0.0093253457 0.0078689391           51 
 1849000   0.50366873   -9.0053931    207.20532 0.0093386207 0.0078620058           45 
 1850000   0.52866012   -9.0193125    207.05137 0.0093266382 0.0078550767           46 
 1851000   0.51457096   -9.0123191    206.61683 0.0093020363 0.0078481501           33 
 1852000   0.50716933   -9.0189228    206.92844 0.0093110349 0.0078412302           33 
 1853000   0.50705667   -9.0368789    206.78295 0.0092994672 0.0078343159           48 
 1854000    0.5230539   -9.0371983    206.91841 0.0093005397 0.0078274132           49 
 1855000   0.51622546   -9.0239389    207.08265 0.0093029042   0.00782052           31 
 1856000   0.52930654   -9.0193362    206.87802 0.0092887041 0.0078136285           25 
 1857000   0.51382259   -9.0246721    207.13008 0.0092950136 0.0078067527           29 
 1858000   0.51340846   -9.0287178    206.66164 0.0092690008 0.0077998803           34 
 1859000   0.51164724   -9.0187254    206.60304  0.009261388 0.0077930136           48 
 1860000   0.50223193   -9.0427122    206.60063 0.0092563004  0.007786161           27 
 1861000   0.51494825   -9.0392444    206.80959 0.0092606836 0.0077793204           26 
 1862000   0.51107624   -9.0340947     206.8838 0.0092590317 0.0077724788           52 
 1863000   0.50341274    -9.029321    206.83278 0.0092517792 0.0077656551           46 
 1864000   0.50195222    -9.029725    206.95354 0.0092522148 0.0077588322           33 
 1865000   0.51083878      -9.0135     206.7973 0.0092402726 0.0077520241           23 
 1866000   0.50761872     -9.01657    206.61157 0.0092270263 0.0077452222           43 
 1867000   0.50780908   -9.0329878    206.89921 0.0092349226 0.0077384169           34 
 1868000   0.51283308   -9.0344657    206.58663 0.0092160346 0.0077316223           31 
 1869000   0.51060972   -9.0356596    206.89665 0.0092249265 0.0077248385           29 
 1870000    0.5113928   -9.0313619    206.72448 0.0092123207 0.0077180568           32 
 1871000    0.5179875   -9.0420616    206.67461 0.0092051758 0.0077112893           45 
 1872000   0.49718763   -9.0115661    206.83463 0.0092073818  0.007704532           46 
 1873000   0.51002076   -9.0408808      206.909 0.0092057753 0.0076977741           61 
 1874000   0.51586432   -9.0273498    206.82135  0.009196965 0.0076910257           53 
 1875000   0.49867797   -9.0381663    206.88092 0.0091947078 0.0076842877           47 
 1876000   0.50368338   -9.0334361    206.86019 0.0091888855 0.0076775573           24 
 1877000   0.50914828   -9.0401772    206.74743  0.009178984 0.0076708348           58 
 1878000   0.50861942   -9.0385193    206.66768 0.0091705573 0.0076641164           46 
 1879000   0.49436301   -9.0459117      206.539 0.0091599699 0.0076574106           54 
 1880000   0.49761945   -9.0350307    206.92873 0.0091723728 0.0076507088           55 
 1881000   0.49571276     -9.03787    206.35936 0.0091422719 0.0076440113           27 
 1882000    0.5019957   -9.0515494    206.81857 0.0091577476 0.0076373235           41 
 1883000   0.50773559   -9.0450716    206.40173 0.0091344368 0.0076306422           42 
 1884000   0.50020173   -9.0261743    206.69417 0.0091425233 0.0076239727           52 
 1885000   0.48615853    -9.041162    206.76568 0.0091408345 0.0076173096           44 
 1886000   0.49025786   -9.0527215     206.5647 0.0091271078 0.0076106447           23 
 1887000   0.51390099   -9.0507918     206.9747  0.009140377  0.007603999           28 
 1888000    0.4901586    -9.054856    206.71984 0.0091242867 0.0075973526           59 
 1889000    0.4998395   -9.0264784    206.63715 0.0091158086 0.0075907135           54 
 1890000   0.51118025   -9.0191361    206.43065 0.0091018805 0.0075840769           47 
 1891000   0.50331256   -9.0434113    206.76384 0.0091117502 0.0075774549           62 
 1892000   0.49855211   -9.0428159     206.3771 0.0090899006 0.0075708334           55 
 1893000    0.4953287   -9.0354964    206.83153 0.0091051034 0.0075642219           53 
 1894000   0.48887521   -9.0378324    206.70894 0.0090949024 0.0075576239           44 
 1895000   0.49529406   -9.0577757      206.617   0.00908606 0.0075510289           43 
 1896000   0.50627437   -9.0532353    206.77896 0.0090883861 0.0075444464           38 
 1897000   0.49585699   -9.0634185    206.32854 0.0090638085 0.0075378598           36 
 1898000   0.49922018   -9.0573905    206.57734 0.0090699571 0.0075312867           47 
 1899000   0.49588866   -9.0378041    206.45321 0.0090597334 0.0075247213           44 
 1900000   0.48405994   -9.0623181    206.77732 0.0090691805 0.0075181636           52 
 1901000   0.50085872   -9.0343284    206.79672 0.0090652605  0.007511622           30 
 1902000   0.49015774   -9.0447467    206.52953 0.0090487877 0.0075050905           48 
 1903000   0.48955779   -9.0527118    206.65827 0.0090496703 0.0074985581           43 
 1904000   0.49625388   -9.0510545    206.54979 0.0090401692 0.0074920263           53 
 1905000   0.48882841   -9.0578064    206.42828 0.0090301083 0.0074855029           52 
 1906000    0.4830112   -9.0705415    206.46021 0.0090267668  0.007478988           56 
 1907000   0.51130788   -9.0508988    206.44832 0.0090215136  0.007472481           50 
 1908000   0.49373009   -9.0576646    206.56245 0.0090217703 0.0074659866           50 
 1909000   0.49157689    -9.057905     206.4231 0.0090109612 0.0074594994           47 
 1910000    0.4925843   -9.0372948    206.63789 0.0090156149 0.0074530146           51 
 1911000   0.49505045   -9.0498186    206.54372 0.0090067907 0.0074465336           55 
 1912000    0.4892544    -9.055926    206.45475 0.0089982024 0.0074400552           55 
 1913000   0.48342498    -9.051088    206.63073 0.0090011645 0.0074335884           52 
 1914000   0.48169054   -9.0574685    206.47214 0.0089895568  0.007427127           60 
 1915000    0.4943681   -9.0446124    206.40692 0.0089820245 0.0074206735           49 
 1916000   0.48983358   -9.0736456    206.23325 0.0089697831 0.0074142306           39 
 1917000   0.47755636    -9.053288    206.67009 0.0089840935 0.0074077904           52 
 1918000   0.48029003   -9.0409167    206.33396 0.0089648053 0.0074013647           25 
 1919000   0.50111084   -9.0593291    206.42438 0.0089640604 0.0073949508           45 
 1920000   0.48259913   -9.0575316    206.49887 0.0089626246 0.0073885349           49 
 1921000    0.4834439   -9.0647724    206.50544 0.0089582438 0.0073821271           55 
 1922000   0.49061107   -9.0599636    206.41914 0.0089498412 0.0073757325           24 
 1923000   0.48437803   -9.0622799     206.4406 0.0089461172 0.0073693329           25 
 1924000   0.49052136   -9.0578647    206.36282 0.0089380984 0.0073629473           27 
 1925000   0.48685783   -9.0728164    206.58254 0.0089429671 0.0073565707           51 
 1926000   0.48377555   -9.0716289    206.31329 0.0089266742 0.0073501984           54 
 1927000   0.49208858   -9.0653747    206.51011 0.0089305529 0.0073438286           42 
 1928000   0.47600096    -9.063765    206.15509 0.0089105761 0.0073374729           49 
 1929000   0.49050482   -9.0633912    206.33568 0.0089137584 0.0073311261           43 
 1930000   0.48852321   -9.0649633    206.92844  0.008934734 0.0073247907           53 
 1931000   0.48095769   -9.0543316     206.3803 0.0089064518 0.0073184572           46 
 1932000   0.48134622    -9.059758    206.53843 0.0089086625 0.0073121286           59 
 1933000   0.48294016    -9.081545    206.34545 0.0088957343 0.0073058117           52 
 1934000   0.49148084   -9.0599711    206.20125 0.0088849213 0.0072994979           49 
 1935000   0.49566138   -9.0586993    206.73265 0.0089032148 0.0072931912           53 
 1936000   0.47121939   -9.0857408    206.17514 0.0088746185 0.0072868918           26 
 1937000   0.48860765   -9.0858303    206.26903 0.0088740764 0.0072806016           57 
 1938000   0.48327794   -9.0834967    206.24903 0.0088686372 0.0072743181           40 
 1939000   0.47400597   -9.0629309    206.25155  0.008864172 0.0072680417           45 
 1940000   0.48424042   -9.0730527    206.56207 0.0088729413 0.0072617742           46 
 1941000   0.48583428    -9.069824    206.12755 0.0088497143 0.0072555111           48 
 1942000   0.47280121   -9.0662875    205.91136 0.0088358804 0.0072492552           53 
 1943000   0.47327034   -9.0782354    206.35419 0.0088503257 0.0072430062           52 
 1944000   0.48695779   -9.0830521    206.40214 0.0088478282 0.0072367681           24 
 1945000   0.47574677   -9.0865607    206.05996 0.0088286185  0.007230529           26 
 1946000   0.47180656   -9.0761795    206.25179 0.0088322966 0.0072243028           31 
 1947000    0.4799279   -9.0840523    206.51251 0.0088389192 0.0072180853           51 
 1948000   0.47508031   -9.0813276      206.228 0.0088222109 0.0072118688           42 
 1949000   0.47765886   -9.0994628    206.52576 0.0088304158 0.0072056663           50 
 1950000   0.47931518   -9.0721463    206.48831 0.0088242868  0.007199471           61 
 1951000   0.47393492   -9.0809212    206.02884 0.0088001384 0.0071932697           25 
 1952000   0.47050178   -9.0797567    206.21668 0.0088036492 0.0071870774           54 
 1953000   0.47689822   -9.0815621    206.27199 0.0088015015 0.0071808947           57 
 1954000   0.45522604   -9.0825873    206.12088 0.0087905528 0.0071747173           51 
 1955000   0.47121961   -9.0785601    206.39166 0.0087975986 0.0071685464           35 
 1956000   0.47552272    -9.097088    205.99269 0.0087761028 0.0071623869           29 
 1957000   0.47041277   -9.0777492    206.32438 0.0087857428  0.007156236           25 
 1958000   0.45931394   -9.0766366    206.22302 0.0087769415 0.0071500927           58 
 1959000   0.48691107   -9.0873844    206.33998 0.0087774365 0.0071439581           39 
 1960000   0.46959308     -9.09747     205.9471 0.0087562543 0.0071378262           30 
 1961000   0.46337873   -9.0984912    206.16169 0.0087609082 0.0071316971           45 
 1962000    0.4753779   -9.0841746    206.62878 0.0087762819 0.0071255801           49 
 1963000   0.47039588   -9.0862238    206.03398 0.0087465604 0.0071194721           49 
 1964000   0.47494344    -9.085149    206.46049  0.008760204 0.0071133777           36 
 1965000   0.47048238   -9.0773329    206.31744 0.0087496793 0.0071072826           47 
 1966000   0.46971241   -9.0915941    206.50535 0.0087531941  0.007101194           40 
 1967000   0.46950399   -9.0727798    206.28559 0.0087394334   0.00709511           34 
 1968000   0.46780516   -9.0855198    206.38976 0.0087394039 0.0070890288           32 
 1969000   0.47494962    -9.107533    206.29482 0.0087309472 0.0070829544           44 
 1970000   0.48048568   -9.0892122    206.24385 0.0087243592  0.007076886           47 
 1971000   0.46690626    -9.096555    206.13016 0.0087151258 0.0070708258           54 
 1972000   0.44743269   -9.0937047    206.07676   0.00870845  0.007064772           27 
 1973000   0.46502375   -9.1055671    206.28926 0.0087130117 0.0070587238           49 
 1974000   0.45596611   -9.1049669    205.94024 0.0086938636 0.0070526819           30 
 1975000   0.46461857   -9.0939337    206.24181 0.0087021863 0.0070466466           58 
 1976000   0.46255613   -9.1145167    206.10967 0.0086922095 0.0070406181           53 
 1977000   0.46138431   -9.0995227    205.88105 0.0086781761 0.0070345985           22 
 1978000   0.45959485    -9.110636    206.33055 0.0086927263 0.0070285905           39 
 1979000    0.4657846   -9.0715199    206.14237 0.0086804098 0.0070225834           34 
 1980000   0.48251827   -9.0919758    206.06223  0.008672653 0.0070165892           46 
 1981000   0.46090593   -9.1043286    206.40324 0.0086826199 0.0070105968           50 
 1982000   0.45677302   -9.0994561    205.70684  0.008648959 0.0070046115           48 
 1983000   0.45912651   -9.1017004    206.00304  0.008657045 0.0069986311           51 
 1984000   0.46413416   -9.0939319    206.16348 0.0086594204 0.0069926636           53 
 1985000   0.46109463   -9.0917635    206.07802 0.0086514704  0.006986695           42 
 1986000   0.46693652   -9.1007846    206.30086 0.0086564642 0.0069807363           49 
 1987000   0.46640166   -9.0959501    205.82792 0.0086322733  0.006974783           49 
 1988000   0.45391195   -9.1105605     206.2184 0.0086442991 0.0069688424           29 
 1989000   0.46774052   -9.1076756    206.08888 0.0086345265 0.0069629006           53 
 1990000   0.46157964   -9.1124087    205.95057 0.0086243958  0.006956968           52 
 1991000   0.45702283   -9.1100189    205.76354 0.0086122357 0.0069510464           49 
 1992000   0.46024438   -9.1092887    206.12548 0.0086230541 0.0069451256           53 
 1993000   0.46409566   -9.1002138    206.09677 0.0086175267 0.0069392071           56 
 1994000   0.45237028   -9.1042674    206.24732 0.0086194968 0.0069332958           52 
 1995000   0.44943767   -9.1039487    206.18334 0.0086125037 0.0069273916           50 
 1996000   0.46152797    -9.124108    205.64181 0.0085855797 0.0069214948           47 
 1997000   0.46265675   -9.1155783    206.30381 0.0086089056  0.006915603           56 
 1998000    0.4516664   -9.1138878     205.8511 0.0085857148 0.0069097181           54 
 1999000   0.44910147   -9.1051005    206.04307 0.0085894227 0.0069038429           52 
 2000000   0.45430589   -9.1159276    206.16748 0.0085903116 0.0068979655           43 
 2001000     0.449746   -9.1155795    205.88425 0.0085742232 0.0068921015           54 
 2002000   0.44599047   -9.1149059    205.69042 0.0085618722 0.0068862436           61 
 2003000   0.45434688   -9.1073812    206.20541 0.0085790235 0.0068803935           50 
 2004000   0.45523455   -9.1180564    205.86606 0.0085606313 0.0068745521           48 
 2005000   0.45882873    -9.118991    205.73239  0.008550806 0.0068687079           54 
 2006000   0.44392837   -9.1239769    205.80038 0.0085493679 0.0068628754           52 
 2007000   0.45583788    -9.112441     205.7747 0.0085440419 0.0068570512           54 
 2008000   0.45349089   -9.1051355    205.51804  0.008529135  0.006851235           50 
 2009000   0.45957839   -9.0997762    205.75283 0.0085346289 0.0068454229           54 
 2010000   0.45981142   -9.1261469    205.62656 0.0085251477 0.0068396099           54 
 2011000   0.44875087   -9.1152763    205.76281 0.0085265544 0.0068338122           53 
 2012000   0.46037997   -9.1222176    205.83674 0.0085253785 0.0068280129           57 
Loop time of 5044.56 on 48 procs for 2000000 steps with 4000 atoms

Performance: 68509.378 tau/day, 396.466 timesteps/s
99.4% CPU use with 48 MPI tasks x no OpenMP threads

MPI task timing breakdown:
Section |  min time  |  avg time  |  max time  |%varavg| %total
---------------------------------------------------------------
Pair    | 344.46     | 367.77     | 399.13     |  70.7 |  7.29
Neigh   | 33.459     | 35.195     | 37.003     |  16.0 |  0.70
Comm    | 314.91     | 346.66     | 373.18     |  75.4 |  6.87
Output  | 4.1822     | 4.1838     | 4.2207     |   0.3 |  0.08
Modify  | 4230.5     | 4245.7     | 4257.5     |   9.0 | 84.16
Other   |            | 45.08      |            |       |  0.89

Nlocal:        83.3333 ave          93 max          73 min
Histogram: 1 0 3 7 13 10 2 8 1 3
Nghost:        2278.44 ave        2296 max        2259 min
Histogram: 3 2 4 5 9 10 2 4 6 3
Neighs:        15388.2 ave       17881 max       13671 min
Histogram: 4 5 3 12 13 4 2 2 0 3
FullNghs:      30777.0 ave       34270 max       27081 min
Histogram: 1 1 4 9 11 8 4 6 1 3

Total # of neighbors = 1477297
Ave neighs/atom = 369.32425
Neighbor list builds = 106557
Dangerous builds = 0

#clear
#
#next RN
#
#jump SELF
Total wall time: 1:24:08
