
units lj                  # Use reduced LJ style units
atom_style atomic         # Uncharged point particles
atom_modify map hash      # Needed for indexing of clusters etc
                          # Used to be able to find where atoms are in relation to each other.

lattice fcc 1.0 spacing 1 1 1
Lattice spacing in x,y,z = 1.5874011 1.5874011 1.5874011
region box block 0 10 0 10 0 10 units lattice
create_box 2 box
Created orthogonal box = (0.0000000 0.0000000 0.0000000) to (15.874011 15.874011 15.874011)
  3 by 4 by 4 MPI processor grid
create_atoms 1 box
Created 4000 atoms
  using lattice units in orthogonal box = (0.0000000 0.0000000 0.0000000) to (15.874011 15.874011 15.874011)
  create_atoms CPU = 0.002 seconds
set type 1 type/fraction 2 0.17 78393
Setting atom values ...
  712 settings made for type/fraction
mass 1 1.0
mass 2 1.0
pair_style lj/cut  3.5
pair_modify tail  yes
pair_coeff 1  1  1.0  1.0   # Intearaction between 1 and 1 set with epsilon = 1 and sigma = 1
pair_coeff 1  2  1.5  0.8
pair_coeff 2  2  0.5  0.88

write_data data.0
System init for write_data ...
Neighbor list info ...
  update every 1 steps, delay 10 steps, check yes
  max neighbors/atom: 2000, page size: 100000
  master list distance cutoff = 3.8
  ghost atom cutoff = 3.8
  binsize = 1.9, bins = 9 9 9
  1 neighbor lists, perpetual/occasional/extra = 1 0 0
  (1) pair lj/cut, perpetual
      attributes: half, newton on
      pair build: half/bin/atomonly/newton
      stencil: half/bin/3d
      bin: standard
WARNING: Not all mixed pair coeffs generated from mixing. Use write_data with 'pair ij' option to store all pair coeffs. (../write_data.cpp:312)


#############################
#   M E L T   S Y S T E M   #
#############################

velocity all create 2.4 6229865 mom yes dist gaussian # Assign velocities
                                                    # Temperature 2.4, random number seed, zero linear momentum
                                                                                # Gaussian distribution

timestep 0.002   # simulation timestep
thermo 1000       # output thermodynamic data every 1000 steps bf 100

# Define a fix  in this case with index 1 applied to all
# particles in the simulation. This fix is for simulations
# in the anisotropic NPT ensemble. Note that we use the MTK
# correction.
fix 1 all npt temp 2.4 2.4 0.1 iso 5.68 5.68 0.5 mtk yes tchain 5 pchain 5 # Use NPT ensemble
                                                                         # Set temperature and pressure and damping
                                                                         # Numbers of thermostats in chain and in barostat
run 10000          # run for 10000 steps
Per MPI rank memory allocation (min/avg/max) = 3.642 | 3.644 | 3.648 Mbytes
Step Temp E_pair E_mol TotEng Press Volume 
       0          2.4   -7.2317907            0   -3.6326907   -3.4668638         4000 
    1000    2.3702698   -4.7495314            0   -1.1950157    5.8771725    4564.7668 
    2000    2.4265324   -4.8011757            0    -1.162287    5.6302225     4567.859 
    3000    2.4194033   -4.7086427            0    -1.080445    6.0294185    4565.2829 
    4000    2.3572607   -4.7800965            0   -1.2450893    5.5238936    4584.2607 
    5000    2.3967622   -4.7751696            0   -1.1809251    5.5140096    4596.8585 
    6000    2.3849439    -4.788084            0   -1.2115625    5.4412229    4603.5178 
    7000    2.4193588   -4.7620069            0   -1.1338759    5.8850721    4571.0068 
    8000    2.4100349   -4.7748286            0   -1.1606801    5.8262868    4557.8076 
    9000    2.4283079   -4.7990935            0   -1.1575423    5.3761146    4604.0326 
   10000    2.3892153   -4.7917261            0   -1.2087991    5.6067041    4574.0432 
Loop time of 2.45613 on 48 procs for 10000 steps with 4000 atoms

Performance: 703544.692 tau/day, 4071.439 timesteps/s
99.3% CPU use with 48 MPI tasks x no OpenMP threads

MPI task timing breakdown:
Section |  min time  |  avg time  |  max time  |%varavg| %total
---------------------------------------------------------------
Pair    | 0.96538    | 1.0251     | 1.0916     |   3.0 | 41.74
Neigh   | 0.19452    | 0.2052     | 0.21914    |   1.1 |  8.35
Comm    | 0.71725    | 0.81827    | 0.94116    |   4.4 | 33.32
Output  | 0.00025311 | 0.00025786 | 0.00032248 |   0.0 |  0.01
Modify  | 0.27722    | 0.39239    | 0.42701    |   4.1 | 15.98
Other   |            | 0.01491    |            |       |  0.61

Nlocal:        83.3333 ave          92 max          74 min
Histogram: 1 1 6 5 4 13 8 8 1 1
Nghost:        1499.56 ave        1523 max        1465 min
Histogram: 1 1 3 4 6 7 10 5 7 4
Neighs:        8334.25 ave        9404 max        7426 min
Histogram: 4 5 4 8 5 8 7 2 3 2

Total # of neighbors = 400044
Ave neighs/atom = 100.01100
Neighbor list builds = 907
Dangerous builds = 218

# Equilibrate just above the melting temperature to avoid step fn in T

fix 1 all npt temp 1.25 1.25 0.1 iso 5.68 5.68 0.5 mtk yes tchain 5 pchain 5
run 2000
Per MPI rank memory allocation (min/avg/max) = 3.642 | 3.644 | 3.648 Mbytes
Step Temp E_pair E_mol TotEng Press Volume 
   10000    2.3892153   -4.7917261            0   -1.2087991    5.6067041    4574.0432 
   11000    1.2324321    -6.450313            0   -4.6021269    5.8577565    3733.2296 
   12000    1.2513268   -6.4483817            0   -4.5718607    5.8574668    3737.3874 
Loop time of 0.499802 on 48 procs for 2000 steps with 4000 atoms

Performance: 691474.248 tau/day, 4001.587 timesteps/s
99.6% CPU use with 48 MPI tasks x no OpenMP threads

MPI task timing breakdown:
Section |  min time  |  avg time  |  max time  |%varavg| %total
---------------------------------------------------------------
Pair    | 0.21388    | 0.24262    | 0.26055    |   1.9 | 48.54
Neigh   | 0.031632   | 0.034546   | 0.036534   |   0.6 |  6.91
Comm    | 0.15095    | 0.16854    | 0.19189    |   2.7 | 33.72
Output  | 5.0976e-05 | 5.2958e-05 | 6.7125e-05 |   0.0 |  0.01
Modify  | 0.040056   | 0.049428   | 0.060895   |   2.7 |  9.89
Other   |            | 0.004619   |            |       |  0.92

Nlocal:        83.3333 ave          91 max          74 min
Histogram: 1 0 7 5 7 11 5 3 6 3
Nghost:        1716.38 ave        1733 max        1687 min
Histogram: 2 1 1 3 6 5 8 8 7 7
Neighs:        10212.7 ave       11748 max        8495 min
Histogram: 1 0 2 11 9 9 7 4 4 1

Total # of neighbors = 490209
Ave neighs/atom = 122.55225
Neighbor list builds = 142
Dangerous builds = 14

#############################
# L I N E A R  Q U E N C H  #
#############################

# Define solid atoms. This closely follows ten Wolde  Ruiz-Montero and Frenkel  Faraday Discuss  1996  104  93-110
# Compute components of the per-atom q6 vector
compute q6 all orientorder/atom degrees 1 6 components 6 nnn NULL cutoff 1.3 # compute the Q6 parameter.
                                                                             # Use all neighbours within 1.3 unit cell.

# get number of connections
compute coord_number all coord/atom orientorder q6 0.5

# An atom is solid if it has 8 or more connections (of a possible 14)
variable is_solid atom c_coord_number>=8
group solid dynamic all var is_solid    # Must be dynamic to update
dynamic group solid defined

# do clustering
compute cluster solid cluster/atom 1.3 # Create a cluster where all atoms within are solid and max 1.3 units from another member

# define chunks one chunk per cluster
compute clus_chunks solid chunk/atom c_cluster nchunk every compress yes  # Says which atoms are in which chunk

# count the size of each chunk
compute size_chunks solid property/chunk clus_chunks count


# Find the maximum entry in the vector of chunk sizes
variable max_n equal max(c_size_chunks)


# Thermo style which includes this variable
# thermo_style custom step temp pe vol v_max_n

thermo ${N}  # Print the thermo information every 100 steps
thermo 1000  

# Reset the npt fix at a lower temperature (below freezing)
fix 1  all npt temp  ${temp} ${temp}  0.1  iso  5.68  5.68  0.5  mtk yes tchain  5  pchain  5
fix 1  all npt temp  0.45 ${temp}  0.1  iso  5.68  5.68  0.5  mtk yes tchain  5  pchain  5
fix 1  all npt temp  0.45 0.45  0.1  iso  5.68  5.68  0.5  mtk yes tchain  5  pchain  5

dump dmp2 all dcd ${N} traj.dcd
dump dmp2 all dcd 1000 traj.dcd


compute msd all msd com yes
variable twopoint equal c_msd[4]/6/(step*dt+1.0e-6)
fix 9 all vector 10 c_msd[4]
variable fit equal slope(f_9)/6/(10*dt)
thermo_style custom step temp pe c_msd[4] v_twopoint v_fit v_max_n

fix 1 all npt temp 1.25 ${temp} 0.1 iso 5.68 5.68 0.5 mtk yes tchain 5 pchain 5
fix 1 all npt temp 1.25 0.45 0.1 iso 5.68 5.68 0.5 mtk yes tchain 5 pchain 5
run 2000000 # 5000000  # Run for this many steps
Neighbor list info ...
  update every 1 steps, delay 10 steps, check yes
  max neighbors/atom: 2000, page size: 100000
  master list distance cutoff = 3.8
  ghost atom cutoff = 3.8
  binsize = 1.9, bins = 9 9 9
  4 neighbor lists, perpetual/occasional/extra = 1 3 0
  (1) pair lj/cut, perpetual
      attributes: half, newton on
      pair build: half/bin/atomonly/newton
      stencil: half/bin/3d
      bin: standard
  (2) compute orientorder/atom, occasional
      attributes: full, newton on
      pair build: full/bin/atomonly
      stencil: full/bin/3d
      bin: standard
  (3) compute coord/atom, occasional
      attributes: full, newton on
      pair build: full/bin/atomonly
      stencil: full/bin/3d
      bin: standard
  (4) compute cluster/atom, occasional
      attributes: full, newton on
      pair build: full/bin/atomonly
      stencil: full/bin/3d
      bin: standard
Per MPI rank memory allocation (min/avg/max) = 9.765 | 9.772 | 9.778 Mbytes
Step Temp PotEng c_msd[4] v_twopoint v_fit v_max_n 
   12000    1.2513268   -6.4483817 1.8851803e-30 1.309153e-32 8.3333333e+20            1 
   13000    1.2584653    -6.420144   0.57076208 0.0036587311  0.046853956            1 
   14000    1.2306744   -6.4594199    1.0993988 0.0065440401  0.045092828            2 
   15000    1.2198511   -6.4672411    1.5650099  0.008694499  0.043641707            3 
   16000    1.2247066   -6.4568668    2.0692885  0.010777544  0.042526548            1 
   17000    1.2557917   -6.4706759    2.5677144  0.012586835  0.042166124            3 
   18000    1.2328183   -6.4574556    3.1847147  0.014744049  0.042578934            2 
   19000    1.2782481   -6.4566175    3.7798805  0.016578423  0.043471278            3 
   20000    1.2383637   -6.4631989    4.2701539  0.017792308   0.04409427            3 
   21000    1.2577434   -6.5232457    4.8108248  0.019090574  0.044378679            4 
   22000    1.2291951   -6.4367072    5.3748094  0.020359126  0.044569502            1 
   23000      1.25104   -6.4576754    5.9194502  0.021447283  0.044714571            1 
   24000    1.2624607   -6.4637429    6.4476861  0.022387798  0.044794752            1 
   25000    1.2484103   -6.4823009    6.9284448  0.023094816  0.044725835            1 
   26000    1.2278893   -6.4760186      7.38597   0.02367298  0.044529428            2 
   27000     1.229689   -6.4813645     7.920193   0.02444504  0.044314765            3 
   28000    1.2588548   -6.4699375    8.3957079  0.024987226  0.044108711            1 
   29000    1.2389518   -6.4441439    8.8397058  0.025401453   0.04386011            1 
   30000    1.2496022   -6.4462332    9.3712418  0.026031227  0.043627618            1 
   31000    1.2693028   -6.4553095    9.9074942  0.026633048  0.043517663            3 
   32000    1.2301187   -6.4855087    10.482773  0.027298888  0.043488035            1 
   33000    1.2295729   -6.4880987    10.992374   0.02775852  0.043418669            3 
   34000    1.2844861   -6.4848784    11.481021  0.028139756  0.043382649            2 
   35000    1.2334708   -6.5102351     11.90548  0.028346381  0.043329721            3 
   36000    1.2590542   -6.4721615      12.3751  0.028646065  0.043211993            3 
   37000    1.2376497   -6.4557575     12.73956  0.028692703  0.043055925            3 
   38000    1.2471658    -6.458908    13.246196  0.029048674  0.042882035            2 
   39000    1.2477157   -6.4342743    13.873608  0.029644462  0.042765239            1 
   40000    1.2259298    -6.501559    14.334017  0.029862536  0.042655513            3 
   41000    1.2059087   -6.4584841    14.818738  0.030119386  0.042567512            2 
   42000    1.2115335   -6.4675017    15.304649  0.030366366  0.042486034            2 
   43000    1.2453754   -6.4950575    15.913087  0.030839316  0.042406983            3 
   44000    1.2389443   -6.4979459    16.401097  0.031062683  0.042374762            1 
   45000    1.2418017   -6.5056658    16.892546  0.031282492  0.042357855            1 
   46000    1.2215722   -6.5130246    17.432237  0.031580139  0.042362661            2 
   47000    1.2479257   -6.4772423    17.962032  0.031847573  0.042376141            2 
   48000    1.2182859   -6.4500631    18.601555  0.032294366  0.042403466            2 
   49000    1.2445765    -6.519764    18.931068  0.032195694  0.042412574            2 
   50000    1.2326846   -6.4945197    19.458991  0.032431651  0.042414763            1 
   51000    1.2415892   -6.5067612    20.110609  0.032860473  0.042428705            2 
   52000    1.2044991   -6.5055877    20.615144   0.03303709  0.042444494            2 
   53000    1.2320328   -6.5014041    21.197703  0.033329722  0.042476643            3 
   54000    1.2271704   -6.4902542    21.694273  0.033478815  0.042506675            2 
   55000    1.2336524   -6.4858522    22.208256  0.033648872  0.042537464            2 
   56000    1.2401537   -6.4878041    22.437852   0.03338966   0.04253672            2 
   57000    1.2121956   -6.4902708    23.000621  0.033626639  0.042518301            2 
   58000    1.2312353   -6.5089206    23.571143  0.033866584  0.042485563            2 
   59000    1.2270285   -6.4854394    23.971395  0.033857903  0.042459817            3 
   60000    1.2155228   -6.5246407    24.585093  0.034145962  0.042441728            3 
   61000    1.2369313    -6.487862    25.183232  0.034403322  0.042451528            2 
   62000    1.2306013   -6.5393812    25.596287  0.034403612   0.04246458            2 
   63000    1.2098641   -6.4681106    26.238322  0.034706775  0.042469619            2 
   64000    1.2483707   -6.4874731    26.683276  0.034743848  0.042492942            3 
   65000     1.244618   -6.5113348    27.101802    0.0347459  0.042489995            6 
   66000    1.2381582   -6.4857934    27.511961  0.034737324  0.042473271            1 
   67000    1.2406998   -6.4821643     27.89094  0.034690223  0.042437324            2 
   68000      1.20957   -6.4786386    28.409039  0.034814998   0.04239912            2 
   69000    1.2138768   -6.5310935    28.770467  0.034746941  0.042357917            2 
   70000    1.2005034    -6.475401    29.532622  0.035157883  0.042328208            2 
   71000    1.2305891    -6.482878    29.887938  0.035079739  0.042299336            1 
   72000    1.2203346   -6.5085882    30.529153  0.035334667  0.042271116            2 
   73000    1.2395498   -6.5228475    31.143548  0.035551995  0.042260945            3 
   74000    1.2217013   -6.4681595    31.799779  0.035810562  0.042264983            2 
   75000    1.2053417   -6.4725652    32.228592  0.035809546  0.042271088            4 
   76000    1.2354839   -6.5064469    32.632268  0.035780996  0.042277303            4 
   77000    1.2071718   -6.4820305    33.321654  0.036062396  0.042282721            2 
   78000    1.2373078   -6.5136369    33.857655  0.036172708  0.042299159            6 
   79000    1.2377574   -6.4570573    34.392139  0.036278627  0.042321259            3 
   80000    1.2151215   -6.5276144    34.771014  0.036219806  0.042335564            3 
   81000    1.1967864   -6.5257178    35.437971  0.036458818  0.042341394            2 
   82000    1.2353719   -6.5394011    35.730809  0.036311798  0.042350052            3 
   83000    1.2267327   -6.5059618    36.387267    0.0365334  0.042351987            2 
   84000    1.1917684   -6.4977005    36.805391  0.036513284  0.042351411            3 
   85000    1.1994771   -6.4993387    37.295843  0.036564551  0.042353186            1 
   86000    1.2206674   -6.4945774    37.930745  0.036754598  0.042355375            2 
   87000    1.2015492   -6.5063487    38.458801  0.036837932  0.042359515            2 
   88000    1.2173458   -6.5319013    38.744747  0.036690101  0.042364627            2 
   89000     1.238485   -6.5028963    39.477432  0.036963888  0.042369112            2 
   90000    1.2252066   -6.4896739    40.071513  0.037103252  0.042385405            1 
   91000    1.1910525   -6.5467444    40.593798  0.037173807  0.042405533            2 
   92000    1.2164487   -6.5393144    41.345866  0.037450965  0.042431125            2 
   93000    1.2256835   -6.4942501    41.925803  0.037567923  0.042459896            2 
   94000    1.2102553   -6.5112739    42.220264  0.037429312  0.042483941            4 
   95000    1.2177796   -6.5198221    42.651237  0.037413366  0.042500764            2 
   96000    1.2189271   -6.5075465    42.990877   0.03731847  0.042502857            2 
   97000    1.2255969   -6.4811063    43.456119  0.037333436  0.042502444            1 
   98000    1.2305127   -6.5485897    43.908855  0.037337462  0.042498959            2 
   99000    1.2080656   -6.4894745     44.55682   0.03750574  0.042498042            3 
  100000    1.2470852    -6.524425    44.933543  0.037444619  0.042492611            2 
  101000    1.1995091   -6.5019568    45.430236  0.037483693  0.042488121            1 
  102000    1.2214786   -6.5261205    46.144578  0.037699818  0.042480997            2 
  103000     1.186158   -6.5101525    46.635162  0.037730714  0.042480302            1 
  104000    1.2203484    -6.511903    47.388439  0.037971506  0.042491581            1 
  105000    1.1870352    -6.515607     47.89464  0.038011619  0.042504477            3 
  106000    1.2343391   -6.5231682    48.491174  0.038121992  0.042526666            4 
  107000    1.2035884   -6.4969397    48.783661  0.037993506  0.042542005            3 
  108000    1.1957925   -6.5680595    49.286205  0.038029479  0.042552586            2 
  109000    1.2330877   -6.5562396    49.847695  0.038109859   0.04255778            1 
  110000     1.204448   -6.5115251    50.153909  0.037995385  0.042561318            3 
  111000    1.1823262   -6.5589893    50.489394   0.03790495  0.042560998            2 
  112000    1.2125265   -6.5518612    50.964734  0.037920189  0.042556758            2 
  113000    1.2133915   -6.5262708    51.528857  0.038000632  0.042551359            2 
  114000    1.2305407   -6.5456033    51.762282  0.037837925  0.042538103            5 
  115000     1.202438   -6.5483853    52.475596  0.038025794  0.042522361            2 
  116000     1.212664   -6.5256048    52.870705  0.037981828  0.042508851            3 
  117000    1.2108623   -6.5341022    53.378633  0.038018969   0.04249134            2 
  118000    1.2204661   -6.5302074      53.9987  0.038134675  0.042475424            1 
  119000    1.1889466   -6.5133536    54.642415  0.038264996  0.042463733            4 
  120000    1.2494742   -6.5744181    54.519786  0.037860963  0.042447442            1 
  121000    1.2033164   -6.5312014    54.961716  0.037852422  0.042422188            4 
  122000    1.2127731   -6.5167441    55.629265  0.037998131  0.042402443            2 
  123000    1.2015568   -6.5689603    56.024153  0.037956743  0.042379402            1 
  124000    1.2292228    -6.536328      56.6257  0.038054906  0.042355829            4 
  125000    1.2052566   -6.5624682     56.85792   0.03790528  0.042326163            2 
  126000    1.2013017   -6.5656995     57.45256  0.037997724  0.042300505            2 
  127000    1.2251992   -6.5507481    57.662476   0.03783627  0.042270366            2 
  128000     1.208791   -6.5689023    58.384032  0.038010437  0.042243327            4 
  129000    1.2243227   -6.5702455    59.184897  0.038233137  0.042221145            1 
  130000    1.2295726   -6.4943684    59.382448  0.038065671  0.042199503            3 
  131000    1.2008646   -6.5979664    59.829827  0.038059686  0.042177606            2 
  132000    1.2254159   -6.5550967    60.356211  0.038103668  0.042151854            5 
  133000    1.1800002   -6.5636476    60.646187  0.037998864  0.042128284            3 
  134000    1.2023493   -6.5422528    61.076894  0.037983143  0.042097495            1 
  135000    1.1844238   -6.5421986    61.593671  0.038020784  0.042065566            2 
  136000     1.187076   -6.5499553    62.020561  0.038002795  0.042040291            1 
  137000    1.1941511   -6.5296576    62.626571  0.038094021  0.042011563            2 
  138000    1.2082423    -6.564939    62.830622  0.037941197  0.041979641            1 
  139000    1.2034658   -6.5313458    63.315628   0.03795901  0.041944859            3 
  140000    1.1827759   -6.5436563    63.640273  0.037881115  0.041907454            2 
  141000     1.185472   -6.5393987    64.089164  0.037877756   0.04187046            1 
  142000    1.1956377   -6.5418637    64.856525  0.038061341  0.041834873            2 
  143000     1.195499   -6.5552446    65.271431  0.038036964  0.041804167            2 
  144000    1.2223494   -6.5404305    65.626035   0.03797803  0.041777628            1 
  145000    1.2289249   -6.5811003    66.128857   0.03800509  0.041754375            2 
  146000    1.1857294   -6.5666976    66.571044  0.037997171  0.041728991            4 
  147000    1.2162653   -6.5412754    67.132168  0.038056784  0.041699861            1 
  148000    1.1954404   -6.5413942    67.573036   0.03804788  0.041669082            2 
  149000    1.2135647   -6.5717201    67.562615  0.037786698  0.041633276            2 
  150000    1.1946117   -6.5295969    68.202978  0.037890543  0.041598157            1 
  151000     1.212583   -6.5456905      68.7776  0.037956733  0.041563035            4 
  152000    1.1906022   -6.5627713     69.13163  0.037901113   0.04153085            2 
  153000    1.1786111   -6.5692259     69.35299   0.03777396  0.041497515            2 
  154000    1.1863412   -6.5229268    69.778362  0.037758854  0.041460493            1 
  155000     1.189064   -6.5758502    70.101696  0.037689084   0.04142404            4 
  156000    1.1878406   -6.5640553    70.653202  0.037742095  0.041389046            4 
  157000    1.2169715    -6.550593    71.124682  0.037751954   0.04135372            1 
  158000    1.2030311    -6.578167    71.603951  0.037765797  0.041320218            1 
  159000    1.2062414   -6.5619487    72.135813   0.03780703  0.041289701            4 
  160000    1.2219406   -6.5644199    72.870227  0.037953243  0.041257709            2 
  161000     1.204728   -6.5903804     72.89137  0.037728452  0.041225663            1 
  162000    1.2012057   -6.6161351    73.352977  0.037733013  0.041192636            7 
  163000    1.1765023   -6.6029171    73.864438  0.037763005  0.041159748            1 
  164000    1.1871691   -6.6053102    74.234021  0.037720539   0.04112668            2 
  165000    1.1990398   -6.6008736    74.539428  0.037646176  0.041088127            1 
  166000    1.1918572   -6.6011517     75.25373  0.037777977  0.041052166            1 
  167000    1.2013214    -6.539445    75.811849  0.037830264  0.041019647            2 
  168000    1.1849449   -6.5683626    75.649525  0.037524566  0.040983497            1 
  169000    1.2065414   -6.6071583    76.231537  0.037589515  0.040947774            2 
  170000    1.2079541   -6.5611962    76.835458   0.03766444  0.040911223            4 
  171000    1.1785722   -6.5571159    77.365291  0.037702384  0.040877796            1 
  172000    1.1819008    -6.556455    77.894482  0.037739574  0.040843788            2 
  173000    1.1639852   -6.6012696     77.84719  0.037498646  0.040808245            2 
  174000    1.1644322    -6.566978    78.393845  0.037544945   0.04077343            2 
  175000    1.1863038   -6.6228627    79.058572  0.037646939  0.040739174            3 
  176000    1.1557463    -6.597941    79.338126    0.0375654  0.040706168            2 
  177000    1.1764101   -6.5528526    79.946882  0.037639775  0.040670837            3 
  178000    1.1897964   -6.5758654    80.071816  0.037486805  0.040636122            2 
  179000    1.1715363   -6.5980832    80.106889   0.03729371  0.040598235            2 
  180000    1.1918347   -6.5820742    80.966538  0.037484508  0.040562351            2 
  181000    1.1974304   -6.5928863    81.910734  0.037712124  0.040532303            4 
  182000    1.1931443   -6.6050264    81.977632  0.037535546  0.040503761            5 
  183000    1.1866029   -6.6445962    82.231349   0.03744597  0.040472158            3 
  184000    1.1670267   -6.6026316    82.231367  0.037242467  0.040437645            4 
  185000    1.1748281   -6.6353358     83.02679  0.037399455  0.040398281            1 
  186000    1.1893329   -6.6368897    83.288394  0.037315588  0.040360786            3 
  187000    1.1577132   -6.5541631    83.842267  0.037362864  0.040323138            2 
  188000    1.2129426   -6.5680718    83.781887  0.037137361  0.040284797            2 
  189000    1.1990461   -6.5642449    84.577551  0.037291689  0.040245132            2 
  190000    1.1746881   -6.6044904    84.520542  0.037070413  0.040204444            2 
  191000    1.1827747   -6.6081908    84.785385  0.036991878  0.040163748            1 
  192000    1.1764517    -6.594747     86.02239  0.037336107  0.040124827            2 
  193000    1.1954824   -6.5922764    86.534093  0.037363598  0.040090639            2 
  194000    1.2006301   -6.6199978     86.98317  0.037363905  0.040057584            3 
  195000    1.1798077   -6.5627418    87.422059  0.037359854   0.04002518            2 
  196000    1.1798158   -6.5768549    87.575261   0.03723438  0.039990533            2 
  197000    1.1872948   -6.6066356    87.844754  0.037159371  0.039954228            3 
  198000    1.1351823   -6.5978346    88.504685  0.037249447  0.039918015            3 
  199000    1.1740372   -6.5853387    88.929173  0.037240022  0.039881948            2 
  200000    1.1766919   -6.5943327     89.04332  0.037101383   0.03984631            4 
  201000    1.1765106   -6.5718541    89.577222  0.037138152  0.039810599            4 
  202000    1.1884811   -6.6136474    89.749243  0.037025265  0.039776215            2 
  203000    1.1712575   -6.6036797    90.578775  0.037183405  0.039742231            2 
  204000    1.1634918    -6.578774    91.050369  0.037193778  0.039710781            3 
  205000    1.1543044   -6.6168663    91.548944  0.037215018  0.039680694            2 
  206000    1.1414807   -6.6062852    92.324456  0.037348081  0.039650696            2 
  207000    1.1725782   -6.6121535    92.311951  0.037162621  0.039622738            1 
  208000    1.1503164   -6.6245437    92.784069  0.037173104  0.039594612            1 
  209000    1.1768961   -6.6637432    92.888782  0.037036994  0.039565497            1 
  210000    1.1715731   -6.6269753    94.037899  0.037316626  0.039539618            4 
  211000      1.17924   -6.6405163    94.147066  0.037182885  0.039512982            2 
  212000      1.16141    -6.611886    94.765771  0.037250696  0.039487044            3 
  213000    1.1598071   -6.6188597    95.103825  0.037208069  0.039459542            4 
  214000    1.1566792   -6.6155333     95.25702  0.037093855  0.039430294            4 
  215000     1.160572   -6.5928503    96.117567  0.037254871   0.03940483            2 
  216000    1.1726091   -6.5935377     96.41379  0.037196678  0.039380187            1 
  217000    1.1466115   -6.6325955    96.633352  0.037109582  0.039353928            3 
  218000    1.1471219   -6.5936372    97.082719  0.037111131  0.039328251            2 
  219000    1.1591207   -6.5867933    97.752036  0.037196361  0.039301626            2 
  220000    1.1568457   -6.5889516    97.856644   0.03706691   0.03927443            2 
  221000    1.1607675   -6.6222981    98.019243  0.036960499  0.039247244            3 
  222000    1.1611373   -6.6336714    98.643639  0.037028393  0.039218546            1 
  223000    1.1490587   -6.6246876    98.939994  0.036973092  0.039188475            2 
  224000     1.166722   -6.5976302     99.60885  0.037056864  0.039160959            4 
  225000    1.1525192   -6.6535855    99.351508  0.036796855  0.039132065            2 
  226000    1.1869909   -6.5729219    100.01719  0.036879496  0.039101257            3 
  227000    1.1457663   -6.6132475    100.43384  0.036869984  0.039068987            2 
  228000    1.1759356   -6.6395274    100.38354  0.036689889  0.039036835            7 
  229000    1.1543946   -6.5926721    101.25319   0.03684614  0.039003736            2 
  230000    1.1566804   -6.6484185     101.3877  0.036734673  0.038970914            2 
  231000    1.1584241   -6.6233073     101.3517  0.036562661  0.038938022            3 
  232000    1.1676819   -6.6375808    101.42434  0.036431155  0.038902132            1 
  233000    1.1487917   -6.5975706    102.27825  0.036580205  0.038864981            2 
  234000    1.1569252   -6.5942856    102.24995  0.036413799  0.038827797            2 
  235000    1.1411628   -6.6405147    102.42216  0.036319916   0.03878833            2 
  236000    1.1567056   -6.6540818    102.79103  0.036296267  0.038749585            2 
  237000     1.177739   -6.6016496     103.2391  0.036300669  0.038711616            1 
  238000    1.1904759   -6.5812219    104.16994  0.036474069  0.038675707            3 
  239000    1.1577794   -6.5811778     104.2641  0.036354289  0.038640257            5 
  240000    1.1608152   -6.6239025    104.42552  0.036258862  0.038603514            4 
  241000     1.147745   -6.6152929    104.77487   0.03622921  0.038566275            2 
  242000    1.1445232    -6.634949    105.55897  0.036349508  0.038529899            3 
  243000    1.1642001   -6.6383041    105.80672  0.036284882  0.038494277            1 
  244000    1.1683652    -6.639116    106.34433  0.036319784  0.038459116            2 
  245000    1.1311389   -6.6278505    107.10478  0.036430198  0.038427724            3 
  246000    1.1499572     -6.61779    107.64813  0.036466167  0.038397857            3 
  247000    1.1634367   -6.6599636    107.91153  0.036407398  0.038367976            3 
  248000    1.1651275   -6.6244492    108.21302  0.036361901  0.038337513            1 
  249000    1.1598434   -6.6650232    108.60914   0.03634844  0.038307368            4 
  250000    1.1604506   -6.6146958    109.26291   0.03642097  0.038277627            1 
  251000    1.1848353   -6.6546226    109.67192   0.03641166  0.038249919            1 
  252000    1.1517726   -6.6643914    110.29897  0.036474526  0.038221744            2 
  253000    1.1650148   -6.6250155     110.4627  0.036384287  0.038195025            2 
  254000    1.1545115   -6.6324552    110.79598  0.036350386  0.038166155            2 
  255000    1.1535875   -6.6225011    111.07475  0.036298939  0.038138851            2 
  256000    1.1407182   -6.6434281    111.87284  0.036416939  0.038112205            3 
  257000    1.1474633   -6.6416092    112.29465  0.036412014  0.038087583            1 
  258000    1.1609229   -6.6923463    112.23748  0.036252416  0.038060901            3 
  259000    1.1671215     -6.66652    112.81317  0.036297672  0.038034224            2 
  260000    1.1575699   -6.6609546    113.38652  0.036341833  0.038008532            2 
  261000     1.148047   -6.6225051    114.03695  0.036410266  0.037984254            7 
  262000      1.15372   -6.6903433    113.99393  0.036257612  0.037960332            2 
  263000    1.1378819   -6.6588198    114.60815   0.03631437  0.037938119            3 
  264000     1.171071   -6.6811681     115.5497  0.036474022  0.037918559            2 
  265000    1.1406548   -6.6554218    115.90251  0.036447331  0.037898766            2 
  266000    1.1384602   -6.6188783    116.10497  0.036373736  0.037878035            2 
  267000    1.1570392   -6.6656416    116.09168  0.036233358  0.037854486            2 
  268000    1.1577311   -6.6706519    116.61933  0.036262231  0.037831967            2 
  269000    1.1330464   -6.6073837    117.36214  0.036357539  0.037809824            3 
  270000    1.1371037   -6.6466358    118.15523  0.036467662  0.037789539            3 
  271000    1.1362519   -6.6178847    118.26261  0.036366116  0.037768276            2 
  272000    1.1750005   -6.6760849    118.33556  0.036254766  0.037746128            3 
  273000    1.1444014   -6.6362812    118.57948  0.036196422  0.037723493            1 
  274000    1.1219833   -6.6896849    118.85615  0.036148464  0.037699634            1 
  275000    1.1521773   -6.6135777    119.25683  0.036138432   0.03767514            3 
  276000    1.1440177   -6.6404073    119.80376  0.036172633  0.037650667            3 
  277000    1.1203841   -6.6582967    120.23527  0.036171861  0.037626358            4 
  278000    1.1389558   -6.6245462    120.21369  0.036035279    0.0376003            3 
  279000    1.1704016   -6.6581916     120.9118  0.036114637  0.037574248            1 
  280000     1.156007   -6.6881616    120.61919  0.035898569  0.037549467            3 
  281000    1.1409052   -6.6647785     121.5844  0.036057057  0.037525762            3 
  282000    1.1375662   -6.5984407    122.05043  0.036066912  0.037502524            1 
  283000    1.1444602   -6.7227984    122.01089  0.035927824  0.037478284            2 
  284000     1.145387   -6.6507372    122.28667   0.03588224  0.037453519            3 
  285000    1.1287118   -6.6691358    123.06928  0.035985171  0.037427757            2 
  286000    1.1508832   -6.6707407    122.89462  0.035808455   0.03740157            1 
  287000    1.1232165   -6.6807882    123.57128  0.035880163  0.037375778            3 
  288000    1.1271845    -6.637041    123.77264  0.035813843  0.037350682            3 
  289000    1.1580931   -6.6445211    124.30684  0.035843955  0.037325347            2 
  290000    1.1251084   -6.6721069     124.9615  0.035908478  0.037300877            1 
  291000    1.1144586   -6.6713643     124.8979  0.035766866  0.037276655            1 
  292000     1.148363   -6.6643162    124.87279  0.035637211  0.037251775            2 
  293000    1.1482066    -6.699151    125.90336  0.035808692  0.037226256            2 
  294000     1.142739   -6.6751114    125.82696  0.035665239  0.037200445            2 
  295000    1.1344028   -6.6879746     126.3837  0.035701609  0.037175197            3 
  296000    1.1285424   -6.6863539    126.97187  0.035746585   0.03715142            3 
  297000    1.1083231   -6.6564328     127.7597  0.035847279  0.037127999            3 
  298000    1.1229939   -6.6359382    128.30322  0.035878975  0.037105987            3 
  299000    1.1403208   -6.6485145    128.34504  0.035770637  0.037082845            2 
  300000    1.1431984   -6.6943872    128.41278  0.035670217  0.037059641            4 
  301000    1.1224285   -6.6825442    128.78413   0.03565452  0.037036501            2 
  302000    1.1473648   -6.6901784    129.25651  0.035666808  0.037013598            1 
  303000    1.0875525   -6.6893266      129.649  0.035657042  0.036990876            2 
  304000    1.1351819   -6.7365216    129.95921  0.035624782  0.036967864            2 
  305000      1.14119    -6.707391    130.70974  0.035713044  0.036945265            2 
  306000    1.1132881   -6.6806232    131.08444  0.035698376  0.036923263            2 
  307000    1.1230379   -6.6760787    131.08227  0.035581508  0.036901157            2 
  308000     1.110109   -6.7122127    130.93039  0.035424889  0.036876775            3 
  309000     1.127235   -6.6963712    131.70669  0.035519605  0.036852295            2 
  310000    1.1254638   -6.6524667    132.58807  0.035641955  0.036828991            2 
  311000    1.1191431   -6.7021542    132.42515  0.035483696  0.036805891            3 
  312000    1.1510071   -6.7160712    132.55692  0.035405159  0.036782152            2 
  313000    1.1577951   -6.7366749     132.9142  0.035387167  0.036757314            1 
  314000    1.1308177   -6.6646302    133.12559  0.035330571  0.036732664            2 
  315000    1.1269963   -6.6957698    133.23315  0.035246865   0.03670816            3 
  316000    1.1060825    -6.691755    133.97477    0.0353309  0.036682551            4 
  317000    1.1601705   -6.7108389    134.60502  0.035385127  0.036658459            3 
  318000     1.144373   -6.6613936    134.89774  0.035350562  0.036635137            4 
  319000    1.1207885   -6.6880933    135.44062  0.035381561  0.036611071            2 
  320000    1.1347243   -6.6574683      135.736  0.035347916    0.0365861            2 
  321000    1.0966358   -6.6901791    135.87675  0.035274338  0.036561402            3 
  322000    1.1546414   -6.6568269    136.37419  0.035293528  0.036535944            3 
  323000    1.1319559   -6.6619563    136.68908  0.035265501  0.036511097            1 
  324000    1.1233629    -6.674655    136.22845  0.035038181  0.036485831            4 
  325000    1.1074616   -6.6810776    137.13818  0.035163636   0.03645957            1 
  326000    1.1494898   -6.6865264    137.44478  0.035134147  0.036434029            2 
  327000    1.1169424   -6.7127785    137.39123  0.035013056  0.036409074            1 
  328000    1.1279385   -6.6803034    138.02934   0.03506843  0.036383336            2 
  329000    1.1569196    -6.690667    137.99433   0.03495297  0.036357794            1 
  330000    1.1537998   -6.6959505    138.75777   0.03503984  0.036332235            2 
  331000    1.1107897   -6.7140432    138.61947  0.034899163  0.036306125            2 
  332000    1.1000797   -6.6924408    138.66023  0.034804274  0.036278579            2 
  333000    1.1163472    -6.741852     138.9889  0.034782007  0.036251292            2 
  334000    1.1460105   -6.7055387    139.68468  0.034851468  0.036224464            2 
  335000    1.1222002   -6.6958642    140.28858  0.034897657  0.036199029            2 
  336000    1.1114782   -6.7125512    140.84943  0.034932894   0.03617335            1 
  337000    1.1475068   -6.6855971    141.00315  0.034867247   0.03614775            2 
  338000    1.1417347   -6.6966181    141.64957  0.034923465  0.036121526            4 
  339000     1.141256   -6.7335611    141.57179  0.034801326  0.036096013            1 
  340000    1.1081852   -6.7003246    141.58812  0.034702971  0.036069561            2 
  341000      1.12864   -6.7231652    142.04315  0.034712402  0.036043152            2 
  342000    1.1443695   -6.7425389    142.39281  0.034696103  0.036016997            3 
  343000    1.1388275    -6.729506    142.88785  0.034715221  0.035991012            1 
  344000    1.1113862   -6.7072156    143.68488  0.034807383  0.035967772            3 
  345000    1.1191972   -6.7262248    144.15876  0.034820957  0.035944781            3 
  346000    1.1613955   -6.7381324    144.61496  0.034830194  0.035921093            3 
  347000    1.1091881    -6.715319    145.14861  0.034857975  0.035898428            5 
  348000    1.1101015   -6.7155394    145.26724  0.034786217  0.035876208            3 
  349000     1.100635   -6.7161513    145.73817   0.03479899   0.03585354            1 
  350000    1.1179015   -6.6990855    145.86508  0.034729782  0.035830618            4 
  351000    1.1119761   -6.7226803    146.53043  0.034788802  0.035807735            2 
  352000    1.1510391   -6.7054453    146.81649  0.034757691  0.035785593            2 
  353000    1.1237491   -6.7217128    146.86786  0.034671354  0.035763554            3 
  354000    1.1255261   -6.7290406     147.4909  0.034720081  0.035740891            2 
  355000    1.1190556   -6.7163637    147.88592  0.034715004  0.035718643            4 
  356000     1.123519   -6.7309292    147.86499  0.034612591  0.035695942            1 
  357000    1.1049467   -6.7504204    148.30818  0.034619091  0.035673144            3 
  358000    1.1082139   -6.7021807    148.97135  0.034676757  0.035651558            5 
  359000    1.1124384   -6.7476658    149.19199  0.034631382  0.035630643            8 
  360000    1.1166517    -6.694141    150.20826  0.034770431  0.035608946            2 
  361000    1.1294036   -6.7309111     150.3469  0.034706118  0.035588737            1 
  362000    1.1061381   -6.7376659    150.21467  0.034579805  0.035567673            4 
  363000    1.1086465   -6.7204727    150.96093   0.03465586  0.035546154            2 
  364000    1.1021692   -6.7215004    151.25814  0.034628696  0.035525038            2 
  365000    1.1004751   -6.6857386    151.70002  0.034634708  0.035504283            1 
  366000     1.116087   -6.6981308    152.46067  0.034713266  0.035483781            3 
  367000    1.1023456    -6.738518    152.38678  0.034601902  0.035464549            1 
  368000    1.0917504   -6.7212365    153.30697  0.034716251  0.035445753            2 
  369000    1.1262652   -6.7463312    153.77034  0.034726817  0.035427464            4 
  370000    1.0987435   -6.7348025    153.98599  0.034681528  0.035409121            3 
  371000    1.0785441   -6.7286492    154.31513  0.034661979  0.035391723            3 
  372000    1.0935888   -6.7749549    154.18514  0.034539683  0.035373162            3 
  373000    1.0940081   -6.6951674    154.94256    0.0346163  0.035355383            6 
  374000    1.1048899   -6.7309608    155.27391  0.034597573  0.035337162            6 
  375000    1.1077967   -6.7520639    154.94173  0.034431497  0.035317875            2 
  376000    1.1132585   -6.7160983    155.86641  0.034544861  0.035297526            2 
  377000    1.0950873   -6.7474851    155.65105  0.034405625   0.03527737            2 
  378000     1.090768   -6.7620915    155.61633  0.034306951  0.035256018            6 
  379000    1.0892585   -6.7598225    156.39769  0.034388234  0.035235631            2 
  380000    1.1165495   -6.7429356      157.136  0.034459649  0.035215492            1 
  381000    1.0986238   -6.7207536    157.68599    0.0344895  0.035197081            2 
  382000     1.089642   -6.7303254    157.74873  0.034412899  0.035177593            2 
  383000    1.1110642   -6.7580798    158.10334  0.034400205  0.035157856            2 
  384000    1.0867134   -6.7292297    158.35614  0.034365481  0.035137165            3 
  385000    1.0995362   -6.7652712    158.16697  0.034235274  0.035115948            4 
  386000    1.1033653    -6.769176    158.68498  0.034258415  0.035095091            2 
  387000    1.1065458   -6.7973914    158.73549  0.034180769  0.035074131            3 
  388000    1.0745342   -6.7787371    159.24009   0.03420105  0.035054234            3 
  389000    1.0858804   -6.7515312    160.22392  0.034323891  0.035034882            4 
  390000    1.1093586   -6.7518479    160.23396  0.034238026  0.035015655            1 
  391000    1.0898156   -6.7428581    161.14892  0.034345465  0.034997374            3 
  392000    1.1179395   -6.7424732    161.59126  0.034351883  0.034979394            3 
  393000    1.1068599    -6.709318     161.5409  0.034253795   0.03496077            4 
  394000    1.0966388    -6.745705    161.95132  0.034253663  0.034942723            2 
  395000    1.0991163   -6.7420812    163.08372  0.034405848   0.03492505            2 
  396000    1.0750048    -6.725784    163.33732  0.034372332  0.034907554            3 
  397000    1.0783562   -6.7694817    162.73977  0.034160322  0.034890096            1 
  398000    1.0880595    -6.793525    163.79918   0.03429631  0.034872249            5 
  399000    1.0832951     -6.70214    164.32021  0.034319174   0.03485634            2 
  400000     1.096296   -6.7718954    164.94511  0.034363565  0.034839371            2 
  401000    1.0982298   -6.7778082    164.25724  0.034134921  0.034821722            1 
  402000    1.0829119   -6.7269993    164.68213  0.034138086  0.034804481            4 
  403000    1.1035912   -6.7640089    165.66659  0.034256947  0.034787234            1 
  404000     1.110819   -6.7607151     165.5157  0.034141027  0.034769433            2 
  405000    1.1015798   -6.7565579    165.77688  0.034110469  0.034751944            2 
  406000     1.083152   -6.7471654    166.40089  0.034154535  0.034734193            4 
  407000    1.0816612   -6.7654149    166.98513  0.034190239  0.034716935            1 
  408000    1.0778489   -6.7235378    167.34009  0.034178941  0.034699997            2 
  409000    1.0819951   -6.7600987    167.83509  0.034196228  0.034683785            2 
  410000    1.0865519    -6.731071    168.02136  0.034150683  0.034667309            2 
  411000    1.0887028   -6.7413026    168.02903  0.034069147  0.034651013            1 
  412000    1.0999595   -6.7748045    168.70351  0.034122878  0.034635076            3 
  413000    1.0821031   -6.7509795     170.0225  0.034306397   0.03461926            1 
  414000    1.0926608   -6.7793403    169.82191  0.034183153  0.034604209            7 
  415000    1.0950196   -6.7485575    169.92581  0.034121648  0.034589679            5 
  416000    1.0979684   -6.7244892    170.41848  0.034138317  0.034575892            3 
  417000    1.0808463   -6.7760066     171.3765  0.034247902  0.034562239            3 
  418000     1.092424   -6.7564813    171.82408  0.034255198  0.034548505            1 
  419000    1.1105617   -6.7391877     171.8268  0.034173985  0.034533859            2 
  420000    1.0654428    -6.777139    171.95686  0.034118425  0.034518709            3 
  421000    1.0730132   -6.7475151    172.94984  0.034233935  0.034504031            2 
  422000    1.0894009   -6.7571798    172.85236  0.034133562  0.034489947            2 
  423000    1.1015231    -6.782875    173.12308  0.034106202  0.034475416            2 
  424000    1.0697008   -6.7946144    173.56247   0.03411212  0.034460595            6 
  425000    1.0965077   -6.8073879    173.11934  0.033944968  0.034445488            2 
  426000    1.0821929   -6.7864843    173.32152  0.033904835  0.034430055            2 
  427000    1.0854468   -6.8023348    174.24483  0.034005626  0.034413549            1 
  428000    1.0751148   -6.7730484    174.35333  0.033947299    0.0343976            1 
  429000    1.0775388   -6.7778266    174.74038  0.033943352  0.034382142            2 
  430000    1.0599449    -6.775043    175.25554  0.033964252  0.034366802            4 
  431000    1.0775735   -6.7875585    175.89991  0.034010037  0.034351969            3 
  432000    1.1097915     -6.75412    176.08324  0.033966674  0.034337089            2 
  433000    1.0863892    -6.780909    176.48279  0.033965125  0.034322287            5 
  434000    1.0842714   -6.7579429    176.41714  0.033874259  0.034307137            2 
  435000    1.0654172    -6.758436    176.39472  0.033792092  0.034291502            2 
  436000    1.0801458    -6.782232    176.37743  0.033711282  0.034275643            2 
  437000    1.0778856   -6.8190543     176.5765  0.033672101  0.034259811            2 
  438000    1.0738158   -6.7525664    177.73782  0.033816176  0.034243371            3 
  439000    1.0771248   -6.8180861    177.75065  0.033741581  0.034227628            2 
  440000    1.0653096   -6.7830118    178.38799  0.033785604  0.034212147            1 
  441000    1.0674635   -6.7835898    178.65521  0.033759488  0.034196664            2 
  442000    1.1009658   -6.7734902    178.61421  0.033675379  0.034181197            2 
  443000    1.0903266   -6.7613829    179.35452  0.033738624  0.034165801            3 
  444000    1.0871721   -6.8047813    179.30034  0.033652466  0.034149013            3 
  445000    1.0628044   -6.8247496    179.18735  0.033555683  0.034131485            2 
  446000    1.0784554   -6.7597007    179.49561  0.033538044  0.034113563            6 
  447000    1.0613005    -6.750022    179.57846   0.03347846  0.034095517            2 
  448000    1.0871512    -6.774652    180.11505  0.033503543  0.034077543            2 
  449000    1.0714375   -6.7796612    180.63014  0.033524524  0.034059314            2 
  450000    1.0795356   -6.8088046    180.63094  0.033450175  0.034040917            3 
  451000    1.0815925   -6.7921731    181.52329  0.033540888  0.034022874            3 
  452000    1.0913082   -6.8134875    181.01795  0.033373516  0.034004483            5 
  453000    1.0498219   -6.7875384     181.4163  0.033373124  0.033986196            2 
  454000    1.0948573   -6.7828156    181.60228  0.033333751  0.033967682            2 
  455000    1.0580963   -6.7644076    181.72987  0.033283859  0.033948837            2 
  456000     1.078028   -6.8054188    181.61377   0.03318965  0.033929572            4 
  457000    1.0789811   -6.7421512    182.27959  0.033238436  0.033909217            2 
  458000    1.0755703   -6.8104224    181.46949  0.033018467  0.033888408            1 
  459000    1.0636093   -6.7859569    182.35088  0.033106551  0.033867723            4 
  460000    1.0494718   -6.8133485    182.68252  0.033094659  0.033846667            3 
  461000    1.0613289   -6.7787239    183.59427  0.033187685  0.033826269            2 
  462000    1.0781259   -6.8063463    183.04727  0.033017184  0.033805369            3 
  463000    1.0542669   -6.8041415    183.36933  0.033003839  0.033784616            5 
  464000    1.0681449   -6.7929215    183.09141  0.032882796  0.033763319            4 
  465000    1.0726454    -6.821854    183.78017  0.032935515   0.03374169            3 
  466000    1.0667544   -6.8089711    183.91699  0.032889305  0.033720095            2 
  467000    1.0625188   -6.7971204    184.45527   0.03291493  0.033698689            5 
  468000    1.0647362   -6.8260562    183.92523  0.032750219  0.033677102            4 
  469000    1.0434414   -6.7869225    184.65831  0.032810645  0.033654977            3 
  470000    1.0464725   -6.8157454    185.47361  0.032885391  0.033633669            3 
  471000    1.0626953   -6.8167058    184.83114    0.0327019  0.033611668            3 
  472000    1.0636601   -6.8134489    185.54028  0.032757818  0.033589724            2 
  473000     1.085757   -6.7987732    186.45247  0.032849272  0.033567984            4 
  474000    1.0747434   -6.8121645    186.13895  0.032724851  0.033545827            3 
  475000    1.0897968    -6.784217    186.56232  0.032730232   0.03352398            6 
  476000    1.0730616    -6.826155    186.90601   0.03272164  0.033502618            4 
  477000     1.050067   -6.7845473    186.60651  0.032600718   0.03348044            2 
  478000    1.0622422   -6.7675842    186.79732  0.032565781  0.033457933            4 
  479000    1.0784615   -6.7873229    186.64803  0.032471822  0.033435313            2 
  480000    1.0595598   -6.7978658    187.60379  0.032570103  0.033412459            5 
  481000    1.0480037   -6.8131574    187.70697  0.032520266  0.033388784            3 
  482000    1.0787877   -6.8319459    187.75099  0.032460405  0.033365474            3 
  483000    1.0720246    -6.825407    188.07526  0.032449148  0.033341862            1 
  484000    1.0705291   -6.8168992    188.20855  0.032405054   0.03331832            2 
  485000     1.043043    -6.826749    188.52156  0.032392021  0.033294563            2 
  486000    1.0756437   -6.8342118    188.70649   0.03235708  0.033271008            2 
  487000      1.05582   -6.8183918     189.1648  0.032369063  0.033247721            2 
  488000    1.0478524   -6.8381755    189.26558  0.032319941  0.033224262            2 
  489000    1.0353687   -6.8321716    189.18671  0.032240407  0.033201197            4 
  490000    1.0695265   -6.8433647    189.72968  0.032266953  0.033177847            3 
  491000    1.0530063   -6.8274387    190.04991  0.032255586  0.033153997            3 
  492000    1.0617732    -6.785115    190.77272  0.032312453  0.033130933            4 
  493000    1.0567651   -6.8014548    191.13016  0.032307329  0.033108395            3 
  494000      1.07769   -6.8211883    192.02866  0.032393499  0.033086792            4 
  495000    1.0617056   -6.8330745    192.37541  0.032386433  0.033065172            2 
  496000    1.0399582   -6.8375622    192.01719  0.032260953  0.033042793            4 
  497000    1.0747409   -6.8581914    192.49467  0.032276101  0.033020733            3 
  498000     1.061025   -6.8301102    193.00744  0.032297095  0.032998897            3 
  499000    1.0532324   -6.8368478    193.03664  0.032237248  0.032977756            2 
  500000    1.0736127   -6.8493658    194.10779  0.032351298  0.032956709            1 
  501000    1.0658962   -6.8138115    194.07787  0.032281749  0.032935834            5 
  502000    1.0479312    -6.847575    195.21009  0.032405393  0.032915385            3 
  503000    1.0390125   -6.8040738    194.65552  0.032249092  0.032895289            2 
  504000      1.05368   -6.8361624    194.88306  0.032222728  0.032874921            2 
  505000    1.0578186   -6.8496245     195.8195  0.032313449   0.03285467            2 
  506000    1.0451233   -6.8281856    195.60122   0.03221364  0.032834863            3 
  507000    1.0420269   -6.8233763    196.48825  0.032295898  0.032815231            6 
  508000     1.060624   -6.8649349    195.39461  0.032052922  0.032794904            8 
  509000    1.0582086   -6.8644991    196.34358  0.032145314  0.032774589            2 
  510000    1.0377375   -6.8294883    196.60391  0.032124823   0.03275435            2 
  511000    1.0360082   -6.8405731    197.24532  0.032166555  0.032734365            1 
  512000    1.0389764   -6.8064988    197.90409  0.032210953  0.032714679            2 
  513000    1.0430454   -6.8878058    197.73944  0.032121417  0.032694853            4 
  514000    1.0550845   -6.8121547    199.00916  0.032264779  0.032675684            2 
  515000    1.0496495    -6.824432    198.28112  0.032084323  0.032656448            2 
  516000    1.0336593   -6.8420575    198.88223  0.032119224  0.032636934            4 
  517000    1.0408394    -6.851503    198.87466  0.032055876  0.032617113            3 
  518000    1.0445007   -6.8521808    199.66596  0.032121294  0.032597951            4 
  519000     1.051917   -6.8190395    200.37296  0.032172922  0.032578784            2 
  520000    1.0403257   -6.8335993    199.40997  0.031956726   0.03255946            3 
  521000    1.0529169   -6.8551482    199.68457  0.031939311  0.032540369            3 
  522000    1.0745568   -6.8412694    200.96278   0.03208218  0.032521292            7 
  523000    1.0628829   -6.8515325    200.92617  0.032015005   0.03250224            3 
  524000    1.0329546   -6.8144139    201.59225  0.032059836  0.032483586            4 
  525000    1.0541461   -6.8394729    201.98414  0.032060975  0.032465457            5 
  526000    1.0131247   -6.8648786    201.95897  0.031996034  0.032446645            4 
  527000    1.0388719   -6.8623603    202.17658  0.031969731  0.032427703            4 
  528000    1.0228043   -6.7898456    202.50804  0.031961497  0.032409009            7 
  529000    1.0337967   -6.8434967    202.49827  0.031899539  0.032390209            4 
  530000    1.0284167   -6.8420875     203.4645  0.031991273  0.032371677            3 
  531000    1.0395033   -6.8900482    202.90847  0.031843765  0.032352798            2 
  532000    1.0384211   -6.8463225    203.29569  0.031844563  0.032334152            2 
  533000    1.0371269   -6.8544895    204.09792  0.031910243   0.03231525            4 
  534000    1.0532212   -6.8550462    204.26671  0.031876828  0.032296592            6 
  535000    1.0123685    -6.867666    204.21685  0.031809478  0.032278006            2 
  536000    1.0516283   -6.8234824    204.76332  0.031835093  0.032259271            1 
  537000     1.049298   -6.8498405    204.78752  0.031779565  0.032241032            2 
  538000    1.0460713   -6.8963517    205.10446  0.031769588  0.032222113            2 
  539000    1.0360131   -6.8342569    205.64549  0.031794294  0.032203429            3 
  540000     1.033892   -6.8723293    205.94475  0.031781597  0.032184946            2 
  541000    1.0399067    -6.872427    205.41318   0.03164097   0.03216595            3 
  542000    1.0387127   -6.8943913    205.97987  0.031669721  0.032147045            3 
  543000    1.0412136   -6.8854445    205.95352  0.031607355  0.032127661            2 
  544000    1.0141949   -6.9020509    206.51086  0.031634629  0.032108056            3 
  545000    1.0467892   -6.8913798      206.008  0.031499693  0.032088099            4 
  546000    1.0510282   -6.8546928    206.54164   0.03152345  0.032068162            2 
  547000    1.0277964   -6.8778619    207.33434  0.031586584  0.032048405            2 
  548000    1.0312345   -6.8859109    207.07626  0.031489699  0.032028492            3 
  549000     1.031011   -6.8652866    207.96209  0.031566801  0.032008895            4 
  550000    1.0659147   -6.8363211    208.46476   0.03158557  0.031989482            3 
  551000      1.05151   -6.8570293    207.65053  0.031405101  0.031969817            2 
  552000    1.0341803   -6.8719102    207.49112  0.031324143  0.031949714            2 
  553000    1.0405914   -6.8769585    207.71565  0.031301334  0.031929712            2 
  554000    1.0224568   -6.8724524    208.50696  0.031363863  0.031909355            2 
  555000    1.0260472   -6.8676765    208.35525  0.031284572  0.031889142            4 
  556000    1.0405445   -6.8856971     209.1661  0.031349836   0.03186933            3 
  557000    1.0092995   -6.8597954    210.02369  0.031421856  0.031849899            2 
  558000    1.0276063   -6.8542961    209.90648   0.03134804  0.031830944            3 
  559000    1.0300427   -6.8834806    210.14537  0.031327574   0.03181137            4 
  560000    1.0410323   -6.8591614    210.02995  0.031254457  0.031791546            3 
  561000    1.0323373   -6.8753493     210.3378  0.031244474  0.031771902            4 
  562000    1.0278797   -6.8955085    211.01831  0.031289785  0.031751815            4 
  563000    1.0253617   -6.8812282    210.65055  0.031179773  0.031731405            4 
  564000    1.0594758   -6.8616426    211.23958  0.031211523  0.031711494            6 
  565000    1.0193814   -6.8958887    211.19302  0.031149414   0.03169206            3 
  566000    1.0336553    -6.884703    211.30771  0.031111265  0.031672331            5 
  567000    1.0305566   -6.8830244    211.86367  0.031138106  0.031652257            2 
  568000    1.0563035   -6.8505234    212.28048  0.031144437   0.03163222            2 
  569000    1.0322069    -6.873886    213.09738  0.031209341  0.031612591            2 
  570000    1.0064856   -6.8712402    212.60141  0.031082078  0.031592585            2 
  571000    1.0350195   -6.8850865     213.2963  0.031129057  0.031573179            2 
  572000    1.0132863   -6.8828256    213.04464  0.031037972    0.0315539            3 
  573000    1.0322858   -6.8907032    213.65911  0.031073168  0.031534414            6 
  574000      1.02597   -6.8802626    214.27958  0.031109114  0.031514602            2 
  575000    1.0279541   -6.8982781    214.33001  0.031062321  0.031495076            4 
  576000    1.0266215   -6.8835467    214.25828  0.030998015  0.031475551            2 
  577000    1.0304706   -6.9289961    213.92812  0.030896609  0.031455691            2 
  578000    1.0163409   -6.9395383    214.56961  0.030935642  0.031435806            3 
  579000    1.0321148   -6.9061286    215.35612  0.030995412  0.031416215            3 
  580000    1.0179304   -6.8803382    215.55027  0.030969866  0.031396763            1 
  581000    1.0392304   -6.9093971    215.39927  0.030894904   0.03137743            2 
  582000   0.98013168    -6.877919    216.08645  0.030940213  0.031357844            3 
  583000    1.0279754   -6.8435209    217.21669  0.031048698  0.031338514            1 
  584000    1.0213477   -6.8580793    216.48409  0.030890995   0.03131947            2 
  585000    1.0332444   -6.9073321    217.12112  0.030928934   0.03130017            2 
  586000    1.0200014   -6.9089464    216.92696  0.030848543   0.03128108            2 
  587000    1.0193155   -6.8789412    216.95072  0.030799364  0.031261901            5 
  588000     1.004397   -6.9089526     217.4918  0.030823668  0.031242966            4 
  589000    1.0252702   -6.9079862    217.70093  0.030800924  0.031224065            3 
  590000    1.0244208   -6.9095952    217.70802   0.03074972  0.031204695            4 
  591000    1.0150152   -6.8854756     218.3977  0.030794937  0.031185376            2 
  592000    1.0394616   -6.9432016    217.55744   0.03062464  0.031165681            6 
  593000   0.99889833    -6.917495    218.36969   0.03068714  0.031146056            4 
  594000    1.0479239   -6.9151249    218.75833  0.030690002  0.031126609            2 
  595000    1.0165092   -6.9162772    219.16002  0.030694681   0.03110758            6 
  596000    1.0250505   -6.8918947    219.16388  0.030643719   0.03108766            2 
  597000     1.032998   -6.9059914    219.89683  0.030694699  0.031068053            6 
  598000    1.0039098   -6.8659608    220.52904  0.030731472   0.03104848            1 
  599000     1.018795   -6.9225319    219.48584  0.030535037   0.03102897            3 
  600000     1.028885     -6.90023    220.24437  0.030589496  0.031009253            3 
  601000    1.0259057   -6.9041035    219.64131   0.03045498   0.03098967            3 
  602000    1.0139031   -6.9027054    221.01076  0.030593959  0.030970194            3 
  603000    1.0034481   -6.9127795    220.01386  0.030405454  0.030950625            4 
  604000    1.0047372    -6.932827    220.66689  0.030445211  0.030930811            2 
  605000    1.0111387   -6.9499055    220.77946  0.030410394  0.030910813            1 
  606000    1.0346034   -6.9625624    221.36414  0.030440614  0.030891113            4 
  607000     1.017566   -6.9305553    221.44672  0.030401801  0.030871388            3 
  608000    1.0034397   -6.9387849    222.36718  0.030477958   0.03085195            3 
  609000    1.0205449   -6.9446217     222.3466  0.030425096  0.030832748            4 
  610000   0.99867716   -6.9099618    223.24841  0.030498416  0.030813716            1 
  611000   0.99278663   -6.9000475     223.2605   0.03045015  0.030794853            3 
  612000    1.0135959   -6.9377115    222.67505  0.030320676  0.030776047            2 
  613000   0.99382534   -6.9136144    223.84662  0.030430481  0.030757056            2 
  614000   0.99558093   -6.9320114    224.12121  0.030418188  0.030738305            3 
  615000    1.0308283   -6.9209559    223.90987   0.03034009  0.030719656            4 
  616000    1.0323922    -6.880257    224.96518  0.030433602  0.030700935            4 
  617000    1.0207656   -6.9485133    224.95237  0.030382546  0.030682482            6 
  618000    1.0027825   -6.8974733     224.8635    0.0303214  0.030663565            3 
  619000   0.99677112   -6.9059366    225.62907  0.030375481  0.030644673            5 
  620000    1.0106971   -6.9216463    225.38613  0.030293835  0.030626293            3 
  621000    1.0343682   -6.9520424    224.87754  0.030176803  0.030607653            5 
  622000    1.0110615   -6.9377009    225.27199  0.030181134  0.030588422            8 
  623000    1.0047697   -6.9207645    226.03712  0.030235034   0.03056893            3 
  624000    1.0153016   -6.9473177    226.04209  0.030187246  0.030549713            4 
  625000    1.0098198   -6.9490582    226.70837  0.030227782  0.030531166            3 
  626000   0.99607434   -6.9416257    227.08642  0.030229821  0.030512478            4 
  627000    1.0165115   -6.9199302     226.9259  0.030160274  0.030493703            3 
  628000     1.003899    -6.939383     227.6216  0.030204564  0.030475168            2 
  629000    1.0096139   -6.9457404    227.70272  0.030167292   0.03045654            4 
  630000   0.98883709   -6.9228968    228.53066  0.030228923  0.030437988            2 
  631000    1.0215311   -6.9317946    227.61722  0.030060382  0.030419568            4 
  632000    1.0065287    -6.967111     227.7775  0.030033953  0.030400818           10 
  633000    1.0091633   -6.9062979    228.09211  0.030027923  0.030382345            2 
  634000   0.99741974   -6.9366587    228.62109   0.03005009  0.030363798            4 
  635000    1.0135405   -6.9454856    228.89586  0.030038827   0.03034517            2 
  636000   0.97407997    -6.941868    228.67432  0.029962568  0.030326348            2 
  637000   0.98369796   -6.9302513    229.15431  0.029978324  0.030307435            3 
  638000    1.0160555   -6.9001558     229.4809  0.029973994  0.030288418            2 
  639000   0.99729996   -6.9351246    229.30461  0.029904096  0.030269857            4 
  640000   0.99276955   -6.9207291    230.62967  0.030029905  0.030251435            4 
  641000   0.99735252   -6.9420012    231.02661   0.03003466  0.030232906            3 
  642000   0.97918131   -6.8794049    230.66619  0.029941095  0.030214373            2 
  643000    1.0095995   -6.9569199    230.65928  0.029893634  0.030195774            4 
  644000    1.0250344   -6.9370343    230.62841   0.02984322  0.030176908            1 
  645000    1.0134583   -6.9196028    230.59434   0.02979255  0.030157522            7 
  646000     1.005198   -6.9502947    230.77553  0.029769805  0.030138347            2 
  647000   0.98964951   -6.9263275    231.15918  0.029773207  0.030119148            2 
  648000    1.0051491    -6.931778    231.21328  0.029734218  0.030100017            7 
  649000    0.9929225   -6.9528083    231.94803  0.029782746  0.030081455            3 
  650000    1.0027869   -6.9603373    231.89619  0.029730281  0.030062581            4 
  651000    0.9830944   -6.9274539    231.58957  0.029645362  0.030043547            2 
  652000    1.0093693   -6.9188034     232.2746  0.029687448  0.030024572            2 
  653000    1.0006992   -6.9849939    232.19281  0.029631548  0.030005502            3 
  654000    1.0101379   -6.9597681    232.80294  0.029663983  0.029986329            1 
  655000   0.99472059   -6.9709376    233.19584  0.029668683  0.029967527            4 
  656000   0.98699624   -6.9622528    233.54535  0.029667855  0.029948749            4 
  657000   0.99292171   -6.9730224    233.33472  0.029595981  0.029930197            3 
  658000   0.98060229   -6.9670086    233.68538  0.029595413   0.02991165            4 
  659000   0.98750533   -6.9371433    234.67767  0.029675982  0.029893142            4 
  660000   0.98767557   -6.9877544     234.1917  0.029569659  0.029875023            2 
  661000   0.97669272   -6.9869931    235.24792  0.029658084   0.02985675            2 
  662000   0.96542767   -6.9580441    235.08736  0.029593071  0.029838132            2 
  663000   0.97457578   -6.9998137    235.03565  0.029541937  0.029819867            1 
  664000    1.0002697    -6.965688    235.64938  0.029574471  0.029801766            3 
  665000    1.0007253   -6.9848359    235.81622  0.029550905  0.029783645            3 
  666000   0.98141104   -6.9669504    235.93395  0.029521265  0.029765192            3 
  667000   0.97974895   -6.9378289    236.19058  0.029509068  0.029746819            2 
  668000   0.98716976   -6.9730491    236.77678  0.029538022   0.02972888            3 
  669000   0.99628038     -6.96989    237.26263  0.029554388  0.029710549            4 
  670000   0.96931223   -6.9895564    237.09593  0.029489544  0.029692609            3 
  671000   0.97637384   -6.9516206    237.50128  0.029495936  0.029674801            6 
  672000   0.97069609   -6.9926453    236.85708  0.029372158  0.029656911            3 
  673000   0.99126703   -7.0075821    237.52832  0.029411629  0.029639192            2 
  674000   0.99214602   -6.9516507    237.97437  0.029423141  0.029621575            7 
  675000   0.98276174   -6.9663535    237.99208  0.029381739  0.029603955            3 
  676000   0.98466452   -6.9911109     238.7005  0.029425604  0.029586354            2 
  677000   0.99558372   -6.9945572    238.60431  0.029370299  0.029568488            3 
  678000   0.98732353   -6.9686635    239.11319  0.029389527  0.029550932            5 
  679000   0.96654172   -6.9891956    239.17914  0.029354337  0.029533233            3 
  680000   0.99132837   -6.9912272    239.46045  0.029345644  0.029515326            3 
  681000   0.97680517   -6.9329868    240.19718  0.029392704    0.0294976            3 
  682000   0.98376349   -6.9947011    240.48742   0.02938507  0.029480174            3 
  683000   0.99654712   -6.9823694    239.71071  0.029247281   0.02946255            4 
  684000   0.97294212   -6.9843773    240.94151  0.029354472  0.029444947            2 
  685000   0.99883452   -6.9594694    240.92479  0.029309585  0.029427713            3 
  686000   0.98597166   -6.9736429    240.81133  0.029253077  0.029410321            5 
  687000    0.9947261   -6.9630349    241.59197  0.029305188  0.029393066            3 
  688000   0.96247875   -6.9900396    241.30982  0.029228418  0.029375748            5 
  689000     0.992799   -6.9626838    241.83233  0.029249193  0.029358593            7 
  690000   0.98267833   -6.9950795    242.11045  0.029240392  0.029341527            3 
  691000   0.96607929   -6.9678139     242.7908  0.029280125  0.029324168            3 
  692000   0.98894169   -7.0221939    241.90692  0.029131373  0.029307077            3 
  693000   0.96062091   -6.9983333     242.4044  0.029149158  0.029289693            5 
  694000   0.99604071   -7.0052194    242.40402  0.029107111  0.029272311            3 
  695000   0.97885898   -6.9742939    243.06312  0.029144259  0.029255089            4 
  696000   0.99586148   -7.0025864    242.49973  0.029034929  0.029237933            5 
  697000   0.97268885   -6.9716693    243.38305  0.029098882  0.029220778            2 
  698000   0.97838833   -7.0126963    242.82033  0.028990011  0.029203467            2 
  699000    1.0030083   -6.9878158     243.9045  0.029077789  0.029185877            3 
  700000   0.96730138   -7.0071479    243.79616  0.029023352  0.029168382            2 
  701000   0.98253458   -6.9940657    243.66355  0.028966185  0.029150639            2 
  702000   0.95662359   -6.9912385    244.17653  0.028985817   0.02913292            6 
  703000   0.97435618   -6.9876778    244.41034  0.028972302  0.029115412            3 
  704000   0.96603584   -6.9753356    245.74477  0.029089107  0.029098241            4 
  705000   0.98570242   -6.9851972    245.55279  0.029025153  0.029081066            7 
  706000   0.97583444   -7.0479712    245.41141  0.028967353  0.029063817            3 
  707000   0.98044774   -7.0351948    244.40997  0.028808342  0.029045916            9 
  708000   0.98159548   -6.9958787    245.06095  0.028844274  0.029028258            7 
  709000   0.96700759   -7.0279406    244.88582  0.028783006  0.029010463            3 
  710000   0.96672221   -7.0066806    245.92333  0.028864241  0.028993064            5 
  711000   0.98166042     -7.00959    245.67141  0.028794118  0.028975917            2 
  712000   0.96412478   -6.9899658    246.32727  0.028830439  0.028958786            6 
  713000   0.95573877   -7.0109156    246.38997  0.028797331  0.028941385            3 
  714000   0.96513456    -6.993115     246.3341  0.028750478  0.028923907           11 
  715000   0.95461614   -7.0310049    246.53066  0.028733177  0.028906339            5 
  716000    1.0015077   -6.9926903    246.69445   0.02871211   0.02888871            3 
  717000   0.95560972   -7.0353907    246.21857  0.028616756  0.028871012            2 
  718000   0.97808591   -7.0182114    246.54285  0.028614537  0.028852957            2 
  719000   0.95557585   -7.0303042    246.98378  0.028625843  0.028835259            3 
  720000   0.97590447   -7.0051461    247.52475  0.028648697  0.028817709            4 
  721000   0.96056993   -7.0376071    247.80574   0.02864144  0.028800423            4 
  722000   0.96000034   -7.0182971     247.6078  0.028578924  0.028782679            3 
  723000   0.95455801   -6.9957405    249.11292  0.028712877   0.02876533            2 
  724000   0.95915949   -6.9836955    248.70428  0.028626183  0.028748627            4 
  725000   0.96500388   -7.0171344    249.28457  0.028653398  0.028731536            2 
  726000   0.98619062    -7.001193    248.59692     0.028535  0.028714373            5 
  727000   0.95681103   -7.0294265    249.28563  0.028574694  0.028696997            3 
  728000   0.96133605    -7.061798    248.97076  0.028499401  0.028679498            6 
  729000   0.94228471   -6.9819667    249.64895  0.028537832   0.02866227            3 
  730000   0.95655633   -7.0353214    248.78103   0.02839966  0.028644782            1 
  731000   0.96669382   -7.0084058    249.92487  0.028491207  0.028627115            6 
  732000   0.94102969   -7.0482366    249.87831  0.028446984  0.028609678            6 
  733000   0.95680372   -7.0190105    250.89369  0.028523612  0.028592278            2 
  734000   0.96749887   -7.0337793    250.45277  0.028434693   0.02857502            6 
  735000   0.98188917    -7.035224    250.35312  0.028384708   0.02855771            2 
  736000   0.95127408   -7.0131233    251.58499   0.02848562  0.028540717            4 
  737000   0.95602638   -7.0124174    251.75474  0.028466162  0.028523548            5 
  738000   0.97091988   -7.0158916    252.09105  0.028465566  0.028506455            5 
  739000   0.94918268   -7.0361357    251.75533  0.028389189   0.02848943            2 
  740000   0.93562618   -7.0341565    251.89465  0.028366514  0.028472374            3 
  741000   0.94643756    -7.050953    252.02148  0.028342497   0.02845526            2 
  742000   0.96085581   -7.0363583    253.26785  0.028444278  0.028438206            5 
  743000   0.95185773   -7.0068281    253.52523  0.028434862  0.028421254            3 
  744000   0.96932637   -7.0271633    253.36923   0.02837917  0.028404474            7 
  745000   0.95600481   -7.0480455    253.43575  0.028348518  0.028387738            7 
  746000   0.94206496   -7.0216574    253.44141   0.02831115  0.028370754            3 
  747000   0.95957354   -7.0358894    253.18846  0.028245031  0.028353623            3 
  748000    0.9533147   -7.0499138    253.42958  0.028234134  0.028336208            3 
  749000   0.96742318   -7.0462864    252.96296  0.028144521  0.028318861            6 
  750000   0.93461851   -7.0336097    253.87667  0.028208519  0.028301689            3 
  751000   0.94947261   -7.0301827    254.84913  0.028278865  0.028284564            6 
  752000   0.94471402   -7.0389239    253.90585   0.02813673  0.028267449            6 
  753000   0.93782518   -7.0431716     255.1492  0.028236963  0.028250442            2 
  754000   0.94452543   -7.0415606    255.07066  0.028190833  0.028233811            4 
  755000   0.95472357    -7.034447    255.62613  0.028214805  0.028217301            5 
  756000   0.98012718   -7.0611403    254.95021  0.028102977  0.028200483            5 
  757000   0.95619663   -7.0375527    256.19333  0.028202701  0.028183628            4 
  758000   0.94665678   -7.0586869    255.91989  0.028135432  0.028167006            4 
  759000   0.95362174   -7.0260495    256.05122  0.028112782  0.028150404            4 
  760000   0.95651696   -7.0389701    256.14337  0.028085896  0.028133671            7 
  761000   0.95163749   -7.0447302    256.44532  0.028082055  0.028116857            6 
  762000   0.94776529   -7.0517629    257.07455  0.028114015  0.028099983            2 
  763000    0.9487973   -7.0531223    257.04577  0.028074025  0.028082951            5 
  764000   0.92817133   -7.0382117    257.48969  0.028085699  0.028066319            3 
  765000   0.94793239   -7.0234694    257.77058  0.028079584  0.028049644            8 
  766000   0.96702679   -7.0354694    257.45788  0.028008907  0.028033075            8 
  767000   0.94102977   -7.0527267    258.13976  0.028046476  0.028016492            3 
  768000   0.94586861   -7.0433284    258.13387  0.028009317  0.028000077            3 
  769000   0.94226962   -7.0644568    258.41381  0.028003231  0.027983712            2 
  770000   0.93099334   -7.0615771    257.73872  0.027893801  0.027967078            2 
  771000   0.92957006    -7.073229    258.28794  0.027916985  0.027950364            3 
  772000   0.93912009   -7.0183117    258.94276  0.027951507  0.027933939            3 
  773000   0.95419761   -7.0605205    259.05121  0.027927038  0.027917347            3 
  774000   0.92631857   -7.0710903    258.87271  0.027871739  0.027900833            2 
  775000    0.9360365   -7.0891175    259.10409  0.027860655  0.027884263            4 
  776000   0.95489104   -7.0566202     259.6237  0.027880552  0.027867738            3 
  777000   0.93799368   -7.0860208    259.62426   0.02784473  0.027851561            5 
  778000   0.93136314   -7.0779415    260.08286  0.027858062  0.027835338            6 
  779000   0.92153243   -7.0392472     260.0815  0.027822155  0.027819063            2 
  780000   0.95368066   -7.0941918    259.97045  0.027774621  0.027802589            4 
  781000   0.94085324   -7.0724968    260.74286  0.027821475  0.027786146            1 
  782000   0.92935263   -7.0602284    260.56246  0.027766673  0.027769636            4 
  783000   0.94858756   -7.0797606    260.50721  0.027725331  0.027753188            7 
  784000   0.94793462   -7.0508238    261.00526  0.027742906  0.027736705            5 
  785000   0.92739207   -7.0461023    261.41966  0.027751557  0.027720322            5 
  786000   0.93724469    -7.072619    261.69696  0.027745649  0.027703818            2 
  787000    0.9475389   -7.0532563    261.76907  0.027718029  0.027687264            5 
  788000   0.91885897   -7.0717228    260.73539   0.02757354   0.02767073            5 
  789000   0.93377672   -7.0647525    261.55682  0.027625351  0.027653999            5 
  790000   0.91053839   -7.0719833    262.31967  0.027670851  0.027637154            2 
  791000   0.93482752    -7.108076    261.84046  0.027585384  0.027620359            3 
  792000   0.94073694   -7.0552912    262.18065  0.027586348  0.027603541            8 
  793000   0.93698152   -7.0517927     262.9241  0.027629687  0.027587047            3 
  794000   0.91903561   -7.0980201     263.1813  0.027621883  0.027570504            3 
  795000   0.92490078   -7.0763237    263.15941  0.027584843  0.027553814            3 
  796000   0.92294748   -7.1060079    262.97701  0.027531094  0.027537265            4 
  797000    0.9231918   -7.0897445    263.62938  0.027564762  0.027520644            7 
  798000   0.92201081   -7.0702135    262.87426  0.027451364  0.027504052            2 
  799000   0.94253434   -7.0926324    263.48958  0.027481183  0.027487292            7 
  800000    0.9248801   -7.0981741    262.42334  0.027335765  0.027470368            5 
  801000    0.9317039   -7.0684586    264.16712  0.027483054  0.027453717            4 
  802000   0.93404359   -7.0511256    263.92047  0.027423158  0.027437178            4 
  803000   0.92802698   -7.0572378    264.31688  0.027430145  0.027420532            4 
  804000   0.93300499   -7.0820621    264.26702   0.02739086  0.027403724            6 
  805000   0.94210662   -7.0939018    264.06974  0.027336412  0.027386974            5 
  806000   0.94707261   -7.0719307     264.9674  0.027395306  0.027370353            5 
  807000   0.91506983   -7.0731033    264.50117  0.027313215  0.027353817            2 
  808000   0.94488012   -7.0872433    265.45941  0.027378239  0.027337356            4 
  809000   0.93553236   -7.0946254    265.74805  0.027374129  0.027321138            3 
  810000     0.913532   -7.0562765    266.27464  0.027394511  0.027304945            2 
  811000   0.94867907   -7.1082858    266.42953  0.027376647   0.02728861            5 
  812000   0.93030429   -7.0989306    266.29467  0.027329092  0.027272313            2 
  813000   0.92754196   -7.0761538    266.28677  0.027294666  0.027256192            3 
  814000   0.92852108    -7.041917    268.06891  0.027443582  0.027240234            2 
  815000   0.92699135   -7.1005084    267.34488  0.027335878  0.027224298            3 
  816000   0.92788362   -7.1071674     266.8829  0.027255198  0.027207983            4 
  817000   0.92406726   -7.0614255    267.21595  0.027255808  0.027191605            2 
  818000   0.94458066   -7.0888732    266.90944  0.027191264  0.027175318            4 
  819000   0.94130202   -7.0844742     267.3312  0.027200977  0.027159065            3 
  820000   0.93083363   -7.1194504    267.39252  0.027174037  0.027142866            5 
  821000   0.91170659    -7.072746    268.19033  0.027221917  0.027126561            3 
  822000   0.92794442   -7.1031688    266.75319  0.027043105  0.027110126            3 
  823000   0.92170492   -7.1208119     267.4829  0.027084133  0.027093701            5 
  824000   0.92459405   -7.1256012    267.59084   0.02706218  0.027077228            8 
  825000   0.92145135   -7.1281454    267.42383  0.027012509   0.02706053            6 
  826000   0.93031096   -7.1001021    268.29945  0.027068144  0.027043974            4 
  827000   0.92325916    -7.119791    268.76174  0.027081997   0.02702761            5 
  828000   0.94590802    -7.110299    268.56836  0.027029827  0.027011387            4 
  829000   0.92865107   -7.1217615    268.54839  0.026995214  0.026994919            3 
  830000    0.9385051   -7.0869526    269.84014  0.027092384   0.02697866            3 
  831000   0.91934869   -7.0620935     270.2044   0.02709631  0.026962484            3 
  832000   0.91010483   -7.1026431    270.23298  0.027066605  0.026946363            3 
  833000   0.92057794   -7.1054192    269.19763  0.026930535  0.026929931            6 
  834000   0.90652467   -7.0879439    269.63758  0.026942205   0.02691354            5 
  835000   0.92439091   -7.1069003    270.39641   0.02698567  0.026897162            3 
  836000   0.92101205   -7.1098011    269.67137  0.026881117  0.026880804            5 
  837000   0.93222546   -7.1121218    270.34281  0.026915851  0.026864327            3 
  838000   0.92670463   -7.0817277    270.72564  0.026921802  0.026847931            5 
  839000   0.90622278   -7.1142575     270.4512  0.026862456  0.026831635            4 
  840000   0.91225533   -7.1047187      270.249  0.026810416  0.026815323            4 
  841000   0.90799769   -7.0878875    271.15121  0.026867936  0.026799176            3 
  842000   0.91064672   -7.0930943    270.40373  0.026762047  0.026782691            2 
  843000   0.91484234   -7.1382806    269.69677  0.026660416  0.026766029            3 
  844000   0.91547963   -7.1536968    271.24346  0.026781542  0.026749361            4 
  845000   0.92365289   -7.1229573    270.99047  0.026724899  0.026732898            6 
  846000   0.92132693   -7.1087922    271.08035  0.026702162  0.026716347            2 
  847000   0.93794758   -7.1025118    272.39459   0.02679994  0.026699829            4 
  848000   0.92797653   -7.1766799     271.2022  0.026651159  0.026683243            2 
  849000    0.9239823   -7.1693476    272.22328  0.026719992  0.026666851            2 
  850000   0.89658022   -7.0947849     272.5934  0.026724843  0.026650499            2 
  851000   0.91672192   -7.1084245    272.88505  0.026721998   0.02663422            4 
  852000   0.90834878   -7.1133797    272.29712   0.02663313  0.026617795            1 
  853000   0.91337203    -7.131307    272.94848  0.026665542   0.02660135            7 
  854000   0.91560725   -7.1235702    272.60649  0.026600945  0.026584795            3 
  855000   0.90395162    -7.126206    272.00717   0.02651142  0.026568117            4 
  856000   0.92899909   -7.1192266    272.89519  0.026566899  0.026551532            2 
  857000   0.91679503   -7.1271105    272.61035  0.026508202  0.026534903            4 
  858000   0.91963421    -7.120169    273.47585  0.026561369  0.026518345            4 
  859000   0.93108714   -7.1253417    272.70253  0.026455425  0.026501477            3 
  860000   0.89964171   -7.1172099    273.47328  0.026499349  0.026484742            2 
  861000   0.92337272   -7.1466425    273.71889  0.026492343  0.026468177            3 
  862000   0.90062515   -7.1314208    273.32027  0.026423073  0.026451501            3 
  863000   0.93555735   -7.0958404    274.60451  0.026516465   0.02643475            4 
  864000   0.89881752   -7.1429678    272.92202  0.026323497  0.026418071            4 
  865000   0.91434574   -7.1275259    274.05604  0.026402316  0.026401097            2 
  866000   0.89614546   -7.1462994     274.1209   0.02637807  0.026384267            5 
  867000   0.92117215   -7.1501704    273.19305  0.026258463  0.026367372            4 
  868000   0.91490203   -7.1543993    274.22155  0.026326954  0.026350445            3 
  869000   0.91037763    -7.153798    274.82439  0.026354468  0.026333642            6 
  870000   0.90263697   -7.1392105    274.25462    0.0262696  0.026316872            7 
  871000   0.92443424   -7.1659848    274.50175  0.026263083  0.026300163            2 
  872000   0.89905882   -7.1207002     275.3136  0.026310551  0.026283532            3 
  873000   0.90416317   -7.1533301    275.94753  0.026340925  0.026266967            2 
  874000   0.88208558   -7.1764436    275.09115  0.026229133  0.026250257            3 
  875000   0.92920253   -7.1710447    274.77052  0.026168621  0.026233495            3 
  876000   0.89561938   -7.1636325    275.77362  0.026234172  0.026216848            4 
  877000   0.88803466   -7.0815497    275.94915  0.026220938  0.026200034            4 
  878000   0.90025472   -7.1272177    275.84141  0.026180848  0.026183531            3 
  879000   0.91665735   -7.1514954    275.66146  0.026134003   0.02616708            2 
  880000   0.91315214   -7.1243493    276.09056  0.026144939  0.026150519            6 
  881000   0.88583167   -7.1287701    276.60648  0.026164063   0.02613393            3 
  882000    0.9173417    -7.147045     276.5047  0.026124783  0.026117278            5 
  883000   0.90849064   -7.1662016     276.4291  0.026088061  0.026100696            8 
  884000   0.89912749   -7.1211645    277.81595  0.026189286  0.026084182            2 
  885000   0.90574505   -7.1513379    277.43555  0.026123875  0.026067839            4 
  886000   0.89278937   -7.1209841    277.25913  0.026077796  0.026051327            4 
  887000   0.87890703   -7.1212652    278.15461  0.026132526  0.026034911            2 
  888000   0.90167034   -7.1399033    277.22424  0.026015789  0.026018499            2 
  889000   0.89686602   -7.1525406    277.65514  0.026026916  0.026001914            3 
  890000   0.90798723   -7.1309069    277.45575  0.025979003  0.025985257            2 
  891000   0.90660108   -7.1631791    277.80825  0.025982814  0.025968654            3 
  892000   0.92161402   -7.1405293    278.54325  0.026022351  0.025951932            2 
  893000   0.91674728   -7.1622608    277.84789  0.025928321  0.025935418            3 
  894000   0.89885675   -7.1414677      278.116  0.025924311  0.025918868            7 
  895000   0.90042609   -7.1839875    277.88791  0.025874107   0.02590217            4 
  896000   0.89508031   -7.1674452    278.01867  0.025857392  0.025885417            7 
  897000   0.91852668   -7.1755591    277.74549  0.025803186  0.025868674            3 
  898000    0.9008153   -7.1679858    277.91612  0.025790286  0.025851804            9 
  899000   0.91646038   -7.1691319    278.59995  0.025824986  0.025834965            4 
  900000   0.91066001   -7.1697211    278.81762  0.025816446  0.025818333            5 
  901000   0.88051568   -7.1573004     278.8459  0.025790409  0.025801703           11 
  902000    0.9057447   -7.1449314    279.64884  0.025835998  0.025784912            5 
  903000   0.91319577   -7.1690916    278.70582  0.025720359  0.025768151            4 
  904000   0.88690625   -7.1876556    279.35036  0.025751324  0.025751334            3 
  905000    0.8990116   -7.1827096    279.01176  0.025691691  0.025734495            3 
  906000    0.8780085   -7.1462363    278.89541  0.025652632  0.025717482            3 
  907000   0.89510231   -7.1717192    279.06176  0.025639633  0.025700444            1 
  908000   0.88596531   -7.1334823    279.96439  0.025694236  0.025683569            3 
  909000   0.88387196   -7.1552187    280.32663  0.025699178  0.025666808            7 
  910000   0.88042664   -7.1825979    280.43662   0.02568101  0.025650068            6 
  911000   0.88763119   -7.1843033    279.44671  0.025562268  0.025633234            4 
  912000   0.89388878      -7.1724    281.04307  0.025680105  0.025616546            2 
  913000   0.89870675   -7.1433091    280.47536  0.025600161  0.025599984            2 
  914000    0.9024957   -7.1455895    281.35965  0.025652777  0.025583599            4 
  915000   0.88037511   -7.1802339     280.8184  0.025575446  0.025567119            7 
  916000   0.90198216   -7.1956099    281.40857  0.025601216  0.025550546            3 
  917000   0.87157308   -7.1725873    281.81172  0.025609935  0.025534167            5 
  918000   0.89318646   -7.1725703    282.06883  0.025605376  0.025517733            4 
  919000   0.87622877      -7.2172     281.3727  0.025514391  0.025501243            2 
  920000   0.87517255   -7.1844548    282.21683  0.025563119  0.025484948            5 
  921000   0.87628767   -7.2036758    281.73779  0.025492019   0.02546846            3 
  922000    0.8854092   -7.1994369    281.54603  0.025447038  0.025452001            4 
  923000    0.8652384    -7.206112    281.71299  0.025434542  0.025435523            3 
  924000   0.86694854   -7.1867105     282.5357  0.025481214  0.025419036            1 
  925000   0.89328156   -7.1824968    282.33741  0.025435803  0.025402521            3 
  926000   0.87272103    -7.194027    282.90242  0.025459181  0.025386104            3 
  927000   0.87669085   -7.1925861    282.67307  0.025411099   0.02536957            3 
  928000   0.86683073   -7.1717744    283.65383  0.025471788  0.025353136            5 
  929000   0.87205103   -7.1792621    283.24512  0.025407707  0.025336934            3 
  930000   0.86689298   -7.1670569    282.75165   0.02533617  0.025320648            6 
  931000   0.86866487   -7.1692207    283.33688  0.025361339  0.025304177            5 
  932000   0.87603359   -7.1907033    283.11575  0.025314355  0.025287716            2 
  933000   0.87213046    -7.178165    283.58592  0.025329218   0.02527115            3 
  934000   0.88080598   -7.2048424    284.13059  0.025350695   0.02525477            3 
  935000   0.86609068   -7.1933999    283.45629  0.025263484  0.025238528            2 
  936000   0.88171505   -7.1917998    283.96613  0.025281885  0.025222059            3 
  937000   0.88909854    -7.231088    283.62346  0.025224427  0.025205619            3 
  938000   0.89713781   -7.1641933    284.53375  0.025278407  0.025189138            5 
  939000    0.8657815    -7.172893    283.92656    0.0251976  0.025172954            2 
  940000   0.88972462   -7.1958054    284.49523  0.025221208  0.025156875            3 
  941000   0.86545625    -7.225541    285.40157   0.02527467  0.025140788            4 
  942000   0.87050628   -7.2006835    284.36075  0.025155763  0.025124548            2 
  943000    0.8780128   -7.1869288    285.17078   0.02520067  0.025108474            4 
  944000   0.88263938   -7.1878026    285.63645  0.025215082  0.025092331            5 
  945000   0.87235027   -7.1986591    286.01919  0.025222151  0.025076258            3 
  946000   0.86544741     -7.21712    285.51468  0.025151047  0.025059985            8 
  947000   0.87344499   -7.2273238    285.85757  0.025154661  0.025043786            5 
  948000   0.88455349   -7.1961749     285.8424  0.025126793  0.025027752            6 
  949000   0.87932485    -7.203769    285.80363  0.025096911  0.025011665            3 
  950000    0.8824607   -7.2145924    285.68448  0.025060042  0.024995551            3 
  951000   0.85921623   -7.2055668     286.6363  0.025117096  0.024979454            6 
  952000   0.89528976   -7.2009595    285.58028  0.024998274  0.024963114            3 
  953000   0.87448814   -7.2268111    285.55286  0.024969645  0.024946628            3 
  954000   0.84190036   -7.2382202    285.77249  0.024962657  0.024930134           12 
  955000   0.85749576   -7.2144642    287.10196  0.025052527  0.024913853            3 
  956000   0.87976779   -7.2353579    286.46222  0.024970556  0.024897654            3 
  957000   0.87187045    -7.244001    287.03247   0.02499412  0.024881416            5 
  958000   0.86307376   -7.2046529    286.69858  0.024938986  0.024865197            5 
  959000    0.8572804   -7.2362388    286.25088  0.024874078   0.02484896           12 
  960000    0.8734445    -7.230141    288.10223  0.025008874  0.024832685            6 
  961000   0.85197096   -7.2155155    287.34712  0.024917371  0.024816385            3 
  962000   0.84766582   -7.2175416    288.33273  0.024976848  0.024800041            6 
  963000   0.88120571   -7.2551281    287.34949  0.024865827   0.02478379            3 
  964000   0.84458925   -7.2124107      286.679  0.024782071   0.02476755            3 
  965000   0.87413186   -7.1939453    288.25222  0.024892247  0.024751287            4 
  966000   0.86787041   -7.1851907    288.16738  0.024859159  0.024735283            5 
  967000    0.8765864   -7.2151066    287.95514  0.024815162  0.024719339            4 
  968000   0.85840034    -7.234805    288.01837   0.02479497  0.024703158            4 
  969000   0.85363575   -7.2327946    288.34417    0.0247974  0.024687085            4 
  970000   0.85501012    -7.229198    288.57145  0.024791361  0.024671017            4 
  971000   0.87414558   -7.2414899    288.65371  0.024772889  0.024655017            5 
  972000   0.88577271   -7.2329572    288.41057  0.024726557  0.024639092            3 
  973000   0.86911911   -7.1857401    289.61217  0.024804057  0.024623169            6 
  974000   0.86411063   -7.2383385    289.31743  0.024753374  0.024607315            2 
  975000   0.84012883   -7.2150278    289.61589  0.024753495  0.024591336            3 
  976000   0.84514608    -7.216714    289.23199  0.024695355  0.024575447            4 
  977000   0.86768232   -7.2193006    289.23036  0.024669938  0.024559602            5 
  978000   0.85803192   -7.2224097    289.80832  0.024693961  0.024543776            8 
  979000   0.86103544   -7.2562031    288.81163  0.024583898  0.024527883            6 
  980000   0.86012874   -7.2059308    289.89501  0.024650936  0.024512109            4 
  981000   0.87311721   -7.2100002    290.57632  0.024683683  0.024496426            3 
  982000   0.83426204   -7.2337052    291.03814  0.024697738  0.024480901            2 
  983000   0.85389876   -7.2043981     291.1424  0.024681451  0.024465309            7 
  984000    0.8648669   -7.2483914    290.52857  0.024604384  0.024449798            3 
  985000   0.85794218   -7.2483133    291.21038  0.024637088  0.024434185            3 
  986000   0.85140003   -7.2353457    290.55002   0.02455629    0.0244186            5 
  987000   0.86004656    -7.222689    291.48362  0.024610234  0.024403106            5 
  988000   0.88149153   -7.1994239    291.98282  0.024627431  0.024387639            6 
  989000     0.846519   -7.2375768    291.48985  0.024560992  0.024372258            3 
  990000   0.87139899    -7.232675    292.06585  0.024584667   0.02435681            4 
  991000   0.84968783   -7.2542096    291.57441  0.024518535  0.024341357            5 
  992000    0.8422817   -7.2473564    291.24493   0.02446614  0.024325835            5 
  993000   0.86443457   -7.2402888    292.03551  0.024507848  0.024310268            3 
  994000   0.85328685   -7.2374313     292.0046    0.0244806  0.024294795            5 
  995000   0.84890905   -7.2721703    292.30197  0.024480902  0.024279301            3 
  996000   0.85986468   -7.2241291    292.98301  0.024513304  0.024263977           11 
  997000   0.85596476   -7.2879378    293.40558  0.024524037  0.024248716            4 
  998000   0.85135697   -7.2468218    293.55295  0.024511769  0.024233585            5 
  999000   0.84741472   -7.2462692    293.65136  0.024495442  0.024218521            5 
 1000000    0.8540988   -7.2282487    293.35487  0.024446239   0.02420338            5 
 1001000   0.87167381   -7.2492268    293.36371  0.024422553   0.02418822            4 
 1002000   0.85113278   -7.2714923    293.77479  0.024432367  0.024172906            3 
 1003000   0.85560523   -7.2840524    293.82764  0.024412399  0.024157507            9 
 1004000   0.84993568   -7.2594698    293.71308  0.024378576  0.024142225           11 
 1005000    0.8417095   -7.2666533    292.41601  0.024246767  0.024126906            4 
 1006000   0.85699248   -7.2910399    294.24741  0.024374371  0.024111502            5 
 1007000   0.86810487   -7.2531814    294.85715  0.024400625  0.024096302            3 
 1008000   0.84911828   -7.2561299    294.99932  0.024388171  0.024081229            4 
 1009000   0.84479061   -7.2512574    294.45362  0.024318931   0.02406605            5 
 1010000    0.8637219    -7.264707    294.83184  0.024326059  0.024050843            3 
 1011000   0.85895154    -7.281646    294.74138  0.024294542  0.024035514            3 
 1012000    0.8606988   -7.2630759    294.20793  0.024226609  0.024020197            2 
 1013000   0.85604012   -7.2371613    294.30179  0.024210414  0.024005032            4 
 1014000   0.84026148   -7.3003599    295.19745  0.024260146  0.023989828            6 
 1015000    0.8526679    -7.277831    295.43254  0.024255545  0.023974543            7 
 1016000   0.86491757    -7.262509     295.9683  0.024275615  0.023959439            4 
 1017000   0.82993042   -7.2749194     295.3467  0.024200811  0.023944306            5 
 1018000   0.84946145   -7.2703433    295.89034   0.02422154  0.023929264            3 
 1019000   0.84946509    -7.254792    296.73082  0.024266505   0.02391432            2 
 1020000   0.83755565   -7.2578917     296.0009   0.02418308  0.023899397            3 
 1021000   0.84945244   -7.2654627    295.51458  0.024119701  0.023884426            2 
 1022000   0.86308523   -7.2949552    295.74673   0.02411503  0.023869378            3 
 1023000   0.84035736   -7.3041585    296.00383  0.024112401  0.023854415            6 
 1024000   0.84875411   -7.2595631    296.06311  0.024093678  0.023839519            8 
 1025000      0.83185    -7.224777    297.22254  0.024164434  0.023824687            7 
 1026000    0.8584216   -7.2554708    297.32752  0.024149409   0.02380993            4 
 1027000   0.83522028   -7.2592619    297.73827  0.024159224  0.023795152            4 
 1028000   0.84891185   -7.2717739    297.05531  0.024080359  0.023780364            4 
 1029000   0.84148013   -7.2661923    297.23942  0.024071867  0.023765476            3 
 1030000   0.83425446   -7.2827296    296.83055  0.024015416  0.023750545            7 
 1031000   0.84524006   -7.2839622    297.33125  0.024032594  0.023735688            7 
 1032000   0.85912167   -7.2713055    298.01531  0.024064544  0.023720845            2 
 1033000    0.8560932   -7.2973337     296.9706   0.02395697  0.023705901            4 
 1034000   0.86002756   -7.2632581     298.0083  0.024017433  0.023690867            6 
 1035000    0.8353255   -7.2917599    297.09717  0.023920867  0.023675856            4 
 1036000   0.84679996   -7.2897613    297.79801  0.023954151  0.023660856            3 
 1037000   0.83929198   -7.2608741    297.53855  0.023910201  0.023645835            5 
 1038000   0.84305812   -7.2877964    298.01545  0.023925453  0.023630797            2 
 1039000    0.8355116   -7.2654921    298.13452  0.023911976  0.023615728            3 
 1040000   0.84864177   -7.2696813    296.88399  0.023788781  0.023600454            2 
 1041000   0.83104486   -7.3075327    298.28884   0.02387839  0.023585253            5 
 1042000   0.86308562   -7.2958492    297.57835  0.023798653  0.023570051            4 
 1043000   0.83184137   -7.2563435    297.90516  0.023801946  0.023554849            3 
 1044000   0.83509768   -7.2684626    298.47298  0.023824472  0.023539746            5 
 1045000   0.83484177   -7.3004465    298.13124  0.023774421  0.023524631            9 
 1046000    0.8361361   -7.3289659    298.24508  0.023760762  0.023509579            3 
 1047000   0.83818144   -7.3076766    298.56704  0.023763693    0.0234944            5 
 1048000   0.81752387   -7.2921871    298.16855  0.023709332  0.023479246            4 
 1049000   0.84125608   -7.2789684    298.67622  0.023727059  0.023464238            4 
 1050000    0.8173654   -7.2824246    299.18062  0.023744494  0.023449292            3 
 1051000    0.8494534   -7.3215499    298.56898  0.023673405  0.023434192            5 
 1052000   0.83255963   -7.2664062    299.09422  0.023692508  0.023419257            2 
 1053000    0.8263413    -7.316115     299.0566   0.02366703  0.023404179            4 
 1054000   0.82987357   -7.2869141    299.17486  0.023653926  0.023389124            4 
 1055000   0.83376569   -7.2900178    299.69101  0.023672275  0.023374164            4 
 1056000   0.83915638   -7.3179076    300.10934  0.023682871  0.023359242            7 
 1057000   0.84561343   -7.3109729    300.28535  0.023674341  0.023344375            3 
 1058000   0.81756998    -7.284535    300.63979  0.023679882  0.023329458            3 
 1059000   0.83467968   -7.3032881    299.44256  0.023563311  0.023314566            7 
 1060000   0.83318758   -7.3165575    299.96834  0.023582417  0.023299585            8 
 1061000   0.79920703   -7.2877744    300.12356  0.023572381  0.023284513            5 
 1062000   0.82029007   -7.3132673    299.94918  0.023536502  0.023269419            4 
 1063000    0.8326861   -7.3232893    299.85712  0.023507143  0.023254216            4 
 1064000   0.82538132    -7.312551    299.54552  0.023460646  0.023239134            2 
 1065000   0.82920077    -7.319554    299.87587  0.023464465  0.023224034            5 
 1066000   0.81020834   -7.3138624    299.75565  0.023433056  0.023208882            3 
 1067000   0.82813743   -7.3269127    300.46142  0.023466215  0.023193602            4 
 1068000   0.83023648    -7.272625    300.47893  0.023445609  0.023178537            2 
 1069000   0.83386358   -7.2910302    300.94346  0.023459889  0.023163458            4 
 1070000   0.81391293   -7.3166012    300.52174   0.02340512  0.023148322            6 
 1071000   0.82293577   -7.3372827    300.35323  0.023370155  0.023133227            6 
 1072000   0.83114044   -7.3086835    300.76031  0.023379999  0.023118077            8 
 1073000   0.82626053   -7.3148644    300.28666  0.023321425  0.023102931           10 
 1074000   0.81639475   -7.3057486    300.84442  0.023342987  0.023087814            5 
 1075000   0.82031738   -7.2928927    300.54399  0.023297984  0.023072779            4 
 1076000   0.82152036   -7.2568177    301.40832  0.023343271  0.023057756            4 
 1077000   0.82419893   -7.3299213     301.0325  0.023292518  0.023042589            5 
 1078000   0.83147821   -7.2841632    301.19099  0.023283162  0.023027399            2 
 1079000   0.81835279   -7.3272816    300.82852   0.02323359  0.023012074            5 
 1080000   0.82436209   -7.3335521    300.81959  0.023211388  0.022996772            2 
 1081000   0.81202221   -7.3093921    301.50551  0.023242793  0.022981455            4 
 1082000   0.82910081   -7.2950076    300.59209  0.023150962  0.022966162            3 
 1083000   0.80789938   -7.3253422     301.0972  0.023168451  0.022950909            3 
 1084000   0.82964138    -7.314416    301.11571  0.023148502  0.022935584            4 
 1085000   0.82429732   -7.3096623    301.12808  0.023128117  0.022920222            3 
 1086000   0.81182674   -7.3285764    300.65306  0.023070369  0.022904839            2 
 1087000   0.81809327   -7.3472415    301.52736  0.023116173  0.022889347            4 
 1088000   0.81726564   -7.3020789    301.16928    0.0230675  0.022873992            4 
 1089000   0.82196991   -7.3140973    300.91893   0.02302716  0.022858665            3 
 1090000   0.80448103    -7.336321    301.15472  0.023024062  0.022843178            6 
 1091000   0.83611895   -7.3487541    301.44898  0.023025434  0.022827732            2 
 1092000   0.79839117   -7.3360087    301.17027   0.02298308  0.022812298            8 
 1093000   0.82150047   -7.3568658    301.31288  0.022972925  0.022796737           12 
 1094000   0.80699341   -7.3430787    301.44386  0.022961903  0.022781179            4 
 1095000   0.80338821   -7.3032264    302.03387  0.022985835  0.022765594            6 
 1096000   0.81758489   -7.2931064    301.74431  0.022942846  0.022750168            7 
 1097000   0.80533886   -7.3330699    301.11921  0.022874446  0.022734667           12 
 1098000   0.81472234   -7.3506525    302.00511   0.02292085  0.022719147            4 
 1099000   0.82242935   -7.3619407    301.93479  0.022894661  0.022703672            4 
 1100000   0.82240993   -7.3556277    301.22409  0.022820007  0.022688153            4 
 1101000   0.79941257   -7.3375366    301.74843  0.022838967  0.022672611            3 
 1102000   0.80506394   -7.3652465    301.29546  0.022783988  0.022657012            3 
 1103000    0.7977795   -7.3787466    301.62924   0.02278855  0.022641294            4 
 1104000   0.81598772   -7.3524683    302.09113  0.022802773  0.022625523            4 
 1105000   0.81570265   -7.3388808     302.6824  0.022826727  0.022609889            6 
 1106000   0.81609379   -7.3471567    302.24835  0.022773384  0.022594206            6 
 1107000   0.82487377   -7.3147255    301.96259    0.0227313  0.022578791            9 
 1108000   0.80611596    -7.353748    302.78962  0.022772986  0.022563258            4 
 1109000   0.82162445   -7.3259753    302.14882    0.0227043  0.022547621            3 
 1110000   0.80384978   -7.3683328    302.53483  0.022712825  0.022531906           12 
 1111000   0.83015141   -7.3545028    302.32466  0.022676617  0.022516377            7 
 1112000   0.81990667   -7.3641047    303.20819  0.022722436  0.022500886            4 
 1113000   0.81442878   -7.3459652    303.52475  0.022725723  0.022485433            4 
 1114000   0.83748202   -7.3828381    302.94182  0.022661716  0.022470012            4 
 1115000   0.79922631   -7.3597184    303.78289  0.022704252  0.022454561            4 
 1116000   0.81391519   -7.3551373    302.71547  0.022604202  0.022439187            6 
 1117000   0.80160542   -7.3926851    303.12341  0.022614399  0.022423716            7 
 1118000   0.81082519   -7.3727735    303.57656  0.022627949  0.022408246            6 
 1119000   0.79886069   -7.3158094    303.08747  0.022571304  0.022392872           10 
 1120000   0.79408428   -7.3658225    302.59011  0.022514145  0.022377435            9 
 1121000   0.79174493   -7.3714641    303.13081  0.022534256  0.022362024            6 
 1122000   0.80860867   -7.3678453    304.29613  0.022600722  0.022346594            4 
 1123000   0.77972688   -7.3543936    303.47532  0.022519688  0.022331185            8 
 1124000   0.80417338   -7.3649133    303.90448  0.022531471  0.022315735            5 
 1125000    0.7954529   -7.4131003    303.01519  0.022445569   0.02230032            5 
 1126000     0.789685   -7.3761049    303.65893  0.022473278  0.022284774            5 
 1127000   0.82673574   -7.3725994    303.30712  0.022427323  0.022269235            7 
 1128000    0.8226043   -7.3628021    303.95816  0.022455538  0.022253755            8 
 1129000   0.81209983   -7.3573154    304.20181  0.022453632  0.022238329            7 
 1130000   0.78434301   -7.3718064    304.20948  0.022434327   0.02222286            7 
 1131000   0.80453496    -7.349588    303.82146  0.022385902  0.022207399           20 
 1132000   0.79780724   -7.3925916    304.61847  0.022424799  0.022192046            6 
 1133000   0.78690377   -7.3767288    304.38682  0.022387969   0.02217664            4 
 1134000     0.816936   -7.3940855    304.81441  0.022399648  0.022161291            3 
 1135000   0.78493027   -7.3860333    304.44096  0.022352494  0.022145918            3 
 1136000   0.80651295   -7.4093562    304.05196  0.022304281  0.022130491            5 
 1137000   0.79972307   -7.3973033    304.18733  0.022294586  0.022115013            9 
 1138000   0.78987981   -7.3647567    304.48991  0.022297152   0.02209961            3 
 1139000   0.79172471   -7.3806902    305.14832  0.022325747  0.022084228            8 
 1140000   0.79039021   -7.3983486    304.27618  0.022242411  0.022068821            4 
 1141000   0.81476043   -7.4178722    303.98267  0.022201481  0.022053339            6 
 1142000    0.8019813   -7.3620535    304.99026  0.022255565  0.022037953            6 
 1143000   0.79786394   -7.3826659    304.58385  0.022206464  0.022022525            8 
 1144000   0.80457847   -7.3912843    304.25796  0.022163313  0.022007103            7 
 1145000   0.80545262   -7.3743114    304.76655  0.022180972  0.021991665            4 
 1146000   0.78055122   -7.3885954    305.20465  0.022193474  0.021976297            5 
 1147000   0.79826733   -7.3951066    305.14463  0.022169764  0.021960944            6 
 1148000   0.80631282   -7.3934701    305.24374  0.022157646  0.021945642            3 
 1149000     0.813031   -7.3739547    305.54901  0.022160502  0.021930354            8 
 1150000   0.78040788   -7.3627769    305.28352  0.022121994   0.02191512            4 
 1151000   0.79133059   -7.3930317    305.53435  0.022120935  0.021899784            3 
 1152000   0.79165027   -7.3709815    305.11441  0.022071355  0.021884476            4 
 1153000   0.79226295   -7.3786414    304.66481  0.022019718  0.021869126            5 
 1154000   0.80880361    -7.399201    305.65193  0.022071919  0.021853702            9 
 1155000     0.779236   -7.3705866    305.37019  0.022032481  0.021838317            6 
 1156000   0.77839706    -7.393387    305.32935  0.022010478  0.021822872            3 
 1157000   0.78818375   -7.4175951    304.92428  0.021962279  0.021807323            9 
 1158000   0.80236734    -7.400657    305.76909  0.022004109  0.021791815            8 
 1159000   0.80912147   -7.3922332    305.76976  0.021985171  0.021776416            5 
 1160000   0.78658468   -7.4046913    305.50073  0.021946892  0.021761002            4 
 1161000   0.78606814   -7.4114246    305.65088  0.021938766  0.021745532            6 
 1162000   0.78415713    -7.386477    306.04204  0.021947938  0.021730088            5 
 1163000    0.8041417   -7.3620966    305.12979    0.0218637  0.021714705            4 
 1164000   0.77878573   -7.3889151    305.68911  0.021884959  0.021699336            5 
 1165000   0.79033826   -7.3929611     306.4354  0.021919557  0.021683924            4 
 1166000   0.78384178   -7.3641049     306.6277  0.021914501  0.021668641           15 
 1167000   0.78087249   -7.3908208    306.21255  0.021866078  0.021653298            4 
 1168000   0.77349793   -7.4162783    305.70948  0.021811464  0.021637918            5 
 1169000   0.78995075   -7.4063427    305.45555  0.021774704  0.021622561            5 
 1170000   0.79798223   -7.3785754    306.07585  0.021800274  0.021607233            5 
 1171000   0.76160815   -7.3812313    306.75895   0.02183027  0.021591935            8 
 1172000   0.80150687    -7.399311    306.80092  0.021814627  0.021576643            5 
 1173000   0.78442432   -7.4323831     306.2607  0.021757651  0.021561269            3 
 1174000   0.79611671   -7.3899465    307.14624  0.021801976  0.021545916            5 
 1175000   0.76974384   -7.3963477    306.43835  0.021733216  0.021530569            8 
 1176000   0.77643765   -7.4450239    306.48567  0.021718089  0.021515164            3 
 1177000   0.78527017   -7.3986046    306.17432  0.021677592  0.021499731            7 
 1178000   0.78341414   -7.4127983    306.44915  0.021678632  0.021484304            5 
 1179000   0.78858411   -7.3893944    307.03362  0.021701556  0.021468945            6 
 1180000   0.79874661   -7.3951514      307.103  0.021688065  0.021453655            2 
 1181000   0.77643034   -7.4179332    306.57165  0.021632208  0.021438319            5 
 1182000   0.78733187   -7.4349927    306.45046  0.021605362  0.021422912            7 
 1183000   0.78720194   -7.4392985    306.56897  0.021595447  0.021407466            6 
 1184000   0.79248151   -7.4463979    306.16753  0.021548953  0.021392094            4 
 1185000   0.78366913   -7.4345482     307.0103  0.021590035  0.021376654            3 
 1186000   0.78051187    -7.441011    307.16635  0.021582796  0.021361217            5 
 1187000   0.78414917   -7.4287252    307.49981  0.021588024  0.021345818            6 
 1188000   0.76246084   -7.4260516    308.04368  0.021608002  0.021330544            4 
 1189000    0.7800168   -7.4342405    306.82629  0.021504506  0.021315262            8 
 1190000   0.79049541   -7.4283594    307.37209  0.021524656  0.021299959            4 
 1191000   0.78191372   -7.4067505    307.64849  0.021525923  0.021284658            6 
 1192000   0.75354975   -7.4280477    307.76499  0.021516009  0.021269334            5 
 1193000   0.76780923   -7.4078225    307.02518  0.021446296  0.021254099            7 
 1194000   0.78352953   -7.4503125    307.04643  0.021429818  0.021238732            4 
 1195000   0.78448407   -7.4443117     307.1715  0.021420607  0.021223284            5 
 1196000   0.77733497   -7.4538495    307.46898  0.021423424   0.02120788            4 
 1197000   0.77940073   -7.4629581    307.14005  0.021382627  0.021192382            4 
 1198000   0.78613687   -7.4295829    307.52462  0.021391529  0.021177028            4 
 1199000   0.76446359   -7.4362329    307.81805  0.021394082   0.02116169            4 
 1200000   0.77267711   -7.4325305    307.48088  0.021352839  0.021146331            5 
 1201000   0.77480564   -7.4095657    308.18113  0.021383648  0.021131044            6 
 1202000   0.78445588   -7.4384845    308.68434  0.021400745  0.021115805            3 
 1203000   0.77368534    -7.411376    308.15371  0.021346198  0.021100547            9 
 1204000   0.77154788   -7.4246643    308.24838  0.021335021  0.021085297            5 
 1205000   0.76322591   -7.4004544    308.07024  0.021304996  0.021070141            5 
 1206000   0.76798784   -7.4292616    307.82451  0.021270351  0.021054857            3 
 1207000   0.79441674   -7.4397879    308.80605  0.021320495   0.02103956            3 
 1208000   0.77339795   -7.4510271     308.3477  0.021271226  0.021024265            5 
 1209000   0.76644837   -7.4426876    307.68871   0.02120821  0.021008925            7 
 1210000   0.77268217   -7.4521146    306.68375   0.02112147  0.020993558            4 
 1211000   0.78762668    -7.445198    307.78876  0.021180069  0.020978117            3 
 1212000    0.7563466   -7.4392183    308.01185  0.021177932   0.02096271            3 
 1213000   0.76461372   -7.4173732    308.26422  0.021177812  0.020947282            2 
 1214000   0.74144412   -7.4477479    308.06884  0.021146955  0.020931932            5 
 1215000   0.76805511   -7.4291034    308.29457  0.021145032  0.020916626            4 
 1216000   0.76839385   -7.4269568    307.94515  0.021103697  0.020901322            4 
 1217000   0.75327347   -7.4441517    308.06656   0.02109467  0.020886027            4 
 1218000   0.76107756   -7.4343446    308.86537  0.021132004  0.020870715           11 
 1219000   0.76394437   -7.4578858    307.86095  0.021046004  0.020855335            5 
 1220000   0.74840267   -7.4575968    308.14801  0.021048361  0.020839943            5 
 1221000   0.76883446   -7.4484503     308.0216  0.021022495  0.020824575            5 
 1222000   0.76152205   -7.4644499    308.34808  0.021027556  0.020809217            6 
 1223000   0.76138018   -7.4332649    307.70089  0.020966264  0.020793897            5 
 1224000   0.77576965   -7.4535771    308.76807  0.021021792  0.020778593            7 
 1225000   0.75547978   -7.4847277     308.3841   0.02097851  0.020763346            4 
 1226000    0.7602487   -7.4579473    308.93613  0.020998921     0.020748            8 
 1227000   0.75547754   -7.4327534     307.6519  0.020894587  0.020732645            3 
 1228000   0.75130167   -7.4475064    308.84439  0.020958495  0.020717294            4 
 1229000   0.77801036    -7.429934     308.8827   0.02094404  0.020702005            3 
 1230000   0.76731104   -7.4426621    308.89632  0.020927935  0.020686757            2 
 1231000   0.76522019   -7.4742594    309.09049  0.020924079  0.020671417            6 
 1232000   0.76039187   -7.4929343    308.89395  0.020893801   0.02065607            6 
 1233000   0.77756882   -7.4766313    309.00411  0.020884301  0.020640803            4 
 1234000   0.75951963   -7.4994159    308.93505  0.020862712  0.020625538            7 
 1235000   0.77051733   -7.4670346    308.94995  0.020846825  0.020610302            5 
 1236000   0.76226346    -7.461725    308.71739  0.020814279  0.020595175            7 
 1237000   0.75821329   -7.4421393     309.4085  0.020844011  0.020580094            4 
 1238000   0.77225534   -7.4702841    309.86752  0.020858072   0.02056502            5 
 1239000   0.76244572    -7.465595    309.84321  0.020839602  0.020550009            4 
 1240000   0.76350234   -7.4593059    310.25129  0.020850221  0.020535018            4 
 1241000   0.75704852   -7.4529222    309.97156  0.020814636  0.020519998            6 
 1242000    0.7648969   -7.4381874    309.63119   0.02077504  0.020504989            2 
 1243000   0.77191896   -7.4568073    310.16473  0.020794095  0.020489965            9 
 1244000     0.786419   -7.4568538    309.41266     0.020727  0.020474907            5 
 1245000   0.74025538   -7.4547256    310.25997  0.020767067  0.020459876            4 
 1246000   0.74404274   -7.4837471    309.83501  0.020721977  0.020444852            6 
 1247000   0.76229217   -7.4939457    309.75329  0.020699899  0.020429815            9 
 1248000   0.74709693   -7.4723245    309.20523  0.020646717  0.020414798            4 
 1249000   0.77283432   -7.4680233     310.6961  0.020729657  0.020399846            4 
 1250000    0.7514614   -7.4553143     310.8497  0.020723313  0.020384939            4 
 1251000    0.7570979   -7.4235507    310.48784  0.020682643   0.02036999            5 
 1252000   0.76997285   -7.4546959    310.16683  0.020644757  0.020355037            6 
 1253000    0.7555639   -7.4700428    310.55296  0.020653961   0.02034012            5 
 1254000   0.76324117   -7.4682225    310.56165  0.020638068  0.020325168            8 
 1255000   0.75064933   -7.4588728    310.70459  0.020631115  0.020310205            7 
 1256000   0.76148269   -7.4450007    311.21434   0.02064851  0.020295381           10 
 1257000   0.75669221   -7.4538065    310.03882  0.020554151  0.020280504            6 
 1258000   0.73773902   -7.4660136    310.49877  0.020568281   0.02026558           12 
 1259000   0.75418484   -7.4631578    310.34533  0.020541788  0.020250673            6 
 1260000   0.77877121   -7.4752678    310.13273  0.020511424  0.020235735            4 
 1261000   0.72580342   -7.4604266     310.1858  0.020498665   0.02022076            7 
 1262000   0.75145222   -7.5220498    310.38191  0.020495372  0.020205783            5 
 1263000   0.73663248   -7.5005519    310.12289  0.020462054  0.020190774            5 
 1264000   0.74747418   -7.4872712     310.6332  0.020479509   0.02017582           13 
 1265000   0.74927288   -7.4757971     310.5533  0.020458057  0.020160917            6 
 1266000   0.73883499   -7.4577173    311.26857  0.020488979  0.020146012            5 
 1267000   0.73339211   -7.4727338    311.06479  0.020459405  0.020131094            5 
 1268000   0.74765195   -7.4366177    311.36071  0.020462717  0.020116213            9 
 1269000   0.75837797   -7.4873834    310.92669  0.020418091  0.020101398            3 
 1270000   0.74881628   -7.4683839    311.45547   0.02043671  0.020086564            4 
 1271000   0.74605431   -7.4864946    310.99545   0.02039047  0.020071725            7 
 1272000   0.74710375   -7.5053126    311.06239  0.020378825  0.020056874            6 
 1273000   0.73886725   -7.5079758    310.75874  0.020342939  0.020042021            8 
 1274000    0.7302956   -7.4936134    310.70832  0.020323673  0.020027136            9 
 1275000   0.74955456   -7.5008825    310.66639  0.020304993  0.020012275            5 
 1276000   0.74281062   -7.5168609    310.60299  0.020284939  0.019997386            8 
 1277000   0.75138921     -7.50321    310.48385   0.02026128   0.01998249            5 
 1278000   0.74569973   -7.5131747    310.75532  0.020263127  0.019967577            4 
 1279000   0.74122373   -7.4829997    311.10017  0.020269753  0.019952756            6 
 1280000   0.72344696   -7.5020869    311.79978  0.020299465  0.019937933            4 
 1281000   0.75527169   -7.5367058    311.11922  0.020239345   0.01992311            7 
 1282000   0.74560252   -7.5297334      311.336   0.02023765  0.019908272            3 
 1283000   0.73075219   -7.5160902    311.02665  0.020201783   0.01989347            4 
 1284000   0.75691791   -7.4950747    311.46329  0.020214388  0.019878636            6 
 1285000   0.73288755   -7.5046353    311.78045  0.020219225  0.019863812            5 
 1286000   0.74121016   -7.5088655    310.95465   0.02014999  0.019848947            5 
 1287000   0.74329654   -7.5314043    311.62036  0.020177439   0.01983409            6 
 1288000   0.75361331   -7.4860069    311.43965  0.020150081  0.019819289            9 
 1289000   0.74934005   -7.5049364    311.74318  0.020154072  0.019804508            5 
 1290000    0.7383941    -7.523584    311.44407  0.020119126  0.019789837            5 
 1291000   0.74472229   -7.4847358    312.36262  0.020162834  0.019775171            7 
 1292000   0.74811267    -7.495761     311.6308  0.020100026  0.019760457           13 
 1293000   0.73327408   -7.4689225    312.25623   0.02012479  0.019745797            4 
 1294000   0.73210791   -7.5247389    311.86701  0.020084171   0.01973112            8 
 1295000   0.73557799   -7.5070645    311.96767   0.02007514  0.019716429            4 
 1296000   0.74368436   -7.5154189    311.71558   0.02004344  0.019701673            6 
 1297000   0.73272526   -7.5060735    311.86835  0.020037802  0.019686978            7 
 1298000   0.73057704   -7.5056574    311.20395  0.019979709  0.019672267            4 
 1299000   0.73420301   -7.5140241    311.02303  0.019952722  0.019657524           12 
 1300000   0.72499346   -7.4983303    312.32834  0.020021047  0.019642768            5 
 1301000   0.72380639      -7.5172    311.73681  0.019967769  0.019628119            2 
 1302000   0.74670321   -7.5183815    311.60172  0.019943786   0.01961348            4 
 1303000   0.73053321   -7.5063165    312.44906  0.019982672  0.019598825            6 
 1304000   0.73244903   -7.5193643    312.16027  0.019948893  0.019584236            4 
 1305000   0.73751952   -7.5132744    312.43503  0.019951152  0.019569671            4 
 1306000    0.7342338   -7.5171401    312.67328  0.019951077  0.019555127            7 
 1307000   0.72911296    -7.505879    312.73539  0.019939772   0.01954061            7 
 1308000    0.7198658   -7.5300575     312.5149   0.01991048  0.019526085           14 
 1309000   0.73365106   -7.5047376    312.56814  0.019898659  0.019511524            5 
 1310000   0.72802102   -7.5286923    312.82373  0.019899728  0.019496951           11 
 1311000    0.7252591   -7.5207168    312.04838  0.019835265  0.019482397            4 
 1312000    0.7336358   -7.5064629     312.8526  0.019871227  0.019467939            9 
 1313000   0.73844642   -7.5236104    312.21089  0.019815365  0.019453469            5 
 1314000   0.73099357   -7.5222139    312.63864  0.019827413  0.019438978            3 
 1315000    0.7264794   -7.5503305    312.04041  0.019774424   0.01942445           10 
 1316000   0.72526723   -7.5308323    312.52275  0.019789941  0.019409908            3 
 1317000   0.72436706   -7.5242178    312.42872  0.019768965  0.019395313            4 
 1318000   0.73554665   -7.5257149    312.35814  0.019749503  0.019380803            7 
 1319000   0.73580182   -7.5194007    312.06102  0.019715758  0.019366356           10 
 1320000    0.7368049   -7.5123904    312.14021  0.019705821   0.01935183            9 
 1321000   0.72121015    -7.544183    312.65398  0.019723314  0.019337236            5 
 1322000   0.73111692   -7.5459939    311.97437  0.019665555  0.019322685            5 
 1323000    0.7296944   -7.5402658     312.5486  0.019686861  0.019308161            3 
 1324000   0.72551037   -7.5338824    312.51579  0.019669926  0.019293669            6 
 1325000   0.72572747   -7.5461444    312.74411  0.019669441  0.019279116            4 
 1326000   0.72262341   -7.5399991    312.69904  0.019651775  0.019264591           12 
 1327000   0.71519268   -7.5594208    312.38761  0.019617408   0.01925006           11 
 1328000    0.7179458   -7.5632742    311.93987   0.01957454  0.019235518           11 
 1329000    0.7139079   -7.5619461    312.70567   0.01960783  0.019220927            7 
 1330000   0.70919097   -7.5560677    312.86723   0.01960321  0.019206362            6 
 1331000   0.73744963   -7.5463026    312.49374  0.019565098  0.019191879            5 
 1332000   0.72145592    -7.559627    312.31621  0.019539302  0.019177356            6 
 1333000   0.72779159   -7.5606526    312.16768  0.019515359   0.01916285            4 
 1334000   0.71008669   -7.5694056    313.25587  0.019568707  0.019148385            7 
 1335000   0.73441389   -7.5473056    312.49399  0.019506491  0.019133894            6 
 1336000   0.72625559   -7.5534905    312.59307  0.019498071  0.019119395            4 
 1337000   0.72368806   -7.5693996    312.97172  0.019507088  0.019104915           13 
 1338000   0.72975657   -7.5331475    312.82686  0.019483487  0.019090421            4 
 1339000   0.72345803   -7.5273605    312.22907  0.019431732  0.019075953           11 
 1340000   0.72712803   -7.5691788    312.62314  0.019441738  0.019061518           17 
 1341000   0.71272941   -7.5788123    312.74668  0.019434916  0.019047116           10 
 1342000   0.71098039   -7.5813358    312.70285  0.019417713  0.019032704           13 
 1343000   0.70893464   -7.5835473    312.96751  0.019419677  0.019018299           25 
 1344000   0.70605694   -7.5550017    313.35536  0.019429276  0.019003934           10 
 1345000   0.72079791   -7.5472804    312.69923  0.019374178  0.018989554           10 
 1346000   0.72229735   -7.5826823    312.92865  0.019373988  0.018975179           18 
 1347000   0.72040066   -7.5510069    313.61975   0.01940236  0.018960846           18 
 1348000   0.72381147   -7.5535843    312.66713  0.019329076   0.01894653           17 
 1349000   0.69906679   -7.5853923    312.61021  0.019311231  0.018932168            9 
 1350000   0.70651011   -7.5504594    313.36771  0.019343686  0.018917838            9 
 1351000   0.72546256   -7.5780086    313.94114  0.019364738  0.018903503           14 
 1352000   0.71154494   -7.5544465    312.69719  0.019273742  0.018889167           11 
 1353000   0.72177465   -7.5831082     312.7543  0.019263014   0.01887473           31 
 1354000   0.69939636   -7.5678906     312.8426  0.019254222  0.018860335           23 
 1355000    0.7106648   -7.5590418    313.53349  0.019282503  0.018846002           13 
 1356000   0.73249815   -7.5743316    312.86135  0.019226976  0.018831664            8 
 1357000   0.71163112   -7.5673298    312.97347  0.019219692  0.018817337            4 
 1358000   0.71407257   -7.5764108     313.6156  0.019244944  0.018803007            5 
 1359000   0.70742416   -7.5659364     313.1632  0.019203042  0.018788682           11 
 1360000   0.72353414    -7.580816     313.3082  0.019197806  0.018774331           12 
 1361000   0.71006334    -7.555073    313.37961  0.019188073  0.018759995           11 
 1362000   0.71250112   -7.5736202    313.03035  0.019152616  0.018745644            5 
 1363000   0.69803237   -7.5797308    313.17938  0.019147676  0.018731324            5 
 1364000   0.71641641   -7.5739714    313.32055  0.019142262  0.018717018            9 
 1365000   0.71669019   -7.6046332    312.55674  0.019081608  0.018702686            9 
 1366000   0.70839415   -7.5954662    313.56363  0.019129065  0.018688325            5 
 1367000   0.70498177    -7.581911    314.00096  0.019141731  0.018674064            5 
 1368000   0.70077172   -7.5629751    312.81802  0.019055679  0.018659846            3 
 1369000   0.70326134   -7.5772392    313.02226  0.019054191  0.018645641            2 
 1370000   0.70415789   -7.5812052    312.99105  0.019038385  0.018631439            5 
 1371000   0.70557258      -7.5623    313.99396  0.019085458  0.018617277           10 
 1372000   0.69588797   -7.5544745    313.94017   0.01906828  0.018603081            8 
 1373000   0.70752268   -7.5781732    313.05567  0.019000708  0.018588906            7 
 1374000   0.71118712   -7.5656518    313.32119  0.019002983  0.018574691           13 
 1375000   0.70816745   -7.5792057    313.35197  0.018991028  0.018560438            8 
 1376000   0.71425764   -7.5684282    314.08554  0.019021654  0.018546273            4 
 1377000   0.70186012   -7.5787612    313.29322   0.01895989  0.018532157            6 
 1378000   0.71203012   -7.5830807    314.18358  0.018999975  0.018518031            4 
 1379000    0.6940246   -7.5622963    313.61886   0.01895207  0.018503867            5 
 1380000   0.70557314   -7.5896563    313.90549  0.018955646  0.018489729            5 
 1381000   0.68898632    -7.586715    313.91377  0.018942419  0.018475623           10 
 1382000   0.69459113   -7.6151312    314.06406  0.018937775  0.018461554            6 
 1383000   0.70742063   -7.6031484    314.08997  0.018925643  0.018447507            3 
 1384000   0.70586524   -7.6066056    313.91387  0.018901365  0.018433499            9 
 1385000     0.702744   -7.5660152    313.74775  0.018877723  0.018419507           14 
 1386000   0.69889682     -7.57641    313.88105  0.018872117  0.018405539            4 
 1387000   0.69853998   -7.5788671    314.60691  0.018902121  0.018391546            5 
 1388000   0.68075298   -7.5873132    313.75382  0.018837285   0.01837754            7 
 1389000    0.7142608   -7.6123717    314.59102  0.018873951   0.01836351            7 
 1390000   0.70068392   -7.5959657    313.89905  0.018818888   0.01834948            4 
 1391000   0.71516466   -7.5907992    314.06691  0.018815415   0.01833548            4 
 1392000   0.68866399   -7.6073791    314.15742  0.018807317  0.018321498            6 
 1393000   0.71724165   -7.6189571    314.10682  0.018790788  0.018307474            4 
 1394000   0.70197647   -7.5927457     313.3172  0.018730105  0.018293457            5 
 1395000   0.68935889   -7.5856961    313.30322  0.018715843  0.018279427            4 
 1396000   0.70072909   -7.5969442    313.93308  0.018740036  0.018265384            4 
 1397000   0.69576392   -7.6051404     313.8672  0.018722691  0.018251342            6 
 1398000    0.6977504   -7.5806962    313.83844  0.018707585  0.018237322            8 
 1399000   0.69153509   -7.6151857    314.39309  0.018727251  0.018223291            6 
 1400000   0.70700381   -7.6086161    313.97863  0.018689204   0.01820928            3 
 1401000   0.69065927   -7.6106909    314.39275  0.018700497  0.018195241            7 
 1402000   0.69638837   -7.6145696    314.35552  0.018684946  0.018181214            7 
 1403000   0.68550187   -7.6201251     314.3033  0.018668526  0.018167183            7 
 1404000   0.69416983   -7.6086952    313.99521  0.018636943  0.018153153            4 
 1405000   0.68933929   -7.6148852    314.11716  0.018630911  0.018139218            6 
 1406000   0.68904744   -7.6105604     314.1693   0.01862075  0.018125286            6 
 1407000   0.68911106   -7.6145352    314.52631  0.018628661  0.018111384            4 
 1408000    0.6778533   -7.6238277    314.29004  0.018601446  0.018097476            4 
 1409000   0.68834765   -7.5994561    313.87129  0.018563478  0.018083589            5 
 1410000   0.69269227   -7.6282925    314.95318  0.018614254  0.018069731           11 
 1411000   0.69705384   -7.6146564    314.77079   0.01859029  0.018055831            5 
 1412000   0.69802436   -7.6044891    314.21668  0.018544422  0.018041964            8 
 1413000    0.7016775   -7.6096397    314.30632  0.018536584  0.018028088            3 
 1414000   0.68840446   -7.6054366    314.52954   0.01853663  0.018014246            7 
 1415000   0.67797131   -7.6587676    313.61978  0.018469952  0.018000365           14 
 1416000   0.68271156   -7.6273671    314.70087  0.018520531  0.017986467            7 
 1417000   0.68976673   -7.6229857    314.13072  0.018473931  0.017972568            3 
 1418000   0.67776326   -7.6350034     314.3206  0.018472062  0.017958647           15 
 1419000   0.68697841   -7.6464052    314.46971  0.018467801  0.017944807            6 
 1420000   0.68610556   -7.6329978    314.34492  0.018447472  0.017931024            7 
 1421000   0.67474091   -7.6431431    315.15965  0.018482269   0.01791727            7 
 1422000    0.7002629   -7.6156431    315.21274  0.018472383  0.017903493            3 
 1423000   0.68421461   -7.6273852    314.58759  0.018422792  0.017889738            2 
 1424000   0.68508956   -7.6305266    313.66651  0.018355952  0.017875956            3 
 1425000   0.68868285   -7.6403226    313.79621  0.018350655  0.017862154            7 
 1426000   0.69409683   -7.6594078    313.79182  0.018337531  0.017848389            3 
 1427000   0.67536066   -7.6381479    313.92699  0.018332573  0.017834623            7 
 1428000   0.68471954   -7.6547277     314.2108  0.018336298   0.01782086            6 
 1429000    0.6652543   -7.6207601     314.0984  0.018316911  0.017807152           11 
 1430000   0.67954816   -7.6506822    315.03221   0.01835852  0.017793441            9 
 1431000   0.67938822    -7.644544    314.17237  0.018295619  0.017779733           16 
 1432000   0.69297046   -7.6734447    314.62616   0.01830925  0.017766004           14 
 1433000   0.68506327   -7.6707593    314.82734  0.018308173  0.017752283            8 
 1434000   0.66544403   -7.6448525    314.82356  0.018295186  0.017738551            7 
 1435000   0.69628878   -7.6513646    315.06042  0.018296192  0.017724891            8 
 1436000   0.68747375   -7.6543578    315.00765  0.018280388  0.017711247           10 
 1437000   0.67523538    -7.642492    315.01889  0.018268319  0.017697648            4 
 1438000   0.68260561   -7.6561094    315.37162  0.018276056  0.017684035            6 
 1439000   0.66556197   -7.6389016    314.78173  0.018229195  0.017670399            5 
 1440000    0.6776516   -7.6207572    314.22707  0.018184437  0.017656783            6 
 1441000    0.6801246    -7.669968    314.50307  0.018187779  0.017643141            7 
 1442000   0.66898211   -7.6657645     314.6867  0.018185778  0.017629528            5 
 1443000   0.67080532   -7.6558164    314.59351  0.018167794  0.017615944            9 
 1444000   0.68652412   -7.6588225    313.81221  0.018110123  0.017602339            6 
 1445000   0.68329466   -7.6324339    314.54266  0.018139715  0.017588702            5 
 1446000   0.68628405   -7.6418797    314.36462   0.01811691  0.017575097            4 
 1447000   0.66377767   -7.6399603    314.99918  0.018140934  0.017561514            7 
 1448000    0.6850758   -7.6637295    314.22052  0.018083594  0.017547924            3 
 1449000    0.6768008   -7.6576122    313.63837  0.018037634  0.017534344            8 
 1450000   0.66266113   -7.6671366    314.66588  0.018084246  0.017520771           10 
 1451000   0.67280446   -7.6570176     314.6892  0.018073122  0.017507169            6 
 1452000    0.6641652   -7.6677479    315.25055  0.018092892  0.017493606            9 
 1453000   0.67033722   -7.6508921    314.39943  0.018031626  0.017480036            2 
 1454000   0.67559944   -7.6615966     314.5766  0.018029378  0.017466468            5 
 1455000   0.66610257   -7.6793007    314.33477  0.018003137  0.017452878            6 
 1456000   0.67348357   -7.6576671    314.12411  0.017978715  0.017439281            5 
 1457000   0.66304398   -7.6539509    314.73873  0.018001529   0.01742571            4 
 1458000   0.66931361   -7.6713645    314.87824  0.017997156  0.017412178            5 
 1459000   0.67690926   -7.6791734    314.02628  0.017936159   0.01739864            6 
 1460000   0.67171047   -7.6795346    314.69813  0.017962222  0.017385111            3 
 1461000   0.66804043   -7.6810295    315.04159  0.017969518  0.017371611            8 
 1462000   0.65494997   -7.6636482    314.70405  0.017937987  0.017358112           10 
 1463000   0.66131053    -7.652745    314.94404  0.017939396  0.017344593            6 
 1464000   0.67096466   -7.6572291    315.24124   0.01794406  0.017331112            9 
 1465000   0.65621323   -7.6654703    315.13757  0.017925914  0.017317669            6 
 1466000    0.6641514   -7.6781117    314.46755    0.0178756  0.017304202           11 
 1467000   0.66015959   -7.6703922    314.70794   0.01787707  0.017290771            5 
 1468000   0.67048049   -7.6740705    314.67129  0.017862811  0.017277342            5 
 1469000    0.6709913   -7.6492785    313.62064  0.017791051  0.017263883            4 
 1470000   0.66436381   -7.6559976    315.02679  0.017858661  0.017250474            6 
 1471000   0.67562024   -7.6778933    314.66713  0.017826146   0.01723704            9 
 1472000   0.67440052   -7.6478192    315.00237  0.017833014  0.017223624            7 
 1473000   0.67103519   -7.6453291    315.51929  0.017850152  0.017210272            4 
 1474000   0.66249404   -7.6505214    314.74203    0.0177941  0.017196922           12 
 1475000   0.67618768   -7.6636994    314.57355  0.017772517  0.017183525            4 
 1476000   0.65770816   -7.6656767    314.82494  0.017774669   0.01717013           15 
 1477000   0.66844474   -7.7106586    313.95962  0.017713813  0.017156771            9 
 1478000   0.66705829   -7.6863352    314.46003  0.017730042  0.017143391            6 
 1479000   0.66690959   -7.6792253    315.02947  0.017750139  0.017130021            8 
 1480000   0.66521807   -7.6784687    314.41979  0.017703817  0.017116674            7 
 1481000   0.66649206   -7.6686332    315.09789  0.017730018  0.017103343           10 
 1482000   0.65817944   -7.6850009    314.69746  0.017695538  0.017090029            5 
 1483000   0.65849575   -7.6789579    315.30208  0.017717582  0.017076725            5 
 1484000   0.65608903   -7.6721926    315.22998  0.017701594  0.017063426            6 
 1485000   0.66178335   -7.6988993    314.17494  0.017630468  0.017050099            8 
 1486000   0.64924174   -7.6820853    314.50709   0.01763723  0.017036787            4 
 1487000   0.64778373   -7.6610705    315.36143  0.017673247  0.017023513            8 
 1488000   0.66356622   -7.7124665     315.1984   0.01765224  0.017010238            8 
 1489000   0.65375896   -7.6683834    315.19246  0.017640053  0.016996966            4 
 1490000   0.64807413   -7.7108275     314.3793  0.017582735  0.016983693            6 
 1491000   0.65224166   -7.6985635    314.50238  0.017577821  0.016970388            7 
 1492000   0.65967575   -7.7029702    315.06675  0.017597562  0.016957085            6 
 1493000   0.64025908   -7.6890006    314.98019  0.017580944   0.01694382           10 
 1494000   0.65197937   -7.6847718    314.78647  0.017558371  0.016930539            5 
 1495000   0.65908843   -7.6966582    315.27247  0.017573716  0.016917287            5 
 1496000   0.65429443   -7.6814116     315.2395  0.017560133  0.016904072           12 
 1497000   0.66662789   -7.6844164    314.05494  0.017482462   0.01689082            8 
 1498000   0.63945245   -7.6987153    315.06575  0.017527022  0.016877616            9 
 1499000   0.64604306   -7.6954254    315.36946  0.017532214  0.016864404            9 
 1500000   0.64742545   -7.7100433    314.50317  0.017472398   0.01685121            9 
 1501000   0.66748438   -7.7043897    315.10121   0.01749396  0.016838041            7 
 1502000   0.65804229   -7.7082983    314.93062  0.017472849  0.016824879           14 
 1503000   0.65026279   -7.7042644    315.08201  0.017469617  0.016811708            8 
 1504000    0.6654377   -7.7090922    315.29378  0.017469735   0.01679856            5 
 1505000   0.65545541    -7.688163    315.33764  0.017460556  0.016785435            5 
 1506000   0.64617155   -7.6892009    314.66579  0.017411785   0.01677231            6 
 1507000   0.63675728    -7.708467    314.51326  0.017391797  0.016759198            6 
 1508000   0.64362998   -7.6978666    314.95086  0.017404446  0.016746104           11 
 1509000   0.65956388   -7.7044852    315.18873  0.017406049  0.016733031           15 
 1510000   0.65045927   -7.6988452    314.63345  0.017363877  0.016719932            6 
 1511000   0.63766335    -7.695334    315.14492  0.017380593  0.016706841            5 
 1512000   0.64058319   -7.7120209    314.31844  0.017323547  0.016693714            9 
 1513000   0.66941124   -7.7153195    315.18859  0.017360024  0.016680595            6 
 1514000   0.64138806    -7.714974    314.67617  0.017320353  0.016667484            7 
 1515000   0.65407782   -7.7022307     314.4142  0.017294511  0.016654345            7 
 1516000   0.63759861   -7.7081579    314.37304   0.01728084  0.016641229           17 
 1517000   0.64379077   -7.7327971    314.18487  0.017259112  0.016628115            4 
 1518000   0.63864427   -7.6927781    314.25211  0.017251434  0.016615002            6 
 1519000   0.65616266   -7.7014467    314.35092  0.017245497  0.016601878           12 
 1520000   0.66446775   -7.7200297    314.87754  0.017263023  0.016588781            9 
 1521000   0.63652274    -7.712011    314.94449  0.017255341  0.016575719           10 
 1522000   0.64483514   -7.7167708    314.54794  0.017222292  0.016562648           12 
 1523000   0.64726051   -7.7429291    314.57289  0.017212349  0.016549601            8 
 1524000   0.64918813   -7.7360525    314.81626  0.017214362  0.016536576            4 
 1525000   0.64385495   -7.7056468    314.95195  0.017210489  0.016523545           10 
 1526000   0.64880259   -7.7221207    315.03045  0.017203498  0.016510516           16 
 1527000   0.63585685   -7.7214762    315.54344  0.017220227  0.016497515           20 
 1528000   0.64684791   -7.7262763    314.91369  0.017174612  0.016484553           16 
 1529000   0.63169589    -7.739947    314.41445   0.01713617   0.01647156            9 
 1530000   0.65137608   -7.7363354    315.32342  0.017174478  0.016458551           11 
 1531000   0.63466812   -7.7177453    314.71943  0.017130385  0.016445594           11 
 1532000   0.64198381   -7.7021381    315.02847  0.017136013  0.016432662           15 
 1533000   0.63748082   -7.7170286    314.26063  0.017083096  0.016419746           10 
 1534000   0.63077085   -7.7271598    315.55696  0.017142382  0.016406816           17 
 1535000   0.63856137   -7.7195796    314.45766  0.017071534  0.016393878            7 
 1536000   0.64359552   -7.7282973    315.11325  0.017095988  0.016380951            7 
 1537000   0.62473983   -7.7071965    315.43892  0.017102522  0.016368042            5 
 1538000   0.63222708   -7.7137403    314.69461  0.017051073  0.016355161           15 
 1539000   0.64338331   -7.7195846    314.74327  0.017042629  0.016342274            8 
 1540000   0.63653075   -7.7252775    315.35928  0.017064896  0.016329426           13 
 1541000   0.64906756   -7.7244315    315.05409  0.017037318  0.016316572           12 
 1542000   0.64079874   -7.7352302    315.16261  0.017032134  0.016303727           11 
 1543000   0.64302824   -7.7311273    314.59386  0.016990379  0.016290847            9 
 1544000   0.63078964   -7.7346957    314.99511  0.017001031  0.016277982            7 
 1545000   0.63070844   -7.7387054    314.65715  0.016971799   0.01626511            5 
 1546000   0.64239176   -7.7539731    315.30725  0.016995863  0.016252247            9 
 1547000   0.64237433   -7.7548339    314.67679  0.016950915  0.016239374            5 
 1548000   0.62833217   -7.7429383    314.50135  0.016930521  0.016226547            8 
 1549000   0.63310442   -7.7495022    314.37676  0.016912888  0.016213727           11 
 1550000   0.63109233    -7.778218     314.4171  0.016904145  0.016200884           10 
 1551000   0.64269356   -7.7522234    314.30475   0.01688721   0.01618804            9 
 1552000   0.64262869   -7.7362748    314.93608  0.016910228  0.016175204            6 
 1553000   0.63085432   -7.7697204    314.54133  0.016878157  0.016162386           10 
 1554000   0.62887487    -7.748473    315.35913   0.01691115  0.016149578            8 
 1555000   0.63600722   -7.7492021    314.38776  0.016848219  0.016136765            8 
 1556000   0.62441649   -7.7442065    314.27955  0.016831596  0.016123907            9 
 1557000    0.6498685   -7.7705853    314.32114  0.016823011  0.016111083           10 
 1558000   0.62598225   -7.7540885    314.55159  0.016824539  0.016098287           10 
 1559000     0.624183   -7.7655232    314.09746  0.016789473  0.016085513           13 
 1560000   0.64251763   -7.7786513    314.05292  0.016776331  0.016072698           10 
 1561000   0.62793142   -7.7815731    314.10897  0.016768576  0.016059888            6 
 1562000   0.62637785   -7.7599974    315.12429  0.016812009  0.016047087           10 
 1563000   0.62156399    -7.763195    314.34423  0.016759663  0.016034282           11 
 1564000   0.62352228   -7.7948729     314.4338  0.016753719  0.016021479           10 
 1565000   0.63071638   -7.7751759    314.24826  0.016733134  0.016008708           13 
 1566000   0.64322917   -7.7744215    314.67846  0.016745342  0.015995949           13 
 1567000   0.61942255   -7.7951146    314.17601  0.016707935  0.015983208           11 
 1568000   0.62790029   -7.7674875    314.13722  0.016695218  0.015970457            7 
 1569000   0.62530044   -7.7763906    314.14296  0.016684882  0.015957733           14 
 1570000   0.62489507   -7.7639545    314.13343  0.016673749  0.015945044            7 
 1571000   0.61562078   -7.7585746    314.32517  0.016673306  0.015932388           16 
 1572000   0.62724644   -7.7661706    314.33172  0.016663047   0.01591974           19 
 1573000   0.62422789   -7.7669846    314.13418  0.016641989  0.015907052           10 
 1574000   0.62829855    -7.779451    314.07566  0.016628318  0.015894356           13 
 1575000   0.62266415   -7.7691772    314.41969  0.016635962  0.015881673            5 
 1576000    0.5979873   -7.7907446    314.04232  0.016605453  0.015869001            7 
 1577000   0.62733919   -7.7896344    314.17038   0.01660169  0.015856326            8 
 1578000   0.62103566   -7.7671784    314.43466  0.016605126  0.015843653            6 
 1579000   0.62331768   -7.7794908    314.53532  0.016599922  0.015831004           27 
 1580000   0.61404172   -7.7822314    314.17982  0.016570665  0.015818346            8 
 1581000   0.63381765   -7.7726286    314.16666  0.016559491  0.015805699            6 
 1582000   0.64021139   -7.7858746    313.95951  0.016538112   0.01579307           10 
 1583000    0.6240895   -7.7623132    314.43242   0.01655256   0.01578045            4 
 1584000   0.61619193   -7.7721013    314.77153   0.01655995  0.015767854            4 
 1585000   0.62000791   -7.7984383    314.14226  0.016516417  0.015755264            9 
 1586000   0.62430167   -7.7680631    313.90451  0.016493511  0.015742692            8 
 1587000   0.61340622   -7.7952023    314.04261   0.01649037  0.015730133            6 
 1588000   0.61275824   -7.7982637    313.90422  0.016472723  0.015717552            5 
 1589000   0.61910566   -7.7944096    314.25576  0.016480793  0.015704992            7 
 1590000   0.61184526   -7.7651144    314.04777  0.016459527  0.015692452            7 
 1591000   0.61438336   -7.7826597    314.29993  0.016462389  0.015679927            7 
 1592000   0.61285731   -7.7781712    313.59112  0.016414946  0.015667406            9 
 1593000   0.60223786   -7.7680517    314.60528  0.016457694  0.015654875           14 
 1594000   0.61208752   -7.7782003    313.63821  0.016396812  0.015642354            6 
 1595000   0.61223069   -7.7936195    313.50383   0.01637951  0.015629852           10 
 1596000   0.61974158   -7.8040892    314.54068  0.016423386  0.015617362            7 
 1597000   0.61841001   -7.8026113    314.11425   0.01639085  0.015604863            8 
 1598000   0.61221209    -7.803346    314.45163  0.016398187  0.015592402            9 
 1599000   0.61431691   -7.7764943    314.16198  0.016372836  0.015579939           19 
 1600000   0.60974899   -7.8161197    313.85588   0.01634666  0.015567489           11 
 1601000   0.60960489   -7.7910692    314.14927  0.016351721  0.015555058            8 
 1602000   0.61087674   -7.7932477    314.19611  0.016343951  0.015542629           11 
 1603000   0.61041178   -7.7860801    314.57184  0.016353287  0.015530221           16 
 1604000   0.62346236      -7.7799    314.27583  0.016327713  0.015517829            8 
 1605000   0.59161889   -7.7882203    314.07952  0.016307348  0.015505441            7 
 1606000   0.61317548    -7.784386    313.82979  0.016284236  0.015493058           11 
 1607000   0.60641376   -7.7992465    313.96088    0.0162809  0.015480684           13 
 1608000   0.61214117   -7.7991491    314.24245  0.016285368  0.015468313            4 
 1609000   0.62034218   -7.7942826    314.59671  0.016293594  0.015455961            6 
 1610000   0.62186014   -7.7970037    314.36099  0.016271273  0.015443623           12 
 1611000   0.61216815   -7.8035401    313.80594  0.016232461  0.015431288            8 
 1612000    0.6125568     -7.79828    313.95752  0.016230228  0.015418925            8 
 1613000   0.61060144   -7.8179628    313.71205  0.016207484  0.015406579            8 
 1614000   0.61488882   -7.7961953    313.82371  0.016203207  0.015394261           12 
 1615000   0.61147262   -7.7996904    313.88245  0.016196205  0.015381965            6 
 1616000   0.60846378   -7.8043084    314.14956  0.016199957  0.015369668           12 
 1617000   0.60659535   -7.7930695    314.50121  0.016208061  0.015357419            7 
 1618000   0.60029087   -7.7978052    314.00601  0.016172539  0.015345169           11 
 1619000   0.60350653   -7.7927396    313.66231  0.016144858  0.015332915           12 
 1620000    0.6118048   -7.7958612    313.96876  0.016150656  0.015320672            5 
 1621000   0.60416319   -7.8008213    314.30906  0.016158187  0.015308424            6 
 1622000   0.61038639   -7.7968611    314.50912  0.016158504  0.015296203            9 
 1623000   0.60647461   -7.8167803    313.95063  0.016119872  0.015283995           12 
 1624000   0.61288835   -7.7829558    314.58103  0.016142294  0.015271803            7 
 1625000    0.6092513   -7.7841956    314.47132  0.016126734  0.015259622            7 
 1626000   0.59711494   -7.7975668     314.5248  0.016119557  0.015247444            8 
 1627000   0.61209666   -7.7840211    314.53164      0.01611  0.015235282           16 
 1628000   0.60149382   -7.8117043    314.21526   0.01608391   0.01522315           13 
 1629000   0.61128089   -7.7947441    314.37247  0.016082079  0.015211006           13 
 1630000   0.60413881   -7.8056102    314.16117   0.01606141  0.015198875           13 
 1631000   0.61390692   -7.7657989    314.22224  0.016054682   0.01518677           14 
 1632000   0.59897066   -7.8077137    314.03058  0.016035058  0.015174661           12 
 1633000   0.61523701   -7.7827938    313.82889  0.016014946   0.01516257            8 
 1634000   0.61106878   -7.7835219    314.54435  0.016041633  0.015150497           12 
 1635000   0.60079609   -7.8045007    314.83269  0.016046518   0.01513844           26 
 1636000   0.60048214    -7.780629    314.39364  0.016014346  0.015126376           12 
 1637000    0.5908306   -7.8095438    314.62006  0.016016089  0.015114324           11 
 1638000   0.60010919   -7.8146405    314.57323  0.016003929  0.015102303           14 
 1639000   0.59556843   -7.7924693    314.47142  0.015988988  0.015090296           13 
 1640000   0.58607799   -7.8228583    314.16516  0.015963677  0.015078298            8 
 1641000    0.5899724   -7.7893011    314.02654  0.015946909    0.0150663            5 
 1642000   0.58694152   -7.7837851     314.5145  0.015961962  0.015054288            8 
 1643000    0.6047606   -7.7916248    314.21511  0.015937062  0.015042295            8 
 1644000   0.60282054   -7.8059497    315.06508  0.015970452  0.015030319            7 
 1645000   0.60204545   -7.8095953    314.72469    0.0159435  0.015018393           11 
 1646000   0.59674729    -7.775222    314.52444  0.015923676  0.015006469           11 
 1647000    0.6008118   -7.8009229      314.527  0.015914137   0.01499456            8 
 1648000   0.59331208   -7.8052889    314.25935  0.015890946   0.01498266           15 
 1649000   0.58112971   -7.8121147    313.96369  0.015866368  0.014970756            5 
 1650000   0.61191829   -7.8205588    314.11358  0.015864322  0.014958818            7 
 1651000   0.59914253   -7.8228572    314.67843  0.015883224  0.014946884            5 
 1652000   0.58125627   -7.8153586    313.79798  0.015829196  0.014934975            6 
 1653000   0.59523337   -7.8065898    314.48784  0.015854398  0.014923074            5 
 1654000    0.5916755   -7.8100484    314.38659  0.015839711  0.014911191            4 
 1655000   0.60659523    -7.817386     313.9843  0.015809884  0.014899317            4 
 1656000   0.59178406   -7.8448418    314.34331  0.015818403  0.014887448           11 
 1657000   0.60494406   -7.7988365    314.28891  0.015806121  0.014875582            6 
 1658000   0.59355161   -7.8191688    313.62013  0.015762974  0.014863705            7 
 1659000   0.58814767   -7.8244273    314.28963  0.015787102  0.014851865           11 
 1660000   0.58184999   -7.8274406    314.55651   0.01579099  0.014840014            9 
 1661000   0.58209589   -7.8282162    314.39067  0.015773162  0.014828189           14 
 1662000   0.58558237   -7.8262769    314.37093  0.015762682  0.014816364           13 
 1663000   0.59035511   -7.8288464    314.17188  0.015743229  0.014804557            4 
 1664000   0.58574349   -7.8241843    314.38973  0.015744678  0.014792775            4 
 1665000   0.58599617   -7.8331159    313.50701  0.015691041  0.014780997            8 
 1666000   0.57609229   -7.8115196     314.2339  0.015717982  0.014769209           14 
 1667000   0.59227802   -7.8250551    314.22654  0.015708185   0.01475743            8 
 1668000   0.57268842   -7.8535791    314.19698  0.015697291  0.014745641           10 
 1669000   0.58145288   -7.8348648    314.18959  0.015687517  0.014733873            4 
 1670000   0.57316938   -7.8243011    314.32816  0.015685038  0.014722098            6 
 1671000   0.58632239   -7.8405103    313.95492  0.015657038  0.014710334            8 
 1672000   0.58566126   -7.8225272    314.31341  0.015665541  0.014698582            4 
 1673000   0.58583545   -7.8329382    313.51745   0.01561653  0.014686842            9 
 1674000   0.58891429   -7.8361099    313.26296  0.015594532  0.014675116           10 
 1675000   0.58106588    -7.854228     313.7732  0.015610607  0.014663385            7 
 1676000   0.58007448   -7.8560826    313.67699  0.015596509  0.014651676           14 
 1677000   0.58619491   -7.8588063    313.89578  0.015598081  0.014639967            5 
 1678000   0.58822209   -7.8449713     313.5418  0.015571206  0.014628253            8 
 1679000   0.59173746   -7.8238146    314.61732  0.015615313  0.014616565           10 
 1680000   0.58436759   -7.8311002     313.5954  0.015555327  0.014604891           11 
 1681000    0.5790807   -7.8664967    313.33442  0.015533136  0.014593204           15 
 1682000   0.58066654   -7.8529916    314.26377  0.015569945  0.014581534            6 
 1683000    0.5784472   -7.8419557     313.4433  0.015520069  0.014569871           13 
 1684000   0.58098344   -7.8574495    314.03386  0.015540076  0.014558205           14 
 1685000   0.58428385   -7.8395847    313.51207  0.015505048  0.014546555            7 
 1686000   0.57236542   -7.8498505    313.42529  0.015491562  0.014534925            6 
 1687000   0.57717649   -7.8652287    313.88121  0.015504901  0.014523297           13 
 1688000   0.58161705   -7.8606032    313.12522  0.015458394  0.014511663            9 
 1689000   0.58549777   -7.8797311    313.32875  0.015459283  0.014500036           11 
 1690000   0.56659564   -7.8649743    313.47033  0.015457117  0.014488429            8 
 1691000   0.56990993   -7.8606432    313.79342  0.015463898   0.01447684           10 
 1692000   0.57138807   -7.8582831    313.36141  0.015433482  0.014465222           14 
 1693000   0.57881315   -7.8869747    313.35397  0.015423999  0.014453642           14 
 1694000    0.5727599   -7.8612988     313.4718  0.015420691  0.014442075           12 
 1695000   0.57930726   -7.8746931    314.42399  0.015458407  0.014430528            7 
 1696000   0.58171977   -7.8685764    313.71518  0.015414465  0.014418997            7 
 1697000   0.58424174    -7.870578    313.81273  0.015410171  0.014407473           10 
 1698000   0.56644232    -7.859556    314.36934  0.015428413  0.014395967           10 
 1699000   0.56086846    -7.864203    313.96501    0.0153995   0.01438447            7 
 1700000   0.56822217   -7.8834136    314.38654  0.015411105  0.014372976            6 
 1701000   0.57151896   -7.8633276    313.48206  0.015357734   0.01436149           10 
 1702000    0.5770671   -7.8801697    313.36857  0.015343154   0.01434999           16 
 1703000   0.56212663   -7.8865235     313.9674  0.015363447  0.014338502           10 
 1704000   0.58009699   -7.8764722    313.42012  0.015327666  0.014327034            5 
 1705000   0.57383435   -7.8735302    313.58916  0.015326938  0.014315559            9 
 1706000   0.57992395   -7.8774841    313.63994  0.015320435  0.014304102            8 
 1707000   0.57646784    -7.876787    313.93399  0.015325815  0.014292646           11 
 1708000   0.57462486   -7.8857436    313.41719  0.015291627  0.014281201           11 
 1709000   0.56471786   -7.8625538     313.7249  0.015297684  0.014269774            6 
 1710000   0.57919329   -7.8745919    313.61755  0.015283506  0.014258354            8 
 1711000   0.56018887   -7.8871405    312.67956  0.015228889  0.014246941           16 
 1712000   0.56065564   -7.8837415      313.648  0.015267134  0.014235547            7 
 1713000   0.56289446   -7.8769651    313.49606   0.01525083  0.014224178           12 
 1714000   0.58630222   -7.8773825    313.43649  0.015239036  0.014212769           12 
 1715000   0.56910246   -7.8908584    313.15699  0.015216569  0.014201364            8 
 1716000   0.57056702     -7.89292    313.28625  0.015213979  0.014189971            8 
 1717000   0.57104395   -7.8934161    312.73965  0.015178589  0.014178604           10 
 1718000   0.57265476   -7.8863745    313.36222  0.015199952   0.01416724            8 
 1719000   0.55833421   -7.8805643    313.28532  0.015187382  0.014155883           16 
 1720000   0.56690981   -7.8935205    313.54151  0.015190965  0.014144524           10 
 1721000   0.56789631   -7.8838502    313.39323  0.015174958   0.01413317            9 
 1722000   0.55918285    -7.901597    313.45015    0.0151689  0.014121839           12 
 1723000   0.56694953   -7.8925292    313.44657  0.015159923  0.014110504           13 
 1724000   0.57628331   -7.8739586     313.6596  0.015161427  0.014099192           10 
 1725000   0.56873887   -7.8792489    313.12786   0.01512695  0.014087919            8 
 1726000   0.57157505   -7.8812967    313.17419  0.015120423  0.014076618            9 
 1727000   0.56724188   -7.9036157    313.13453  0.015109753  0.014065311           14 
 1728000   0.56736141    -7.897344    312.34415  0.015062893  0.014054006           15 
 1729000   0.56151135   -7.9187878    313.25154  0.015097915   0.01404273            6 
 1730000   0.56515551   -7.9011726    313.37188  0.015094984  0.014031461           11 
 1731000   0.56512902   -7.8925548    313.52857  0.015093807  0.014020214           22 
 1732000    0.5558472   -7.9044425    313.29118  0.015073671  0.014009002           20 
 1733000   0.56517219   -7.9023451    313.45334  0.015072771  0.013997782           16 
 1734000   0.56893705   -7.9006629    312.93234   0.01503904  0.013986572           13 
 1735000   0.57019517   -7.8955919    313.50309  0.015057785  0.013975365           28 
 1736000   0.56557312   -7.9160844    313.18297  0.015033745  0.013964158           18 
 1737000   0.55583516   -7.9129295    313.64701  0.015047352  0.013952961           21 
 1738000   0.56537782    -7.901006    312.90836  0.015003278  0.013941761           22 
 1739000   0.56131079   -7.9188119    312.88537  0.014993548  0.013930604           11 
 1740000   0.54430026   -7.9071642     313.2515  0.015002466  0.013919452            9 
 1741000   0.56230644   -7.9066608    313.05501  0.014984444    0.0139083           14 
 1742000   0.55790474   -7.9139472    313.95097  0.015018703  0.013897156           26 
 1743000   0.55394423   -7.9112192    313.75082  0.015000517   0.01388604           16 
 1744000   0.54963338   -7.9391233    313.16987  0.014964157  0.013874934           23 
 1745000   0.56327744   -7.9063917    313.04431  0.014949585  0.013863832           15 
 1746000   0.55668753   -7.9072325    313.46818  0.014961253  0.013852741           17 
 1747000   0.54474102   -7.9074184    312.95489  0.014928205  0.013841651           20 
 1748000   0.56815307   -7.9167689    312.99725  0.014921684   0.01383056           20 
 1749000   0.54887726   -7.9016903    312.90045  0.014908541  0.013819485           14 
 1750000   0.55044284   -7.9027911    313.12147  0.014910546  0.013808434           15 
 1751000   0.55163283   -7.9174686    312.89307  0.014891161  0.013797373           15 
 1752000   0.55506498   -7.9264396    312.96673  0.014886165  0.013786319           20 
 1753000   0.55524301   -7.9221469    313.80688  0.014917612  0.013775287            6 
 1754000   0.55791123   -7.9257762    312.99197   0.01487039  0.013764252           15 
 1755000   0.55768491   -7.9137199    313.03929  0.014864164  0.013753227           13 
 1756000   0.55003792   -7.9017645    313.07772  0.014857523  0.013742218           21 
 1757000   0.54975932    -7.913556    313.56543  0.014872198   0.01373122           19 
 1758000   0.54654234   -7.9105176    312.60848  0.014818377  0.013720235           22 
 1759000   0.55350667   -7.9202657    313.86733  0.014869591   0.01370928           22 
 1760000    0.5381493    -7.897492    312.88248  0.014814511  0.013698327           14 
 1761000   0.54987094   -7.8970521    313.44491  0.014832714  0.013687388           20 
 1762000    0.5503972   -7.9109435    312.64437  0.014786434  0.013676452           19 
 1763000   0.54264341   -7.9073685    313.34725  0.014811271  0.013665527            8 
 1764000   0.55709195    -7.923094    313.11016  0.014791674  0.013654616           12 
 1765000   0.55449114    -7.903791    313.33337  0.014793833  0.013643712           13 
 1766000   0.54751389   -7.9203019     312.6641  0.014753874  0.013632803           18 
 1767000   0.55482641   -7.9391417    313.13933  0.014767937  0.013621901           21 
 1768000    0.5486138   -7.9331971    313.31095  0.014767673  0.013611011           11 
 1769000   0.53566322   -7.9356294    312.94816  0.014742235  0.013600117           16 
 1770000   0.54027812   -7.9241046    312.90768     0.014732  0.013589235           17 
 1771000   0.54564168   -7.9304244    313.07234  0.014731429  0.013578376           17 
 1772000   0.54588331   -7.9087546    313.28535  0.014733134  0.013567546           20 
 1773000   0.55167385   -7.9442521    312.58871  0.014692081  0.013556716           16 
 1774000   0.54591325   -7.9214862    313.45862  0.014724663  0.013545899           15 
 1775000   0.54693201   -7.8972094    313.03871  0.014696653  0.013535077            9 
 1776000   0.53640002   -7.9312984    313.02975  0.014687958  0.013524259           23 
 1777000   0.53751886    -7.925514    313.38961  0.014696568  0.013513448           13 
 1778000    0.5344192   -7.9341465    312.79208  0.014660296  0.013502639           12 
 1779000    0.5443935   -7.9136639     312.7336  0.014649316  0.013491845            7 
 1780000   0.53451267   -7.9291612    312.63661  0.014636546  0.013481074           16 
 1781000   0.54708813    -7.941857    312.97852  0.014644325  0.013470293           13 
 1782000    0.5453226   -7.9371432    313.04189  0.014639071  0.013459537           19 
 1783000   0.54748453   -7.9408483    313.53786  0.014654041  0.013448789           26 
 1784000   0.54585755   -7.9254854    313.15393  0.014627893  0.013438034           13 
 1785000   0.53913705   -7.9426565    312.80726  0.014603514  0.013427306           19 
 1786000   0.52776301   -7.9309493    312.86177   0.01459788  0.013416599           25 
 1787000   0.53502282   -7.9553151    312.98793  0.014595595  0.013405891           26 
 1788000   0.52904103   -7.9532368    312.97646  0.014586897  0.013395198           25 
 1789000   0.54358667   -7.9641551    312.90234  0.014575291  0.013384508           22 
 1790000   0.53589225   -7.9554081    312.60716  0.014553406  0.013373823           29 
 1791000   0.52816044   -7.9346388    312.93235  0.014560411   0.01336314           16 
 1792000   0.54868694   -7.9420042    312.57505   0.01453567   0.01335247           13 
 1793000   0.54550205   -7.9399085    313.10101  0.014552008  0.013341807           11 
 1794000   0.54157438    -7.964944     312.5672  0.014519101  0.013331148            9 
 1795000   0.54884552   -7.9594206    312.76262  0.014520084  0.013320499            8 
 1796000   0.53254694   -7.9412567    313.12174  0.014528663  0.013309873           15 
 1797000   0.54053197   -7.9507297    313.36927  0.014532056  0.013299247           24 
 1798000   0.54835628   -7.9531406    312.75121  0.014495329  0.013288632           19 
 1799000   0.51923826   -7.9503389    312.34114  0.014468276  0.013278029           24 
 1800000   0.52184463   -7.9543104    313.15201  0.014497778  0.013267432           29 
 1801000   0.55386884   -7.9565053    313.39897  0.014501155  0.013256849           19 
 1802000   0.53457721   -7.9406232    312.49365  0.014451242  0.013246285           13 
 1803000   0.52802134   -7.9504555    313.08925  0.014470755  0.013235724           31 
 1804000   0.53734681    -7.956424    312.19087  0.014421234  0.013225157           14 
 1805000   0.52356216   -7.9638001    312.30454  0.014418492  0.013214612            9 
 1806000   0.52934508   -7.9779147    311.98872  0.014395936  0.013204072           20 
 1807000   0.53136346   -7.9463714     313.1602  0.014441994  0.013193553           13 
 1808000   0.53415082   -7.9486617    312.48257  0.014402773  0.013183032           20 
 1809000   0.53914163   -7.9548813    312.48903  0.014395109  0.013172529           11 
 1810000   0.53440009   -7.9459159    312.70553  0.014397124  0.013162029           13 
 1811000    0.5259469   -7.9657924    312.81842  0.014394369  0.013151541           20 
 1812000   0.53495434   -7.9667477    312.44511  0.014369256  0.013141051           24 
 1813000   0.52194059   -7.9739975    312.38392  0.014358518  0.013130553            7 
 1814000   0.53451826   -7.9745242    313.05181  0.014381285   0.01312008           19 
 1815000   0.52432948   -7.9765104     312.8068  0.014362112  0.013109621           26 
 1816000   0.53195166   -7.9780692    312.82726  0.014355142  0.013099183           19 
 1817000   0.52194101   -7.9800302    312.51551  0.014332944  0.013088726           16 
 1818000   0.53551293   -7.9762376    312.34741  0.014317354  0.013078275           19 
 1819000   0.52754538   -7.9705294    312.25867  0.014305418  0.013067842           16 
 1820000   0.52073301   -7.9715542     312.4974  0.014308489  0.013057416           13 
 1821000   0.53384394   -7.9570107    312.48535   0.01430008  0.013047008           15 
 1822000   0.52648385   -7.9589539    311.77953  0.014259949  0.013036606           15 
 1823000   0.52881188   -7.9652279    312.74159  0.014296105  0.013026208           29 
 1824000    0.5322733   -7.9695504    312.34514  0.014270155  0.013015817           13 
 1825000   0.51644378   -7.9706534    312.26586  0.014258715  0.013005424           27 
 1826000   0.52169545   -7.9845089    312.32447  0.014253581  0.012995034           14 
 1827000   0.52951532   -7.9691365    312.15907  0.014238235  0.012984657           20 
 1828000    0.5267051    -7.989113    312.26765  0.014235396  0.012974294           21 
 1829000   0.52761501    -7.970691    312.04006  0.014217243  0.012963938           22 
 1830000   0.51167783    -7.985274     312.3309  0.014222719  0.012953587           27 
 1831000   0.53049233   -7.9728906    312.55593  0.014225192  0.012943237           19 
 1832000   0.50766967   -7.9673977    312.28274  0.014205001  0.012932898           14 
 1833000   0.51905386   -7.9829772    312.20192  0.014193577  0.012922577           30 
 1834000   0.51700976   -7.9804761    312.45118  0.014197164   0.01291228           16 
 1835000   0.53058659   -7.9707777    312.29792  0.014182467   0.01290198            7 
 1836000   0.53059432   -7.9738206    312.79934  0.014197501  0.012891695            9 
 1837000   0.51040273    -7.983425    312.57003   0.01417937  0.012881406           18 
 1838000   0.52369779    -7.985171     312.2113  0.014155391  0.012871124           12 
 1839000   0.51798572   -7.9788922    312.49651  0.014160618   0.01286087           20 
 1840000   0.51870566   -7.9739003    312.02737  0.014131674   0.01285061           18 
 1841000   0.52180893   -7.9933114    311.98935  0.014122277  0.012840363           31 
 1842000   0.50690653   -7.9986258    312.30873   0.01412906  0.012830119           16 
 1843000   0.51297038    -7.980626    312.56152  0.014132823  0.012819886           14 
 1844000   0.51047808   -7.9743143    312.11203  0.014104846  0.012809663           24 
 1845000   0.52304893   -7.9954264    312.55791   0.01411734  0.012799459           15 
 1846000   0.51145453   -7.9747846    312.21742  0.014094322  0.012789262           18 
 1847000   0.51409333   -7.9801695    312.35642  0.014092963  0.012779081           18 
 1848000   0.50735825   -7.9825901    312.01972  0.014070153  0.012768898           10 
 1849000   0.51125165   -7.9818163    311.95886  0.014059801  0.012758713           22 
 1850000   0.51326105   -7.9795735     311.9718  0.014052784  0.012748544           28 
 1851000   0.51653008   -7.9969697    312.15595  0.014053482  0.012738379           21 
 1852000   0.50538254   -7.9865704    312.17896   0.01404693  0.012728218           25 
 1853000   0.51997048   -7.9891736    312.04668    0.0140334  0.012718076           12 
 1854000   0.50938761   -7.9882404    312.29081  0.014036804  0.012707943           10 
 1855000    0.5163202    -7.992012    312.01921  0.014017035  0.012697824           24 
 1856000   0.51218362   -7.9794249     311.7357  0.013996754  0.012687715           20 
 1857000   0.51278688   -8.0073395    312.28922  0.014014056  0.012677597           11 
 1858000   0.52027794   -8.0100649     311.3638  0.013965007  0.012667493           16 
 1859000   0.50423114   -7.9825435    311.46538  0.013962049  0.012657395           34 
 1860000   0.51546843   -7.9803426    311.86272  0.013972344  0.012647307           16 
 1861000   0.51956383   -7.9960391    311.87125  0.013965218  0.012637233           14 
 1862000   0.51582675    -8.025352     311.6071  0.013945896  0.012627163           18 
 1863000   0.51249588    -7.999133    311.82012  0.013947939   0.01261711           16 
 1864000   0.52357986    -8.001274    312.01563  0.013949196  0.012607069           17 
 1865000   0.50551693   -8.0068169    312.09742  0.013945372  0.012597048           21 
 1866000   0.50383303   -7.9891846    311.65041  0.013917935   0.01258703           26 
 1867000   0.51250498   -8.0010741    312.50371  0.013948567  0.012577018           15 
 1868000   0.49883593   -8.0161745    312.00374  0.013918797  0.012567015           16 
 1869000   0.49753142    -7.983996    311.73706  0.013899459  0.012557024           11 
 1870000   0.51733778   -8.0064847     311.9111  0.013899782  0.012547039           17 
 1871000    0.5115008   -8.0175541     312.3925  0.013913794  0.012537057           15 
 1872000   0.50689873   -7.9981308    311.50382  0.013866801  0.012527095           20 
 1873000   0.50471547   -7.9998748    312.05453    0.0138839  0.012517142           12 
 1874000   0.50803031   -7.9856784    312.03976  0.013875834  0.012507191           17 
 1875000   0.50479343   -7.9909911    311.17821  0.013830143  0.012497257           18 
 1876000   0.49709947   -7.9953094    311.98954   0.01385881  0.012487329            9 
 1877000   0.50224615   -8.0073233    311.96578  0.013850372  0.012477403           13 
 1878000    0.5085117   -7.9994054      311.596  0.013826588   0.01246748           25 
 1879000   0.49620421   -8.0002388     311.6333  0.013820884  0.012457569            8 
 1880000    0.5105942   -8.0051957     312.1337  0.013835714  0.012447675           24 
 1881000   0.49887113   -8.0055366    311.93196   0.01381942  0.012437799           18 
 1882000   0.50940511   -8.0048603    311.53374  0.013794445  0.012427934           17 
 1883000   0.51047867   -8.0069779    312.14164  0.013814022  0.012418085           21 
 1884000   0.49541273   -7.9934071    311.67118   0.01378588   0.01240823           22 
 1885000   0.50528624   -8.0081597     311.6997  0.013779828  0.012398379           16 
 1886000   0.48346837   -7.9824075    311.52074  0.013764614  0.012388534           23 
 1887000   0.50205991    -8.002616    312.12723  0.013784103  0.012378717            7 
 1888000   0.49784592   -8.0105729     311.6054  0.013753769  0.012368903           23 
 1889000   0.49823857   -8.0025444    311.16878  0.013727227  0.012359094           18 
 1890000   0.49943186   -8.0223761     311.7234  0.013744418  0.012349287           19 
 1891000   0.49972557   -8.0057562    311.59486  0.013731485  0.012339492           26 
 1892000   0.49727757   -8.0097795    311.80137  0.013733323  0.012329698           19 
 1893000   0.49121744   -7.9917748    311.84557  0.013728014   0.01231991           10 
 1894000   0.49451945   -8.0338629    311.34896  0.013698916  0.012310138           16 
 1895000    0.4933673   -8.0125472     311.4991  0.013698289  0.012300378           10 
 1896000   0.48913479   -8.0235522    311.98049  0.013712223  0.012290629           13 
 1897000    0.4951631   -8.0173714    311.58963  0.013687824  0.012280889           14 
 1898000   0.49587625   -8.0318356    311.56183  0.013679392  0.012271166           15 
 1899000   0.49057395   -8.0296817    311.20654  0.013656597  0.012261437           15 
 1900000   0.50213134   -8.0162301    311.36685  0.013656441  0.012251718           18 
 1901000    0.4933987   -8.0210641    311.58183  0.013658681  0.012242012           11 
 1902000    0.4956688   -8.0126896    311.47882  0.013646987   0.01223231           15 
 1903000   0.49291689   -8.0292196    311.14461   0.01362518  0.012222617           14 
 1904000   0.49330723   -8.0293904    311.99098  0.013655067  0.012212938           11 
 1905000   0.48235617   -8.0126828    311.02202  0.013605512  0.012203261           11 
 1906000   0.49430455   -8.0201843    312.00882  0.013641519  0.012193599           19 
 1907000   0.49411143   -8.0221666    311.35141  0.013605637  0.012183949           14 
 1908000   0.48997261   -8.0027237    310.94577   0.01358079   0.01217431           10 
 1909000   0.49571422   -8.0223325    311.11437  0.013581036   0.01216467           10 
 1910000   0.48550161   -8.0275393     311.0687  0.013571933  0.012155045           17 
 1911000   0.48471261    -8.018345    311.45695  0.013581761  0.012145424           11 
 1912000   0.49051463   -8.0282259    311.61909  0.013581725  0.012135809            9 
 1913000   0.48805146   -8.0265293    311.46121  0.013567747    0.0121262           12 
 1914000   0.49518925   -8.0147266    311.47403  0.013561217  0.012116608           17 
 1915000   0.49189392   -8.0230498    311.09874  0.013537804  0.012107017           16 
 1916000   0.49003077   -8.0103434     311.0461  0.013528449  0.012097446           14 
 1917000   0.48574321   -8.0179842    311.60525  0.013545699  0.012087883           11 
 1918000    0.4870884   -8.0312376    311.28332  0.013524649   0.01207833            7 
 1919000   0.48017225   -8.0365686    311.66338  0.013534106  0.012068779           18 
 1920000   0.47720923   -8.0330663    311.31197  0.013511804  0.012059228           13 
 1921000   0.48241959   -8.0097589    311.00504  0.013491456  0.012049693           10 
 1922000   0.49023964   -8.0309723    311.18969  0.013492442  0.012040172           11 
 1923000   0.49313644   -8.0459939     311.3935  0.013494258  0.012030661           11 
 1924000   0.48392378   -8.0320297    310.94159  0.013467671  0.012021167           12 
 1925000   0.47708568   -8.0234083    311.45852  0.013483053   0.01201168           10 
 1926000   0.48290167   -8.0353298    311.31591  0.013469882  0.012002201           13 
 1927000    0.4886016   -8.0250759    311.43012  0.013467831  0.011992723           12 
 1928000    0.4949971   -8.0224831    311.28081  0.013454392  0.011983267           14 
 1929000   0.47981861   -8.0400374    311.65635   0.01346364   0.01197383           19 
 1930000   0.47471312   -8.0374901    311.59573  0.013454047  0.011964396           20 
 1931000    0.4748054   -8.0522325    311.46326  0.013441363  0.011954961           13 
 1932000   0.47700812   -8.0341194    311.39494  0.013431459  0.011945536           21 
 1933000   0.46538696   -8.0341562    311.11185  0.013412306  0.011936115           16 
 1934000   0.49265458   -8.0499537     311.7302  0.013432015  0.011926701           25 
 1935000   0.48182592   -8.0335653    311.28869  0.013406059    0.0119173           21 
 1936000   0.48241152   -8.0394169    311.49198  0.013407885  0.011907919           20 
 1937000   0.47722501   -8.0426196    311.16377  0.013386842  0.011898535           15 
 1938000   0.48329847   -8.0275346    311.06457  0.013375669  0.011889159           12 
 1939000    0.4800045   -8.0299465    311.22878  0.013375829  0.011879793           19 
 1940000   0.48946349   -8.0393223     310.8336  0.013351959  0.011870436            9 
 1941000   0.47608038   -8.0476581    311.19329  0.013360523  0.011861088           17 
 1942000   0.47700367   -8.0377741    311.33209  0.013359599  0.011851745           16 
 1943000   0.47133101   -8.0417421    311.35651   0.01335377  0.011842416           22 
 1944000   0.48124449   -8.0390024    311.41454  0.013349389  0.011833086           14 
 1945000    0.4831069   -8.0383801    311.16104  0.013331664  0.011823768           18 
 1946000   0.47437108   -8.0593741     311.0331  0.013319334  0.011814457           22 
 1947000   0.47716594   -8.0492177    311.32518  0.013324995  0.011805165           17 
 1948000   0.47365505   -8.0487729     311.5794   0.01332903   0.01179588           19 
 1949000   0.46121179   -8.0414696    311.12059  0.013302574  0.011786603           22 
 1950000   0.48062582    -8.058379    310.94636  0.013288306  0.011777332           11 
 1951000   0.47346533   -8.0474511    311.21792  0.013293094  0.011768069           12 
 1952000   0.46385404   -8.0638355    311.08195   0.01328048  0.011758811           13 
 1953000   0.47618169   -8.0529586    310.95951  0.013268455  0.011749562           13 
 1954000   0.46691152   -8.0509485    311.35986  0.013278739  0.011740321           18 
 1955000   0.47354405    -8.050978    311.22616  0.013266247  0.011731091           16 
 1956000   0.47521949   -8.0559093    311.20406  0.013258523  0.011721864           14 
 1957000   0.48316528   -8.0593282    311.32868  0.013257055  0.011712646           14 
 1958000   0.47281262   -8.0567503     310.9274  0.013233206  0.011703434           16 
 1959000   0.46274934   -8.0651957    311.29138  0.013241934  0.011694233           12 
 1960000    0.4677828   -8.0745672    310.63484  0.013207264  0.011685039           10 
 1961000   0.46738103   -8.0647942    310.93865  0.013213439  0.011675846           16 
 1962000    0.4623201   -8.0598953    310.81314  0.013201373  0.011666664           18 
 1963000   0.47234568   -8.0614434    310.55781  0.013183809  0.011657495           14 
 1964000   0.47109302   -8.0742863    311.59838  0.013221248  0.011648337           12 
 1965000   0.47434623   -8.0692056    310.92246  0.013185855  0.011639188           15 
 1966000     0.474141   -8.0776701    310.87293  0.013177049  0.011630044           14 
 1967000   0.46255289   -8.0711469    310.60325  0.013158924   0.01162091           12 
 1968000   0.46426886   -8.0764715    311.14258  0.013175075  0.011611787           13 
 1969000    0.4632848   -8.0702954    310.32497  0.013133781  0.011602672           17 
 1970000   0.45915815   -8.0638068    310.98758  0.013155143  0.011593559           11 
 1971000   0.46366724   -8.0745484    311.10291  0.013153345  0.011584458           11 
 1972000   0.45930227   -8.0707522    310.62161  0.013126336  0.011575372            9 
 1973000   0.46079792   -8.0697441     310.4078  0.013110652  0.011566288           13 
 1974000   0.47346067   -8.0639099    311.19555  0.013137266  0.011557219           14 
 1975000   0.46527892   -8.0725859    310.80924  0.013114314  0.011548155           14 
 1976000   0.46395178   -8.0815134     310.2587   0.01308446  0.011539101           14 
 1977000   0.46541769   -8.0706697    310.56693  0.013090833  0.011530048           12 
 1978000   0.45967058   -8.0703944     310.9067   0.01309853  0.011521005            8 
 1979000   0.46114796   -8.0605238    310.84105  0.013089146  0.011511966           15 
 1980000   0.46034732    -8.065512    310.65202   0.01307458  0.011502934           24 
 1981000   0.46657382   -8.0654083     310.5837  0.013065106   0.01149391           13 
 1982000   0.45106718   -8.0660465    310.60601  0.013059452  0.011484893           13 
 1983000    0.4528232   -8.0902845    310.55513  0.013050728  0.011475883           21 
 1984000   0.46529902   -8.0816192    310.39477  0.013037415  0.011466877           23 
 1985000    0.4517462   -8.0638292    310.45934  0.013033557   0.01145789           16 
 1986000   0.45947216    -8.080143    310.60499  0.013033106  0.011448905           10 
 1987000   0.46638145   -8.0779552    310.28467  0.013013113  0.011439931           34 
 1988000   0.45552957   -8.0746276     310.8896  0.013031925  0.011430962           15 
 1989000   0.47068512    -8.064454    310.18847  0.012995998  0.011422004           13 
 1990000   0.45237927   -8.0847778    310.76871  0.013013765  0.011413055           21 
 1991000    0.4481678   -8.0828061    310.92286  0.013013681  0.011404116            8 
 1992000   0.45019636   -8.0660313    310.51291  0.012989998  0.011395187           25 
 1993000   0.44963327   -8.0856375    310.67458   0.01299024  0.011386265           19 
 1994000   0.45202521   -8.0875694     310.4681  0.012975096  0.011377353           18 
 1995000   0.45657265   -8.0821828    310.40182  0.012965824  0.011368447           11 
 1996000   0.45524781   -8.1036637    310.31463  0.012955688  0.011359536           10 
 1997000   0.45789585   -8.0912632    310.25731  0.012946808  0.011350628           11 
 1998000    0.4532104   -8.0915154    310.65184  0.012956784  0.011341737           13 
 1999000   0.45329263    -8.077391    310.58921  0.012947691  0.011332861           11 
 2000000   0.45552371   -8.0892091    310.79757  0.012949899  0.011323983           11 
 2001000   0.45760282   -8.1012566    310.91931  0.012948497   0.01131512           12 
 2002000   0.45954361   -8.0973556    310.56111  0.012927119  0.011306265           16 
 2003000   0.45528723   -8.0974049    310.36502  0.012912507  0.011297407           14 
 2004000   0.44900162   -8.0862035    310.60066  0.012915862  0.011288567           12 
 2005000   0.44692714   -8.0826246    310.36868  0.012899779  0.011279738           12 
 2006000   0.45729632   -8.0831787    310.35902  0.012892947   0.01127092           16 
 2007000   0.45852573   -8.0956292    310.03393  0.012873025  0.011262116           13 
 2008000   0.44963509   -8.0865962    310.71944  0.012895063  0.011253315           22 
 2009000   0.45218767   -8.0910896    310.22684  0.012868211  0.011244519           10 
 2010000   0.44639071   -8.0885797    310.38793  0.012868488  0.011235733           12 
 2011000   0.45595843   -8.0882389    310.21605  0.012854967  0.011226958           11 
 2012000   0.44196492   -8.0999149    310.27289  0.012850931  0.011218185           14 
Loop time of 4503.09 on 48 procs for 2000000 steps with 4000 atoms

Performance: 76747.317 tau/day, 444.140 timesteps/s
99.4% CPU use with 48 MPI tasks x no OpenMP threads

MPI task timing breakdown:
Section |  min time  |  avg time  |  max time  |%varavg| %total
---------------------------------------------------------------
Pair    | 273.85     | 295.73     | 309.23     |  42.4 |  6.57
Neigh   | 29.075     | 29.779     | 30.596     |   7.0 |  0.66
Comm    | 261.89     | 279.76     | 300.22     |  48.9 |  6.21
Output  | 4.4939     | 4.4958     | 4.5313     |   0.2 |  0.10
Modify  | 3838.8     | 3850       | 3863.6     |   8.6 | 85.50
Other   |            | 43.35      |            |       |  0.96

Nlocal:        83.3333 ave          91 max          74 min
Histogram: 1 2 4 4 6 13 4 8 4 2
Nghost:        1894.96 ave        1913 max        1877 min
Histogram: 2 2 5 8 10 5 6 3 4 3
Neighs:        11902.2 ave       13051 max       10624 min
Histogram: 1 2 7 7 6 4 8 5 7 1
FullNghs:      23803.1 ave       26507 max       21080 min
Histogram: 2 2 6 5 11 6 7 5 2 2

Total # of neighbors = 1142551
Ave neighs/atom = 285.63775
Neighbor list builds = 107580
Dangerous builds = 0

#clear
#
#next RN
#
#jump SELF
Total wall time: 1:15:06
