
units lj                  # Use reduced LJ style units
atom_style atomic         # Uncharged point particles
atom_modify map hash      # Needed for indexing of clusters etc
                          # Used to be able to find where atoms are in relation to each other.

lattice fcc 1.0 spacing 1 1 1
Lattice spacing in x,y,z = 1.5874011 1.5874011 1.5874011
region box block 0 10 0 10 0 10 units lattice
create_box 2 box
Created orthogonal box = (0.0000000 0.0000000 0.0000000) to (15.874011 15.874011 15.874011)
  3 by 4 by 4 MPI processor grid
create_atoms 1 box
Created 4000 atoms
  using lattice units in orthogonal box = (0.0000000 0.0000000 0.0000000) to (15.874011 15.874011 15.874011)
  create_atoms CPU = 0.042 seconds
set type 1 type/fraction 2 0.85 78393
Setting atom values ...
  3394 settings made for type/fraction
mass 1 1.0
mass 2 1.0
pair_style lj/cut  3.5
pair_modify tail  yes
pair_coeff 1  1  1.0  1.0   # Intearaction between 1 and 1 set with epsilon = 1 and sigma = 1
pair_coeff 1  2  1.5  0.8
pair_coeff 2  2  0.5  0.88

write_data data.0
System init for write_data ...
Neighbor list info ...
  update every 1 steps, delay 10 steps, check yes
  max neighbors/atom: 2000, page size: 100000
  master list distance cutoff = 3.8
  ghost atom cutoff = 3.8
  binsize = 1.9, bins = 9 9 9
  1 neighbor lists, perpetual/occasional/extra = 1 0 0
  (1) pair lj/cut, perpetual
      attributes: half, newton on
      pair build: half/bin/atomonly/newton
      stencil: half/bin/3d
      bin: standard
WARNING: Not all mixed pair coeffs generated from mixing. Use write_data with 'pair ij' option to store all pair coeffs. (../write_data.cpp:312)


#############################
#   M E L T   S Y S T E M   #
#############################

velocity all create 2.4 9622624 mom yes dist gaussian # Assign velocities
                                                    # Temperature 2.4, random number seed, zero linear momentum
                                                                                # Gaussian distribution

timestep 0.002   # simulation timestep
thermo 1000       # output thermodynamic data every 1000 steps bf 100

# Define a fix  in this case with index 1 applied to all
# particles in the simulation. This fix is for simulations
# in the anisotropic NPT ensemble. Note that we use the MTK
# correction.
fix 1 all npt temp 2.4 2.4 0.1 iso 5.68 5.68 0.5 mtk yes tchain 5 pchain 5 # Use NPT ensemble
                                                                         # Set temperature and pressure and damping
                                                                         # Numbers of thermostats in chain and in barostat
run 10000          # run for 10000 steps
Per MPI rank memory allocation (min/avg/max) = 3.642 | 3.644 | 3.648 Mbytes
Step Temp E_pair E_mol TotEng Press Volume 
       0          2.4   -3.4381692            0   0.16093083   -2.9520202         4000 
    1000    2.3828258   -2.6515623            0   0.92178282    5.5453812    3899.8664 
    2000     2.466586   -2.6198676            0    1.0790864    6.0480422    3864.7561 
    3000     2.317149    -2.606118            0   0.86873661    5.6308127    3908.5964 
    4000    2.4398019   -2.6427193            0    1.0160686    5.7368926    3883.9103 
    5000    2.4024511   -2.5714996            0    1.0312761     6.121113    3886.8141 
    6000    2.3910376   -2.6272697            0   0.95839003    5.8735993    3886.8943 
    7000    2.4365065   -2.5827822            0    1.0710638    5.6954586    3931.9808 
    8000    2.3697239   -2.6096604            0   0.94403682    5.8221945     3892.214 
    9000    2.4165332   -2.6047617            0    1.0191318    5.9478766    3887.6984 
   10000    2.4663926   -2.6040848            0    1.0945793    5.6894075    3940.3864 
Loop time of 2.62446 on 48 procs for 10000 steps with 4000 atoms

Performance: 658420.960 tau/day, 3810.306 timesteps/s
99.6% CPU use with 48 MPI tasks x no OpenMP threads

MPI task timing breakdown:
Section |  min time  |  avg time  |  max time  |%varavg| %total
---------------------------------------------------------------
Pair    | 1.1095     | 1.1878     | 1.3284     |   4.6 | 45.26
Neigh   | 0.20622    | 0.21824    | 0.24602    |   1.7 |  8.32
Comm    | 0.79751    | 0.92133    | 1.022      |   6.0 | 35.11
Output  | 0.00025247 | 0.00025843 | 0.00032213 |   0.0 |  0.01
Modify  | 0.23505    | 0.28116    | 0.32925    |   5.4 | 10.71
Other   |            | 0.01564    |            |       |  0.60

Nlocal:        83.3333 ave          98 max          73 min
Histogram: 3 5 4 8 11 9 4 3 0 1
Nghost:        1653.04 ave        1692 max        1594 min
Histogram: 1 1 5 6 3 4 7 10 5 6
Neighs:        9673.81 ave       11714 max        8193 min
Histogram: 3 6 5 6 11 8 6 2 0 1

Total # of neighbors = 464343
Ave neighs/atom = 116.08575
Neighbor list builds = 904
Dangerous builds = 201

# Equilibrate just above the melting temperature to avoid step fn in T

fix 1 all npt temp 1.25 1.25 0.1 iso 5.68 5.68 0.5 mtk yes tchain 5 pchain 5
run 2000
Per MPI rank memory allocation (min/avg/max) = 3.643 | 3.645 | 3.649 Mbytes
Step Temp E_pair E_mol TotEng Press Volume 
   10000    2.4663926   -2.6040848            0    1.0945793    5.6894075    3940.3864 
   11000    1.2733004   -3.9138084            0   -2.0043353    5.5910105      3008.48 
   12000    1.2505339   -3.9131638            0   -2.0378319    5.6000554    3004.3224 
Loop time of 0.638927 on 48 procs for 2000 steps with 4000 atoms

Performance: 540906.579 tau/day, 3130.246 timesteps/s
99.7% CPU use with 48 MPI tasks x no OpenMP threads

MPI task timing breakdown:
Section |  min time  |  avg time  |  max time  |%varavg| %total
---------------------------------------------------------------
Pair    | 0.26934    | 0.30253    | 0.3629     |   3.1 | 47.35
Neigh   | 0.040274   | 0.043288   | 0.051284   |   1.1 |  6.78
Comm    | 0.1777     | 0.24329    | 0.2834     |   3.7 | 38.08
Output  | 5.6962e-05 | 5.9476e-05 | 7.3844e-05 |   0.0 |  0.01
Modify  | 0.038064   | 0.045007   | 0.050624   |   1.8 |  7.04
Other   |            | 0.004761   |            |       |  0.75

Nlocal:        83.3333 ave          94 max          75 min
Histogram: 3 2 5 8 12 6 9 2 0 1
Nghost:        1991.98 ave        2015 max        1966 min
Histogram: 5 2 4 3 9 3 6 8 3 5
Neighs:        12729.4 ave       14357 max       10925 min
Histogram: 1 3 3 8 9 5 8 7 1 3

Total # of neighbors = 611011
Ave neighs/atom = 152.75275
Neighbor list builds = 146
Dangerous builds = 13

#############################
# L I N E A R  Q U E N C H  #
#############################

# Define solid atoms. This closely follows ten Wolde  Ruiz-Montero and Frenkel  Faraday Discuss  1996  104  93-110
# Compute components of the per-atom q6 vector
compute q6 all orientorder/atom degrees 1 6 components 6 nnn NULL cutoff 1.3 # compute the Q6 parameter.
                                                                             # Use all neighbours within 1.3 unit cell.

# get number of connections
compute coord_number all coord/atom orientorder q6 0.5

# An atom is solid if it has 8 or more connections (of a possible 14)
variable is_solid atom c_coord_number>=8
group solid dynamic all var is_solid    # Must be dynamic to update
dynamic group solid defined

# do clustering
compute cluster solid cluster/atom 1.3 # Create a cluster where all atoms within are solid and max 1.3 units from another member

# define chunks one chunk per cluster
compute clus_chunks solid chunk/atom c_cluster nchunk every compress yes  # Says which atoms are in which chunk

# count the size of each chunk
compute size_chunks solid property/chunk clus_chunks count


# Find the maximum entry in the vector of chunk sizes
variable max_n equal max(c_size_chunks)


# Thermo style which includes this variable
# thermo_style custom step temp pe vol v_max_n

thermo ${N}  # Print the thermo information every 100 steps
thermo 1000  

# Reset the npt fix at a lower temperature (below freezing)
fix 1  all npt temp  ${temp} ${temp}  0.1  iso  5.68  5.68  0.5  mtk yes tchain  5  pchain  5
fix 1  all npt temp  0.45 ${temp}  0.1  iso  5.68  5.68  0.5  mtk yes tchain  5  pchain  5
fix 1  all npt temp  0.45 0.45  0.1  iso  5.68  5.68  0.5  mtk yes tchain  5  pchain  5

dump dmp2 all dcd ${N} traj.dcd
dump dmp2 all dcd 1000 traj.dcd


compute msd all msd com yes
variable twopoint equal c_msd[4]/6/(step*dt+1.0e-6)
fix 9 all vector 10 c_msd[4]
variable fit equal slope(f_9)/6/(10*dt)
thermo_style custom step temp pe c_msd[4] v_twopoint v_fit v_max_n

fix 1 all npt temp 1.25 ${temp} 0.1 iso 5.68 5.68 0.5 mtk yes tchain 5 pchain 5
fix 1 all npt temp 1.25 0.45 0.1 iso 5.68 5.68 0.5 mtk yes tchain 5 pchain 5
run 500000 # 5000000  # Run for this many steps
Neighbor list info ...
  update every 1 steps, delay 10 steps, check yes
  max neighbors/atom: 2000, page size: 100000
  master list distance cutoff = 3.8
  ghost atom cutoff = 3.8
  binsize = 1.9, bins = 8 8 8
  4 neighbor lists, perpetual/occasional/extra = 1 3 0
  (1) pair lj/cut, perpetual
      attributes: half, newton on
      pair build: half/bin/atomonly/newton
      stencil: half/bin/3d
      bin: standard
  (2) compute orientorder/atom, occasional
      attributes: full, newton on
      pair build: full/bin/atomonly
      stencil: full/bin/3d
      bin: standard
  (3) compute coord/atom, occasional
      attributes: full, newton on
      pair build: full/bin/atomonly
      stencil: full/bin/3d
      bin: standard
  (4) compute cluster/atom, occasional
      attributes: full, newton on
      pair build: full/bin/atomonly
      stencil: full/bin/3d
      bin: standard
Per MPI rank memory allocation (min/avg/max) = 9.828 | 9.834 | 9.840 Mbytes
Step Temp PotEng c_msd[4] v_twopoint v_fit v_max_n 
   12000    1.2505339   -3.9131638 4.9530604e-30 3.4396251e-32 8.3333333e+20            3 
   13000    1.2562583   -3.9003266   0.89819783 0.0057576782  0.076924896            2 
   14000    1.2570359   -3.9132478    1.8110471  0.010780042  0.075894144            2 
   15000     1.243642   -3.8942107    2.7444082  0.015246712  0.076314201            2 
   16000    1.2437549   -3.9204773    3.6717541  0.019123718  0.077381153            2 
   17000    1.2432758    -3.949776    4.6053872  0.022575427  0.077339053            3 
   18000     1.242367   -3.9125698    5.5037526  0.025480336  0.077088172            2 
   19000    1.2252302   -3.9470688     6.387139  0.028013767  0.076710001            3 
   20000    1.2385485   -3.9621931    7.3156617  0.030481923  0.076663734            1 
   21000    1.2171178   -3.9316867    8.2291314  0.032655282  0.076528744            1 
   22000    1.2241917    -3.929147    9.1596605  0.034695683  0.076379493            1 
   23000    1.2322116   -3.9657261    10.062072  0.036456781  0.076359054            2 
   24000    1.2723927   -3.8869596     10.87972  0.037776806  0.076196035            1 
   25000    1.2444072   -3.9627635    11.726929  0.039089764  0.075860044            4 
   26000    1.2183804   -3.9536867    12.454625  0.039918668  0.075404952            2 
   27000    1.2168306   -3.9719942    13.343692  0.041184233  0.074852884            2 
   28000    1.2070839   -3.9849653    14.240454  0.042382304  0.074362953            2 
   29000    1.2055866   -3.9741909     15.18664  0.043639771   0.07420549            4 
   30000    1.2287653   -3.9482092    16.228241  0.045078445  0.074186196            1 
   31000    1.2317809   -3.9826248    17.122551  0.046028361  0.074407459            2 
   32000    1.2261661   -3.9595522    18.085644  0.047098031  0.074630983            1 
   33000    1.2299679   -3.9592996    18.956944   0.04787107  0.074695603            1 
   34000    1.2043438   -3.9835248    19.888633   0.04874665  0.074765414            2 
   35000     1.201428   -3.9620993    20.859491  0.049665455  0.074853561            2 
   36000    1.2185566   -3.9791049     21.76394  0.050379491  0.074974724            2 
   37000    1.2318503   -3.9768309    22.776196  0.051297738  0.075083241            1 
   38000    1.2196544   -3.9661384    23.701614  0.051977224  0.075218896            2 
   39000    1.1959016    -3.973632    24.589651  0.052541989  0.075322723            2 
   40000    1.2074469   -3.9838723    25.552363  0.053234089  0.075369773            2 
   41000    1.2333458   -4.0155893    26.264045  0.053382204   0.07543817            1 
   42000     1.208627   -3.9667745    26.976666   0.05352513  0.075373876            4 
   43000    1.1980258   -3.9744378    27.814384  0.053903845  0.075271015            1 
   44000    1.1972696    -3.993728    28.798168  0.054541984  0.075209054            3 
   45000    1.2204288   -3.9826845    29.895239  0.055361554  0.075192668            2 
   46000    1.1787525   -3.9796339    30.728425  0.055667435  0.075178598            1 
   47000    1.1949783   -4.0114889    31.397019  0.055668473  0.075098184            2 
   48000    1.1886051   -3.9850482    32.186858  0.055879962  0.074991964            3 
   49000    1.1728402   -3.9785913    32.943857  0.056026967  0.074834448            4 
   50000      1.20276   -4.0139795    33.582281  0.055970468  0.074663903            5 
   51000      1.17712   -4.0118802    34.427799  0.056254573  0.074492531            2 
   52000    1.1773319   -4.0292898    35.015188  0.056114083   0.07425933            1 
   53000    1.1860239   -4.0002334     35.85133  0.056370015  0.074004944            2 
   54000    1.1906838   -3.9864068    36.526193  0.056367581  0.073736073            2 
   55000     1.184226   -3.9975365    37.311339  0.056532331  0.073480799            1 
   56000    1.1729968   -4.0110271    38.082063  0.056669736    0.0732197            2 
   57000    1.1827699   -4.0480666    38.777808  0.056692701  0.072993822            2 
   58000     1.167735   -4.0420732    39.639959  0.056953963  0.072753137            6 
   59000    1.1730084   -3.9936635    40.413729  0.057081538  0.072541891            1 
   60000    1.1648441   -3.9896691    41.331562  0.057404947  0.072350497            1 
   61000    1.1890732   -4.0702373    42.148238   0.05757956  0.072200093            2 
   62000    1.1845081   -4.0846547    42.944108  0.057720575  0.072065226            1 
   63000    1.1649416   -4.0055082    43.894985  0.058062149  0.071929966            2 
   64000    1.1756116   -4.0542657    44.671804  0.058166411  0.071798286            2 
   65000    1.1772411   -4.0192875    45.629626   0.05849952  0.071681329            1 
   66000    1.1556789   -4.0371849    46.092323  0.058197377   0.07153743            2 
   67000    1.1640097    -4.037585    47.055918  0.058527261  0.071374476            2 
   68000    1.1294808   -4.0264214     47.59143  0.058322831  0.071198217            3 
   69000    1.1397091   -4.0370632    48.426724  0.058486381  0.071042456            2 
   70000    1.1452122   -4.0769101    49.118796  0.058474757  0.070907899            1 
   71000    1.1407321   -4.0368743    50.222775  0.058946919  0.070784974            1 
   72000    1.1424334   -4.0427023    51.053285   0.05908945  0.070683682            2 
   73000    1.1738164   -4.0535743    51.612956    0.0589189  0.070587012            2 
   74000    1.1381327   -4.0720056    52.367116  0.058971977  0.070469825            2 
   75000    1.1217651   -4.0839021    53.107726  0.059008584  0.070354294            2 
   76000    1.1351386   -4.0666064     53.75145  0.058937993  0.070214803            1 
   77000    1.1558812   -4.0896247     54.63436  0.059128095   0.07007154            4 
   78000    1.1442908   -4.0776721    55.206055  0.058980827  0.069926426            2 
   79000    1.1349818   -4.1152432    55.963213  0.059032925  0.069779217            2 
   80000    1.1450051   -4.0646546    57.191559   0.05957454  0.069661195            3 
   81000    1.1162323   -4.1119234    57.700966  0.059363134  0.069565013            4 
   82000    1.1323763   -4.0955171    58.456147  0.059406653  0.069473716            6 
   83000     1.139027   -4.0528566    59.446952  0.059685694  0.069380578            2 
   84000    1.1322664    -4.113474    60.111708  0.059634631  0.069288569            1 
   85000    1.1433843   -4.1253957     60.70111  0.059510892  0.069192595            1 
   86000    1.1329413   -4.1255687    61.548818  0.059640327  0.069094693            2 
   87000    1.1710714   -4.0999086    62.044251  0.059429359  0.068989857            2 
   88000    1.1205464   -4.0809714    62.686425  0.059362144  0.068874179            2 
   89000    1.1245609   -4.1052067    63.230236   0.05920434  0.068745775            3 
   90000    1.1122414   -4.1018059    63.995027  0.059254655  0.068608104            3 
   91000    1.1078661   -4.0864619    64.805116  0.059345344   0.06848772            4 
   92000    1.1192576    -4.075299    65.506001  0.059335146  0.068362854            1 
   93000    1.1150849   -4.0968028    66.341037  0.059445373  0.068235685            4 
   94000    1.1106283   -4.0801638    67.425118   0.05977404  0.068116766            2 
   95000    1.1060176   -4.1169312    67.782667   0.05945848  0.067997992            3 
   96000    1.1220628   -4.0848991    68.775352  0.059700826  0.067887862            2 
   97000     1.106214   -4.1463415    69.459308  0.059672944  0.067784781            2 
   98000    1.1150924   -4.1228612    70.183649  0.059679973  0.067683259            1 
   99000     1.081927   -4.1457684    70.641152  0.059462249  0.067573734            4 
  100000    1.1337833    -4.169668    71.423849  0.059519874  0.067470966            1 
  101000    1.1031278   -4.1401176     72.04204  0.059440627  0.067381473            3 
  102000    1.1040926   -4.1568677    72.842459  0.059511812   0.06727827            4 
  103000    1.0836904      -4.1478    73.811717  0.059718217  0.067175407            2 
  104000    1.1330795   -4.1569082    74.258632  0.059502109  0.067082244            5 
  105000    1.0922745   -4.1364719    75.323017  0.059780172  0.066991646            3 
  106000    1.1008221   -4.1228521    75.890847  0.059662615  0.066901703            4 
  107000    1.1153413   -4.1612078    76.094832  0.059263888   0.06679309            3 
  108000    1.0777684    -4.154876    77.171602  0.059545989  0.066699281            6 
  109000    1.1131064    -4.158052    78.292645  0.059856762   0.06660635            2 
  110000    1.1052442   -4.1667251     78.65608  0.059587939  0.066517647            5 
  111000    1.0791865   -4.1648648    79.451684  0.059648411  0.066427583            3 
  112000    1.1060221   -4.1179401    80.484739  0.059884478  0.066347878            1 
  113000    1.0893606    -4.178029    80.595378  0.059436119  0.066264547            2 
  114000    1.1080985   -4.2072833    80.993772  0.059205973  0.066164476            5 
  115000    1.0897047   -4.1718475    81.332014  0.058936242  0.066054542            3 
  116000    1.0974591   -4.1641057    82.338637   0.05915132  0.065940622            2 
  117000    1.0623454   -4.1472048    83.105493  0.059191946  0.065825351            2 
  118000    1.0587104   -4.2072591    82.928602  0.058565397  0.065698324            5 
  119000      1.06381   -4.2159746    84.048236  0.058857308  0.065572712            2 
  120000    1.0733297   -4.1631917    84.537692   0.05870673  0.065450573            5 
  121000    1.0967517   -4.1935476    85.369303  0.058794286  0.065330063            4 
  122000    1.1081909   -4.1790432    86.109976  0.058818289  0.065213518            2 
  123000    1.0749809   -4.1930497    86.576187  0.058655953   0.06508997            3 
  124000    1.0598711   -4.1921589    87.064645  0.058511186  0.064975605            4 
  125000    1.0704772   -4.1855165    87.925911  0.058617274  0.064863526            4 
  126000    1.0552047   -4.1977256    88.753312   0.05869928  0.064758839            2 
  127000    1.0622053   -4.1717814    89.971996  0.059036742  0.064658083            2 
  128000    1.0544835   -4.2010607    89.954329  0.058564016  0.064561544            2 
  129000    1.0738097   -4.2056872    90.491382  0.058456965   0.06445224            2 
  130000    1.0621217   -4.2068864    91.177509  0.058447121  0.064336934            2 
  131000    1.0555497   -4.2128076    91.957385  0.058497064  0.064225056            3 
  132000    1.0723293   -4.2071972    92.347662  0.058300292  0.064120622            3 
  133000    1.0551536   -4.1977981    92.738071   0.05810656  0.064006931            5 
  134000    1.0647293   -4.2638822    92.994876  0.057832634  0.063880781            2 
  135000    1.0521809   -4.1990436    93.775814  0.057886305  0.063753889            3 
  136000      1.05638   -4.2161913    93.728284  0.057431547  0.063623775            3 
  137000    1.0338261   -4.2201487    94.478182  0.057468481  0.063487279            2 
  138000    1.0598433   -4.2359055    94.659969  0.057161817  0.063343106            4 
  139000    1.0469255   -4.2503993    95.213756  0.057082587  0.063202697            2 
  140000    1.0579213   -4.2245688    95.936659  0.057105154  0.063060102            5 
  141000    1.0481625     -4.20577    96.430994  0.056992313  0.062917461            2 
  142000    1.0530384   -4.2491625     96.72348  0.056762606  0.062773314            5 
  143000    1.0523484   -4.2581378    97.432188  0.056778664  0.062623886            5 
  144000    1.0287852   -4.2577051    98.120126   0.05678248  0.062474377            2 
  145000    1.0339911   -4.2814269    97.972893   0.05630626  0.062320964            4 
  146000    1.0686442   -4.2562298    98.540845  0.056244774  0.062165512            3 
  147000    1.0461857   -4.2576144    99.029577  0.056139216  0.062007923            3 
  148000    1.0410338   -4.2720615    99.565176  0.056061473  0.061852043            2 
  149000    1.0493725   -4.2700907    100.23572  0.056060245  0.061700666            2 
  150000     1.035404   -4.2566488    100.93644  0.056075797  0.061548879            3 
  151000    1.0323905   -4.2733937    100.94575  0.055709573  0.061396914            4 
  152000    1.0460299   -4.2867987    101.59912   0.05570127  0.061244531            3 
  153000    1.0161671   -4.2504218    102.64464  0.055906669  0.061097263            3 
  154000    1.0171272   -4.2738096    102.82135  0.055639258  0.060953953            3 
  155000     1.020511   -4.2678299     103.7378  0.055773011  0.060806839            1 
  156000    1.0132106   -4.2544402    103.86347  0.055482621  0.060659605            4 
  157000    1.0124118    -4.291938    104.56825  0.055503316  0.060518365            4 
  158000    1.0164706   -4.2924877    105.31579  0.055546303  0.060381505            3 
  159000    1.0169144   -4.2751531    106.06334  0.055588751  0.060249455            5 
  160000    1.0198207   -4.2947621    106.82353  0.055637257  0.060123018            4 
  161000    1.0223385   -4.2579444    107.19996  0.055486519  0.059994874            3 
  162000     1.014987   -4.3021439    106.97957  0.055030645  0.059867628            2 
  163000    1.0103834   -4.2821531    108.04705  0.055238778  0.059741225            3 
  164000    1.0369119    -4.265628    108.76798  0.055268285  0.059616646            1 
  165000    0.9871003   -4.3219865       108.97  0.055035355  0.059491131            3 
  166000    1.0158118   -4.3412502    109.48718  0.054963444   0.05936555            2 
  167000    1.0168633   -4.3151013    110.06672  0.054923511  0.059237536            3 
  168000    1.0074794   -4.3222014     110.5681  0.054845288  0.059107712            3 
  169000    1.0122788   -4.2772056    111.49674  0.054978668  0.058983679            3 
  170000   0.99123736   -4.3261836    111.36542   0.05459089  0.058859302            5 
  171000   0.96549002   -4.3236866    111.33426  0.054256463  0.058734391            6 
  172000   0.99604237   -4.3244797    112.76297  0.054633221   0.05861089            3 
  173000   0.99042682   -4.3314611    113.24458  0.054549414  0.058490706            3 
  174000    0.9913276   -4.3224618    113.20768  0.054218239   0.05836674            5 
  175000   0.97687138   -4.3355987    114.01703  0.054293825   0.05824408            3 
  176000   0.98955042   -4.3609213    114.61395  0.054267967    0.0581225            5 
  177000   0.97045134   -4.3330696    115.37223  0.054318374  0.058010743            3 
  178000   0.97724813   -4.3363368    115.94175  0.054279845  0.057894021            4 
  179000   0.99630055   -4.3257989    116.43332  0.054205455  0.057779886            6 
  180000   0.97412829   -4.3068716    116.80741  0.054077503  0.057667376            2 
  181000   0.99322751   -4.3531236    117.47657   0.05408682  0.057554538            3 
  182000   0.96807948   -4.3776911    116.94998  0.053548524  0.057441447            3 
  183000    0.9934038    -4.347749    117.69485  0.053595106  0.057326594            1 
  184000   0.98562181   -4.3485606    118.40631  0.053626045  0.057212051            3 
  185000   0.97062359   -4.3746588    119.30229  0.053739771  0.057095752            1 
  186000   0.97634762   -4.3549754     119.1018   0.05336102  0.056980704            2 
  187000   0.97681701   -4.3748439    119.69627  0.053340582  0.056864393            7 
  188000   0.96516892   -4.3636995    120.32897  0.053337308  0.056749842            4 
  189000   0.97355293   -4.3459064    121.05072  0.053373332   0.05663597            2 
  190000   0.97550877   -4.3914353    120.97563  0.053059487  0.056522997            4 
  191000    0.9770303   -4.3745047    121.95163  0.053207516  0.056413373            4 
  192000   0.95304222   -4.3815616    121.80173  0.052865332  0.056301563            3 
  193000   0.94642413   -4.3713868     122.9514  0.053087823  0.056188758            5 
  194000   0.98438954   -4.3982935    123.45275  0.053029532  0.056081379            3 
  195000    0.9634069   -4.4105221    124.02942  0.053004027  0.055973329            2 
  196000   0.96961589   -4.3958125    124.16165  0.052789818  0.055865197            4 
  197000   0.95226552   -4.3994883    124.68571  0.052743532  0.055759185            3 
  198000   0.92265487   -4.4146139    124.87961  0.052558759  0.055651676            4 
  199000   0.96123989   -4.4056118    126.00709  0.052766787  0.055542775            5 
  200000   0.95580633   -4.3926398    125.85729  0.052440537  0.055436863            6 
  201000   0.94557634   -4.3742969    126.31051  0.052367542  0.055329201            3 
  202000   0.92341353   -4.4185084    126.95522  0.052374264  0.055223628            3 
  203000   0.95283922   -4.4361543    126.99812  0.052133876  0.055118649            7 
  204000   0.94708836   -4.3964011    127.99742  0.052286529  0.055011953            6 
  205000   0.94953453   -4.3927034    128.57376  0.052265757  0.054909669            4 
  206000   0.91758327   -4.4380873    128.80203  0.052104381  0.054807672            3 
  207000   0.94297344   -4.3987729    128.97043  0.051920461   0.05470326            6 
  208000   0.93292883   -4.4621961    129.36532  0.051829054  0.054599249            4 
  209000   0.93794961   -4.4049494    130.10032  0.051874129  0.054494627            3 
  210000   0.93810771   -4.4540044    129.89606  0.051546055  0.054389633            7 
  211000   0.94484278   -4.4374136    130.74275  0.051636157  0.054285816            3 
  212000   0.94442123   -4.4764865    131.12278  0.051541973  0.054178062            4 
  213000   0.90437713   -4.4742807    131.36852  0.051396135  0.054072331            4 
  214000   0.93348302   -4.4406126    131.76198  0.051309184  0.053963933            2 
  215000   0.91572179   -4.4499016    132.32536  0.051288897  0.053855135            2 
  216000   0.91283481   -4.4832524    132.12922   0.05097578  0.053746505            3 
  217000   0.92090662   -4.4355159    132.73992  0.050975391  0.053638949            3 
  218000    0.9354503   -4.4239367    133.52287  0.051040853   0.05353284            2 
  219000   0.92529522   -4.4354879    133.65401  0.050857689  0.053423814            2 
  220000   0.90610948   -4.4634056    134.17625  0.050824337  0.053314572            4 
  221000   0.91350181   -4.4754906    133.91501  0.050495854  0.053203423            4 
  222000   0.91070543   -4.4445243    134.67201  0.050552556  0.053093885            3 
  223000   0.89421765   -4.4379923    134.83716   0.05038758  0.052982013            3 
  224000   0.89417226   -4.4945822    135.11407  0.050265651  0.052870315            4 
  225000   0.91862289   -4.4648214    135.03824  0.050014162   0.05275691            5 
  226000   0.89844767   -4.4708175    135.88263  0.050104213  0.052643138            3 
  227000   0.90062032   -4.4770824    135.58289  0.049773456  0.052526635            3 
  228000   0.90308964   -4.4713092    136.27829  0.049809316  0.052409435            6 
  229000   0.90359254   -4.5083427    135.57476  0.049335794  0.052291743            3 
  230000   0.90187596   -4.4804729    136.95045  0.049619728  0.052176549           10 
  231000   0.88662277   -4.4898395    137.56649  0.049627162  0.052064774            3 
  232000   0.89198757    -4.517518    137.96445  0.049556197  0.051956442            3 
  233000   0.87943792   -4.5015294    138.39473    0.0494974  0.051847013            6 
  234000   0.90787542   -4.4889891    139.00424  0.049502935  0.051737118            3 
  235000   0.90670247   -4.5025649    138.92871  0.049265502  0.051626592            6 
  236000   0.89332356   -4.4858145    139.15291  0.049135914  0.051515048            2 
  237000   0.90340775   -4.5033915    139.76829  0.049144967   0.05140696            3 
  238000   0.87783824   -4.4867775    140.15936  0.049075408  0.051300771            5 
  239000   0.89424765   -4.5323701    140.32446  0.048927634  0.051194104            5 
  240000   0.89505473   -4.5132015    141.37741  0.049089377  0.051087819            3 
  241000   0.87740848    -4.522786    141.37312  0.048884204   0.05098246            6 
  242000   0.88484268   -4.5167465    142.18206  0.048960766  0.050876849            5 
  243000   0.87683822   -4.5436681    141.79449  0.048626367  0.050768029            6 
  244000   0.88389079   -4.5029664    141.84546  0.048444489  0.050658878            4 
  245000   0.86929755   -4.5303143    142.03645  0.048311717  0.050548102           10 
  246000   0.86029816   -4.5567212    142.34115  0.048218548  0.050438226            3 
  247000   0.87171765   -4.5249738    142.34378  0.048024217  0.050325581            6 
  248000   0.87357781   -4.5451062    143.05269  0.048068781  0.050216191            3 
  249000   0.86051244   -4.5284005     143.1549   0.04790994    0.0501086            6 
  250000   0.88093514   -4.5601387    143.72543  0.047908477  0.049999794            4 
  251000   0.86805411   -4.5645166    143.75973  0.047728994  0.049891109            5 
  252000   0.87269142   -4.5571318    144.31122  0.047721964  0.049783463            6 
  253000    0.8636441   -4.5603872    144.76043  0.047681299  0.049674907           10 
  254000   0.85505666   -4.5548221    144.37867  0.047368331  0.049566385            3 
  255000   0.85319974   -4.5816579     144.8957  0.047351536  0.049459493            6 
  256000   0.86691577   -4.5714525    145.54234  0.047377063   0.04935306            4 
  257000    0.8562704   -4.5764848    146.17483  0.047397805  0.049246697            6 
  258000   0.85876606   -4.5556798    146.35542  0.047272421  0.049141079            5 
  259000   0.83216524   -4.5822077    146.13634  0.047019416  0.049035191            5 
  260000   0.86887408   -4.5956896     146.9637  0.047103751  0.048928959            7 
  261000   0.84472038   -4.5836238    147.04532  0.046949337  0.048822307            4 
  262000    0.8526318   -4.5912023    146.97085  0.046746455  0.048715458            2 
  263000   0.83453895   -4.5937964    147.35964  0.046691901  0.048607901           11 
  264000   0.85440833   -4.6005517    147.93628  0.046697057  0.048501238            1 
  265000   0.83884715   -4.6082636     148.3245  0.046642925  0.048396102            6 
  266000    0.8590669   -4.5829682    148.81314  0.046620659  0.048292297            5 
  267000   0.82293263   -4.5984285    148.84081  0.046454684  0.048188315            4 
  268000   0.82517181   -4.5790182    148.99675  0.046329836  0.048085491            7 
  269000   0.83711595   -4.5833811     149.6652  0.046364685  0.047981953            6 
  270000   0.84663331   -4.6022843    149.51499  0.046146602  0.047880328            7 
  271000   0.84038666   -4.5879215    150.57144  0.046301182  0.047779727            3 
  272000   0.82959052    -4.610432    150.35837  0.046065678  0.047678456            4 
  273000   0.83069268   -4.5967668    151.39735  0.046214086  0.047577467            5 
  274000   0.83398017   -4.6623792    150.99488  0.045923018  0.047476566            3 
  275000   0.81375069   -4.6408617    150.72005  0.045672741  0.047375514            4 
  276000   0.82501986   -4.6209223    151.51959  0.045748668  0.047274007            5 
  277000   0.82728572   -4.6344257    151.87638  0.045690849  0.047174074           10 
  278000   0.81906408   -4.6449386    152.20169  0.045624007  0.047074452            3 
  279000   0.81438393   -4.6385334    152.26641  0.045479812  0.046974514            6 
  280000   0.82199521   -4.6625618    152.16075  0.045285938  0.046874868            4 
  281000   0.80845937   -4.6449775    152.75279  0.045300352  0.046772736            5 
  282000   0.81674179   -4.6205817      153.043  0.045225473  0.046671764            8 
  283000   0.80775347   -4.6522704    152.53421  0.044915845  0.046570099            3 
  284000    0.8059106    -4.614795     153.7293  0.045108362  0.046467552            5 
  285000   0.81180885   -4.6273983    153.38428  0.044849203  0.046364402            6 
  286000   0.81889886   -4.6585582    153.34498  0.044680939  0.046260781            8 
  287000   0.81555749   -4.6826668    153.60425  0.044600538  0.046156721            7 
  288000    0.7994948   -4.6701739    154.37592  0.044668958  0.046053073            6 
  289000   0.82656031   -4.6733506    154.83878   0.04464786  0.045952165            6 
  290000   0.81579196   -4.6733949     154.9169   0.04451635  0.045851735            3 
  291000   0.79681541   -4.6845136    154.75464  0.044316906  0.045750265            4 
  292000   0.80058466    -4.678094    154.60682  0.044122951  0.045648485            7 
  293000   0.80446649   -4.7048906      155.156  0.044128554  0.045547967            7 
  294000   0.79019235   -4.6581363    155.95626   0.04420529  0.045448297            7 
  295000   0.79485279   -4.6884739    155.70284  0.043983854  0.045348654            3 
  296000   0.79570648   -4.6748617    156.02815  0.043926845  0.045247482            3 
  297000   0.78871092   -4.6864865    155.98536  0.043766936   0.04514537            6 
  298000   0.78803632   -4.7012077    156.41237  0.043739478  0.045044061            9 
  299000   0.80572666   -4.7030883    156.74827  0.043686808   0.04494313           10 
  300000   0.78192572   -4.6946589    156.63157  0.043508768  0.044842017            9 
  301000    0.8012027   -4.7328806    156.83063  0.043419332  0.044740744            5 
  302000   0.79137336   -4.7062254    157.63604  0.043497803  0.044640901            8 
  303000   0.78189767   -4.7074318    157.55236  0.043331231  0.044540027            5 
  304000   0.77772587   -4.7197141    158.25267  0.043380665  0.044440422           10 
  305000   0.77985998   -4.7374153    157.87795  0.043136053  0.044342034            5 
  306000   0.77731977   -4.7187474    158.11046  0.043058403  0.044243477            7 
  307000   0.77835185   -4.7125561    158.81259  0.043108737   0.04414534            9 
  308000   0.76333948   -4.7284791    159.01789   0.04302432   0.04404786            8 
  309000   0.78124179   -4.7367025    159.34068  0.042972137  0.043951273            8 
  310000   0.77558999   -4.7140737    159.41237  0.042852787  0.043854805           15 
  311000    0.7589244   -4.7237373    159.61448  0.042769153  0.043758956            4 
  312000   0.77826482   -4.7222321    159.92185  0.042714169  0.043662225            6 
  313000   0.76937397   -4.7315536    159.95267  0.042585907  0.043565119            8 
  314000   0.77877716   -4.7324641    160.14524  0.042501392   0.04346799            6 
  315000   0.76178052   -4.7449152    160.06009  0.042343939  0.043370537            6 
  316000   0.76931913   -4.7703102    159.56528   0.04207945  0.043271695            4 
  317000   0.76430645   -4.7479667    160.18245  0.042108952  0.043172767            9 
  318000   0.77018893   -4.7740968    160.20652   0.04198284  0.043073711           10 
  319000   0.75519632    -4.737213    160.33008  0.041883511  0.042976179            8 
  320000   0.75010996   -4.7766992    160.36313  0.041761233  0.042877726            8 
  321000   0.78356317   -4.7732629     161.0546  0.041810645  0.042779511            8 
  322000   0.74999054   -4.7598129    160.95092  0.041653964  0.042681564            6 
  323000   0.75404164   -4.7909211    161.20787  0.041591297   0.04258347            9 
  324000   0.75275946   -4.7684595    161.37822  0.041506743  0.042486185            4 
  325000   0.74246303   -4.7720487    161.80517  0.041488506  0.042389454            4 
  326000   0.74023166    -4.796364    161.32092  0.041237453  0.042291747           10 
  327000   0.75198699   -4.7971189    161.74915  0.041220477  0.042194809            4 
  328000   0.74160021   -4.7844708    162.04198  0.041169202  0.042098454            4 
  329000    0.7559954   -4.7898263    162.01378  0.041036926  0.042002265           10 
  330000   0.74455368   -4.8063685    162.78036   0.04110615  0.041905221            4 
  331000   0.75619429   -4.7977163    162.62853  0.040943739  0.041807713            5 
  332000   0.73733187   -4.8110026    162.49257  0.040786287  0.041710809           11 
  333000   0.73829159   -4.7810216    162.72252  0.040721352  0.041613312            5 
  334000   0.74013441    -4.797478    162.77491  0.040612502  0.041515794            7 
  335000   0.72089481   -4.8109399    162.54489  0.040434051  0.041418486            4 
  336000   0.73381401   -4.8036825    163.27969  0.040495954   0.04132057            8 
  337000   0.70740212     -4.80985    162.43474  0.040166849  0.041221528           10 
  338000   0.73253881   -4.7934515    162.78226  0.040133694  0.041122196           11 
  339000   0.72817472   -4.8179951    162.99994  0.040068815  0.041023809            9 
  340000   0.73037331   -4.8382565    163.51007  0.040075997  0.040925644            6 
  341000   0.71593026   -4.8205642    163.26626  0.039898889  0.040827625           12 
  342000   0.72805368   -4.8559323    163.43295  0.039822843  0.040728912           10 
  343000   0.72248392   -4.8267889    163.45656  0.039712477  0.040630803            8 
  344000   0.73070083   -4.8262356    163.91133  0.039707201  0.040533234           11 
  345000    0.7007333    -4.848268    163.95919  0.039603668  0.040435093            4 
  346000    0.7089753   -4.8571789    163.66581  0.039418548  0.040337122            6 
  347000   0.71297633   -4.8470624    164.09353  0.039407668  0.040239568           11 
  348000   0.72272514   -4.8488037    164.46287  0.039382872  0.040142318            5 
  349000    0.7155048   -4.8723088    164.16265  0.039198341   0.04004469           13 
  350000   0.70131128   -4.8594722    164.06798  0.039063806  0.039947491           15 
  351000   0.73116637   -4.8709189    165.02412  0.039179515  0.039850863           11 
  352000   0.69993212   -4.8678933    164.71477  0.038994973  0.039754109            7 
  353000   0.71869244   -4.8789007    164.66327  0.038872349  0.039657669            8 
  354000   0.70096738   -4.8704313    164.96849  0.038834389  0.039560595           17 
  355000   0.69493345   -4.8852103    165.64499  0.038883799   0.03946472            8 
  356000   0.69028854   -4.8559917    165.35269  0.038706155  0.039369194            5 
  357000   0.69125809   -4.8857946    165.72543  0.038684742  0.039273292           14 
  358000   0.70127811   -4.8741641    165.40941   0.03850312  0.039176846            4 
  359000   0.70461964   -4.9041387    165.41902  0.038398101  0.039080571            9 
  360000   0.69338883   -4.8841143    165.92049  0.038407522  0.038984381            8 
  361000   0.67843306   -4.8966319    165.99709  0.038318811  0.038888882           15 
  362000   0.69961791   -4.8825122     166.2514  0.038271502  0.038794399            4 
  363000   0.68631471   -4.9008981    166.75494  0.038281667  0.038700498            5 
  364000   0.68983704   -4.8955339    166.48592  0.038114909  0.038606883            9 
  365000   0.68609993   -4.9013415    166.62334  0.038041859  0.038513971           10 
  366000   0.67803368   -4.8867935    166.94575  0.038011328   0.03842076           11 
  367000   0.66537294   -4.9097567    167.07242  0.037936516  0.038328193            7 
  368000   0.68964713   -4.9133237    166.86362  0.037786145  0.038235971            7 
  369000   0.69517794   -4.9398825    166.38158  0.037574883  0.038143049           12 
  370000   0.66940703   -4.9305612    166.70002   0.03754505  0.038050146            6 
  371000   0.68213629   -4.9305778    167.08913  0.037531252  0.037957505            9 
  372000   0.67948332   -4.9218956    167.22622   0.03746107    0.0378645            4 
  373000   0.67674993   -4.9504256    166.79617   0.03726456  0.037772006            6 
  374000   0.66921852   -4.9376138    167.72868  0.037372701  0.037679488            7 
  375000   0.65467053   -4.9343493     167.7749  0.037283312  0.037588217            9 
  376000   0.67494436    -4.948443    167.44765  0.037111625  0.037496995            6 
  377000   0.67060267   -4.9541985    168.15948  0.037170531  0.037406288           12 
  378000   0.65772897   -4.9446147    168.07084  0.037052653  0.037315135            7 
  379000   0.66001251   -4.9582789    167.75742  0.036885977  0.037224385           10 
  380000   0.65237627   -4.9512168    168.00208  0.036842562   0.03713333           24 
  381000   0.65728108   -4.9552011    168.20102  0.036789374  0.037042239           13 
  382000   0.65780231   -4.9678694    167.86264   0.03661925  0.036950879           16 
  383000   0.66686178   -4.9803579     168.0254  0.036559051  0.036860016            9 
  384000   0.66289141   -4.9808586    168.31494  0.036526679  0.036769103           11 
  385000   0.64665523   -4.9632796    169.08452   0.03659838  0.036678723           12 
  386000   0.65382572   -4.9765319     168.6456  0.036408808  0.036588494            4 
  387000   0.65753744   -4.9699835    168.93983  0.036378086  0.036498662           12 
  388000   0.64572468   -4.9735879     168.7689  0.036247615  0.036409273           16 
  389000    0.6435364   -4.9926098    168.51136  0.036099262  0.036319677            9 
  390000   0.65379718   -4.9973263    168.70052   0.03604712  0.036229301            6 
  391000   0.64071686   -5.0013643    168.91767  0.036001208  0.036139577            5 
  392000   0.64288879   -4.9805104    169.43922  0.036020243  0.036050312           11 
  393000   0.64382023    -4.995621    168.73612  0.035779499  0.035961469            9 
  394000   0.63558463   -4.9634933    168.93741  0.035731263  0.035873207            8 
  395000   0.62926441   -5.0028022    168.99842  0.035653675   0.03578531            8 
  396000   0.63490127   -4.9928285    169.00532  0.035565093  0.035696879            8 
  397000   0.63373403   -5.0210605    169.20491  0.035517402  0.035608199           22 
  398000   0.63839026   -5.0450828     169.2927  0.035446546  0.035519387           10 
  399000   0.61921216   -5.0148416    169.25603  0.035350048   0.03543137            8 
  400000   0.62685796   -5.0147791    169.96473  0.035409318  0.035343492            8 
  401000   0.61674216   -5.0087397    169.80673  0.035288181  0.035255462            8 
  402000   0.62150405   -5.0243449    169.36398  0.035108619  0.035167662           12 
  403000   0.62876914   -5.0446244    169.95217  0.035143129  0.035079875           15 
  404000   0.62393485   -5.0561711    169.38814  0.034939799  0.034992614            7 
  405000   0.61546576   -5.0377195    170.32979  0.035047281  0.034905845           20 
  406000   0.60626705   -5.0543447    169.94238  0.034881441  0.034819287            8 
  407000   0.61600424   -5.0678408     169.4699  0.034698996  0.034732433           10 
  408000   0.62480278   -5.0624355    169.39182  0.034598002  0.034645165           12 
  409000   0.60787358   -5.0491841    170.08538  0.034654722  0.034558537           23 
  410000   0.62759681   -5.0588705    170.21493   0.03459653  0.034472188           14 
  411000   0.61234965    -5.056678    170.58646  0.034587685   0.03438619           20 
  412000   0.59864006   -5.0530271    170.32533  0.034450917  0.034300492            7 
  413000   0.61050948   -5.0563846    170.07757  0.034317507   0.03421471           11 
  414000   0.60257846   -5.0692469    170.39841  0.034299197  0.034129128           11 
  415000   0.60874589    -5.093861    170.43458  0.034223811  0.034043478           25 
  416000    0.6103127   -5.0755733     170.3418  0.034122957  0.033957812           31 
  417000   0.59131048   -5.1092964    170.08578  0.033989963  0.033872553           16 
  418000   0.59808628   -5.0598966    170.45843  0.033982941  0.033786986           13 
  419000    0.5905441    -5.079208    170.33958  0.033878198  0.033702187           16 
  420000    0.5994626   -5.0877016    170.10777  0.033751541  0.033617534           12 
  421000   0.58770668   -5.1051475    169.75948  0.033602431  0.033532604            7 
  422000   0.58938816   -5.0999636    170.63112  0.033694929  0.033447908           10 
  423000   0.59191669   -5.0920563     170.5643  0.033602108  0.033362875           14 
  424000   0.59876188   -5.0892819    170.87233  0.033583397  0.033278206            4 
  425000   0.57957944    -5.124425    170.49958   0.03343129  0.033193786           13 
  426000   0.58982989   -5.1153806    170.78435  0.033408519  0.033109611           18 
  427000   0.57961021    -5.104179    171.23279  0.033417796  0.033026347            6 
  428000   0.60019954   -5.1073568    171.13394  0.033320472  0.032943505           11 
  429000   0.58269887   -5.1240149    171.48749  0.033311477  0.032860544           13 
  430000    0.5807514   -5.1237196    171.02255  0.033143904  0.032778305           12 
  431000   0.57805012   -5.1105502    171.06662  0.033075526  0.032696458           29 
  432000   0.56856808   -5.1335116    171.42521  0.033068134  0.032614659            7 
  433000   0.56998051   -5.1384243    171.12197  0.032933404  0.032532704           12 
  434000    0.5795133   -5.1345562    171.47097  0.032924534  0.032451271           18 
  435000   0.57213106   -5.1438912    171.19674   0.03279631  0.032369703           21 
  436000   0.56693114   -5.1418656    171.35402  0.032751151   0.03228823           24 
  437000   0.56762339    -5.166213    171.13196  0.032633859  0.032206665           17 
  438000   0.56823938   -5.1521006    171.18716  0.032569856  0.032124916           17 
  439000   0.58181735   -5.1594822    171.22619  0.032503074  0.032043273           13 
  440000    0.5650099   -5.1683568    171.04467  0.032394824  0.031962219           10 
  441000   0.55381126   -5.1536372    171.34083  0.032377329  0.031881624           13 
  442000   0.56868651    -5.175755    171.23542  0.032284204  0.031800797           15 
  443000   0.55878632   -5.1823791    170.90302  0.032148799  0.031720065           13 
  444000   0.56534396   -5.1896272    171.61712   0.03221042  0.031639591           18 
  445000   0.56266786   -5.1826886    171.44582  0.032105959  0.031559545           13 
  446000   0.54975274   -5.1808864    171.21238  0.031990354  0.031479455           20 
  447000   0.55102389   -5.1826368     171.5862  0.031988479  0.031399624           25 
  448000   0.54309227   -5.1854832    171.71523  0.031941078  0.031319837           69 
  449000   0.55836932   -5.2073745    171.46753  0.031823965  0.031240193           32 
  450000   0.54703605   -5.2192369    170.98851   0.03166454  0.031160869           24 
  451000   0.54635893    -5.196524    171.62633  0.031712181  0.031081227           23 
  452000   0.54302401   -5.1898049    171.38093  0.031596779  0.031001818           29 
  453000   0.54587161   -5.1913613    171.71952  0.031589316  0.030922731           22 
  454000   0.55224763   -5.2162064    171.60311  0.031498368  0.030843398           33 
  455000   0.54345986   -5.2098966    171.53661  0.031416962  0.030764456            8 
  456000   0.54516065   -5.2261816    171.69971  0.031377871  0.030685461           25 
  457000   0.52409712     -5.22648    171.25077  0.031227347  0.030606632           21 
  458000   0.54187528   -5.2282128     171.4846  0.031201709    0.0305281           18 
  459000   0.54637869   -5.2336286    171.87582   0.03120476    0.0304495           28 
  460000   0.52667658   -5.2450217    171.27663  0.031028375  0.030371283           46 
  461000   0.52301042   -5.2745437    171.40549  0.030984362  0.030292561           54 
  462000   0.53173206   -5.2464448    171.43514  0.030922644  0.030214138           52 
  463000   0.53170509   -5.2286735    171.78955  0.030919645  0.030136055           39 
  464000   0.53189092   -5.2476174    171.73556  0.030843312  0.030058342           28 
  465000   0.52037566   -5.2542028    171.52954   0.03074006  0.029980553           28 
  466000   0.51625546   -5.2514041    171.30521  0.030633979  0.029903058           22 
  467000   0.52690542   -5.2553165    171.41906  0.030588697  0.029825809           34 
  468000   0.52770509   -5.2675873    171.58436  0.030552771  0.029747979           24 
  469000   0.52233029    -5.256845    171.23561   0.03042566  0.029670356           59 
  470000   0.50758104    -5.276461    171.18474  0.030351904  0.029592573           36 
  471000     0.515775   -5.2757893    170.87706  0.030233025  0.029514897           31 
  472000   0.52263257   -5.2705808    171.42037  0.030264895  0.029437616           21 
  473000   0.51413998   -5.2629795    171.47434  0.030210419   0.02936034           36 
  474000    0.5227672   -5.2713355    171.03015  0.030068592  0.029283129           16 
  475000   0.50584967   -5.2941229    170.98309  0.029997033  0.029206023           19 
  476000   0.51709239   -5.2809603    170.88275  0.029916448   0.02912891           24 
  477000   0.51600671   -5.2909034     170.8942   0.02985573  0.029051955           28 
  478000   0.49793378    -5.304604    171.20402  0.029847284   0.02897539           30 
  479000   0.50176273   -5.3001841    171.07226   0.02976205  0.028899075           17 
  480000   0.50399081   -5.2906446    171.29895  0.029739401  0.028823061           20 
  481000   0.49112629     -5.30821    171.18189  0.029657292  0.028747302           21 
  482000   0.50550777   -5.2993058     171.2029  0.029599395  0.028671573           25 
  483000   0.49459185   -5.3096627    171.01135  0.029505065   0.02859601           16 
  484000   0.49606001   -5.3029473    170.58466  0.029370637  0.028520465           27 
  485000   0.49005548   -5.3087205    171.18911  0.029413936  0.028445394           28 
  486000   0.49157964   -5.3081993    170.58772  0.029250295   0.02837023           37 
  487000   0.50061042   -5.3175448    171.16804  0.029289534  0.028295269           88 
  488000   0.49274119    -5.321024    170.88611  0.029181372  0.028220438           58 
  489000   0.47722035   -5.3103339    171.21682  0.029178054  0.028145662           41 
  490000   0.48912357   -5.3275846    171.02175  0.029085331  0.028071136           40 
  491000   0.48898603    -5.335939    171.19057  0.029054748  0.027996909           54 
  492000   0.48226138   -5.3422513    170.94072  0.028953374  0.027922817           36 
  493000   0.47679745   -5.3444603    170.77454  0.028866555  0.027848897           16 
  494000   0.47771635   -5.3493425    170.95313  0.028838247    0.0277752           23 
  495000   0.47511179   -5.3548758     170.8149  0.028756718  0.027701555           37 
  496000   0.47789796   -5.3669457    170.69383  0.028678399  0.027628019           43 
  497000   0.47207754   -5.3669112    170.80742  0.028639741  0.027554506           43 
  498000   0.47333816   -5.3754622    170.83449  0.028586762  0.027481314           15 
  499000    0.4669826   -5.3632148     170.9724  0.028552504   0.02740813           22 
  500000   0.47388622   -5.3545684    170.48636  0.028414393  0.027335084           27 
  501000   0.46436716   -5.3689034    170.68376  0.028390512  0.027261831           21 
  502000   0.47022744   -5.3920815    170.49332  0.028302345  0.027188727           16 
  503000   0.45732662   -5.3794987    170.33828   0.02822039  0.027115741           22 
  504000   0.46595854    -5.389943    170.54411   0.02819843  0.027043082           14 
  505000   0.46498981   -5.3829636    170.21976  0.028089069  0.026970389           66 
  506000   0.45396322    -5.390608    170.33973  0.028053316  0.026897896           35 
  507000   0.45901157   -5.3988316    170.12727  0.027963061   0.02682553           31 
  508000   0.45479838   -5.3904587    169.98307  0.027884362  0.026753363           27 
  509000   0.43991792   -5.3914631    170.45891  0.027907483  0.026681105           40 
  510000   0.44821497   -5.4017069    170.06428  0.027788282  0.026609223           27 
  511000   0.45402309   -5.4166913    170.16657  0.027750581  0.026537478           31 
  512000    0.4588376   -5.4060588    170.32582  0.027722301  0.026465945           26 
Loop time of 1265.43 on 48 procs for 500000 steps with 4000 atoms

Performance: 68277.188 tau/day, 395.123 timesteps/s
99.4% CPU use with 48 MPI tasks x no OpenMP threads

MPI task timing breakdown:
Section |  min time  |  avg time  |  max time  |%varavg| %total
---------------------------------------------------------------
Pair    | 83.478     | 92.065     | 99.371     |  28.1 |  7.28
Neigh   | 8.5731     | 8.8827     | 9.5751     |   6.9 |  0.70
Comm    | 76.454     | 85.431     | 93.611     |  31.8 |  6.75
Output  | 0.89764    | 0.89863    | 0.92632    |   0.4 |  0.07
Modify  | 1062.8     | 1066.5     | 1070       |   5.2 | 84.28
Other   |            | 11.67      |            |       |  0.92

Nlocal:        83.3333 ave          88 max          76 min
Histogram: 1 0 3 5 5 10 5 7 6 6
Nghost:        2306.25 ave        2323 max        2294 min
Histogram: 8 1 6 6 10 4 4 6 1 2
Neighs:        15634.9 ave       16753 max       13741 min
Histogram: 2 1 2 3 4 6 10 8 8 4
FullNghs:      31274.1 ave       33378 max       28939 min
Histogram: 2 2 4 7 9 5 7 5 3 4

Total # of neighbors = 1501155
Ave neighs/atom = 375.28875
Neighbor list builds = 26928
Dangerous builds = 0

#clear
#
#next RN
#
#jump SELF
Total wall time: 0:21:09
