
units lj                  # Use reduced LJ style units
atom_style atomic         # Uncharged point particles
atom_modify map hash      # Needed for indexing of clusters etc
                          # Used to be able to find where atoms are in relation to each other.

lattice fcc 1.0 spacing 1 1 1
Lattice spacing in x,y,z = 1.5874011 1.5874011 1.5874011
region box block 0 10 0 10 0 10 units lattice
create_box 2 box
Created orthogonal box = (0.0000000 0.0000000 0.0000000) to (15.874011 15.874011 15.874011)
  3 by 4 by 4 MPI processor grid
create_atoms 1 box
Created 4000 atoms
  using lattice units in orthogonal box = (0.0000000 0.0000000 0.0000000) to (15.874011 15.874011 15.874011)
  create_atoms CPU = 0.003 seconds
set type 1 type/fraction 2 0.11 78393
Setting atom values ...
  470 settings made for type/fraction
mass 1 1.0
mass 2 1.0
pair_style lj/cut  3.5
pair_modify tail  yes
pair_coeff 1  1  1.0  1.0   # Intearaction between 1 and 1 set with epsilon = 1 and sigma = 1
pair_coeff 1  2  1.5  0.8
pair_coeff 2  2  0.5  0.88

write_data data.0
System init for write_data ...
Neighbor list info ...
  update every 1 steps, delay 10 steps, check yes
  max neighbors/atom: 2000, page size: 100000
  master list distance cutoff = 3.8
  ghost atom cutoff = 3.8
  binsize = 1.9, bins = 9 9 9
  1 neighbor lists, perpetual/occasional/extra = 1 0 0
  (1) pair lj/cut, perpetual
      attributes: half, newton on
      pair build: half/bin/atomonly/newton
      stencil: half/bin/3d
      bin: standard
WARNING: Not all mixed pair coeffs generated from mixing. Use write_data with 'pair ij' option to store all pair coeffs. (../write_data.cpp:312)


#############################
#   M E L T   S Y S T E M   #
#############################

velocity all create 2.4 8172548 mom yes dist gaussian # Assign velocities
                                                    # Temperature 2.4, random number seed, zero linear momentum
                                                                                # Gaussian distribution

timestep 0.002   # simulation timestep
thermo 1000       # output thermodynamic data every 1000 steps bf 100

# Define a fix  in this case with index 1 applied to all
# particles in the simulation. This fix is for simulations
# in the anisotropic NPT ensemble. Note that we use the MTK
# correction.
fix 1 all npt temp 2.4 2.4 0.1 iso 5.68 5.68 0.5 mtk yes tchain 5 pchain 5 # Use NPT ensemble
                                                                         # Set temperature and pressure and damping
                                                                         # Numbers of thermostats in chain and in barostat
run 10000          # run for 10000 steps
Per MPI rank memory allocation (min/avg/max) = 3.642 | 3.644 | 3.648 Mbytes
Step Temp E_pair E_mol TotEng Press Volume 
       0          2.4   -7.6169122            0   -4.0178122   -3.1065461         4000 
    1000    2.4058227   -4.6679327            0   -1.0601009    5.5949584    4783.6681 
    2000    2.4255722   -4.5931996            0  -0.95575094    5.9786582    4793.6792 
    3000     2.373913   -4.6194577            0   -1.0594784     5.808262    4787.2837 
    4000    2.3987189   -4.6432336            0   -1.0460548    5.7762027    4776.9869 
    5000    2.4269129   -4.6005827            0  -0.96112352    6.0562862    4776.0538 
    6000    2.4204556   -4.6120916            0  -0.98231587    5.5403357    4841.1425 
    7000    2.3895457   -4.6720456            0   -1.0886231      5.61393    4783.3369 
    8000     2.382481   -4.6270836            0   -1.0542555    5.4188411    4834.8958 
    9000    2.4207754   -4.6098676            0  -0.97961231    5.4616116      4842.97 
   10000    2.3224111   -4.6087419            0   -1.1259961    5.4492666    4844.9883 
Loop time of 2.23481 on 48 procs for 10000 steps with 4000 atoms

Performance: 773221.644 tau/day, 4474.662 timesteps/s
99.7% CPU use with 48 MPI tasks x no OpenMP threads

MPI task timing breakdown:
Section |  min time  |  avg time  |  max time  |%varavg| %total
---------------------------------------------------------------
Pair    | 0.90741    | 0.97819    | 1.0724     |   4.3 | 43.77
Neigh   | 0.19088    | 0.20047    | 0.22183    |   1.6 |  8.97
Comm    | 0.67799    | 0.79768    | 0.89008    |   5.4 | 35.69
Output  | 0.00024466 | 0.00025049 | 0.0003262  |   0.0 |  0.01
Modify  | 0.21536    | 0.24393    | 0.28025    |   3.6 | 10.91
Other   |            | 0.0143     |            |       |  0.64

Nlocal:        83.3333 ave          92 max          74 min
Histogram: 2 1 5 8 2 7 15 4 2 2
Nghost:        1446.02 ave        1471 max        1416 min
Histogram: 1 3 3 2 11 7 8 7 3 3
Neighs:        7859.73 ave        8947 max        6478 min
Histogram: 1 1 3 5 9 7 10 6 4 2

Total # of neighbors = 377267
Ave neighs/atom = 94.316750
Neighbor list builds = 910
Dangerous builds = 211

# Equilibrate just above the melting temperature to avoid step fn in T

fix 1 all npt temp 1.25 1.25 0.1 iso 5.68 5.68 0.5 mtk yes tchain 5 pchain 5
run 2000
Per MPI rank memory allocation (min/avg/max) = 3.642 | 3.644 | 3.648 Mbytes
Step Temp E_pair E_mol TotEng Press Volume 
   10000    2.3224111   -4.6087419            0   -1.1259961    5.4492666    4844.9883 
   11000    1.2476286   -6.2281598            0   -4.3571847    5.7722983     3946.639 
   12000    1.2673138   -6.2129086            0   -4.3124132    5.5366891    3965.3676 
Loop time of 0.479331 on 48 procs for 2000 steps with 4000 atoms

Performance: 721004.763 tau/day, 4172.481 timesteps/s
99.7% CPU use with 48 MPI tasks x no OpenMP threads

MPI task timing breakdown:
Section |  min time  |  avg time  |  max time  |%varavg| %total
---------------------------------------------------------------
Pair    | 0.20476    | 0.22817    | 0.24827    |   1.9 | 47.60
Neigh   | 0.031506   | 0.033225   | 0.034874   |   0.4 |  6.93
Comm    | 0.14882    | 0.16383    | 0.18918    |   2.2 | 34.18
Output  | 5.0647e-05 | 5.2708e-05 | 6.6965e-05 |   0.0 |  0.01
Modify  | 0.039949   | 0.049169   | 0.056922   |   2.3 | 10.26
Other   |            | 0.004883   |            |       |  1.02

Nlocal:        83.3333 ave          93 max          74 min
Histogram: 1 4 3 6 9 12 6 5 1 1
Nghost:        1661.65 ave        1693 max        1632 min
Histogram: 1 6 1 10 6 8 7 6 2 1
Neighs:        9616.17 ave       10921 max        8538 min
Histogram: 3 6 5 3 9 11 6 3 0 2

Total # of neighbors = 461576
Ave neighs/atom = 115.39400
Neighbor list builds = 142
Dangerous builds = 9

#############################
# L I N E A R  Q U E N C H  #
#############################

# Define solid atoms. This closely follows ten Wolde  Ruiz-Montero and Frenkel  Faraday Discuss  1996  104  93-110
# Compute components of the per-atom q6 vector
compute q6 all orientorder/atom degrees 1 6 components 6 nnn NULL cutoff 1.3 # compute the Q6 parameter.
                                                                             # Use all neighbours within 1.3 unit cell.

# get number of connections
compute coord_number all coord/atom orientorder q6 0.5

# An atom is solid if it has 8 or more connections (of a possible 14)
variable is_solid atom c_coord_number>=8
group solid dynamic all var is_solid    # Must be dynamic to update
dynamic group solid defined

# do clustering
compute cluster solid cluster/atom 1.3 # Create a cluster where all atoms within are solid and max 1.3 units from another member

# define chunks one chunk per cluster
compute clus_chunks solid chunk/atom c_cluster nchunk every compress yes  # Says which atoms are in which chunk

# count the size of each chunk
compute size_chunks solid property/chunk clus_chunks count


# Find the maximum entry in the vector of chunk sizes
variable max_n equal max(c_size_chunks)


# Thermo style which includes this variable
# thermo_style custom step temp pe vol v_max_n

thermo ${N}  # Print the thermo information every 100 steps
thermo 1000  

# Reset the npt fix at a lower temperature (below freezing)
fix 1  all npt temp  ${temp} ${temp}  0.1  iso  5.68  5.68  0.5  mtk yes tchain  5  pchain  5
fix 1  all npt temp  0.45 ${temp}  0.1  iso  5.68  5.68  0.5  mtk yes tchain  5  pchain  5
fix 1  all npt temp  0.45 0.45  0.1  iso  5.68  5.68  0.5  mtk yes tchain  5  pchain  5

dump dmp2 all dcd ${N} traj.dcd
dump dmp2 all dcd 1000 traj.dcd


compute msd all msd com yes
variable twopoint equal c_msd[4]/6/(step*dt+1.0e-6)
fix 9 all vector 10 c_msd[4]
variable fit equal slope(f_9)/6/(10*dt)
thermo_style custom step temp pe c_msd[4] v_twopoint v_fit v_max_n

fix 1 all npt temp 1.25 ${temp} 0.1 iso 5.68 5.68 0.5 mtk yes tchain 5 pchain 5
fix 1 all npt temp 1.25 0.45 0.1 iso 5.68 5.68 0.5 mtk yes tchain 5 pchain 5
run 2000000 # 5000000  # Run for this many steps
Neighbor list info ...
  update every 1 steps, delay 10 steps, check yes
  max neighbors/atom: 2000, page size: 100000
  master list distance cutoff = 3.8
  ghost atom cutoff = 3.8
  binsize = 1.9, bins = 9 9 9
  4 neighbor lists, perpetual/occasional/extra = 1 3 0
  (1) pair lj/cut, perpetual
      attributes: half, newton on
      pair build: half/bin/atomonly/newton
      stencil: half/bin/3d
      bin: standard
  (2) compute orientorder/atom, occasional
      attributes: full, newton on
      pair build: full/bin/atomonly
      stencil: full/bin/3d
      bin: standard
  (3) compute coord/atom, occasional
      attributes: full, newton on
      pair build: full/bin/atomonly
      stencil: full/bin/3d
      bin: standard
  (4) compute cluster/atom, occasional
      attributes: full, newton on
      pair build: full/bin/atomonly
      stencil: full/bin/3d
      bin: standard
Per MPI rank memory allocation (min/avg/max) = 9.753 | 9.758 | 9.762 Mbytes
Step Temp PotEng c_msd[4] v_twopoint v_fit v_max_n 
   12000    1.2673138   -6.2129086 3.1554436e-30 2.1912802e-32 8.3333333e+20            3 
   13000    1.2433525   -6.2388185   0.54460537   0.00349106  0.045017744            2 
   14000    1.2522867   -6.2308758    1.0777378 0.0064151056  0.043740507            2 
   15000    1.2373339   -6.2167237    1.6518838 0.0091771319  0.044963468            2 
   16000      1.25691   -6.2532867    2.1795657  0.011351904  0.045113505            1 
   17000      1.23556   -6.1956726    2.7410381  0.013436461  0.045365854            2 
   18000    1.2010375   -6.2693561    3.1861513    0.0147507  0.044924072            1 
   19000    1.2671073   -6.2416879    3.7310005  0.016364037  0.044295812            1 
   20000    1.2410169   -6.2990908    4.2564263  0.017735109  0.044037136            4 
   21000    1.2269787   -6.2659672    4.7363697  0.018795117  0.043918524            2 
   22000    1.2568418   -6.2439996    5.2948609  0.020056291  0.043789752            2 
   23000    1.2518707   -6.2578268    5.9389098  0.021517789  0.044131398            4 
   24000     1.268143   -6.2764783    6.5316795  0.022679442  0.044605889            2 
   25000     1.220241   -6.2325374    7.1898613  0.023966204  0.044985996            4 
   26000    1.2468939   -6.2584595      7.75907  0.024868814  0.045448477            3 
   27000     1.265398   -6.2356299    8.3897133  0.025894177  0.045878391            1 
   28000    1.2262189   -6.2439486    8.8795784  0.026427316  0.046203988            2 
   29000    1.2346411   -6.2542495    9.4775078  0.027234217  0.046359945            3 
   30000    1.2260639   -6.2702504    10.004141   0.02778928  0.046482785            2 
   31000    1.2267704   -6.2760088    10.626206  0.028565068  0.046600576            3 
   32000    1.2735633   -6.2499542    11.092565  0.028886889  0.046636148            3 
   33000    1.2854407   -6.2472834    11.488049  0.029010223  0.046549817            2 
   34000    1.2657124   -6.2525617    11.905194  0.029179397  0.046314786            1 
   35000     1.237846   -6.2885689      12.5029   0.02976881  0.046129521            3 
   36000    1.2318906   -6.2595033    13.071783  0.030258757  0.046008773            3 
   37000    1.2587591   -6.2573159    13.631982  0.030702662  0.045902293            8 
   38000    1.2177704   -6.2834966    14.030457  0.030768545  0.045804217            1 
   39000    1.2490808   -6.2687729    14.510906  0.031006208  0.045650509            2 
   40000    1.2486246   -6.3005535    15.083385  0.031423718  0.045473878            2 
   41000    1.2280762   -6.2869074      15.6271  0.031762398  0.045373623            3 
   42000    1.2497537     -6.23568    16.212041  0.032166748  0.045301609            2 
   43000     1.232752   -6.2852963    16.774871   0.03250944  0.045218798            2 
   44000    1.2061147   -6.2523555    17.341275  0.032843323  0.045157547            2 
   45000    1.2278666   -6.2641941    17.812038  0.032985255  0.045117198            2 
   46000     1.263822   -6.2800651    18.283826  0.033122873  0.045056417            1 
   47000    1.2239695   -6.2393972    18.590786  0.032962387  0.044932229            1 
   48000    1.2378626     -6.27335    18.986304  0.032962334  0.044763657            4 
   49000    1.2240548   -6.2777071    19.542964  0.033236333  0.044607482            2 
   50000    1.2446634   -6.2847381     20.10264    0.0335044  0.044484648            3 
   51000    1.2261218   -6.3025269    20.649387  0.033740828  0.044398704            2 
   52000    1.2307342   -6.2720557    21.219939  0.034006311  0.044322809            3 
   53000    1.2185402   -6.3296918    21.844529  0.034346743  0.044266294            2 
   54000    1.2338308   -6.2530863     22.42986  0.034613981   0.04420898            4 
   55000    1.2212854   -6.2964047    22.856359  0.034630846  0.044181576            2 
   56000    1.2520708   -6.2627279    23.524071  0.035006058   0.04415461            2 
   57000     1.236194   -6.2814178    23.885465   0.03492027   0.04413185            4 
   58000    1.2372152    -6.263949    24.580372  0.035316626  0.044118323            2 
   59000     1.228926   -6.3188965    25.048253  0.035378888  0.044119852            4 
   60000    1.2175389   -6.2680715    25.540451  0.035472848  0.044117699            3 
   61000     1.199532   -6.2890169     26.00316  0.035523443   0.04409479            1 
   62000    1.2079691   -6.2838516    26.580308   0.03572622  0.044077903            3 
   63000    1.2377299   -6.2585637    27.154152   0.03591819  0.044050695            2 
   64000    1.2534588   -6.2881131    27.401632  0.035679208  0.044023128            1 
   65000    1.1956426    -6.280584     28.05468  0.035967538  0.043970018            3 
   66000    1.2491338   -6.2821566    28.589975  0.036098454  0.043941298            4 
   67000    1.2329211   -6.3254666      29.2154  0.036337562    0.0439264            2 
   68000    1.2221481   -6.3081068    29.712892  0.036412857  0.043926322            3 
   69000    1.2225761   -6.2902573    30.075057  0.036322533  0.043907753            2 
   70000    1.2108092   -6.2582421    30.664219  0.036505022  0.043879166            4 
   71000     1.230855   -6.2490641    31.167262  0.036581293  0.043856548            2 
   72000    1.2317496   -6.2719434    31.609486  0.036585052  0.043827902            5 
   73000    1.2073139   -6.2998724    32.295135  0.036866593   0.04380579            3 
   74000    1.2394203   -6.2514243    32.682028  0.036804085   0.04379002            3 
   75000    1.2484468   -6.2648715    33.505428  0.037228253  0.043780671            2 
   76000    1.2313964   -6.2862071    33.857766  0.037124743  0.043779289            3 
   77000    1.2246322   -6.3305169    34.313782  0.037136127  0.043779373            3 
   78000    1.2319098   -6.2828801    34.878906  0.037263788  0.043774035            3 
   79000    1.2163135   -6.3061841    35.274347  0.037209227  0.043757803            2 
   80000    1.2468133   -6.2946081    35.636402  0.037121252  0.043730612            3 
   81000    1.2221998   -6.2879222    36.222529  0.037265976  0.043697316            7 
   82000    1.2242599   -6.2887458    36.580793  0.037175602  0.043660077            2 
   83000    1.2273784   -6.3135836    37.015115   0.03716377  0.043614529            2 
   84000    1.2443438   -6.2899259    37.406755  0.037109876  0.043572412            3 
   85000     1.204475   -6.2895697    37.555353  0.036818973   0.04350799            5 
   86000    1.2453487   -6.2944058    38.193111  0.037008828   0.04343055            2 
   87000    1.2308279   -6.3411413      38.8045  0.037169061  0.043369805            2 
   88000    1.2076324    -6.321969     39.14749  0.037071486  0.043306321            1 
   89000    1.2061206   -6.3202926    39.759255  0.037227767   0.04325094            2 
   90000    1.1908001   -6.3168514    40.102721  0.037132148  0.043195281            1 
   91000    1.2332758   -6.3106487    40.399399  0.036995787  0.043129454            2 
   92000    1.2279185   -6.2935172    41.024758  0.037160106  0.043061305            2 
   93000    1.1767045   -6.2793092    41.649677  0.037320499  0.043008097            3 
   94000     1.235157   -6.3410827    41.970809  0.037208163  0.042953914            3 
   95000    1.2169478   -6.3124816    42.780564  0.037526811  0.042908135            5 
   96000    1.2516514   -6.3577296    43.222994   0.03751996  0.042872818            1 
   97000    1.2286913   -6.3141293    43.752042  0.037587665  0.042841708            2 
   98000    1.2465611   -6.3232874    44.160711  0.037551625  0.042813076            2 
   99000    1.2174168   -6.2653232    44.725346  0.037647598   0.04278061            2 
  100000    1.2265951   -6.3482094     45.12043  0.037600358  0.042747325            4 
  101000    1.2232725   -6.3470381    45.532029  0.037567681  0.042708141            4 
  102000    1.2159683   -6.3034502    45.843741  0.037454037  0.042659019            4 
  103000     1.231589   -6.3270666    46.247926  0.037417416  0.042610789            2 
  104000     1.215211   -6.3220358    46.762113  0.037469642  0.042561044            2 
  105000    1.2240079   -6.2997632    47.619236  0.037793044  0.042519711            3 
  106000    1.2150963   -6.3195131    47.898049  0.037655698  0.042482052            3 
  107000    1.2241782   -6.2825826    48.427919  0.037716447  0.042439862            4 
  108000    1.2082585   -6.3538711    48.796547  0.037651657  0.042398478            2 
  109000     1.201583   -6.3468607     49.35749  0.037735084  0.042359514            3 
  110000    1.2148443   -6.3121198    50.005215  0.037882739  0.042331847            2 
  111000    1.2038076    -6.299267    50.424476  0.037856213  0.042302732            2 
  112000    1.2148184    -6.318017    51.041632  0.037977404  0.042278152            2 
  113000    1.2295518   -6.2974683    51.569133  0.038030334  0.042256366            4 
  114000    1.2073962   -6.3573084    51.875676  0.037920816  0.042234149            2 
  115000     1.224885   -6.3150047    52.324078  0.037915998  0.042209878            3 
  116000    1.2253286   -6.2930664    52.763429  0.037904762  0.042175256            2 
  117000    1.2358405   -6.3053891    53.213291  0.037901204  0.042141958            4 
  118000    1.2129882   -6.3395291    53.742624  0.037953831  0.042113702            1 
  119000    1.1984875   -6.3248998    54.641236  0.038264171  0.042091326            2 
  120000    1.2049341   -6.3399484    55.145344  0.038295377  0.042080103            2 
  121000     1.194735   -6.3294415    55.527399   0.03824201  0.042070951            2 
  122000    1.1701763   -6.3053693    55.578643  0.037963554  0.042053302            2 
  123000      1.17472   -6.3093314    56.412144   0.03821961  0.042029081            3 
  124000    1.2203119   -6.2958175    56.974359   0.03828922  0.042007333            2 
  125000    1.1829263    -6.339468    57.464901  0.038309934  0.041992269            2 
  126000     1.200194   -6.3751794    57.622229   0.03810994  0.041972248            4 
  127000    1.1887723   -6.2820167    58.244708  0.038218312    0.0419465            1 
  128000    1.2284805   -6.3599588    58.127157  0.037843201  0.041917989            5 
  129000    1.2037292   -6.2970441    58.696817   0.03791784  0.041880197            4 
  130000    1.1924625   -6.3398308    58.968716  0.037800459  0.041841915            2 
  131000     1.178589    -6.322422    59.360008  0.037760819  0.041798471            2 
  132000    1.1725649   -6.3259952    59.812013  0.037760109  0.041755466            2 
  133000    1.2328074   -6.3676495    60.354217  0.037815925  0.041712348            3 
  134000    1.2123141    -6.340587    60.583647  0.037676397  0.041672456            3 
  135000    1.2226065   -6.3360638    61.281106  0.037827843  0.041626091            4 
  136000    1.1944084   -6.3373604    61.621666  0.037758374  0.041578414            1 
  137000     1.178449   -6.3259469    61.985202  0.037703894  0.041530142            2 
  138000    1.2039847   -6.3186125      62.4201  0.037693297  0.041485573            2 
  139000    1.1928115   -6.3301871    63.142746  0.037855363  0.041446024            1 
  140000     1.206401   -6.3695339    63.785077  0.037967308  0.041415044            3 
  141000    1.2148961   -6.3696639    63.866224  0.037745995  0.041380396            3 
  142000    1.2020661   -6.3351936    64.638442  0.037933358  0.041346617            5 
  143000    1.1689476   -6.3367011    65.299973  0.038053597  0.041319103            2 
  144000    1.2048887   -6.3265977    65.799778  0.038078575   0.04129506            4 
  145000    1.2092539   -6.3407239    66.358974  0.038137341  0.041274191            6 
  146000    1.2027679   -6.3413677    66.811311   0.03813431  0.041254198            3 
  147000    1.1950101   -6.3425635    67.147723  0.038065603  0.041232409            2 
  148000    1.1704171   -6.3797496    67.483746  0.037997605  0.041209837            3 
  149000    1.2149628   -6.2964555    68.259328  0.038176358  0.041186027            4 
  150000    1.1897588   -6.3326633    68.678752  0.038154862  0.041164883            3 
  151000    1.2297774   -6.3074202    69.395332  0.038297644  0.041146322            5 
  152000    1.2003153   -6.3662169    69.774014  0.038253297  0.041125964            3 
  153000    1.2014716   -6.3353152    70.297987  0.038288664  0.041109188            2 
  154000    1.1851919   -6.3401145    70.541978  0.038172066  0.041092029            5 
  155000    1.2005602   -6.3668782    70.930588  0.038134725  0.041076561            2 
  156000    1.1709867   -6.3104512    71.706151  0.038304568  0.041060799            1 
  157000    1.2090523   -6.3276592     72.35768  0.038406412  0.041044587            2 
  158000    1.2222227   -6.3646388    72.291852  0.038128614  0.041026825            3 
  159000    1.1820708      -6.3866    72.859412  0.038186275   0.04100727            2 
  160000    1.1859361   -6.3826182    73.549879  0.038307229  0.040989515            1 
  161000    1.1616657     -6.36055    73.855912  0.038227698  0.040973183            1 
  162000    1.1800004   -6.3747615    74.420635  0.038282219  0.040957673            2 
  163000     1.163207   -6.3757945    74.920746   0.03830304  0.040941223            2 
  164000    1.1940511   -6.3509408    75.358912   0.03829213  0.040924359            4 
  165000    1.1878282   -6.4250008    75.568464  0.038165891  0.040904019            2 
  166000    1.2036316   -6.3329318    76.532669  0.038420015  0.040884196            8 
  167000    1.1785823   -6.3323848    76.482306  0.038164823  0.040863948            3 
  168000    1.1858929   -6.3833136    76.632761  0.038012282  0.040841506            2 
  169000     1.204668   -6.3576622    77.183411  0.038058881  0.040816946            2 
  170000    1.2197992   -6.3976727    77.511591  0.037995878  0.040793958            3 
  171000    1.1941179   -6.3464847    78.569582   0.03828927  0.040774155            2 
  172000    1.1681885   -6.3453601    79.160582  0.038352995  0.040757772            1 
  173000     1.183661   -6.3550176    79.541599  0.038314836  0.040743146            2 
  174000    1.1839074   -6.3862916    80.282548  0.038449496  0.040731414            1 
  175000    1.1970143   -6.3584296    81.053407   0.03859686  0.040724267            2 
  176000    1.1933278   -6.3957189    81.714201  0.038690436  0.040722891            2 
  177000     1.171099   -6.3896055    82.206623  0.038703683  0.040722924            2 
  178000     1.195773   -6.3593473    82.651246  0.038694403  0.040722572            3 
  179000    1.1745984   -6.3798897    83.260942  0.038762077  0.040721738            3 
  180000    1.1751834   -6.3626428    83.942924  0.038862465  0.040720195            3 
  181000    1.1958103   -6.3782407    84.054416  0.038699086  0.040719237            2 
  182000      1.14818   -6.3763227    84.511572  0.038695774  0.040719804            3 
  183000     1.163153    -6.372603    85.059725  0.038733937  0.040717426            2 
  184000    1.1764014    -6.403213    85.146977  0.038562942  0.040714042            3 
  185000      1.17362   -6.3707132    85.754743  0.038628262   0.04070718            2 
  186000    1.1964985   -6.3833146    85.940617   0.03850386  0.040699663            2 
  187000    1.1674739   -6.4210605    86.299434  0.038457858  0.040690389            2 
  188000    1.1672507   -6.3898389    86.991116  0.038559892   0.04068072            1 
  189000    1.2111965   -6.3491375    87.797337  0.038711348  0.040674722            2 
  190000    1.1720112   -6.3679571    88.280337  0.038719446  0.040672304            2 
  191000    1.1899085   -6.3779249    88.805016  0.038745644   0.04066822            4 
  192000     1.192012   -6.3680067    89.340098  0.038776084  0.040666004            3 
  193000    1.1885116   -6.4020722    89.498383  0.038643516  0.040660981            3 
  194000    1.1753984   -6.3643623     90.17212  0.038733728  0.040656744            3 
  195000    1.1727396   -6.3829953    90.559606  0.038700686  0.040653818            4 
  196000     1.157626   -6.3566478    91.020912  0.038699367  0.040648434            2 
  197000    1.1779839   -6.3784211    91.429592    0.0386758  0.040640323            5 
  198000    1.1859706   -6.3975078    91.821648  0.038645475  0.040631854            3 
  199000    1.1714418   -6.4064479    92.000111   0.03852601  0.040623065            1 
  200000     1.184536   -6.3923477    92.646713  0.038602797   0.04061232            2 
  201000    1.1873293   -6.3688588    92.368937  0.038295579  0.040599455            4 
  202000    1.1771206   -6.3895188    93.216897  0.038455816  0.040585541            3 
  203000    1.1812958   -6.3567352    93.980464  0.038579829  0.040574033            3 
  204000    1.1893881   -6.3898327    94.453456  0.038583928  0.040566405            3 
  205000    1.1754667   -6.3560338    95.199413  0.038698948   0.04055744            4 
  206000    1.1655415   -6.3387689    95.920306  0.038802713   0.04055249            2 
  207000    1.1641927   -6.4066289    96.003546   0.03864877  0.040549507            3 
  208000    1.1732666   -6.3973755    97.086986  0.038897029  0.040546054            1 
  209000    1.1485533   -6.3681961    97.891656  0.039031761  0.040541651            2 
  210000    1.1365622   -6.3784051    97.781031  0.038801996  0.040536217            4 
  211000     1.161531   -6.4097147    97.756541  0.038608428    0.0405295            2 
  212000    1.1537412   -6.4018559    98.371095  0.038667883  0.040525252            5 
  213000    1.2125372    -6.413662    98.807513  0.038657086  0.040518342            3 
  214000    1.1589019   -6.3852876    99.413118  0.038712273  0.040510033            2 
  215000     1.156977   -6.4031147    99.654207  0.038625661  0.040501174            3 
  216000    1.1741026   -6.4345063    99.971119  0.038569105  0.040490549            1 
  217000    1.1770315   -6.3843791    100.55957  0.038617347  0.040481198            2 
  218000    1.1560566   -6.3791305    100.82149  0.038540327  0.040469103            5 
  219000    1.1612381   -6.3890267     100.7707  0.038345013  0.040454951            3 
  220000    1.1450404   -6.3847248    101.79013  0.038556867  0.040439202            2 
  221000    1.1547377   -6.3945283    102.04533   0.03847863   0.04042205            4 
  222000    1.1723582   -6.3886704    102.38075  0.038431214  0.040406732            3 
  223000    1.1779011   -6.4099762    102.80258  0.038416509  0.040390991            2 
  224000    1.1547743   -6.3932981    103.07444  0.038346145  0.040375397            1 
  225000    1.1810438   -6.4218604      103.286  0.038254076  0.040359625            3 
  226000    1.1575789   -6.3978548     103.4774  0.038155382  0.040341315            4 
  227000    1.1398877   -6.4121615    104.37576  0.038317092  0.040322075            4 
  228000    1.1492247   -6.4482716    104.50322  0.038195622  0.040304737            3 
  229000    1.1750821   -6.3957451    105.12455   0.03825493  0.040286554            4 
  230000    1.1672388   -6.4183343    105.22608  0.038125392  0.040268977            3 
  231000    1.1923343   -6.4232772    105.57912  0.038087705  0.040247845            5 
  232000    1.1525926   -6.4148555    105.93816  0.038052502  0.040226054            3 
  233000     1.171274   -6.4077272    106.18433  0.037977229  0.040202136            2 
  234000     1.156145   -6.4180757     106.7344  0.038010825  0.040178489            4 
  235000     1.149093   -6.3901569    106.90883  0.037910934  0.040155907            5 
  236000    1.1557808   -6.4377408     107.8099  0.038068468   0.04013355            2 
  237000    1.1725657   -6.4035498    108.30753  0.038082815   0.04011118            4 
  238000    1.1804895   -6.4337667     108.9114  0.038134243  0.040090494            3 
  239000     1.159599   -6.3876481    109.52638  0.038189114  0.040070889            3 
  240000    1.1437497   -6.4332996    109.40741  0.037988683  0.040048034            2 
  241000    1.1574465   -6.4417735    109.53794  0.037876191  0.040024224            2 
  242000    1.1783291   -6.3867177    110.38665  0.038011931  0.039998184            2 
  243000    1.1604439   -6.3616339    110.26723  0.037814551  0.039973789            4 
  244000    1.1372904   -6.4107376    110.47981  0.037732177  0.039949177            3 
  245000    1.1752653   -6.4053066    111.38489  0.037886018  0.039924514            4 
  246000    1.1624084   -6.4519276    111.39935  0.037736907  0.039898309            4 
  247000    1.1531305   -6.4270288    111.94574  0.037768469  0.039871318            5 
  248000    1.1318296   -6.4173761    112.47858  0.037795222  0.039842952            3 
  249000    1.1509018   -6.4011594    112.54226  0.037664746  0.039815542            1 
  250000    1.1605218   -6.4273784    112.90481  0.037634937  0.039786236            4 
  251000    1.1533922   -6.4019854    112.81228  0.037454276  0.039757271            3 
  252000    1.1380587   -6.4294092    113.60607  0.037568146  0.039728431            3 
  253000     1.151946   -6.4546739    113.67574  0.037442602  0.039699888            5 
  254000    1.1868948   -6.4331503    114.21227  0.037471218  0.039671062            2 
  255000     1.165144   -6.4378303    114.93404  0.037560143  0.039643299            2 
  256000    1.1337622   -6.4006988    115.11647  0.037472808  0.039614776            3 
  257000    1.1332616   -6.4278114    115.36932  0.037408987  0.039585584            3 
  258000     1.156555   -6.4032795     116.0798  0.037493477  0.039557896            2 
  259000    1.1482107   -6.4292476    116.59561  0.037514675  0.039531201            2 
  260000    1.1733027   -6.4097364    116.66035  0.037391137  0.039502181            3 
  261000    1.1555334   -6.4337401    116.72615  0.037268886   0.03947191            3 
  262000    1.1422433   -6.4072378    117.27593  0.037301506  0.039443348            5 
  263000    1.1391416   -6.4065164    118.11173  0.037424502  0.039415101            3 
  264000    1.1247057   -6.4477428    118.34288  0.037355708  0.039387107            3 
  265000    1.1212508   -6.4278445     118.7959  0.037357202   0.03935864            4 
  266000    1.1547403   -6.4528563    118.99391  0.037278794  0.039330335            1 
  267000    1.1542731   -6.4162904    119.40287  0.037266813  0.039300656            5 
  268000    1.1260941   -6.4570994    119.13899  0.037045705  0.039270665            6 
  269000    1.1575804   -6.4160737    120.28283  0.037262339  0.039241079            4 
  270000    1.1409286   -6.4403842    121.04369  0.037359162  0.039212903            4 
  271000    1.1508234   -6.4216499    121.20842  0.037271961  0.039185873            4 
  272000    1.1510453   -6.4443888    121.48953  0.037221057  0.039158954            3 
  273000    1.1159189   -6.4543045    122.25679  0.037318924  0.039132928            4 
  274000    1.1611958   -6.4341289    122.41829  0.037231838  0.039105884            3 
  275000    1.1602431   -6.4473916    122.29034  0.037057678   0.03907771            2 
  276000    1.1478759   -6.4343417    122.52582  0.036994511  0.039049466            1 
  277000    1.1399565   -6.4374132    123.34376  0.037107029  0.039022758            4 
  278000    1.1353232   -6.4260947    123.49966  0.037020283  0.038994911            2 
  279000    1.1633558   -6.4310063    124.16326  0.037085799  0.038968153            2 
  280000    1.1509815   -6.4111578    124.72208  0.037119666  0.038943674            5 
  281000    1.1290321   -6.4625167    124.59181  0.036948936  0.038916959            4 
  282000    1.1431738   -6.4351975     125.5311   0.03709548  0.038888508            3 
  283000    1.1350782   -6.3976238    126.26076  0.037179257  0.038861266            3 
  284000    1.1470452    -6.451902    125.92656  0.036950282  0.038834542            3 
  285000    1.1475159   -6.4697477    125.85578  0.036799935   0.03880629            2 
  286000    1.1322752   -6.4167377    126.63591  0.036898574  0.038778034            3 
  287000    1.1211734   -6.4259983    127.19564  0.036932531  0.038749843            4 
  288000    1.1275649   -6.4969185    127.42863  0.036871709  0.038722397            2 
  289000    1.1313817   -6.4517126     127.7502  0.036836851  0.038693951            1 
  290000    1.1656523   -6.4456811     128.2555  0.036855029  0.038664565            3 
  291000    1.1484489   -6.4955647    128.15413  0.036699349  0.038635281            3 
  292000    1.1445408   -6.4395756    128.89347  0.036784667  0.038607526            2 
  293000    1.1164973   -6.4265517    129.90111  0.036945708   0.03858086            9 
  294000    1.1425474   -6.4372247    130.23416  0.036914445  0.038554589            4 
  295000    1.1486581    -6.467816    130.48237  0.036859427  0.038529542            5 
  296000    1.1328078   -6.4711945    130.64993  0.036782076  0.038504046            4 
  297000    1.1270791   -6.4578256    130.97121  0.036748377  0.038478816            2 
  298000    1.1564767   -6.4447848    131.61766  0.036805833  0.038452347            4 
  299000    1.1256882   -6.4277023    131.76286  0.036723204  0.038427308            2 
  300000    1.1375729   -6.4420622    132.26232  0.036739534  0.038400747            5 
  301000    1.1406041   -6.4764841    131.97153  0.036536968  0.038372769            2 
  302000    1.1377495   -6.4539148     132.9253  0.036679167  0.038344715            3 
  303000    1.1272209   -6.4367984     133.2701  0.036652942  0.038317311            3 
  304000    1.1082327   -6.4378945    133.65838  0.036638811  0.038290881            2 
  305000    1.1025102   -6.4614545    134.12535   0.03664627   0.03826502            2 
  306000    1.1605978   -6.4389636    134.68138  0.036677935  0.038240129            2 
  307000    1.1136105   -6.4660652    134.96797  0.036636257  0.038216225            2 
  308000    1.1287275   -6.4740604    135.89278  0.036767526   0.03819182            2 
  309000    1.1424386    -6.489511    136.02796  0.036684993   0.03816718            1 
  310000    1.1116019   -6.4696148    136.26006  0.036629047  0.038144082            4 
  311000    1.1591172   -6.5152755    136.70656  0.036630911  0.038121517            4 
  312000    1.1151722   -6.4796132    137.43844  0.036708985  0.038100091            4 
  313000    1.1364972   -6.5019066    137.61332  0.036638265  0.038077205            4 
  314000    1.1218741   -6.4189644     138.1144  0.036654565  0.038053886            4 
  315000    1.1293766   -6.5104973    138.21867  0.036565785  0.038031275            2 
  316000    1.1131967   -6.4766912     138.9001  0.036629773  0.038008785            4 
  317000    1.1277911   -6.4526286    139.52561  0.036678656  0.037985899            3 
  318000     1.089375   -6.4833002    139.57169  0.036575391    0.0379636            6 
  319000    1.1019261    -6.465815    139.78872  0.036517429  0.037941059            4 
  320000    1.1176586   -6.5076012    140.29368  0.036534812  0.037918561            3 
  321000    1.1351144   -6.4937744    140.51567  0.036478626  0.037895954            3 
  322000     1.130212   -6.4561123    140.98249  0.036486152  0.037874493            2 
  323000      1.10649   -6.4486027    141.49522  0.036505473  0.037853477            5 
  324000    1.1235709   -6.4362604    142.39052  0.036623076  0.037832865            2 
  325000    1.1197269    -6.490072    142.57827  0.036558531  0.037813115            2 
  326000    1.1124387   -6.5572008    142.64489  0.036463417    0.0377929            3 
  327000    1.1016786   -6.4932159    143.21451  0.036497072  0.037772604            2 
  328000    1.1208244   -6.4811299    143.55503  0.036472314  0.037752059            8 
  329000     1.103787     -6.47994    143.52386  0.036353561  0.037730087            3 
  330000    1.1073687   -6.4569911    144.28279  0.036435047  0.037707145            3 
  331000    1.1444705   -6.4870583    144.07955  0.036273803  0.037684213            2 
  332000    1.1304496   -6.4836883    144.46373  0.036260977   0.03766004            6 
  333000    1.1472172   -6.4653492    144.64131  0.036196523  0.037634663            3 
  334000    1.1241796   -6.4702329    144.79495  0.036126486  0.037608651            6 
  335000    1.1304951   -6.4675149    145.16359  0.036110345  0.037582172            6 
  336000    1.1176592   -6.4684517    145.60064  0.036111271  0.037556072            3 
  337000     1.110969   -6.4783512    145.92842  0.036085167  0.037529791            4 
  338000    1.1222836   -6.4545007    145.50671  0.035874435  0.037503583            6 
  339000    1.1354954   -6.5011464     146.1475   0.03592613  0.037477165            3 
  340000    1.1244347   -6.4906823     146.4077   0.03588424  0.037451036            2 
  341000    1.1008352   -6.5085114    147.13949  0.035957843  0.037424893            2 
  342000    1.1019162   -6.4798966    147.73975  0.035998964  0.037399691            2 
  343000    1.1045601   -6.5220068    147.80836  0.035910681  0.037374445            8 
  344000    1.1216184   -6.4893408    148.02831   0.03585957  0.037348242            6 
  345000    1.1143015   -6.4785752    148.79217  0.035940138  0.037321115            5 
  346000     1.122602   -6.4423841     149.1771  0.035928974  0.037295764            3 
  347000    1.1065539   -6.4565672    149.52338  0.035908593  0.037270802            5 
  348000    1.1385341   -6.5059985    149.58685  0.035820606  0.037245539            3 
  349000    1.1094008    -6.508735    149.57325  0.035714721  0.037219422            4 
  350000    1.1204187   -6.4869408    149.81555  0.035670369  0.037192184            3 
  351000    1.1182823   -6.4877293    150.36086   0.03569821  0.037165555            3 
  352000    1.1307526   -6.4784377    151.02832   0.03575481  0.037138297            4 
  353000    1.1118552     -6.46988    151.03555  0.035655228  0.037110962            2 
  354000    1.1036504   -6.4686336    151.80615  0.035735911  0.037084579            2 
  355000    1.1078458     -6.49316    151.88122  0.035652868  0.037058074            3 
  356000      1.12804   -6.4472483    151.92926  0.035563966  0.037031881            5 
  357000    1.0720662   -6.4991878    153.03536   0.03572254  0.037005926            2 
  358000      1.15087   -6.4975442    152.62544  0.035527336  0.036980767            4 
  359000    1.1024854   -6.4962673    153.50298  0.035632076  0.036955895            5 
  360000    1.1346866   -6.5122781    153.98955  0.035645729  0.036931427            6 
  361000    1.1080178   -6.5069543    154.58775  0.035685076   0.03690743            5 
  362000     1.102233   -6.4848403    155.05939  0.035695071  0.036883375            3 
  363000     1.110322   -6.4887665    155.97631  0.035807234  0.036860267            2 
  364000    1.1186426   -6.5131293    155.74975  0.035656994  0.036837154            2 
  365000    1.1387788   -6.4809256    156.13784  0.035647909  0.036815406            2 
  366000    1.0980181    -6.487289    156.73338  0.035686106  0.036793475            4 
  367000     1.137799   -6.4788153    157.54614   0.03577342  0.036772226            5 
  368000    1.0821088   -6.5103632    157.28545  0.035617175  0.036750966            4 
  369000    1.1164142   -6.5284012    156.95599  0.035446248  0.036728279            3 
  370000    1.1163121   -6.4972419    157.54623  0.035483384  0.036704858            3 
  371000    1.1113727   -6.5065985    158.04413   0.03549958  0.036681518            5 
  372000    1.1367135    -6.460768    159.08112  0.035636452  0.036659828            3 
  373000    1.0988639   -6.5207059    159.32931  0.035596361  0.036637735            3 
  374000    1.1074616   -6.5052869    159.72637  0.035589655  0.036615588            4 
  375000    1.1263452   -6.5161008    160.17594  0.035594653  0.036594536            2 
  376000    1.1178494   -6.5459261    160.17199  0.035499112  0.036572825            4 
  377000    1.0934358   -6.5021033    160.31442  0.035436432  0.036550462            3 
  378000    1.1179988   -6.5469656    160.66849  0.035420743  0.036528505           14 
  379000    1.1074645   -6.5463402    160.44357  0.035277829  0.036505866            2 
  380000    1.1001392   -6.5129051    161.30283  0.035373428  0.036482937            2 
  381000    1.1099096   -6.5346755    161.43019  0.035308442  0.036460493            4 
  382000    1.0945704   -6.5355091    161.83889  0.035305168  0.036438808            8 
  383000    1.1180259   -6.5267496    162.57955  0.035374141  0.036416493            2 
  384000    1.1019156   -6.5048893    162.66199  0.035299911  0.036394624            5 
  385000    1.1073492   -6.5151495    162.84371  0.035247557  0.036372209            4 
  386000    1.0954005   -6.5516944    163.62696  0.035325336  0.036350049            3 
  387000    1.0751707   -6.5083065     164.7126   0.03546783  0.036328787            1 
  388000     1.112318   -6.5552681    164.32671  0.035293538  0.036308124            4 
  389000    1.0982624   -6.5568491     165.5646  0.035467996  0.036287887            2 
  390000    1.0710156   -6.5088448    165.22073  0.035303574  0.036267558            9 
  391000     1.104971    -6.539174    166.15903  0.035413263  0.036247899            4 
  392000    1.0920484   -6.5261397    166.50797  0.035397102  0.036228222            3 
  393000    1.0930161   -6.5588426    166.78024  0.035364766  0.036210134            3 
  394000    1.1070267   -6.5307543    166.66849  0.035251373  0.036191329            6 
  395000    1.0899034   -6.4820141    167.50006  0.035337564  0.036172904            4 
  396000    1.1115597   -6.5286602    167.84923  0.035321808  0.036153522            3 
  397000    1.0994438   -6.5102594    168.68851  0.035409008  0.036135176            3 
  398000    1.0976163   -6.5413452    169.13931  0.035414429  0.036117238            3 
  399000    1.0904923   -6.5473389    169.71586  0.035446086  0.036099366            7 
  400000    1.0996183   -6.5265446    170.11143   0.03543988  0.036082478            3 
  401000     1.104887   -6.5307252    170.22901  0.035375936  0.036065104            2 
  402000    1.1047524   -6.5637488    170.21204  0.035284419  0.036047806            2 
  403000    1.1145376   -6.5766554    170.32976  0.035221207  0.036030356            7 
  404000    1.0937689   -6.5204191    171.84511  0.035446598  0.036012855            4 
  405000    1.0913467   -6.5014102     172.1649  0.035424876  0.035996917            3 
  406000    1.0913755   -6.5399017    172.12142  0.035328698  0.035980827            2 
  407000    1.1066326   -6.5431096    172.39524  0.035297961  0.035965249            3 
  408000    1.0827837   -6.5460309    173.33967  0.035404345  0.035949754            2 
  409000    1.0806203   -6.5229456    173.53305  0.035357183  0.035935109            2 
  410000    1.0696953   -6.5011995    174.61747  0.035491356  0.035920426            2 
  411000    1.0918897   -6.5415075    174.54835  0.035390987  0.035905613            6 
  412000     1.110181   -6.5556444    174.63637  0.035322889  0.035890729            5 
  413000    1.0878933   -6.5644782    174.47332  0.035204462   0.03587551            4 
  414000    1.0927015   -6.5574016    175.06987  0.035239506  0.035860164            2 
  415000    1.1001469   -6.5172678    175.98192  0.035337735  0.035845122            3 
  416000    1.0767285   -6.5435019    176.09026  0.035274491  0.035830215            2 
  417000    1.0902469   -6.5618916    176.67553   0.03530686  0.035816236            3 
  418000    1.1020967   -6.5806227    176.88588  0.035264329  0.035802363            5 
  419000    1.0643552   -6.5977842    177.00751  0.035204358   0.03578845            4 
  420000    1.0999688   -6.5600558    178.13643   0.03534453  0.035774983            4 
  421000    1.0718996   -6.5851268    178.52496  0.035337482  0.035761373            3 
  422000    1.0718397   -6.5703464    178.53834  0.035256387  0.035747251           11 
  423000    1.1104617   -6.5566793      178.804  0.035225373  0.035732692            2 
  424000    1.0918928   -6.5229814    179.27427  0.035234723  0.035718207            2 
  425000    1.0538744    -6.553021    179.20935  0.035139089  0.035703838            2 
  426000    1.0792197   -6.5604737      179.624  0.035137716  0.035689084            3 
  427000    1.0735101   -6.5661682    180.23008  0.035173707  0.035675114            3 
  428000    1.1026808   -6.5757362    180.53019  0.035149958  0.035661295            4 
  429000    1.0643064   -6.5494611    181.40607  0.035238164  0.035647316            2 
  430000     1.093024       -6.563    181.59959  0.035193718  0.035633543            6 
  431000    1.0701092   -6.5361895     182.3095  0.035249323  0.035621165            3 
  432000    1.0835475   -6.5243645    183.25008  0.035349167  0.035608128            3 
  433000    1.0927155   -6.5758131    183.18554  0.035255107   0.03559543            6 
  434000    1.0726998   -6.5495292    182.98161  0.035134718  0.035582662            2 
  435000    1.0761231   -6.5656689     183.9216  0.035234023   0.03556995            4 
  436000    1.0912746   -6.5651736    184.64045  0.035290606  0.035558102            4 
  437000    1.0753997    -6.522671     184.8448  0.035248818  0.035545684            7 
  438000    1.0885519   -6.5533919    184.85686  0.035170635  0.035533109            2 
  439000    1.0718027    -6.577999    184.93879  0.035106072  0.035520266            3 
  440000     1.047929    -6.566157    186.31892  0.035287674  0.035507491            2 
  441000    1.0917444   -6.5696304    185.78856  0.035107438  0.035494883            7 
  442000    1.0696989   -6.5806585    186.14687  0.035095563   0.03548282            4 
  443000    1.0566057   -6.5705182    187.25129  0.035224094  0.035470938            6 
  444000    1.0904902   -6.5807871    187.48722  0.035189042  0.035459853            4 
  445000    1.0835893   -6.5499895    188.72401  0.035341574  0.035449584            2 
  446000    1.0786804   -6.5880687     188.9361  0.035301962  0.035439506            1 
  447000    1.0792888   -6.5342087    188.68485  0.035176147  0.035429617            4 
  448000    1.0982106   -6.5605611    189.99695  0.035341695  0.035419271            3 
  449000    1.0791973   -6.5591365    190.30645  0.035320424  0.035409066            3 
  450000    1.0853781   -6.5723006    189.75842  0.035140447  0.035397887            2 
  451000    1.0663442   -6.5794842    189.96968  0.035101566  0.035387042            2 
  452000    1.0798696   -6.5246501    190.29136  0.035083216  0.035375901            5 
  453000    1.0681727   -6.5557445    191.09751  0.035154067  0.035365494            3 
  454000    1.0648624    -6.562781    190.85653  0.035032403  0.035354412            3 
  455000    1.0878573    -6.574705    191.79645  0.035127554  0.035342767            5 
  456000    1.0486101   -6.5441893    191.68968  0.035031008  0.035331634            4 
  457000    1.1034163   -6.5704841    191.99117   0.03500933  0.035320013            4 
  458000     1.060959   -6.5529202    192.48636  0.035022991   0.03530814            3 
  459000    1.0830032   -6.5841038    192.44234  0.034938697  0.035296117            6 
  460000    1.0806047    -6.597911     192.8152   0.03493029  0.035283286            3 
  461000    1.0637944   -6.5710909    192.64178  0.034823171  0.035270065            3 
  462000    1.0757643   -6.5834928    193.31503  0.034869233  0.035257163            3 
  463000    1.0784585   -6.5621611    194.87758  0.035075158   0.03524482            2 
  464000    1.0892299   -6.5675913    194.05601  0.034852012  0.035232698            2 
  465000    1.0539108   -6.5624632    194.60394  0.034875257  0.035220037            3 
  466000     1.054578   -6.5931061    195.55264  0.034970072  0.035207746            4 
  467000    1.0666113    -6.598217     195.0124  0.034798787  0.035195394            3 
  468000    1.0609848   -6.5837736    196.04341  0.034908014  0.035183156            1 
  469000    1.0750814   -6.5829357    195.99126  0.034824318  0.035170894            2 
  470000    1.0878609   -6.5957589    196.48973  0.034838605  0.035158569            3 
  471000    1.0713196   -6.5716456    197.16497  0.034884107  0.035146391            5 
  472000    1.0536677   -6.6079402    197.13388  0.034804711  0.035134439            8 
  473000    1.0404815   -6.5670515     198.0059   0.03488476   0.03512279            2 
  474000    1.0551605    -6.614501     197.9008  0.034792686  0.035111134            6 
  475000    1.0512944   -6.6210008    197.53536  0.034655326   0.03509834            3 
  476000    1.0838837   -6.6307004     198.1704  0.034693698  0.035085558            4 
  477000    1.0611196   -6.5741872    198.36736  0.034655374  0.035072181            4 
  478000    1.0392016   -6.5880542    198.73621  0.034647178  0.035058377            3 
  479000    1.0538171   -6.6004396    199.15547  0.034647786  0.035044952            2 
  480000     1.071821   -6.6122715    199.77017  0.034682321  0.035032059            3 
  481000    1.0722689    -6.592089    200.00867  0.034651536  0.035018329            3 
  482000    1.0590872   -6.5679251    200.36188  0.034640712   0.03500471            5 
  483000    1.0550951   -6.5632522    200.14645  0.034531824  0.034990375            2 
  484000    1.0576953   -6.5908864    200.59046  0.034536926   0.03497602            4 
  485000    1.0567202   -6.6130859    200.37493  0.034428682  0.034961348            2 
  486000    1.0636853   -6.5543758    202.45255  0.034714087  0.034947557            2 
  487000    1.0508294   -6.6199291    201.43518  0.034468717  0.034933556            2 
  488000     1.073148   -6.6129763    202.18737  0.034526532  0.034919779            7 
  489000    1.0331081   -6.5835913    202.99746  0.034593978  0.034906383            3 
  490000    1.0257156   -6.5711078    203.55397  0.034618022  0.034892549            2 
  491000     1.057537   -6.5989899    203.25826  0.034497329  0.034879553            6 
  492000    1.0917543   -6.5940662    203.05574  0.034392909  0.034864952            3 
  493000    1.0608618   -6.5681446    203.99119   0.03448127  0.034850223            2 
  494000    1.0747142   -6.6091867    204.02169  0.034416614  0.034835954            2 
  495000    1.0425707   -6.6245094      203.463  0.034253031  0.034821005            5 
  496000    1.0604397   -6.6039452    204.18981  0.034306083   0.03480583            3 
  497000    1.0609106    -6.591606    204.03642  0.034211339  0.034790294            4 
  498000    1.0283478   -6.6055692     205.0894  0.034318842  0.034775089            3 
  499000    1.0431285   -6.6132901    204.73611  0.034191067    0.0347592            4 
  500000    1.0496982   -6.6015331    205.26204   0.03421034  0.034743612            3 
  501000    1.0568617    -6.610864    205.24346  0.034138966  0.034727475            3 
  502000    1.0570454   -6.5767993      205.971  0.034191734  0.034711336            2 
  503000    1.0517908   -6.6055929    205.88201  0.034109014  0.034695292            4 
  504000    1.0274946   -6.5777053    206.34834  0.034118443  0.034678799            4 
  505000     1.052018   -6.5809879    207.25127   0.03419988  0.034662746            3 
  506000     1.033711   -6.5939164    207.07006  0.034102447  0.034646765            4 
  507000    1.0721305   -6.6124327    207.15301  0.034048819  0.034630706            3 
  508000    1.0733681   -6.6321261    207.51617  0.034041366  0.034614294            4 
  509000    1.0357619   -6.5914387    208.07483  0.034065951  0.034597767            3 
  510000    1.0788927   -6.5973763    208.26009  0.034029426  0.034581065            7 
  511000    1.0519727    -6.591989    208.70728   0.03403576  0.034565014            3 
  512000    1.0549676   -6.6158217    208.26701  0.033897625   0.03454899            4 
  513000    1.0534147   -6.6213034    208.82868  0.033922788  0.034532842            3 
  514000    1.0394531   -6.6477552    209.19663  0.033916445  0.034516419            4 
  515000    1.0538809   -6.6178011    209.89626  0.033963795   0.03449981            2 
  516000    1.0634793   -6.6227262    209.29332  0.033800601  0.034483064            8 
  517000    1.0327265   -6.6210484    209.67245  0.033796332  0.034466067            2 
  518000    1.0359821   -6.6185936    209.95523  0.033776581  0.034448593            9 
  519000    1.0619871   -6.6379375    209.76809  0.033681453  0.034430599            8 
  520000    1.0292876   -6.6629829    210.22847   0.03369046  0.034412733            2 
  521000     1.047429   -6.6662799    210.39677  0.033652715  0.034394633            2 
  522000    1.0645316   -6.6298372    211.45618  0.033757373  0.034376379            3 
  523000    1.0369133   -6.6391931    210.72662  0.033576581  0.034358403            2 
  524000    1.0262498   -6.6110803    211.23344  0.033593104  0.034340845            5 
  525000    1.0482646   -6.6333242    212.21953   0.03368564  0.034322843            2 
  526000    1.0307314    -6.581507    212.85864  0.033722852  0.034305049            5 
  527000    1.0490398   -6.6276011    212.75383  0.033642288  0.034287729            5 
  528000    1.0487145    -6.649344    213.33693  0.033670601  0.034270184            4 
  529000    1.0361822   -6.6076439    213.09793  0.033569301  0.034252532            3 
  530000    1.0480461   -6.6397615    213.01249   0.03349253  0.034234362            6 
  531000    1.0576668   -6.6086514    214.09033  0.033598607  0.034216841            2 
  532000    1.0334263   -6.5895435    214.16132  0.033546572  0.034198766            5 
  533000    1.0459919    -6.597747    214.33168  0.033510269  0.034180831            2 
  534000    1.0594856   -6.6691579    213.66776  0.033343908  0.034162686            3 
  535000    1.0313811   -6.6082647    215.17066  0.033515679  0.034144795            3 
  536000    1.0456154   -6.6252421    215.43845  0.033494784  0.034126612            3 
  537000    1.0219588   -6.6777805       215.55  0.033449721  0.034108816            5 
  538000    1.0382932   -6.5933038    215.82264  0.033429777  0.034090995            2 
  539000    1.0215078   -6.6017109    216.19523   0.03342536  0.034073216            3 
  540000    1.0127593   -6.6585513    215.98061  0.033330341  0.034054936            3 
  541000    1.0494498   -6.6777823    216.12508  0.033290986  0.034035907            6 
  542000    1.0408589   -6.6733307    216.16395   0.03323554  0.034016913            4 
  543000    1.0197896   -6.6234262    216.78536  0.033269698  0.033998079            5 
  544000     1.036916   -6.6225255    216.71663  0.033198013  0.033979792            2 
  545000    1.0622708    -6.648519      217.757  0.033296177  0.033960777            3 
  546000    1.0439011   -6.6778848      217.595  0.033210469  0.033941855            4 
  547000    1.0390027   -6.6289955    218.25101  0.033249697  0.033923497            4 
  548000    1.0261418   -6.6353428    218.80591  0.033273405  0.033905088            6 
  549000    1.0499367   -6.6296278    218.93767  0.033232797  0.033886497            3 
  550000    1.0435013   -6.6706565    218.52221  0.033109425  0.033867979            7 
  551000    1.0237874   -6.6788546      219.359  0.033175892  0.033849582            2 
  552000    1.0518657    -6.661758    219.14884  0.033084064  0.033831006            4 
  553000    1.0352018   -6.6699584     219.8696  0.033132852  0.033812298            5 
  554000    1.0495361   -6.5971628    220.22073  0.033125862  0.033793655            6 
  555000      1.03038   -6.6311433    219.96416  0.033027651  0.033775306            4 
  556000    1.0475858   -6.5924941    220.93237  0.033113364  0.033756942            5 
  557000    1.0397302   -6.6325357    220.68337  0.033016662  0.033738596            6 
  558000    1.0328915   -6.6612178    221.47178  0.033075236  0.033719583            3 
  559000    1.0248465   -6.6732543    221.07238  0.032956527  0.033700947            2 
  560000    1.0408317   -6.6403356    221.66486  0.032985842   0.03368206            4 
  561000    1.0308196   -6.6717055    221.42157  0.032890905   0.03366356            5 
  562000    1.0095682   -6.6680039    221.66469  0.032868429  0.033644697            3 
  563000    1.0315316   -6.6800833    222.84637  0.032984958  0.033625723            2 
  564000    1.0344603   -6.6710404    222.39659  0.032860017  0.033606742            4 
  565000    1.0367848   -6.6390974    223.47884  0.032961481  0.033587969            4 
  566000    1.0423437   -6.6374286    223.83156  0.032955177  0.033569225            2 
  567000    1.0226592   -6.6275549    223.80217  0.032892736  0.033550535            7 
  568000     1.036953   -6.6281492    224.28213  0.032905242  0.033531685            2 
  569000    1.0366293   -6.6738454    224.46748  0.032874557  0.033513014            3 
  570000    1.0328854   -6.6736013     224.0066  0.032749503  0.033494431           11 
  571000    1.0511787     -6.64525    224.97967   0.03283416  0.033475178            8 
  572000    1.0406663      -6.6896    224.82986  0.032754933  0.033456528            9 
  573000    1.0226459   -6.6760222    225.13994  0.032742866  0.033437376            3 
  574000    1.0426728   -6.6563515    225.54921  0.032745239  0.033418703            4 
  575000     1.019855   -6.6735024    226.57744   0.03283731  0.033400173            3 
  576000    1.0421686     -6.64283    226.84026  0.032818324  0.033381689            1 
  577000    1.0010981   -6.6457363    226.69258  0.032740119  0.033363068            4 
  578000    1.0242263   -6.6644016    226.68732  0.032682716  0.033344586            7 
  579000    1.0109058   -6.7075004    226.51544  0.032601531  0.033325572            2 
  580000    1.0388062    -6.647308    227.48296  0.032684333  0.033306453            3 
  581000    1.0164004   -6.6835302    228.06311  0.032711289  0.033287794            4 
  582000   0.99495916     -6.65905    228.28321    0.0326866  0.033269343            4 
  583000    1.0276022   -6.6757925     228.0668  0.032599599  0.033250668            4 
  584000    1.0298993   -6.6648182    227.90316  0.032520428  0.033231513            4 
  585000    1.0295724   -6.6608838     228.0211  0.032481638  0.033212477            3 
  586000    1.0343863   -6.6616859    229.09533  0.032578972  0.033193577            2 
  587000   0.99339996   -6.7105638    228.76268  0.032476246  0.033174225            5 
  588000     1.014565   -6.6355472    228.97631  0.032451291  0.033154676            6 
  589000    1.0073349   -6.6455707    229.38319  0.032453763  0.033135515            4 
  590000    1.0151001   -6.6822266    229.79938   0.03245754  0.033116267            7 
  591000    1.0285236   -6.6531267    229.64875  0.032381381  0.033097041            5 
  592000    1.0064667   -6.6756942    230.25915  0.032412606   0.03307752            3 
  593000    1.0283053   -6.6540559    229.80793  0.032294537  0.033057595            5 
  594000    1.0093076   -6.6583876    230.02829  0.032271084  0.033037997            5 
  595000    1.0093991   -6.7588169    229.80166  0.032185106  0.033017955            3 
  596000    1.0333727   -6.6492351    230.45057  0.032221836  0.032997946            2 
  597000    1.0477878   -6.6472124    230.57749  0.032185579  0.032977895            5 
  598000    1.0296108     -6.68603    229.86982  0.032033142  0.032957443            2 
  599000    1.0135865    -6.669704    231.00661  0.032137814  0.032936529            2 
  600000    1.0118495   -6.6523832     230.9042  0.032070028  0.032915364            3 
  601000   0.99606298   -6.7085695    231.27438  0.032067995  0.032894753            3 
  602000    1.0388821    -6.711574    232.03618  0.032120179  0.032874237            5 
  603000    1.0036114   -6.7058996    231.42227  0.031982072  0.032853586            2 
  604000    1.0096261   -6.6620473    232.02472  0.032012241  0.032832616            3 
  605000    1.0117273   -6.6810572    232.48263  0.032022401  0.032811873            5 
  606000    1.0118934   -6.6884627    232.13182  0.031921317   0.03279108            7 
  607000   0.99634986    -6.732485    232.60611  0.031933843  0.032769749            4 
  608000    1.0165187   -6.7129126    232.84833  0.031914519  0.032748885            6 
  609000   0.99156476   -6.6639132    234.32347  0.032063967  0.032728414            3 
  610000    1.0061443    -6.679084    233.41497  0.031887291  0.032708237            7 
  611000   0.98852402   -6.7258357    234.67403  0.032006823  0.032688236            5 
  612000    1.0056215   -6.6852799    234.50625  0.031931679  0.032668569            4 
  613000    1.0176541   -6.7239152    234.88462  0.031931024  0.032648793           11 
  614000     1.012414   -6.7051205     234.8948  0.031880402  0.032628999            5 
  615000    1.0406106   -6.6730682    236.00459  0.031978942  0.032609234            2 
  616000     1.006382   -6.6677442    235.70338   0.03188628  0.032589426            4 
  617000    1.0059282   -6.6882065    235.82665   0.03185125  0.032569434            3 
  618000    1.0113879   -6.6920993    235.99269  0.031822099  0.032549184            3 
  619000   0.99564898   -6.6780642    236.93304  0.031897286  0.032529324            3 
  620000    1.0142581   -6.7160074    236.36469  0.031769447  0.032509652            5 
  621000    1.0178299   -6.6583965    237.28184  0.031841363  0.032489834            5 
  622000    1.0145106   -6.7199049     237.4969  0.031818984   0.03246988            1 
  623000    1.0265041   -6.7223293    237.29292  0.031740626  0.032449846            9 
  624000    1.0099916   -6.7123507    237.99262  0.031783203  0.032430089            4 
  625000    1.0074698   -6.6853392     237.8755  0.031716733  0.032410061            3 
  626000    1.0128761   -6.6727521    238.20536  0.031709979  0.032389887            3 
  627000     1.003194   -6.7344807    238.21899  0.031661216  0.032369715           10 
  628000   0.97379775   -6.7172191    238.32673  0.031625097  0.032349478            3 
  629000    1.0088568   -6.7354604    238.73213  0.031628528  0.032329529            5 
  630000   0.99085704   -6.6928959    239.03955  0.031618988  0.032309341            3 
  631000   0.99721027   -6.6685411    239.81201  0.031670894  0.032289435            3 
  632000    1.0188927    -6.720749    239.48598  0.031577793  0.032269494            3 
  633000    1.0096364   -6.6936701    239.47454  0.031526401  0.032249324            3 
  634000    1.0170179   -6.7013517    240.27407  0.031581765  0.032229125            3 
  635000   0.99944788   -6.7212715    239.52261  0.031433414  0.032208662            3 
  636000   0.99447128   -6.7209796    239.40119   0.03136808  0.032187802            7 
  637000   0.99991223   -6.6982282    241.37791  0.031577434  0.032167495            2 
  638000    1.0129344    -6.697667    241.16724  0.031500423  0.032147723            4 
  639000   0.96973701   -6.7052001    240.51247  0.031365736  0.032127944            3 
  640000   0.99913885   -6.7288308    241.51607  0.031447406  0.032108392            4 
  641000   0.98582413   -6.7169973     241.8161   0.03143735  0.032088538            9 
  642000   0.98414182   -6.7218324    241.27224  0.031317788  0.032068484            9 
  643000   0.99530374   -6.6906066    242.62634  0.031444575  0.032048699            4 
  644000    1.0028784   -6.7054792    241.66205   0.03127097  0.032028922            3 
  645000    0.9919995   -6.7353466     242.7251  0.031359832   0.03200905            7 
  646000    1.0104084   -6.7115282    243.07835  0.031356857  0.031989233            3 
  647000   0.99963011   -6.7111336    243.78424  0.031399309  0.031969581            3 
  648000   0.98950076   -6.7238932    243.55942  0.031321942  0.031949933            6 
  649000    1.0101448    -6.679017    243.78327  0.031302423  0.031929949            5 
  650000    1.0035746   -6.6918535    243.22012  0.031182067  0.031909605            7 
  651000   0.97581369     -6.71836    243.60738   0.03118374  0.031889056           13 
  652000    1.0033514   -6.7591525    242.83371  0.031037028  0.031868737            6 
  653000    1.0049362   -6.7637465    243.22983   0.03104005  0.031847954            5 
  654000    1.0110753   -6.7121588    243.94604  0.031083849  0.031827203            7 
  655000   0.99720968   -6.7210557    244.49868  0.031106702  0.031806391            4 
  656000   0.99196996   -6.7311669    244.21762   0.03102358  0.031785315            6 
  657000   0.98184595   -6.7059797    244.70262  0.031037876  0.031764286            3 
  658000   0.98774844   -6.7199969    244.87396  0.031012406  0.031743556            3 
  659000   0.98729171   -6.7415587     245.5269  0.031047913   0.03172288            4 
  660000   0.97639623   -6.7599525     244.8861  0.030919962  0.031702187           11 
  661000   0.96984503   -6.7019173    246.25697  0.031046012  0.031681769            2 
  662000   0.98622804   -6.6881946    246.06292  0.030974688  0.031661404            6 
  663000   0.97511089   -6.6986755    246.05266  0.030926679  0.031641023            6 
  664000    1.0018914   -6.7336856    246.58434   0.03094683  0.031620612            4 
  665000   0.99363028   -6.7222295    246.03959  0.030832029  0.031600429            3 
  666000   0.97331762   -6.7566835    246.99242  0.030904957  0.031579965            5 
  667000    1.0075459   -6.7310698    247.13796  0.030876807  0.031559568            3 
  668000   0.98618795   -6.6995679    247.33352  0.030854981   0.03153941            4 
  669000   0.95577145   -6.7142164    247.81442  0.030868761  0.031519108            5 
  670000   0.99221067   -6.7355214    248.30241  0.030883384  0.031498793            4 
  671000    1.0056243   -6.7219862     247.8457  0.030780638  0.031478231            3 
  672000    0.9896547    -6.736713    248.12988  0.030770074  0.031457749            5 
  673000   0.99030884   -6.7590267    248.78591  0.030805586  0.031437234           11 
  674000   0.98830523   -6.7278058    248.00016   0.03066273  0.031416646            7 
  675000   0.99911618   -6.7273336    248.18327   0.03063991  0.031395654            3 
  676000   0.99245368   -6.7471278    248.86629  0.030678784  0.031375127            2 
  677000   0.94932542   -6.7212515    248.92014  0.030640096  0.031354255            4 
  678000   0.97842919   -6.7321456    249.06389  0.030612573  0.031333481            4 
  679000    0.9878864   -6.7393351    250.08999  0.030693421  0.031312842            5 
  680000    1.0036702    -6.744979    249.51718  0.030578086  0.031292299            2 
  681000   0.98658672   -6.7625429    249.73741  0.030560134  0.031271471            4 
  682000   0.99582821   -6.7320208    250.32945  0.030587665  0.031250831            4 
  683000   0.99012601   -6.7632015    250.26956  0.030535574  0.031230352            4 
  684000   0.98162752    -6.747537    250.62388  0.030534099  0.031209683            2 
  685000   0.97568558   -6.7682093    250.64799  0.030492457  0.031188862            6 
  686000   0.95676176   -6.7747379    251.18378  0.030513093   0.03116829            4 
  687000   0.96393822   -6.7678142     250.9348  0.030438477  0.031147537            3 
  688000   0.97654651   -6.7278422    252.11285  0.030536924  0.031126917            2 
  689000   0.97418321   -6.7734798    250.81342   0.03033544  0.031106444            5 
  690000    1.0109459   -6.7502911    251.07795  0.030323424  0.031085777            7 
  691000   0.98525546   -6.7746737    252.36522  0.030434783  0.031065028            5 
  692000   0.98240231   -6.7515469    252.50104  0.030407158  0.031044619            3 
  693000     1.011592   -6.7736692    252.88513  0.030409467  0.031024159            3 
  694000    0.9836743   -6.7390895      253.276  0.030412584  0.031003686            5 
  695000   0.99559147   -6.7817527    252.29483  0.030251178  0.030982914            8 
  696000   0.96614194   -6.7652115    251.94484   0.03016581  0.030961987            4 
  697000   0.98441348    -6.747276    253.84247   0.03034941  0.030941105            4 
  698000   0.96998174   -6.7794571    253.65424  0.030283457  0.030920739            9 
  699000   0.98045795    -6.736127    253.07206  0.030170727  0.030900415            5 
  700000   0.97739678   -6.7222811    254.11725  0.030252054  0.030879895            3 
  701000   0.97853947   -6.7645226    253.76693  0.030167253  0.030859213            2 
  702000     1.004188   -6.7261092     255.4659  0.030325962  0.030838775            3 
  703000   0.95679101   -6.7734675    254.20827  0.030133745  0.030818448            3 
  704000   0.97910608   -6.7899205    254.31728  0.030103845  0.030797566            4 
  705000   0.95819683   -6.7733783    254.58563  0.030092865  0.030776755            3 
  706000   0.95862769   -6.7670947    254.52041  0.030042541  0.030756086            6 
  707000   0.97761921   -6.7879624     254.4739  0.029994566  0.030735104            7 
  708000   0.99071258   -6.7684211    255.52585  0.030076018  0.030714044            3 
  709000   0.97610653   -6.7798668    255.47448   0.03002756  0.030693227            4 
  710000   0.96241612   -6.7619128    254.99598  0.029929106  0.030671938            4 
  711000   0.95812597    -6.771013    255.58192  0.029955687  0.030650633            4 
  712000   0.98557867   -6.7369786    255.24876  0.029874621  0.030629533            3 
  713000   0.97637362   -6.7943896    255.82018  0.029899506  0.030608394            3 
  714000   0.96506341   -6.7808963    255.84069  0.029860025  0.030587227            4 
  715000   0.96174317   -6.7648135    255.89307  0.029824367  0.030565879            4 
  716000   0.96928479   -6.8125923    256.13498  0.029810868  0.030544931            9 
  717000     0.955616   -6.7591588    256.78256  0.029844556  0.030523977            4 
  718000    0.9706107   -6.7591043    256.02596  0.029715176  0.030503198            6 
  719000   0.97471484     -6.80657    256.19281  0.029693186  0.030481935            7 
  720000   0.95455221   -6.7663091    257.38066  0.029789429  0.030460538            3 
  721000   0.96594299   -6.8247891    257.22287  0.029729874  0.030439086            6 
  722000   0.94988243   -6.7615426    257.93208  0.029770553  0.030417717            4 
  723000   0.97335027   -6.7931406    257.24762  0.029650487  0.030396201            3 
  724000   0.96838742   -6.8040165    257.42011  0.029629386  0.030374733            6 
  725000   0.97505796   -6.7851418    257.74299  0.029625631  0.030353299            7 
  726000   0.93708894   -6.7532206     257.5378  0.029561272  0.030331734            3 
  727000   0.97867358   -6.7657584    258.38473   0.02961769  0.030310191            4 
  728000   0.96510489   -6.7725895    258.15842  0.029551101  0.030288329            3 
  729000   0.97886871   -6.7633055    258.53116  0.029553173  0.030266565            4 
  730000   0.96143335   -6.7910733    258.35374  0.029492436  0.030244846            3 
  731000     0.946643   -6.7554646    259.17404  0.029545605  0.030223231            2 
  732000    0.9509606   -6.7835893    259.11585  0.029498617  0.030201657            7 
  733000   0.94938791   -6.8211834    258.67511  0.029408266  0.030179937            4 
  734000   0.95746673   -6.7942987    258.93727  0.029397965    0.0301581            4 
  735000   0.94702655   -6.7536915    258.89253  0.029352894  0.030136319            6 
  736000   0.94662044   -6.7768967    260.19311  0.029460271  0.030114919            2 
  737000    0.9553161   -6.8069876    259.53179  0.029345522  0.030093686            3 
  738000   0.96823133   -6.7789807    259.52886  0.029305427  0.030072183            5 
  739000   0.93662037   -6.7870236    260.58663  0.029385051  0.030050763            4 
  740000   0.96842344   -6.8151071    260.53439  0.029339459  0.030029609            2 
  741000   0.96488498   -6.8262657    260.89412  0.029340319  0.030008719            5 
  742000    0.9553208   -6.7574462    261.94142  0.029418398  0.029988181            2 
  743000   0.97552335   -6.7949477    261.61364  0.029342042  0.029967596            3 
  744000   0.97533984   -6.8195611    261.60591  0.029301737  0.029946959            5 
  745000    0.9451658   -6.8052832    262.12102  0.029320024  0.029926188            8 
  746000   0.95083755   -6.7707278    262.88002  0.029365507  0.029905586            4 
  747000   0.93110446   -6.7979598    262.42466  0.029275397   0.02988499            3 
  748000   0.93075628   -6.7931356    262.68059  0.029264772  0.029864424            7 
  749000   0.96508472   -6.8063663    262.99275   0.02926043  0.029843574            3 
  750000   0.94153606   -6.7612393    263.82114   0.02931346  0.029822632            4 
  751000   0.94523514   -6.7970363    263.10155   0.02919458  0.029801817            3 
  752000   0.96912565   -6.7971007     263.8605   0.02923986  0.029781192            8 
  753000   0.95714612   -6.8180102    263.68208  0.029181283  0.029760522            5 
  754000   0.94750316   -6.7901867    264.29371   0.02921018  0.029739838            3 
  755000   0.94697044   -6.7741461    264.24233   0.02916582  0.029719416            5 
  756000    0.9552977   -6.8115466    264.26225  0.029129437   0.02969897            6 
  757000   0.95096646   -6.8100145    264.17856  0.029081743  0.029678639            6 
  758000    0.9540851   -6.7861537    265.92959  0.029235882  0.029658382            5 
  759000   0.96115126   -6.8045479    265.64959  0.029166621   0.02963858            2 
  760000   0.96125404   -6.7999219    265.85964  0.029151276  0.029618999            5 
  761000    0.9691294   -6.7959182    266.00543  0.029128934  0.029599168            3 
  762000   0.94418662   -6.8129878    266.45369   0.02913973  0.029579239            3 
  763000   0.91557912   -6.8127669     266.8351  0.029143195  0.029559404            8 
  764000   0.94860569    -6.762656    266.62938  0.029082611  0.029539717            3 
  765000   0.95432385    -6.784711    266.86104   0.02906983  0.029520267            4 
  766000   0.97585849   -6.8191761    267.93514  0.029148731  0.029500748            2 
  767000   0.94235031   -6.8218056    266.72489  0.028979236  0.029481187            7 
  768000   0.94494159    -6.788899    267.57637  0.029033894  0.029461366            3 
  769000   0.94676396    -6.843509    267.51952  0.028989978  0.029441481            3 
  770000    0.9576235   -6.8412855    267.07091  0.028903778  0.029421454            4 
  771000   0.95568236    -6.816564    267.41634  0.028903625  0.029401322            6 
  772000   0.95245719   -6.8273497    267.52618  0.028878042  0.029381234            6 
  773000   0.95153958   -6.8387698    267.94086  0.028885388  0.029361258            5 
  774000   0.93599384    -6.801163    268.25802  0.028882216  0.029341164            3 
  775000   0.96899501   -6.7905596    267.89537  0.028805953  0.029321049            8 
  776000   0.95335023   -6.8506061    267.89612  0.028768914  0.029300806            5 
  777000   0.93120082   -6.8253993     268.8016  0.028829001  0.029280676            4 
  778000   0.91190622   -6.8385136    268.26813  0.028734804  0.029260608            7 
  779000   0.95450741    -6.816712    268.21289  0.028692008  0.029240584            5 
  780000    0.9325619   -6.8153312     269.6097  0.028804455  0.029220368            4 
  781000   0.94255843   -6.8341067    269.16207  0.028719811  0.029200377            2 
  782000   0.94533672   -6.8294764    269.39304  0.028707699  0.029180373            2 
  783000   0.97627942   -6.8252515     269.7558  0.028709643  0.029160447            5 
  784000   0.93749223   -6.8548494    269.80663  0.028678425  0.029140636            7 
  785000   0.96017473   -6.8483258    269.98502   0.02866083  0.029120947            5 
  786000   0.93790545   -6.8537429     270.2243  0.028649735  0.029101365            5 
  787000   0.94110087    -6.817893    270.91766  0.028686749  0.029081709            5 
  788000   0.93746243     -6.82431     270.9686  0.028655732  0.029062212            5 
  789000   0.95197857   -6.8445711    270.63825  0.028584522  0.029042591            4 
  790000   0.92784004    -6.843515    271.54653  0.028644149  0.029023095            2 
  791000    0.9370619   -6.8094495    271.19968  0.028571395  0.029003572            5 
  792000   0.94005012   -6.8443462     271.1416  0.028529209   0.02898385            5 
  793000   0.93144755   -6.8472413    270.37394  0.028412562  0.028963962           12 
  794000   0.94199366   -6.8562916    272.08344  0.028556196  0.028944134            4 
  795000   0.95416336   -6.8368995    271.73658  0.028483919  0.028924443            9 
  796000   0.93296332   -6.8340779     272.4518  0.028523011  0.028904885            5 
  797000   0.93830881   -6.8205266    272.58275  0.028500915  0.028885246            4 
  798000   0.92711027   -6.8656741    271.60208  0.028362791  0.028865592            5 
  799000   0.93493222   -6.8540617    272.49528   0.02842045  0.028845925            3 
  800000   0.91854536   -6.8177356     272.5231  0.028387823  0.028826129            6 
  801000   0.94523743   -6.8141993    273.19287  0.028422063  0.028806745            3 
  802000   0.91586821    -6.835379    274.32981   0.02850476  0.028787315            7 
  803000   0.93421314   -6.8174875    273.30358  0.028362762  0.028768011            5 
  804000   0.92110232   -6.8260384    273.77505  0.028376353  0.028748724            8 
  805000   0.93570068   -6.8572256    274.05321  0.028369897  0.028728988            5 
  806000    0.9259793   -6.8398757    273.45542  0.028272892  0.028709049            3 
  807000   0.93192466   -6.8270713    273.78405  0.028271794  0.028689288            9 
  808000   0.96003088   -6.8515192    273.66413  0.028224436  0.028669374            1 
  809000   0.92592225   -6.8331476    274.43823  0.028269286  0.028649462           10 
  810000   0.92881749   -6.8391751    273.79362  0.028168068  0.028629408            8 
  811000   0.95100245   -6.8436232    273.88804  0.028143037  0.028609438            7 
  812000   0.93456183   -6.8555783     273.7637  0.028095618  0.028589442            3 
  813000   0.89314316   -6.8637103    274.51428  0.028137995  0.028569423            4 
  814000   0.91194771   -6.9002484    273.70654  0.028020735  0.028549017           12 
  815000   0.92174375    -6.823928    274.20949   0.02803778  0.028528849            2 
  816000   0.91536624   -6.8666568    275.01938   0.02808613  0.028508665            4 
  817000   0.93748861   -6.8623296    275.22936   0.02807317  0.028488675            8 
  818000   0.91514907   -6.8702584    274.93559  0.028008923  0.028468593           13 
  819000   0.94458703   -6.8545881    274.99665  0.027980937  0.028448589            7 
  820000   0.90260238   -6.8655537      274.739   0.02792063  0.028428567            4 
  821000   0.91318896    -6.838518    275.64723  0.027978809   0.02840859            3 
  822000   0.92823194    -6.883327    276.21044  0.028001869  0.028388765            5 
  823000   0.90875208   -6.8732884     275.6113  0.027907179   0.02836892            4 
  824000   0.93273072   -6.8775033    276.83143  0.027996706  0.028349349            4 
  825000   0.91665076   -6.8696413    276.06752  0.027885608  0.028329461            3 
  826000   0.92452556   -6.8491808    276.72416  0.027918095  0.028309615           12 
  827000   0.91221695    -6.889858    277.08577  0.027920775  0.028290044            3 
  828000   0.92690679   -6.8821604    276.52507  0.027830623  0.028270339            6 
  829000   0.92720229   -6.8704218    277.23467  0.027868383  0.028250603            3 
  830000   0.93682832   -6.8582057    277.07396   0.02781867  0.028230937            9 
  831000   0.93308078   -6.8621267    277.41349  0.027819243  0.028211431            6 
  832000   0.91810079   -6.9013369    276.73477  0.027717825  0.028191841            6 
  833000   0.93317393   -6.8829055    278.13167  0.027824297  0.028172061            4 
  834000   0.92563795   -6.8844213    278.19791  0.027797553  0.028152523            4 
  835000   0.90900403   -6.8529592    278.01477  0.027745985  0.028132944            7 
  836000   0.92144019   -6.8904891    278.36867  0.027748073  0.028113225            5 
  837000   0.92499421   -6.8902236    278.39654  0.027717696  0.028093643            5 
  838000   0.93099535    -6.852796    279.47553  0.027791918  0.028074503            3 
  839000   0.92080771   -6.8904744    278.83425  0.027695098  0.028055317           10 
  840000   0.90760834   -6.9001015    279.27736  0.027706087  0.028035989            5 
  841000   0.90191705   -6.8741487    279.46382  0.027691619   0.02801685            3 
  842000   0.93373874   -6.8896236    279.34586  0.027647057   0.02799756            4 
  843000   0.90464144   -6.9125321    279.22864  0.027602673  0.027978208            5 
  844000   0.91285227   -6.8933952    280.27087  0.027672874  0.027958912            3 
  845000   0.92582321   -6.8921729    280.69533  0.027681986  0.027940012            5 
  846000   0.92797371   -6.8962954    279.98608  0.027579401  0.027920862            3 
  847000   0.92432496   -6.9050317    280.36006  0.027583634   0.02790151            5 
  848000   0.93312494   -6.8764823     280.0667  0.027522278  0.027882237           13 
  849000   0.92044679   -6.9002119    280.85932   0.02756766  0.027863183            9 
  850000    0.9198987   -6.8647174    281.42481  0.027590668  0.027844146            3 
  851000   0.92123943   -6.8533421    281.57778  0.027573226  0.027825119            3 
  852000     0.918193   -6.8688664    281.33846  0.027517455  0.027806191            3 
  853000   0.91758094   -6.8955505    281.15966  0.027467727   0.02778725            5 
  854000   0.92111209   -6.9040982    282.12452  0.027529715  0.027768236            4 
  855000   0.91458961    -6.906336    280.56669  0.027345681  0.027749082            7 
  856000    0.8956237   -6.9180696    281.37891  0.027392806  0.027729792            4 
  857000   0.91493619   -6.9126444    282.31526  0.027451893   0.02771057            2 
  858000   0.92648304   -6.8574256    282.17122  0.027405907  0.027691591            5 
  859000   0.89132965   -6.8477204    281.81817  0.027339753  0.027672605            9 
  860000   0.92174955   -6.8555064    282.40229  0.027364563  0.027653698            6 
  861000    0.8966807   -6.8800901    283.09074  0.027399414  0.027634666            7 
  862000    0.9154593   -6.8898711    282.86618  0.027345919  0.027615755            8 
  863000    0.8997254   -6.9130613    283.05024  0.027332005  0.027596734            2 
  864000   0.90359004   -6.9015208    283.14591  0.027309598   0.02757765            7 
  865000    0.9110137   -6.8845064    282.86032  0.027250512  0.027558514            6 
  866000   0.91260009   -6.9114127    282.81927  0.027215095  0.027539415            2 
  867000    0.9045756   -6.9084755    283.27364  0.027227378  0.027520163            5 
  868000    0.9034925   -6.8919832    283.03206  0.027172816  0.027500967            8 
  869000   0.92144258   -6.9081808    283.21914  0.027159488  0.027481909            3 
  870000   0.88679358   -6.8867934    283.52345  0.027157419  0.027463111            6 
  871000   0.91291251   -6.9118601     283.8253  0.027155118  0.027444178            4 
  872000   0.91802419   -6.8951088    284.90384  0.027227049  0.027425386           14 
  873000    0.9109456   -6.9064105    285.03285  0.027208176  0.027406753            5 
  874000   0.91063972   -6.8697658    285.05463  0.027179122  0.027388149            2 
  875000    0.9188263   -6.8730459    285.26147  0.027167759  0.027369694            6 
  876000   0.89245016   -6.9141668    285.00184  0.027112047  0.027351253            6 
  877000   0.90040201   -6.9251622     286.0215  0.027178022  0.027332715            6 
  878000   0.90977593    -6.916362    285.23376  0.027072301  0.027314273            9 
  879000   0.89762423   -6.9051121    285.39638  0.027056919  0.027295599            7 
  880000   0.91006679    -6.903055    286.77214  0.027156453  0.027276968            3 
  881000   0.88142518   -6.9145148    286.29886  0.027080861  0.027258465            8 
  882000   0.90542968   -6.9363625    285.63797  0.026987714  0.027239915            6 
  883000   0.90574196   -6.9190374    286.32689  0.027022168  0.027221452            2 
  884000   0.91465909   -6.9128916    286.56837  0.027014364  0.027202975            3 
  885000   0.92217647   -6.8848611    286.35272  0.026963533  0.027184609            3 
  886000   0.90297513   -6.9280285    285.95934    0.0268961  0.027166231           10 
  887000   0.90831413   -6.8919487     287.1005   0.02697299  0.027147773            4 
  888000   0.88024104    -6.906173    287.11942   0.02694439  0.027129452            3 
  889000   0.89108759   -6.9064803    287.60481  0.026959581  0.027111109            4 
  890000   0.88881438    -6.930625    287.17274  0.026888833  0.027092854            6 
  891000   0.89362252   -6.9136594    287.54564  0.026893532  0.027074415            4 
  892000   0.91764841   -6.9187146    287.27345  0.026837953  0.027056025            6 
  893000    0.8962669   -6.9261446    287.91337  0.026867615  0.027037645            6 
  894000   0.88631723   -6.9024425    288.08808  0.026853848  0.027019517            4 
  895000   0.88552056   -6.9328563    287.78032  0.026795188  0.027001077            6 
  896000   0.88528287   -6.9381819    288.27779  0.026811551  0.026982519            5 
  897000   0.88840488   -6.9051791    287.83389  0.026740421  0.026963854            3 
  898000   0.88637649   -6.9047366    287.75164  0.026703011  0.026945403            5 
  899000   0.89610828   -6.9249306    287.57875  0.026657281  0.026926754            7 
  900000   0.89437549   -6.9018297    288.63979  0.026725907  0.026908121           15 
  901000   0.88768149   -6.9243235    288.43134  0.026676964  0.026889463            6 
  902000   0.90473391   -6.9662943    287.86457  0.026595027  0.026870849            6 
  903000   0.89791612   -6.9138524    289.43815  0.026710793  0.026852209            6 
  904000    0.8860566   -6.9405036     288.7495  0.026617764  0.026833499            4 
  905000   0.87244167   -6.9262347    288.93656  0.026605576  0.026814873            3 
  906000   0.90274858   -6.9203921    289.56838  0.026634325  0.026796338            3 
  907000   0.89244187   -6.9387845    289.06307  0.026558532  0.026777873            7 
  908000   0.88107141   -6.9218141     289.7637  0.026593585  0.026759326            4 
  909000   0.88032469   -6.9200027    289.67987  0.026556643  0.026740838            2 
  910000   0.86773182   -6.9087667    289.74628  0.026533542   0.02672245            9 
  911000   0.90725163   -6.9380822    289.92825  0.026521062  0.026703943            7 
  912000   0.89435602   -6.9155639    290.16305  0.026513437  0.026685247            7 
  913000   0.90280351   -6.9397561    289.58771  0.026431883  0.026666673            7 
  914000     0.883051   -6.9343409    290.86771  0.026519667  0.026648027            4 
  915000   0.90302846   -6.9210292    290.03811  0.026415128  0.026629524            2 
  916000   0.88582832   -6.9371036     290.5366  0.026431641  0.026611024            4 
  917000   0.89832151   -6.9102518    291.63831  0.026502936  0.026592812            4 
  918000   0.89662617   -6.9614057    290.86013  0.026403425   0.02657447            7 
  919000   0.88909318   -6.9452279    290.34752  0.026328212  0.026556129            4 
  920000   0.88186032   -6.9389176    291.53494  0.026407151  0.026537658            6 
  921000   0.88723047   -6.9421127    291.22356  0.026350304   0.02651936            3 
  922000   0.88020855   -6.9148475    291.90725  0.026383519  0.026501087           11 
  923000   0.90371288   -6.9631253    290.85542   0.02625997  0.026482634            5 
  924000   0.88522335   -6.9363113    290.33336  0.026184466  0.026463966            3 
  925000   0.87853737   -6.9590992    291.56743  0.026267336  0.026445295            8 
  926000   0.88456286   -6.9150479    291.22647  0.026208286  0.026426408            7 
  927000   0.89409988   -6.9546189    291.65172  0.026218242    0.0264076           11 
  928000   0.89389914   -6.9640707    290.82335  0.026115603  0.026388715            3 
  929000   0.89686932   -6.9821066    291.71313  0.026167306  0.026369788            5 
  930000   0.90805214   -6.9687808    291.05365  0.026080076  0.026350856            5 
  931000   0.88940496   -6.9338201    291.99841  0.026136628  0.026331946            6 
  932000   0.88658731   -6.9540369     291.2949  0.026045681  0.026313079            3 
  933000   0.87160162   -6.9569661     291.1669  0.026006333  0.026294085            6 
  934000   0.89932622   -6.9684617    291.22176  0.025983384  0.026274768            3 
  935000   0.89130849   -6.9712753    291.83811  0.026010526  0.026255474            7 
  936000   0.87787885   -6.9491818    292.18304  0.026013447  0.026236262            5 
  937000   0.87176332    -6.928478    291.52118  0.025926822  0.026217155            3 
  938000     0.887671   -6.9484492    292.22422   0.02596164  0.026198072            4 
  939000   0.88609029    -6.933394     292.0599  0.025919409   0.02617897            5 
  940000   0.86780032   -6.9403467    291.34208  0.025828198  0.026159906            6 
  941000   0.88443889   -6.9702379    291.84942   0.02584568  0.026141007            4 
  942000   0.88684295   -6.9570485    292.35922  0.025863342  0.026121859            9 
  943000   0.86234316   -6.9725262    292.52027  0.025850148  0.026102931           11 
  944000   0.86743407   -6.9516548    293.09729  0.025873702  0.026083987            7 
  945000   0.87424774   -6.9560531    293.18645  0.025854185  0.026065231            9 
  946000   0.87489857   -6.9481127     293.4022  0.025845859  0.026046642            3 
  947000   0.85986212   -6.9475909    294.18147  0.025887141  0.026028236            4 
  948000   0.86339184   -6.9614762    293.80317   0.02582658  0.026009769           11 
  949000   0.87466836   -6.9836749    293.46863  0.025769989  0.025991325            5 
  950000   0.85995025   -6.9432396    293.37085  0.025734285   0.02597286            3 
  951000   0.87248606   -6.9504234    295.03054  0.025852659  0.025954426            5 
  952000   0.86359081   -6.9360583    295.33771   0.02585239  0.025936081            5 
  953000   0.88110108    -6.969039    294.42188   0.02574518  0.025917601            7 
  954000   0.87716266   -7.0028315    294.56764  0.025730926  0.025898994            8 
  955000   0.86844914   -6.9669832    294.25426  0.025676637  0.025880485            7 
  956000   0.87512007   -6.9585098    294.69969  0.025688606  0.025861906            8 
  957000   0.86759796   -6.9656232    295.00523  0.025688369  0.025843403            4 
  958000   0.85570676   -6.9560093    294.54699  0.025621694  0.025824971            3 
  959000    0.8839209   -6.9744714    294.86523  0.025622631  0.025806432            5 
  960000   0.85954122   -6.9477841    295.43019  0.025644982  0.025787992            3 
  961000   0.87889933   -6.9768161    295.70352  0.025641998  0.025769697            5 
  962000   0.87103966   -6.9817349    295.44314  0.025592787  0.025751471            6 
  963000   0.86677415   -6.9833772    296.04169  0.025618007  0.025733213            7 
  964000   0.86349775   -6.9817928    296.01856  0.025589433  0.025715154            7 
  965000   0.86567061   -6.9454939    296.62408  0.025615205  0.025697113           11 
  966000   0.87256632    -6.999632    296.02201   0.02553675  0.025678954            9 
  967000   0.87732536   -6.9759149    297.66165  0.025651642  0.025660893            4 
  968000   0.87340099   -6.9576594    297.15079  0.025581163  0.025643022            5 
  969000   0.87929519   -6.9480414    297.45584  0.025580997  0.025625392            7 
  970000   0.87196809   -6.9823663    297.23756  0.025535873   0.02560781            5 
  971000   0.87278649   -6.9517168    297.66548  0.025546299  0.025590016            4 
  972000   0.84841347   -6.9392762    297.74015  0.025526419  0.025572238            7 
  973000   0.86923377   -6.9698273    297.78638  0.025504144  0.025554349            8 
  974000   0.85420048   -6.9727799    297.10928  0.025420027   0.02553641            5 
  975000   0.85898778   -6.9704659     297.6631   0.02544129  0.025518525           12 
  976000    0.8709521   -6.9625678    298.99915  0.025529299  0.025500604            7 
  977000   0.87858136   -6.9597654    298.01806  0.025419487  0.025482931            9 
  978000   0.85909804   -6.9637313    299.24398  0.025497953  0.025465333            4 
  979000   0.86900673   -6.9647709    299.98779  0.025535222  0.025448122            4 
  980000   0.87794994   -6.9774881    300.07485  0.025516569  0.025431111            7 
  981000   0.88093733   -6.9915029    299.15322  0.025412268  0.025413791            5 
  982000   0.86257194   -6.9962663    299.55288  0.025420305  0.025396524            6 
  983000   0.85034903   -7.0107192    300.04101  0.025435826  0.025379143           10 
  984000   0.86699683    -6.983607    299.66557  0.025378182  0.025361789            3 
  985000   0.85589455   -7.0002369    300.03453  0.025383632   0.02534436            4 
  986000   0.85103397   -7.0143537    299.62912  0.025323624  0.025327159            9 
  987000   0.86634557   -6.9729056    300.85898  0.025401805  0.025309981            4 
  988000   0.85726271   -7.0167128    300.66298  0.025359563  0.025292718            6 
  989000   0.84537591    -6.996477    301.20254  0.025379385  0.025275471            6 
  990000   0.84691189   -7.0310085    300.69562  0.025311079  0.025258253            6 
  991000    0.8501542   -6.9709876    300.87405  0.025300542   0.02524095            4 
  992000   0.86528713   -6.9926524    300.22062  0.025220146  0.025223706            6 
  993000   0.85653255    -6.987476    301.91812  0.025337204   0.02520644            9 
  994000   0.86619796   -7.0057809    301.11532   0.02524441  0.025189097            3 
  995000   0.84631372   -6.9772508    301.01212  0.025210396  0.025171753            5 
  996000   0.84538862     -7.00125    301.31505  0.025210429  0.025154661            8 
  997000   0.84793579   -7.0040019    301.14411  0.025170855  0.025137423            8 
  998000   0.85093885   -7.0060546    301.18899  0.025149381  0.025120036            3 
  999000   0.85821416   -7.0000303     301.4428  0.025145379   0.02510279            6 
 1000000   0.84825929   -7.0095337    300.66113  0.025055094  0.025085455            7 
 1001000   0.84228334    -6.973757    301.69426  0.025116072  0.025068179           11 
 1002000   0.86280706   -7.0218473    300.96175  0.025030085  0.025050895            8 
 1003000   0.85841878   -6.9975222    301.69675  0.025066197  0.025033518            6 
 1004000   0.85853255   -7.0041415    301.04363  0.024987021  0.025016139            9 
 1005000   0.86149053   -7.0157256    301.03101  0.024961112  0.024998669            5 
 1006000   0.85810126   -7.0076277    301.26951  0.024956056  0.024981057            6 
 1007000   0.86572361   -7.0522385    301.97172  0.024989384  0.024963641            4 
 1008000   0.83671444   -7.0175358    301.73451  0.024944983  0.024946161            7 
 1009000    0.8693835    -7.005447    302.53957   0.02498675  0.024928783            6 
 1010000   0.85364462   -7.0283914     302.2205  0.024935685  0.024911597            3 
 1011000   0.85286228   -7.0224303    301.72057  0.024869813  0.024894378            6 
 1012000   0.83789338   -7.0169379    302.56275  0.024914587   0.02487729            5 
 1013000   0.85615788   -6.9779092    303.86074  0.024996771  0.024860213            7 
 1014000   0.81853306   -6.9883014    303.60162  0.024950823  0.024843007           11 
 1015000   0.85350485   -7.0335524    302.49357  0.024835269  0.024825942            3 
 1016000   0.83593987   -7.0353261    304.15554  0.024947141  0.024808938            3 
 1017000   0.85770594   -7.0605013    302.95486  0.024824227  0.024791913            3 
 1018000   0.83383779   -7.0038016    303.39734  0.024836062  0.024774707            4 
 1019000   0.83365719   -7.0244291    303.15573  0.024791931  0.024757516           11 
 1020000   0.85388711   -7.0278123    303.71307  0.024813159  0.024740474            7 
 1021000   0.85443577   -7.0018623    304.59259  0.024860642  0.024723423            4 
 1022000   0.84122374   -7.0264752    303.42193  0.024740862  0.024706504            9 
 1023000   0.84579905   -7.0223133    304.28799  0.024787226  0.024689491            9 
 1024000   0.84886906   -7.0174627    304.64083  0.024791734  0.024672602            7 
 1025000   0.83537784   -7.0164258    304.48439  0.024754829  0.024655737            6 
 1026000   0.84451978   -7.0576923    303.97448  0.024689285  0.024638782            5 
 1027000   0.83655794   -7.0252758    304.34366  0.024695201  0.024621756            5 
 1028000   0.86029177   -7.0380369    304.24003  0.024662778  0.024604725            6 
 1029000   0.82303763   -7.0405041     304.0353   0.02462223  0.024587614            9 
 1030000   0.84288056    -7.037556    304.33754  0.024622778  0.024570669            5 
 1031000   0.83906828   -7.0201467    304.27033  0.024593463  0.024553606            7 
 1032000   0.83228621   -7.0387216     305.3078  0.024653408  0.024536587            8 
 1033000   0.84856511   -7.0426806    304.98987  0.024603894  0.024519494            5 
 1034000   0.83395085   -7.0361668    305.01288  0.024581953  0.024502569            5 
 1035000   0.84997984    -7.044666    305.41558  0.024590627  0.024485611            4 
 1036000   0.83054508   -7.0347121    305.31765  0.024559013  0.024468685            5 
 1037000   0.83454375   -7.0367482    305.41842  0.024543428  0.024451829            4 
 1038000   0.83511356    -7.045788    305.37651  0.024516418  0.024434881           10 
 1039000   0.84038032    -7.069432    305.57362  0.024508632  0.024417904            5 
 1040000   0.83635117    -7.033362    306.25257  0.024539469  0.024401069            3 
 1041000   0.83962735   -7.0643464    305.99792  0.024495511  0.024384319            5 
 1042000   0.84581068   -7.0305248    305.61973  0.024441757  0.024367452            7 
 1043000   0.83699158   -7.0331003    306.42271  0.024482479  0.024350697            4 
 1044000    0.8571704   -7.0318182    306.02003  0.024426886  0.024333953            5 
 1045000   0.83745125   -7.0319736    306.42809  0.024436052  0.024317184            5 
 1046000   0.82489589   -7.0521997    306.32966  0.024404848  0.024300305            5 
 1047000   0.83630925   -7.0549073     306.0907   0.02436252  0.024283385           12 
 1048000   0.83092064   -7.0761519    305.93963   0.02432726  0.024266357            6 
 1049000   0.83947361   -7.0567555    305.65404  0.024281382  0.024249243            8 
 1050000   0.83106164   -7.0500343    307.18507  0.024379767  0.024232269            5 
 1051000   0.84932362   -7.0244166    306.47103  0.024299955  0.024215321            4 
 1052000   0.83872225   -7.0695136    306.39167   0.02427057  0.024198476            6 
 1053000   0.83475022     -7.07129    306.90564  0.024288195  0.024181519            9 
 1054000    0.8467216   -7.0183205    306.50442   0.02423343  0.024164552           10 
 1055000   0.82435497   -7.0441376     306.8909  0.024240987  0.024147637           15 
 1056000     0.842355   -7.0741271    306.63481  0.024197823   0.02413061            8 
 1057000   0.83420942   -7.0423702    306.62352   0.02417404  0.024113451            4 
 1058000   0.84059399    -7.052509    307.30809  0.024205111  0.024096466            9 
 1059000   0.82146035   -7.0790753    307.02738  0.024160165  0.024079595            5 
 1060000   0.82806933   -7.0655711    307.76172  0.024195104  0.024062679            6 
 1061000   0.83140355   -7.0452421    308.05201    0.0241951  0.024045871            7 
 1062000   0.82393187   -7.0555251    307.08755  0.024096638  0.024029065            6 
 1063000   0.82900068   -7.0700471    307.93104  0.024140094  0.024012113            7 
 1064000   0.81781412   -7.0659104    308.02876  0.024125059  0.023995157            9 
 1065000   0.81882092   -7.0719841    307.49021  0.024060267  0.023978283            3 
 1066000   0.83676041   -7.0551418    307.66834  0.024051621  0.023961513            3 
 1067000   0.83058192   -7.0596533    307.73943  0.024034632   0.02394477            4 
 1068000   0.82603983   -7.0475737    308.36624  0.024061036  0.023927913            4 
 1069000     0.829547   -7.0256681    307.78093    0.0239929  0.023910985            6 
 1070000   0.81150588   -7.0441386    308.37537  0.024016773  0.023894156            4 
 1071000   0.83867655    -7.021823      308.489   0.02400319  0.023877504            8 
 1072000   0.82309437   -7.0313862    308.76658  0.024002377  0.023860807            5 
 1073000   0.82826908   -7.0791459    309.03115  0.024000555  0.023844122            7 
 1074000   0.81912299   -7.0900947       308.22   0.02391527   0.02382727            5 
 1075000   0.81684912   -7.0310091    308.41647  0.023908254   0.02381039            7 
 1076000   0.81939947   -7.0646038    307.99461  0.023853362  0.023793529            7 
 1077000   0.82748531   -7.0815114    308.41089  0.023863424  0.023776657            7 
 1078000    0.8292519   -7.0350575    308.42561  0.023842425  0.023759818            4 
 1079000   0.81426985   -7.0634805    307.93392  0.023782354  0.023742871            8 
 1080000   0.82424256   -7.0733122    308.53739  0.023806898  0.023725947            5 
 1081000    0.8368732   -7.0637141    309.19902  0.023835879  0.023708988            8 
 1082000   0.82464456   -7.0986963    308.43773  0.023755216  0.023691919            3 
 1083000   0.83276544   -7.0712509    309.73013  0.023832728  0.023674852            6 
 1084000   0.83133376   -7.0739614    309.17612  0.023768152  0.023657939            8 
 1085000   0.82074246   -7.0986788    309.44539  0.023766927  0.023641005            4 
 1086000    0.8127767   -7.0455281     309.1134  0.023719568  0.023624163            5 
 1087000   0.83287888   -7.0748846    309.35207  0.023716044  0.023607326            5 
 1088000   0.80374425   -7.0906635    309.61466  0.023714358  0.023590442           10 
 1089000   0.81995985   -7.0769273    309.52814  0.023685961  0.023573533            3 
 1090000   0.81574666   -7.0858257    309.98169  0.023698906  0.023556668            5 
 1091000   0.81471193   -7.0920774    310.11557   0.02368741  0.023539819            6 
 1092000   0.81692502   -7.0845905    309.73543  0.023636709  0.023523015            5 
 1093000   0.79809944   -7.0891648    310.26497  0.023655456  0.023506236            8 
 1094000   0.79878216   -7.0786688    310.07205  0.023619139  0.023489431            4 
 1095000   0.80653896   -7.0988175    310.17536   0.02360543  0.023472737            9 
 1096000   0.80737302   -7.1000115    309.89381  0.023562485   0.02345589           14 
 1097000    0.8210967    -7.094228    309.83583  0.023536602   0.02343918           15 
 1098000   0.81706423   -7.0935195    310.93004  0.023598212  0.023422478            6 
 1099000   0.82378437    -7.080207    310.31224  0.023529894  0.023405642            4 
 1100000    0.8217861   -7.1009962    309.96715   0.02348236  0.023388853            8 
 1101000   0.81109124   -7.0685709    310.37507  0.023491907  0.023372091            6 
 1102000   0.82031704   -7.0946826     310.4292  0.023474682  0.023355328            3 
 1103000   0.81022035   -7.0948223    310.43094  0.023453531  0.023338526            5 
 1104000   0.79639437   -7.0668624    310.62934  0.023447263  0.023321812            6 
 1105000   0.81633695   -7.0844641    310.91944  0.023447922  0.023305096            6 
 1106000   0.80203494   -7.1016752    310.75488  0.023414322  0.023288312            6 
 1107000   0.80284296   -7.1189203    311.54185  0.023452413   0.02327164            3 
 1108000   0.80270791   -7.1217247    311.17789  0.023403873  0.023254944            8 
 1109000   0.80806281    -7.123456    310.87072  0.023359687  0.023238243            9 
 1110000   0.83404995    -7.098745    310.24571   0.02329172  0.023221491           15 
 1111000   0.82730228    -7.108781    311.37397  0.023355383  0.023204735            6 
 1112000   0.81950372    -7.079075     311.1048  0.023314209   0.02318815            7 
 1113000   0.79952877   -7.0840899    311.90161   0.02335292  0.023171684           15 
 1114000   0.81070982   -7.1101332    311.39117  0.023293774  0.023155294           12 
 1115000   0.81521515   -7.0935415    311.37869   0.02327195  0.023138844           10 
 1116000   0.80174864   -7.1114053     312.6395  0.023345244  0.023122396           10 
 1117000   0.80876455   -7.0905072    313.09007  0.023357958  0.023105952           11 
 1118000   0.81615727   -7.0824564    312.41646  0.023286856  0.023089557            4 
 1119000   0.83051691   -7.0998428    312.16464  0.023247292  0.023073089            6 
 1120000   0.82269261   -7.0921327     312.5261   0.02325343  0.023056664            5 
 1121000   0.79850554   -7.1141476    313.12705   0.02327736  0.023040272            6 
 1122000    0.8064782   -7.1150872    312.89929  0.023239697  0.023023954            6 
 1123000   0.79506634   -7.1259199    312.91549  0.023220205  0.023007581           18 
 1124000   0.79506351   -7.0996825    312.65975  0.023180587  0.022991156           12 
 1125000   0.81222473   -7.1190709    312.07462  0.023116639  0.022974633            3 
 1126000   0.80673097   -7.1217039    312.30155  0.023112903  0.022958218           16 
 1127000    0.7992974   -7.1377696    312.04968  0.023073771  0.022941664           13 
 1128000    0.8163812   -7.1229821    312.98333  0.023122291   0.02292514            6 
 1129000   0.80694793   -7.1324429    312.90333  0.023095906  0.022908625            9 
 1130000   0.78934209   -7.1391111    312.33769  0.023033753   0.02289223            4 
 1131000   0.82642304   -7.1104302    313.02283  0.023063869  0.022875952            5 
 1132000   0.78308392   -7.1286976    312.98876  0.023040986  0.022859689           12 
 1133000   0.80862221   -7.1190102     313.5212  0.023059812  0.022843345           16 
 1134000    0.7838804   -7.1195627    313.61015  0.023046013  0.022827057           18 
 1135000   0.82143506   -7.1032594    313.98885  0.023053513  0.022810787            9 
 1136000   0.80421164   -7.0788505     314.2315   0.02305102  0.022794611            8 
 1137000   0.79754587   -7.1238293    313.99239  0.023013221  0.022778488           13 
 1138000   0.79417134   -7.1214548    314.44867  0.023026411  0.022762327           11 
 1139000    0.7866204   -7.1510068    313.75915  0.022955747  0.022746283           13 
 1140000   0.79824022   -7.1390795     314.4988  0.022989678  0.022730094            4 
 1141000   0.78890009   -7.1027014    314.58289  0.022975671  0.022714015            9 
 1142000   0.79889528   -7.1089347    314.55352  0.022953409   0.02269801            8 
 1143000   0.79462593   -7.0996872    315.00841  0.022966493  0.022682204            7 
 1144000   0.80112477    -7.101439    314.96033  0.022942914  0.022666392            7 
 1145000   0.79894855   -7.1192747    315.14969  0.022936658   0.02265056            8 
 1146000   0.80770546   -7.1099833    315.64947  0.022952986  0.022634794            5 
 1147000   0.79690618   -7.0973153    315.71752  0.022937919  0.022619056           12 
 1148000    0.7858026   -7.1184675    315.96034  0.022935565  0.022603294            3 
 1149000   0.78735527   -7.1323795    316.29888  0.022940157  0.022587696            3 
 1150000   0.79633079   -7.1253622    315.82956    0.0228862  0.022572158           11 
 1151000   0.79765838   -7.1215636    316.51493  0.022915938  0.022556503            9 
 1152000   0.78841333   -7.1403382    315.53735  0.022825329  0.022540649            6 
 1153000     0.797174   -7.1201135    316.10322  0.022846431  0.022524846           12 
 1154000   0.80061474   -7.1501539       316.03  0.022821346  0.022509043            8 
 1155000   0.79604895   -7.1222303    315.42754   0.02275812  0.022493234            5 
 1156000   0.79711124   -7.1447145    315.71261  0.022758983  0.022477458           12 
 1157000   0.78892079   -7.1331171    316.66776  0.022808107  0.022461646           20 
 1158000    0.7913724   -7.1491738    316.61603  0.022784688  0.022445742           10 
 1159000   0.78450422   -7.1499876    315.79337  0.022705879  0.022429877           11 
 1160000   0.78721427    -7.157506    315.86166  0.022691211  0.022414067           11 
 1161000   0.78993113   -7.1089223    316.02704  0.022683537  0.022398354            7 
 1162000   0.77912972   -7.1130471    316.86327  0.022723986  0.022382645            9 
 1163000   0.78948969   -7.1407807    316.61402  0.022686588  0.022366879            9 
 1164000    0.7848082   -7.1381809    316.16497  0.022634949  0.022351114            7 
 1165000   0.79248596   -7.1687623    316.78894  0.022660153  0.022335429            5 
 1166000   0.78161018   -7.1328729    317.48721  0.022690624  0.022319836            4 
 1167000   0.78580832   -7.1180839    317.04382  0.022639519  0.022304271            4 
 1168000   0.78983587    -7.176849    316.42246  0.022575803  0.022288649           21 
 1169000    0.7830147    -7.154571    317.78238  0.022653434   0.02227295            8 
 1170000    0.7739288   -7.1577568    317.17696  0.022590952  0.022257215           32 
 1171000   0.79615392   -7.1686206    316.36444  0.022513837  0.022241423           12 
 1172000    0.7845054   -7.1396525    317.19307  0.022553546   0.02222569            7 
 1173000   0.78233912   -7.1683424    317.30806  0.022542488  0.022209887            8 
 1174000   0.79239894   -7.1589778    317.02058   0.02250288  0.022194049           11 
 1175000   0.78203593   -7.1668134    317.81335  0.022539954  0.022178228            9 
 1176000   0.79183772   -7.1884009    316.54108  0.022430632  0.022162454           19 
 1177000   0.78519253   -7.1795894    317.24455  0.022461382  0.022146607           10 
 1178000   0.79102385   -7.1607513    317.22846  0.022441176  0.022130782           28 
 1179000   0.78294161   -7.1392112    317.08094  0.022411714  0.022114973           10 
 1180000   0.77800762   -7.1492098    316.84771  0.022376251  0.022099121            5 
 1181000   0.79184217    -7.151769    317.16029   0.02237936  0.022083211            8 
 1182000   0.78535338   -7.1586483     317.1386  0.022358897  0.022067338           11 
 1183000   0.78237708   -7.1828228    317.23612  0.022346867  0.022051569           10 
 1184000   0.77412089   -7.1722631    317.03209  0.022313633  0.022035668            6 
 1185000   0.78051847   -7.1470911    317.55782  0.022331774  0.022019771           12 
 1186000   0.76585844   -7.1628693    318.25944  0.022362243   0.02200393            7 
 1187000   0.77243566     -7.15417    317.53266   0.02229238  0.021988205           10 
 1188000   0.78341432   -7.1950884    317.18485  0.022249218  0.021972405           15 
 1189000   0.77241418   -7.1443764    317.06776  0.022222299  0.021956544            8 
 1190000   0.79195835   -7.1628127    317.97637  0.022267253  0.021940808           14 
 1191000   0.77838477   -7.1373383    318.71596  0.022300305  0.021925182            8 
 1192000   0.79140755   -7.1558933    318.14293  0.022241536  0.021909579            5 
 1193000   0.76518844   -7.1610303    318.14304    0.0222229  0.021893934            7 
 1194000   0.77635445   -7.1671098    318.64101  0.022239043  0.021878366           10 
 1195000   0.76694839   -7.1653163    318.21649  0.022190829  0.021862824            6 
 1196000    0.7776003   -7.1557874    318.29658  0.022177855   0.02184726            9 
 1197000   0.76120288   -7.1644455    318.92255  0.022202907  0.021831664            6 
 1198000   0.77283775   -7.2072457    318.00067  0.022120247  0.021815995            5 
 1199000   0.76833105   -7.1742382    319.08817  0.022177382  0.021800343            7 
 1200000   0.77024266   -7.1685154    319.34146  0.022176491  0.021784695            6 
 1201000   0.77745502   -7.1763901    319.30815  0.022155714  0.021769108           14 
 1202000   0.76582691   -7.1429603    319.84063  0.022174198  0.021753685           10 
 1203000   0.75855904   -7.1612627    319.11775  0.022105691  0.021738202           10 
 1204000   0.76304644   -7.1810939     319.2018  0.022093148  0.021722865           40 
 1205000   0.76246449   -7.1465822    319.35899  0.022085684  0.021707502           17 
 1206000   0.77899974   -7.1835918    319.85407  0.022101581  0.021692144           14 
 1207000   0.80891138   -7.1626785    319.57207  0.022063799    0.0216768            7 
 1208000   0.78186181   -7.1560194    320.27466  0.022094002  0.021661551           11 
 1209000   0.76684864   -7.1905525    318.68936  0.021966457    0.0216462            7 
 1210000   0.74614118   -7.1945047    319.82157  0.022026279  0.021630714            6 
 1211000   0.76677504   -7.1948942    319.64052  0.021995632  0.021615271            5 
 1212000   0.76393165   -7.2075648    319.19484   0.02194684  0.021599777           10 
 1213000   0.75818722   -7.1673657      319.245  0.021932193  0.021584298            9 
 1214000   0.79023514   -7.1857168    319.62864  0.021940461  0.021568902            8 
 1215000   0.76624401   -7.1620412    319.83673  0.021936676  0.021553534            7 
 1216000   0.76907315   -7.2008979     320.0778  0.021935156  0.021538097            6 
 1217000   0.76364267   -7.1854321    320.05081  0.021915284  0.021522798            7 
 1218000   0.77573755   -7.1709725     320.1967  0.021907273  0.021507513            8 
 1219000   0.77876459   -7.1528742    320.21193  0.021890343  0.021492217            5 
 1220000   0.78472703   -7.2050326     320.2998  0.021878401  0.021476967            4 
 1221000    0.7590499   -7.1650316    319.36266  0.021796523   0.02146165            9 
 1222000   0.77336439    -7.176076    320.47582  0.021854598  0.021446311           14 
 1223000   0.78040134   -7.1999061    319.88344  0.021796364  0.021430934           17 
 1224000   0.75750063   -7.2097465    320.44297  0.021816651  0.021415605            4 
 1225000   0.76316198   -7.1939125    320.20268  0.021782495  0.021400274            7 
 1226000   0.76921344   -7.1940105    319.71378  0.021731497  0.021384985           12 
 1227000   0.76340371   -7.2212985     320.1552  0.021743765  0.021369719            8 
 1228000   0.75028671   -7.1963675    320.04173  0.021718359  0.021354392            8 
 1229000   0.76123944   -7.1961162    320.72016  0.021746688  0.021339143            8 
 1230000   0.76020227   -7.2044218    320.99995  0.021747964  0.021323749            6 
 1231000   0.77871785   -7.2074314    321.08778  0.021736243  0.021308365           12 
 1232000   0.76295199   -7.2138127    320.26999  0.021663284  0.021292952            7 
 1233000   0.75495448   -7.2312113    320.53092   0.02166335  0.021277532           21 
 1234000   0.76302661   -7.2064002    320.58199  0.021649243  0.021262124            5 
 1235000    0.7468095   -7.2174316    320.67998  0.021638325  0.021246708            7 
 1236000   0.75077474   -7.1990208    320.99982  0.021642383  0.021231408            8 
 1237000   0.74361133   -7.2033383    321.02381  0.021626503  0.021216089            5 
 1238000   0.77305163   -7.1729011    321.03249  0.021609618  0.021200678            7 
 1239000    0.7620973   -7.2080294      320.647   0.02156625   0.02118517           13 
 1240000   0.76476953   -7.2328644    320.14385  0.021515044  0.021169696           18 
 1241000   0.74350073   -7.1733394    321.43195  0.021584203   0.02115429            8 
 1242000    0.7608159   -7.2164042    320.55439  0.021507943  0.021138932            7 
 1243000   0.76471383   -7.2055386    320.76654  0.021504863  0.021123566            8 
 1244000    0.7596928   -7.2245941    321.82493  0.021558476  0.021108159           10 
 1245000   0.74756847   -7.2257795    320.85823  0.021476454  0.021092829            6 
 1246000   0.74010793   -7.1828351     321.3297  0.021490751  0.021077544            7 
 1247000    0.7599077   -7.2031309    321.40153  0.021478317   0.02106234            7 
 1248000   0.74880107   -7.2132262    322.10535  0.021508103   0.02104716            9 
 1249000   0.75722039   -7.2004503    321.42495  0.021445486  0.021031964            9 
 1250000   0.74576224   -7.2050725    322.11499  0.021474333  0.021016769            7 
 1251000   0.76112363   -7.2227903    321.66783   0.02142738  0.021001541            7 
 1252000   0.76829463   -7.1889435    321.51514  0.021400102  0.020986383           15 
 1253000   0.76398584    -7.197618    321.48485  0.021381009  0.020971215           11 
 1254000   0.76382888   -7.2314357    321.08128   0.02133714  0.020955947            9 
 1255000   0.75120558   -7.2136196    321.09553  0.021321085   0.02094067           12 
 1256000   0.74286967   -7.2127936    320.91946  0.021292427  0.020925379           10 
 1257000   0.77495862   -7.2251981    321.30986  0.021301369  0.020910128           10 
 1258000   0.74474071   -7.2045243     321.5811  0.021302405  0.020894859            6 
 1259000   0.76259532    -7.217454    321.83759  0.021302462  0.020879564            4 
 1260000   0.75474845   -7.2204275    321.14535  0.021239772    0.0208643           17 
 1261000   0.76686135   -7.2060746    321.48059  0.021245082  0.020849084            8 
 1262000    0.7467573   -7.2132623    321.50597  0.021229924   0.02083385            4 
 1263000    0.7672081   -7.1929662    322.12371  0.021253874  0.020818649           10 
 1264000   0.74360152   -7.2103568     321.9025  0.021222475  0.020803498            5 
 1265000   0.75132711   -7.2160926    322.38569  0.021237529  0.020788385            8 
 1266000   0.75185413   -7.2012191    322.34405  0.021218013  0.020773263            5 
 1267000   0.73608543   -7.2193959     321.5979   0.02115219  0.020758245           11 
 1268000   0.76001247    -7.241676    322.98177  0.021226457  0.020743257            8 
 1269000   0.74371169   -7.2149445    323.09608  0.021217237  0.020728304           10 
 1270000   0.73579309   -7.2330667    323.61023  0.021234267   0.02071332            9 
 1271000   0.74467003    -7.213597    323.51768  0.021211492  0.020698325            5 
 1272000   0.73909197    -7.240808    322.41846  0.021122803  0.020683397            7 
 1273000   0.74082237   -7.2192133    323.55178  0.021180399  0.020668483           16 
 1274000   0.72780563   -7.2442064    323.04166  0.021130407  0.020653622           17 
 1275000   0.73795276   -7.2066571    323.36178  0.021134757  0.020638709            5 
 1276000   0.74363511   -7.2318542    322.93684  0.021090442  0.020623882            8 
 1277000    0.7409737   -7.2577409     322.6932  0.021058027  0.020608971           12 
 1278000   0.75501575   -7.2269888    322.31262  0.021016733  0.020594184           10 
 1279000   0.75164434   -7.2515174    323.36466  0.021068846  0.020579315           13 
 1280000   0.72925116   -7.2699731    322.66492  0.021006831  0.020564411           32 
 1281000   0.73825713   -7.2217242    323.21547  0.021026247  0.020549541           41 
 1282000   0.73961793   -7.2459689    323.44787  0.021024952  0.020534721           57 
 1283000   0.75820326   -7.2389462    323.50092  0.021012011  0.020519937           31 
 1284000   0.74001574   -7.2371019    322.76942  0.020948171  0.020505189           44 
 1285000   0.72767326   -7.2232756    323.71511  0.020993198  0.020490537           15 
 1286000   0.74820236   -7.2475687     324.3602  0.021018676   0.02047588           27 
 1287000   0.75396732   -7.2339831     324.0139  0.020979921  0.020461239           17 
 1288000   0.72775723   -7.2318141    324.38905  0.020987904  0.020446651           16 
 1289000   0.74028386   -7.2382801     323.6244  0.020922188  0.020432025           12 
 1290000   0.74740482   -7.2396259    324.32852  0.020951455  0.020417345           11 
 1291000   0.73729443   -7.2476026    323.43454   0.02087752  0.020402636           10 
 1292000   0.72592571   -7.2673585    323.54829  0.020868698  0.020387839            7 
 1293000   0.72554194    -7.245143    323.91951  0.020876483  0.020373106           14 
 1294000     0.726952   -7.2799049    323.87455  0.020857454  0.020358351            8 
 1295000   0.74016192   -7.2695283    323.88284  0.020841881  0.020343633            8 
 1296000   0.71660971    -7.280373    323.84934  0.020823646  0.020328945            7 
 1297000   0.74288979   -7.2538106    323.93997  0.020813414  0.020314206           11 
 1298000   0.73679638   -7.2717667    323.36905  0.020760725  0.020299481            5 
 1299000   0.74331139   -7.2814937    324.11875  0.020792837  0.020284674           10 
 1300000   0.74151129   -7.2655156     323.6812  0.020748795  0.020269896           14 
 1301000   0.72218389   -7.2587676    323.41756  0.020715959  0.020255188            5 
 1302000   0.74086161   -7.2586042    323.55949  0.020709132  0.020240438           10 
 1303000   0.73207584   -7.2835738    324.07501  0.020726209  0.020225747           13 
 1304000    0.7149475    -7.263163    324.27176  0.020722888  0.020211055           17 
 1305000    0.7421894   -7.2575706    324.49152  0.020721042  0.020196423            5 
 1306000   0.74516911   -7.2644651    324.61213  0.020712872  0.020181798           10 
 1307000   0.72222397    -7.263402    325.53547  0.020755896  0.020167262           11 
 1308000    0.7310111   -7.2455932    324.57663  0.020678939  0.020152726            9 
 1309000   0.72977093   -7.2506518     324.3183  0.020646696  0.020138154            8 
 1310000   0.73473926   -7.2363707    324.73198   0.02065725  0.020123661           10 
 1311000   0.73245363   -7.2639616    324.76386   0.02064352  0.020109077            7 
 1312000   0.73344112   -7.2408962    324.88535  0.020635502  0.020094507           10 
 1313000    0.7295556   -7.2639607    325.33973  0.020648625  0.020080022            8 
 1314000   0.73739984   -7.2492191    324.16916  0.020558673  0.020065492            8 
 1315000    0.7257438   -7.2679647    324.46666  0.020561892   0.02005091            9 
 1316000   0.71680283   -7.2946267    324.43543   0.02054429  0.020036291            6 
 1317000   0.72483045    -7.274679    325.85761  0.020618679  0.020021778            5 
 1318000   0.71953978   -7.2707821    325.12772  0.020556887  0.020007337            8 
 1319000   0.71455367   -7.2811568    325.02677  0.020534924  0.019992826            7 
 1320000   0.73187089    -7.281086    325.54316  0.020551967   0.01997833            7 
 1321000   0.72974452   -7.2706591    325.39018  0.020526759  0.019963876            8 
 1322000   0.74307362   -7.2836033     326.3295  0.020570443  0.019949442            4 
 1323000   0.73056585   -7.2806186    325.36215  0.020493963  0.019935058            7 
 1324000   0.71512561   -7.2736907    325.55669  0.020490728  0.019920648           10 
 1325000   0.72942586   -7.2639249    324.95909  0.020437679  0.019906258            5 
 1326000   0.71234916   -7.2616435    325.94629  0.020484307  0.019891897            9 
 1327000   0.73404001   -7.2935492    325.53986  0.020443347  0.019877518            4 
 1328000   0.72558969   -7.2785272    325.42884  0.020420986   0.01986315           10 
 1329000   0.72525557   -7.2603348     325.4982   0.02040997  0.019848737           10 
 1330000   0.70774251   -7.2876985     325.4088  0.020389022  0.019834293           10 
 1331000   0.72908177   -7.2978748    325.61842  0.020386828  0.019819868           17 
 1332000   0.71515968    -7.291457    326.09274  0.020401197  0.019805444           16 
 1333000   0.73469476   -7.2849092    324.79785  0.020304942  0.019790987            7 
 1334000   0.72108899   -7.3136505    325.60353  0.020340051  0.019776507            8 
 1335000   0.74042628   -7.2850399    325.44495  0.020314916  0.019762007            8 
 1336000   0.71677165    -7.282601    324.96549  0.020269803  0.019747532            5 
 1337000   0.73394954   -7.2995517    325.23212  0.020271262  0.019733066            7 
 1338000   0.70925946   -7.2875414    324.99707  0.020241472  0.019718603           12 
 1339000   0.70718236   -7.2778843     325.5222  0.020259037  0.019704153            6 
 1340000   0.71850237   -7.2856126    325.93549   0.02026962  0.019689707           14 
 1341000   0.72257338   -7.2938899    325.45987  0.020224949  0.019675259           13 
 1342000   0.72206167   -7.2994904    325.40949  0.020206749  0.019660828           10 
 1343000    0.7207798   -7.2745066    325.97161  0.020226583  0.019646429            6 
 1344000   0.71934526   -7.2967422    325.51704  0.020183348  0.019632107            9 
 1345000   0.70811092   -7.2928678    325.45954  0.020164779  0.019617772            7 
 1346000   0.71813936   -7.2803378    325.81677  0.020171915  0.019603391            8 
 1347000   0.70817268   -7.3061998    325.36286  0.020128858  0.019589004            9 
 1348000   0.70755219   -7.2898648    325.90075  0.020147178  0.019574659            5 
 1349000   0.71773966   -7.2867717    325.91983  0.020133422   0.01956033           10 
 1350000   0.71980561   -7.2935193    325.82177  0.020112455  0.019546025           29 
 1351000   0.72777398   -7.2916847    326.09535  0.020114443  0.019531746           17 
 1352000    0.7288482   -7.3011364    325.88905   0.02008685  0.019517519           19 
 1353000   0.70766308   -7.2916795    325.80378  0.020066752  0.019503257           21 
 1354000   0.71802339   -7.3279704    326.10003  0.020070164  0.019488908           11 
 1355000   0.69229121   -7.2960551    326.29886   0.02006758  0.019474665            7 
 1356000   0.71231063   -7.3020909    326.21785  0.020047803   0.01946046           15 
 1357000   0.71903825   -7.2891343    326.02723  0.020021323  0.019446349           25 
 1358000   0.72026805   -7.3222823    326.33184  0.020025272    0.0194322           20 
 1359000   0.71851137   -7.3115945    326.84317  0.020041892  0.019417954           20 
 1360000   0.70593331   -7.2972411     327.1567  0.020046367  0.019403792           13 
 1361000   0.70142296   -7.3072039    327.11488  0.020029077  0.019389689           13 
 1362000   0.71953859   -7.2938691    327.04451  0.020010065  0.019375562           16 
 1363000   0.69966817   -7.3059556    326.15019  0.019940706  0.019361383           30 
 1364000   0.70861352   -7.3199198    326.45827  0.019944909  0.019347201           17 
 1365000   0.70240229   -7.3138907    327.01722  0.019964421   0.01933309           13 
 1366000   0.72582575   -7.3184184    327.29552  0.019966784   0.01931899           37 
 1367000   0.70238118   -7.3238679    327.64816  0.019973675  0.019304945           21 
 1368000   0.71136738   -7.3171617    327.69572  0.019961971  0.019290913           19 
 1369000   0.72291339   -7.3199095    327.14562  0.019913905  0.019276893           11 
 1370000    0.6991066   -7.3014207    328.05003  0.019954381  0.019262894           16 
 1371000    0.6993154   -7.3034982     326.9858  0.019875139  0.019248906            9 
 1372000   0.70672937   -7.3132327    327.34586  0.019882523  0.019234949           11 
 1373000   0.70470213   -7.3221888    326.68494  0.019827928  0.019220944           10 
 1374000   0.70775045   -7.3535245    327.32021  0.019852026   0.01920693            7 
 1375000   0.70801553   -7.3310707    327.20153  0.019830396  0.019192936            8 
 1376000   0.72001679    -7.322794    327.63937  0.019842501  0.019178968            8 
 1377000   0.69223182   -7.3036242    327.26783  0.019805606  0.019165095           11 
 1378000   0.69874108   -7.3485639    327.74531  0.019820108  0.019151148            6 
 1379000   0.69929388   -7.3155843    326.93075  0.019756512    0.0191372            8 
 1380000   0.70190028   -7.3320877    327.12771  0.019754089  0.019123268           16 
 1381000   0.69757722   -7.3358554    327.53427  0.019764317  0.019109314           11 
 1382000    0.6903299   -7.3330534    327.14514  0.019726552  0.019095385           20 
 1383000   0.69551386   -7.3481058    326.88029   0.01969633  0.019081437           13 
 1384000     0.703095   -7.3628835    327.92539  0.019745026  0.019067529           30 
 1385000     0.697979   -7.3500282    328.06408  0.019739114  0.019053625           11 
 1386000   0.70477689   -7.3501297    327.50694  0.019691375  0.019039725           13 
 1387000   0.70590216   -7.3373325    327.80667  0.019695185  0.019025777           10 
 1388000   0.69572007    -7.352696     327.7129  0.019675366  0.019011852           18 
 1389000   0.69392757   -7.3544115    327.29331  0.019636028  0.018997958           18 
 1390000   0.69800617   -7.3396358    327.77545  0.019650806  0.018984123           15 
 1391000    0.6956225   -7.3512214    327.85413  0.019641393    0.0189703           14 
 1392000   0.69097489   -7.3465589    328.03738  0.019638253  0.018956469           16 
 1393000   0.71101231   -7.3466214    328.22993  0.019635674   0.01894259            9 
 1394000   0.70137431   -7.3715088    327.56926  0.019582093  0.018928722           19 
 1395000   0.69199511   -7.3597601    327.28552  0.019551107   0.01891484           13 
 1396000   0.68479233   -7.3333713    327.05809  0.019523525  0.018900999           18 
 1397000    0.6957496   -7.3339378    327.61079  0.019542519  0.018887172           13 
 1398000   0.68987236    -7.353949    327.34333  0.019512597  0.018873308           10 
 1399000   0.70300159   -7.3493384    327.49384  0.019507615  0.018859461           16 
 1400000   0.69883951   -7.3419196    327.64395  0.019502616  0.018845623           19 
 1401000   0.70041016   -7.3539101    328.56188  0.019543295  0.018831836           13 
 1402000   0.68097033   -7.3355603    327.88182  0.019488934  0.018818063           13 
 1403000   0.68801741   -7.3575628     327.8468  0.019472963  0.018804274            6 
 1404000   0.68763519   -7.3467273    328.32259  0.019487333  0.018790557           21 
 1405000   0.68399964   -7.3419402    328.10297  0.019460437  0.018776868           17 
 1406000    0.6875892   -7.3680891    327.99447  0.019440165  0.018763154           12 
 1407000   0.71125598   -7.3099351     329.0049  0.019486194  0.018749439           15 
 1408000   0.68214162   -7.3462007    328.67322  0.019452724  0.018735736           34 
 1409000   0.67990072   -7.3480228    328.14508  0.019407682  0.018722046           10 
 1410000   0.68460023   -7.3329754     328.4398  0.019411336  0.018708361            6 
 1411000   0.68750896   -7.3456646    328.19702   0.01938324  0.018694667            7 
 1412000   0.68680675   -7.3634958    327.73642  0.019342329  0.018680969            6 
 1413000   0.68227497   -7.3681656    327.87609  0.019336877  0.018667249           10 
 1414000   0.68987568   -7.3624123    327.79755  0.019318573  0.018653543           12 
 1415000   0.71080799   -7.3510831    327.64494  0.019295933  0.018639827           15 
 1416000    0.6872774   -7.3738028    328.36423  0.019324637  0.018626102           14 
 1417000   0.68169641   -7.3409876    327.99861  0.019289497  0.018612399           10 
 1418000   0.70735214   -7.3642146    328.07286  0.019280257  0.018598668           21 
 1419000    0.6931251   -7.3783475    328.00107  0.019262454  0.018584911           31 
 1420000   0.68183101    -7.372018    328.87854  0.019300384  0.018571166           10 
 1421000   0.68722751   -7.3526529    327.81755  0.019224581  0.018557471           19 
 1422000   0.68902191   -7.3530144    328.91911  0.019275616   0.01854377           12 
 1423000   0.68156058   -7.3544573    328.93637  0.019263081  0.018530092           13 
 1424000   0.69374342    -7.391839     328.0324  0.019196653  0.018516387           10 
 1425000   0.68883394   -7.3791625    327.37365  0.019144658  0.018502679           18 
 1426000   0.69132921    -7.348019    327.85648  0.019159449  0.018488916           27 
 1427000   0.69009135    -7.398267    327.92842  0.019150223  0.018475191           21 
 1428000   0.68727655   -7.3891576    327.40029  0.019105993   0.01846147           21 
 1429000   0.68521116   -7.3487205    328.26854  0.019143255  0.018447737           13 
 1430000   0.67530893    -7.381635    327.72607  0.019098256  0.018434035           16 
 1431000   0.67671357   -7.3802064    328.15433  0.019109849  0.018420291           11 
 1432000   0.69276764   -7.3892234    328.30189  0.019105091  0.018406589           23 
 1433000   0.68548872   -7.3808205    328.37921  0.019096256  0.018392972           14 
 1434000   0.67380655   -7.3766934    328.65107  0.019098737  0.018379398           16 
 1435000   0.68001709   -7.3700605    328.62852  0.019084118   0.01836586           26 
 1436000   0.68729806   -7.3894529    328.80214  0.019080904  0.018352241           11 
 1437000   0.67719912   -7.3784209    328.59468  0.019055595  0.018338595           12 
 1438000   0.67745328   -7.4009156    328.21224  0.019020181  0.018324972           12 
 1439000   0.67184935   -7.3575256    328.45037  0.019020753  0.018311359           13 
 1440000   0.68195747   -7.3765186    328.55114  0.019013376   0.01829781           19 
 1441000   0.68162591   -7.3923796    328.33042  0.018987417  0.018284213           10 
 1442000   0.68838438   -7.3832548    327.75651  0.018941084  0.018270574           24 
 1443000   0.68048169   -7.3652819    328.67899  0.018981231  0.018256997           13 
 1444000     0.668112   -7.3639188     328.4898  0.018957168  0.018243429           19 
 1445000   0.67486459   -7.3868858    328.43693     0.018941  0.018229863            8 
 1446000   0.69468188   -7.3965265     329.3544  0.018980775  0.018216305           10 
 1447000   0.66576151   -7.3804105    328.17673  0.018899834  0.018202747           26 
 1448000   0.66234416    -7.417306    328.78719  0.018921915  0.018189228           29 
 1449000   0.68053315   -7.3972777    328.57675  0.018896754  0.018175724           15 
 1450000   0.66981306   -7.3921186    328.77833  0.018895306  0.018162213           17 
 1451000   0.68279826   -7.3770683    328.95237   0.01889228   0.01814874            9 
 1452000   0.67031062   -7.3993005    329.48072  0.018909591  0.018135308           14 
 1453000   0.67164283    -7.404716    329.46634  0.018895753   0.01812187           30 
 1454000   0.67445077   -7.3737838    328.59754  0.018832963  0.018108446           25 
 1455000   0.67264934   -7.3926057    328.77934  0.018830432  0.018095006           45 
 1456000   0.67824614   -7.3956659    329.33152  0.018849103  0.018081569           23 
 1457000   0.65722169   -7.4027024    328.63896  0.018796555  0.018068126           31 
 1458000   0.68312406   -7.3913546     328.9296  0.018800274  0.018054686           29 
 1459000   0.67918689   -7.3867172    328.74033  0.018776578  0.018041248           23 
 1460000   0.67468985   -7.3957321    329.21843  0.018791006  0.018027878           13 
 1461000    0.6691403   -7.3804026    329.19054  0.018776554  0.018014553           18 
 1462000   0.67062931   -7.3857946    329.48474   0.01878048  0.018001213           14 
 1463000   0.68288565   -7.3844132    329.13892  0.018747945  0.017987895           10 
 1464000   0.66365642     -7.38387    328.50375  0.018698984  0.017974577            7 
 1465000   0.66430119   -7.3689166     328.9333  0.018710654   0.01796127            8 
 1466000   0.66228485   -7.3631097    329.25601  0.018716235  0.017947958            8 
 1467000   0.66752024    -7.388138    328.66202  0.018669735  0.017934625            9 
 1468000   0.65943575   -7.3842408    329.30389  0.018693454  0.017921272           12 
 1469000   0.65688774   -7.3988878    328.54073  0.018637437  0.017907953            8 
 1470000   0.68365742   -7.3980252    329.21322  0.018662881   0.01789464           16 
 1471000   0.68604801   -7.3801836    329.21187  0.018650117  0.017881371            5 
 1472000    0.6762414    -7.405576    329.58514  0.018658579  0.017868125           12 
 1473000   0.66704185   -7.4184836    329.06522  0.018616498  0.017854883            9 
 1474000    0.6665747    -7.400033    329.00182  0.018600284  0.017841556           11 
 1475000   0.66272699   -7.4058241    329.44729  0.018612841  0.017828234           11 
 1476000   0.66902707   -7.4144507    328.87094  0.018567691  0.017814934           10 
 1477000   0.67187328   -7.3852644    329.76019  0.018605292  0.017801664           16 
 1478000   0.66947299   -7.4096683    329.69199  0.018588858  0.017788378           21 
 1479000   0.66303174   -7.4304918    328.74735  0.018523064   0.01777509           18 
 1480000   0.67550408    -7.395829    329.86138  0.018573276  0.017761874           14 
 1481000   0.65076786   -7.4185238    329.39106  0.018534271   0.01774866           15 
 1482000   0.65458052   -7.3938689    329.91618  0.018551292   0.01773544           14 
 1483000   0.68434019   -7.4219523    329.72755  0.018528183  0.017722232           31 
 1484000    0.6681117   -7.4302433     329.3829  0.018496345  0.017709043           28 
 1485000   0.64742603    -7.422724    329.38722  0.018484132  0.017695848           20 
 1486000   0.67318053   -7.4178171    329.05317  0.018452959  0.017682613           16 
 1487000   0.66608737   -7.4079923    328.99124  0.018437079   0.01766939           24 
 1488000   0.65417146   -7.4124513    329.65126  0.018461652   0.01765621           17 
 1489000   0.66263203   -7.4218485    329.16221  0.018421883  0.017643046           16 
 1490000   0.65802087    -7.410735    328.93349  0.018396728  0.017629891           19 
 1491000   0.64540484   -7.4088456    329.55658  0.018419214  0.017616742           34 
 1492000   0.65747642   -7.4160341    330.27174  0.018446813  0.017603613           19 
 1493000   0.65800496   -7.3973047    329.67078  0.018400914  0.017590493           11 
 1494000   0.66217076   -7.4215937    329.85784  0.018399032  0.017577397           19 
 1495000    0.6641567   -7.4430587     329.2303  0.018351745   0.01756426           28 
 1496000   0.65645963   -7.4374212    329.40103  0.018348988  0.017551092           19 
 1497000   0.65467154    -7.420013    329.37392  0.018335222  0.017537894           25 
 1498000   0.65712947   -7.4186424     329.1062  0.018308089  0.017524723           15 
 1499000    0.6547195   -7.4277413    329.29013    0.0183061  0.017511534           14 
 1500000   0.64511704   -7.4397123    329.01231  0.018278462  0.017498323           23 
 1501000   0.65783779   -7.4331484    329.47252  0.018291834  0.017485147           20 
 1502000   0.65316774   -7.4079696    329.62055  0.018287869  0.017471983           18 
 1503000   0.65031037   -7.4578824    329.68984  0.018279543  0.017458831           22 
 1504000   0.65574596   -7.4381626    328.94151  0.018225926   0.01744567           15 
 1505000   0.64873584    -7.418588    329.16374  0.018226121  0.017432592           13 
 1506000   0.66005417    -7.433237    329.58918   0.01823756   0.01741952           23 
 1507000   0.66390727   -7.4550229    329.60082  0.018226102  0.017406498           18 
 1508000   0.66436794   -7.4483635    329.01215  0.018181485  0.017393454           27 
 1509000   0.66370171   -7.4328519    329.26581  0.018183445  0.017380443           18 
 1510000   0.64411136   -7.4439509    329.34136  0.018175572  0.017367411           31 
 1511000   0.63435636   -7.4430668    329.46856  0.018170558  0.017354352           24 
 1512000   0.65079626   -7.4571941    329.08034  0.018137144    0.0173413           40 
 1513000     0.662367   -7.4329045    329.32362  0.018138556  0.017328249           31 
 1514000   0.66747555   -7.4595145    328.84786  0.018100389   0.01731521           16 
 1515000   0.65652744   -7.4578613    329.02957  0.018098436  0.017302158           25 
 1516000   0.65691969   -7.4463783     328.7324  0.018070163  0.017289107           29 
 1517000   0.64974907   -7.4430813    328.90496   0.01806773  0.017276066           23 
 1518000   0.66741875   -7.4357272    329.22884  0.018073608  0.017263067           30 
 1519000   0.64643282   -7.4601036    329.49803  0.018076478  0.017250029           17 
 1520000   0.65250989   -7.4511617    329.40995  0.018059756  0.017237039           29 
 1521000   0.64580058   -7.4452305    328.99814   0.01802532  0.017224059           34 
 1522000   0.66597107   -7.4752002    329.73977  0.018054083  0.017211069           23 
 1523000   0.64325452   -7.4678093    329.01772  0.018002721   0.01719806           40 
 1524000    0.6287752   -7.4415601    329.14346  0.017997783  0.017185076           17 
 1525000   0.64795562   -7.4591393    329.47288  0.018003983  0.017172125           30 
 1526000   0.65482498   -7.4627838    328.75627  0.017953051  0.017159146           23 
 1527000   0.65253899   -7.4682273    330.16066  0.018017936  0.017146226           15 
 1528000   0.63842983   -7.4847088    328.75406  0.017929432   0.01713327           29 
 1529000   0.66122933    -7.471231    328.98252  0.017930157   0.01712034           11 
 1530000   0.65781592   -7.4639192    329.48017  0.017945543  0.017107421           19 
 1531000   0.64758007   -7.4434585     329.6264  0.017941781  0.017094529           36 
 1532000   0.64324714   -7.4718264    329.73678  0.017936074  0.017081671           34 
 1533000   0.63860272   -7.4521769    329.07895  0.017888614  0.017068763           17 
 1534000   0.63158866   -7.4570122    328.91808  0.017868214  0.017055888           28 
 1535000   0.63838411   -7.4360556    328.72368   0.01784602  0.017042989           20 
 1536000    0.6366474   -7.4422602    329.51316  0.017877233  0.017030088           17 
 1537000   0.65094003   -7.4593521    329.02592  0.017839185  0.017017207           12 
 1538000   0.64989571   -7.4807331    328.72233  0.017811136  0.017004313           18 
 1539000   0.64591944   -7.4599027     329.2465  0.017827946  0.016991442           16 
 1540000   0.64504057   -7.4578651    329.98617  0.017856394  0.016978568           20 
 1541000    0.6385221   -7.4516521    329.71808  0.017830309  0.016965722           26 
 1542000   0.63786671   -7.4846711     328.5744  0.017756939  0.016952896           21 
 1543000   0.65402283   -7.4530686    329.83496  0.017813511  0.016940061           19 
 1544000   0.63138331   -7.4904699    329.04171   0.01775916  0.016927212           14 
 1545000   0.63595034   -7.4760658     329.4675  0.017770631   0.01691439           27 
 1546000    0.6276539   -7.4920572     329.5377  0.017762921  0.016901543           14 
 1547000   0.64074073   -7.4808376    329.72275  0.017761406  0.016888723           42 
 1548000   0.64120814   -7.4645091    329.05898    0.0177142   0.01687595           56 
 1549000   0.63096909   -7.4970234    329.16429  0.017708429  0.016863169           26 
 1550000   0.64245607   -7.4689204    329.64917  0.017723074  0.016850392           44 
 1551000   0.63371373   -7.4912295    329.69835  0.017714289  0.016837644           22 
 1552000   0.63158865   -7.5046906    329.79282  0.017707948  0.016824918           38 
 1553000   0.63677553    -7.502042    329.28807  0.017669461  0.016812151           31 
 1554000   0.62853841   -7.4868557    328.78653  0.017631195   0.01679935           32 
 1555000   0.63654937   -7.4726879    329.73155  0.017670501  0.016786604           12 
 1556000   0.62523363   -7.4782614    329.63466  0.017653956  0.016773873           20 
 1557000   0.64007435   -7.4865463    329.53706  0.017637393  0.016761152           19 
 1558000   0.64057271   -7.4746636    329.39066  0.017618243  0.016748438           17 
 1559000   0.63787065   -7.4973724    329.73983  0.017625606  0.016735744           15 
 1560000   0.63701289   -7.4750105    329.36014  0.017594025  0.016723067           12 
 1561000   0.63399269    -7.454883    329.43819   0.01758692  0.016710388           20 
 1562000   0.61825249   -7.4741472    329.67176  0.017588122  0.016697699           22 
 1563000   0.62979475   -7.4884147    328.90494  0.017535985  0.016685026           25 
 1564000   0.63054029    -7.491369    329.60129  0.017561876  0.016672338           11 
 1565000   0.62134229   -7.5045112    329.15845  0.017527074  0.016659657           24 
 1566000    0.6439219   -7.4812419    329.27927  0.017522311  0.016646964           22 
 1567000   0.63440923   -7.4998539    329.30482  0.017512488  0.016634277           15 
 1568000   0.62496466   -7.4994274    329.32243  0.017502255  0.016621627           11 
 1569000   0.62976066   -7.4932651    328.63518  0.017454599  0.016608967           16 
 1570000   0.62642683   -7.5133914    329.21949  0.017474495  0.016596317           22 
 1571000   0.63480084   -7.5074286    328.84451  0.017443482  0.016583677           16 
 1572000   0.61125513   -7.5044224    329.56553  0.017470607   0.01657105           18 
 1573000   0.62015441   -7.4905157    329.29474  0.017445155   0.01655842           10 
 1574000   0.62977826   -7.4825084    328.91607  0.017414023  0.016545808           14 
 1575000   0.63560353   -7.4889525    329.77564  0.017448446  0.016533245           13 
 1576000   0.62810929   -7.5061144    329.84407  0.017440994  0.016520691           10 
 1577000   0.62676653    -7.486207    329.11642  0.017391483  0.016508158           11 
 1578000   0.62172152   -7.4799217    329.68427  0.017410449  0.016495645           14 
 1579000   0.61857303   -7.5017421    329.17929  0.017372772  0.016483123           11 
 1580000   0.62513223   -7.4946327    329.44045  0.017375551  0.016470612           22 
 1581000   0.61545784   -7.4902853    329.82235  0.017384691  0.016458074           12 
 1582000   0.61975627   -7.5206308    330.23218   0.01739529  0.016445541           19 
 1583000   0.61790508   -7.4729076    329.35094   0.01733791  0.016433004           15 
 1584000   0.61030631   -7.5280851    329.19914  0.017318979  0.016420488           21 
 1585000   0.61993746   -7.5024441     329.1842  0.017307266  0.016407969           24 
 1586000     0.624953   -7.5199008    328.89729  0.017281278  0.016395427           18 
 1587000   0.60183186   -7.4981487    329.14357  0.017283321   0.01638289           30 
 1588000   0.62389258   -7.5216847    329.23749  0.017277366  0.016370351           11 
 1589000   0.61193305    -7.527448    328.78382  0.017242701  0.016357824           16 
 1590000   0.63159955    -7.515162    328.63948  0.017224291  0.016345302           16 
 1591000   0.61796203   -7.5338864    328.84119   0.01722403  0.016332779           28 
 1592000   0.60883297   -7.5428531    329.24306  0.017234247  0.016320262           46 
 1593000   0.61576145   -7.5239347    329.01203  0.017211343  0.016307726           30 
 1594000   0.62285763   -7.5213744    329.35508   0.01721848    0.0162952           19 
 1595000   0.61883177   -7.5163628    328.96316  0.017187208  0.016282722           26 
 1596000   0.62938672   -7.5312957    329.22335  0.017190025  0.016270233           27 
 1597000   0.61801483   -7.5311936    329.52276  0.017194884   0.01625776           29 
 1598000   0.62823431   -7.4986135    328.97043  0.017155321  0.016245278           18 
 1599000   0.62816889   -7.5300652    329.54409  0.017174489  0.016232812           32 
 1600000   0.61163405    -7.525122    328.72402  0.017121043  0.016220363           28 
 1601000   0.61440649   -7.5160919    328.91408  0.017120242  0.016207925           34 
 1602000   0.62237082   -7.5112975    329.43699  0.017136756  0.016195504           20 
 1603000   0.61721375    -7.508274    329.46947  0.017127753   0.01618309           36 
 1604000   0.59539283   -7.5173499    329.61262  0.017124513  0.016170669           30 
 1605000   0.61062959   -7.5296156    328.96677   0.01708031  0.016158276           42 
 1606000   0.61076538   -7.5214032    328.84215  0.017063208  0.016145863           39 
 1607000   0.61389817   -7.5279167    329.20051  0.017071173   0.01613347           27 
 1608000   0.61926088   -7.5263637     328.8596   0.01704289  0.016121085           14 
 1609000   0.60922403   -7.5441438    329.45633  0.017063203  0.016108691           24 
 1610000   0.61300935   -7.5044603    328.72462  0.017014732  0.016096285           44 
 1611000   0.61033758   -7.5087465    328.65996  0.017000825  0.016083904           22 
 1612000   0.60084109   -7.5202379    328.91609   0.01700352  0.016071516           37 
 1613000   0.60970991   -7.5348632    328.31479  0.016961913  0.016059117           34 
 1614000   0.59592921   -7.5391734     329.1103  0.016992478   0.01604672           18 
 1615000   0.60442493   -7.5428242    328.99019  0.016975758  0.016034324           16 
 1616000   0.60346862   -7.5582769     329.2958  0.016981013  0.016021927           22 
 1617000   0.61390928   -7.5406283    328.92214  0.016951254  0.016009535           21 
 1618000   0.61590149   -7.5306552    328.53717   0.01692095  0.015997158           18 
 1619000   0.61816323   -7.5480502    328.54178  0.016910736   0.01598479           21 
 1620000   0.61506009    -7.541293    328.92591  0.016920057  0.015972437           32 
 1621000   0.61409906   -7.5279576    328.79955  0.016903123  0.015960104           18 
 1622000   0.59959617   -7.5457114    328.59325  0.016882103  0.015947762           22 
 1623000   0.60357315    -7.545862    328.71198  0.016877797   0.01593546           18 
 1624000   0.61689048   -7.5468834    329.05367  0.016884938  0.015923155           31 
 1625000   0.60656236   -7.5377013    328.60851  0.016851718  0.015910831           16 
 1626000   0.59568766   -7.5452507    328.54912  0.016838311  0.015898535           39 
 1627000   0.60849818   -7.5358278    328.20838  0.016810509  0.015886252           33 
 1628000   0.60513484   -7.5503127    328.74912  0.016827863  0.015873951           33 
 1629000   0.58348376   -7.5492089    328.77059  0.016818631  0.015861653           25 
 1630000   0.60816194    -7.537526     328.6845  0.016803911  0.015849354           27 
 1631000   0.62502448    -7.548002      328.505  0.016784437  0.015837067           18 
 1632000   0.60071309   -7.5506777    329.08695  0.016803868  0.015824799           19 
 1633000   0.59303282    -7.525778     327.7741  0.016726582  0.015812533           18 
 1634000   0.60099105   -7.5470804    327.99771  0.016727749  0.015800268           18 
 1635000   0.59524327   -7.5376269    327.92101  0.016713609  0.015788003           14 
 1636000   0.61718017   -7.5665067      328.474  0.016731561   0.01577574           16 
 1637000   0.60473612   -7.5406637    328.43221  0.016719212  0.015763501           23 
 1638000   0.59214284   -7.5339076    327.94074  0.016684002  0.015751271           26 
 1639000   0.59668438   -7.5612805    328.20052  0.016687031  0.015739036           27 
 1640000   0.60778376   -7.5651612    328.96892    0.0167159  0.015726816           31 
 1641000   0.61732257   -7.5455253    328.51307  0.016682565  0.015714622           31 
 1642000   0.61507607   -7.5527644    328.50336  0.016671912  0.015702441           38 
 1643000   0.59088647   -7.5581018    329.01579  0.016687756  0.015690269           46 
 1644000    0.5876459      -7.5487    327.89368  0.016620726  0.015678093           47 
 1645000   0.61054781   -7.5531798    329.03606  0.016668493  0.015665946           31 
 1646000   0.60399875   -7.5721225    328.48116  0.016630274  0.015653795           43 
 1647000   0.60423912   -7.5525567    328.63338  0.016627878  0.015641678           45 
 1648000   0.58408022   -7.5482578     328.7966  0.016626042  0.015629576           31 
 1649000   0.59595075   -7.5625594    328.47671  0.016599793   0.01561747           43 
 1650000   0.59412164   -7.5791371    328.58979  0.016595444  0.015605394           42 
 1651000   0.59505156   -7.5797144    328.63362  0.016587604  0.015593327           42 
 1652000   0.59679768   -7.5802594    328.65914  0.016578851  0.015581252           33 
 1653000   0.59324287   -7.5751589    328.84676   0.01657828  0.015569159           42 
 1654000   0.58950354   -7.5496933    328.13793  0.016532544  0.015557096           37 
 1655000   0.60273825   -7.5816655    328.48527  0.016540044  0.015545061           41 
 1656000    0.5894609   -7.5595062    328.68012  0.016539861  0.015533041           48 
 1657000    0.6076967   -7.5545851    328.99755  0.016545843  0.015521054           26 
 1658000   0.60186179   -7.5563576    328.87281  0.016529595  0.015509073           24 
 1659000   0.60006703   -7.5713855    328.60848  0.016506353  0.015497101           23 
 1660000   0.58055177   -7.5508655    328.44623  0.016488264  0.015485131           32 
 1661000   0.58539251   -7.5793636    329.35029  0.016523695  0.015473186           55 
 1662000   0.59692378   -7.5618836    328.76124  0.016484218   0.01546124           21 
 1663000   0.58074223   -7.5575985    328.88466   0.01648049  0.015449297           84 
 1664000   0.58871187   -7.5677086    329.04751  0.016478741  0.015437347           50 
 1665000   0.57880429   -7.5670017    328.84175  0.016458546   0.01542542           36 
 1666000   0.58869955   -7.5591387    328.64676  0.016438913  0.015413483           27 
 1667000   0.57721405   -7.5618282    328.97283  0.016445352  0.015401578           25 
 1668000   0.59865881    -7.570553    328.65517  0.016419623  0.015389687           18 
 1669000   0.59183991   -7.5621578    329.09463  0.016431727    0.0153778           30 
 1670000   0.58286022   -7.5797492     329.1226  0.016423284   0.01536591           32 
 1671000   0.59226989   -7.5700364    328.69666  0.016392213  0.015354048           30 
 1672000   0.57263053   -7.5797174     328.5651  0.016375852  0.015342195           25 
 1673000   0.59184339   -7.5659009    328.59486  0.016367546   0.01533035           52 
 1674000   0.59284834   -7.5793448     328.9653   0.01637621  0.015318511           35 
 1675000   0.58047784   -7.5799342    328.87562  0.016361971  0.015306689           32 
 1676000   0.58677821    -7.562467    328.96393  0.016356599  0.015294884           29 
 1677000   0.57179395   -7.5901014    328.79953  0.016338677  0.015283072           57 
 1678000   0.58230333   -7.5689604    328.64293  0.016321162  0.015271269           66 
 1679000   0.58808392   -7.5940969    328.73357  0.016315941  0.015259484           32 
 1680000    0.5688948   -7.6079586    328.79316  0.016309185  0.015247693           43 
 1681000   0.57369683   -7.5647033    329.09672  0.016314531  0.015235945           68 
 1682000   0.58463297   -7.5959714    328.32439  0.016266567  0.015224188           46 
 1683000   0.58893125   -7.5759399    329.11025  0.016295813  0.015212437           41 
 1684000   0.57983443   -7.5830933    328.96804  0.016279099  0.015200704           53 
 1685000   0.58778651   -7.5762399    328.61743  0.016252098  0.015188971           43 
 1686000   0.59745042   -7.5898097    328.97534  0.016260149  0.015177242           39 
 1687000   0.59737679    -7.564601    328.63844  0.016233869   0.01516551           47 
 1688000   0.56971722   -7.5727908    328.88773  0.016236558  0.015153792           48 
 1689000   0.58502889   -7.5921521     329.1012  0.016237478  0.015142073           99 
 1690000   0.58812544   -7.5922457    328.69043  0.016207615  0.015130349          135 
 1691000   0.57433514   -7.5732953    328.05914   0.01616692  0.015118622           40 
 1692000   0.56855856   -7.5954277    328.73954  0.016190876  0.015106903           44 
 1693000   0.57634366   -7.5844961    329.02417  0.016195323  0.015095193           96 
 1694000   0.57157677   -7.6049218     328.3356  0.016151889  0.015083487          133 
 1695000   0.57837655   -7.5955504    328.74214  0.016162347   0.01507178           89 
 1696000   0.57120285   -7.5947986    328.87028  0.016159114  0.015060091           77 
 1697000    0.5833189    -7.603906    327.92681  0.016103261  0.015048396          105 
 1698000   0.56552748   -7.6126657    328.11123  0.016102828  0.015036685          137 
 1699000   0.56985186   -7.6032354    328.82717  0.016128466  0.015024982          119 
 1700000   0.57504126   -7.6046923    328.20653  0.016088556  0.015013309           91 
 1701000   0.57888556   -7.6167633    327.44986  0.016042027  0.015001631           84 
 1702000   0.57682434   -7.6163558    328.28278  0.016073383  0.014989954           84 
 1703000    0.5556672   -7.6124441    327.84045    0.0160423  0.014978281           74 
 1704000   0.57181707   -7.5873901     328.1232  0.016046713  0.014966625           90 
 1705000   0.57447174   -7.6047257    327.97198  0.016029911  0.014954965           68 
 1706000   0.58376331   -7.6098412     327.8454  0.016014332   0.01494331          145 
 1707000   0.57672952   -7.6014226    328.13343  0.016019012   0.01493169          169 
 1708000   0.56096018   -7.5944956    328.49317  0.016027184   0.01492009          200 
 1709000   0.56842527   -7.6173486    328.69519  0.016027657  0.014908514          118 
 1710000   0.57103788   -7.6056378    328.13288  0.015990881  0.014896936           94 
 1711000   0.57032415   -7.5972459    327.92166  0.015971248  0.014885375          124 
 1712000   0.56453062   -7.5976236    328.41342  0.015985856  0.014873813          134 
 1713000    0.5776399   -7.6121074    328.05292  0.015958986  0.014862272           80 
 1714000   0.57818258   -7.6057647    328.78531  0.015985283  0.014850767          145 
 1715000   0.58163455   -7.6148769    328.52448  0.015963289  0.014839234          112 
 1716000   0.56686961   -7.6095274    328.35038  0.015945531  0.014827736          197 
 1717000   0.56051522   -7.6145011      328.218   0.01592982   0.01481622          177 
 1718000   0.56587605   -7.6155327    328.61357  0.015939735  0.014804709           76 
 1719000   0.55653262   -7.6317194     327.8878  0.015895278  0.014793209          187 
 1720000   0.57772244    -7.615811    328.10303  0.015896464  0.014781718           69 
 1721000   0.56155772   -7.6369157    328.15739   0.01588986  0.014770239           71 
 1722000   0.56032941   -7.6296928    327.02612  0.015825887   0.01475875           98 
 1723000   0.57572794   -7.6096174    328.03288  0.015865394  0.014747268          101 
 1724000   0.56257787   -7.6572217    328.62625  0.015884873  0.014735774           78 
 1725000   0.55798092   -7.6307097      328.048  0.015847729  0.014724283          131 
 1726000   0.56893954   -7.6229985     328.2136  0.015846543    0.0147128          138 
 1727000   0.56099513   -7.6244071    327.49686  0.015802782  0.014701329           40 
 1728000   0.56261373   -7.6303368    328.05371  0.015820492  0.014689842           71 
 1729000   0.55576824   -7.6337541    327.90945  0.015804388  0.014678374           95 
 1730000   0.55877797   -7.6489005    327.45492  0.015773358  0.014666915          215 
 1731000   0.54749445   -7.6279932    327.74067  0.015778003  0.014655446           44 
 1732000   0.56559662   -7.6313939    327.64714  0.015764393  0.014644008          124 
 1733000   0.55789077   -7.6294078    327.68753  0.015757238  0.014632573          158 
 1734000   0.57164796   -7.6382335    327.79534  0.015753333   0.01462115           96 
 1735000   0.56585882   -7.6324216    328.36701  0.015771711  0.014609744          111 
 1736000   0.56560765   -7.6426948    327.52471  0.015722192  0.014598334          109 
 1737000   0.57017167   -7.6416828    327.65798  0.015719535  0.014586938           90 
 1738000   0.55628504    -7.656677    328.65211  0.015758156  0.014575572           84 
 1739000   0.56631522   -7.6373064     327.8644  0.015711348  0.014564194          136 
 1740000   0.55903804    -7.655335    327.61456  0.015690353  0.014552826           77 
 1741000   0.56055352   -7.6505293    328.27997   0.01571319  0.014541465          148 
 1742000   0.55180987   -7.6368685    327.83392  0.015682832  0.014530091           95 
 1743000   0.55896152   -7.6474203    327.62858  0.015664017  0.014518744           80 
 1744000    0.5638242   -7.6561024    327.53516  0.015650572  0.014507382           72 
 1745000   0.55393783   -7.6585184    327.75677  0.015652186  0.014496057           67 
 1746000   0.56368117   -7.6339493    327.35788  0.015624183  0.014484735          147 
 1747000   0.55500096   -7.6529654    328.02322  0.015646977  0.014473432           77 
 1748000   0.55761483    -7.642388    327.39491  0.015608072   0.01446213           85 
 1749000   0.55055421   -7.6469864    327.75645  0.015616374  0.014450827           84 
 1750000   0.56014707   -7.6493346     327.5836  0.015599219  0.014439547           80 
 1751000   0.55095412   -7.6477053    327.96201  0.015608319  0.014428282           75 
 1752000   0.54110266   -7.6458717    327.29217   0.01556755  0.014417038           97 
 1753000    0.5557662   -7.6628852    328.00827  0.015592711  0.014405794          124 
 1754000   0.55858732   -7.6499708    327.68363  0.015568397  0.014394559          102 
 1755000   0.55332708   -7.6489044     327.3029  0.015541448  0.014383308           75 
 1756000   0.56333137   -7.6587016    327.36364   0.01553548  0.014372088          154 
 1757000    0.5467976   -7.6571498    327.69783  0.015542489  0.014360853           48 
 1758000   0.55168697    -7.658897    327.74526  0.015535896  0.014349638           60 
 1759000   0.55103285   -7.6504721    327.32016  0.015506924  0.014338431           68 
 1760000   0.56582006   -7.6421548    327.71083  0.015516611  0.014327227           62 
 1761000   0.55055401   -7.6543015    327.97391  0.015520249  0.014316042           95 
 1762000   0.54452844   -7.6452094    327.53691  0.015490773  0.014304859          139 
 1763000   0.54701902   -7.6481658    326.73218  0.015443949  0.014293685           80 
 1764000   0.55447368   -7.6665457    327.10296   0.01545271  0.014282512           50 
 1765000   0.55314085   -7.6422924    327.10132  0.015443877  0.014271352           53 
 1766000    0.5420431   -7.6533491    327.33367  0.015446096  0.014260197           55 
 1767000   0.53576273    -7.657551    327.63344  0.015451492  0.014249058           48 
 1768000   0.54300419    -7.645875    328.26803  0.015472664  0.014237921           67 
 1769000   0.55335433   -7.6553548     327.6705  0.015435769  0.014226807           53 
 1770000    0.5403633   -7.6540332    327.60212  0.015423829  0.014215703          108 
 1771000   0.54073387   -7.6605391    327.25436  0.015398756  0.014204609          111 
 1772000   0.55079249   -7.6428874    327.21882  0.015388394  0.014193515          145 
 1773000   0.53979807    -7.655625    327.68756  0.015401746  0.014182441           98 
 1774000   0.55284186   -7.6606477    327.60084  0.015388991  0.014171381           74 
 1775000   0.53560265    -7.659186    327.64823  0.015382546  0.014160343           60 
 1776000   0.54153499    -7.667255    328.04531  0.015392516  0.014149311           49 
 1777000   0.54759808   -7.6559585    327.42935  0.015354968  0.014138287           46 
 1778000   0.55109913   -7.6684598    327.37064  0.015343581  0.014127276          120 
 1779000   0.53336594   -7.6659958    327.87137  0.015358412  0.014116285          116 
 1780000   0.54194633   -7.6646888    327.02413  0.015310118  0.014105278           82 
 1781000   0.54590572   -7.6557671    327.95117  0.015344899  0.014094302          102 
 1782000   0.54336894   -7.6698323    327.68768  0.015323966  0.014083323           62 
 1783000    0.5348298   -7.6890302    327.49351  0.015306296   0.01407236          108 
 1784000   0.53673767   -7.6690751    327.76564  0.015310428  0.014061405           54 
 1785000   0.54041024   -7.6717265    327.37696  0.015283705  0.014050456           63 
 1786000   0.53049137   -7.6567454    327.42585  0.015277428  0.014039512           98 
 1787000   0.55828188   -7.6605388    327.25605  0.015260961  0.014028582           82 
 1788000   0.53870919   -7.6637497    327.79695  0.015277636  0.014017663          107 
 1789000   0.53627799   -7.6736235    327.05357  0.015234469  0.014006753           53 
 1790000    0.5524436    -7.659291    327.39181  0.015241704  0.013995847           68 
 1791000    0.5354965    -7.670717    327.22002  0.015225201  0.013984959          107 
 1792000   0.52785537   -7.6713026    327.43927  0.015226901  0.013974074           93 
 1793000   0.53329687   -7.6874687    327.41269  0.015217173  0.013963199          164 
 1794000   0.53246117   -7.6659468    327.91049  0.015231814  0.013952328           67 
 1795000   0.53349314   -7.6770389    327.31669  0.015195761  0.013941464           73 
 1796000   0.53775148   -7.6726993    327.06355  0.015175555   0.01393061           66 
 1797000   0.52879094   -7.6656015    327.40338  0.015182868   0.01391976           70 
 1798000   0.53888436   -7.6925993    326.95377  0.015153586  0.013908904           76 
 1799000   0.53582057   -7.6478554    326.63681   0.01513048  0.013898038           64 
 1800000   0.53252759   -7.6751105    326.99403  0.015138612    0.0138872           56 
 1801000   0.52520262     -7.69167    327.73008  0.015164264   0.01387637           71 
 1802000   0.54874106   -7.6813062    326.97696  0.015121021  0.013865546          119 
 1803000    0.5439414   -7.7078678    326.94485   0.01511115  0.013854719          100 
 1804000    0.5457366   -7.6827679    327.26157  0.015117404  0.013843909          101 
 1805000   0.52067933   -7.6769722    326.90395  0.015092518  0.013833115           78 
 1806000   0.53128705   -7.6845357    326.78315  0.015078588  0.013822311           95 
 1807000   0.53935581   -7.6933778    327.00395  0.015080425  0.013811516           63 
 1808000   0.52845926   -7.6796542    326.67958  0.015057134  0.013800727           70 
 1809000   0.52740874   -7.6965049    326.84798  0.015056568  0.013789957          119 
 1810000   0.52560196    -7.698584    327.33641  0.015070737  0.013779184           54 
 1811000   0.54116218   -7.6679812    326.56773  0.015027044  0.013768428           56 
 1812000   0.52963454   -7.6919194    327.07296  0.015041987  0.013757683           53 
 1813000   0.53265424   -7.6893278    327.02457  0.015031466  0.013746952           64 
 1814000   0.51267217   -7.6960758    326.82477  0.015014001  0.013736226           60 
 1815000   0.52363832   -7.6773867    327.14131  0.015020262  0.013725505           62 
 1816000   0.51810027   -7.6953099    326.96285  0.015003802  0.013714788           53 
 1817000   0.52773744   -7.6803536    327.26986  0.015009625  0.013704085           99 
 1818000   0.52749356   -7.6928136    327.16313  0.014996477    0.0136934           52 
 1819000   0.52536125   -7.6960655    327.00351  0.014980919  0.013682715           49 
 1820000   0.52915565   -7.6964577    326.94311  0.014969923  0.013672036           97 
 1821000   0.52777767   -7.6809931    326.93996  0.014961558  0.013661383           70 
 1822000   0.52750615   -7.6859034     326.9856  0.014955434  0.013650722          130 
 1823000   0.52327592   -7.6955675    327.06123  0.014950687  0.013640068           64 
 1824000   0.52365973   -7.6954857     326.5713  0.014920107  0.013629429           66 
 1825000   0.53294277   -7.6876158    326.59663  0.014913088  0.013618784           57 
 1826000   0.51544152   -7.6803768    326.34664  0.014893512  0.013608153           66 
 1827000   0.51379809   -7.6909323    326.62676  0.014898137  0.013597542           82 
 1828000   0.51892666   -7.7241132    326.67721  0.014892287  0.013586921           74 
 1829000   0.51864163   -7.7024643    326.47223  0.014874806  0.013576293           86 
 1830000    0.5213763   -7.6992261    326.88698  0.014885564  0.013565695          124 
 1831000   0.52313345    -7.702345    326.46891  0.014858406  0.013555101           68 
 1832000   0.51032761   -7.6927587     326.3773  0.014846129  0.013544511           52 
 1833000   0.51439025    -7.698208    326.81228  0.014857805  0.013533938           70 
 1834000   0.51126719   -7.7035823    326.08805  0.014816796   0.01352338           96 
 1835000   0.50899765   -7.7003748    326.78612  0.014840423  0.013512824          103 
 1836000   0.52670654   -7.6955013    326.91903  0.014838373  0.013502267           59 
 1837000    0.5207306   -7.6862703     326.8893  0.014828947  0.013491734           59 
 1838000   0.52079403   -7.7044412    326.73118   0.01481371    0.0134812           64 
 1839000   0.51741909   -7.7055714    326.79098  0.014808364  0.013470674           64 
 1840000   0.52038419   -7.7138977    326.14251  0.014770947  0.013460153           68 
 1841000   0.51990129   -7.7115679    326.00298  0.014756608   0.01344965           56 
 1842000   0.52019217   -7.7116547    326.72675   0.01478134   0.01343915           57 
 1843000   0.53443057   -7.7033192    326.42826  0.014759824  0.013428669           57 
 1844000   0.51765739   -7.7097919    326.41087  0.014751033  0.013418193           57 
 1845000   0.52618834   -7.6962085    326.54532  0.014749111  0.013407718           70 
 1846000    0.5238163   -7.7201948    326.41707  0.014735332   0.01339725           78 
 1847000   0.51190297   -7.7286392    326.75795  0.014742734  0.013386799           61 
 1848000   0.51954672   -7.7145281    326.92552  0.014742313  0.013376354           61 
 1849000   0.50870915   -7.7151898    326.39386  0.014710377  0.013365923          122 
 1850000    0.5086868   -7.7101656    326.06724  0.014687714    0.0133555           60 
 1851000   0.51348855   -7.7239858    326.93475  0.014718834  0.013345082           74 
 1852000   0.51542337   -7.7023133    326.55113  0.014693625  0.013334674           71 
 1853000   0.50714717   -7.7160482    326.37199  0.014677639  0.013324277           69 
 1854000   0.51603751   -7.6955299    326.73578  0.014686074  0.013313889           73 
 1855000   0.50575516    -7.714803    325.87046  0.014639284  0.013303492           55 
 1856000   0.50741952    -7.712143    326.58191   0.01466334   0.01329313           55 
 1857000   0.51548538   -7.7084595     326.7722  0.014663983  0.013282776           54 
 1858000   0.51127777   -7.7245758    327.06093  0.014669041  0.013272435           72 
 1859000   0.51517094   -7.7089858    326.24184  0.014624432  0.013262099           63 
 1860000   0.51760441   -7.7161508     326.8693  0.014644682  0.013251773           65 
 1861000    0.5140914   -7.7231213    326.42942  0.014617116  0.013241455           59 
 1862000   0.50793378   -7.7279612    326.43082  0.014609328  0.013231163           60 
 1863000   0.50458142      -7.7251    326.17621  0.014590097  0.013220865           80 
 1864000   0.51415776   -7.7059517    326.52815  0.014598004  0.013210571           39 
 1865000   0.49603131   -7.7152305    326.21576  0.014576218  0.013200291           39 
 1866000   0.51081571       -7.715    326.26202  0.014570473  0.013190028           63 
 1867000   0.50587049   -7.7203209     326.6192  0.014578611  0.013179762           42 
 1868000   0.51816862   -7.7221623    326.19253  0.014551772  0.013169515           54 
 1869000   0.51624496   -7.7331571    326.55338  0.014560076  0.013159276           73 
 1870000   0.50724581   -7.7077923    326.12333  0.014533125   0.01314904           41 
 1871000   0.51241591   -7.7368054    326.39665  0.014537531  0.013138809           58 
 1872000   0.51618749   -7.7394869    326.36011  0.014528139  0.013128584           64 
 1873000   0.50168376   -7.7090368    326.38382  0.014521437  0.013118376           54 
 1874000   0.49926033   -7.7145587    326.34369  0.014511904  0.013108178          119 
 1875000   0.50897496   -7.7402271    326.03757  0.014490559   0.01309799           64 
 1876000    0.5143628   -7.7403556    326.25812  0.014492632  0.013087803           97 
 1877000    0.5063342   -7.7181396    326.31599   0.01448748  0.013077621           70 
 1878000   0.49675779   -7.7327259    326.68475  0.014496129  0.013067453           48 
 1879000     0.501023   -7.7394191     325.7401  0.014446519  0.013057282           58 
 1880000   0.50123109   -7.7354487    326.10256  0.014454901  0.013047135           66 
 1881000   0.50868671   -7.7393274     326.1846   0.01445085  0.013036988           89 
 1882000   0.49761678   -7.7292591    326.32608  0.014449437  0.013026854           49 
 1883000    0.5001986   -7.7412437     325.9867  0.014426744  0.013016731           76 
 1884000    0.5022893   -7.7276281    325.96028  0.014417918  0.013006622           57 
 1885000   0.49598803   -7.7400963    326.91329    0.0144524  0.012996514           49 
 1886000   0.50448684    -7.729401    326.64289  0.014432789  0.012986425           59 
 1887000   0.50164779   -7.7165865    326.80964  0.014432505  0.012976361           56 
 1888000   0.50484146   -7.7368712    326.64047  0.014417394    0.0129663           63 
 1889000   0.50341849   -7.7353447     326.3916  0.014398782  0.012956248           73 
 1890000   0.50673551   -7.7405818    326.24457  0.014384681   0.01294619           68 
 1891000   0.49530679   -7.7309115     326.1411  0.014372515  0.012936143           56 
 1892000   0.49111926   -7.7310435    326.09684  0.014362969  0.012926112           39 
 1893000   0.50432425   -7.7467493     326.5864  0.014376932  0.012916086           66 
 1894000   0.49381841    -7.718755    325.95841  0.014341711  0.012906055           49 
 1895000   0.49344928   -7.7456174    326.19632  0.014344605  0.012896055           49 
 1896000   0.49645967   -7.7223025    325.97316  0.014327231  0.012886053           96 
 1897000   0.49265232    -7.735705    326.16435  0.014328077  0.012876064           86 
 1898000   0.48882488    -7.745651    326.09742   0.01431759  0.012866082          122 
 1899000   0.50140512   -7.7259948     326.1251  0.014311265  0.012856113           47 
 1900000   0.49092907   -7.7260389     325.8809  0.014293022  0.012846144           78 
 1901000   0.49162687    -7.747628    326.30626  0.014304149  0.012836185           85 
 1902000   0.49810678   -7.7550952    325.92558   0.01427995  0.012826234           51 
 1903000   0.49669325   -7.7445415    326.26353  0.014287245  0.012816292          125 
 1904000   0.49550088   -7.7357817     326.3626  0.014284077  0.012806357          112 
 1905000    0.4849295   -7.7288461    326.50386  0.014282759  0.012796435          114 
 1906000   0.48873213   -7.7565346    326.04458  0.014255185  0.012786523           88 
 1907000   0.49349868   -7.7370596    326.19049  0.014254086  0.012776609           85 
 1908000   0.49862526   -7.7578222    326.39366  0.014255488  0.012766702           64 
 1909000   0.50267599   -7.7493159    325.67838  0.014216797  0.012756819          139 
 1910000   0.48965531   -7.7363807    326.28723  0.014235918  0.012746933           77 
 1911000   0.49473541   -7.7515319    325.93001  0.014212891  0.012737046           84 
 1912000   0.48230724   -7.7580074    325.93669  0.014205748  0.012727169          120 
 1913000   0.48642449   -7.7491074    325.68863  0.014187516    0.0127173          113 
 1914000   0.49152446   -7.7537199    325.27086  0.014161915  0.012707453           99 
 1915000   0.48620667   -7.7501898    326.13897  0.014192297  0.012697627          128 
 1916000   0.47973228   -7.7540669    326.90582  0.014218242  0.012687798           58 
 1917000   0.49095725   -7.7754575    325.80206  0.014162844   0.01267798          119 
 1918000   0.49388199   -7.7349248    325.64706  0.014148725  0.012668173          133 
 1919000   0.48987944   -7.7254574    325.98773  0.014156146  0.012658365          135 
 1920000   0.48718148   -7.7426273    325.84422  0.014142544   0.01264857          120 
 1921000   0.48856693   -7.7510415    325.91182  0.014138115  0.012638775          134 
 1922000   0.48257494   -7.7554654    325.86752  0.014128838  0.012628999           76 
 1923000   0.47496536   -7.7512431    326.10419  0.014131747  0.012619228          107 
 1924000   0.48548245   -7.7639176    325.59944   0.01410254  0.012609467          127 
 1925000   0.47726674   -7.7736402    325.69981  0.014099559  0.012599715          101 
 1926000   0.48841551   -7.7589873    325.58546  0.014087291  0.012589965           59 
 1927000   0.48684509   -7.7473848    325.63127  0.014081961  0.012580234           62 
 1928000   0.48848876   -7.7611676    326.19706  0.014099112  0.012570506           97 
 1929000   0.48458332     -7.75255    326.19662  0.014091784  0.012560794          144 
 1930000   0.48106969   -7.7621866    326.11212  0.014080834  0.012551093          103 
 1931000   0.47588944   -7.7547542    325.90651  0.014064669  0.012541405           55 
 1932000   0.48072701   -7.7615945    326.11062  0.014066193  0.012531718           85 
 1933000   0.47384059   -7.7620516    325.97817  0.014053206  0.012522042          129 
 1934000   0.47569814    -7.758437    326.00352  0.014047032  0.012512372           97 
 1935000   0.48310543    -7.766176    326.33962  0.014054247  0.012502715          201 
 1936000   0.48841721   -7.7619505    325.75112  0.014021656  0.012493061          148 
 1937000   0.48899803   -7.7674171     326.0512  0.014027328  0.012483415           74 
 1938000   0.48502284   -7.7546536    326.21907  0.014027308  0.012473782           86 
 1939000   0.48747209   -7.7845005    325.31031  0.013981017  0.012464155          143 
 1940000   0.48383608   -7.7605502    326.30038  0.014016339  0.012454534          101 
 1941000    0.4748529   -7.7650508    325.71643  0.013984047  0.012444936           88 
 1942000   0.47747602   -7.7666524    325.75082  0.013978322  0.012435331           89 
 1943000   0.47146717   -7.7757043    326.35158  0.013996894  0.012425738           76 
 1944000   0.47526446   -7.7653677    326.34174  0.013989272  0.012416158           68 
 1945000   0.47009221   -7.7709572     325.9104  0.013963599  0.012406572           74 
 1946000   0.48186807   -7.7788147    325.89298  0.013955677  0.012397011           78 
 1947000    0.4776705    -7.773901    326.05656  0.013955511   0.01238745          125 
 1948000   0.49194424   -7.7731339    325.83042  0.013938673    0.0123779          102 
 1949000   0.46533213   -7.7682336     325.1414  0.013902061  0.012368363           90 
 1950000   0.47200769   -7.7819075    325.57945  0.013913652  0.012358823           78 
 1951000   0.47197157    -7.756011    325.89698  0.013920083  0.012349288          115 
 1952000   0.47024891   -7.7734968    325.67964  0.013903673  0.012339757           48 
 1953000   0.47600776   -7.7722562    325.46739  0.013887497  0.012330231           74 
 1954000   0.46869531   -7.7646132    325.46316   0.01388021  0.012320714           79 
 1955000   0.48249028   -7.7906936    325.47722  0.013873709  0.012311221           78 
 1956000   0.48390458   -7.7764935    325.33927  0.013860739  0.012301722           74 
 1957000   0.46905501   -7.7868821    325.65545   0.01386712   0.01229223           78 
 1958000   0.47627401   -7.7659873    325.55575  0.013855795   0.01228276           70 
 1959000   0.46670079   -7.7751397    325.48128  0.013845554  0.012273309           74 
 1960000   0.46438874   -7.7592613    325.31529  0.013831432  0.012263846           86 
 1961000   0.46697874    -7.785335    325.72742  0.013841893  0.012254398           79 
 1962000   0.47654494   -7.7852081    325.60283  0.013829546  0.012244956           81 
 1963000   0.46874064   -7.7933566    325.62797  0.013823568  0.012235518           87 
 1964000    0.4767134   -7.7862904    325.87822  0.013827148  0.012226087           73 
 1965000   0.47217444    -7.784937    325.62698  0.013809456  0.012216664           72 
 1966000    0.4781112   -7.7828703    325.15933   0.01378261  0.012207237           80 
 1967000   0.46486116   -7.7723612    325.45975  0.013788331  0.012197824           81 
 1968000   0.47041434   -7.7935877    325.55004  0.013785148  0.012188419           76 
 1969000   0.47274968   -7.7818426      325.423   0.01377277  0.012179027           68 
 1970000   0.47346222   -7.7812989    325.23978  0.013758028  0.012169635           80 
 1971000   0.46526162   -7.7748147    325.39563  0.013757637  0.012160262           92 
 1972000    0.4742367   -7.7910987    325.65734   0.01376172  0.012150897           79 
 1973000   0.45724322   -7.7778924    325.39754  0.013743772  0.012141544           86 
 1974000   0.47601273   -7.7929738    325.46113  0.013739494  0.012132203          155 
 1975000   0.46323851   -7.7806511    325.34633  0.013727693  0.012122853           73 
 1976000    0.4649842   -7.7859346    325.01157  0.013706628  0.012113516           80 
 1977000   0.45642507   -7.7878399     325.4369  0.013717623  0.012104183           96 
 1978000   0.46017685   -7.7938005    325.20195   0.01370079  0.012094864          118 
 1979000   0.45529638   -7.8038995    325.74871   0.01371689   0.01208555           77 
 1980000   0.46686864   -7.7789242    325.19843  0.013686803  0.012076239           96 
 1981000   0.46726288   -7.7904571    325.06431  0.013674252  0.012066941          222 
 1982000    0.4604211   -7.7930514    325.15945  0.013671353  0.012057649           99 
 1983000   0.44919262   -7.7934101    325.01835  0.013658529  0.012048362          102 
 1984000     0.450799   -7.8056477    325.30893   0.01366385  0.012039076          174 
 1985000   0.45289904   -7.7892702    324.90417  0.013639973  0.012029811          164 
 1986000   0.46965139   -7.8138662    324.97673   0.01363615  0.012020556          104 
 1987000   0.46264321   -7.8066143    325.27268    0.0136417  0.012011306          115 
 1988000   0.46019263   -7.7897535    325.43377   0.01364159  0.012002058           81 
 1989000   0.45286203   -7.8015282    325.10513  0.013620962  0.011992822          152 
 1990000   0.46607904   -7.8048936    325.18498  0.013617462  0.011983595          107 
 1991000    0.4622647   -7.7824729    324.78132  0.013593727  0.011974375           89 
 1992000   0.45231204   -7.7963525    325.18009  0.013603585  0.011965168           91 
 1993000   0.45673715   -7.7919586    325.20383  0.013597752  0.011955968          111 
 1994000   0.44903534   -7.8012793    324.95522  0.013580543  0.011946776           86 
 1995000   0.45788443   -7.8188932    325.29369  0.013587874  0.011937591          100 
 1996000   0.45340045   -7.7995303    324.56927  0.013550821  0.011928416           86 
 1997000   0.46121396   -7.8017507    324.97552  0.013560988  0.011919248           67 
 1998000   0.45039816   -7.7980645    325.33747  0.013569297  0.011910092           78 
 1999000   0.45532736    -7.814953    324.98085  0.013547643  0.011900937           86 
 2000000   0.45390392   -7.7906002    325.21485  0.013550619  0.011891792           94 
 2001000   0.45620653   -7.8001425    324.99835  0.013534831  0.011882661           90 
 2002000   0.45181919   -7.8022803    324.77396   0.01351873   0.01187353           83 
 2003000   0.45552991    -7.814394    324.95097  0.013519345  0.011864414           89 
 2004000   0.45457885   -7.8194384    324.98147  0.013513867  0.011855299           54 
 2005000   0.46547549   -7.8002203    324.38076   0.01348216  0.011846183          136 
 2006000   0.45417956    -7.795172    324.83466  0.013494295  0.011837076           89 
 2007000   0.44867996   -7.8070923    325.08802  0.013498091  0.011827991           88 
 2008000   0.45099422   -7.8225281    325.28043  0.013499354  0.011818905          104 
 2009000   0.44998466   -7.8081555     324.7832  0.013472009  0.011809828           93 
 2010000   0.44778377   -7.8147804    324.99305  0.013474007  0.011800764           83 
 2011000   0.46079357   -7.8132434    325.38284  0.013483459  0.011791703           77 
 2012000    0.4434009   -7.7987689    324.84043  0.013454292  0.011782651           87 
Loop time of 4397.15 on 48 procs for 2000000 steps with 4000 atoms

Performance: 78596.283 tau/day, 454.840 timesteps/s
99.4% CPU use with 48 MPI tasks x no OpenMP threads

MPI task timing breakdown:
Section |  min time  |  avg time  |  max time  |%varavg| %total
---------------------------------------------------------------
Pair    | 273.61     | 287.6      | 302.65     |  39.2 |  6.54
Neigh   | 27.561     | 28.219     | 28.934     |   4.6 |  0.64
Comm    | 241.29     | 256.86     | 271.94     |  49.4 |  5.84
Output  | 3.9336     | 3.9356     | 3.9797     |   0.3 |  0.09
Modify  | 3752.9     | 3772.4     | 3788.3     |  14.8 | 85.79
Other   |            | 48.13      |            |       |  1.09

Nlocal:        83.3333 ave          93 max          76 min
Histogram: 2 4 7 6 13 5 4 6 0 1
Nghost:        1823.08 ave        1844 max        1800 min
Histogram: 1 2 7 4 5 12 6 5 4 2
Neighs:        11261.2 ave       12982 max        9969 min
Histogram: 3 4 3 7 14 10 4 2 0 1
FullNghs:      22521.9 ave       25553 max       20222 min
Histogram: 2 3 6 11 9 7 8 1 0 1

Total # of neighbors = 1081052
Ave neighs/atom = 270.26300
Neighbor list builds = 107748
Dangerous builds = 0

#clear
#
#next RN
#
#jump SELF
Total wall time: 1:13:20
