
units lj                  # Use reduced LJ style units
atom_style atomic         # Uncharged point particles
atom_modify map hash      # Needed for indexing of clusters etc
                          # Used to be able to find where atoms are in relation to each other.

lattice fcc 1.0 spacing 1 1 1
Lattice spacing in x,y,z = 1.5874011 1.5874011 1.5874011
region box block 0 10 0 10 0 10 units lattice
create_box 2 box
Created orthogonal box = (0.0000000 0.0000000 0.0000000) to (15.874011 15.874011 15.874011)
  3 by 4 by 4 MPI processor grid
create_atoms 1 box
Created 4000 atoms
  using lattice units in orthogonal box = (0.0000000 0.0000000 0.0000000) to (15.874011 15.874011 15.874011)
  create_atoms CPU = 0.002 seconds
set type 1 type/fraction 2 0.75 78393
Setting atom values ...
  3002 settings made for type/fraction
mass 1 1.0
mass 2 1.0
pair_style lj/cut  3.5
pair_modify tail  yes
pair_coeff 1  1  1.0  1.0   # Intearaction between 1 and 1 set with epsilon = 1 and sigma = 1
pair_coeff 1  2  1.5  0.8
pair_coeff 2  2  0.5  0.88

write_data data.0
System init for write_data ...
Neighbor list info ...
  update every 1 steps, delay 10 steps, check yes
  max neighbors/atom: 2000, page size: 100000
  master list distance cutoff = 3.8
  ghost atom cutoff = 3.8
  binsize = 1.9, bins = 9 9 9
  1 neighbor lists, perpetual/occasional/extra = 1 0 0
  (1) pair lj/cut, perpetual
      attributes: half, newton on
      pair build: half/bin/atomonly/newton
      stencil: half/bin/3d
      bin: standard
WARNING: Not all mixed pair coeffs generated from mixing. Use write_data with 'pair ij' option to store all pair coeffs. (../write_data.cpp:312)


#############################
#   M E L T   S Y S T E M   #
#############################

velocity all create 2.4 5300450 mom yes dist gaussian # Assign velocities
                                                    # Temperature 2.4, random number seed, zero linear momentum
                                                                                # Gaussian distribution

timestep 0.002   # simulation timestep
thermo 1000       # output thermodynamic data every 1000 steps bf 100

# Define a fix  in this case with index 1 applied to all
# particles in the simulation. This fix is for simulations
# in the anisotropic NPT ensemble. Note that we use the MTK
# correction.
fix 1 all npt temp 2.4 2.4 0.1 iso 5.68 5.68 0.5 mtk yes tchain 5 pchain 5 # Use NPT ensemble
                                                                         # Set temperature and pressure and damping
                                                                         # Numbers of thermostats in chain and in barostat
run 10000          # run for 10000 steps
Per MPI rank memory allocation (min/avg/max) = 3.642 | 3.644 | 3.648 Mbytes
Step Temp E_pair E_mol TotEng Press Volume 
       0          2.4    -3.937065            0  -0.33796495   -3.5201857         4000 
    1000    2.4059861   -3.4045569            0   0.20352001    5.8935578    3713.5159 
    2000    2.4324849   -3.4184304            0    0.2293848    5.4955349    3757.7325 
    3000    2.3817642   -3.3937676            0   0.17798555    5.6809041     3740.615 
    4000    2.3700374   -3.4405031            0   0.11366422    5.6294463    3717.5634 
    5000    2.4005175     -3.46496            0   0.13491605    5.9036604    3681.9321 
    6000    2.4327956   -3.4108833            0    0.2373978    5.9010454    3717.1168 
    7000    2.3579942   -3.4144443            0   0.12166274    5.9444626    3697.7991 
    8000    2.4049401   -3.4524486            0   0.15405962    5.5325896    3722.2421 
    9000    2.4048518    -3.438681            0   0.16769479    5.7702049    3706.8461 
   10000    2.3863929   -3.3908658            0    0.1878286    5.6514961    3755.7919 
Loop time of 2.71537 on 48 procs for 10000 steps with 4000 atoms

Performance: 636378.431 tau/day, 3682.746 timesteps/s
99.5% CPU use with 48 MPI tasks x no OpenMP threads

MPI task timing breakdown:
Section |  min time  |  avg time  |  max time  |%varavg| %total
---------------------------------------------------------------
Pair    | 1.1559     | 1.2402     | 1.4243     |   3.9 | 45.67
Neigh   | 0.21154    | 0.22068    | 0.25334    |   1.3 |  8.13
Comm    | 0.7247     | 0.92833    | 1.044      |   6.1 | 34.19
Output  | 0.00025082 | 0.000256   | 0.00033613 |   0.0 |  0.01
Modify  | 0.26381    | 0.31034    | 0.35325    |   4.9 | 11.43
Other   |            | 0.01555    |            |       |  0.57

Nlocal:        83.3333 ave          94 max          71 min
Histogram: 3 0 2 8 6 6 17 1 3 2
Nghost:        1705.94 ave        1740 max        1655 min
Histogram: 1 1 1 6 7 4 10 10 6 2
Neighs:        10169.3 ave       11518 max        8332 min
Histogram: 1 2 3 4 6 6 10 8 5 3

Total # of neighbors = 488125
Ave neighs/atom = 122.03125
Neighbor list builds = 902
Dangerous builds = 182

# Equilibrate just above the melting temperature to avoid step fn in T

fix 1 all npt temp 1.25 1.25 0.1 iso 5.68 5.68 0.5 mtk yes tchain 5 pchain 5
run 2000
Per MPI rank memory allocation (min/avg/max) = 3.644 | 3.646 | 3.649 Mbytes
Step Temp E_pair E_mol TotEng Press Volume 
   10000    2.3863929   -3.3908658            0    0.1878286    5.6514961    3755.7919 
   11000    1.2413312   -5.0578487            0   -3.1963173    5.8735556    2841.9658 
   12000    1.2389083   -5.0767054            0   -3.2188075    5.2603142    2858.0369 
Loop time of 0.647721 on 48 procs for 2000 steps with 4000 atoms

Performance: 533563.467 tau/day, 3087.752 timesteps/s
99.6% CPU use with 48 MPI tasks x no OpenMP threads

MPI task timing breakdown:
Section |  min time  |  avg time  |  max time  |%varavg| %total
---------------------------------------------------------------
Pair    | 0.27527    | 0.31406    | 0.35065    |   2.0 | 48.49
Neigh   | 0.040782   | 0.043401   | 0.047184   |   0.6 |  6.70
Comm    | 0.20384    | 0.24115    | 0.28741    |   2.6 | 37.23
Output  | 5.2145e-05 | 5.3166e-05 | 6.9688e-05 |   0.0 |  0.01
Modify  | 0.03883    | 0.044307   | 0.049487   |   1.6 |  6.84
Other   |            | 0.004747   |            |       |  0.73

Nlocal:        83.3333 ave          91 max          77 min
Histogram: 2 2 8 9 8 9 3 4 1 2
Nghost:        2060.85 ave        2088 max        2036 min
Histogram: 7 2 5 4 7 7 6 4 3 3
Neighs:        13357.4 ave       15414 max       12143 min
Histogram: 5 4 9 10 10 4 3 0 1 2

Total # of neighbors = 641156
Ave neighs/atom = 160.28900
Neighbor list builds = 145
Dangerous builds = 11

#############################
# L I N E A R  Q U E N C H  #
#############################

# Define solid atoms. This closely follows ten Wolde  Ruiz-Montero and Frenkel  Faraday Discuss  1996  104  93-110
# Compute components of the per-atom q6 vector
compute q6 all orientorder/atom degrees 1 6 components 6 nnn NULL cutoff 1.3 # compute the Q6 parameter.
                                                                             # Use all neighbours within 1.3 unit cell.

# get number of connections
compute coord_number all coord/atom orientorder q6 0.5

# An atom is solid if it has 8 or more connections (of a possible 14)
variable is_solid atom c_coord_number>=8
group solid dynamic all var is_solid    # Must be dynamic to update
dynamic group solid defined

# do clustering
compute cluster solid cluster/atom 1.3 # Create a cluster where all atoms within are solid and max 1.3 units from another member

# define chunks one chunk per cluster
compute clus_chunks solid chunk/atom c_cluster nchunk every compress yes  # Says which atoms are in which chunk

# count the size of each chunk
compute size_chunks solid property/chunk clus_chunks count


# Find the maximum entry in the vector of chunk sizes
variable max_n equal max(c_size_chunks)


# Thermo style which includes this variable
# thermo_style custom step temp pe vol v_max_n

thermo ${N}  # Print the thermo information every 100 steps
thermo 1000  

# Reset the npt fix at a lower temperature (below freezing)
fix 1  all npt temp  ${temp} ${temp}  0.1  iso  5.68  5.68  0.5  mtk yes tchain  5  pchain  5
fix 1  all npt temp  0.45 ${temp}  0.1  iso  5.68  5.68  0.5  mtk yes tchain  5  pchain  5
fix 1  all npt temp  0.45 0.45  0.1  iso  5.68  5.68  0.5  mtk yes tchain  5  pchain  5

dump dmp2 all dcd ${N} traj.dcd
dump dmp2 all dcd 1000 traj.dcd


compute msd all msd com yes
variable twopoint equal c_msd[4]/6/(step*dt+1.0e-6)
fix 9 all vector 10 c_msd[4]
variable fit equal slope(f_9)/6/(10*dt)
thermo_style custom step temp pe c_msd[4] v_twopoint v_fit v_max_n

fix 1 all npt temp 1.25 ${temp} 0.1 iso 5.68 5.68 0.5 mtk yes tchain 5 pchain 5
fix 1 all npt temp 1.25 0.45 0.1 iso 5.68 5.68 0.5 mtk yes tchain 5 pchain 5
run 500000 # 5000000  # Run for this many steps
Neighbor list info ...
  update every 1 steps, delay 10 steps, check yes
  max neighbors/atom: 2000, page size: 100000
  master list distance cutoff = 3.8
  ghost atom cutoff = 3.8
  binsize = 1.9, bins = 8 8 8
  4 neighbor lists, perpetual/occasional/extra = 1 3 0
  (1) pair lj/cut, perpetual
      attributes: half, newton on
      pair build: half/bin/atomonly/newton
      stencil: half/bin/3d
      bin: standard
  (2) compute orientorder/atom, occasional
      attributes: full, newton on
      pair build: full/bin/atomonly
      stencil: full/bin/3d
      bin: standard
  (3) compute coord/atom, occasional
      attributes: full, newton on
      pair build: full/bin/atomonly
      stencil: full/bin/3d
      bin: standard
  (4) compute cluster/atom, occasional
      attributes: full, newton on
      pair build: full/bin/atomonly
      stencil: full/bin/3d
      bin: standard
Per MPI rank memory allocation (min/avg/max) = 9.838 | 9.844 | 9.849 Mbytes
Step Temp PotEng c_msd[4] v_twopoint v_fit v_max_n 
   12000    1.2389083   -5.0767054 8.4084684e-30 5.8392139e-32 8.3333333e+20            1 
   13000    1.2496367   -5.1482809   0.67783724 0.0043451104  0.055160923            3 
   14000      1.22553   -5.0724562    1.3762996 0.0081922595   0.05724445            3 
   15000    1.2741004   -5.0579515    2.0586865  0.011437147  0.057368865            2 
   16000    1.2211471   -5.1562812    2.7500175  0.014323007  0.057041346            3 
   17000     1.259175   -5.1187994     3.459304  0.016957372  0.057914168            2 
   18000    1.2498759   -5.0806798     4.139694   0.01916525  0.057885702            1 
   19000     1.267849   -5.0927772    4.8863399  0.021431315  0.058106967            2 
   20000     1.223809   -5.1310018    5.4986499  0.022911041  0.058066428            4 
   21000    1.2198177   -5.1591187    6.1970876  0.024591617  0.057795226            1 
   22000    1.2318508    -5.123049    6.9609191  0.026367117  0.057905868            2 
   23000    1.2119849   -5.1485166    7.5976185  0.027527603  0.057940662            4 
   24000    1.2347985   -5.0992431    8.2455905  0.028630522  0.057735724            1 
   25000    1.2214287    -5.148561    8.7587359  0.029195786  0.057346689            1 
   26000    1.2430255   -5.1452803    9.3896848  0.030095143  0.056874049            2 
   27000    1.2165789   -5.1462854    10.042131  0.030994231  0.056393937            2 
   28000    1.2174658   -5.1623762    10.667875  0.031749629  0.055949409            4 
   29000    1.2272646   -5.1641266    11.293423  0.032452363  0.055619331            2 
   30000    1.2142744   -5.1787286    11.811861  0.032810724  0.055270413            3 
   31000      1.23241    -5.125835    12.532763  0.033690223  0.054956299            3 
   32000    1.2589151   -5.1656429    13.156829  0.034262576  0.054729568            2 
   33000    1.2168918   -5.1753427    13.684449  0.034556689  0.054506262            1 
   34000    1.2237878   -5.2061459    14.230338  0.034878279  0.054235364            3 
   35000     1.229099   -5.1606959    14.821306  0.035288823   0.05393845            2 
   36000    1.2263786   -5.1685515    15.400511  0.035649331  0.053669976            4 
   37000    1.1874322   -5.1816438     16.00071  0.036037634  0.053428031            5 
   38000    1.1900655   -5.1652547    16.686653  0.036593537  0.053233017            3 
   39000    1.1962492   -5.2023185     17.32565  0.037020618  0.053075022            1 
   40000    1.2252811   -5.1778969    18.210433  0.037938402  0.053016264            4 
   41000    1.2092871   -5.2123552    18.745279  0.038100159  0.053030979            2 
   42000    1.2328329    -5.170828    19.239644  0.038173897  0.053003524            1 
   43000    1.1846503   -5.2228633    19.762713   0.03829983  0.052891439            1 
   44000    1.1994142   -5.1489503    20.415203  0.038665157  0.052776629            2 
   45000    1.2077553   -5.2141773     20.96516  0.038824371  0.052654104            4 
   46000    1.1967193   -5.1864093    21.729175  0.039364447  0.052570941            5 
   47000    1.1777696     -5.21278    22.317515  0.039570061  0.052475556            1 
   48000    1.1892553   -5.1753595    22.919135  0.039790164  0.052387904            2 
   49000     1.190757   -5.1797636    23.570907  0.040086577  0.052339513            2 
   50000    1.1753682   -5.1907427    24.090931  0.040151551    0.0522981            3 
   51000    1.1982392   -5.2428035    24.668879  0.040308625  0.052225185            2 
   52000    1.1543132   -5.2152998    25.134871  0.040280242  0.052129858            2 
   53000    1.1896845    -5.260156    25.639033  0.040312945  0.052020475            3 
   54000    1.1668819    -5.235548    26.295226  0.040579053  0.051911418            2 
   55000    1.1578801   -5.2321024    27.072143  0.041018399  0.051847527            3 
   56000    1.1761811   -5.2534783    27.679083  0.041189112  0.051799416            3 
   57000    1.1706998   -5.2130552    28.440452  0.041579608  0.051753515            3 
   58000    1.1824041    -5.256457     28.88071  0.041495272  0.051735588            2 
   59000    1.1850266   -5.2656902    29.261936  0.041330418  0.051682985            2 
   60000    1.1634625   -5.2549449    29.885816  0.041508077  0.051603263            6 
   61000    1.1340289   -5.2454169     30.41815  0.041554849  0.051523286            2 
   62000    1.1493845    -5.225649    31.300406  0.042070438  0.051468248            5 
   63000    1.1809382   -5.2720706    31.785676  0.042044545  0.051416243            3 
   64000    1.1556542     -5.30544    32.235955    0.0419739  0.051349895            2 
   65000    1.1728677   -5.2774177     32.81266  0.042067513  0.051284605            2 
   66000     1.181664   -5.2499076    33.393759  0.042163836  0.051219985            5 
   67000     1.133542   -5.2714938     33.94971  0.042226007  0.051144959            2 
   68000    1.1633058     -5.28823    34.452682  0.042221424  0.051072593            3 
   69000    1.1580958   -5.2355555    35.415797  0.042772702  0.051012235            3 
   70000    1.1640794   -5.2712028    35.912383  0.042752836   0.05099575            4 
   71000    1.1514909   -5.3294291    36.530747  0.042876464  0.050974846            2 
   72000      1.14648   -5.3103769    37.205788  0.043062255  0.050965048            3 
   73000    1.1667164     -5.29506    37.803495  0.043154674  0.050947904            3 
   74000    1.1523742    -5.281661    38.394057  0.043236551   0.05091876            2 
   75000    1.1704573   -5.3130889    38.718455  0.043020506  0.050888155            2 
   76000    1.1740516   -5.2716994    39.278886  0.043068954  0.050835932            2 
   77000    1.1552888   -5.2836425    39.891856  0.043173004  0.050765645            3 
   78000    1.1453371   -5.2607741     40.63741  0.043416036  0.050710811            3 
   79000    1.1707011   -5.2911333    41.234638  0.043496454  0.050662736            2 
   80000    1.1125146   -5.3232618    41.748406  0.043487923  0.050622309            4 
   81000    1.1566151   -5.3180314    42.368014  0.043588491  0.050597383            4 
   82000    1.1486332   -5.3074207    43.149021  0.043850631   0.05057455            2 
   83000    1.1427628   -5.3602555    43.443121  0.043617591  0.050539387            6 
   84000     1.139309   -5.3579693    44.059694  0.043710014  0.050492208            5 
   85000    1.1469824   -5.3224055    44.563002  0.043689217  0.050459813            3 
   86000    1.1461482   -5.3500398    45.052191  0.043655224  0.050420641            1 
   87000    1.1539777   -5.3593268    45.866378  0.043933312  0.050378976            3 
   88000    1.1432987   -5.3058414    46.095096  0.043650659  0.050327266            4 
   89000    1.0995525    -5.321792    46.468953  0.043510256  0.050270447            2 
   90000    1.1129024   -5.3796891    47.174266  0.043679875  0.050211177            2 
   91000    1.1438895   -5.3578463    47.736302  0.043714562  0.050150615            2 
   92000    1.1012732    -5.354074     48.30482  0.043754366  0.050089508            3 
   93000    1.1003621   -5.3597252    48.734243  0.043668677   0.05002246            3 
   94000    1.1328244   -5.3348868    49.389919  0.043785389  0.049958951            2 
   95000    1.1300745   -5.3313811    49.921319  0.043790631  0.049893785            2 
   96000    1.1293217   -5.3802095    50.064535  0.043458798  0.049825542            2 
   97000    1.1201056   -5.3941497    50.325262  0.043234761  0.049744772            3 
   98000    1.1072189   -5.3238388    51.380548  0.043690942  0.049655861            5 
   99000    1.1011297   -5.3657573    51.623204  0.043453875  0.049563241            2 
  100000    1.1223603   -5.3610153    52.313773   0.04359481  0.049478286            3 
  101000    1.1144342   -5.4097204    52.634396  0.043427719  0.049397326            4 
  102000    1.1151033   -5.4077323    53.087674  0.043372282  0.049314209            2 
  103000    1.1124364   -5.3950879    53.680361  0.043430713  0.049231758            3 
  104000    1.1129848   -5.3756178     54.37206  0.043567355  0.049157659            6 
  105000    1.0986275   -5.4265143    54.672139  0.043390586  0.049081008            3 
  106000    1.0719133    -5.405163    54.867183  0.043134578   0.04899284            2 
  107000    1.0986748   -5.3857867      55.4099  0.043154128  0.048893393            2 
  108000     1.100361   -5.3821933     55.69009  0.042970748  0.048789663            3 
  109000    1.0802577   -5.3959798    56.111083  0.042898381  0.048686445            7 
  110000    1.1033358    -5.403836    56.567341  0.042854046  0.048579831            1 
  111000    1.1129193   -5.4244833    57.044164  0.042825949  0.048475395            5 
  112000    1.1083261    -5.418195    57.300171  0.042634055  0.048373502            5 
  113000    1.1037751   -5.4336601    58.013296  0.042782667  0.048267247            4 
  114000    1.0936878    -5.427234    58.386787  0.042680399  0.048159244            2 
  115000    1.0889685   -5.4423549     58.82565  0.042627282  0.048054146            2 
  116000    1.0857357   -5.4429215    59.373254  0.042653199  0.047955612            3 
  117000    1.0887712   -5.4592037     59.47184   0.04235886  0.047845403            5 
  118000     1.092389   -5.4176289    60.056519  0.042412796  0.047734991            3 
  119000    1.0811382   -5.4581901     60.38205  0.042284349  0.047620049            3 
  120000     1.044973   -5.4599312    60.639998   0.04211111  0.047505284            3 
  121000    1.0678593   -5.4108356    61.224176  0.042165411  0.047387706            3 
  122000    1.0609387   -5.4605427    61.753023  0.042181027  0.047274079            5 
  123000    1.0835727   -5.4826121    61.878577  0.041923155  0.047159956            2 
  124000    1.0841272   -5.4397648    62.495847  0.041999897  0.047048036            3 
  125000    1.0503775   -5.4659727    63.129247  0.042086165  0.046939069            3 
  126000    1.0493085   -5.4652527       63.764  0.042171958  0.046834848            2 
  127000    1.0622679   -5.4472102    64.049804   0.04202743  0.046733526            2 
  128000    1.0736936   -5.4875139    64.555901  0.042028581  0.046636615            4 
  129000    1.0603575   -5.4532768     65.14217  0.042081505  0.046540972            3 
  130000    1.0490178   -5.4813136     65.74166   0.04214209  0.046453917            4 
  131000    1.0660305   -5.4546518    66.040895  0.042010747  0.046364363            4 
  132000    1.0800382   -5.4982313    66.150818   0.04176188  0.046267064            3 
  133000    1.0611259   -5.5054227    66.555959  0.041701729   0.04616417            3 
  134000    1.0815529   -5.5319149    66.924147  0.041619494  0.046059965            5 
  135000    1.0586342   -5.5133851    67.514041  0.041675334  0.045958127            2 
  136000    1.0480445   -5.4736519    67.868366  0.041586008   0.04585639            3 
  137000    1.0515032   -5.5273664    68.257504  0.041519163  0.045758114            4 
  138000    1.0454799   -5.5426182    68.824454  0.041560661  0.045660378            3 
  139000     1.051092   -5.4907079    69.020443  0.041379162  0.045562508            2 
  140000    1.0256422   -5.5087985    69.731175  0.041506652  0.045465661            3 
  141000    1.0272504   -5.4992659    70.152835  0.041461486  0.045369548            2 
  142000    1.0363288   -5.5093811    70.667585  0.041471588  0.045281388            6 
  143000    1.0606228   -5.5455867    70.852305  0.041289222  0.045193805            4 
  144000    1.0348902   -5.5350662    71.246004  0.041230326  0.045101902            3 
  145000    1.0499253   -5.5389708     71.63389  0.041168902   0.04500804            2 
  146000    1.0327762   -5.5516872    72.221149  0.041222117  0.044917549            4 
  147000    1.0604802   -5.5752776    72.559009  0.041133225  0.044823826            4 
  148000    1.0318968    -5.534873    72.621074  0.040890244  0.044730082            2 
  149000    1.0226729   -5.5563709    73.332797  0.041013869  0.044636252            3 
  150000    1.0205816   -5.5592345    73.586503   0.04088139  0.044542517            2 
  151000    1.0217204   -5.5814639    73.885378  0.040775595  0.044451258            5 
  152000    1.0216029   -5.5641215    74.358772  0.040766871  0.044357487            7 
  153000    1.0066832   -5.5562534    74.605216  0.040634649  0.044264565            3 
  154000    1.0276758    -5.503381    75.170235  0.040676534  0.044171363            2 
  155000    1.0033752   -5.5468382    75.425145  0.040551153  0.044078272            3 
  156000    0.9895142   -5.5706893    75.698317  0.040437135  0.043982524            2 
  157000    1.0108727   -5.5855463    76.144201  0.040416243  0.043885869            3 
  158000    1.0158443   -5.5763307     76.66131   0.04043318   0.04379014            3 
  159000    1.0331365   -5.5630473    76.824468  0.040264396  0.043692015            2 
  160000    1.0055026   -5.5978468    76.569376  0.039879883  0.043590583            6 
  161000    1.0055375   -5.6021771    77.076835  0.039894842  0.043484633            3 
  162000   0.98926569   -5.5889789    77.761154  0.040000594  0.043384057            5 
  163000    1.0292232   -5.5944056    78.106897  0.039931951  0.043290987            2 
  164000    1.0092318   -5.6208598    78.347238  0.039810588  0.043196999            9 
  165000    1.0314753   -5.5775403    79.013688  0.039905903  0.043103477            6 
  166000   0.98955663   -5.6061218    79.147766  0.039732814  0.043008282            9 
  167000    1.0151671   -5.5697562    79.491854  0.039666593  0.042913111            5 
  168000    0.9866556   -5.5968583    80.024022  0.039694455  0.042820096            5 
  169000   0.99555903   -5.6235001    80.350532  0.039620578  0.042728051            2 
  170000   0.96437375   -5.6103134    80.786806  0.039601375  0.042634328            3 
  171000   0.99529208   -5.6080846    81.223309  0.039582509  0.042543621            3 
  172000   0.98036949    -5.602239    81.563073  0.039516993  0.042454989            3 
  173000   0.99899653   -5.6302761    81.926848    0.0394638  0.042362965            5 
  174000    0.9766276   -5.6285582    81.982994  0.039263886  0.042267208            4 
  175000   0.97895807   -5.6307672    82.310247  0.039195356  0.042172782            2 
  176000    1.0002207   -5.6447651    82.210989  0.038925657   0.04207584            5 
  177000   0.96597654   -5.5871284    83.327652  0.039231474  0.041980974            3 
  178000    1.0012588   -5.6615997    83.225156  0.038963088   0.04188957            3 
  179000   0.97627027   -5.6469369    83.610948  0.038925022  0.041795986            3 
  180000   0.98564439   -5.6549924     84.06026  0.038916787  0.041702406            4 
  181000   0.99891654   -5.6429122    84.576559  0.038939484  0.041614841            4 
  182000   0.99682574    -5.647763    84.728908  0.038795287   0.04152733            2 
  183000   0.99792826    -5.621329    85.403165   0.03889033  0.041439911            5 
  184000   0.96760468   -5.6798504    85.616161  0.038775435  0.041351945            5 
  185000   0.97025912     -5.62155    85.853862  0.038672911   0.04126282            3 
  186000   0.96049164   -5.6878276    86.377258  0.038699488  0.041175834            7 
  187000    0.9621548    -5.652971    86.561156   0.03857449  0.041087741            6 
  188000   0.96117632   -5.6755414    86.922195  0.038529342  0.040998766            3 
  189000   0.95808047   -5.6634673    86.994881  0.038357531   0.04090915            4 
  190000   0.95147913   -5.7320974    86.948436  0.038135279   0.04081756            4 
  191000   0.94409145   -5.6894658    87.025176  0.037969099  0.040721808            4 
  192000   0.96210041   -5.7120543     87.09008  0.037799514  0.040624075            4 
  193000   0.95913864   -5.7100568    87.933526  0.037967844  0.040529482            6 
  194000   0.96368538   -5.7315003    88.139677  0.037860686  0.040436696            4 
  195000   0.96578728   -5.7279441    88.373973  0.037766655  0.040344355            4 
  196000   0.95805824   -5.6892399    88.908425  0.037801201  0.040253499            7 
  197000   0.94269495   -5.6854267    89.008005   0.03765144  0.040162374            3 
  198000   0.96857949   -5.7016724    89.165595  0.037527607  0.040069966            2 
  199000   0.95903958   -5.7081027    89.683337  0.037555836  0.039975347            2 
  200000   0.93892858   -5.7192831    89.505196  0.037293831  0.039880897            7 
  201000   0.93570387   -5.7218468    89.683889  0.037182375  0.039784636            2 
  202000   0.96294466   -5.7423419     89.67296  0.036993795  0.039686325            9 
  203000   0.91442452   -5.7379907    90.070331  0.036974684  0.039586771           10 
  204000   0.94168157   -5.7166211    90.516724  0.036975786  0.039489035            3 
  205000    0.9493027    -5.716752    90.545758  0.036807219  0.039390569            2 
  206000   0.95562798   -5.7427237    91.071678  0.036841294  0.039293631            8 
  207000   0.91989943    -5.725857    91.355726  0.036777667   0.03919772            4 
  208000   0.93183926   -5.7370292    91.729814  0.036750727  0.039102133            3 
  209000   0.96514325   -5.7803828    91.489604  0.036479109  0.039005502            3 
  210000   0.93159339   -5.8022906    92.105556  0.036549824  0.038908717            7 
  211000   0.93179476   -5.7786759    92.367653  0.036480116  0.038811991            6 
  212000   0.93107022   -5.7798099    92.365236  0.036307089  0.038715951            8 
  213000   0.92436381    -5.771655    92.536475  0.036203629  0.038620214            4 
  214000   0.93235007   -5.7903089    92.963744  0.036200835  0.038524163            4 
  215000   0.91437129   -5.7608802    93.608324  0.036282296  0.038429291            3 
  216000   0.92512026    -5.773875     93.49888  0.036072099  0.038333631            3 
  217000   0.92435072   -5.7617094    93.640514  0.035960259  0.038238292            4 
  218000   0.94186108   -5.7781873     93.77163  0.035845424  0.038141288            6 
  219000   0.93137132   -5.7645876    94.236918  0.035858797  0.038043814            6 
  220000   0.92453183   -5.7978629    94.134224  0.035656903  0.037945457           11 
  221000   0.92535947   -5.7864332    94.245462  0.035537504  0.037846732            5 
  222000   0.92030839   -5.8130559    94.522236   0.03548132  0.037750348            3 
  223000   0.91889771   -5.8195815    95.077962  0.035529881  0.037655025           12 
  224000   0.93083413   -5.8231291     95.33291  0.035466112  0.037559216            7 
  225000   0.90778259   -5.8238381    95.694094  0.035442257  0.037463881            8 
  226000   0.90827296   -5.7614759    95.803859  0.035325907  0.037369491            4 
  227000   0.89591174   -5.8394512    95.690497   0.03512867  0.037275075            5 
  228000   0.90441895   -5.8533544    95.988374   0.03508347  0.037180384            6 
  229000   0.90170705   -5.8169594    96.342664  0.035059193  0.037085589            4 
  230000   0.89772148   -5.8509916    96.303301    0.0348925  0.036991418            4 
  231000   0.90054944   -5.8501693    96.416394  0.034782249  0.036896545            3 
  232000   0.89369594   -5.8602142    96.940542  0.034820597  0.036800832            7 
  233000    0.9254476   -5.8366433    96.998751  0.034691971  0.036705663            4 
  234000   0.89703165   -5.8266041    97.339711  0.034665139  0.036611572           12 
  235000   0.87911388   -5.8855256    97.473277  0.034564992  0.036516003            6 
  236000   0.90946361   -5.8498193    97.959405  0.034590185  0.036421578            9 
  237000   0.90528359   -5.8622962     98.02904   0.03446872  0.036329668            6 
  238000   0.87368158   -5.8742438    98.162492   0.03437062  0.036237134            6 
  239000   0.87777757   -5.9072647    98.137706  0.034218168  0.036142939            4 
  240000   0.88848604   -5.8883867    98.501047  0.034201752  0.036048666            5 
  241000   0.88761916   -5.8571271    98.663585  0.034116039  0.035955105            5 
  242000   0.86977688   -5.8438101    98.946707  0.034072557  0.035861533            3 
  243000   0.87272482   -5.8835662    99.181357  0.034012811  0.035769136            5 
  244000   0.88304512   -5.8838956    98.921804  0.033784769  0.035674605            7 
  245000   0.88807717   -5.8750118    99.422481   0.03381717  0.035580965            4 
  246000   0.88245629   -5.8703627    99.738927  0.033786899  0.035487417            5 
  247000    0.8729912   -5.8996728    99.634165  0.033614765  0.035393496            4 
  248000    0.8771278   -5.9182048    99.643592   0.03348239  0.035299975            5 
  249000   0.87894548   -5.9145472    99.944525  0.033448636  0.035206131            4 
  250000   0.87129538    -5.904086     100.0612  0.033353732  0.035112135            3 
  251000   0.85369638   -5.9061107     100.3183  0.033306209  0.035019797            4 
  252000       0.8653   -5.9312083     100.3438  0.033182474  0.034925998            5 
  253000   0.88036921   -5.9429806    100.28464   0.03303183  0.034831048            3 
  254000   0.88705199   -5.9130328    100.34497  0.032921577  0.034734215            8 
  255000   0.86997627   -5.8998417    100.68182  0.032902557   0.03463808            3 
  256000   0.85555977   -5.9502895    100.62528  0.032755625  0.034542436            3 
  257000   0.86094186   -5.9802566    100.84661  0.032699938  0.034447744           10 
  258000   0.82685192   -5.9407801    101.25679   0.03270568  0.034353213            5 
  259000   0.87325645   -5.9365476     101.7141  0.032726544  0.034259585            3 
  260000   0.85053607   -5.9238401    101.62915  0.032573447  0.034167311            7 
  261000   0.83452226   -5.9670979    101.54654  0.032422266  0.034074348            6 
  262000   0.83044258   -5.9713155    102.01292  0.032446858  0.033981769            4 
  263000   0.84925403   -5.9737444    102.17897    0.0323761  0.033890232            7 
  264000   0.82647704   -5.9573643     102.2616  0.032279546   0.03379928            9 
  265000   0.83783295   -5.9618147    102.30297  0.032170746  0.033707419            6 
  266000   0.83170478   -6.0095342    102.55224  0.032127896  0.033615049            6 
  267000   0.84416419   -5.9526145    102.89845  0.032115621  0.033524032            6 
  268000   0.84143882   -5.9579081    103.12378  0.032065851  0.033433729            5 
  269000    0.8392591   -5.9721186    103.20611  0.031972154  0.033344022            6 
  270000   0.84873921   -5.9743669    102.97679   0.03178296  0.033253802            6 
  271000   0.81193729   -5.9719248    103.45235  0.031811916  0.033163295            6 
  272000   0.83510553   -5.9955272    103.58783  0.031736467  0.033072253            9 
  273000   0.84873604   -6.0051993    103.89678  0.031714524  0.032982942            4 
  274000   0.82096128   -6.0074064    103.98651  0.031626068  0.032894536            8 
  275000   0.83846293    -5.988252    103.91252  0.031488644  0.032805142            8 
  276000   0.82786168   -6.0313814    104.03098  0.031410319  0.032715196            8 
  277000   0.83184159   -6.0074654    104.32118   0.03138423   0.03262551            8 
  278000   0.82410635   -6.0057505    104.02633  0.031182952  0.032536281            6 
  279000   0.82058398   -6.0580055    104.21515  0.031127584  0.032446618           10 
  280000   0.82494335   -6.0395782    104.22995  0.031020819  0.032357495            7 
  281000    0.8195563   -6.0223872    104.50867  0.030993081  0.032268308            9 
  282000   0.80961577   -6.0059163    104.74187  0.030952089  0.032178885            5 
  283000   0.80251978   -6.0355024    105.09875  0.030947807  0.032090659            7 
  284000   0.81338753   -6.0264006     105.1855  0.030864289  0.032002928            5 
  285000   0.80742005   -5.9880492    105.38529  0.030814413  0.031916857            7 
  286000   0.82452241   -6.0456242     105.5684  0.030760022  0.031830742            5 
  287000    0.7977154   -6.0522651    105.80087  0.030720346  0.031744464            5 
  288000   0.79753674   -6.0722097    105.17495  0.030432566  0.031657775            6 
  289000   0.80265557   -6.0526396    105.79296  0.030505467  0.031571683            5 
  290000   0.79775759   -6.0831644    106.26491  0.030535895  0.031486316            6 
  291000   0.79541562   -6.0893065    106.10923  0.030386376  0.031402211            7 
  292000   0.82733884   -6.0422704    106.37227  0.030357382  0.031317833            8 
  293000   0.79940661   -6.0681881    106.29626  0.030232157   0.03123391            6 
  294000   0.79377867   -6.0535251    106.66632  0.030234216   0.03115012            3 
  295000   0.79922623   -6.0576952    107.03226  0.030235101  0.031066351           12 
  296000   0.80306536   -6.0954126    106.68348  0.030034763  0.030982303           14 
  297000    0.7974904   -6.1018998    106.61762  0.029915158  0.030896799            4 
  298000   0.80861782   -6.1122226    106.79574  0.029864581  0.030810676            6 
  299000   0.79633838   -6.0773971      106.995  0.029820235   0.03072582           12 
  300000   0.80348986   -6.1006961    106.85277  0.029681324  0.030640715            8 
  301000   0.79362647   -6.0873285    107.47515  0.029755023  0.030556226            6 
  302000   0.77789413   -6.0888907    107.49441  0.029661812  0.030471857            9 
  303000   0.79500967   -6.1052897    107.60419  0.029594112  0.030388325            3 
  304000    0.7774773    -6.123875    107.63848  0.029506161  0.030306459           11 
  305000   0.79678143   -6.0909681    107.87899  0.029475134  0.030223531           10 
  306000   0.78456072   -6.0934686    107.80823  0.029359538  0.030140524            6 
  307000   0.79638191   -6.1370503    107.61539   0.02921156  0.030057628            7 
  308000   0.78081112   -6.1089277    107.94704  0.029206449  0.029975488            6 
  309000   0.77456254   -6.1284405     108.1175  0.029157901  0.029893249            4 
  310000   0.76363742    -6.146057    108.15195  0.029073104  0.029811168           19 
  311000   0.77430183   -6.1525538     108.0798  0.028960289  0.029728938           17 
  312000   0.78891494   -6.1574732    108.31626  0.028930625  0.029647371           14 
  313000   0.74925591   -6.1341394    108.66548   0.02893117  0.029566205            9 
  314000   0.77678228    -6.167629    108.56162   0.02881147  0.029484239            4 
  315000    0.7652522   -6.1654391    108.75502   0.02877117  0.029402042            8 
  316000   0.74711571    -6.169184    108.48276  0.028608324  0.029320276            9 
  317000   0.75847739   -6.1622333    108.62899  0.028556516  0.029238166            8 
  318000   0.75785341   -6.1499687    108.69195  0.028483215  0.029156851           13 
  319000   0.77122221   -6.1751415    108.88772  0.028445069  0.029075615           25 
  320000   0.76306797   -6.2029504    108.58846  0.028278245  0.028994176           23 
  321000   0.74170667   -6.1643173      109.127  0.028329959  0.028913641            7 
  322000   0.75618061   -6.1610726    109.26385  0.028277393  0.028832882           10 
  323000   0.75545006   -6.2045177    109.07386  0.028140831  0.028752217           10 
  324000   0.75571849   -6.2001359    109.33975  0.028122363  0.028671386            6 
  325000   0.74720163   -6.1937885    109.30565   0.02802709  0.028591654            7 
  326000   0.74611706   -6.1919869    109.25996  0.027929437  0.028511574           15 
  327000   0.75289416   -6.2006953    109.13548  0.027812305  0.028431014           10 
  328000   0.74889719   -6.2163469    109.57582  0.027839385  0.028350938            7 
  329000   0.75406556    -6.206542    109.60115  0.027761184   0.02827164            8 
  330000   0.74924343    -6.225487    109.50192  0.027652001  0.028192163           17 
  331000   0.74890977   -6.2150908     109.7084  0.027620443  0.028112778            9 
  332000   0.75137349   -6.2393571     109.6126  0.027513203  0.028033161           14 
  333000   0.73860733   -6.2486867    109.55822  0.027416971  0.027953638            7 
  334000   0.74649372   -6.2313842    109.61806  0.027349815  0.027873153           16 
  335000   0.74365991   -6.2432875    109.80953  0.027315805  0.027793345           11 
  336000   0.72445416   -6.2540999    109.78542  0.027228528  0.027713741            7 
  337000   0.73368542   -6.2453645    109.88154  0.027171497  0.027634105           13 
  338000   0.72132726   -6.2377087    109.55395  0.027010342  0.027554017            9 
  339000   0.72978333   -6.2746516    109.55872  0.026931839  0.027473711           17 
  340000   0.72687373   -6.2569684    109.72993  0.026894591   0.02739346           14 
  341000   0.72639847   -6.2808427    109.86785  0.026849425  0.027312936           20 
  342000   0.72834098   -6.2961828    109.65958  0.026720171  0.027232648           15 
  343000   0.71142798   -6.2958085    109.65093  0.026640169  0.027152449           14 
  344000   0.70037607   -6.2813958     109.9276  0.026629748  0.027072943           17 
  345000   0.72827949   -6.2778471    110.16659  0.026610286  0.026993797           12 
  346000    0.7206947   -6.2876367    110.05226  0.026505843  0.026914998           11 
  347000   0.71849273   -6.3112954    109.64693  0.026332115  0.026836118           14 
  348000   0.71628245   -6.3184116    110.01485  0.026344553  0.026756988           16 
  349000   0.69255266   -6.3083534    110.37252  0.026354471   0.02667829           10 
  350000   0.71865544   -6.3073047    110.37975  0.026280894  0.026599895           13 
  351000   0.71420434   -6.2891025    110.24505  0.026174038  0.026521392           18 
  352000   0.72891745   -6.3232586     110.3463  0.026123651  0.026443272           15 
  353000   0.69493637   -6.3108457    110.39545  0.026061248  0.026365309           17 
  354000    0.7160503   -6.3074548    110.63949  0.026045078  0.026288067           10 
  355000   0.69857641   -6.3310248     110.5707  0.025955562  0.026211375            8 
  356000    0.6998177   -6.3093132    111.02377  0.025988711  0.026135145           15 
  357000   0.69470189   -6.2967942    111.01367  0.025913554  0.026059543            6 
  358000   0.68342916   -6.3332754    110.90047  0.025814821  0.025984209           11 
  359000   0.69317173   -6.3080802    111.03742  0.025774703  0.025909173            7 
  360000   0.68440837   -6.3539481    110.62957  0.025608697  0.025834199            9 
  361000   0.68728578   -6.3703471    110.98963  0.025620874  0.025759019           12 
  362000   0.71121659   -6.3597981     110.9627  0.025543899  0.025684133           38 
  363000   0.69532219   -6.3454355    111.01418   0.02548535  0.025609692           13 
  364000   0.70137298    -6.364185    111.19216   0.02545608  0.025535417           12 
  365000   0.69010211   -6.3436064    111.20886  0.025390152  0.025460802           15 
  366000   0.69868677    -6.376394     110.9901   0.02527097  0.025385921            9 
  367000   0.69722487   -6.3875661    111.08075  0.025222694  0.025311018           12 
  368000   0.68584795   -6.3917496    110.87861  0.025108381  0.025236263           15 
  369000   0.66184116   -6.3896569    110.97457  0.025062007  0.025161538            9 
  370000   0.69466579   -6.3948293    111.08511  0.025019168   0.02508702           18 
  371000   0.68187584   -6.3833566    111.16465  0.024969597  0.025013171            8 
  372000   0.67238072   -6.3936594    111.12188  0.024892895  0.024939496           12 
  373000   0.67086504   -6.3826202    111.16504    0.0248358  0.024865736           22 
  374000   0.68039241   -6.4306297    111.18392    0.0247736  0.024792391            9 
  375000   0.66723356   -6.3965179    111.09568  0.024687928  0.024719067            8 
  376000   0.67028154   -6.4396112    111.08424  0.024619735   0.02464573           10 
  377000    0.6497928   -6.4338601    111.03449  0.024543433  0.024572143           14 
  378000   0.66875886   -6.4348503    110.87521  0.024443389  0.024498863           14 
  379000   0.66531106   -6.4195896    111.38011   0.02448991   0.02442566           11 
  380000   0.66215058    -6.436912    111.16179  0.024377585  0.024353123           22 
  381000   0.66185246   -6.4370046    111.23702  0.024330056   0.02428068           13 
  382000   0.66156835   -6.4407848    111.26083  0.024271561  0.024208418           19 
  383000   0.65517826   -6.4259899    111.64156  0.024291027  0.024136584           16 
  384000    0.6432462   -6.4003717    111.53351  0.024204321  0.024064847           27 
  385000   0.65303342   -6.4363797    111.42027  0.024116941  0.023993547           15 
  386000   0.63766923   -6.4695095    111.22014  0.024011256  0.023922167           23 
  387000   0.63767377   -6.4336676    111.54766  0.024019737   0.02385101           13 
  388000    0.6418872   -6.4528554    111.22337   0.02388818   0.02377966           15 
  389000   0.65230954    -6.445601    111.45921  0.023877294  0.023708462           19 
  390000   0.63396956   -6.4777393    111.24261  0.023769789  0.023637505           16 
  391000   0.64672577   -6.4528578    111.47604  0.023758747  0.023566717           10 
  392000   0.63813565   -6.4782774    111.48812  0.023700706   0.02349616           10 
  393000   0.64246547    -6.491438    111.04253  0.023545914  0.023425388           24 
  394000   0.64899812   -6.4485278    111.32221  0.023545308  0.023354771           23 
  395000   0.63405473   -6.4683649    111.43031  0.023508505  0.023284907           20 
  396000     0.653776    -6.478293    111.22545  0.023406029  0.023214933           20 
  397000   0.63065975   -6.4844768    111.21223  0.023344297  0.023145269           11 
  398000   0.63293167   -6.4765361     111.4948  0.023344806  0.023075697           18 
  399000   0.62642898   -6.4969287    111.31321  0.023248372  0.023006138            7 
  400000   0.62906933   -6.5172956    111.40822  0.023210046  0.022936853           11 
  401000   0.61902066   -6.5303854    111.37124   0.02314448  0.022868115           13 
  402000   0.62052601   -6.5281729    111.49598  0.023112765  0.022799155           52 
  403000   0.62556594   -6.5005926    111.85054  0.023128731  0.022730384           49 
  404000   0.62111676   -6.5260191    111.58809  0.023017344  0.022662203           42 
  405000   0.61363097   -6.5353244    111.43212   0.02292842  0.022593673           26 
  406000   0.61513709   -6.5197322    111.53624  0.022893317  0.022525251           17 
  407000   0.62689778   -6.5024035    111.71752  0.022874186  0.022457182           25 
  408000   0.62111924   -6.5396866    111.59233  0.022792551  0.022389082           33 
  409000   0.62145078   -6.5124307    111.87249  0.022793906  0.022321371           23 
  410000   0.61868646   -6.5521423    111.37718  0.022637638  0.022253511           36 
  411000   0.61599252   -6.5613053    111.41748  0.022590731  0.022185913           25 
  412000   0.59935134   -6.5656784    111.23612  0.022499215  0.022118578           25 
  413000   0.61658472   -6.5671241    111.36064  0.022469863  0.022051095           37 
  414000   0.60171182   -6.5541192    111.60636  0.022465049  0.021983841           17 
  415000   0.61185586   -6.5651777    111.31595  0.022352601  0.021916811           40 
  416000   0.60482635   -6.5796162    111.36564  0.022308823  0.021850276           22 
  417000   0.60370372   -6.5763878    111.36968  0.022256131  0.021783674           21 
  418000   0.61393719   -6.6014216    111.26832  0.022182679  0.021717405           30 
  419000   0.60358963   -6.5788533    111.42426  0.022160752  0.021651199           47 
  420000   0.59459162   -6.6066155    111.31016   0.02208535  0.021585104           95 
  421000   0.60162486   -6.6122288    111.24493  0.022019979  0.021519035           59 
  422000   0.58642757    -6.609918    111.62364  0.022042583  0.021453117           39 
  423000   0.59423178   -6.5884229    111.44247  0.021954781  0.021387586           48 
  424000   0.58966677   -6.6081992    111.32353  0.021879625  0.021322194           72 
  425000    0.5898306   -6.6210271    111.53559  0.021869723  0.021257117           56 
  426000   0.58293554   -6.5886232    111.36802  0.021785607   0.02119221           79 
  427000   0.59562421   -6.6031472    111.42898  0.021746482  0.021127719           84 
  428000   0.58544799   -6.6318666    111.53868  0.021717032  0.021063566           78 
  429000   0.56846027   -6.6082114    111.53931  0.021666532  0.020999603           37 
  430000     0.576248   -6.6335425     111.4171  0.021592461  0.020935815           37 
  431000    0.5830204   -6.6338173    111.31174  0.021521992   0.02087198          152 
  432000   0.57753104   -6.6438039    111.32048  0.021473859  0.020808479           85 
  433000   0.58369169   -6.6372122    111.49322   0.02145751  0.020744935          131 
  434000   0.58168378   -6.6508871    111.25605  0.021362529  0.020681704           45 
  435000   0.57274064   -6.6513169    111.35547  0.021332466  0.020618387          132 
  436000    0.5682576   -6.6634872    110.95743   0.02120746  0.020555108           58 
  437000   0.58634181   -6.6605756    111.31473  0.021227065  0.020492238           58 
  438000   0.55967191   -6.6684506    111.11298  0.021140217  0.020429506           39 
  439000   0.56751878   -6.6493923    111.23967  0.021116111  0.020366865           46 
  440000   0.56146917   -6.6794319    111.34189   0.02108748  0.020304322           72 
  441000   0.56080222    -6.699722     110.9125  0.020958522  0.020241918           66 
  442000   0.55329186    -6.658129     111.2757  0.020979582  0.020179816           62 
  443000    0.5689736    -6.682583    111.36216  0.020948488  0.020117976           67 
  444000    0.5497913   -6.6818691    111.14461  0.020860476  0.020056315           85 
  445000   0.55387762   -6.6745427    111.47172  0.020874854  0.019994723           57 
  446000   0.55057264   -6.6870549    111.35706  0.020806626  0.019933256           57 
  447000   0.54604862   -6.7085585    111.32417  0.020753946   0.01987212          121 
  448000   0.55732294   -6.6937028    111.21597  0.020687494  0.019810978           38 
  449000   0.54559789   -6.6991873    111.08226  0.020616603  0.019750277           46 
  450000   0.54193186   -6.7003263       111.39  0.020627777  0.019689614           28 
  451000   0.54885314   -6.7108542    110.92208  0.020495581   0.01962907           66 
  452000   0.54065684   -6.7120425     110.9658  0.020458297  0.019568608           99 
  453000   0.55709188   -6.7063208    110.98672  0.020416983  0.019508304           53 
  454000   0.53883982   -6.7119097    111.15288   0.02040251   0.01944818           39 
  455000   0.54025553   -6.7387557    110.95825  0.020322023  0.019388269           75 
  456000   0.53115411   -6.7246702    111.08485  0.020300595  0.019328599           58 
  457000   0.53506252   -6.7496723    110.84218  0.020211922  0.019269028           45 
  458000   0.54036346   -6.7413929    110.94613  0.020186705  0.019209662           36 
  459000   0.53711792   -6.7545372    110.90993  0.020136153  0.019150399          145 
  460000   0.53660425   -6.7469303    110.68374  0.020051402  0.019091122           44 
  461000   0.53306023   -6.7451105    110.87133  0.020041816   0.01903201           30 
  462000   0.53356987   -6.7504662    110.73435  0.019973728  0.018973152           43 
  463000   0.52853058   -6.7588209     110.7949  0.019941486  0.018914551           84 
  464000   0.54874541   -6.7527565    110.83392  0.019905518  0.018856102           47 
  465000   0.52262822   -6.7518866    110.75407    0.0198484  0.018797696           48 
  466000   0.51115685   -6.7655071    110.81589  0.019816862  0.018739521          119 
  467000   0.51539314   -6.7765284    110.70766  0.019755114  0.018681387          127 
  468000   0.52558062   -6.7672498    110.63148  0.019699338  0.018623417           60 
  469000   0.53168276   -6.7720568    110.80236  0.019687697  0.018565687          133 
  470000   0.51080757   -6.7884563    110.44308  0.019582107   0.01850822           51 
  471000   0.51474487   -6.7635484    110.90128    0.0196216  0.018450995           66 
  472000   0.52435712   -6.7633143    110.88332  0.019576858  0.018394104           87 
  473000   0.50687686   -6.7767225    110.71981  0.019506661  0.018337355          108 
  474000   0.50836641   -6.7949949    110.78667  0.019477263  0.018280729           88 
  475000   0.50867666   -6.8018224    110.49007  0.019384223  0.018224287           72 
  476000   0.50571944   -6.8040242    110.61551  0.019365461  0.018168021          104 
  477000    0.5121367   -6.7994126      110.341  0.019276904   0.01811184          147 
  478000   0.49983778   -6.8100358    110.51691  0.019267244  0.018055823          125 
  479000   0.50973288   -6.8053198    110.58422   0.01923873  0.018000101          107 
  480000   0.50270843    -6.809439    110.45324   0.01917591  0.017944388           75 
  481000   0.49956862   -6.8196132    110.46072  0.019137339  0.017888934           45 
  482000   0.49292942   -6.8131715    110.29726  0.019069375  0.017833723           90 
  483000   0.49702837    -6.816264    110.28004  0.019026922  0.017778633           56 
  484000   0.49386656   -6.8298028    110.63069  0.019047985  0.017723894           70 
  485000   0.49684403   -6.8284033    110.54517  0.018994015  0.017669281           90 
  486000   0.50317121   -6.8390913    110.35106   0.01892165  0.017614833           73 
  487000   0.49657177   -6.8403312     110.3921  0.018889819  0.017560465           61 
  488000   0.47681061   -6.8533976    110.16485  0.018812303  0.017506332           93 
  489000   0.48747446   -6.8376098     110.3753  0.018809697  0.017452356          215 
  490000   0.48617552   -6.8571248    110.42523  0.018779801  0.017398573           89 
  491000   0.48797584   -6.8601249    110.38675  0.018735022  0.017344972          112 
  492000   0.48015946   -6.8589725    110.19588  0.018664614   0.01729155          182 
  493000   0.48447887   -6.8576003    110.31448  0.018646803  0.017238284          157 
  494000   0.47404379   -6.8467765    110.19494   0.01858889  0.017185155          131 
  495000   0.46553493   -6.8578451    110.26406  0.018562973    0.0171322          123 
  496000    0.4742512    -6.862805    110.05354  0.018490178  0.017079453          174 
  497000   0.46731946   -6.8708745    110.18141  0.018474414  0.017026742          162 
  498000   0.46278249   -6.8619474    110.36908  0.018468722  0.016974286          151 
  499000   0.46569945   -6.8668363    110.30995  0.018421835  0.016922118          132 
  500000   0.47243456   -6.8757648    110.12496  0.018354159  0.016870076           99 
  501000   0.46072177   -6.8879738    110.22825  0.018334706  0.016818153          131 
  502000    0.4845051   -6.8772011    110.13205  0.018282213  0.016766429           79 
  503000    0.4593682   -6.8796026     110.2566  0.018266502  0.016714997           99 
  504000    0.4701375   -6.8921317    109.92359  0.018175196  0.016663701           82 
  505000   0.45683136   -6.8830634    110.02557  0.018156035  0.016612547          187 
  506000   0.45352298   -6.8880845    109.99784  0.018115587  0.016561606          128 
  507000   0.45471881   -6.8951801    110.11958  0.018099865  0.016510791          107 
  508000   0.45835975   -6.8858084    109.99304  0.018043477  0.016460224          143 
  509000   0.45824665    -6.905854    109.97831  0.018005617  0.016409804          139 
  510000   0.46322146   -6.9120798    110.01617  0.017976498  0.016359617          105 
  511000   0.44994665   -6.9076771     110.2502  0.017979485  0.016309642           87 
  512000   0.44847742   -6.9033135    110.09447  0.017919022  0.016259849          227 
Loop time of 1292.72 on 48 procs for 500000 steps with 4000 atoms

Performance: 66835.584 tau/day, 386.780 timesteps/s
99.4% CPU use with 48 MPI tasks x no OpenMP threads

MPI task timing breakdown:
Section |  min time  |  avg time  |  max time  |%varavg| %total
---------------------------------------------------------------
Pair    | 87.918     | 97.185     | 103.07     |  29.6 |  7.52
Neigh   | 8.8545     | 9.219      | 9.5972     |   6.1 |  0.71
Comm    | 83.411     | 88.801     | 98.215     |  31.0 |  6.87
Output  | 0.93062    | 0.93152    | 0.95678    |   0.4 |  0.07
Modify  | 1080.3     | 1084.2     | 1088.5     |   5.9 | 83.87
Other   |            | 12.42      |            |       |  0.96

Nlocal:        83.3333 ave          91 max          78 min
Histogram: 6 3 3 14 6 5 8 1 1 1
Nghost:        2384.92 ave        2399 max        2370 min
Histogram: 2 2 8 4 8 5 8 3 4 4
Neighs:        16481.5 ave       18636 max       14248 min
Histogram: 2 8 6 2 4 4 6 8 5 3
FullNghs:      32963.2 ave       36135 max       30767 min
Histogram: 5 4 5 9 9 7 6 1 1 1

Total # of neighbors = 1582233
Ave neighs/atom = 395.55825
Neighbor list builds = 26793
Dangerous builds = 0

#clear
#
#next RN
#
#jump SELF
Total wall time: 0:21:36
