
units lj                  # Use reduced LJ style units
atom_style atomic         # Uncharged point particles
atom_modify map hash      # Needed for indexing of clusters etc
                          # Used to be able to find where atoms are in relation to each other.

lattice fcc 1.0 spacing 1 1 1
Lattice spacing in x,y,z = 1.5874011 1.5874011 1.5874011
region box block 0 10 0 10 0 10 units lattice
create_box 2 box
Created orthogonal box = (0.0000000 0.0000000 0.0000000) to (15.874011 15.874011 15.874011)
  3 by 4 by 4 MPI processor grid
create_atoms 1 box
Created 4000 atoms
  using lattice units in orthogonal box = (0.0000000 0.0000000 0.0000000) to (15.874011 15.874011 15.874011)
  create_atoms CPU = 0.003 seconds
set type 1 type/fraction 2 0.01 78393
Setting atom values ...
  36 settings made for type/fraction
mass 1 1.0
mass 2 1.0
pair_style lj/cut  3.5
pair_modify tail  yes
pair_coeff 1  1  1.0  1.0   # Intearaction between 1 and 1 set with epsilon = 1 and sigma = 1
pair_coeff 1  2  1.5  0.8
pair_coeff 2  2  0.5  0.88

write_data data.0
System init for write_data ...
Neighbor list info ...
  update every 1 steps, delay 10 steps, check yes
  max neighbors/atom: 2000, page size: 100000
  master list distance cutoff = 3.8
  ghost atom cutoff = 3.8
  binsize = 1.9, bins = 9 9 9
  1 neighbor lists, perpetual/occasional/extra = 1 0 0
  (1) pair lj/cut, perpetual
      attributes: half, newton on
      pair build: half/bin/atomonly/newton
      stencil: half/bin/3d
      bin: standard
WARNING: Not all mixed pair coeffs generated from mixing. Use write_data with 'pair ij' option to store all pair coeffs. (../write_data.cpp:312)


#############################
#   M E L T   S Y S T E M   #
#############################

velocity all create 2.4 6583654 mom yes dist gaussian # Assign velocities
                                                    # Temperature 2.4, random number seed, zero linear momentum
                                                                                # Gaussian distribution

timestep 0.002   # simulation timestep
thermo 1000       # output thermodynamic data every 1000 steps bf 100

# Define a fix  in this case with index 1 applied to all
# particles in the simulation. This fix is for simulations
# in the anisotropic NPT ensemble. Note that we use the MTK
# correction.
fix 1 all npt temp 2.4 2.4 0.1 iso 5.68 5.68 0.5 mtk yes tchain 5 pchain 5 # Use NPT ensemble
                                                                         # Set temperature and pressure and damping
                                                                         # Numbers of thermostats in chain and in barostat
run 10000          # run for 10000 steps
Per MPI rank memory allocation (min/avg/max) = 3.642 | 3.644 | 3.648 Mbytes
Step Temp E_pair E_mol TotEng Press Volume 
       0          2.4   -8.3261558            0   -4.7270558   -2.3168672         4000 
    1000    2.3581714   -4.4402211            0  -0.90384829    5.7540108    5144.9425 
    2000    2.4438272   -4.4238038            0  -0.75897947    5.4990882    5210.5803 
    3000    2.3587027   -4.3866678            0  -0.84949831    5.6378216    5192.4244 
    4000    2.4347424   -4.4221427            0  -0.77094219    5.5358879    5196.9244 
    5000    2.4099535   -4.3751723            0  -0.76114584     5.745292    5183.2776 
    6000    2.3920038    -4.361067            0  -0.77395826    5.6502133    5216.5155 
    7000    2.3811582    -4.393471            0  -0.82262659    5.7777692    5171.1167 
    8000    2.3968284   -4.3460785            0  -0.75173462    5.7964824    5202.0341 
    9000    2.3973079    -4.376921            0  -0.78185812    5.5926985    5215.1302 
   10000    2.3594739   -4.3412292            0  -0.80290318    5.9455341    5169.9225 
Loop time of 2.07829 on 48 procs for 10000 steps with 4000 atoms

Performance: 831453.644 tau/day, 4811.653 timesteps/s
99.6% CPU use with 48 MPI tasks x no OpenMP threads

MPI task timing breakdown:
Section |  min time  |  avg time  |  max time  |%varavg| %total
---------------------------------------------------------------
Pair    | 0.86611    | 0.90845    | 0.98544    |   2.8 | 43.71
Neigh   | 0.16673    | 0.17187    | 0.18644    |   1.0 |  8.27
Comm    | 0.63782    | 0.73554    | 0.82503    |   3.9 | 35.39
Output  | 0.00024402 | 0.00026006 | 0.00040837 |   0.0 |  0.01
Modify  | 0.19885    | 0.24802    | 0.31531    |   5.5 | 11.93
Other   |            | 0.01415    |            |       |  0.68

Nlocal:        83.3333 ave          92 max          73 min
Histogram: 1 2 2 9 6 8 8 7 3 2
Nghost:        1386.00 ave        1414 max        1367 min
Histogram: 2 5 10 8 9 7 2 2 2 1
Neighs:        7368.73 ave        8455 max        6525 min
Histogram: 7 4 2 9 6 5 8 4 2 1

Total # of neighbors = 353699
Ave neighs/atom = 88.424750
Neighbor list builds = 900
Dangerous builds = 173

# Equilibrate just above the melting temperature to avoid step fn in T

fix 1 all npt temp 1.25 1.25 0.1 iso 5.68 5.68 0.5 mtk yes tchain 5 pchain 5
run 2000
Per MPI rank memory allocation (min/avg/max) = 3.642 | 3.644 | 3.648 Mbytes
Step Temp E_pair E_mol TotEng Press Volume 
   10000    2.3594739   -4.3412292            0  -0.80290318    5.9455341    5169.9225 
   11000    1.2484905   -5.8701097            0   -3.9978422    5.6007954    4320.4429 
   12000    1.2707411   -5.8827634            0   -3.9771284    5.6126801    4317.3995 
Loop time of 0.438765 on 48 procs for 2000 steps with 4000 atoms

Performance: 787665.931 tau/day, 4558.252 timesteps/s
99.7% CPU use with 48 MPI tasks x no OpenMP threads

MPI task timing breakdown:
Section |  min time  |  avg time  |  max time  |%varavg| %total
---------------------------------------------------------------
Pair    | 0.19885    | 0.20707    | 0.21819    |   1.0 | 47.19
Neigh   | 0.030569   | 0.031586   | 0.03246    |   0.3 |  7.20
Comm    | 0.14047    | 0.15004    | 0.16144    |   1.4 | 34.20
Output  | 4.6612e-05 | 4.8739e-05 | 6.3195e-05 |   0.0 |  0.01
Modify  | 0.04114    | 0.045708   | 0.051487   |   1.4 | 10.42
Other   |            | 0.004307   |            |       |  0.98

Nlocal:        83.3333 ave          93 max          76 min
Histogram: 1 7 6 5 12 6 6 3 1 1
Nghost:        1558.40 ave        1579 max        1540 min
Histogram: 1 2 5 7 14 8 8 1 0 2
Neighs:        8795.02 ave        9849 max        7899 min
Histogram: 2 5 8 3 13 2 6 7 1 1

Total # of neighbors = 422161
Ave neighs/atom = 105.54025
Neighbor list builds = 142
Dangerous builds = 7

#############################
# L I N E A R  Q U E N C H  #
#############################

# Define solid atoms. This closely follows ten Wolde  Ruiz-Montero and Frenkel  Faraday Discuss  1996  104  93-110
# Compute components of the per-atom q6 vector
compute q6 all orientorder/atom degrees 1 6 components 6 nnn NULL cutoff 1.3 # compute the Q6 parameter.
                                                                             # Use all neighbours within 1.3 unit cell.

# get number of connections
compute coord_number all coord/atom orientorder q6 0.5

# An atom is solid if it has 8 or more connections (of a possible 14)
variable is_solid atom c_coord_number>=8
group solid dynamic all var is_solid    # Must be dynamic to update
dynamic group solid defined

# do clustering
compute cluster solid cluster/atom 1.3 # Create a cluster where all atoms within are solid and max 1.3 units from another member

# define chunks one chunk per cluster
compute clus_chunks solid chunk/atom c_cluster nchunk every compress yes  # Says which atoms are in which chunk

# count the size of each chunk
compute size_chunks solid property/chunk clus_chunks count


# Find the maximum entry in the vector of chunk sizes
variable max_n equal max(c_size_chunks)


# Thermo style which includes this variable
# thermo_style custom step temp pe vol v_max_n

thermo ${N}  # Print the thermo information every 100 steps
thermo 1000  

# Reset the npt fix at a lower temperature (below freezing)
fix 1  all npt temp  ${temp} ${temp}  0.1  iso  5.68  5.68  0.5  mtk yes tchain  5  pchain  5
fix 1  all npt temp  0.45 ${temp}  0.1  iso  5.68  5.68  0.5  mtk yes tchain  5  pchain  5
fix 1  all npt temp  0.45 0.45  0.1  iso  5.68  5.68  0.5  mtk yes tchain  5  pchain  5

dump dmp2 all dcd ${N} traj.dcd
dump dmp2 all dcd 1000 traj.dcd


compute msd all msd com yes
variable twopoint equal c_msd[4]/6/(step*dt+1.0e-6)
fix 9 all vector 10 c_msd[4]
variable fit equal slope(f_9)/6/(10*dt)
thermo_style custom step temp pe c_msd[4] v_twopoint v_fit v_max_n

fix 1 all npt temp 1.25 ${temp} 0.1 iso 5.68 5.68 0.5 mtk yes tchain 5 pchain 5
fix 1 all npt temp 1.25 0.45 0.1 iso 5.68 5.68 0.5 mtk yes tchain 5 pchain 5
run 2000000 # 5000000  # Run for this many steps
Neighbor list info ...
  update every 1 steps, delay 10 steps, check yes
  max neighbors/atom: 2000, page size: 100000
  master list distance cutoff = 3.8
  ghost atom cutoff = 3.8
  binsize = 1.9, bins = 9 9 9
  4 neighbor lists, perpetual/occasional/extra = 1 3 0
  (1) pair lj/cut, perpetual
      attributes: half, newton on
      pair build: half/bin/atomonly/newton
      stencil: half/bin/3d
      bin: standard
  (2) compute orientorder/atom, occasional
      attributes: full, newton on
      pair build: full/bin/atomonly
      stencil: full/bin/3d
      bin: standard
  (3) compute coord/atom, occasional
      attributes: full, newton on
      pair build: full/bin/atomonly
      stencil: full/bin/3d
      bin: standard
  (4) compute cluster/atom, occasional
      attributes: full, newton on
      pair build: full/bin/atomonly
      stencil: full/bin/3d
      bin: standard
Per MPI rank memory allocation (min/avg/max) = 9.731 | 9.734 | 9.739 Mbytes
Step Temp PotEng c_msd[4] v_twopoint v_fit v_max_n 
   12000    1.2707411   -5.8827634  2.92766e-30 2.0330972e-32 8.3333333e+20            3 
   13000    1.2442218   -5.8382396   0.58909557 0.0037762535  0.048805126            6 
   14000    1.2335557   -5.8865026     1.148439 0.0068359461  0.047638081            5 
   15000    1.2571464   -5.8442859    1.7095705 0.0094976137  0.046911803            5 
   16000     1.274794   -5.8798065    2.2181102  0.011552657  0.046305886            2 
   17000    1.2537943   -5.8613735    2.7931325  0.013691826  0.046072127            3 
   18000    1.2368722   -5.9307141    3.3741517  0.015621072  0.046300171            3 
   19000    1.2561243   -5.8797269    3.9816759   0.01746349  0.046458293            3 
   20000    1.2591212   -5.8310386    4.5604543  0.019001893  0.047003011            5 
   21000    1.2624327   -5.9152175    5.0132681  0.019893921  0.046901351            4 
   22000    1.2262286   -5.9088139    5.6081035  0.021242816  0.046769715            3 
   23000     1.253233   -5.8858854    6.1372649  0.022236466   0.04667618            3 
   24000    1.2877462   -5.8983074    6.6136127  0.022963932  0.046423656            3 
   25000    1.2278174   -5.9020402    7.1498314  0.023832771  0.046137704            3 
   26000    1.2268618   -5.8795917    7.5764897   0.02428362  0.045703474            4 
   27000    1.2636621   -5.8603134    8.1988402  0.025305062  0.045443635            3 
   28000    1.2324044   -5.8698239    8.6024419  0.025602505  0.045221501            7 
   29000    1.2233631   -5.8545801     9.179187  0.026376974  0.044962515            2 
   30000    1.2390907   -5.8585983    9.7235252  0.027009792  0.044854708            5 
   31000    1.2365873   -5.8586731    10.275339  0.027621879  0.044741518            3 
   32000     1.224517    -5.877906    10.890774  0.028361391  0.044716198            4 
   33000     1.239531   -5.8502704    11.449459  0.028912775  0.044732506            1 
   34000     1.252637   -5.8914611    11.970931  0.029340516  0.044741276            2 
   35000    1.2265204   -5.8622431    12.502046  0.029766775  0.044736099            2 
   36000    1.2117066   -5.9145349    13.165586  0.030475893  0.044818534            2 
   37000     1.218011   -5.8830342      13.6972   0.03084955  0.044897965            3 
   38000    1.2363372   -5.8651529    14.277524  0.031310359  0.044951091            4 
   39000    1.2487034   -5.8634963    14.783664  0.031589026  0.045001028            5 
   40000    1.2245931   -5.9359477    15.301007  0.031877097  0.045051569            3 
   41000    1.2505845   -5.8921871    15.951154  0.032421045  0.045130616            1 
   42000    1.2214733   -5.9189237    16.596493   0.03292955  0.045250869            7 
   43000    1.2351173   -5.9163806    17.224408  0.033380636  0.045371807            3 
   44000    1.2556755   -5.8990343    17.924521  0.033947957  0.045546594            3 
   45000    1.2373212   -5.8864966    18.287327   0.03386542  0.045690062            2 
   46000    1.2671293   -5.8854526    18.751794  0.033970641  0.045752786            2 
   47000    1.2374005   -5.8766828     19.18319  0.034012747  0.045761025            2 
   48000    1.2327574   -5.8692863       19.885  0.034522569  0.045764986            2 
   49000    1.2340459   -5.8906993    20.450649  0.034780016  0.045808542            5 
   50000    1.2545241    -5.870723    21.012936   0.03502156  0.045846315            4 
   51000    1.2454051   -5.9179771    21.472393  0.035085609  0.045858597            3 
   52000    1.2462935   -5.8845218    21.990197  0.035240699  0.045874018            7 
   53000    1.2038113   -5.9099705    22.617888  0.035562716  0.045880196            4 
   54000    1.2068972   -5.8948937    23.102547  0.035652078  0.045877318            3 
   55000    1.2354013   -5.8944092    23.728283  0.035951943  0.045873949            3 
   56000    1.2249035   -5.8867763    24.134157  0.035913924  0.045870743            7 
   57000     1.218494   -5.8899225    24.848392  0.036328058  0.045864998            5 
   58000    1.2478515   -5.9056272     25.38513  0.036472887  0.045890581            4 
   59000    1.2537707   -5.8870708    25.933444  0.036629158  0.045899444            3 
   60000    1.2229147   -5.9227637    26.436399  0.036717221  0.045897244            2 
   61000    1.1844988   -5.8811659    26.906324  0.036757272  0.045877274            5 
   62000    1.2485596   -5.8664724    27.567089  0.037052538  0.045867273            2 
   63000    1.2226682   -5.8919614    28.010219  0.037050554  0.045861588            4 
   64000    1.2357173   -5.9189563    28.503196  0.037113536  0.045846878            4 
   65000    1.2268558   -5.8750723    29.380777  0.037667662  0.045855684            2 
   66000    1.2438528   -5.9012513    29.883126  0.037731219  0.045892024            2 
   67000    1.2294781   -5.9406289    30.389157  0.037797459  0.045909695            3 
   68000    1.2545736   -5.8708555     30.85779  0.037815919  0.045910532            2 
   69000    1.2220491     -5.91553    31.436351  0.037966608  0.045907815            2 
   70000    1.2235679   -5.8956667    32.121733  0.038240158  0.045903826            5 
   71000    1.2441206   -5.8738578    32.527877  0.038178259  0.045918251            3 
   72000    1.2613982   -5.9279671    32.971957  0.038161987  0.045924019            7 
   73000    1.2230795   -5.9492892    33.490227  0.038230852  0.045913508            4 
   74000     1.236852   -5.9493296    33.940583  0.038221377  0.045890903            3 
   75000    1.2144589   -5.9141333    34.501635  0.038335149  0.045863805            4 
   76000    1.2293778   -5.9275726    34.899638  0.038267147  0.045837596            3 
   77000    1.2161409   -5.9299607    35.379192  0.038289168  0.045802087            3 
   78000    1.2324624   -5.9036482     35.84454  0.038295449  0.045757467            1 
   79000    1.1963551   -5.8938047    36.354648  0.038348785    0.0457105            2 
   80000    1.2327678   -5.9184102    36.703358  0.038232665  0.045661491            5 
   81000    1.2396113   -5.9346423    37.307541  0.038382244  0.045603612            3 
   82000    1.2264402   -5.9197143    37.742823  0.038356527   0.04554292            5 
   83000    1.2092903   -5.9844374    38.348685  0.038502695  0.045487597            3 
   84000    1.2392631   -5.9015996    38.812127  0.038504094  0.045438469            6 
   85000    1.2494698   -5.9045567     39.32863   0.03855748  0.045385802            4 
   86000    1.2094394   -5.8968116    39.940625  0.038702156  0.045335411            2 
   87000    1.2483644   -5.9215474    40.397991  0.038695393  0.045284866            4 
   88000    1.2091652   -5.9400596    40.544968  0.038394856  0.045224642            4 
   89000     1.208565   -5.9557524    41.118633  0.038500593  0.045165062            5 
   90000    1.2235183    -5.939054    41.641364  0.038556818  0.045100952            3 
   91000    1.1992509   -5.9451097    41.858417  0.038331884  0.045024226            4 
   92000    1.2086321   -5.9105996    42.300197  0.038315395  0.044942632            2 
   93000    1.2438399   -5.9038731    42.971219  0.038504677  0.044859344            2 
   94000    1.2193005   -5.9240037     43.30365  0.038389761  0.044782578            2 
   95000    1.2225149   -5.9142285    44.077137  0.038664155  0.044716983            3 
   96000    1.2346296   -5.9424859    44.517611  0.038643759  0.044658547            3 
   97000    1.1837423   -5.9385517    45.305433  0.038922193  0.044612928            2 
   98000    1.2116032   -5.9266746    45.599544  0.038775122  0.044569737            4 
   99000    1.2246033   -5.9393936    46.159595  0.038854878  0.044520216            7 
  100000     1.247737   -5.9255424    46.441512   0.03870126  0.044460851            5 
  101000    1.2275447   -5.9588565     46.97619  0.038759233  0.044403399            3 
  102000    1.2345082   -5.9351306    47.585816    0.0388773  0.044353091            3 
  103000    1.2131618   -5.9486568    48.146678  0.038953623  0.044304977            6 
  104000    1.2274802   -5.9619241    48.301044  0.038702759  0.044254991            4 
  105000     1.178221   -5.9396245    49.159362  0.039015367  0.044210875            4 
  106000    1.2165797   -5.9204621    49.937794  0.039259272  0.044184282            2 
  107000    1.2072882   -5.9254203    50.474635  0.039310463   0.04416572            3 
  108000    1.2199782    -5.939741    50.873721  0.039254414  0.044142161            5 
  109000    1.2228966   -5.9305136    51.632701  0.039474542  0.044120916            2 
  110000     1.213591   -5.9474232    51.947716   0.03935433  0.044099233            4 
  111000    1.2225274   -5.9594396    52.447961  0.039375346  0.044074352            9 
  112000    1.2045752   -5.9936009    52.868161  0.039336429    0.0440469            6 
  113000    1.2364777       -5.898    53.578472  0.039512148  0.044027492            5 
  114000    1.2080946   -5.9197548    54.157691  0.039588955   0.04401088            2 
  115000    1.1705926   -5.9581399    54.492035  0.039486982  0.043987468            5 
  116000    1.2034872   -5.9444905    54.875207  0.039421844  0.043962346            1 
  117000    1.2166071   -5.9354397    55.488146  0.039521472  0.043933208            4 
  118000    1.1919357   -5.9532398    55.871854  0.039457524  0.043908064            3 
  119000     1.215361   -5.9605137    56.600062  0.039635897  0.043885866            4 
  120000    1.2025902    -5.965928    57.089644  0.039645586  0.043870986           10 
  121000    1.2346169   -5.9456029    57.777055   0.03979136   0.04385669            2 
  122000    1.1919266    -5.912289     58.38285  0.039878996  0.043841336            3 
  123000    1.2029711   -5.9503351    58.600462   0.03970221  0.043829489            4 
  124000    1.2319379   -5.9468021    58.924264  0.039599639  0.043816094            2 
  125000    1.1985338   -5.9432293    59.349585   0.03956639  0.043790073            5 
  126000    1.1828242   -5.9189465     59.73951  0.039510257  0.043757944            4 
  127000    1.1927443   -5.9561749    60.178105  0.039486945  0.043728631            4 
  128000    1.1974829   -5.9863345    60.583739  0.039442538  0.043695174            4 
  129000    1.1993046   -5.9757706    60.793548  0.039272318  0.043656225            5 
  130000    1.1986969   -5.9442289    61.076703  0.039151733  0.043611634            4 
  131000    1.1751549   -5.9835703    61.425614  0.039074818  0.043562029            4 
  132000    1.1862572   -5.8893839    61.873126  0.039061317  0.043504857            2 
  133000    1.1653927   -5.9156717    62.087415  0.038901889  0.043445279            3 
  134000    1.1917537   -5.9634775    62.815376  0.039064288  0.043388538            7 
  135000    1.1982483   -5.9399143    63.136439   0.03897311  0.043337707            5 
  136000    1.2129996   -5.9699583    63.838647  0.039116818  0.043281628            4 
  137000    1.2044468   -5.9479869    64.274053  0.039096139   0.04322897            2 
  138000    1.1963735   -5.9728427    64.707525  0.039074592  0.043178967            4 
  139000    1.1834674   -5.9467064    65.033536   0.03898893  0.043128436            7 
  140000       1.2161   -5.9598735     65.65778  0.039082012  0.043079987            5 
  141000    1.1942548    -5.981187    66.351386  0.039214767  0.043037189            3 
  142000     1.206799   -5.9487317    66.864364   0.03923965  0.042997468            2 
  143000    1.1729345   -5.9267362    67.293469  0.039215308  0.042954953            3 
  144000    1.2230035   -5.9632554    67.560043  0.039097247  0.042911593            5 
  145000    1.2182858    -5.938412    68.269364  0.039235266  0.042869026            3 
  146000    1.2151004   -5.9750032     68.53045  0.039115553  0.042827392            3 
  147000    1.2091551   -5.9706329    69.135472  0.039192445  0.042791914            3 
  148000    1.2050326   -6.0048483    69.808449  0.039306559  0.042759987            4 
  149000    1.1996867   -5.9568845    70.524389  0.039443171  0.042730379            3 
  150000    1.1942965   -5.9407514    70.789544  0.039327524  0.042701075            3 
  151000    1.2188036   -5.9904212    71.335897  0.039368597  0.042672929            4 
  152000    1.1903447   -5.9806577    71.874107  0.039404664   0.04264412            3 
  153000    1.2190918   -5.9611007    72.214048   0.03933227  0.042615066            3 
  154000    1.1990248   -5.9848701    72.870763  0.039432231  0.042587653            6 
  155000    1.1790468   -5.9375068    73.602111  0.039571027  0.042565895            2 
  156000    1.1981611    -5.919846    73.935712  0.039495573  0.042544033            3 
  157000     1.192478   -5.9309514     74.56387  0.039577426  0.042524127            5 
  158000    1.2101361   -5.9825305    75.049252  0.039582939  0.042502068            2 
  159000    1.1750727   -5.9407015    75.245717  0.039436958  0.042479062            3 
  160000     1.199302   -5.9667303     75.53225  0.039339713  0.042454053            4 
  161000    1.1996925   -5.9801133    76.047164  0.039361886  0.042428033            2 
  162000    1.1696814   -5.9869816    76.669576  0.039439082  0.042401083            6 
  163000    1.1859516   -5.9545608    76.854698  0.039291768  0.042372096           10 
  164000    1.1790909   -5.9669927    77.412066  0.039335399  0.042347946            1 
  165000      1.18562    -5.956804    77.838084  0.039312164  0.042322816            5 
  166000     1.202978   -5.9651443    78.415358  0.039365139  0.042297612            3 
  167000    1.1736227   -5.9927732    78.825295  0.039333979  0.042271467            3 
  168000    1.1741192   -5.9382226    79.585444  0.039476907  0.042247616            4 
  169000    1.1920291   -6.0005226     79.61168  0.039256252  0.042222131            2 
  170000    1.1811708   -5.9627749    80.032481  0.039231608  0.042192604            4 
  171000    1.1990745    -5.994672    80.630312  0.039293524  0.042161485            4 
  172000    1.1862887   -5.9520267    80.852824   0.03917288  0.042130139            6 
  173000    1.1551754   -6.0026385    81.101986  0.039066467  0.042097506            3 
  174000    1.1539529   -6.0047699    81.607028  0.039083826  0.042061623            3 
  175000    1.1851136   -6.0113089    81.423616  0.038773151  0.042024822            3 
  176000    1.1672009   -5.9765548    82.419447  0.039024359  0.041987315            4 
  177000    1.1826143   -5.9488323    82.778289  0.038972829  0.041951164            2 
  178000    1.2077698    -5.990884    83.114879   0.03891146  0.041914093            5 
  179000    1.1632961   -5.9647215    83.467279  0.038858137  0.041875828            3 
  180000    1.1601435   -5.9768366    83.806096  0.038799119  0.041834346            3 
  181000    1.2089345   -6.0191731    84.270767  0.038798696  0.041795859            5 
  182000    1.1842336   -5.9783074    84.944638  0.038894065  0.041757707            3 
  183000     1.207131   -5.9940474     85.48244   0.03892643  0.041723306            7 
  184000    1.2058971   -6.0075315    85.751521   0.03883674  0.041688603            1 
  185000    1.2119073   -5.9866601    86.291494  0.038870042   0.04165374            3 
  186000    1.1850957   -6.0184942    86.536379  0.038770779  0.041620016            5 
  187000    1.1892263   -5.9851475    87.489014  0.038987974  0.041586102            4 
  188000    1.1595571   -5.9874606    87.912388  0.038968257  0.041554282            4 
  189000    1.1657782   -6.0185495    88.230738  0.038902442  0.041524719            3 
  190000    1.1753863   -6.0038881     88.80221  0.038948338  0.041496358            3 
  191000    1.1645785   -6.0162912    89.324974  0.038972502  0.041470027            7 
  192000    1.1897629   -6.0239507     89.64223  0.038907218  0.041441562            4 
  193000    1.1927963   -5.9806373     90.30316  0.038991002  0.041413204            3 
  194000     1.190036   -5.9814345    90.690299  0.038956314  0.041386742            2 
  195000    1.1694547   -6.0182039    91.053815  0.038911887  0.041360466            2 
  196000    1.1822196   -6.0021334    91.639267  0.038962273  0.041334283            2 
  197000    1.2009314   -6.0248946    91.723437    0.0388001   0.04130605            4 
  198000    1.1603814   -6.0152242    92.742864  0.039033192  0.041277544            3 
  199000    1.1973958   -6.0198366    93.105478  0.038988893  0.041253212            2 
  200000    1.1749522   -6.0485181    93.613488   0.03900562  0.041230875            5 
  201000    1.1574132   -6.0220565    93.969501  0.038959163  0.041208492            4 
  202000    1.1644558   -6.0377029    94.253757  0.038883563  0.041183562            4 
  203000     1.175547   -5.9684547    94.774688  0.038905865  0.041158875            2 
  204000    1.1699366   -6.0513455    95.299659  0.038929599  0.041134467            5 
  205000    1.1465367   -6.0135969    95.675829  0.038892613   0.04110922            4 
  206000    1.1674246    -6.005985    96.318665  0.038963861  0.041084467            2 
  207000    1.1744411   -5.9988008    96.668527  0.038916476  0.041063174            4 
  208000    1.1656165   -6.0020868    97.027379  0.038873148  0.041039875            3 
  209000    1.1675237   -6.0210866    97.353418  0.038817152  0.041015965            6 
  210000    1.1814252   -5.9953608    98.131229  0.038940964   0.04099221            6 
  211000     1.167947   -6.0027626    98.273613  0.038812643  0.040968624            4 
  212000    1.1776689   -6.0142411    98.608302  0.038761125  0.040943661            3 
  213000    1.1639266   -6.0116199    98.995413    0.0387306  0.040917506            3 
  214000    1.1731593    -6.018884     99.09162  0.038587079  0.040890232            4 
  215000    1.1964005   -6.0130149    100.02841    0.0387707  0.040863807            3 
  216000    1.1735597   -6.0529993      100.125  0.038628471  0.040837636            4 
  217000    1.1687686   -5.9910664    100.43987   0.03857138  0.040810083            3 
  218000    1.1862604   -6.0015538    101.15505  0.038667834  0.040782145            9 
  219000    1.1615857   -6.0197529    101.45862  0.038606782   0.04075708            3 
  220000    1.1693788   -6.0137867    102.08004  0.038666681  0.040733941            3 
  221000    1.1722745    -6.029235     102.5434  0.038666441  0.040708308           10 
  222000    1.1571716   -6.0168669    102.97702  0.038655038  0.040682496            2 
  223000    1.1495261   -6.0163634    103.68379  0.038745812  0.040657488            4 
  224000    1.1529065   -6.0190119    103.68367  0.038572793  0.040630121            4 
  225000    1.1775081   -6.0159597    104.01203  0.038522972  0.040603159            3 
  226000    1.1812911    -6.006064     104.4407  0.038510582  0.040576869            3 
  227000    1.1461242    -6.009259    105.20794  0.038622592  0.040552593            4 
  228000     1.133499   -5.9956417    105.86355  0.038692818  0.040530223            2 
  229000    1.1512545   -5.9786956    106.64853  0.038809508  0.040513606            4 
  230000    1.1613676   -6.0331931     107.1903  0.038837065  0.040498257            3 
  231000    1.1638623   -6.0450844    107.48721  0.038776048  0.040481982            3 
  232000    1.1480562   -6.0278108    108.01567  0.038798733  0.040464892            7 
  233000    1.1666954   -6.0611656     108.5397  0.038819634  0.040447629            3 
  234000    1.1778231   -5.9891256    109.12898  0.038863596  0.040431664            4 
  235000    1.1539725   -6.0474668    109.48503  0.038824479  0.040416696            3 
  236000    1.1429437   -6.0329544    109.08696  0.038519407  0.040398686            8 
  237000    1.1686585   -6.0314615    110.06155  0.038699562   0.04037765            2 
  238000    1.1566283   -6.0112568    110.49696  0.038689411  0.040355432            4 
  239000    1.1601456    -6.030263    110.64062  0.038577622   0.04033551            2 
  240000    1.1551719   -5.9971689    111.21285  0.038615574  0.040316079            3 
  241000     1.151943   -6.0446631    111.68316  0.038617965  0.040295886           10 
  242000    1.1410819   -6.0140855    112.38523  0.038700148  0.040276176            5 
  243000    1.1362264   -6.0197885    112.50254  0.038581117  0.040255363            5 
  244000    1.1891659   -6.0269407    112.59442  0.038454379  0.040233807            4 
  245000    1.1520126   -6.0586817    113.01431  0.038440241  0.040212208            7 
  246000    1.1355842   -6.0384371    113.65326  0.038500427  0.040190576            2 
  247000    1.1615364   -6.0143415    114.08729  0.038490988   0.04016925            9 
  248000    1.1574416   -6.0303594    115.03033  0.038652665   0.04014896            5 
  249000    1.1233862   -5.9937799     114.9801  0.038480622  0.040130012            6 
  250000     1.159991   -6.0305117    115.45681  0.038485603  0.040110716            5 
  251000    1.1671991    -6.039484    115.67409  0.038404414  0.040090937            7 
  252000    1.1454513   -6.0182785    116.08229  0.038387002  0.040069442            2 
  253000    1.1593791   -6.0356854    116.31463    0.0383118   0.04004802            2 
  254000    1.1203777   -6.0509503    116.71982  0.038293904   0.04002679            6 
  255000     1.158105    -6.049356    117.30409   0.03833467  0.040004471            3 
  256000    1.1397461   -6.0505062      117.195  0.038149415  0.039979931            3 
  257000    1.1383312    -6.019478    118.05928  0.038281221  0.039955546            6 
  258000    1.1551304   -6.0423377    118.49644  0.038274042  0.039932072            4 
  259000    1.1531636    -6.032085    119.21467  0.038357357  0.039910134            4 
  260000    1.1451571   -6.0612271    119.56848  0.038323231  0.039890737            3 
  261000     1.157667   -6.0708077    119.77771  0.038243204  0.039870176            7 
  262000    1.1577207   -6.0319037    120.43587  0.038306574  0.039849442            4 
  263000    1.1362885   -6.0660811    120.85188  0.038292739  0.039829136            2 
  264000     1.125021   -6.0018939    121.35091  0.038305213  0.039810082            2 
  265000     1.152179   -6.0464375    122.05703  0.038382714  0.039790871            5 
  266000    1.1555658   -6.0799566    122.12474   0.03825963  0.039770885            5 
  267000    1.1717804   -6.0400064     122.4025  0.038203028  0.039751704            4 
  268000    1.1500335   -6.0635373    122.95168  0.038231242  0.039732753            1 
  269000    1.1612579   -6.0628891    124.02092   0.03842036  0.039716567            2 
  270000    1.1374666   -6.0231749    124.97644  0.038572977  0.039703305            4 
  271000    1.1559406    -6.008737      125.072  0.038460026  0.039691661            5 
  272000    1.1442186   -6.0522069    125.21146  0.038361353  0.039676966            6 
  273000    1.1316028   -6.0665415    125.52212  0.038315666  0.039660745            6 
  274000    1.1530853   -6.0399895    125.90413  0.038292012  0.039645184            3 
  275000    1.1361525   -6.0428056    126.88914  0.038451253  0.039628966            2 
  276000     1.162387   -6.0354322    127.26783  0.038426276    0.0396132            8 
  277000    1.1589401   -6.0336435    127.62589  0.038395273  0.039597429            3 
  278000    1.1660449   -6.0483044    127.53206  0.038229034  0.039580651            8 
  279000    1.1238572   -6.0551953     127.7995  0.038171893  0.039563556            6 
  280000    1.1185836   -6.0553021     128.2881  0.038180981  0.039546517           10 
  281000    1.1393481   -6.0528184    128.66674  0.038157397  0.039530113            2 
  282000    1.1386488   -6.0832762    129.60597  0.038299636  0.039512987            4 
  283000    1.1437648   -6.0719233    129.77858   0.03821513  0.039496873            8 
  284000    1.1448686   -6.0338767    130.52398   0.03829929  0.039480065            3 
  285000    1.1644546   -6.0901183    130.41606  0.038133351   0.03946295            6 
  286000    1.1638778   -6.0227212    131.52344   0.03832268  0.039447076            4 
  287000     1.121902   -6.0243057    131.48947  0.038179289  0.039430677            3 
  288000    1.1391588   -6.0483086    131.62961  0.038087271  0.039414073            3 
  289000    1.1551523   -6.0521761    132.41679  0.038182467  0.039396766            4 
  290000    1.1291471   -6.0671336     133.1927  0.038273765   0.03937935            6 
  291000    1.1497098   -6.0775259    132.73524  0.038011237  0.039362489            3 
  292000    1.1417741   -6.0606683    132.89266  0.037925988  0.039343769            7 
  293000    1.1485902   -6.0753603    133.86382  0.038072759  0.039324644            8 
  294000    1.1350188   -6.0374563    133.98358  0.037977206  0.039304941            2 
  295000    1.1418571   -6.0232244    134.44763  0.037979556  0.039284138            2 
  296000    1.1615791   -6.0767005    134.74414  0.037934723  0.039263794            2 
  297000    1.1540573   -6.0801149    134.98304  0.037874029  0.039244188            4 
  298000    1.1287218   -6.0545423     135.6224  0.037925727  0.039224677            3 
  299000    1.1381787   -6.0384849    136.00911  0.037906665  0.039203763            3 
  300000    1.1595742   -6.0967259    136.00216  0.037778378  0.039183642            2 
  301000    1.1679265   -6.0588211    136.85905  0.037890102   0.03916261            4 
  302000    1.1228924   -6.0608466    137.46994  0.037933205  0.039143741            3 
  303000    1.1292327   -6.0452553    137.60904  0.037846271   0.03912469            3 
  304000    1.1589109   -6.0922628     138.1249  0.037863184  0.039106065            6 
  305000    1.1140965   -6.0714011    138.89399  0.037949178  0.039087395            4 
  306000    1.1321669   -6.1118656    138.40386  0.037691683   0.03906862            3 
  307000    1.1232663   -6.1025477    139.26954  0.037803893  0.039050061            4 
  308000    1.1154272   -6.1181631    139.70827  0.037799858  0.039031189            4 
  309000    1.1136928   -6.0470119    140.25991  0.037826296  0.039012789            3 
  310000    1.1381713   -6.0537311    140.52696  0.037776064  0.038995644            4 
  311000    1.1363344   -6.0613696    141.82871  0.038003406  0.038979405            9 
  312000    1.1357703   -6.0528353    142.02752  0.037934701  0.038964058            4 
  313000    1.1344882   -6.0897928    141.78627  0.037749272   0.03894823            3 
  314000    1.1314045   -6.0449416    142.29655  0.037764478  0.038931806            3 
  315000    1.1553545   -6.0637648    142.84493  0.037789664   0.03891379            6 
  316000    1.1124456   -6.0840854    143.70779  0.037897625  0.038896756            6 
  317000    1.1295002   -6.0991243    142.77844  0.037533764  0.038879382            8 
  318000    1.1337954   -6.0773443    144.06589  0.037753115  0.038861155            4 
  319000    1.1508816   -6.1017065    144.45043  0.037735222  0.038842813            6 
  320000    1.1295164   -6.1118423    144.75501  0.037696617  0.038825828            3 
  321000    1.1353362   -6.0354811    146.19091  0.037951949  0.038810401            4 
  322000    1.1227305   -6.0781901    146.09808  0.037810063  0.038795595           10 
  323000    1.1063727   -6.0899613    146.07137  0.037686111  0.038780335            6 
  324000    1.1440102   -6.0764991    146.50924  0.037682417  0.038764472            2 
  325000     1.103959   -6.0828238    147.41031  0.037797516  0.038749976            3 
  326000    1.1364966   -6.0482218    147.63484  0.037738967  0.038736047            6 
  327000    1.1237959   -6.0798612    147.92923  0.037698581   0.03872165            5 
  328000    1.1188684    -6.089439    148.04171  0.037612224  0.038705966            4 
  329000    1.1111323   -6.0989376    148.97559  0.037734445  0.038690807            3 
  330000    1.1233939   -6.0479729    149.00258  0.037626915  0.038674115            4 
  331000    1.1207878    -6.122903    148.99065  0.037510234   0.03865651            6 
  332000     1.115813   -6.0713162    149.37644  0.037494086  0.038638105            5 
  333000    1.1149901   -6.1048885    149.29658  0.037361506  0.038620459            7 
  334000    1.1232535   -6.1174387    150.34693  0.037511708   0.03860265            4 
  335000    1.1199959   -6.0882441    151.25963  0.037626773  0.038586148            4 
  336000    1.0941524   -6.0491964    152.42088  0.037802798  0.038570755            3 
  337000    1.1104841   -6.0891512    152.34602  0.037672112   0.03855811            4 
  338000     1.110678   -6.1196568    153.49065  0.037842864  0.038545169            4 
  339000    1.1337183   -6.0921823    153.88911  0.037829182  0.038533697            2 
  340000    1.1300798   -6.1036232    154.04074  0.037755083  0.038522885           11 
  341000    1.0809025   -6.0880502     154.6093  0.037783309  0.038511752            4 
  342000     1.114034   -6.1016953    154.55004  0.037658392  0.038499919            4 
  343000    1.1054069   -6.1147441    155.25085  0.037718864  0.038487463            5 
  344000    1.1322028   -6.0687375    155.50254   0.03767019  0.038475108            7 
  345000    1.1009518   -6.0893353    155.55033  0.037572544  0.038461489            4 
  346000    1.0909088   -6.0775734    156.27355  0.037638139  0.038448102            2 
  347000    1.1429345   -6.0729704    156.39403  0.037558604  0.038435235            5 
  348000    1.1131698   -6.0747227    157.01398  0.037599134  0.038421889            4 
  349000    1.1082855   -6.1096599    157.18534  0.037532316    0.0384078            8 
  350000    1.1081935   -6.0966829    157.45592  0.037489504  0.038394188            5 
  351000    1.0959355    -6.075319    158.12901  0.037542501   0.03838138           11 
  352000    1.1153075    -6.130121    158.39732  0.037499366  0.038368491            4 
  353000    1.1111715   -6.1590692    158.41396  0.037397064  0.038354071           10 
  354000    1.1073565   -6.1127611    158.52412  0.037317354  0.038339771            5 
  355000    1.1069036    -6.139346    159.27021  0.037387373  0.038325452            3 
  356000    1.1018375    -6.098294    160.05522   0.03746611   0.03831007            4 
  357000    1.1303977   -6.1030658    160.54758  0.037476092  0.038295753            3 
  358000       1.1231   -6.0739759    161.45985  0.037583764  0.038282331            5 
  359000    1.1180435   -6.1027519    161.25649  0.037431869  0.038268722            5 
  360000    1.1130198    -6.062668     161.4866  0.037381158  0.038254127            5 
  361000     1.142455   -6.0918796    161.43586  0.037265895  0.038238827            5 
  362000    1.1300386   -6.0952555    162.12516  0.037321629  0.038224115            2 
  363000    1.1091243   -6.1384639    162.79506  0.037372603  0.038208886            3 
  364000    1.1015353   -6.0699307    163.52492  0.037437024  0.038195396            4 
  365000    1.1222249    -6.086437     163.8569  0.037410252  0.038182537           10 
  366000    1.1295639   -6.0934657    164.02771  0.037346929  0.038169818            4 
  367000    1.1105128   -6.1324269    164.72055  0.037402487  0.038156249            6 
  368000    1.1308312   -6.1180973    165.17018  0.037402667  0.038143411            8 
  369000    1.1120255   -6.1134299    165.59087  0.037396313  0.038131256            4 
  370000    1.0968307    -6.127326    166.11323   0.03741289  0.038118689            4 
  371000    1.1077977   -6.1163088    166.62444  0.037426873  0.038106462            7 
  372000      1.11906   -6.1196777    166.69602  0.037342299  0.038093139            3 
  373000     1.095088   -6.1228608    166.45653   0.03718868  0.038080183            6 
  374000    1.1045991   -6.1212707    167.38927  0.037297074  0.038067627            5 
  375000     1.128907   -6.0992347    167.83299  0.037296219  0.038054499            4 
  376000    1.0919972   -6.1610648    167.98546  0.037230819  0.038041025            2 
  377000    1.1037203   -6.1318944    168.30573  0.037202857  0.038027344            4 
  378000    1.1152281   -6.1293604    168.68762  0.037188629  0.038014098            5 
  379000    1.1138677   -6.1308331    169.51723  0.037272917   0.03800058            5 
  380000    1.1107671   -6.1053226    169.99201  0.037278949  0.037987946            4 
  381000    1.0778843   -6.1188003    169.80883   0.03714104  0.037974551            3 
  382000    1.1217402   -6.1274216    169.93933  0.037072279  0.037960532            4 
  383000    1.1007082   -6.1138087    170.65651   0.03713153  0.037945654            4 
  384000    1.1079761    -6.129901    170.98601  0.037106339   0.03793012            4 
  385000    1.1194494    -6.150769    171.35039   0.03708883  0.037914686            7 
  386000    1.1053821   -6.1069693    171.43154  0.037010264  0.037898738            4 
  387000    1.0974523   -6.1544165    171.93822  0.037023734  0.037881754            5 
  388000    1.1057497    -6.157507    171.60573  0.036856901  0.037864635            3 
  389000    1.0734172    -6.093987    172.26742  0.036903903  0.037848161            3 
  390000    1.1200576   -6.1325218    172.59082   0.03687838  0.037831002            6 
  391000    1.0918068   -6.1465255     173.3777  0.036951768    0.0378142            9 
  392000    1.0942422   -6.1473161    173.83367  0.036954437  0.037798245            4 
  393000    1.0763619   -6.1709986     173.8147  0.036856383  0.037781849            2 
  394000    1.1125406   -6.1380481    174.35152  0.036876378  0.037766051            7 
  395000    1.0648671   -6.1206379    175.25497  0.036973622  0.037750921            5 
  396000    1.1032636   -6.1285147    174.93879  0.036813719  0.037735848            3 
  397000    1.0826867   -6.1403168    175.70307  0.036881417  0.037720288            5 
  398000    1.1059349   -6.1243351    176.70864  0.036999297   0.03770538            1 
  399000     1.110636   -6.1442104    176.55001  0.036873435  0.037690176            5 
  400000    1.0740001   -6.1353225     177.5205  0.036983438  0.037676138            4 
  401000    1.0864306   -6.1591554    177.05717  0.036794922  0.037662241           12 
  402000    1.0886424   -6.0919562    178.19046  0.036938321   0.03764853            3 
  403000    1.1274414   -6.1039357    178.41975  0.036894075  0.037635255            3 
  404000     1.087934   -6.1552369    179.04552  0.036931831  0.037621824            8 
  405000    1.0955711   -6.1522074    179.57751  0.036950106  0.037608103            4 
  406000     1.090713   -6.1095267    179.62302  0.036868436  0.037594095            3 
  407000    1.0925048   -6.1326525    180.03022  0.036861223  0.037580167            3 
  408000    1.0939408   -6.1151337    180.41561  0.036849593  0.037566372            8 
  409000    1.1054192     -6.16487    180.70412   0.03681828  0.037552547            5 
  410000    1.0766159   -6.1335968    180.82747  0.036753551  0.037538366            5 
  411000    1.0937822   -6.1260068    181.93122  0.036887921   0.03752391            2 
  412000    1.0951078   -6.1560035    181.89932  0.036791933  0.037509165            4 
  413000      1.06637   -6.1638637    182.08559  0.036740433  0.037494021            5 
  414000    1.0745958   -6.1711504    181.70768  0.036575621  0.037479055            3 
  415000    1.0854765   -6.1692429    182.58591  0.036663837  0.037462931            4 
  416000    1.0882938   -6.1141733    182.37683   0.03653382  0.037446937            4 
  417000    1.0859022   -6.1615087    183.27669  0.036626037  0.037430135            5 
  418000    1.0963943    -6.182009    182.65634  0.036414742   0.03741324            3 
  419000    1.0775672   -6.1386331    184.09212  0.036613388   0.03739626            9 
  420000    1.0619479   -6.1792197    183.43077  0.036394993  0.037380077            4 
  421000    1.0831496   -6.1585705    184.77959  0.036575533  0.037363634            6 
  422000    1.0838192   -6.1552405    184.92152  0.036516888   0.03734665            4 
  423000    1.0994158   -6.1468982    184.45779  0.036339203   0.03732932            5 
  424000    1.0887995   -6.1488442    185.19349  0.036398092  0.037312417            3 
  425000    1.1013242   -6.1352923     185.5975  0.036391666  0.037295394            3 
  426000    1.0626821   -6.1620282    186.02855  0.036390561  0.037277858            4 
  427000    1.0690239   -6.1582577     186.1804  0.036334973  0.037260271            5 
  428000    1.0687827   -6.1774506    186.78082  0.036366982  0.037243009            4 
  429000    1.0958568   -6.1678125    187.02698  0.036330026  0.037225713            4 
  430000    1.0760891     -6.16823    187.49568  0.036336372  0.037208297            4 
  431000    1.0926162   -6.1847001    187.64653  0.036281231  0.037190257            3 
  432000    1.0742746   -6.1431332    188.01877  0.036269053  0.037171732            7 
  433000    1.0838299     -6.17256    188.23262  0.036226447   0.03715302            3 
  434000    1.0855256   -6.1644021     189.0023  0.036290763   0.03713521            5 
  435000    1.0970113   -6.1396362    189.25671  0.036256075  0.037117126            4 
  436000    1.0704052   -6.1648811    188.64178  0.036055386   0.03709866            8 
  437000    1.0732497   -6.1822035    189.29613  0.036097659  0.037079658            4 
  438000    1.0945296    -6.158645    189.91033  0.036132102   0.03706026            2 
  439000    1.0863712   -6.1710959    190.11496   0.03608864  0.037041817            5 
  440000    1.0617596   -6.1383502    191.12378  0.036197686  0.037023353            3 
  441000    1.1119542   -6.1716445    190.93572  0.036080068  0.037005024            3 
  442000    1.0614221   -6.1866867    190.38331  0.035894289  0.036986019            3 
  443000    1.0834585   -6.1596314    191.59903  0.036041955  0.036967207            5 
  444000    1.0736148   -6.1540337    192.03614  0.036042818  0.036948521            5 
  445000     1.094475   -6.1722647    192.49741  0.036048204  0.036930398            8 
  446000    1.0952207   -6.1653208    193.19189  0.036097138  0.036912405            4 
  447000     1.083116   -6.1549438    193.54446  0.036082114  0.036895405            5 
  448000    1.0733723   -6.1588786    193.74305  0.036038513  0.036877761            4 
  449000    1.0830926   -6.1821635    194.39163  0.036078624  0.036860998            2 
  450000    1.0704001   -6.1612905    194.26186  0.035974418  0.036843516            4 
  451000    1.0612668   -6.1651571    194.59536  0.035956274  0.036825466            6 
  452000    1.0774851   -6.1651999    194.86856  0.035927095  0.036807503            7 
  453000    1.0912591   -6.1709376    196.03192  0.036061795   0.03678982           11 
  454000    1.0853123   -6.1543911    195.85009  0.035948988  0.036772344            6 
  455000    1.0599757   -6.1488352    196.13769  0.035922654  0.036754447            8 
  456000    1.0806255   -6.1979343    196.00895  0.035820348  0.036737207            3 
  457000    1.0770487   -6.1771048    197.06201  0.035933992  0.036719295            3 
  458000    1.0681599   -6.1681273    197.52165  0.035939164  0.036701365            4 
  459000    1.0760727   -6.1682471     197.6066  0.035876289  0.036683284            4 
  460000    1.0973388   -6.1761069    197.79139  0.035831774  0.036664975            3 
  461000    1.0507965      -6.1899    197.96421  0.035785288  0.036647409            4 
  462000    1.0621667   -6.1746124    198.48488  0.035801746  0.036629772            2 
  463000    1.0510374   -6.1975185    199.32658  0.035875914   0.03661215            5 
  464000    1.0595972   -6.1745884    199.61904  0.035851121  0.036594742            5 
  465000    1.0556973   -6.1951236    199.91884  0.035827748  0.036577867            3 
  466000     1.065747   -6.1766714    200.50463   0.03585562  0.036561348            4 
  467000     1.077566   -6.1900202    200.70164  0.035813996  0.036545522            5 
  468000    1.0649845   -6.2118613     201.0159  0.035793429  0.036529585            5 
  469000     1.055644   -6.1923852    201.49486  0.035802214  0.036513619            4 
  470000    1.0788567   -6.1636724    202.24985  0.035859902  0.036498199            9 
  471000    1.0692268   -6.1683412    203.28564  0.035967028  0.036482981            3 
  472000    1.0718351   -6.1899402    203.24701  0.035884006  0.036467729            5 
  473000     1.064507   -6.2258787    203.17644  0.035795708  0.036452381            5 
  474000    1.0684585     -6.20001    203.81094  0.035831741  0.036436908            5 
  475000    1.0313927   -6.2182192    203.68788  0.035734715  0.036421398            4 
  476000    1.0722908   -6.1875688    204.13508  0.035737935  0.036405675            3 
  477000    1.0393699   -6.2124393    204.55766  0.035736837  0.036389906            4 
  478000    1.0647582    -6.173923    205.09867  0.035756392  0.036373627            3 
  479000    1.0553416   -6.2273802    204.81833  0.035632973  0.036357646           22 
  480000     1.080506   -6.1727829    205.70043  0.035711881  0.036341857           20 
  481000    1.0452186   -6.1620692    206.02515  0.035693893  0.036326104            6 
  482000    1.0561533    -6.173279    206.67813  0.035732733  0.036310639            5 
  483000    1.0344665   -6.2309319     206.2621  0.035586974    0.0362947            6 
  484000    1.0698202   -6.1748705    207.31262  0.035694321  0.036278894           12 
  485000    1.0673211   -6.1825927    207.13576  0.035590337  0.036263658            7 
  486000     1.074021   -6.2504666    207.11393  0.035513363  0.036248016            4 
  487000    1.0762195   -6.1638852    208.01761  0.035595073  0.036232452            6 
  488000    1.0535737   -6.1930214    209.04355  0.035697327  0.036217321            3 
  489000    1.0574113   -6.2027956    209.45369  0.035694222  0.036202343            7 
  490000    1.0834066   -6.1831255    209.61279  0.035648433  0.036187408            5 
  491000    1.0592735   -6.1815936    209.49829  0.035556397  0.036172388            3 
  492000    1.0619193    -6.197386     210.9183  0.035724644  0.036157222            3 
  493000    1.0425916   -6.2356947    210.25436  0.035539953  0.036142076            4 
  494000    1.0528792   -6.2397468    210.62388  0.035530344  0.036126304           13 
  495000    1.0695002   -6.1939656    211.33497  0.035578278  0.036110946            4 
  496000    1.0558541   -6.1848432    211.60726  0.035552296  0.036095368            5 
  497000    1.0757701   -6.2288794    211.92437  0.035533932   0.03608058            6 
  498000    1.0677067   -6.2348749    211.60528  0.035409184    0.0360657            3 
  499000    1.0414837    -6.217839    211.94542  0.035395027  0.036050063            6 
  500000    1.0584059   -6.2374368    212.15275  0.035358791  0.036033954            4 
  501000    1.0510451   -6.1962555    212.84808  0.035403872     0.036018            4 
  502000    1.0515579   -6.1951627    213.41168  0.035426905  0.036002458            6 
  503000     1.053833   -6.1980502    213.31358  0.035340222  0.035986195           11 
  504000    1.0484743   -6.1944984    212.86615  0.035196123  0.035969296           15 
  505000    1.0472688   -6.1978861    213.69057  0.035262469  0.035952584            4 
  506000    1.0622601   -6.1992184    213.97457  0.035239553  0.035935827            6 
  507000    1.0457023    -6.207258    214.31931  0.035226712  0.035919083            8 
  508000    1.0465392   -6.1952748    214.42146  0.035174124  0.035902341            3 
  509000    1.0443845   -6.2576197    214.70878   0.03515206  0.035885527            3 
  510000    1.0643524    -6.202927    215.65834  0.035238291  0.035868545            3 
  511000    1.0305954    -6.174747    215.70859  0.035177526  0.035851901            3 
  512000    1.0677919   -6.2236406    216.11083  0.035174289  0.035835193            6 
  513000    1.0383254   -6.2130366    216.71711  0.035204208  0.035819054            4 
  514000    1.0537137   -6.2099527    216.67113  0.035128263  0.035802565            6 
  515000     1.060475   -6.2289916    217.32864  0.035166447  0.035786141            4 
  516000    1.0539299   -6.1903139    217.43517  0.035115499   0.03577033            4 
  517000    1.0657805   -6.1902213     218.4503  0.035211203  0.035754209            3 
  518000    1.0406153   -6.2328675    217.89609  0.035054068   0.03573795            6 
  519000    1.0475313    -6.267542    218.29038  0.035049837  0.035721384            4 
  520000    1.0309718   -6.1912746    217.94794  0.034927555    0.0357041            7 
  521000    1.0424024   -6.2159869     219.7214  0.035144178  0.035687001            4 
  522000    1.0381812   -6.1923112    219.80416  0.035090063  0.035670268            9 
  523000    1.0539246   -6.2396083    220.62392  0.035153588  0.035653582            7 
  524000    1.0439969   -6.2290903    219.99508  0.034986494  0.035636988            8 
  525000    1.0453592    -6.225603    220.58542  0.035013559  0.035620309            5 
  526000     1.049758   -6.2360353    220.89359  0.034995816  0.035603116            3 
  527000    1.0502537   -6.2526391    220.31696  0.034838229  0.035585586            6 
  528000    1.0371385   -6.1941945    221.04544  0.034887222    0.0355687            3 
  529000    1.0441939   -6.2035978    221.58871  0.034906854  0.035551558            4 
  530000    1.0490122   -6.2712385    221.07574  0.034760337  0.035534118            6 
  531000    1.0302553   -6.2402015    222.19876  0.034871117  0.035516584            2 
  532000    1.0215066    -6.253035    221.80705  0.034744212  0.035498796            5 
  533000    1.0249501   -6.2065286    222.50442  0.034788058   0.03548076            7 
  534000    1.0391649    -6.223331    222.77913  0.034765782  0.035462826            6 
  535000    1.0114354   -6.2130105    222.77699  0.034700466  0.035444564            7 
  536000    1.0567634   -6.2125925    222.73201  0.034628732  0.035426593            4 
  537000     1.042058   -6.2445269    223.46214  0.034677552   0.03540872            3 
  538000     1.039983   -6.2581035    223.65628  0.034643166  0.035390839            5 
  539000    1.0355421   -6.2498167     224.1288  0.034651949  0.035372481            4 
  540000    1.0621659   -6.2383136    224.65883  0.034669573  0.035354418            7 
  541000    1.0340675    -6.236953    225.03718  0.034663767  0.035336367            5 
  542000    1.0520793    -6.223217    224.33384  0.034491673   0.03531799            5 
  543000    1.0283189   -6.2578263    224.72315  0.034487899  0.035298899            7 
  544000    1.0534647   -6.1958226    225.25017  0.034505235  0.035279653            5 
  545000    1.0540084   -6.2318044    225.41764  0.034467529  0.035260595            3 
  546000    1.0566634   -6.2471248    226.12802  0.034512823  0.035241113            5 
  547000    1.0364223   -6.2918277    225.30894  0.034324945  0.035221546            7 
  548000    1.0421439   -6.2471047    225.74956  0.034329313  0.035201703            9 
  549000    1.0257412   -6.2515919    226.11673  0.034322515  0.035181662            6 
  550000     1.052572   -6.2512037    226.54312  0.034324716  0.035161781            6 
  551000    1.0191155   -6.2706247    226.98307  0.034328958  0.035142177            8 
  552000    1.0287121   -6.2363433    228.06654  0.034430334   0.03512339            7 
  553000    1.0240285   -6.2720117     227.8971   0.03434254   0.03510442           12 
  554000    1.0584353   -6.2445539    228.27822  0.034337879  0.035085882            8 
  555000    1.0225451   -6.2755498    228.75388  0.034347429  0.035066621           10 
  556000    1.0439521   -6.2433284    227.74817  0.034134918  0.035047028            4 
  557000    1.0144246   -6.2207883     228.1616  0.034135487  0.035027057           10 
  558000    1.0272185   -6.2467277     228.3165  0.034097446  0.035006793            6 
  559000    1.0215228   -6.2444374       228.61  0.034080203  0.034986207            7 
  560000    1.0400916   -6.2337757    228.95946  0.034071349  0.034965724            5 
  561000    1.0264238   -6.2584454    229.12939  0.034035857  0.034945239            8 
  562000    1.0420796   -6.2153049    230.09254  0.034118111  0.034925384            3 
  563000    1.0473589   -6.2677782    230.14117  0.034064709  0.034905473            8 
  564000    1.0493117   -6.2740553    229.77753  0.033950581  0.034885211            5 
  565000    1.0205021   -6.2715962    230.20423  0.033953426  0.034865019            7 
  566000    1.0266922   -6.2450059    230.88392  0.033993511  0.034844771            7 
  567000    1.0252235   -6.2972995    230.77203  0.033917112  0.034824399            3 
  568000    1.0243665   -6.2747877    232.23132  0.034071497  0.034804299            5 
  569000    1.0146005   -6.2470949     231.8493  0.033955668  0.034784193            6 
  570000    1.0315465   -6.2212357    232.52949  0.033995539  0.034764001            5 
  571000    1.0222196   -6.2599406    232.31447  0.033904622   0.03474429           12 
  572000    1.0385726   -6.2490079    232.63263    0.0338917  0.034724868            7 
  573000    1.0157837   -6.2333721    233.34206  0.033935727  0.034705135            5 
  574000    1.0178636   -6.2548754    233.17209  0.033851929  0.034685437            4 
  575000     1.013518   -6.2821213    233.68613  0.033867554  0.034665449            4 
  576000    1.0269403   -6.2827484    233.00763  0.033710595  0.034645354            5 
  577000    1.0387744   -6.2770894     233.8612  0.033775448  0.034625086            7 
  578000    1.0142985   -6.2442152    234.46024  0.033803379  0.034605288            6 
  579000    1.0384157   -6.3007017    234.62441  0.033768625  0.034585404            7 
  580000    1.0151524   -6.2781847    235.25384  0.033800839  0.034565749            3 
  581000    1.0114067   -6.2665352    235.25862  0.033743348  0.034546071            6 
  582000    1.0269372   -6.2763347    235.63761  0.033739635  0.034526841            3 
  583000    1.0274514   -6.2527726    236.27569  0.033772968  0.034507142            6 
  584000    1.0175707   -6.2895335    235.55778  0.033612697  0.034487117           10 
  585000    1.0441455   -6.2607757    237.08685  0.033773056  0.034467606            5 
  586000    1.0205356   -6.2442996    236.60935  0.033647519  0.034448005            4 
  587000    1.0208644   -6.2732538     237.3662  0.033697644  0.034428399            9 
  588000    1.0230669   -6.2691867    236.85772  0.033568271  0.034408628           10 
  589000    1.0210881   -6.2897883    236.84506  0.033509488  0.034388353            8 
  590000    1.0031281   -6.2527642    237.41606  0.033533342  0.034368013            3 
  591000    1.0273843   -6.2716045    238.07826  0.033569975  0.034347413            8 
  592000    1.0212516   -6.2644069    237.25391  0.033397228  0.034326594            4 
  593000    1.0083839   -6.3243029    237.38835  0.033359801  0.034305515            5 
  594000    1.0190055    -6.296462    237.85462  0.033369055  0.034284292            6 
  595000    1.0016606   -6.2516873    238.43267  0.033393931  0.034263115            5 
  596000    1.0252745    -6.265596    238.10769  0.033292462  0.034242078            6 
  597000    1.0309639   -6.3253762    238.21719  0.033251981  0.034220306            4 
  598000    1.0092533   -6.2904244     238.3751  0.033218381  0.034198784            5 
  599000    1.0027078   -6.3196959    238.52139  0.033183276  0.034176702            6 
  600000    1.0240781   -6.2604574    239.49533   0.03326324  0.034155046            7 
  601000   0.99891114    -6.262341    239.63977  0.033227922  0.034133715            5 
  602000    1.0235855   -6.2832738    239.47078  0.033149333  0.034111831            6 
  603000     1.011016   -6.2803272    240.26246  0.033203767  0.034089929            4 
  604000    1.0157507   -6.2905757    239.89329   0.03309786  0.034067903           13 
  605000    1.0241816   -6.2997115    240.46984  0.033122567  0.034045865            3 
  606000   0.99309749   -6.2710666    240.40143  0.033058503  0.034024012           10 
  607000    1.0066471   -6.2830097    240.39871  0.033003666  0.034002362           10 
  608000   0.99822771   -6.2712326    241.38813  0.033084996  0.033981365           12 
  609000    1.0153735    -6.301083     242.2841  0.033153271  0.033960272            6 
  610000    1.0257359   -6.3047866    242.28105  0.033098504  0.033939419            4 
  611000    0.9963423   -6.3183332    242.55802  0.033082109  0.033918868           12 
  612000    1.0237023    -6.310016    243.05199  0.033095314  0.033898209            6 
  613000   0.98235722   -6.3138981    242.87406  0.033017137  0.033877563            4 
  614000    1.0138952   -6.3220932    243.73451  0.033080145  0.033857004            8 
  615000   0.99744875   -6.3373304    243.89732  0.033048417  0.033836716           16 
  616000    1.0092441   -6.3069549    244.22209  0.033038703  0.033816722            7 
  617000    1.0162389   -6.2755796    244.49319  0.033021771  0.033796428            4 
  618000    1.0033822   -6.2972602    244.85586  0.033017241  0.033776206            5 
  619000      1.00089   -6.3050102    244.83074   0.03296052  0.033755777            6 
  620000    1.0000182   -6.2925613    245.04133  0.032935662   0.03373524            4 
  621000    1.0105035    -6.286108    245.35451  0.032924653  0.033714941            3 
  622000     1.009935   -6.2868752    246.25742  0.032992688  0.033694332            6 
  623000    1.0068104   -6.2898639    245.93254  0.032896273  0.033674468           17 
  624000    1.0164913   -6.2856312    246.92834  0.032976541  0.033654541           14 
  625000    1.0011247   -6.2866072    246.72875  0.032897167  0.033634777            4 
  626000    1.0093202   -6.3244385      246.879  0.032864616  0.033614726            5 
  627000   0.99121285   -6.3212567    247.05573   0.03283569  0.033594984            4 
  628000    1.0118643   -6.3360235    247.34668  0.032822012  0.033575508            5 
  629000   0.99038051    -6.302812    247.14876  0.032743609  0.033555677            4 
  630000   0.99433098   -6.3039706    248.44304  0.032862836  0.033535805            6 
  631000   0.98724685   -6.3194595     248.9853  0.032882369  0.033516349            4 
  632000    1.0105293   -6.3223997     249.9777  0.032961195  0.033497526            6 
  633000   0.99396257   -6.2882721    249.34523   0.03282586  0.033478477            9 
  634000    1.0022176   -6.2383972    250.67592   0.03294899  0.033459925           10 
  635000    1.0066782   -6.2887059    250.15698     0.032829  0.033441129            4 
  636000   0.98683864   -6.3061163    250.30148  0.032796315  0.033421893            4 
  637000    1.0062709   -6.3148273    249.92547  0.032695639  0.033402453           14 
  638000    0.9807698   -6.3146176    250.46534  0.032714909  0.033382655            5 
  639000   0.98633955   -6.2760669    251.12672  0.032749963  0.033363556            3 
  640000   0.97712004   -6.3018299    250.96985  0.032678365  0.033344374            9 
  641000   0.99389207   -6.2794251    252.34802  0.032806555  0.033325331            3 
  642000    1.0048251   -6.3044188    252.05887  0.032717921  0.033306449            3 
  643000   0.99081661   -6.2886167    251.90275  0.032646805  0.033287301            5 
  644000   0.99996393   -6.3093027    252.65176  0.032693033  0.033268302            5 
  645000   0.98521005   -6.3408681    252.05513  0.032565262  0.033248832            2 
  646000   0.98573957   -6.3214173     252.6118  0.032586661  0.033229485            9 
  647000    1.0080554   -6.3315095    252.95031  0.032579896  0.033210428           21 
  648000    1.0088225   -6.3362756    253.07518  0.032545676  0.033191248           18 
  649000    1.0069204   -6.2818382    253.15617  0.032505928  0.033171957            5 
  650000   0.99305192   -6.3257981    254.77864  0.032663929  0.033152919           10 
  651000   0.98976091   -6.3258276    254.48398  0.032576035  0.033134099           10 
  652000   0.99413475   -6.3126975    255.80598  0.032695038  0.033115581            3 
  653000   0.99042713   -6.3316075    255.19173  0.032566581  0.033097373            2 
  654000   0.99020632   -6.3002694     256.1567  0.032639743  0.033079401            4 
  655000   0.98772259   -6.3179741    255.84526  0.032550287  0.033061277            5 
  656000    1.0123689   -6.3245594    255.75738  0.032489504  0.033043272            8 
  657000    1.0037217   -6.3229108    256.54041  0.032539372    0.0330253            7 
  658000   0.96476396    -6.331807    255.72986  0.032387267  0.033006646            6 
  659000   0.99653869   -6.3361343    255.97235  0.032368785  0.032987904           11 
  660000   0.98841511    -6.348655    256.68075  0.032409186  0.032969579            6 
  661000   0.99890981   -6.3275865    257.28547  0.032436393  0.032951211            5 
  662000    1.0023659   -6.2621807     258.2544  0.032509365  0.032933303            4 
  663000   0.98738561   -6.3181236    258.03371  0.032432593  0.032915434            6 
  664000    1.0097258   -6.3293434    258.29603  0.032416671  0.032896927           15 
  665000   0.98983557   -6.3074994    257.37691  0.032252745  0.032878187           14 
  666000   0.99030624   -6.3364747    258.25639  0.032314363  0.032859354            5 
  667000   0.98393822   -6.3442972    257.56957  0.032180106   0.03284062            6 
  668000   0.97592902   -6.3562548    258.22782  0.032214049  0.032821818           10 
  669000   0.97904296   -6.3478383    259.18944   0.03228568  0.032802927            6 
  670000    0.9845579   -6.3505644    258.31702  0.032128982   0.03278406            5 
  671000   0.99790415   -6.3424379    259.26514   0.03219885  0.032765003           16 
  672000   0.98583439   -6.3055431    259.10043   0.03213051  0.032746168           11 
  673000   0.96396412   -6.3633344    259.29632  0.032107024  0.032726793           11 
  674000   0.99004831   -6.3486862    260.33637  0.032187979  0.032707693           12 
  675000   0.98817002   -6.2972365    260.22258  0.032126244  0.032688755           12 
  676000   0.98352007   -6.3401845    259.90102  0.032039081   0.03266965            5 
  677000    0.9908307   -6.3053411    260.55523  0.032072283  0.032650401            5 
  678000   0.98854164   -6.3312962    259.70555  0.031920545  0.032631014            8 
  679000    0.9770067   -6.3442378    261.35517  0.032075991  0.032611926            4 
  680000   0.96882033   -6.3435659    260.66219  0.031943896  0.032592503            7 
  681000   0.99224145   -6.3283596    260.83126  0.031917677  0.032573096           11 
  682000   0.97234864   -6.2988501    261.61339  0.031966445  0.032553896            9 
  683000    0.9993858   -6.3645083    261.50127  0.031905963  0.032534423            5 
  684000   0.98296039   -6.3941083    261.81841  0.031897954  0.032514994            5 
  685000   0.96446676   -6.3235666      262.065  0.031881386  0.032495541            7 
  686000    0.9676345   -6.3520423    262.79956  0.031924144  0.032476195            6 
  687000    1.0037591   -6.3564327    262.48705  0.031839768  0.032456578            4 
  688000   0.97494397   -6.3438161    262.27228  0.031767476  0.032437308            8 
  689000   0.99978533   -6.3537528    262.87143  0.031793835   0.03241783            5 
  690000   0.99217989    -6.294019    263.70835  0.031848835  0.032398838            5 
  691000   0.96942279   -6.3124714    263.70193  0.031801969  0.032379883           14 
  692000   0.98925767   -6.3472251    263.78705  0.031766263  0.032360684            6 
  693000   0.98602161   -6.3870554    263.63268  0.031701862   0.03234114            8 
  694000   0.96859485   -6.3399861    264.19943  0.031724235  0.032321278            3 
  695000    0.9902781   -6.3360921    264.13121  0.031670409  0.032301131            7 
  696000   0.97518375   -6.3021145    264.78798  0.031703542  0.032281433            4 
  697000    0.9679243   -6.3370614    265.14924  0.031701248  0.032261978            6 
  698000   0.95604168   -6.3659184    264.72355  0.031605009  0.032242739            6 
  699000   0.95777955   -6.3413569    265.58278  0.031662229  0.032223134            7 
  700000   0.99585867   -6.3741125    265.91426  0.031656459  0.032203602           10 
  701000   0.98101411   -6.3572608     265.3303  0.031541881  0.032183933            6 
  702000    0.9635315   -6.3684108    265.07071  0.031466133  0.032163939            5 
  703000   0.95366178   -6.3730286    265.55965  0.031479333  0.032143712            5 
  704000   0.96490694   -6.3441445    265.36145  0.031411157  0.032123979            9 
  705000   0.97540201   -6.3648165    266.74661  0.031530332  0.032104244            4 
  706000   0.97815321   -6.3621483     267.1526  0.031533593  0.032084456            6 
  707000   0.98594964   -6.3921959    266.02552  0.031356144   0.03206441           11 
  708000   0.95876636   -6.3233744    267.28669  0.031460298  0.032044302            6 
  709000   0.97831115   -6.3287874    266.82274  0.031361394  0.032024002            4 
  710000   0.96629207   -6.3634135    267.01316  0.031339573  0.032003604            9 
  711000   0.96535552   -6.3628961    268.03418  0.031415164  0.031983542            5 
  712000   0.98701354   -6.3424437    267.87724  0.031352673  0.031963471            4 
  713000   0.94892609   -6.3561605    267.56795  0.031272551  0.031943428            5 
  714000   0.95060029   -6.3896941    268.61301  0.031350724  0.031923787           12 
  715000   0.95604426   -6.3463018    268.95729  0.031347004  0.031904489            7 
  716000   0.95764804   -6.3870951    268.70673  0.031274061  0.031885069            9 
  717000   0.96072948   -6.3443806    269.43676  0.031315291  0.031865896            5 
  718000   0.98610556    -6.360147     269.6387  0.031295114  0.031846336           10 
  719000   0.97792814    -6.333159    269.42084  0.031226337  0.031826837            4 
  720000   0.98845657   -6.3791105    270.57468  0.031316514  0.031807246            3 
  721000   0.97624778   -6.3934915      269.712  0.031173371  0.031787728           10 
  722000    0.9597297   -6.3795196    270.35731  0.031204676  0.031768141           10 
  723000   0.99889978   -6.3814928    269.71442  0.031087416   0.03174838            9 
  724000   0.96420972    -6.369234    270.55541  0.031141277  0.031728682           11 
  725000     0.964507   -6.3515926    270.86246  0.031133616  0.031709258            7 
  726000   0.97686879   -6.3611233    270.81599  0.031085398  0.031689528            4 
  727000    0.9452823   -6.3686953    271.90101  0.031167012  0.031669967            5 
  728000   0.94750397   -6.3877464    271.91621  0.031125939  0.031650528            8 
  729000   0.95902825   -6.3915759    271.92292   0.03108401  0.031631167            7 
  730000   0.97462399   -6.3863574    271.34799  0.030975798  0.031611855            8 
  731000   0.98633719   -6.4012116    272.25344  0.031036644  0.031592729            8 
  732000   0.97766621   -6.3851237    272.86556   0.03106393  0.031573355            8 
  733000   0.95993799   -6.3758512    272.27785  0.030954735  0.031554192           13 
  734000   0.96967691   -6.3636226    273.18696  0.031015777   0.03153516            4 
  735000   0.94701481   -6.3627192    273.83111  0.031046611  0.031516275            8 
  736000   0.97409266   -6.3759152    273.25854  0.030939599  0.031497112            4 
  737000   0.95366193   -6.3604061    274.03874  0.030985836  0.031478031            6 
  738000   0.95525867   -6.3942451    273.85323  0.030922903   0.03145893            8 
  739000   0.96834854   -6.3877666    274.81407  0.030989408  0.031439978            4 
  740000    0.9625846   -6.3909531    275.04787   0.03097386  0.031421131            8 
  741000   0.96378718   -6.3901376    274.97436  0.030923792  0.031402413            5 
  742000   0.95587012   -6.3743319    275.56814  0.030948802  0.031383736           12 
  743000   0.94285168   -6.3933309    275.48411  0.030897724  0.031364987            9 
  744000   0.96102322   -6.3820489    275.83486  0.030895481  0.031346342            6 
  745000   0.95062567    -6.415072    276.27954  0.030903752  0.031327971           21 
  746000   0.95144398   -6.3565106    276.95411   0.03093768  0.031309765            4 
  747000   0.96537928   -6.3844143    277.23594  0.030927704  0.031291622            9 
  748000   0.96760621   -6.4135407    276.89261  0.030848107  0.031273238            9 
  749000    0.9646616   -6.3959079    277.45315  0.030869287  0.031254815            7 
  750000   0.94431754   -6.3925521    277.49124   0.03083236   0.03123631            7 
  751000   0.94412219    -6.389387    277.74853  0.030819854   0.03121763           10 
  752000   0.93534329   -6.4158186    277.62465  0.030765143  0.031199188            4 
  753000    0.9545252   -6.3814489    277.44524  0.030704431  0.031180942            6 
  754000   0.96391041   -6.3600691    278.03678  0.030729087  0.031162583            5 
  755000   0.93759645   -6.4104247    278.64873   0.03075593  0.031144233            9 
  756000   0.96833511    -6.432812    278.65449  0.030715883  0.031125874            9 
  757000   0.94324848   -6.3563189    278.99264  0.030712532  0.031107621            8 
  758000   0.95708555   -6.4092054    279.82081  0.030763062  0.031089655           10 
  759000   0.97225551   -6.4085831    279.25685  0.030660612  0.031071458            7 
  760000   0.92236734   -6.3725034    280.05779  0.030708091  0.031053181           14 
  761000    0.9621491   -6.4148852    280.16657  0.030679651  0.031034901            8 
  762000   0.95701166   -6.3885242    280.53733  0.030679935  0.031016614           13 
  763000   0.94690743   -6.3866413    280.16465  0.030599022  0.030998216           13 
  764000    0.9491015   -6.3968793      280.627  0.030609402  0.030980035            7 
  765000   0.98043887   -6.4175036    280.53546  0.030559419  0.030961846            8 
  766000   0.93170137   -6.4308275    279.93763  0.030454485  0.030943495           19 
  767000   0.95743646   -6.4029679    281.29926  0.030562718   0.03092517            6 
  768000   0.93898982    -6.390017    280.75458  0.030463821  0.030906692           10 
  769000   0.94465937   -6.3941985    281.69249  0.030525844  0.030888158            8 
  770000   0.97535538   -6.4250888     281.2814   0.03044171   0.03086947            8 
  771000   0.92932404   -6.4010741    281.65057  0.030442128  0.030850995            9 
  772000   0.94262457   -6.4102051     281.5176  0.030388342   0.03083248            7 
  773000   0.93021159   -6.4116336    281.84129  0.030383925   0.03081365            7 
  774000   0.96789526   -6.4101944      281.623  0.030321167  0.030794883            6 
  775000   0.93711048    -6.428898       281.64  0.030283871  0.030775896            8 
  776000   0.95383541   -6.4261024     281.6618  0.030247186  0.030756657            6 
  777000   0.94465088   -6.4174783    281.94054  0.030238153  0.030737137            3 
  778000   0.93343639   -6.4074725    282.80794  0.030292195  0.030717731           15 
  779000   0.92477134    -6.390808    282.33892  0.030203137  0.030698602           16 
  780000    0.9391135   -6.4037381    283.29226  0.030266267  0.030679613            6 
  781000   0.94992475   -6.4068263    283.62006  0.030262491  0.030660733            5 
  782000   0.94403949   -6.4454541    283.33817  0.030193753  0.030641726            3 
  783000    0.9660548   -6.4022456    283.71334  0.030195119  0.030622456            5 
  784000   0.96252207     -6.41161    282.98959  0.030079676  0.030603115           10 
  785000   0.94899631   -6.4281001    283.54082  0.030099874  0.030583315           10 
  786000   0.91439646   -6.3929283    283.76327  0.030085165  0.030563848            6 
  787000   0.95394428    -6.434869    283.14959  0.029981955  0.030544462           12 
  788000   0.94301846   -6.4042424    284.27695  0.030063129  0.030525081            6 
  789000   0.96268712   -6.4136394    284.02613  0.029998535  0.030505493           14 
  790000   0.92733063   -6.4024709    284.86428  0.030048975  0.030486031           10 
  791000   0.92862642   -6.4003019     285.5478  0.030082996  0.030466928           11 
  792000   0.93093248   -6.4150137    284.17221  0.029900275  0.030447775           13 
  793000   0.93458207   -6.4069607    284.90502  0.029939577  0.030428462            8 
  794000   0.93937738   -6.4080723    285.05543  0.029917657   0.03040924            6 
  795000   0.95094792    -6.416307    284.99894  0.029874103  0.030390071            9 
  796000   0.95132045   -6.4014493    285.39541  0.029878078  0.030370755           13 
  797000   0.94655708   -6.4018888    284.93222   0.02979216  0.030351113            6 
  798000   0.94421585    -6.409362    285.59909  0.029824467  0.030331412            8 
  799000   0.94700512   -6.4137818    285.75569  0.029803473  0.030311599            5 
  800000   0.94495052   -6.4248476    285.78221   0.02976898  0.030291994            8 
  801000   0.91225873   -6.4200182    286.00575  0.029755072   0.03027254            6 
  802000   0.93541637   -6.4239771    286.51814  0.029771212  0.030253038            7 
  803000   0.92686987   -6.4401609    286.65915   0.02974877  0.030233502            4 
  804000   0.93463424   -6.4234507    286.64517   0.02971032   0.03021385           15 
  805000   0.94452858   -6.4103411    287.22857  0.029733806  0.030194051           10 
  806000   0.93042143   -6.4759027    286.80742  0.029653373  0.030174367            5 
  807000   0.93362932   -6.4308094    287.32354  0.029669924  0.030154754            8 
  808000   0.92810263   -6.4235484    287.90336  0.029693003   0.03013555            5 
  809000    0.9122201   -6.4314694    288.21915  0.029688829  0.030116291            5 
  810000   0.93178881   -6.4029223     287.4486  0.029572902  0.030096839           10 
  811000   0.92970509   -6.4099336    288.04901  0.029598131   0.03007733           14 
  812000   0.94117863   -6.4164334    288.78538  0.029637252  0.030057766           20 
  813000   0.94298248   -6.4144138    287.55282  0.029474459  0.030038089           18 
  814000    0.9352718   -6.4171063     288.3102  0.029515786  0.030018252            7 
  815000   0.92961598   -6.4490553    288.08458  0.029456501  0.029998152            5 
  816000   0.92095532   -6.4585494    287.97423  0.029409133  0.029978349            7 
  817000   0.92247766   -6.4686721      288.958  0.029473481  0.029958445            9 
  818000   0.93755239   -6.4551662     287.8529  0.029324867   0.02993862           11 
  819000   0.92738644   -6.4344341    288.35932  0.029340591  0.029918872            9 
  820000   0.92845445   -6.4667437    288.51956  0.029321094  0.029899052            6 
  821000   0.92718296   -6.4721854    289.33628  0.029368279  0.029879149            6 
  822000   0.93340194   -6.4379453     289.6955  0.029368967  0.029859292           11 
  823000   0.93521081   -6.4403275    290.02145  0.029366287  0.029839412           12 
  824000   0.92173615   -6.4277463    289.85019  0.029313328  0.029819562           37 
  825000   0.90466254   -6.4625068    289.40859  0.029233191  0.029799572           15 
  826000   0.93469427   -6.4792303    288.64034  0.029120293  0.029779545           16 
  827000   0.89738836   -6.4641607    289.65197  0.029187019  0.029759629            3 
  828000   0.93625489   -6.4726862    290.00458  0.029187256  0.029739608            8 
  829000   0.91625219   -6.4417873    290.83339  0.029235363  0.029719689           13 
  830000   0.92307228   -6.4460371    291.14082  0.029231006  0.029700129            9 
  831000    0.9423714   -6.4519039    290.29492  0.029111003  0.029680338           17 
  832000   0.91227656   -6.4558037    290.52657  0.029099215  0.029660289           14 
  833000   0.90951344   -6.4379966    290.84943  0.029096582  0.029640182            5 
  834000   0.91628117   -6.4396251    291.92123  0.029168788  0.029620425            7 
  835000   0.91369817    -6.446462    291.66367  0.029108151  0.029600627            6 
  836000   0.92020347   -6.4516251    290.91783  0.028998986  0.029580863            8 
  837000   0.94141528   -6.4709344    291.74449  0.029046644  0.029560843            4 
  838000   0.93367724   -6.4661678    291.91888  0.029029324  0.029541041            6 
  839000   0.92079831   -6.4492529     291.4376  0.028946921  0.029521305            7 
  840000   0.92131285   -6.4528884    291.52122  0.028920756  0.029501652           14 
  841000   0.91826658   -6.4793869    291.41179  0.028875524  0.029481794            8 
  842000   0.92232235    -6.486297    292.13495  0.028912802  0.029462004            5 
  843000   0.91552124   -6.4801227    292.32946  0.028897733  0.029442149           10 
  844000     0.910246   -6.4647551    292.88401  0.028918247  0.029422534            6 
  845000   0.92370477    -6.435935    293.68941  0.028963452  0.029402887            9 
  846000   0.91792925   -6.4426181    293.15766  0.028876838   0.02938338            8 
  847000   0.91262274   -6.4340256    294.35615   0.02896066  0.029364022            8 
  848000   0.90752029   -6.4418815    293.82951  0.028874755  0.029344786            4 
  849000   0.92902911   -6.4789912    294.00034  0.028857512  0.029325374           11 
  850000   0.90831362   -6.4655222    294.54853  0.028877307  0.029305877           16 
  851000   0.93565983    -6.485637    294.07417  0.028796922  0.029286367           27 
  852000   0.91171235    -6.464272    294.56701  0.028811327  0.029266859           17 
  853000   0.91937864   -6.4687118    295.04628  0.028824373  0.029247293           17 
  854000   0.92093089   -6.4357663    294.36953  0.028724583  0.029227709            6 
  855000   0.92491174   -6.4332389    294.99029  0.028751491  0.029208218           18 
  856000   0.91382301   -6.4475691    295.30669  0.028748704   0.02918904            4 
  857000   0.90980052   -6.4568546    295.97638  0.028780278  0.029169651           11 
  858000   0.90727802   -6.4547705    294.92884  0.028644992   0.02915023            5 
  859000   0.90394297   -6.4904673    295.36637  0.028654091  0.029130859           11 
  860000   0.89144785   -6.4527387    295.01393  0.028586621  0.029111287            7 
  861000   0.89256728   -6.4875895    296.20039  0.028668253  0.029091894           17 
  862000   0.90264869    -6.443757     296.8093  0.028693862  0.029072626            5 
  863000   0.90701123   -6.4705503    296.39064  0.028620185  0.029053353           12 
  864000   0.91593124   -6.4650448    297.36162  0.028680712  0.029034009            5 
  865000   0.90263641   -6.4843835    296.82343  0.028595707  0.029014811            6 
  866000   0.88801925   -6.4519479     297.6354   0.02864082  0.028995447            7 
  867000   0.90369048   -6.4711404    296.88689  0.028535841  0.028976247            6 
  868000   0.89858027    -6.482949    297.80146   0.02859077  0.028956799           10 
  869000   0.89137107   -6.4939175    296.93962  0.028475223  0.028937506            6 
  870000   0.89152298   -6.4738976    298.13054  0.028556565  0.028918222            7 
  871000    0.9105192    -6.450208    297.59344  0.028472392  0.028898974            8 
  872000   0.90987374   -6.4899719    297.96648   0.02847539  0.028879855            8 
  873000   0.93297728    -6.497825    298.32601  0.028477091  0.028860465            7 
  874000   0.90619635   -6.4659444    297.33987  0.028350483  0.028841032            4 
  875000   0.90467457   -6.4791971    298.74561  0.028451963  0.028821625           13 
  876000   0.90027921   -6.4825821    299.00048  0.028443729  0.028802334           11 
  877000   0.90155117    -6.469735    298.78043  0.028390387  0.028783152            6 
  878000   0.90573182   -6.4883757    298.96503  0.028375572  0.028763905           10 
  879000    0.8931011   -6.5017662    298.36654  0.028286551  0.028744623            9 
  880000   0.88289489   -6.4676735    299.01298  0.028315624  0.028725294           38 
  881000   0.89723278   -6.4888338    299.49714  0.028329279  0.028706008            6 
  882000   0.91820215   -6.4862146    298.22669  0.028177125  0.028686756           15 
  883000   0.91349179   -6.4770992    300.12895  0.028324741  0.028667284            6 
  884000   0.88930561   -6.4627547    299.40392  0.028224352  0.028647827            8 
  885000   0.92275482   -6.4843919    299.38187  0.028190383  0.028628505           18 
  886000   0.91682809    -6.491244    299.06187  0.028128468  0.028609188           17 
  887000   0.89046659   -6.4620377    299.86713  0.028172409  0.028589849           17 
  888000   0.90393132   -6.4923057    300.23625  0.028175324  0.028570423            7 
  889000   0.89368366   -6.5178675    298.94769  0.028022843  0.028550934            8 
  890000   0.90802889   -6.4919921    300.77847  0.028162778  0.028531498            9 
  891000   0.91028528    -6.511666    300.44721  0.028100188  0.028511945            6 
  892000   0.88489438    -6.481534     300.4202  0.028066162  0.028492465            5 
  893000    0.8949095   -6.4988677    301.44673  0.028130528  0.028473011            7 
  894000   0.91950913   -6.5046313    300.71104  0.028030485  0.028453582            6 
  895000   0.89398895   -6.4965254    301.56957  0.028079103  0.028434152            6 
  896000   0.89440672   -6.5119345    300.04309  0.027905794  0.028414685           15 
  897000   0.89686935   -6.4714443    301.48122  0.028008289  0.028395273           12 
  898000   0.90634972   -6.5163811    301.37815  0.027967534  0.028375845           20 
  899000   0.86884677   -6.4963952    301.71432  0.027967586  0.028356412           19 
  900000   0.88711712   -6.4991088    301.16011  0.027885196  0.028336914            7 
  901000   0.90026459   -6.5251833    301.54309  0.027889668  0.028317292            5 
  902000   0.89910474     -6.49613    300.82677  0.027792569  0.028297477            7 
  903000   0.91365206   -6.5163847    302.05676  0.027875301  0.028277904            8 
  904000   0.88203148   -6.5322895    302.31405  0.027868183   0.02825852           22 
  905000    0.9005345   -6.4899974    302.06324  0.027814295  0.028239165           15 
  906000   0.89603811   -6.4672937    302.61046  0.027833927  0.028219991           10 
  907000   0.88221274   -6.4807019    302.78498  0.027819274  0.028200783           14 
  908000   0.88481476   -6.5069986    302.64677  0.027775952  0.028181384            9 
  909000    0.8973225   -6.4742711    303.23833  0.027799627  0.028161891           14 
  910000   0.89390326   -6.5129552    302.69916  0.027719703  0.028142536           14 
  911000   0.89292375    -6.518421    302.90739  0.027708323  0.028122975            9 
  912000    0.8941667   -6.5240198    302.63702  0.027653237  0.028103571            9 
  913000   0.89293586   -6.5241301    303.75752  0.027725221  0.028084182            7 
  914000   0.88849692   -6.5166466    303.85928  0.027704165  0.028064942           12 
  915000   0.87738684   -6.4879286    303.87374  0.027675204    0.0280457           23 
  916000   0.90982186   -6.5041368    304.38903  0.027691869  0.028026475            7 
  917000   0.88418502   -6.5249614    303.71984  0.027600858  0.028007086            7 
  918000   0.88796365   -6.5077381    303.82887  0.027580689  0.027987715           10 
  919000   0.88419177   -6.5096029    303.94222  0.027560956  0.027968433           14 
  920000   0.87297011   -6.5081198    303.95264  0.027531942  0.027949151           15 
  921000    0.8919634   -6.4974171     305.0668  0.027602859  0.027929931           10 
  922000   0.89473892    -6.519297    304.70232  0.027539978  0.027910693           11 
  923000    0.9016082   -6.5233459    304.78149  0.027517288  0.027891623            8 
  924000   0.87671674   -6.4972994    304.72395  0.027482319  0.027872486           10 
  925000   0.88147332    -6.493229    305.15308  0.027491268  0.027853411           11 
  926000   0.88110843   -6.5174909    304.85824  0.027435047  0.027834319            9 
  927000   0.88891608   -6.4987477    304.64403  0.027386195  0.027815137           14 
  928000   0.89390358   -6.5228265    304.95164  0.027384307  0.027795877           23 
  929000   0.88590289   -6.5272512    305.02257  0.027361192  0.027776697            9 
  930000   0.89771031   -6.5278831    305.50885  0.027375345  0.027757556            7 
  931000   0.88325014   -6.5402589    305.81215  0.027373089  0.027738397            8 
  932000    0.9023705   -6.5086882    306.27296  0.027384922  0.027719508            6 
  933000   0.88293726   -6.5408562    306.00383  0.027331532  0.027700456           14 
  934000   0.88582512   -6.5479035    307.12446  0.027402254  0.027681541            6 
  935000   0.87030538   -6.5469307    307.21928  0.027381398  0.027662877            8 
  936000   0.88443615   -6.5434064    307.00424  0.027332998  0.027644181           19 
  937000   0.85793574   -6.5305112     307.5063  0.027348479  0.027625474           20 
  938000   0.89653512   -6.5330893    307.91869  0.027355961  0.027606775           17 
  939000   0.88761956   -6.5140825    307.07632  0.027252069  0.027588018           10 
  940000   0.89057061   -6.5363993    307.52501  0.027262856  0.027569132            7 
  941000   0.89034252    -6.521779    307.65249  0.027245173  0.027550248            9 
  942000   0.85318732   -6.5374117    307.87915  0.027236301  0.027531454            7 
  943000   0.88120427   -6.5221158    308.14572  0.027230976  0.027512719           14 
  944000   0.87443919    -6.554131    308.36458  0.027221449  0.027493998            7 
  945000   0.86927272   -6.5521681    308.68968  0.027221312   0.02747535            9 
  946000   0.87845515   -6.5346927    308.64469  0.027188573  0.027456703            9 
  947000    0.8762704   -6.5131382    308.50012  0.027147142  0.027438158            7 
  948000   0.88103806   -6.5816683    308.58451  0.027125924   0.02741975           23 
  949000   0.87296948   -6.5262165    308.40915  0.027081941  0.027401052           11 
  950000   0.89569464   -6.5299967    309.61094  0.027158854  0.027382497            8 
  951000   0.89753777   -6.5535402    309.00562  0.027077254  0.027364027           26 
  952000   0.87970409   -6.5607672    308.83106  0.027033531  0.027345401            7 
  953000    0.8747123   -6.5361543    309.53469  0.027066692  0.027327034            6 
  954000   0.87058394   -6.5154021    310.24721   0.02710056  0.027308499           16 
  955000   0.85520393   -6.5264835    310.62936  0.027105529  0.027290126            8 
  956000   0.85600828   -6.5243957    311.31483  0.027136928   0.02727183           13 
  957000   0.86601356   -6.5372334     310.4172  0.027030408  0.027253647           16 
  958000   0.88712573   -6.5574074    309.60326   0.02693139  0.027235415           18 
  959000   0.87152563   -6.5366793    311.40125  0.027059545  0.027217317            4 
  960000   0.86976641   -6.5760313    311.22488  0.027016049   0.02719938           12 
  961000   0.86869294   -6.5500739    311.58531  0.027019191  0.027181309           12 
  962000   0.86102497    -6.566658    310.91931  0.026933412  0.027163269           25 
  963000   0.85442688   -6.5460818    311.49589  0.026955338  0.027145122           12 
  964000   0.86624389   -6.5396975    312.28513  0.026995602  0.027126976            9 
  965000   0.87388136   -6.5729473    312.02731  0.026945364  0.027108753           11 
  966000   0.89519111   -6.5556652     312.2449   0.02693624  0.027090767           18 
  967000   0.88941657   -6.5414644    312.48621   0.02692918  0.027072923            8 
  968000   0.86232123   -6.5615849    313.14827  0.026958357  0.027055046           20 
  969000   0.84302611   -6.5604436    311.87732  0.026821235  0.027037266           27 
  970000   0.87362585   -6.5642181    312.92636  0.026883708  0.027019492           33 
  971000   0.86368584    -6.571046    313.12443   0.02687302  0.027001699           31 
  972000   0.85033884    -6.577169    313.60699  0.026886744  0.026983997           10 
  973000    0.8687844   -6.5663412    313.46041  0.026846557  0.026966191           13 
  974000   0.85741977   -6.5514377    313.45933  0.026818902    0.0269484           21 
  975000   0.86565146   -6.5642712    313.81852  0.026822096  0.026930678           13 
  976000   0.85089874    -6.557609    314.30217  0.026835909  0.026912886           21 
  977000   0.85476424   -6.5621274    314.24014  0.026803151   0.02689521            8 
  978000   0.87885246   -6.5362722    314.54215  0.026801478  0.026877546            8 
  979000   0.85929571   -6.5751971    314.55202  0.026774942   0.02685998           20 
  980000   0.87610459   -6.5949188    313.94428  0.026695943  0.026842242           10 
  981000   0.86272503   -6.5701287    314.77199  0.026739041  0.026824436           13 
  982000   0.86162513   -6.5936745    314.34316  0.026675421  0.026806667            5 
  983000   0.84966197   -6.5713454    315.72275  0.026765238  0.026789128           28 
  984000   0.86249256   -6.5658306    315.28345  0.026700835  0.026771599           11 
  985000   0.85521203   -6.5195484    316.43863  0.026771458  0.026754185           11 
  986000   0.84869892   -6.5599106    315.19588  0.026639273  0.026736819           10 
  987000   0.85832731   -6.5717615    315.30464  0.026621465  0.026719388           17 
  988000   0.86311779   -6.5970042    315.58249  0.026617957  0.026701861           12 
  989000   0.86198802   -6.5754369    315.66434  0.026597939  0.026684164           16 
  990000   0.86727435   -6.5894211    316.09105  0.026606991  0.026666774            7 
  991000   0.86206885    -6.589866    316.57198  0.026620584  0.026649467           10 
  992000   0.86186413   -6.5611485    316.65481  0.026600707  0.026632212           17 
  993000    0.8730544   -6.5563985    315.97963  0.026517256  0.026614797            9 
  994000   0.85051756    -6.591013    316.61579  0.026543913  0.026597399            9 
  995000   0.84875185   -6.5763804    316.38402  0.026497824  0.026579929            8 
  996000   0.88408239    -6.567824    316.71776  0.026499143  0.026562491           11 
  997000   0.86496079   -6.5483984    316.62238  0.026464592  0.026545264            4 
  998000   0.86010179   -6.5753687    317.17155   0.02648393  0.026527905           19 
  999000   0.84947993   -6.6029523    317.17306  0.026457546  0.026510482            6 
 1000000   0.85346231   -6.5805393    318.10325  0.026508604  0.026493109            7 
 1001000   0.84156619   -6.5730614    317.52421  0.026433917  0.026475826           11 
 1002000   0.86516177   -6.6035272    317.61828  0.026415359  0.026458484           14 
 1003000   0.86004674    -6.590042    317.87929  0.026410709  0.026441233            7 
 1004000    0.8543039   -6.5968995     318.5714   0.02644185  0.026424171           11 
 1005000   0.85170582   -6.5696391    318.79413  0.026434008  0.026406961            9 
 1006000   0.84139596   -6.6100708    316.82798  0.026244863  0.026389637           16 
 1007000   0.85248615    -6.577483    318.94017  0.026393593  0.026372435           16 
 1008000   0.85375557   -6.5658762    319.46001  0.026410384  0.026355454            5 
 1009000   0.84469891   -6.5823407    318.72867  0.026323809  0.026338434           12 
 1010000    0.8529943   -6.5798938    318.43944  0.026273881  0.026321373           16 
 1011000   0.86437578   -6.5848604    319.73499  0.026354681  0.026304221            9 
 1012000    0.8488163    -6.599293    319.43277  0.026303752  0.026286988            8 
 1013000   0.85009985    -6.558616    319.34351  0.026270444  0.026269879           10 
 1014000   0.84728785   -6.5879406    319.11724   0.02622594  0.026252756           10 
 1015000   0.84489105    -6.585654    319.37567   0.02622132  0.026235535           13 
 1016000   0.85479314   -6.5683529    319.81081  0.026231202  0.026218416           16 
 1017000   0.84966629   -6.6224974    319.54583  0.026183696  0.026201431           10 
 1018000   0.86227985   -6.5685692    319.74827  0.026174547  0.026184344           12 
 1019000   0.85106825   -6.5873976    320.60425  0.026218862  0.026167318           13 
 1020000   0.82117941   -6.5678094    320.99212  0.026224846  0.026150413           15 
 1021000   0.86763633   -6.6084175    321.54247   0.02624408  0.026133556           15 
 1022000   0.84268282   -6.6103173      321.396  0.026206458  0.026116609           21 
 1023000   0.86172322   -6.5839535     321.4157  0.026182445  0.026099798            6 
 1024000     0.841254   -6.6216556    321.63838  0.026174998  0.026083156            5 
 1025000   0.84660864    -6.601475     321.7101  0.026155293  0.026066484           14 
 1026000   0.83259728   -6.5636454    322.53839  0.026197075   0.02604999           12 
 1027000   0.84834412   -6.6058488    322.32039  0.026153878  0.026033588            5 
 1028000   0.82137863   -6.6022885    321.94761  0.026098218   0.02601717           13 
 1029000   0.83177498   -6.6069687     322.4346  0.026112294   0.02600078           16 
 1030000   0.83562666   -6.5983943    322.66438  0.026105532  0.025984393           21 
 1031000   0.84268213   -6.5902714    322.80132   0.02609128  0.025967915           13 
 1032000   0.81691422   -6.6129545    322.05486  0.026005722  0.025951516           26 
 1033000   0.84454504   -6.6099296    322.50799  0.026017101  0.025935067           10 
 1034000   0.84164802   -6.5703961    322.91996  0.026025142  0.025918652           12 
 1035000   0.83565654   -6.5897358    323.69097  0.026062075  0.025902239           12 
 1036000    0.8166954   -6.5709783    323.02637   0.02598346  0.025885864           16 
 1037000   0.83452582   -6.5999717    323.54235  0.025999867  0.025869377           10 
 1038000   0.83029966   -6.6113307    323.33806  0.025958419  0.025852822           20 
 1039000   0.84114219   -6.6203649    323.15032  0.025918377  0.025836155           20 
 1040000   0.84175988   -6.6225091     324.0565  0.025966066  0.025819499           37 
 1041000   0.83690695   -6.6379162    323.11345   0.02586563  0.025802815           44 
 1042000   0.83719016    -6.604674    323.32067  0.025857379  0.025786171           85 
 1043000   0.83278446   -6.5935909    323.79989  0.025870877  0.025769447           41 
 1044000   0.82196165   -6.6230442    323.08545  0.025789069   0.02575275           63 
 1045000    0.8458859   -6.6229288    323.62986  0.025807804  0.025736008           54 
 1046000   0.86296067   -6.6114816    323.66161   0.02578566  0.025719243           26 
 1047000   0.81735892    -6.635712     323.8193  0.025773583  0.025702621           25 
 1048000   0.83308496   -6.6506208    324.05801  0.025767972  0.025686118           15 
 1049000   0.85386839   -6.6221878    324.62094  0.025788126  0.025669545           27 
 1050000   0.82304138   -6.6059594    324.19242  0.025729557  0.025652928           18 
 1051000   0.84864038   -6.5854286    324.56262  0.025734429  0.025636467           10 
 1052000   0.84781521   -6.6022048    324.89838  0.025736563  0.025620128           13 
 1053000   0.81113101   -6.6258977    324.41224   0.02567365  0.025603834            5 
 1054000   0.83608894   -6.6378268    325.48417  0.025734043  0.025587577           12 
 1055000   0.83597786   -6.6031972    325.47927  0.025709263  0.025571259           75 
 1056000   0.83129269   -6.6196454    325.80048  0.025710265  0.025555119           23 
 1057000   0.81867322   -6.6161771    325.67784  0.025676273  0.025538929           29 
 1058000   0.82937021   -6.6150404    325.32513  0.025624223   0.02552263           14 
 1059000   0.82128067   -6.6181618    326.06791  0.025658476  0.025506475           36 
 1060000   0.80283698   -6.6347288    326.08452  0.025635575  0.025490335           16 
 1061000   0.83600197   -6.5802552     326.4559  0.025640583  0.025474176           25 
 1062000    0.8219946   -6.6261161    326.57217  0.025625563  0.025458028           36 
 1063000   0.83544554   -6.6492719    327.15626  0.025647245  0.025441882           30 
 1064000   0.81998208   -6.6009945    327.09876  0.025618637  0.025425737            9 
 1065000   0.82574509   -6.6090379    327.38974   0.02561735  0.025409674            8 
 1066000    0.8144228   -6.6451617    328.38117  0.025670823  0.025393565           20 
 1067000   0.83489684   -6.6333782    326.78227  0.025521889  0.025377454           12 
 1068000   0.83377876   -6.6273026    326.93303  0.025509756  0.025361319            7 
 1069000   0.79931458   -6.6273801    328.24354  0.025588053  0.025345278           11 
 1070000   0.81452322   -6.6184938    327.10873  0.025475758  0.025329364            6 
 1071000   0.83565868   -6.6160777    327.06108  0.025448263  0.025313268           19 
 1072000   0.83222085   -6.6405906    326.53784  0.025383849  0.025297176           17 
 1073000   0.81619774   -6.6356669    327.82076  0.025459829  0.025280954           27 
 1074000   0.83378513   -6.6316212    327.46436   0.02540847  0.025264839           13 
 1075000    0.8372667   -6.6483662    327.98563  0.025425243  0.025248778           23 
 1076000   0.83916327   -6.6324073    327.47918   0.02536239  0.025232586           16 
 1077000   0.80771284   -6.6268327    327.58874  0.025347318  0.025216485           23 
 1078000   0.81936451   -6.6265049    327.26053  0.025298433  0.025200375           25 
 1079000   0.82795067   -6.5939198    328.55003  0.025374577  0.025184292           22 
 1080000   0.81686876   -6.6325824    328.86921  0.025375711  0.025168318           13 
 1081000   0.80553515    -6.624516    328.57942  0.025329896   0.02515219            9 
 1082000    0.8213391   -6.6169466    328.87564  0.025329301  0.025136055           40 
 1083000   0.82722808   -6.6234561    328.93658  0.025310602  0.025119954            9 
 1084000   0.82399651   -6.6248028     328.4145  0.025247117  0.025103829           16 
 1085000   0.81081275   -6.6097448    328.30732  0.025215616  0.025087583           16 
 1086000   0.82881532   -6.6298828    328.83764  0.025233091  0.025071375           18 
 1087000   0.81584673   -6.6118099    329.69742  0.025275791  0.025055381           25 
 1088000     0.819387   -6.6025154     329.1941  0.025214009  0.025039374           17 
 1089000   0.83643994   -6.6302133    329.02629  0.025178014  0.025023297           16 
 1090000   0.83150576   -6.6422849    329.26403  0.025173091  0.025007162           35 
 1091000   0.82426605   -6.6443178    329.34498  0.025156201  0.024991081           39 
 1092000   0.83514783   -6.6580491    329.59172  0.025151993  0.024974899           23 
 1093000   0.81134537   -6.6126714    329.34289   0.02511001  0.024958803           21 
 1094000   0.81965983   -6.6309261    330.03055  0.025139439  0.024942727           13 
 1095000   0.80451717   -6.6599446    329.23306  0.025055788  0.024926585           14 
 1096000   0.82425955   -6.6270885    330.56487   0.02513419  0.024910555            8 
 1097000    0.8292524   -6.6521864     329.5202   0.02503192  0.024894532            7 
 1098000   0.81064477   -6.6365614    330.01326  0.025046544  0.024878573           10 
 1099000   0.83276159   -6.6471816    330.23049  0.025040225  0.024862533           36 
 1100000   0.80121542   -6.6754213    330.51998  0.025039392  0.024846447           18 
 1101000   0.81391168   -6.6673472    330.59352  0.025022216  0.024830426           17 
 1102000   0.81962378   -6.6396501    331.15485  0.025041957  0.024814456           12 
 1103000   0.82000708   -6.6433698    330.90861   0.02500065  0.024798395           15 
 1104000   0.80473435   -6.6364372    331.46352  0.025019892  0.024782445           10 
 1105000   0.82890397   -6.6389765    331.66915  0.025012756  0.024766524           13 
 1106000   0.83087186   -6.6557786    331.16576  0.024952212  0.024750581           12 
 1107000   0.80188623   -6.6576491    331.11248  0.024925661  0.024734533           14 
 1108000   0.80576837   -6.6571118    330.33387  0.024844605   0.02471855            9 
 1109000   0.79381796   -6.6388244    331.43817  0.024905182  0.024702506           14 
 1110000   0.80402182   -6.6497748    331.52397  0.024889187  0.024686382            9 
 1111000   0.80128105   -6.6504579    330.54873  0.024793634  0.024670348            7 
 1112000   0.82112317   -6.6489086    332.04246  0.024883278  0.024654397           14 
 1113000   0.81491639   -6.6544542     332.0916    0.0248646  0.024638448           16 
 1114000   0.81014573   -6.6559197    332.06132  0.024840015   0.02462243           26 
 1115000   0.80566387   -6.6552866    332.32922  0.024837759  0.024606374           19 
 1116000   0.80123574   -6.6542112    332.18407  0.024804665  0.024590331           21 
 1117000   0.82013367   -6.6637634     331.7595  0.024750783  0.024574259           15 
 1118000   0.80157759   -6.6835124    331.83155  0.024734015  0.024558083           26 
 1119000   0.79793707   -6.6692081    332.36116  0.024751353  0.024541885           14 
 1120000    0.8193148   -6.6852592    331.95369  0.024698935  0.024525685           29 
 1121000   0.80868209    -6.677135    332.56989   0.02472271  0.024509494           40 
 1122000   0.81235189   -6.6666822    332.38149  0.024686683  0.024493342           11 
 1123000   0.80838129   -6.6671516    331.93647  0.024631676   0.02447709           18 
 1124000   0.79846891   -6.6684685    332.63431    0.0246615  0.024461008            9 
 1125000   0.80278984    -6.678835    332.94061  0.024662267  0.024444924           35 
 1126000   0.80572203   -6.6699418    332.70634  0.024623027  0.024428903           17 
 1127000   0.78541531   -6.6930969    332.31285  0.024572083  0.024412795           15 
 1128000   0.80008634   -6.6685451    332.57278  0.024569502  0.024396628           11 
 1129000   0.77205767   -6.6747872     332.2883  0.024526742  0.024380457           31 
 1130000   0.81138114   -6.6897013    331.84461  0.024472317  0.024364251           12 
 1131000   0.80089472   -6.6835872    333.11056  0.024543955  0.024348053           15 
 1132000   0.80728034   -6.6700237    333.34163  0.024539284  0.024331824           23 
 1133000   0.81287657   -6.6730739    332.72824   0.02447251  0.024315643           33 
 1134000   0.80416173   -6.6955062    332.99897  0.024470823  0.024299513           24 
 1135000   0.82021718   -6.6886614    333.83418  0.024510586  0.024283423           11 
 1136000   0.78851214   -6.6826617     333.1923  0.024441924  0.024267335           22 
 1137000   0.79949646   -6.6955739    332.99793  0.024406181  0.024251164           14 
 1138000   0.81038512   -6.6984392    332.54929  0.024351882  0.024235033           28 
 1139000   0.80131018   -6.6702537    333.15532   0.02437484  0.024218881           22 
 1140000   0.78946524   -6.7021805    333.86545  0.024405369   0.02420277           20 
 1141000   0.81029993   -6.6823224    333.68008  0.024370441    0.0241867           22 
 1142000   0.77894546   -6.7095126    333.71194  0.024351426  0.024170563           55 
 1143000   0.80097218   -6.7139822    334.10741  0.024358954  0.024154508           64 
 1144000   0.79042172   -6.6758295    334.07098  0.024335008  0.024138534           28 
 1145000   0.81302909   -6.6884401    334.53736  0.024347697  0.024122645           35 
 1146000   0.77925078   -6.7174553    334.15228   0.02429845  0.024106738           17 
 1147000   0.80687249   -6.7188133    334.44911  0.024298831  0.024090854           29 
 1148000   0.80595795   -6.6976348    334.53839  0.024284145  0.024075007           38 
 1149000   0.77585138   -6.6970425    334.55079   0.02426391  0.024059182           50 
 1150000   0.79467884   -6.7023478     334.7604     0.024258  0.024043342           53 
 1151000   0.78755536   -6.7111081    335.22913  0.024270861  0.024027537           58 
 1152000    0.8010121   -6.7197906    335.50394  0.024269671  0.024011737           71 
 1153000   0.79197654   -6.7109566    334.70447  0.024190841  0.023995913           42 
 1154000   0.78857355   -6.7032072    334.93736  0.024186696  0.023979984           35 
 1155000   0.77353369   -6.7238895    336.06417  0.024247054  0.023964132           53 
 1156000   0.79545411   -6.6775896    335.45502  0.024182167  0.023948261            9 
 1157000   0.78247785   -6.7222699    335.16559   0.02414042   0.02393243           15 
 1158000   0.78017332   -6.7108124    335.27466  0.024127423    0.0239165           12 
 1159000   0.79410013   -6.6858338    336.22515  0.024174946  0.023900634           15 
 1160000   0.80383068   -6.6936101    335.97679  0.024136264    0.0238849           11 
 1161000   0.79890631   -6.7009086    334.81429  0.024032033  0.023869124            9 
 1162000   0.78960426   -6.6959649    336.20499  0.024111087  0.023853299           10 
 1163000   0.79682515   -6.6890947    335.84412  0.024064497  0.023837521           11 
 1164000   0.80171318   -6.7251102    335.54963   0.02402274  0.023821709           19 
 1165000   0.78848955   -6.6880318    336.23024  0.024050804  0.023805866           22 
 1166000   0.78422901   -6.7013796    335.80574  0.023999839   0.02379003           16 
 1167000   0.79292227    -6.698978    336.50854  0.024029459  0.023774211           16 
 1168000   0.78816392   -6.7171201    335.40689  0.023930286   0.02375839           25 
 1169000   0.78410375   -6.7037675    336.59802  0.023994727   0.02374256           14 
 1170000   0.78076515   -6.6713686    336.53015  0.023969384  0.023726818           15 
 1171000    0.7903836   -6.6694462    336.72626  0.023962871  0.023711183           10 
 1172000   0.79781928   -6.7215384     336.6579  0.023937564  0.023695393           34 
 1173000   0.79513048   -6.7269318    336.23042  0.023886788  0.023679508           19 
 1174000   0.79262785    -6.721562    336.20685  0.023864768  0.023663619           11 
 1175000   0.79137196    -6.677646    336.47642  0.023863576   0.02364783           27 
 1176000   0.78283615   -6.7307603     336.3594  0.023834992  0.023631913           24 
 1177000    0.7694355   -6.7006845     336.7455  0.023842077  0.023615937           37 
 1178000   0.78388616   -6.7394552    336.48803  0.023803624  0.023600061           33 
 1179000   0.77709351   -6.7010263    336.28688  0.023769217  0.023584076           41 
 1180000    0.7810584   -6.7086062     336.3839  0.023755925  0.023568133           23 
 1181000   0.77798617   -6.7266529    337.04026  0.023782124  0.023552221           35 
 1182000   0.79281718    -6.715499    337.27941  0.023778864  0.023536299           65 
 1183000   0.79293882   -6.7292001     336.6317  0.023713137  0.023520437           15 
 1184000   0.77254212   -6.7393924    337.18289  0.023731904  0.023504472           12 
 1185000   0.79236254   -6.7402698    337.47376  0.023732332  0.023488613           19 
 1186000   0.79581567   -6.7358899     336.5202   0.02364532  0.023472745            8 
 1187000   0.77396191   -6.7359498    336.12132  0.023597397  0.023456795           23 
 1188000   0.76178445   -6.7350314    337.42065  0.023668676  0.023440832           30 
 1189000   0.76690263   -6.7558026    337.78714  0.023674456  0.023424876           33 
 1190000    0.7901965   -6.7278502    336.54177  0.023567351  0.023408841           21 
 1191000   0.78170862   -6.7312675    336.95901  0.023576757  0.023392805           25 
 1192000   0.75863073   -6.7306297    336.71883  0.023540187  0.023376772           27 
 1193000    0.7821569   -6.7315966    337.91342  0.023603899  0.023360838           40 
 1194000   0.77614138   -6.7676772    337.33395  0.023543687  0.023344914           34 
 1195000   0.78640918   -6.7351431    337.60748   0.02354306  0.023328942           17 
 1196000   0.76569753   -6.7393625    337.61288  0.023523751  0.023313064           13 
 1197000   0.77511364   -6.7647236    337.04141  0.023464315  0.023297059           26 
 1198000   0.76265683   -6.7470547    338.00233   0.02351157   0.02328108           24 
 1199000   0.77626455   -6.7515143    337.59097   0.02346337  0.023265262           10 
 1200000   0.77840399   -6.7438539    337.43018  0.023432651  0.023249266           22 
 1201000   0.78041585   -6.7752356    338.27452  0.023471726  0.023233375           19 
 1202000   0.78175326     -6.77198    338.39544  0.023460583  0.023217487           46 
 1203000    0.7837615   -6.7553912    338.83292  0.023471385  0.023201701           38 
 1204000    0.7803771   -6.7402001    338.64653   0.02343899  0.023185918           14 
 1205000   0.76515916   -6.7216964    338.15983  0.023385881  0.023170112           14 
 1206000   0.77537701    -6.709689    338.55281  0.023393643  0.023154475           28 
 1207000    0.7775886   -6.7206087    339.07238  0.023410134   0.02313876           15 
 1208000   0.76774648   -6.7478243     338.7285  0.023367032  0.023123051           16 
 1209000   0.77652344    -6.742727    339.36648  0.023391679  0.023107331           19 
 1210000   0.77360285   -6.7354506     338.8908  0.023339587  0.023091526           19 
 1211000   0.77566666    -6.730642    338.27351  0.023277836  0.023075786           22 
 1212000    0.7608373   -6.7478471    338.82965  0.023296868  0.023060027           26 
 1213000   0.76266031   -6.7326989    339.25142  0.023306638  0.023044276           14 
 1214000   0.77496756   -6.7534335    339.46774  0.023302289  0.023028571           19 
 1215000   0.75381102   -6.7659338    339.52958  0.023287351  0.023012891           20 
 1216000   0.78882605   -6.7536378     338.7138  0.023212294  0.022997123           30 
 1217000   0.77224616   -6.7240904    339.16852  0.023224358  0.022981395           40 
 1218000   0.76204109    -6.734758    338.80124  0.023180161  0.022965679           41 
 1219000   0.74494355   -6.7391308    338.57705   0.02314582  0.022949895           72 
 1220000   0.77986464   -6.7529045    339.39971   0.02318304   0.02293412           29 
 1221000   0.73731206   -6.7217858    339.73754   0.02318711  0.022918288           85 
 1222000    0.7510159   -6.7539919     339.2026  0.023131656  0.022902444           40 
 1223000   0.76013037   -6.7353406    339.24724  0.023115784  0.022886681           35 
 1224000   0.75552277    -6.759016    339.57272  0.023119057  0.022870854           95 
 1225000   0.76509956   -6.7709902    338.84071  0.023050388    0.0228551           47 
 1226000   0.76804265   -6.7394468     339.7985   0.02309669   0.02283934           57 
 1227000   0.75755729   -6.7594495    339.39168  0.023050236  0.022823597           69 
 1228000   0.76870737   -6.7888964    339.49254   0.02303831   0.02280788           82 
 1229000    0.7631316   -6.7849204    338.72526  0.022967538  0.022792018           52 
 1230000   0.76799192   -6.7685304    339.32295  0.022989359  0.022776119          120 
 1231000   0.77555744   -6.7864313    339.63027  0.022991488  0.022760182          108 
 1232000   0.75054804   -6.7798818    339.76808  0.022982148  0.022744225           78 
 1233000   0.77534673   -6.7884865    339.31923  0.022933173  0.022728294          169 
 1234000   0.75728286   -6.7889899    339.43921  0.022922691  0.022712426          172 
 1235000   0.77046482   -6.7802631    339.93126  0.022937332  0.022696561          100 
 1236000   0.76548529   -6.7728085    340.07274  0.022928313  0.022680727           95 
 1237000   0.74095786   -6.7622544    340.00849  0.022905449  0.022664998           74 
 1238000   0.76515374   -6.7808444    339.96589   0.02288408  0.022649248           33 
 1239000   0.75594566   -6.7606039    340.33716  0.022890581  0.022633585           30 
 1240000   0.74579547   -6.7545141    339.99234  0.022848948  0.022617935           54 
 1241000   0.77149485   -6.7643754    339.88864  0.022823573  0.022602263           64 
 1242000   0.76228558    -6.757083    340.06079  0.022816747  0.022586542           45 
 1243000   0.76449578   -6.7618997       340.19  0.022807053  0.022570862           46 
 1244000   0.76713172   -6.7831839    341.11845  0.022850914   0.02255521           25 
 1245000   0.76900698   -6.7795904    340.67329  0.022802764  0.022539541           30 
 1246000   0.76682804   -6.7534839    340.41938  0.022767482  0.022523928           25 
 1247000    0.7549194   -6.7625257    340.13152  0.022729987  0.022508425           25 
 1248000   0.75233303   -6.7954488    341.02416  0.022771378  0.022492891           14 
 1249000    0.7539137   -6.7601461    341.41648  0.022779322   0.02247741           18 
 1250000   0.74136204   -6.7555887    341.83365   0.02278891  0.022461996           20 
 1251000   0.75595896   -6.7733011    341.47356  0.022746706  0.022446588           19 
 1252000    0.7570866     -6.77816    340.95086  0.022693748  0.022431091           54 
 1253000    0.7516237   -6.7793207    341.21598  0.022693268  0.022415633           51 
 1254000   0.75225976   -6.7777655    341.89077  0.022720014  0.022400167           57 
 1255000    0.7534825   -6.7825547    341.81449  0.022696845  0.022384692           41 
 1256000   0.74832376   -6.7810469    341.98053  0.022689791  0.022369198           58 
 1257000   0.75036654   -6.7883778    341.33589  0.022629003  0.022353743          106 
 1258000   0.72677757   -6.7530028    341.94033  0.022651055  0.022338252           37 
 1259000   0.75200423   -6.7610514    341.29736  0.022590506  0.022322819           72 
 1260000    0.7402471   -6.7640893    341.92793  0.022614281  0.022307474           44 
 1261000   0.77076559   -6.7596951    341.95374  0.022598053   0.02229216           78 
 1262000   0.73418085   -6.7571702    342.11081  0.022590518  0.022276884           39 
 1263000   0.72553055    -6.749496    342.86095  0.022622127  0.022261559           36 
 1264000   0.75521124   -6.7645991    342.70557  0.022593986  0.022246268           27 
 1265000    0.7495418   -6.7766821    342.45201  0.022559421  0.022230958           24 
 1266000   0.76126149   -6.7882083    342.21263  0.022525844  0.022215665           12 
 1267000    0.7537521   -6.7977871    342.26973  0.022511821  0.022200385           29 
 1268000   0.75878823   -6.7755679     342.2288  0.022491377  0.022185104           22 
 1269000   0.73650506   -6.7985844    342.85284  0.022514633   0.02216979           20 
 1270000   0.75139653   -6.7740961    343.48868  0.022538627  0.022154504           60 
 1271000   0.74823154   -6.7861288    342.75455  0.022472761  0.022139227           33 
 1272000    0.7431755   -6.7758418    342.45451  0.022435437  0.022123947           34 
 1273000   0.75112194   -6.8086426    342.43646  0.022416631  0.022108674           53 
 1274000   0.73839185   -6.7721239    342.74623  0.022419298   0.02209349           47 
 1275000   0.75997113   -6.7822454    344.28578  0.022502338  0.022078351           47 
 1276000   0.74525916   -6.7926112    343.20559  0.022414158   0.02206319           47 
 1277000   0.75245419   -6.8046794    343.33142  0.022404817  0.022047924           70 
 1278000   0.74493778   -6.8117417    343.60439  0.022405085  0.022032637           15 
 1279000   0.74521086   -6.8090127     342.8811  0.022340442  0.022017387           24 
 1280000   0.73945976   -6.8028295    343.40948  0.022357388  0.022002085           36 
 1281000   0.75485236   -6.8049923    342.65903  0.022291116  0.021986774           81 
 1282000   0.75025418   -6.8106062    342.91636  0.022290455  0.021971547           62 
 1283000    0.7403544   -6.8077323    343.34953  0.022301217    0.0219563           41 
 1284000   0.73323279   -6.7918013    343.46587  0.022291399  0.021941075           70 
 1285000   0.74448717   -6.7789302    343.64194   0.02228547  0.021925849           51 
 1286000   0.74651404    -6.805547    342.51016  0.022194801  0.021910648          138 
 1287000   0.74452769   -6.7796093     343.9832  0.022272935  0.021895441          134 
 1288000   0.74023717   -6.8240923    343.49969  0.022224359   0.02188027           95 
 1289000    0.7281437   -6.8074287    343.90931  0.022233599  0.021865106           26 
 1290000   0.73704809   -6.8103627    343.61829  0.022197564  0.021849983           50 
 1291000   0.74699909   -6.8280293    344.11928  0.022212709  0.021834866           64 
 1292000   0.73731293   -6.8222753    343.90146  0.022181467  0.021819692           38 
 1293000   0.75397503   -6.8185393    345.10253   0.02224172    0.0218046           69 
 1294000   0.73360899    -6.805137    344.43517  0.022181554  0.021789569           85 
 1295000   0.73326795   -6.8083781    344.62242  0.022176475  0.021774527          104 
 1296000   0.73245862   -6.7951298    344.89008  0.022176574  0.021759555           54 
 1297000    0.7440206   -6.8074439    344.39978  0.022127973  0.021744652           65 
 1298000   0.73160295   -6.8180225    344.19193  0.022097581  0.021729674           54 
 1299000   0.71712151   -6.7995297     345.1332  0.022140955    0.0217147           23 
 1300000   0.73532602   -6.8194416    344.57368  0.022088056  0.021699791           75 
 1301000   0.72336762   -6.8205545    344.03738  0.022036727  0.021684838           53 
 1302000   0.74088114   -6.8429948    344.73913  0.022064716  0.021669848           56 
 1303000   0.72639142   -6.8034334    345.27945  0.022082339  0.021654873           75 
 1304000   0.73825591   -6.8134038    344.97586  0.022046003  0.021639933           91 
 1305000   0.73457087   -6.8328481     344.6947  0.022011156  0.021624901          114 
 1306000   0.73248427   -6.8318189    344.20946   0.02196334  0.021609855           87 
 1307000   0.72081165   -6.8447175    345.04938  0.022000088  0.021594818          146 
 1308000   0.72462264   -6.8381233    344.27946  0.021934216  0.021579761          100 
 1309000   0.73153736   -6.8298259    344.73481  0.021946448  0.021564725          160 
 1310000   0.73925818   -6.8142919    344.89906  0.021940144  0.021549729          119 
 1311000   0.75190258   -6.8078357    345.92333  0.021988516  0.021534783           70 
 1312000   0.72541526   -6.7881413     345.7495  0.021960715  0.021519831           71 
 1313000    0.7159402    -6.814955    344.63706  0.021873385  0.021504843           72 
 1314000   0.72520838   -6.8062634    344.33103  0.021837331  0.021489824          138 
 1315000   0.72567217   -6.8331677    344.30236  0.021818907  0.021474713           71 
 1316000   0.73419018   -6.8212399    345.31656   0.02186655  0.021459644          144 
 1317000   0.74882713   -6.8253765    344.72342  0.021812416  0.021444571          187 
 1318000   0.72265454   -6.8277387    344.63894  0.021790525  0.021429522          164 
 1319000   0.71946078   -6.8285273     344.5875  0.021770754   0.02141449          154 
 1320000    0.7217215   -6.8400336    345.49968  0.021811848  0.021399456          208 
 1321000   0.71410192   -6.8282314    344.31581  0.021720654  0.021384388          179 
 1322000   0.72047389   -6.8484353      344.793  0.021734304  0.021369336          241 
 1323000   0.73275909   -6.8239459    344.29412  0.021686452  0.021354239          409 
 1324000   0.71600301   -6.9011533    344.03447  0.021653731  0.021339059          386 
 1325000   0.73152933   -6.8801976    344.27771  0.021652686  0.021323839          448 
 1326000   0.72014609   -6.8830756    344.90148  0.021675558  0.021308648          428 
 1327000   0.73280746   -6.8900327    344.48446  0.021633036  0.021293481          530 
 1328000   0.72733443   -6.8778052    344.05685  0.021589913  0.021278311          614 
 1329000   0.72617734   -6.9053646    344.99344  0.021632395  0.021263138          653 
 1330000   0.70451766    -6.910471    344.16328  0.021564115  0.021247975          648 
 1331000   0.71778899   -6.9031941     344.2777  0.021555077  0.021232782          844 
 1332000   0.71489669   -6.8947241    344.13987  0.021530272  0.021217559         1048 
 1333000   0.71436355   -6.9130756    344.07369  0.021509983  0.021202293          953 
 1334000   0.72806066   -6.9466613    343.83186  0.021478752  0.021186943         1128 
 1335000   0.72435648   -6.9286939    343.21056   0.02142388  0.021171524         1288 
 1336000   0.72881481   -6.9168699    343.69419  0.021438011  0.021156112         1413 
 1337000   0.71783559   -6.9598285    344.22108  0.021454817  0.021140655         1477 
 1338000   0.71233793   -6.9757861     343.7135  0.021407169  0.021125148         1634 
 1339000   0.72667551   -6.9707907    343.50853  0.021378425  0.021109652         1603 
 1340000    0.7334929   -7.0054364     343.2808  0.021348309  0.021094107         1676 
 1341000   0.72844219   -7.0100491    342.25156  0.021268429  0.021078421         1844 
 1342000   0.70915777   -7.0500693    342.12488  0.021244715  0.021062665         1955 
 1343000   0.72034919   -7.0389058    342.10138  0.021227437  0.021046851         1956 
 1344000   0.70170827   -7.0531008    341.78457  0.021191999  0.021031012         2103 
 1345000   0.72065066   -7.0923473    341.80594  0.021177568  0.021015056         2301 
 1346000   0.72019909   -7.0925104    341.58896    0.0211484  0.020999048         2414 
 1347000   0.71715986   -7.1202523     340.4249  0.021060684   0.02098292         2630 
 1348000    0.7199875    -7.170225    340.14254  0.021027605  0.020966624         2851 
 1349000   0.71044674    -7.226948    339.86581  0.020994923  0.020950141         3041 
 1350000    0.7155142   -7.2400322     339.4665  0.020954722  0.020933474         3128 
 1351000   0.72936084   -7.2850515    338.57244  0.020884064   0.02091669         3208 
 1352000    0.7050041   -7.2954036    338.68604  0.020875619  0.020899814         3345 
 1353000   0.71813946   -7.3451315    338.39802   0.02084245  0.020882806         3496 
 1354000   0.71605318   -7.3663559     337.1116  0.020747883  0.020865631         3661 
 1355000   0.71976565   -7.3922875    337.19068  0.020737434  0.020848308         3742 
 1356000   0.72496459    -7.405967    336.57059  0.020684033  0.020830981         3809 
 1357000   0.70222552   -7.4169069    336.18949  0.020645388   0.02081359         3841 
 1358000   0.71467427   -7.4383144    336.31883  0.020638122  0.020796176         3839 
 1359000   0.70766819   -7.4422094    336.10101  0.020609578  0.020778754         3883 
 1360000   0.71264874   -7.4133663    335.95273  0.020585339  0.020761318         3865 
 1361000   0.70773433   -7.4330918    336.14464  0.020581964   0.02074392         3872 
 1362000   0.70708532    -7.448893    336.24625  0.020573069  0.020726485         3903 
 1363000   0.70735163    -7.434406    335.93698  0.020539067  0.020709026         3922 
 1364000   0.70977253   -7.4442031    336.06411  0.020531776  0.020691578         3933 
 1365000   0.71462323   -7.4639713    335.90342  0.020506924  0.020674101         3943 
 1366000   0.71873661   -7.4401978     335.1835  0.020447993  0.020656642         3921 
 1367000   0.71437007    -7.440373    336.76531  0.020529463   0.02063919         3929 
 1368000   0.71570783   -7.4446552    336.14178  0.020476473  0.020621741         3942 
 1369000   0.70837053   -7.4532746    335.68361  0.020433626  0.020604299         3932 
 1370000   0.70286106   -7.4520849    335.87574  0.020430398   0.02058685         3938 
 1371000   0.71500049   -7.4286614    336.66436   0.02046343  0.020569406         3941 
 1372000   0.70420268   -7.4556351    336.20328   0.02042051  0.020551992         3939 
 1373000   0.69725029   -7.4568831     335.8249  0.020382672  0.020534544         3949 
 1374000   0.71187398    -7.447385    335.99414  0.020378101  0.020517113         3946 
 1375000   0.69945342   -7.4872969    335.65594  0.020342784  0.020499687         3926 
 1376000    0.6965782   -7.4615101    335.26457  0.020304298  0.020482273         3940 
 1377000   0.70280188   -7.4700138    335.97031  0.020332263  0.020464853         3946 
 1378000   0.68906794   -7.4682064     336.3415  0.020339955  0.020447404         3945 
 1379000   0.70463123   -7.4842486     335.6368   0.02028262  0.020429986         3933 
 1380000   0.70091244   -7.4962189    335.86393  0.020281639  0.020412511         3964 
 1381000   0.70340717     -7.48497     335.4626  0.020242735  0.020395005         3955 
 1382000   0.72052486   -7.4924981    335.20665  0.020212654  0.020377505         3968 
 1383000   0.71093114   -7.4929922    335.16811  0.020195717  0.020360022         3949 
 1384000   0.70437419     -7.51611    335.57919  0.020205876  0.020342552         3965 
 1385000   0.69218414   -7.4688487    335.16146  0.020166153  0.020325078         3954 
 1386000   0.71794607   -7.4954878    334.87445  0.020134347  0.020307597         3958 
 1387000   0.69264848    -7.478879    335.41399  0.020152247   0.02029013         3956 
 1388000    0.6991587   -7.5115563    334.60003  0.020088858  0.020272654         3966 
 1389000   0.68389537    -7.512474    334.37807   0.02006108  0.020255159         3969 
 1390000   0.69771169   -7.5007845    334.56911    0.0200581  0.020237713         3962 
 1391000    0.6841425   -7.4856716    334.79798  0.020057391  0.020220286         3951 
 1392000     0.696243   -7.4952214     335.5619  0.020088715  0.020202833         3963 
 1393000   0.70161022   -7.5121592    334.60776  0.020017214   0.02018541         3964 
 1394000   0.70764022   -7.5155928    335.36641  0.020048207  0.020167998         3963 
 1395000   0.70288013   -7.5303692    335.30966  0.020030446  0.020150591         3962 
 1396000   0.69587316   -7.5003192    334.81732  0.019986707  0.020133199         3962 
 1397000   0.68511477   -7.4956435    335.80746  0.020031464  0.020115815         3964 
 1398000   0.68269887   -7.5103825     334.7909  0.019956539  0.020098446         3956 
 1399000   0.70180579   -7.5266113    334.94331  0.019951353  0.020081087         3962 
 1400000   0.71370047    -7.519147     335.3291  0.019960066  0.020063727         3967 
 1401000    0.6896969   -7.5323296    335.28302  0.019943078  0.020046385         3962 
 1402000   0.68782752   -7.5494668    335.18812  0.019923212  0.020029045         3961 
 1403000   0.68430182   -7.5016467    334.97216  0.019896184    0.0200117         3953 
 1404000   0.68314018   -7.5064264    334.93621   0.01987988   0.01999438         3954 
 1405000   0.69948525   -7.5208334    334.86715  0.019861634  0.019977069         3958 
 1406000    0.6889563   -7.5091979    335.64334  0.019893512  0.019959784         3957 
 1407000   0.68784567   -7.5031014    334.80737  0.019829861  0.019942501         3957 
 1408000   0.69122005   -7.5178624    335.04208  0.019829668  0.019925222         3963 
 1409000   0.68926319    -7.524512    335.10132  0.019819099  0.019907969         3953 
 1410000   0.68594311   -7.5110262     334.7266  0.019782896  0.019890724         3967 
 1411000   0.69381872   -7.5340521    335.33683  0.019804915  0.019873488         3958 
 1412000   0.66586945   -7.5069841    334.29901  0.019729639  0.019856243         3960 
 1413000   0.70051868   -7.5380601     335.6204  0.019793607  0.019839029         3970 
 1414000   0.69154823   -7.5267868    335.11324   0.01974972   0.01982182         3958 
 1415000   0.69499393   -7.5283163    335.02511  0.019730572  0.019804612         3950 
 1416000   0.69839573   -7.5313613    335.42789  0.019740342  0.019787411         3962 
 1417000   0.70028056   -7.5151446    335.55593  0.019733941  0.019770232         3950 
 1418000   0.68260335   -7.5250655    334.57732  0.019662513  0.019753064         3953 
 1419000    0.6817672   -7.5144306    335.08075  0.019678221  0.019735903         3965 
 1420000   0.69368786   -7.5323723     334.6469  0.019638902  0.019718763         3966 
 1421000   0.67957148    -7.524847    334.25149  0.019601894  0.019701618         3962 
 1422000   0.69113533   -7.5389936    334.65979  0.019612036  0.019684491         3956 
 1423000   0.67950193   -7.5270044    334.75233  0.019603673  0.019667367         3958 
 1424000   0.68788056   -7.5205186    334.48913  0.019574505  0.019650242         3952 
 1425000   0.69285701   -7.4961742    334.74299  0.019575614  0.019633132         3965 
 1426000   0.68751504   -7.5326654    334.68757  0.019558647  0.019616048         3961 
 1427000   0.67516193    -7.529593     335.0178  0.019564226  0.019598976         3961 
 1428000   0.66382854   -7.5257135    334.50548  0.019520628  0.019581897         3963 
 1429000   0.67540443   -7.5237376    334.24091  0.019491539  0.019564843         3961 
 1430000   0.69483711   -7.5247417    334.27027   0.01947962  0.019547808         3957 
 1431000   0.68311305   -7.5229527    334.95816  0.019506066   0.01953077         3966 
 1432000   0.67604443   -7.5314175    334.67695  0.019476079  0.019513741         3959 
 1433000   0.69464566   -7.5232079    334.41754  0.019447403  0.019496729         3952 
 1434000   0.70085257   -7.5390727    334.65151  0.019447438  0.019479709         3951 
 1435000   0.67979155   -7.5143031    334.83115  0.019444318  0.019462727         3955 
 1436000   0.67953911   -7.5362794    335.32796  0.019459608  0.019445723         3964 
 1437000   0.68370113   -7.5217556      334.904   0.01942148  0.019428755         3968 
 1438000   0.67618625    -7.537444    334.96282  0.019411382  0.019411788         3954 
 1439000   0.68093366   -7.5294626    334.21587  0.019354637  0.019394831         3963 
 1440000   0.68684542   -7.5455724    334.62711  0.019364995  0.019377891         3960 
 1441000    0.6697795   -7.5597317    335.04306  0.019375611   0.01936095         3955 
 1442000   0.67550506   -7.5237193    334.93982  0.019356208  0.019344025         3962 
 1443000   0.68339108   -7.5513544    334.26641  0.019303904  0.019327126         3963 
 1444000   0.68793179    -7.535303     334.5263  0.019305534  0.019310234         3956 
 1445000   0.67331179   -7.5430017     334.5516  0.019293633  0.019293359         3963 
 1446000   0.68327505   -7.5203647     334.3293  0.019267479  0.019276493         3960 
 1447000    0.6791158   -7.5272659    334.28773   0.01925177  0.019259622         3962 
 1448000    0.6722513   -7.5634323    334.04486  0.019224497   0.01924278         3966 
 1449000   0.66508244   -7.5227913    334.41492  0.019232512  0.019225951         3955 
 1450000   0.66764697   -7.5475779    334.73246  0.019237497  0.019209118         3952 
 1451000    0.6825134   -7.5297922    334.85643   0.01923136  0.019192316         3954 
 1452000   0.69007641   -7.5486339      333.923  0.019164543  0.019175526         3961 
 1453000   0.67542564   -7.5452239    334.29576  0.019172732  0.019158742         3951 
 1454000   0.66997548   -7.5429958    335.11572  0.019206541  0.019141988         3947 
 1455000   0.67333923   -7.5347338    334.76316  0.019173148  0.019125227         3961 
 1456000   0.66847511   -7.5429315    334.35389  0.019136555  0.019108482         3962 
 1457000   0.67656293   -7.5564439    334.62858  0.019139132  0.019091747         3962 
 1458000   0.66463701   -7.5323945    334.24608  0.019104143  0.019075035         3966 
 1459000   0.67043253   -7.5340667    334.30445  0.019094383  0.019058342         3963 
 1460000   0.66742059   -7.5570747    334.24886  0.019078131  0.019041637         3954 
 1461000   0.68146925   -7.5533544    335.03839  0.019110107  0.019024944         3956 
 1462000   0.67881694   -7.5407444    334.37048  0.019058965  0.019008277         3953 
 1463000   0.66166551   -7.5456512    334.25535   0.01903938  0.018991623         3962 
 1464000   0.66766713   -7.5417113    334.36038  0.019032353  0.018974996         3954 
 1465000   0.66751436    -7.546113     334.8365  0.019046445  0.018958356         3955 
 1466000   0.65848167   -7.5354095     334.7291  0.019027347  0.018941725         3948 
 1467000    0.6578812     -7.53607    335.06072  0.019033215  0.018925104         3955 
 1468000   0.66602524   -7.5413771    334.47585  0.018987049  0.018908498         3961 
 1469000    0.6664197   -7.5479443    334.13198  0.018954616  0.018891911         3961 
 1470000    0.6656757   -7.5506488    334.22773   0.01894715   0.01887534         3957 
 1471000   0.67869982   -7.5372039     333.8861  0.018914916  0.018858754         3957 
 1472000   0.66765597    -7.552289    333.99669  0.018908327  0.018842191         3964 
 1473000   0.67258809   -7.5434717    334.37321  0.018916792  0.018825648         3963 
 1474000   0.67324849   -7.5493925    334.63456  0.018918734   0.01880911         3965 
 1475000   0.65539663   -7.5691984    334.26022  0.018884758  0.018792587         3971 
 1476000   0.67369728   -7.5459498    334.08687  0.018862176  0.018776084         3964 
 1477000   0.66490182    -7.566511    333.82527  0.018834646  0.018759598         3954 
 1478000   0.65871264   -7.5711355    334.03631  0.018833802   0.01874312         3967 
 1479000   0.66065685   -7.5601548    334.62386  0.018854173  0.018726662         3963 
 1480000   0.66232969   -7.5501186    333.96797  0.018804503   0.01871022         3964 
 1481000   0.65243027   -7.5383796    334.26783  0.018808678  0.018693769         3961 
 1482000   0.66785865   -7.5624124    334.72496  0.018821691  0.018677342         3959 
 1483000   0.66064365   -7.5798422    334.04052  0.018770539  0.018660933         3955 
 1484000   0.65305484   -7.5576025    334.03144  0.018757381  0.018644528         3961 
 1485000   0.66603172   -7.5533032    333.92162  0.018738587  0.018628147         3960 
 1486000    0.6557225   -7.5562072    334.23213   0.01874339  0.018611788         3966 
 1487000   0.66028441   -7.5438554    334.22292  0.018730269  0.018595419         3951 
 1488000   0.68025468   -7.5602409    334.25553  0.018719508  0.018579082         3975 
 1489000   0.65643813   -7.5524062    333.46721  0.018662817   0.01856276         3965 
 1490000   0.64640528   -7.5658494    333.32818  0.018642516  0.018546424         3951 
 1491000   0.66163998   -7.5443843    333.07779  0.018616017  0.018530124         3951 
 1492000   0.65379813   -7.5614011    333.99411   0.01865472  0.018513828         3954 
 1493000   0.65074194   -7.5722963    333.90628  0.018637323  0.018497547         3954 
 1494000   0.64926683    -7.573674    333.92279  0.018625769  0.018481268         3958 
 1495000   0.65679097   -7.5703346    333.64149   0.01859763  0.018465012         3953 
 1496000   0.65149347   -7.5566578     333.9792  0.018604011  0.018448765         3950 
 1497000   0.65955996   -7.5784761    334.21147  0.018604513  0.018432524         3944 
 1498000   0.66563564   -7.5503793    333.81802  0.018570206  0.018416295         3955 
 1499000   0.65575496   -7.5830678    333.31683  0.018529955  0.018400086         3957 
 1500000    0.6601081   -7.5789929    334.23648  0.018568693  0.018383887         3954 
 1501000   0.64801315   -7.5594347    333.41002  0.018510439  0.018367706         3959 
 1502000   0.64006684   -7.5836822    333.78241  0.018518775  0.018351529         3947 
 1503000   0.64455981   -7.5770144    333.95573  0.018516064  0.018335374         3969 
 1504000   0.65980239    -7.588337    333.98996  0.018505649  0.018319241         3953 
 1505000   0.64748955   -7.5692145    334.17949  0.018503848  0.018303122         3958 
 1506000   0.66084849   -7.5698057    334.52474  0.018510665  0.018287018         3958 
 1507000   0.65708795   -7.5642494    333.95227  0.018466726  0.018270934         3953 
 1508000   0.65325329   -7.5577421    333.44935  0.018426688  0.018254836         3950 
 1509000   0.65252809   -7.5745035    334.48205  0.018471507  0.018238755         3949 
 1510000   0.65272127   -7.5476088    333.42139  0.018400739    0.0182227         3957 
 1511000   0.64337099   -7.5832055    333.27336  0.018380397  0.018206661         3963 
 1512000   0.65773847   -7.5813453    333.99217  0.018407858  0.018190638         3958 
 1513000   0.65998947   -7.5823172    333.94732  0.018393221   0.01817462         3961 
 1514000   0.64261199   -7.5788585    333.96863  0.018382245  0.018158628         3959 
 1515000   0.64995786   -7.5762907    333.53884  0.018346471  0.018142639         3958 
 1516000   0.64718286   -7.5697649    333.92337  0.018355506  0.018126659         3963 
 1517000   0.65015642   -7.5844027    333.71733  0.018332088    0.0181107         3957 
 1518000   0.65011326   -7.5732541    334.06736  0.018339227  0.018094749         3958 
 1519000   0.64390232   -7.5777259    333.92624  0.018319412  0.018078792         3961 
 1520000   0.66448122   -7.5823544    333.94044  0.018308138  0.018062848         3953 
 1521000   0.64423862   -7.5792034     333.5932  0.018277076  0.018046914         3962 
 1522000   0.64792743    -7.581368    333.89963  0.018281846  0.018030996         3960 
 1523000   0.64825256   -7.5673932    333.33044  0.018238698  0.018015088         3944 
 1524000   0.63986824   -7.5737718    333.37432  0.018229129  0.017999187         3964 
 1525000   0.64473578   -7.5835641    333.88898  0.018245299  0.017983324         3966 
 1526000   0.63663846   -7.5996528    333.84242    0.0182308  0.017967458         3962 
 1527000   0.63856186   -7.5774104    332.93074  0.018169108  0.017951613         3958 
 1528000   0.65209505   -7.5906917    333.83823   0.01820671  0.017935775         3961 
 1529000   0.65926499   -7.5859901    333.09632  0.018154367  0.017919939         3960 
 1530000   0.64695372    -7.573787    333.69731  0.018175235  0.017904134         3954 
 1531000   0.64193077   -7.5617205    333.23232  0.018138053  0.017888339         3956 
 1532000   0.63716192   -7.5773003    333.55541  0.018143789  0.017872556         3962 
 1533000   0.62810143   -7.6004108    333.38053  0.018122447  0.017856785         3971 
 1534000   0.63646163   -7.5946902    333.46401  0.018115168  0.017841029         3969 
 1535000   0.64629006   -7.5941733    332.71961  0.018062954  0.017825299         3957 
 1536000   0.63142003   -7.5851142    333.71396  0.018105141  0.017809568         3958 
 1537000   0.63169498   -7.5871675    333.76871   0.01809633  0.017793861         3953 
 1538000   0.64803946    -7.599965    334.04742  0.018099665  0.017778167         3971 
 1539000   0.64440693   -7.5854171    334.02153  0.018086502  0.017762488         3966 
 1540000   0.63202858    -7.589986    333.37596  0.018039825  0.017746813         3969 
 1541000   0.64211648   -7.5988803    333.65864  0.018043404  0.017731162         3966 
 1542000   0.65022496   -7.5957296    333.40611  0.018018056  0.017715516         3963 
 1543000    0.6327267   -7.5891532    333.66857  0.018020553  0.017699881         3952 
 1544000    0.6375264    -7.591088     334.2095  0.018038078  0.017684244         3966 
 1545000    0.6293138   -7.5856989    333.66958   0.01799728  0.017668646         3967 
 1546000   0.63802406   -7.6135393    333.28112    0.0179647   0.01765305         3960 
 1547000   0.64909011   -7.5850121    333.42188   0.01796067  0.017637479         3967 
 1548000   0.64210192   -7.5982807    333.55103   0.01795602  0.017621918         3970 
 1549000    0.6244049   -7.5892723    333.51585  0.017942535  0.017606354         3965 
 1550000   0.62418383   -7.5916727    333.42717  0.017926192  0.017590819         3975 
 1551000   0.63442453    -7.596531    333.34587  0.017910266  0.017575288         3968 
 1552000   0.63917189   -7.6034697    332.87463  0.017873423  0.017559766         3968 
 1553000   0.63392428   -7.6088914    332.77273  0.017856446  0.017544265         3973 
 1554000   0.63445385   -7.6019546    333.06344  0.017860545  0.017528779         3964 
 1555000   0.62082686   -7.6315824    333.49599   0.01787224  0.017513315         3965 
 1556000   0.62369069   -7.5925399    333.43205  0.017857329  0.017497842         3972 
 1557000   0.62849606   -7.5931021    332.84159  0.017814258  0.017482393         3968 
 1558000   0.62121234   -7.5903042    333.63995  0.017845526  0.017466952         3967 
 1559000   0.62088135   -7.6041929    333.35305  0.017818743  0.017451537         3974 
 1560000   0.62517606   -7.6201322    332.55732  0.017764814  0.017436123         3976 
 1561000   0.63030517   -7.5917087    333.11411  0.017783158  0.017420716         3977 
 1562000   0.64044088   -7.6274293    333.73889  0.017805105  0.017405341         3967 
 1563000   0.62941295   -7.5959473    332.82796  0.017745146  0.017389962         3974 
 1564000   0.61672623   -7.6003792    332.75886  0.017730118  0.017374614         3973 
 1565000   0.63603876   -7.5945866    332.81287  0.017721665   0.01735928         3969 
 1566000     0.616933    -7.595898    333.32689  0.017737702  0.017343951         3975 
 1567000   0.63469086   -7.5785882    332.99938  0.017708965  0.017328629         3971 
 1568000   0.61520864   -7.6211671    332.60696  0.017676816  0.017313328         3977 
 1569000   0.62778459    -7.616318    333.33446  0.017704188  0.017298035         3979 
 1570000   0.62657619   -7.6220541    333.60946  0.017707509   0.01728276         3967 
 1571000   0.62590035   -7.6116574    332.92789  0.017660083  0.017267511         3969 
 1572000   0.63338329   -7.6418879    333.17864  0.017662141  0.017252267         3973 
 1573000   0.60461093   -7.6149573    333.52489  0.017669257  0.017237048         3973 
 1574000   0.62556951   -7.6192325    332.97957   0.01762916  0.017221841         3972 
 1575000   0.61722041   -7.6099824    333.04299  0.017621322  0.017206628         3976 
 1576000   0.60917912   -7.6235557     333.0419  0.017610084  0.017191434         3960 
 1577000   0.61801552   -7.6224726     332.5131  0.017570973  0.017176264         3981 
 1578000   0.61865586   -7.6146234    332.82129  0.017576114  0.017161104         3968 
 1579000    0.6285579   -7.6010431     332.6994   0.01755855  0.017145952         3977 
 1580000   0.61878876   -7.6173294    333.32638  0.017580505  0.017130819         3978 
 1581000   0.64013912   -7.6205547    333.60249  0.017583939  0.017115701         3979 
 1582000   0.60772536    -7.613049    333.38641  0.017561442  0.017100592         3965 
 1583000   0.65084785   -7.6215584    333.01212  0.017530645  0.017085499         3971 
 1584000   0.63332712   -7.6037762    332.20673  0.017477206  0.017070431         3977 
 1585000    0.6158947   -7.6239193    332.74065  0.017494251  0.017055375         3973 
 1586000    0.6197444   -7.6033518    332.91702  0.017492487  0.017040335         3972 
 1587000   0.62623379   -7.6123255    333.07604  0.017489815  0.017025311         3971 
 1588000    0.6277681   -7.6428834    333.07756  0.017478881   0.01701029         3972 
 1589000   0.63226252   -7.6148714    332.81178  0.017453943   0.01699528         3967 
 1590000   0.62618182   -7.6050824    332.71095  0.017437681  0.016980299         3969 
 1591000   0.62119407   -7.6306004     332.5057   0.01741597  0.016965322         3976 
 1592000   0.62272675   -7.6057252    333.38054  0.017450824  0.016950357         3967 
 1593000   0.61437581   -7.6357434    333.03996  0.017422053  0.016935406         3971 
 1594000   0.62019974   -7.6348256    332.85759  0.017401589  0.016920463         3978 
 1595000   0.61658985   -7.6197788    333.04862  0.017400659  0.016905534         3966 
 1596000   0.60925306   -7.6265637    333.07613  0.017391193  0.016890622         3978 
 1597000   0.63324375   -7.5978777    332.72283  0.017361868  0.016875728         3971 
 1598000   0.60715776   -7.6195101    332.76238  0.017353065  0.016860846         3966 
 1599000   0.61010538   -7.6381608    332.51152  0.017329139  0.016845968         3973 
 1600000   0.60875876   -7.6027264    332.58196  0.017321977  0.016831117         3967 
 1601000   0.60792532   -7.6247788     332.6839  0.017316464  0.016816277         3980 
 1602000   0.61874312   -7.6282835    332.55389  0.017298891  0.016801457         3976 
 1603000   0.60785657   -7.6245541    332.50493  0.017285555  0.016786651         3974 
 1604000   0.61258613   -7.6455185    333.33892  0.017318107  0.016771839         3979 
 1605000   0.61705641   -7.6098837    332.66178  0.017272159  0.016757054         3966 
 1606000   0.60504435   -7.6389952    332.76221  0.017266615  0.016742293         3974 
 1607000     0.621272   -7.6369358    332.43792  0.017239054  0.016727545         3975 
 1608000   0.61979957   -7.6276148    332.45364  0.017229148  0.016712813         3971 
 1609000   0.60776698   -7.6125895    332.73326  0.017232922  0.016698087         3973 
 1610000   0.61785499   -7.6267337    332.84664  0.017228087  0.016683379         3963 
 1611000    0.6054662   -7.6348527    332.67662  0.017208598  0.016668682         3969 
 1612000   0.62039311   -7.6348413    332.73292  0.017200833  0.016653991         3978 
 1613000   0.61024494   -7.6344927    332.79819  0.017193542  0.016639319         3974 
 1614000   0.61716462   -7.6409953    332.21858  0.017152963   0.01662467         3977 
 1615000   0.61008327   -7.6496149    332.64574  0.017164383  0.016610021         3976 
 1616000   0.61041478   -7.6281755    332.51465  0.017147001  0.016595391         3977 
 1617000   0.61724249   -7.6298689    332.03321  0.017111586  0.016580762         3976 
 1618000    0.6077178   -7.6371415    332.51801  0.017125979  0.016566156         3974 
 1619000   0.60911514   -7.6520855    332.48158  0.017113526  0.016551568         3976 
 1620000   0.61209816   -7.6539346    332.35434  0.017096417  0.016536992         3976 
 1621000   0.59775951   -7.6376784    332.87289  0.017112527  0.016522439         3981 
 1622000   0.60754993   -7.6257353    332.46991  0.017081274  0.016507885         3966 
 1623000   0.60735461   -7.6376354    332.10236  0.017051877  0.016493346         3972 
 1624000   0.61751937   -7.6320973    332.76348  0.017075302  0.016478842         3962 
 1625000    0.5982058   -7.6367907    332.36548  0.017044383  0.016464328         3973 
 1626000   0.59619103   -7.6466912    333.05787  0.017069386  0.016449844         3972 
 1627000   0.60125626   -7.6372226    333.23607  0.017068022   0.01643537         3982 
 1628000   0.60425208   -7.6211808    332.28647  0.017008931  0.016420912         3971 
 1629000   0.60851512   -7.6391441     332.5553  0.017012242  0.016406465         3972 
 1630000   0.61431583   -7.6492589    332.51535  0.016999762  0.016392036         3980 
 1631000   0.58785973   -7.6362653    332.13452  0.016969881   0.01637762         3975 
 1632000   0.60793923   -7.6514367    333.07901  0.017007711  0.016363217         3965 
 1633000   0.59715757   -7.6371409    332.25401  0.016955195  0.016348834         3977 
 1634000   0.60311377   -7.6396998    332.67321  0.016966198  0.016334452         3973 
 1635000   0.60254916   -7.6503523    332.02439  0.016922752  0.016320094         3978 
 1636000   0.61961022   -7.6546259    332.13711  0.016918149  0.016305743         3970 
 1637000   0.61029462   -7.6500213    332.55275  0.016928973  0.016291412         3971 
 1638000   0.60350581   -7.6454429    332.39607  0.016910667  0.016277091         3974 
 1639000   0.58990002   -7.6208065    332.28709  0.016894808  0.016262782         3976 
 1640000   0.59902381   -7.6357596    332.22369  0.016881285  0.016248489         3967 
 1641000   0.59840112   -7.6368055    332.41235  0.016880578  0.016234212         3968 
 1642000   0.60267745   -7.6356004     333.0282  0.016901553   0.01621995         3968 
 1643000   0.59734437   -7.6346448    332.25191  0.016851892  0.016205709         3970 
 1644000    0.6040425   -7.6611343    332.17435   0.01683771  0.016191488         3971 
 1645000   0.60188732   -7.6637167    332.33445  0.016835585   0.01617727         3970 
 1646000   0.58425511   -7.6373737    332.07962  0.016812456  0.016163073         3975 
 1647000   0.59901447   -7.6484077    332.02015  0.016799238  0.016148874         3971 
 1648000   0.58456695   -7.6462274     332.0537  0.016790741  0.016134686         3970 
 1649000   0.59202748   -7.6682065    332.02965  0.016779344  0.016120509         3972 
 1650000   0.59557169   -7.6405824    331.52194  0.016743532  0.016106368         3967 
 1651000   0.60305098   -7.6586662    332.62369  0.016789001  0.016092228         3967 
 1652000   0.61581297   -7.6489986    332.03894  0.016749341  0.016078102         3975 
 1653000   0.58986711   -7.6562611    332.46311  0.016760592  0.016063991         3965 
 1654000   0.58875195   -7.6406899    332.67602  0.016761186  0.016049895         3972 
 1655000   0.59940801   -7.6602405    332.32663  0.016733466  0.016035809         3966 
 1656000   0.58303706     -7.66648    332.20542  0.016717261  0.016021737         3972 
 1657000   0.58784001   -7.6644691    332.38956  0.016716433  0.016007683         3970 
 1658000   0.58321332   -7.6641596     331.6721   0.01667029  0.015993645         3971 
 1659000   0.59575165   -7.6722958    332.65259  0.016709493  0.015979628         3971 
 1660000   0.59277952   -7.6608632    332.26232  0.016679835  0.015965614         3971 
 1661000   0.58721215      -7.6603    331.65189  0.016639168  0.015951617         3974 
 1662000   0.59314531   -7.6524352    331.97892  0.016645554  0.015937627         3969 
 1663000   0.60180379   -7.6417054    332.78301  0.016675837  0.015923657         3969 
 1664000   0.57654536   -7.6776505    332.37995  0.016645631  0.015909698         3974 
 1665000   0.59894909   -7.6555353    332.76878  0.016655094  0.015895762         3974 
 1666000    0.5889906   -7.6674753    332.80978  0.016647148  0.015881829         3964 
 1667000   0.57999462   -7.6468647    331.55356  0.016574363  0.015867909         3975 
 1668000   0.59792113   -7.6763515    331.98641  0.016586052  0.015854006         3972 
 1669000   0.59186045   -7.6565304    331.96333  0.016574962  0.015840113         3972 
 1670000   0.58086417   -7.6452429    332.15441  0.016574571   0.01582625         3969 
 1671000   0.59204754    -7.652167    332.13284  0.016563577  0.015812392         3971 
 1672000   0.59678181   -7.6705699    331.31344  0.016512831  0.015798553         3967 
 1673000   0.58616861   -7.6896016    331.99937  0.016537127  0.015784709         3973 
 1674000   0.57561888   -7.6608887    331.51382  0.016503077  0.015770889         3973 
 1675000   0.59798345   -7.6703677      331.674  0.016501194  0.015757072         3968 
 1676000   0.58956916   -7.6814031    331.97195  0.016506163  0.015743274         3968 
 1677000   0.57853149   -7.6656572     331.7637  0.016485972  0.015729504         3967 
 1678000   0.59717703   -7.6638089    331.80672  0.016478284  0.015715745         3964 
 1679000   0.56382668   -7.6825705    331.88237  0.016472224  0.015701998         3962 
 1680000    0.5882977   -7.6485799    332.03789  0.016470133  0.015688268         3970 
 1681000   0.57878517   -7.6796319    331.69336  0.016443256  0.015674547         3973 
 1682000   0.57695195   -7.6638543    331.81184   0.01643935  0.015660845         3973 
 1683000   0.59513253   -7.6679613    331.99358  0.016438581  0.015647146         3967 
 1684000   0.58625426   -7.6750769    331.84861  0.016421645  0.015633467         3973 
 1685000   0.57457387   -7.6826108    331.65889  0.016402517  0.015619801         3972 
 1686000   0.58169635   -7.6747749    332.55801  0.016437229  0.015606148         3969 
 1687000   0.58486162   -7.6874327    331.62668   0.01638148  0.015592501         3969 
 1688000   0.58248392   -7.6638376    331.96202  0.016388331  0.015578871         3977 
 1689000   0.57809629   -7.6808088    332.26708  0.016393679  0.015565258         3975 
 1690000   0.56575792   -7.6744148     332.2662  0.016383935  0.015551653         3972 
 1691000   0.58092754   -7.6985898    331.82605  0.016352555  0.015538072         3970 
 1692000   0.58568216   -7.6801501    332.10991  0.016356871  0.015524502         3970 
 1693000   0.57128279   -7.6711742    332.27766  0.016355466   0.01551095         3966 
 1694000   0.58282407   -7.6924602    331.60328  0.016312637    0.0154974         3966 
 1695000   0.57224268    -7.667806    331.33632  0.016289888  0.015483868         3970 
 1696000   0.57731366   -7.7008066    331.09549   0.01626845  0.015470349         3967 
 1697000   0.56785447   -7.6757173    332.06411  0.016306428  0.015456842         3970 
 1698000   0.57423954   -7.6965555    331.79892   0.01628381  0.015443361         3972 
 1699000   0.58241985   -7.6837706    331.84353  0.016276414  0.015429887         3974 
 1700000   0.57973225   -7.6736525     331.2164  0.016236098  0.015416423         3969 
 1701000   0.58586528   -7.6764619    332.01261   0.01626556  0.015402975         3970 
 1702000   0.58171295    -7.677576    331.62829  0.016237186  0.015389533         3966 
 1703000   0.57899591   -7.6836398    331.65759  0.016229085  0.015376122         3963 
 1704000   0.56826447   -7.7049052    332.08188  0.016240311  0.015362719         3968 
 1705000   0.57137332   -7.6774121    332.26156  0.016239568  0.015349324         3972 
 1706000   0.57626122    -7.689153    332.11936  0.016223103  0.015335954         3967 
 1707000   0.57818637   -7.6665981    331.28271  0.016172755  0.015322593         3972 
 1708000    0.5584283   -7.6790978    331.53287  0.016175491  0.015309238         3966 
 1709000   0.56669506   -7.6859818     332.1291  0.016195099  0.015295899         3968 
 1710000   0.56987369    -7.687048    331.65612  0.016162579  0.015282585         3971 
 1711000   0.56605468   -7.6953158    331.76841  0.016158602  0.015269278         3967 
 1712000   0.56429397   -7.6980998    332.14817  0.016167649  0.015255974         3973 
 1713000   0.56967354   -7.7026658    331.26366  0.016115181  0.015242691         3975 
 1714000   0.57264443   -7.6793684    331.39807  0.016112314  0.015229413         3965 
 1715000   0.56872799   -7.6824338    332.12614  0.016138297  0.015216168         3973 
 1716000   0.57913992   -7.6907062    331.92921  0.016119329  0.015202929         3977 
 1717000    0.5695443   -7.6849214    331.71947  0.016099761  0.015189697         3970 
 1718000    0.5700877   -7.6940629    331.11861  0.016061244   0.01517648         3969 
 1719000   0.57745346   -7.6798524    331.98987  0.016094137  0.015163281         3976 
 1720000   0.56324599   -7.6803226    331.28734  0.016050743  0.015150097         3966 
 1721000   0.57251382   -7.6999895    331.60544   0.01605682   0.01513693         3968 
 1722000   0.57489739   -7.6818778    331.57676  0.016046107   0.01512376         3973 
 1723000   0.57496958   -7.6855738    331.05749   0.01601168  0.015110624         3967 
 1724000   0.55974982    -7.697065    331.47629  0.016022636  0.015097498         3974 
 1725000   0.56928858   -7.6990794    331.23622   0.01600175  0.015084373         3969 
 1726000   0.53852831   -7.6984841    331.27302  0.015994256  0.015071264         3970 
 1727000   0.56948619   -7.6842501    331.63825  0.016002618   0.01505817         3962 
 1728000    0.5724092   -7.6783942    331.87388   0.01600472  0.015045097         3978 
 1729000   0.56733084   -7.6942099    331.65944  0.015985128  0.015032037         3975 
 1730000   0.55736395   -7.7073005    331.15536  0.015951607  0.015018987         3967 
 1731000   0.54562518   -7.6989723     331.3446  0.015951502   0.01500593         3974 
 1732000   0.56300558   -7.7075846    332.05783  0.015976609  0.014992908         3967 
 1733000   0.57516375   -7.7017902    331.19853  0.015926069  0.014979896         3975 
 1734000   0.56805844   -7.6829763    330.99804  0.015907249  0.014966899         3971 
 1735000   0.56491572   -7.6899892    331.42892  0.015918776  0.014953926         3974 
 1736000   0.56284481   -7.6812655    331.25613  0.015901312  0.014940951         3973 
 1737000   0.57579537   -7.6962683    331.99925  0.015927809  0.014927995         3974 
 1738000   0.55270842   -7.6849096    331.34683  0.015887362  0.014915052         3974 
 1739000   0.55473918   -7.6879991    331.49227  0.015885196  0.014902115         3969 
 1740000   0.55558019   -7.7167512     331.7171  0.015886834  0.014889198         3975 
 1741000   0.56192179    -7.684969    331.66656   0.01587529  0.014876287         3974 
 1742000   0.54975398   -7.6934681    331.35388  0.015851219  0.014863391         3971 
 1743000   0.55046699   -7.7035534      330.913  0.015821046  0.014850519         3973 
 1744000   0.54899224   -7.6979762    330.84766  0.015808852  0.014837651         3974 
 1745000   0.55684625   -7.6836466     331.4791  0.015829947  0.014824797         3977 
 1746000   0.55891819   -7.6874181    331.23464  0.015809213  0.014811959         3974 
 1747000    0.5484163   -7.6959781    331.22439  0.015799675   0.01479915         3972 
 1748000   0.57448279   -7.6998186    331.64067  0.015810482  0.014786332         3971 
 1749000   0.55530763   -7.6980334     331.4609  0.015792877   0.01477354         3972 
 1750000   0.55109102   -7.6921841    331.14506  0.015768813  0.014760758         3969 
 1751000   0.54702381   -7.6998066    331.86475  0.015794058  0.014747984         3968 
 1752000   0.55134148   -7.7021795    331.45827  0.015765709  0.014735218         3969 
 1753000   0.56264431   -7.7166746    331.50047  0.015758721  0.014722475         3972 
 1754000   0.56933434   -7.6971476     331.0463   0.01572816  0.014709743         3976 
 1755000     0.551025   -7.7013589    331.29551  0.015731031  0.014697024         3971 
 1756000   0.55688776   -7.7058364    331.20537  0.015717795  0.014684324         3980 
 1757000   0.55714538   -7.7160771    331.28042  0.015712408  0.014671632         3972 
 1758000   0.54837338   -7.7116533    331.53025  0.015715313  0.014658957         3975 
 1759000   0.55431177   -7.7104564    331.09066  0.015685553  0.014646288         3977 
 1760000   0.55176253   -7.6917677    331.56973  0.015699324   0.01463364         3972 
 1761000   0.54832534   -7.7100145    331.29089  0.015677214     0.014621         3971 
 1762000    0.5413624   -7.7247798     331.2329  0.015665574   0.01460838         3972 
 1763000   0.55390404   -7.7010527    331.43411  0.015666199  0.014595778         3973 
 1764000   0.55520568   -7.7205885    331.17507  0.015645081  0.014583183         3973 
 1765000   0.54287929   -7.7009902     331.4767  0.015650458  0.014570604         3974 
 1766000   0.54706727   -7.7329837    331.46878  0.015641222  0.014558045         3975 
 1767000   0.55120751   -7.7217353    331.27946  0.015623442  0.014545498         3974 
 1768000   0.54628022   -7.7274946    331.11016  0.015606625  0.014532957         3978 
 1769000   0.55121536   -7.7092719    331.09759  0.015597211  0.014520428         3975 
 1770000   0.55260234   -7.7401929    331.64744  0.015614286  0.014507912         3977 
 1771000   0.53985008   -7.7189873    331.43141  0.015595305  0.014495407         3976 
 1772000   0.54859191   -7.7218776    331.51861  0.015590604  0.014482919         3971 
 1773000   0.54661876   -7.7060317    330.93286   0.01555428  0.014470438         3969 
 1774000   0.54423816   -7.7209727    330.70769  0.015534935  0.014457978         3968 
 1775000   0.54527036   -7.7210184    331.82784  0.015578772  0.014445534         3970 
 1776000   0.55571807   -7.7219469     330.8861  0.015525812  0.014433099         3972 
 1777000   0.54616346   -7.7124403    330.52524  0.015500152   0.01442067         3976 
 1778000   0.54585027   -7.7138175    331.20081  0.015523097  0.014408265         3981 
 1779000   0.54436842   -7.7197606    331.12854  0.015510987  0.014395872         3979 
 1780000   0.55308134   -7.7060501    331.47376  0.015518435  0.014383493         3977 
 1781000   0.55365058   -7.7209015    331.30661    0.0155019   0.01437112         3967 
 1782000   0.54017374   -7.7217223    331.38334  0.015496789  0.014358765         3979 
 1783000   0.54527017   -7.7295302     330.8693  0.015464073  0.014346422         3980 
 1784000   0.53688665   -7.7258599     330.9209  0.015457815  0.014334092         3975 
 1785000   0.53898488   -7.7375374    331.47461  0.015475005   0.01432177         3980 
 1786000   0.53763604   -7.7155193    330.69573  0.015429999  0.014309473         3971 
 1787000   0.54745881   -7.7342387    330.87155  0.015429563  0.014297166         3967 
 1788000   0.54562446   -7.7291304    330.68129  0.015412066  0.014284879         3980 
 1789000   0.53612424   -7.7177085    330.93215  0.015415137    0.0142726         3975 
 1790000   0.53268916   -7.7171392    330.95356  0.015407521  0.014260347         3973 
 1791000   0.54330595   -7.7317935    330.97696  0.015400007  0.014248092         3970 
 1792000   0.54417854   -7.7270271    331.00977  0.015392939  0.014235858         3977 
 1793000   0.53074587   -7.7260856     331.1053  0.015388794  0.014223642         3977 
 1794000   0.54342029   -7.7356434    331.40074   0.01539394  0.014211435         3971 
 1795000     0.524881    -7.736583    330.82713  0.015358734  0.014199243         3974 
 1796000   0.54454816   -7.7270053    331.33915   0.01537394  0.014187055         3976 
 1797000   0.54796489    -7.712801    331.00305  0.015349798   0.01417489         3971 
 1798000   0.53127789   -7.7327498     330.5471  0.015320129  0.014162735         3973 
 1799000   0.53376591   -7.7629719     331.1104  0.015337706  0.014150593         3973 
 1800000   0.52646861   -7.7423692    330.87945  0.015318493  0.014138463         3979 
 1801000    0.5365835   -7.7318363    330.75115  0.015304051  0.014126356         3968 
 1802000   0.52342781   -7.7302453    330.59499  0.015288336  0.014114243         3977 
 1803000   0.52846341   -7.7269162    330.59089  0.015279667  0.014102154         3971 
 1804000   0.52443272   -7.7252103     330.4821  0.015266172  0.014090071         3970 
 1805000   0.51955022    -7.721757    330.72432  0.015268898     0.014078         3973 
 1806000   0.54055507   -7.7435953    331.09072   0.01527735  0.014065951         3973 
 1807000   0.53702653   -7.7341212    330.20238  0.015227928  0.014053911         3972 
 1808000    0.5238744   -7.7432473    330.82286  0.015248104   0.01404188         3970 
 1809000   0.52638648   -7.7259285    330.63591  0.015231063  0.014029871         3979 
 1810000   0.53114758   -7.7282667    330.94384  0.015236825  0.014017874         3970 
 1811000   0.52161195   -7.7390164    330.67793  0.015216176  0.014005881         3974 
 1812000   0.52554536   -7.7372054    330.71686  0.015209569  0.013993903         3976 
 1813000   0.53117949    -7.729579    331.06824   0.01521733  0.013981935         3974 
 1814000   0.53545635   -7.7445241    331.14133  0.015212299  0.013969975         3971 
 1815000   0.53311285    -7.737908    331.14516  0.015204094  0.013958028         3975 
 1816000   0.52169574   -7.7176682    330.67755  0.015174263  0.013946098         3977 
 1817000   0.53549493   -7.7449674    331.03435  0.015182276   0.01393418         3976 
 1818000   0.52902826   -7.7164576    330.81065  0.015163671  0.013922272         3975 
 1819000   0.53017839   -7.7421355    330.07709  0.015121729  0.013910375         3977 
 1820000   0.52746649   -7.7366768    330.89351  0.015150802  0.013898496         3980 
 1821000   0.52008079   -7.7358515    330.60558  0.015129305  0.013886626         3976 
 1822000   0.52801186   -7.7339192    330.45712  0.015114211  0.013874772         3970 
 1823000   0.51918121   -7.7504918    330.48672  0.015107274  0.013862932         3979 
 1824000   0.52554242   -7.7543976    330.25521  0.015088414  0.013851097         3978 
 1825000    0.5255644   -7.7312577     330.6323  0.015097365  0.013839279         3974 
 1826000   0.51480421   -7.7260936    330.84848  0.015098963   0.01382747         3969 
 1827000   0.54167418   -7.7507887    331.15726  0.015104783  0.013815682         3975 
 1828000   0.51846669   -7.7495949    330.68078  0.015074798  0.013803901         3974 
 1829000    0.5084199   -7.7369571    330.66986  0.015066059  0.013792135         3966 
 1830000   0.51646618   -7.7436484    330.31422  0.015041631  0.013780383         3975 
 1831000   0.51900702   -7.7398676     330.4161  0.015038053   0.01376864         3978 
 1832000   0.52581898   -7.7542681    330.80027   0.01504732  0.013756905         3974 
 1833000   0.52111252   -7.7463811     330.8996  0.015043626  0.013745182         3975 
 1834000   0.52487982   -7.7607897    330.30286  0.015008309  0.013733477         3976 
 1835000   0.51639352   -7.7523893     330.5786  0.015012652  0.013721783         3979 
 1836000    0.5223422   -7.7525728    330.89692  0.015018923  0.013710107         3973 
 1837000   0.52896839   -7.7666922    330.75891  0.015004487  0.013698437         3970 
 1838000   0.53119625   -7.7531037    330.45695  0.014982633  0.013686787         3975 
 1839000   0.50971178   -7.7547403    330.71985  0.014986399   0.01367514         3974 
 1840000   0.50862408   -7.7622276    330.48258  0.014967508  0.013663503         3974 
 1841000    0.5245366   -7.7539653    330.87382  0.014977088  0.013651886         3981 
 1842000   0.52170628   -7.7521691     330.8049  0.014965839  0.013640276         3976 
 1843000   0.51088707    -7.762965    330.66551  0.014951416  0.013628679         3980 
 1844000   0.50848065   -7.7533711    330.49504  0.014935604  0.013617099         3973 
 1845000   0.52045546    -7.746535    330.41928  0.014924087  0.013605525         3975 
 1846000   0.52393531   -7.7482901    330.89235  0.014937358  0.013593972         3977 
 1847000   0.53723695   -7.7381714    330.57763  0.014915071  0.013582434         3972 
 1848000   0.50816391   -7.7586722    330.35561  0.014896988  0.013570903         3975 
 1849000   0.51280376   -7.7712109    331.22845   0.01492827  0.013559384         3977 
 1850000   0.51442176   -7.7540973     330.3825  0.014882094  0.013547868         3971 
 1851000   0.51887548   -7.7433672    330.06508  0.014859764  0.013536369         3972 
 1852000   0.51944321   -7.7340884    330.43429  0.014868354  0.013524883         3979 
 1853000   0.51013087   -7.7587734    330.33863  0.014856028  0.013513405         3978 
 1854000    0.5091827   -7.7498045    330.57648  0.014858705  0.013501945         3979 
 1855000   0.50745945   -7.7575007    330.49167  0.014846885  0.013490504         3975 
 1856000   0.50938169   -7.7705452    329.86296  0.014810657  0.013479065         3979 
 1857000    0.5146086   -7.7530852    330.42092   0.01482772  0.013467639         3978 
 1858000   0.50671918    -7.766116    330.26598   0.01481279  0.013456226         3981 
 1859000   0.52311954   -7.7646478    329.82549  0.014785076  0.013444826         3978 
 1860000   0.52090193   -7.7608067    330.62165  0.014812798  0.013433436         3980 
 1861000   0.49509697   -7.7671791    330.18445  0.014785261  0.013422064         3976 
 1862000   0.50943996   -7.7476994    330.06984  0.014772191   0.01341069         3973 
 1863000   0.50883056   -7.7591334    330.15798  0.014768204   0.01339934         3978 
 1864000   0.51265303   -7.7546345    330.08925  0.014757209  0.013387992         3976 
 1865000   0.50991848   -7.7635604    330.30824  0.014759081  0.013376663         3981 
 1866000   0.51085029   -7.7627159    330.66536  0.014767121  0.013365346         3977 
 1867000   0.50618525   -7.7453979    330.04639  0.014731583  0.013354039         3975 
 1868000   0.51313705   -7.7661577    330.27358  0.014733832  0.013342737         3976 
 1869000   0.51536218    -7.760951    330.54649  0.014738117  0.013331457         3974 
 1870000   0.50718547   -7.7569994    330.22859  0.014716069  0.013320182         3975 
 1871000   0.50573629   -7.7575584    330.16032  0.014705163   0.01330892         3977 
 1872000   0.51082483   -7.7638223    329.97932   0.01468925  0.013297672         3979 
 1873000   0.50996976   -7.7573454    330.21817  0.014692034  0.013286439         3966 
 1874000   0.50499807   -7.7649639    330.61494  0.014701838  0.013275215         3981 
 1875000   0.50666491   -7.7674487     330.2047  0.014675765  0.013264002         3968 
 1876000   0.49726591    -7.785039    330.11806  0.014664093  0.013252803         3974 
 1877000    0.5020701    -7.772476    329.78914  0.014641677  0.013241616         3976 
 1878000   0.50086589   -7.7708645    330.37883  0.014660048  0.013230446         3970 
 1879000   0.50478709   -7.7719698    330.06112  0.014638155  0.013219282         3973 
 1880000   0.51433818   -7.7714612    330.00262  0.014627775  0.013208126         3972 
 1881000   0.50893843   -7.7633665    329.74003  0.014608366  0.013196984         3975 
 1882000   0.50886761   -7.7549629    330.36237   0.01462816  0.013185867         3972 
 1883000   0.49255253    -7.777182    329.71432  0.014591712  0.013174749         3978 
 1884000   0.50549325   -7.7686544    330.63842  0.014624842  0.013163644         3976 
 1885000   0.49334585   -7.7688169    329.85793  0.014582579  0.013152556         3982 
 1886000   0.50973277   -7.7854133    330.08045  0.014584679  0.013141475         3977 
 1887000   0.49955252   -7.7832271    330.16006  0.014580465  0.013130414         3978 
 1888000    0.5004022   -7.7730872    329.90532  0.014561499  0.013119358         3978 
 1889000    0.5137629   -7.7640722    330.20855  0.014567167  0.013108314         3979 
 1890000   0.49966989   -7.7734714    329.84266  0.014543327  0.013097285         3982 
 1891000   0.50561567    -7.784465    330.23402  0.014552883  0.013086264         3973 
 1892000   0.50862312   -7.7724352    330.06618  0.014537799  0.013075246         3982 
 1893000   0.50667345   -7.7860915    330.42554  0.014545939  0.013064253         3972 
 1894000   0.49642491   -7.7753175    329.98618  0.014518928  0.013053267         3978 
 1895000   0.51556048   -7.7702352    330.17548   0.01451959  0.013042293         3974 
 1896000   0.50543869   -7.7744706    329.72915  0.014492315  0.013031329         3978 
 1897000   0.49712255   -7.7717602    329.89937  0.014492153  0.013020376         3978 
 1898000   0.49360638   -7.7689819    329.89064  0.014484134  0.013009439         3978 
 1899000   0.50048854   -7.7636366     329.7129  0.014468707  0.012998512         3972 
 1900000    0.4999479   -7.7646791    330.09479  0.014477842  0.012987596         3970 
 1901000   0.49920647   -7.7971963     330.3417  0.014481049  0.012976695         3978 
 1902000   0.49965379   -7.7824767    329.61141  0.014441439    0.0129658         3979 
 1903000   0.50096203   -7.7777592    330.36209  0.014466723  0.012954915         3978 
 1904000   0.50038361   -7.7825799    329.97878  0.014442349  0.012944042         3974 
 1905000   0.48811045   -7.7809144    330.35779  0.014451347  0.012933184         3980 
 1906000   0.48677149   -7.7705472    329.73692  0.014416619  0.012922335         3981 
 1907000   0.49057638   -7.7898585    330.33405  0.014435153  0.012911492         3977 
 1908000   0.49119286   -7.7941582    329.80368  0.014404423  0.012900674         3977 
 1909000   0.49650411   -7.7945854    329.85373  0.014399063  0.012889864         3973 
 1910000   0.49737779    -7.787948    329.79765  0.014389077   0.01287906         3982 
 1911000   0.48489716   -7.7878622     330.1771  0.014398095  0.012868267         3978 
 1912000   0.48886512   -7.7917094    330.27159  0.014394682  0.012857489         3980 
 1913000   0.48757128   -7.7886134     330.1281  0.014380907  0.012846719         3972 
 1914000   0.48399855   -7.7921559    329.74428  0.014356682  0.012835967         3975 
 1915000   0.49732489   -7.7984275    330.19563  0.014368826  0.012825217         3981 
 1916000   0.49580754    -7.781533    329.57953  0.014334531   0.01281448         3980 
 1917000   0.49096472    -7.789601    329.79606  0.014336466  0.012803758         3980 
 1918000   0.48756369   -7.8038345    330.50316  0.014359713  0.012793044         3977 
 1919000   0.47731813   -7.7788924    329.77708    0.0143207  0.012782344         3979 
 1920000   0.48986669   -7.7933216    329.55965  0.014303804  0.012771659         3978 
 1921000   0.47046842   -7.7757595    329.58066  0.014297269  0.012760985         3976 
 1922000   0.47645531   -7.7822598    329.53277  0.014287755  0.012750319         3982 
 1923000   0.48854225   -7.7949625    330.05981  0.014303164  0.012739671         3978 
 1924000    0.4851503    -7.782154    329.66787  0.014278754  0.012729023         3980 
 1925000   0.47156938   -7.7749898     329.4647  0.014262541  0.012718394         3976 
 1926000   0.48157469   -7.7974753    329.68905  0.014264843  0.012707775         3980 
 1927000    0.4897524   -7.7836133     329.6437  0.014255479  0.012697167         3978 
 1928000   0.47974314   -7.7950946    329.58219  0.014245427  0.012686577         3979 
 1929000   0.47812874   -7.7929546    329.10643  0.014217489  0.012675986         3980 
 1930000   0.48564404   -7.7941391    329.23456  0.014215654  0.012665411         3980 
 1931000   0.49693347   -7.8063725    329.73724  0.014229986  0.012654849         3979 
 1932000   0.47169292   -7.7914736    329.99521  0.014233748  0.012644295         3971 
 1933000   0.49104306   -7.8028352     329.8751  0.014221206   0.01263376         3985 
 1934000    0.4850102   -7.7931291    329.48946  0.014197236   0.01262323         3973 
 1935000   0.48085496   -7.8003664    329.37109  0.014184801  0.012612706         3980 
 1936000   0.47687016    -7.792839    329.65097  0.014189522  0.012602197         3978 
 1937000   0.48331666   -7.7864532    329.51018  0.014176139  0.012591695         3983 
 1938000   0.47949252   -7.8132164    329.42289  0.014165071  0.012581203         3981 
 1939000   0.47509435   -7.7932768    329.87132  0.014177038  0.012570734         3978 
 1940000   0.47244563   -7.8005698    329.36937  0.014148169  0.012560267         3979 
 1941000   0.47739919   -7.7986579    329.43738  0.014143799  0.012549816         3981 
 1942000   0.47966571   -7.7997676    329.32802  0.014131824  0.012539375         3976 
 1943000   0.47451514   -7.8158365    329.71437  0.014141121  0.012528945         3983 
 1944000   0.46981423    -7.795641    329.55364  0.014126956  0.012518528         3975 
 1945000    0.4888145   -7.8065011     329.7182  0.014126744  0.012508118         3981 
 1946000   0.48212918   -7.7818348    329.85371  0.014125287  0.012497725         3979 
 1947000   0.47200129   -7.8133745    329.93423  0.014121479  0.012487337         3976 
 1948000   0.47865332   -7.8020518    329.70775  0.014104541  0.012476963         3980 
 1949000   0.46587672   -7.8147245    329.23429  0.014077061  0.012466597         3974 
 1950000   0.46917836   -7.8028428    329.78073  0.014093193  0.012456242         3979 
 1951000   0.47352261   -7.8071032    329.62558  0.014079343    0.0124459         3979 
 1952000   0.47665073   -7.8040682    329.46711  0.014065365  0.012435567         3979 
 1953000   0.47009569   -7.8011795    329.63327  0.014065253  0.012425243         3979 
 1954000   0.47581943     -7.80627    329.57006  0.014055359   0.01241493         3979 
 1955000    0.4734246   -7.8012267    329.55035  0.014047329  0.012404633         3983 
 1956000   0.47597484   -7.7894837    329.10307  0.014021092  0.012394341         3977 
 1957000   0.47420503   -7.8162118    329.60841  0.014035446  0.012384067         3974 
 1958000   0.46674571   -7.8191417    329.42704  0.014020558  0.012373803         3986 
 1959000   0.46926027   -7.7978272    329.60179  0.014020835  0.012363543         3973 
 1960000   0.46598498   -7.8144586    329.38726   0.01400456  0.012353294         3976 
 1961000   0.47175798   -7.8184754    329.65445  0.014008773  0.012343069         3986 
 1962000   0.46091231   -7.8015946    329.75639  0.014005963  0.012332842         3976 
 1963000   0.46053758   -7.8107156    329.27346  0.013978326  0.012322626         3979 
 1964000   0.46036374   -7.8040186    329.38109  0.013975776  0.012312419         3980 
 1965000    0.4629206   -7.8143449    329.13042  0.013958033  0.012302223         3976 
 1966000   0.46701795   -7.8177055    329.55047  0.013968738  0.012292047         3981 
 1967000   0.46146136   -7.8208259    329.58141  0.013962947  0.012281879         3980 
 1968000   0.47601832   -7.8158998    329.85372  0.013967383  0.012271716         3980 
 1969000   0.47037818   -7.8226887    329.33672  0.013938408  0.012261568         3981 
 1970000    0.4563709   -7.8175155    329.26471  0.013928287  0.012251435         3981 
 1971000   0.46201482   -7.8163325      329.264  0.013921191  0.012241305         3983 
 1972000   0.46479077   -7.7921108    329.03772  0.013904569  0.012231185         3983 
 1973000   0.46955121   -7.8140566    328.84496   0.01388938   0.01222108         3983 
 1974000   0.45746087   -7.8200785    329.16477  0.013895845  0.012210989         3980 
 1975000   0.46663973   -7.8200333    329.09737  0.013885965  0.012200905         3974 
 1976000   0.45740455   -7.8199973    329.42062   0.01389257  0.012190836         3982 
 1977000   0.45610437   -7.8170381    329.46173  0.013887276   0.01218078         3971 
 1978000   0.46360494    -7.823099    329.32581  0.013874529  0.012170731         3980 
 1979000   0.46231285   -7.8288526    329.09664  0.013857867  0.012160687         3977 
 1980000   0.47371018   -7.7942178    329.06181  0.013849403  0.012150658         3975 
 1981000   0.46560827   -7.8071963    329.05393   0.01384208  0.012140643         3985 
 1982000   0.46358961   -7.8247011    329.62424  0.013859075  0.012130634         3979 
 1983000   0.46082965   -7.8228031    329.57665  0.013850086  0.012120634         3980 
 1984000   0.45367873   -7.8207361    329.18695  0.013826737  0.012110649         3981 
 1985000   0.44571079   -7.8404204    328.95539   0.01381005  0.012100667         3975 
 1986000    0.4585687   -7.8168735    329.23368  0.013814773  0.012090701         3982 
 1987000   0.45371317   -7.8253721    329.24571  0.013808325  0.012080741         3979 
 1988000   0.45598776   -7.8153466    329.10833  0.013795621  0.012070798         3976 
 1989000   0.45164136   -7.8037456     329.0096  0.013784548  0.012060864         3982 
 1990000   0.45500606   -7.8264895    329.54375   0.01379999  0.012050936         3985 
 1991000   0.46157319   -7.8203089    329.59198  0.013795077  0.012041026         3983 
 1992000   0.45580598   -7.8223355    329.18258  0.013771025  0.012031121         3979 
 1993000   0.46510557   -7.8190364    328.97571  0.013755465  0.012021224         3980 
 1994000    0.4613409   -7.8243595    329.26708  0.013760744  0.012011342         3977 
 1995000     0.451517   -7.8218819    329.09786  0.013746778  0.012001469         3984 
 1996000   0.45959569   -7.8245862    329.30904  0.013748707  0.011991608         3981 
 1997000   0.45347744   -7.8209685     329.2103  0.013737702  0.011981753         3980 
 1998000   0.44952464   -7.8292471    329.39161  0.013738389  0.011971913         3983 
 1999000   0.45180159   -7.8139562    328.86355  0.013709503  0.011962079         3980 
 2000000     0.467638   -7.8403507    329.32961  0.013722067  0.011952257         3983 
 2001000   0.45920879    -7.821829    328.80208   0.01369324  0.011942449         3977 
 2002000   0.46415025   -7.8496931    328.79605  0.013686149  0.011932653         3978 
 2003000   0.45121666   -7.8467212    328.52059  0.013667856  0.011922859         3982 
 2004000   0.44710501    -7.834136     329.1042  0.013685304  0.011913077         3982 
 2005000     0.451949   -7.8451589    329.23892  0.013684078  0.011903308         3976 
 2006000   0.44724333   -7.8462218    329.74411  0.013698243  0.011893547         3983 
 2007000    0.4523485   -7.8374971    329.13277  0.013666034  0.011883804         3979 
 2008000   0.46283379   -7.8318534    328.92178  0.013650472   0.01187407         3983 
 2009000   0.45371283   -7.8338189    329.01287  0.013647456  0.011864343         3980 
 2010000   0.44251714   -7.8440351    329.28849  0.013652093  0.011854632         3979 
 2011000   0.45487096   -7.8417814    329.04534  0.013635229  0.011844927         3982 
 2012000    0.4494391   -7.8358812    329.33969  0.013640643  0.011835232         3978 
Loop time of 4322.83 on 48 procs for 2000000 steps with 4000 atoms

Performance: 79947.710 tau/day, 462.660 timesteps/s
99.4% CPU use with 48 MPI tasks x no OpenMP threads

MPI task timing breakdown:
Section |  min time  |  avg time  |  max time  |%varavg| %total
---------------------------------------------------------------
Pair    | 264.18     | 271.44     | 284.31     |  36.1 |  6.28
Neigh   | 26.352     | 26.852     | 27.499     |   4.8 |  0.62
Comm    | 230.17     | 243.65     | 256.17     |  42.8 |  5.64
Output  | 4.5761     | 4.5782     | 4.6114     |   0.2 |  0.11
Modify  | 3708.7     | 3728.4     | 3749.9     |  14.6 | 86.25
Other   |            | 47.9       |            |       |  1.11

Nlocal:        83.3333 ave          87 max          80 min
Histogram: 2 3 11 0 9 10 0 11 1 1
Nghost:        1757.15 ave        1769 max        1746 min
Histogram: 2 2 3 11 7 8 7 6 1 1
Neighs:        10387.2 ave       10881 max        9911 min
Histogram: 3 5 4 3 7 7 10 7 1 1
FullNghs:      20775.0 ave       21728 max       19903 min
Histogram: 3 2 7 5 8 7 7 6 2 1

Total # of neighbors = 997198
Ave neighs/atom = 249.29950
Neighbor list builds = 108005
Dangerous builds = 0

#clear
#
#next RN
#
#jump SELF
Total wall time: 1:12:05
