
units lj                  # Use reduced LJ style units
atom_style atomic         # Uncharged point particles
atom_modify map hash      # Needed for indexing of clusters etc
                          # Used to be able to find where atoms are in relation to each other.

lattice fcc 1.0 spacing 1 1 1
Lattice spacing in x,y,z = 1.5874011 1.5874011 1.5874011
region box block 0 10 0 10 0 10 units lattice
create_box 2 box
Created orthogonal box = (0.0000000 0.0000000 0.0000000) to (15.874011 15.874011 15.874011)
  3 by 4 by 4 MPI processor grid
create_atoms 1 box
Created 4000 atoms
  using lattice units in orthogonal box = (0.0000000 0.0000000 0.0000000) to (15.874011 15.874011 15.874011)
  create_atoms CPU = 0.002 seconds
set type 1 type/fraction 2 0.7 78393
Setting atom values ...
  2825 settings made for type/fraction
mass 1 1.0
mass 2 1.0
pair_style lj/cut  3.5
pair_modify tail  yes
pair_coeff 1  1  1.0  1.0   # Intearaction between 1 and 1 set with epsilon = 1 and sigma = 1
pair_coeff 1  2  1.5  0.8
pair_coeff 2  2  0.5  0.88

write_data data.0
System init for write_data ...
Neighbor list info ...
  update every 1 steps, delay 10 steps, check yes
  max neighbors/atom: 2000, page size: 100000
  master list distance cutoff = 3.8
  ghost atom cutoff = 3.8
  binsize = 1.9, bins = 9 9 9
  1 neighbor lists, perpetual/occasional/extra = 1 0 0
  (1) pair lj/cut, perpetual
      attributes: half, newton on
      pair build: half/bin/atomonly/newton
      stencil: half/bin/3d
      bin: standard
WARNING: Not all mixed pair coeffs generated from mixing. Use write_data with 'pair ij' option to store all pair coeffs. (../write_data.cpp:312)


#############################
#   M E L T   S Y S T E M   #
#############################

velocity all create 2.4 6229865 mom yes dist gaussian # Assign velocities
                                                    # Temperature 2.4, random number seed, zero linear momentum
                                                                                # Gaussian distribution

timestep 0.002   # simulation timestep
thermo 1000       # output thermodynamic data every 1000 steps bf 100

# Define a fix  in this case with index 1 applied to all
# particles in the simulation. This fix is for simulations
# in the anisotropic NPT ensemble. Note that we use the MTK
# correction.
fix 1 all npt temp 2.4 2.4 0.1 iso 5.68 5.68 0.5 mtk yes tchain 5 pchain 5 # Use NPT ensemble
                                                                         # Set temperature and pressure and damping
                                                                         # Numbers of thermostats in chain and in barostat
run 10000          # run for 10000 steps
Per MPI rank memory allocation (min/avg/max) = 3.642 | 3.644 | 3.648 Mbytes
Step Temp E_pair E_mol TotEng Press Volume 
       0          2.4   -4.1690742            0  -0.56997417    -3.744831         4000 
    1000    2.3901196   -3.7575896            0  -0.17330644    5.5350437    3691.7853 
    2000    2.4111728   -3.8270832            0  -0.21122809    5.7261196    3627.8073 
    3000    2.3972329   -3.8394335            0  -0.24448313    5.4353564    3638.4502 
    4000    2.3776472   -3.7158521            0  -0.15027292    5.6709781    3687.1849 
    5000     2.391527   -3.8136069            0  -0.22721331    5.6152019    3641.2951 
    6000    2.3872183   -3.7905214            0  -0.21058919    5.7263829    3656.9826 
    7000    2.4670901   -3.7557709            0 -0.056060915    5.7412108    3674.2014 
    8000    2.4108455     -3.77344            0  -0.15807575    5.9278611    3644.8561 
    9000     2.377716    -3.796715            0  -0.23103259     5.762749    3652.1618 
   10000    2.3635451   -3.7519052            0  -0.20747388     6.020442    3644.0154 
Loop time of 2.63554 on 48 procs for 10000 steps with 4000 atoms

Performance: 655653.108 tau/day, 3794.289 timesteps/s
99.6% CPU use with 48 MPI tasks x no OpenMP threads

MPI task timing breakdown:
Section |  min time  |  avg time  |  max time  |%varavg| %total
---------------------------------------------------------------
Pair    | 1.1631     | 1.2573     | 1.3837     |   3.0 | 47.71
Neigh   | 0.21738    | 0.22418    | 0.24889    |   1.0 |  8.51
Comm    | 0.77901    | 0.89279    | 1.0268     |   4.8 | 33.88
Output  | 0.00024595 | 0.00024989 | 0.00031423 |   0.0 |  0.01
Modify  | 0.20517    | 0.2456     | 0.28657    |   4.7 |  9.32
Other   |            | 0.01539    |            |       |  0.58

Nlocal:        83.3333 ave          93 max          74 min
Histogram: 1 6 3 12 4 5 7 4 3 3
Nghost:        1743.42 ave        1774 max        1714 min
Histogram: 2 2 6 7 6 9 5 6 4 1
Neighs:        10484.1 ave       12114 max        9233 min
Histogram: 4 5 6 10 5 5 5 2 5 1

Total # of neighbors = 503239
Ave neighs/atom = 125.80975
Neighbor list builds = 910
Dangerous builds = 213

# Equilibrate just above the melting temperature to avoid step fn in T

fix 1 all npt temp 1.25 1.25 0.1 iso 5.68 5.68 0.5 mtk yes tchain 5 pchain 5
run 2000
Per MPI rank memory allocation (min/avg/max) = 3.644 | 3.646 | 3.649 Mbytes
Step Temp E_pair E_mol TotEng Press Volume 
   10000    2.3635451   -3.7519052            0  -0.20747388     6.020442    3644.0154 
   11000    1.2630801   -5.5949929            0   -3.7008464    5.7049457    2785.6058 
   12000    1.2389707   -5.5903121            0   -3.7323207    5.4352931    2799.5344 
Loop time of 0.67562 on 48 procs for 2000 steps with 4000 atoms

Performance: 511530.047 tau/day, 2960.243 timesteps/s
99.6% CPU use with 48 MPI tasks x no OpenMP threads

MPI task timing breakdown:
Section |  min time  |  avg time  |  max time  |%varavg| %total
---------------------------------------------------------------
Pair    | 0.30429    | 0.32232    | 0.37584    |   2.1 | 47.71
Neigh   | 0.042167   | 0.044605   | 0.049521   |   0.6 |  6.60
Comm    | 0.20262    | 0.2561     | 0.27445    |   2.6 | 37.91
Output  | 5.3758e-05 | 5.5093e-05 | 7.0263e-05 |   0.0 |  0.01
Modify  | 0.041886   | 0.047686   | 0.052255   |   1.4 |  7.06
Other   |            | 0.004858   |            |       |  0.72

Nlocal:        83.3333 ave          92 max          73 min
Histogram: 1 3 1 5 8 10 9 9 1 1
Nghost:        2087.50 ave        2111 max        2073 min
Histogram: 6 8 5 11 4 2 7 1 2 2
Neighs:        13634.4 ave       14903 max       12306 min
Histogram: 5 2 6 3 3 11 6 4 2 6

Total # of neighbors = 654451
Ave neighs/atom = 163.61275
Neighbor list builds = 146
Dangerous builds = 11

#############################
# L I N E A R  Q U E N C H  #
#############################

# Define solid atoms. This closely follows ten Wolde  Ruiz-Montero and Frenkel  Faraday Discuss  1996  104  93-110
# Compute components of the per-atom q6 vector
compute q6 all orientorder/atom degrees 1 6 components 6 nnn NULL cutoff 1.3 # compute the Q6 parameter.
                                                                             # Use all neighbours within 1.3 unit cell.

# get number of connections
compute coord_number all coord/atom orientorder q6 0.5

# An atom is solid if it has 8 or more connections (of a possible 14)
variable is_solid atom c_coord_number>=8
group solid dynamic all var is_solid    # Must be dynamic to update
dynamic group solid defined

# do clustering
compute cluster solid cluster/atom 1.3 # Create a cluster where all atoms within are solid and max 1.3 units from another member

# define chunks one chunk per cluster
compute clus_chunks solid chunk/atom c_cluster nchunk every compress yes  # Says which atoms are in which chunk

# count the size of each chunk
compute size_chunks solid property/chunk clus_chunks count


# Find the maximum entry in the vector of chunk sizes
variable max_n equal max(c_size_chunks)


# Thermo style which includes this variable
# thermo_style custom step temp pe vol v_max_n

thermo ${N}  # Print the thermo information every 100 steps
thermo 1000  

# Reset the npt fix at a lower temperature (below freezing)
fix 1  all npt temp  ${temp} ${temp}  0.1  iso  5.68  5.68  0.5  mtk yes tchain  5  pchain  5
fix 1  all npt temp  0.45 ${temp}  0.1  iso  5.68  5.68  0.5  mtk yes tchain  5  pchain  5
fix 1  all npt temp  0.45 0.45  0.1  iso  5.68  5.68  0.5  mtk yes tchain  5  pchain  5

dump dmp2 all dcd ${N} traj.dcd
dump dmp2 all dcd 1000 traj.dcd


compute msd all msd com yes
variable twopoint equal c_msd[4]/6/(step*dt+1.0e-6)
fix 9 all vector 10 c_msd[4]
variable fit equal slope(f_9)/6/(10*dt)
thermo_style custom step temp pe c_msd[4] v_twopoint v_fit v_max_n

fix 1 all npt temp 1.25 ${temp} 0.1 iso 5.68 5.68 0.5 mtk yes tchain 5 pchain 5
fix 1 all npt temp 1.25 0.45 0.1 iso 5.68 5.68 0.5 mtk yes tchain 5 pchain 5
run 5000000 # 5000000  # Run for this many steps
Neighbor list info ...
  update every 1 steps, delay 10 steps, check yes
  max neighbors/atom: 2000, page size: 100000
  master list distance cutoff = 3.8
  ghost atom cutoff = 3.8
  binsize = 1.9, bins = 8 8 8
  4 neighbor lists, perpetual/occasional/extra = 1 3 0
  (1) pair lj/cut, perpetual
      attributes: half, newton on
      pair build: half/bin/atomonly/newton
      stencil: half/bin/3d
      bin: standard
  (2) compute orientorder/atom, occasional
      attributes: full, newton on
      pair build: full/bin/atomonly
      stencil: full/bin/3d
      bin: standard
  (3) compute coord/atom, occasional
      attributes: full, newton on
      pair build: full/bin/atomonly
      stencil: full/bin/3d
      bin: standard
  (4) compute cluster/atom, occasional
      attributes: full, newton on
      pair build: full/bin/atomonly
      stencil: full/bin/3d
      bin: standard
Per MPI rank memory allocation (min/avg/max) = 9.841 | 9.849 | 9.852 Mbytes
Step Temp PotEng c_msd[4] v_twopoint v_fit v_max_n 
   12000    1.2389707   -5.5903121            0            0 8.3333333e+20            2 
   13000     1.247532   -5.6399501   0.62251574 0.0039904854  0.052409628            3 
   14000    1.2560888   -5.5847589    1.2033723   0.00716293  0.049851345            3 
   15000    1.2416886   -5.6077667    1.7915792 0.0099532175  0.049263201            3 
   16000    1.2762738   -5.6129078    2.3811222  0.012401678  0.049126901            2 
   17000    1.2149749   -5.6181767    3.0460751   0.01493174  0.049603908            2 
   18000    1.2695453    -5.609993    3.6371993  0.016838885  0.050147812            3 
   19000      1.22463   -5.6265274    4.2116291  0.018472057  0.050080609            3 
   20000    1.2335823   -5.5869372    4.8978344  0.020407643  0.050363641            1 
   21000    1.2592538   -5.6237311     5.436424   0.02157311  0.050559931            2 
   22000     1.251615   -5.6280881    6.0845523  0.023047546  0.050570849            3 
   23000    1.2673537   -5.6464596    6.7965717  0.024625259  0.050780036            2 
   24000    1.2217701   -5.6156038    7.3790926  0.025621849  0.051054543            2 
   25000    1.2311174   -5.6358349    8.1159149  0.027053049  0.051376785            4 
   26000    1.2499373   -5.6113453    8.6280408  0.027653976  0.051635019            1 
   27000    1.2403913   -5.6571906    9.2383533  0.028513436  0.051732496            2 
   28000    1.2657737   -5.6107897    9.9097268  0.029493234  0.051747432            2 
   29000    1.2256804     -5.60495     10.62754  0.030538906  0.051892442            3 
   30000    1.2613441   -5.6309853    11.251259  0.031253495   0.05205492            1 
   31000    1.2584626   -5.6264839    11.832975  0.031809071  0.052149916            6 
   32000    1.2622262   -5.6284933    12.432363  0.032375945  0.052209419            2 
   33000    1.2995842   -5.6416577    13.032766  0.032911026  0.052198402            4 
   34000    1.2424053   -5.6361964    13.684519  0.033540488  0.052238474            3 
   35000    1.2298893   -5.6369878    14.284412  0.034010505   0.05220419            2 
   36000    1.2497016   -5.6131582    14.884826  0.034455614  0.052212005            2 
   37000    1.2482937   -5.6194608    15.448774  0.034794536  0.052143375            3 
   38000    1.2357963    -5.614983    16.005318   0.03509938  0.052028642            1 
   39000    1.2592664   -5.6334401    16.558417  0.035381233  0.051892419            3 
   40000    1.2668922   -5.6670644    17.071652  0.035565941  0.051742215            3 
   41000    1.2492634   -5.5739804    17.720469  0.036017213  0.051581564            1 
   42000    1.2580863   -5.6703312    18.339826  0.036388543  0.051464168            2 
   43000    1.2459547   -5.5808437    18.967283    0.0367583  0.051390957            1 
   44000    1.2195456   -5.6177377    19.574564  0.037073038  0.051310264            6 
   45000    1.2518312   -5.6770166    20.138005  0.037292602  0.051271464            5 
   46000    1.2422971   -5.5822858    20.830511  0.037736433  0.051205841            2 
   47000    1.2231483   -5.6166197    21.358039  0.037868863  0.051138947            2 
   48000    1.2458789   -5.6236153    21.939626  0.038089628  0.051060146            2 
   49000    1.2114654   -5.6545442    22.495753  0.038258083  0.050991806            7 
   50000    1.2697716   -5.6483515    23.016454  0.038360756   0.05091647            3 
   51000    1.2310933   -5.6684293    23.394623  0.038226508  0.050810497            4 
   52000    1.2551978   -5.6541226    23.945316  0.038373903  0.050692529            3 
   53000    1.2647444   -5.6003862    24.715712  0.038861181   0.05059107            1 
   54000     1.232343   -5.6469558    25.244997  0.038958328  0.050500665            5 
   55000    1.2507086   -5.6464027    25.953733  0.039323837  0.050424579            1 
   56000    1.2705892   -5.6559047    26.503292  0.039439422   0.05037457            2 
   57000    1.2441127   -5.6410729    27.019291  0.039501886  0.050322292            1 
   58000    1.2647105   -5.6123066     27.67845  0.039767887  0.050266831            3 
   59000    1.2183642   -5.6319217    28.340502  0.040028958  0.050223459            4 
   60000    1.2242854   -5.6260743    28.937622  0.040191141  0.050164587            1 
   61000    1.2556447   -5.6374116     29.55656  0.040377814   0.05011412            2 
   62000    1.2529474   -5.6576285    29.864369  0.040140281  0.050069403            1 
   63000    1.2215023   -5.6338196    30.575865  0.040444265  0.050013528            2 
   64000    1.2437229    -5.637243    31.140845  0.040547975  0.049953007            2 
   65000    1.2299923   -5.6408068    31.553558   0.04045328  0.049896376            3 
   66000    1.2348864   -5.5914596    32.160482  0.040606669  0.049812102            2 
   67000    1.2502112   -5.6774321    32.499214  0.040421907  0.049717529            1 
   68000    1.2206716   -5.6082938    33.342755  0.040861219  0.049637342            1 
   69000    1.2531605   -5.6230012    33.795953  0.040816368  0.049561755            3 
   70000     1.249576    -5.639404    34.386041  0.040935762  0.049496499            2 
   71000    1.2529112   -5.6724024    34.907231  0.040970928  0.049435906            2 
   72000    1.2586964   -5.6242059    35.638744  0.041248546  0.049383247            1 
   73000    1.2670834   -5.6433178    36.003402  0.041099773  0.049332015            2 
   74000     1.241317   -5.6256478    36.804208  0.041446179  0.049288551            2 
   75000    1.2375813   -5.6311261    37.349004  0.041498893  0.049257731            3 
   76000    1.2309097   -5.6165361    38.317264  0.042014544  0.049242381            4 
   77000    1.2552844   -5.6661383      38.7334  0.041919264  0.049252461            5 
   78000    1.2327463   -5.6489955    39.421075  0.042116533  0.049258213            2 
   79000    1.2024466   -5.6379974    40.057103  0.042254328  0.049260795            2 
   80000    1.2233461   -5.6132231    41.048308  0.042758654  0.049293267            3 
   81000    1.2140063   -5.5991877    41.772338  0.042975656  0.049336991            3 
   82000    1.2050852   -5.6619467    42.347643  0.043036223  0.049387236            3 
   83000    1.2317256   -5.6771126    42.982628  0.043155249  0.049444963            1 
   84000    1.2442588   -5.6124569     43.71086  0.043363948  0.049503446            2 
   85000    1.2336887   -5.6187748    44.419755  0.043548779  0.049561621            2 
   86000    1.1956509   -5.6631912    44.963646  0.043569424  0.049628568            2 
   87000    1.2230589   -5.6186017    45.657657  0.043733388  0.049699357            4 
   88000    1.2414596   -5.6772513     46.52892  0.044061477  0.049759284            4 
   89000    1.2465684   -5.6398494     47.10601  0.044106751  0.049815304            2 
   90000     1.237843   -5.6329345    47.906678  0.044358035  0.049888468            2 
   91000    1.2253074   -5.5978352    48.471529  0.044387847  0.049956592            1 
   92000    1.2280526   -5.6548449    48.818032  0.044219232   0.05001313            2 
   93000    1.2106626    -5.636692    49.552858  0.044402203  0.050054081            5 
   94000    1.2433763   -5.6400712    49.823102  0.044169416  0.050087698            5 
   95000    1.2537943    -5.646837    50.440255  0.044245837  0.050121235            2 
   96000    1.2207322   -5.6671534    51.101501  0.044358941   0.05015932            1 
   97000    1.2504025   -5.6476061    51.723371  0.044435885  0.050194733            2 
   98000    1.2415046   -5.6327358    52.361606  0.044525175   0.05023505            2 
   99000    1.2502705   -5.6236864    52.866475    0.0445004  0.050263025            5 
  100000    1.2282894   -5.6715421    53.279066  0.044399222  0.050283191            4 
  101000    1.2296707   -5.6336318    54.244419  0.044756121  0.050300429            6 
  102000    1.2553246   -5.6519161    54.714983  0.044701783  0.050320266            2 
  103000    1.2394176   -5.6340267    55.533618  0.044930111  0.050343966            1 
  104000    1.2615798   -5.6290671    56.348584  0.045151109  0.050380996            2 
  105000    1.2504363   -5.6198704    56.845482  0.045115462  0.050413122            3 
  106000    1.2331732   -5.6728085     57.61609  0.045295668  0.050452018            2 
  107000    1.2294722   -5.6446311    58.144687  0.045284024  0.050493639            3 
  108000    1.2379581   -5.6593575    58.610848   0.04522442  0.050522718            1 
  109000    1.2631368   -5.6467005    59.012534  0.045116616  0.050541447            2 
  110000    1.2445331    -5.673764     59.61126  0.045160045  0.050552871            3 
  111000    1.2454862   -5.6063241     60.36088  0.045315976  0.050570208            1 
  112000     1.243329   -5.6784825    60.599736  0.045089089     0.050576            4 
  113000     1.248169   -5.6463317    61.353218  0.045245736  0.050579091            3 
  114000    1.2293711   -5.6634092    61.939099  0.045277119  0.050587818            3 
  115000    1.2551565   -5.6206056    62.893518  0.045575013  0.050600886            1 
  116000     1.215505   -5.6778375    63.507287  0.045623051  0.050618937            1 
  117000    1.2609911   -5.6587783    64.163665  0.045700616  0.050637024            2 
  118000    1.2531829   -5.7002945    64.532213  0.045573596  0.050656316            4 
  119000    1.1964185   -5.6592997    65.459319  0.045839859   0.05067219            1 
  120000     1.219125   -5.7250362    65.879525   0.04574967  0.050685667            2 
  121000    1.2380913   -5.6862985    66.174707  0.045574867  0.050693953            3 
  122000    1.2211289   -5.6903801    66.900341  0.045696954  0.050701745            1 
  123000     1.246819   -5.6257891    67.613124  0.045808349  0.050705315            2 
  124000    1.2042305   -5.6620408    68.071719  0.045747123   0.05070849            1 
  125000    1.2033791   -5.6674107    68.307656  0.045538437  0.050707528            4 
  126000     1.218038   -5.6747091    68.844642   0.04553217  0.050695091            2 
  127000    1.2203321   -5.6676581     69.30538  0.045475971  0.050678165            2 
  128000    1.2176951    -5.668089    69.805976  0.045446599  0.050657355            3 
  129000    1.2234259   -5.6554292    70.380965  0.045465739  0.050628944            4 
  130000    1.2406814   -5.6607016    70.709922  0.045326873   0.05060085            1 
  131000    1.2147394   -5.7000728     71.16813  0.045272347  0.050569961            3 
  132000    1.2304161   -5.7010437    71.571375  0.045183949  0.050531924            2 
  133000    1.2793081   -5.6669913     71.85034   0.04501901  0.050489671            2 
  134000     1.239694   -5.6826194     73.01897  0.045409807  0.050449873            3 
  135000    1.2240232   -5.6754104     72.80769  0.044943018  0.050404606            3 
  136000    1.2403521   -5.6667462    73.719175  0.045171063  0.050366502            2 
  137000    1.2401602   -5.6968959    74.047088  0.045040808  0.050323989            3 
  138000    1.2305635   -5.6370754     74.85998  0.045205302  0.050285781            5 
  139000    1.2359226   -5.6498514    75.376636   0.04518983   0.05024576            2 
  140000    1.2281713   -5.6435449    76.203193  0.045359043  0.050207249            2 
  141000    1.2416875   -5.6446549    76.987938  0.045501145  0.050167234            2 
  142000    1.2254906   -5.6620486    77.191116  0.045299951  0.050133847            2 
  143000    1.2304388   -5.6930508    77.810927  0.045344363  0.050095178            2 
  144000    1.2099861   -5.6794767    78.414253  0.045378618  0.050061851            4 
  145000    1.2019207   -5.7066104    78.905964  0.045348255   0.05003472            2 
  146000    1.2312507   -5.6847772    79.765181  0.045528071  0.050008366            3 
  147000    1.2446806   -5.6982565    79.906416  0.045298421  0.049978505            3 
  148000    1.2277315    -5.655035    80.837749  0.045516751  0.049941521            4 
  149000    1.2306022   -5.6487714    81.016992  0.045311516  0.049906924            3 
  150000    1.2111322   -5.6494065    81.695499  0.045386388  0.049873808            1 
  151000    1.2137683   -5.6405475    82.161493  0.045342987  0.049838739            2 
  152000    1.2285315   -5.6614168    82.478065  0.045218237  0.049801048            3 
  153000     1.226536   -5.6643731    83.512171  0.045485932  0.049768696            5 
  154000    1.2235852   -5.6877061    84.320618   0.04562804  0.049740778            3 
  155000    1.2364437   -5.6700401    84.512974  0.045437083  0.049712219            3 
  156000    1.2177224   -5.7004258    84.628452  0.045207506  0.049682647            2 
  157000    1.2141454   -5.7025997    85.155271  0.045199188   0.04964811            3 
  158000    1.2224186   -5.6575933    85.830102  0.045269041  0.049611499            1 
  159000    1.2224854   -5.6595365    86.333557  0.045248195  0.049572646            2 
  160000    1.2227736    -5.631818    87.363178  0.045501655  0.049538919            2 
  161000    1.2226212   -5.6900212    87.572565  0.045327415  0.049507599            3 
  162000    1.2455188   -5.6850945     87.77443  0.045151456  0.049473643            2 
  163000    1.2369686   -5.6208724    89.342887  0.045676322   0.04944167            3 
  164000    1.2511801   -5.6965646    89.118212  0.045283644  0.049412888            2 
  165000     1.235561   -5.6874847    89.789747  0.045348357  0.049381983            1 
  166000    1.2140304   -5.6501811    90.017919  0.045189718  0.049346016            3 
  167000    1.1990729   -5.6708873    90.643954  0.045231514  0.049308981            3 
  168000    1.2324307   -5.6374587      91.3299   0.04530253  0.049266717            2 
  169000    1.2294582   -5.6886309     91.53688  0.045136529  0.049224656            1 
  170000    1.2223476   -5.6844441    92.365788  0.045277347  0.049183613            1 
  171000    1.2171817   -5.6612513    92.658871  0.045155395  0.049141704            4 
  172000    1.2205936    -5.660235    93.523694  0.045311867  0.049105845            1 
  173000    1.2466727   -5.6443013     93.54179  0.045058665   0.04906638            2 
  174000    1.2167543   -5.6758224    94.156351  0.045094038  0.049023781            2 
  175000    1.2354856   -5.6758812    95.055994  0.045264759  0.048988564            2 
  176000    1.2252654   -5.6377827    95.943791  0.045427931  0.048956274            6 
  177000    1.2149332   -5.6857267    95.837949  0.045121445  0.048923655            2 
  178000     1.232195   -5.6226225    97.006513  0.045415034  0.048891408            2 
  179000    1.2242456   -5.6798066    96.787904  0.045059545   0.04885948            4 
  180000    1.2153761   -5.6569421    97.547001  0.045160649  0.048825807            3 
  181000    1.1917741   -5.6779438    98.297753  0.045256792  0.048792681            2 
  182000    1.2127328    -5.713548    98.632767  0.045161523  0.048760396            3 
  183000    1.1864105   -5.6837636     99.06126  0.045109863  0.048731628            2 
  184000    1.2110851   -5.6539254    100.25431   0.04540503  0.048705798            1 
  185000    1.2189096   -5.6776043    100.74131  0.045378967  0.048682353            4 
  186000    1.2403678   -5.6844654    101.10196  0.045296576  0.048657959            3 
  187000    1.2341631   -5.6691698    102.13203  0.045513382   0.04864093            3 
  188000    1.2132175   -5.7242896    102.04774  0.045233929  0.048621189            2 
  189000    1.2280729   -5.6865944    102.98168  0.045406383  0.048597868            2 
  190000    1.2323387   -5.6457387    104.09786  0.045656957  0.048581049            1 
  191000     1.198088   -5.7095536     104.4388  0.045566667   0.04856754            1 
  192000    1.2487796   -5.6570449    104.95192   0.04555205  0.048555158            1 
  193000    1.2118399    -5.703469     105.2087  0.045426898  0.048538409            3 
  194000    1.1997954   -5.6729733    106.13573   0.04559095   0.04852198            2 
  195000    1.2310686   -5.6546312    107.27474  0.045843907  0.048507842            2 
  196000    1.2145334   -5.6575055    107.53612  0.045721138  0.048494334            3 
  197000    1.2234168   -5.7110451    107.92605  0.045653995  0.048481734            2 
  198000    1.2343051   -5.7097827    108.24173  0.045556282  0.048469202            2 
  199000    1.2106891   -5.6978235    108.90683  0.045605875  0.048455929            3 
  200000    1.2106056   -5.6922222    109.91449  0.045797703  0.048442809            2 
  201000    1.2340889   -5.6754202      110.696  0.045893865  0.048433658            3 
  202000    1.2110704   -5.6669261    111.36775  0.045943793  0.048423912            3 
  203000    1.2258416   -5.7054277    111.45953  0.045755143  0.048416427            3 
  204000     1.232443   -5.6795561    112.38414  0.045908553  0.048404847            2 
  205000    1.2133976   -5.7146167    112.53737  0.045746896  0.048390847            2 
  206000    1.2267327   -5.6804898    113.06628  0.045738788  0.048375804            1 
  207000    1.2129369   -5.7302213    112.93563  0.045465228  0.048357656            5 
  208000    1.2020327   -5.6972937    113.66266  0.045537924  0.048337593            2 
  209000    1.2163266   -5.6793241    114.35587  0.045596439  0.048320731            2 
  210000    1.2047757   -5.7264313     114.5781  0.045467501   0.04830276            3 
  211000    1.1932814   -5.6924398    115.23692  0.045512213  0.048286789            3 
  212000     1.220366   -5.6809149      115.898  0.045557391  0.048267353            1 
  213000    1.2461369   -5.7072309    116.25783  0.045484286    0.0482496            3 
  214000    1.2370617   -5.6353913    117.24056  0.045654423  0.048233264            5 
  215000    1.2198777    -5.678714    117.35371  0.045485935   0.04821754            1 
  216000    1.2227609   -5.7358217    116.92268  0.045109059  0.048197038            5 
  217000    1.2112889    -5.708643     118.2393  0.045406798  0.048172821            1 
  218000    1.2255328   -5.6993307    118.69765  0.045373718  0.048157429            5 
  219000    1.2106067   -5.7207295    119.88149  0.045617004  0.048141719            3 
  220000    1.2323821   -5.7150077     119.3973  0.045226248  0.048125193            3 
  221000    1.2162157   -5.7127585    120.34801  0.045380093  0.048107879            2 
  222000    1.2195817   -5.6782358    121.54352  0.045624443  0.048090856            2 
  223000    1.2242353   -5.6715255     122.0016  0.045591031  0.048072883            2 
  224000    1.1945217   -5.7197042    121.73546  0.045288489   0.04805578            4 
  225000    1.2316725   -5.7260246    122.74879  0.045462516  0.048038537            2 
  226000    1.2272215   -5.6298572    123.73644  0.045625532  0.048021954            1 
  227000     1.206888   -5.6749777     124.0897  0.045554221  0.048004915            1 
  228000    1.2323826   -5.6968633    124.32689  0.045441114  0.047986245            2 
  229000    1.2525678   -5.7047163    124.76956   0.04540377  0.047967493            4 
  230000    1.2053325   -5.7269897    125.11371  0.045331054  0.047951169            2 
  231000    1.2152193   -5.7075711    125.77025  0.045371663  0.047937352            1 
  232000    1.2123712   -5.7367594    126.57612  0.045465562  0.047921464            5 
  233000    1.2095114   -5.6927341    127.04571  0.045438379  0.047905131            2 
  234000    1.2098389   -5.7201372    127.31366  0.045339623  0.047887552            3 
  235000    1.2170335   -5.6793447    128.21015  0.045464591  0.047868551            1 
  236000    1.2408152   -5.7022665    128.70789  0.045447702  0.047851341            2 
  237000    1.2063533   -5.7461873    129.21727  0.045435046  0.047835191            2 
  238000    1.2387747   -5.7376969    128.98821   0.04516394  0.047819054            5 
  239000    1.1887446   -5.7177297    130.66919  0.045561085  0.047802987            3 
  240000    1.2348257   -5.7366044    130.92764  0.045460985  0.047787741            1 
  241000    1.2502738   -5.6987567    131.87162  0.045598763  0.047772514            2 
  242000    1.2196223   -5.7558452     131.7388  0.045364602   0.04775899            2 
  243000    1.2441204   -5.7133385     132.3514  0.045387998  0.047743635            3 
  244000    1.2293066   -5.7206725    132.92883  0.045399192  0.047728125            3 
  245000    1.2372438   -5.6928724    133.56362  0.045429803  0.047712306            2 
  246000    1.2055154   -5.7059363    134.13807  0.045439725  0.047695373            3 
  247000    1.1920943   -5.7393001    134.59539  0.045410051    0.0476792            3 
  248000      1.21004   -5.7020144    135.42488  0.045505673  0.047663989            3 
  249000     1.250398   -5.7288263     134.9659  0.045169311  0.047645815            3 
  250000    1.1763541   -5.7382453    135.32405  0.045108016  0.047625792            2 
  251000    1.2114133   -5.6549373    136.69491  0.045383437  0.047605353            2 
  252000     1.194846   -5.7253972    136.28884  0.045069059  0.047584083            2 
  253000    1.2098045    -5.690406    137.02829  0.045134484  0.047559743            4 
  254000    1.2163964   -5.6993249    137.29376  0.045043885  0.047536867            2 
  255000    1.2237689    -5.684253    138.01665   0.04510348  0.047513115            1 
  256000    1.2300232   -5.6841682    138.41454  0.045056817  0.047491147            2 
  257000    1.2122225   -5.7240693    138.70584  0.044975954  0.047468205            4 
  258000    1.2047298   -5.7608102    139.33988  0.045006421  0.047445162            1 
  259000    1.1939902   -5.6893347    140.53371  0.045216767  0.047425859            1 
  260000    1.1912792   -5.6780654    141.12263  0.045231613  0.047406034            6 
  261000    1.1919767   -5.6821838    141.12091  0.045057762  0.047386193            3 
  262000    1.1891191   -5.6955011    142.55807  0.045342897  0.047366702            1 
  263000    1.1952592   -5.7397213    141.91811  0.044967716  0.047349509            3 
  264000    1.2345742   -5.7035616    143.01753  0.045144424  0.047332024            3 
  265000    1.2331417   -5.7145479    143.74003  0.045201268  0.047315888            3 
  266000    1.1942782   -5.7384519    143.68068  0.045012744  0.047299387            2 
  267000    1.2191799   -5.7112993    144.63583  0.045142268  0.047283481            3 
  268000    1.2305548    -5.715603    145.32218  0.045187244  0.047267362            2 
  269000    1.2310421   -5.6988171    146.51485   0.04538874   0.04725194            3 
  270000    1.2304932   -5.6764691    146.83269  0.045318731  0.047234487            1 
  271000    1.1903698   -5.7179681    146.27127  0.044978866   0.04721595            2 
  272000    1.1894909   -5.7063361    147.47201  0.045181375  0.047196246            1 
  273000    1.1971837   -5.7247562    147.46162  0.045012703   0.04717868            2 
  274000    1.2025678   -5.7022687    149.13983  0.045358828   0.04716223            3 
  275000     1.202078    -5.710727     149.2159  0.045216941  0.047147647            3 
  276000    1.1981855   -5.7243678    150.15655  0.045337123  0.047134986            2 
  277000    1.2341547   -5.7261077    150.38809  0.045243107  0.047122774            3 
  278000    1.2162941   -5.6981544    151.55782  0.045431002   0.04711165            1 
  279000    1.1958587   -5.6621213    152.22221   0.04546661  0.047100497            2 
  280000    1.2012506   -5.6628019    152.64591   0.04543033  0.047087808            3 
  281000    1.2166052   -5.6968975    152.73773  0.045295887  0.047076323            4 
  282000    1.1941088    -5.738864    153.13932  0.045253937  0.047065733            3 
  283000    1.2144237    -5.650612    154.26385  0.045425161   0.04705485            1 
  284000    1.2072848   -5.7261649    153.94755  0.045172404  0.047042952            2 
  285000    1.2029938   -5.7307469    154.66075  0.045222441  0.047029073            3 
  286000    1.1975501   -5.6882796     155.7605  0.045384761    0.0470177            3 
  287000    1.2144789   -5.6947427    156.16506  0.045344095  0.047007163            5 
  288000    1.2263972   -5.7249168    156.17864  0.045190578  0.046995661            2 
  289000    1.2131582   -5.7469151    156.98047  0.045265417  0.046984552            2 
  290000    1.1896419   -5.7079879    158.23644  0.045470242  0.046975199            3 
  291000    1.2123422    -5.728734    158.82221  0.045481732  0.046968279            3 
  292000    1.1929353   -5.7030255    159.12488  0.045412352  0.046960522            2 
  293000    1.2036313   -5.7519531    159.48438  0.045359609   0.04695072            4 
  294000      1.20967   -5.7136191    160.21761  0.045413155  0.046942976            5 
  295000    1.1713084   -5.7234554    160.29319  0.045280561  0.046935541            1 
  296000    1.2148074   -5.7727207    160.88915  0.045295368  0.046926114            2 
  297000    1.2143216   -5.6654783    162.27978  0.045533047  0.046918746            3 
  298000    1.2236306   -5.7050686    162.30994  0.045388686   0.04691122            2 
  299000    1.1668884    -5.770802    161.81173   0.04509803  0.046900267            5 
  300000    1.2023484   -5.7252859    163.25268  0.045347967  0.046888851            2 
  301000    1.2135855   -5.7079292    163.70257  0.045321864    0.0468797            2 
  302000     1.206702   -5.7377001    163.77067  0.045190583  0.046868563            1 
  303000    1.1936176   -5.7318886    164.45932  0.045230836  0.046859177            4 
  304000     1.208312    -5.711826    165.20752  0.045287149  0.046849524            3 
  305000    1.2225621   -5.7108946    165.91947  0.045333188  0.046840748            4 
  306000    1.2127578   -5.7498835    165.45675  0.045059027  0.046829549            2 
  307000    1.2045733   -5.7145308    166.36223  0.045158044  0.046818358            1 
  308000    1.1981821   -5.6957851    167.04773  0.045196895  0.046805255            3 
  309000    1.1993262   -5.7484281    166.91643  0.045015218  0.046791581            2 
  310000    1.2084126   -5.7678997    167.59265  0.045051788  0.046778192            3 
  311000    1.2124706   -5.7357017    168.32028  0.045101896  0.046764706            2 
  312000     1.184407   -5.7639169    168.24464  0.044937136  0.046749789            2 
  313000    1.1978955   -5.7177528    168.99846  0.044994265  0.046735152            3 
  314000     1.181197     -5.74124    169.09674  0.044877054  0.046722136            3 
  315000    1.1976368   -5.6917604    169.97022  0.044965666  0.046706706            4 
  316000    1.2000053   -5.7281075    170.35441  0.044924685  0.046692057            2 
  317000    1.2247426   -5.7740575    171.11525  0.044982979  0.046677284            3 
  318000    1.1990807   -5.6777493    172.13136  0.045107798   0.04666179            2 
  319000    1.1999038   -5.7338902    172.25125  0.044997714  0.046648239            4 
  320000      1.18637   -5.7298549    173.18537  0.045100357   0.04663532            3 
  321000    1.1666115   -5.7188501     173.0382  0.044921652  0.046621071            2 
  322000    1.1976837   -5.7023372    173.81438  0.044983018  0.046606139            3 
  323000    1.2028287   -5.7640283    173.05911  0.044648894  0.046592294            2 
  324000    1.1894223   -5.7887741    173.87103  0.044719914  0.046576567            6 
  325000    1.1968472   -5.7536977    175.13028  0.044905199   0.04656134            3 
  326000      1.20875   -5.7024585    177.14419  0.045282256  0.046549366            2 
  327000    1.2019698   -5.7234491    176.28047  0.044923666  0.046538394            4 
  328000    1.1988711   -5.7645666    177.00614  0.044971071  0.046525477            3 
  329000    1.1793354   -5.7087902    177.31115  0.044911637  0.046510934            2 
  330000    1.2076319   -5.7588393    177.46111  0.044813411  0.046497636            1 
  331000    1.2029575   -5.7572309    178.89502  0.045039028  0.046486417            3 
  332000    1.1845319   -5.7523351    178.86812  0.044896617  0.046472535            4 
  333000    1.1797709   -5.7427412    178.56935  0.044687025    0.0464579            4 
  334000    1.1935336   -5.7228324    179.53337  0.044793756  0.046443675            2 
  335000    1.2122558   -5.7273069    179.74226  0.044712004  0.046428147           10 
  336000     1.213328   -5.7406932    180.81634  0.044845323  0.046413667            2 
  337000    1.1637855   -5.6945856    182.21248  0.045057489  0.046400015            2 
  338000    1.2349119   -5.7566832    182.47054  0.044987805  0.046387208            2 
  339000    1.1982586   -5.7508973     181.9014  0.044715191  0.046373152            2 
  340000     1.179469    -5.732131    183.28573  0.044922973  0.046359965            4 
  341000    1.1823032   -5.7020315    183.87552  0.044935366  0.046348514            2 
  342000    1.1882092   -5.7498288    184.59646  0.044979645  0.046337597            3 
  343000    1.2410153    -5.725748    184.50593  0.044826513  0.046326037            4 
  344000    1.1984726   -5.7489514    185.09197   0.04483817    0.0463129            3 
  345000     1.171394   -5.7296009    184.91154  0.044664623  0.046299125            3 
  346000    1.1857704   -5.7342242    185.89081   0.04477139  0.046285623            5 
  347000    1.2028255   -5.7697884    186.39472  0.044763381  0.046272754            4 
  348000    1.1699825   -5.7608034    187.09288  0.044801934  0.046260253            3 
  349000    1.1873812   -5.7976236    187.21469  0.044702648  0.046248683            1 
  350000    1.1858114   -5.7824967    187.11114  0.044550271  0.046235408            3 
  351000    1.1998436   -5.7621385    187.96586  0.044626271  0.046221891            3 
  352000    1.2111083   -5.7567284    189.31237   0.04481827  0.046209577            4 
  353000    1.1860773   -5.7398307    189.87224  0.044823476   0.04619758            2 
  354000    1.2078935   -5.7375311    191.12189   0.04499103   0.04618737            3 
  355000    1.1691336   -5.7632043    190.98759  0.044832767  0.046175963            2 
  356000    1.1730207   -5.7336765     192.5441  0.045071184  0.046165872            1 
  357000    1.2124423   -5.7231636    192.49373  0.044933177  0.046156021            3 
  358000    1.1943286   -5.7428366    192.86031  0.044892995  0.046146026            2 
  359000    1.2053608   -5.7272655    193.15876  0.044837224  0.046135701            3 
  360000       1.1956   -5.7655425     193.9188  0.044888611   0.04612732            4 
  361000    1.2090633   -5.7294068     194.4168  0.044879225  0.046118206            1 
  362000    1.1886864   -5.7607711    195.38463  0.044978046   0.04610965            3 
  363000    1.2035674   -5.7926754    194.62006  0.044678617  0.046099296            3 
  364000    1.2017959   -5.7638335    195.43868  0.044743287  0.046089872            1 
  365000    1.1788607   -5.7587541    196.51114  0.044865558  0.046078507            2 
  366000     1.183173   -5.7850056    196.80697   0.04481033  0.046067464            7 
  367000    1.2115571   -5.7476502    197.72349  0.044896341  0.046056078            1 
  368000    1.2135549   -5.7531608    197.07382  0.044627225  0.046043659            2 
  369000    1.1892263   -5.7142342    198.38502  0.044802399  0.046032382            4 
  370000    1.1943974   -5.7351283    198.54581  0.044717525  0.046021467            4 
  371000    1.1982575   -5.7835016    198.10353  0.044497648  0.046009767            3 
  372000    1.2048196   -5.7452171    199.33583  0.044654085  0.045998562            4 
  373000    1.1751803   -5.7497326    200.07557  0.044699637  0.045987887            2 
  374000    1.1938436   -5.7359707    200.84401   0.04475134  0.045977073            2 
  375000    1.1771249   -5.7578174    201.00623  0.044668051  0.045966655            3 
  376000    1.1822975   -5.7172605    201.74626  0.044713266  0.045955381            2 
  377000    1.1987232   -5.8148079    200.81046  0.044387812   0.04594245            2 
  378000    1.1779648   -5.7455367    202.18472   0.04457335  0.045929673            4 
  379000    1.1953047   -5.7779118    201.61895  0.044331343  0.045916114            4 
  380000    1.1877179   -5.7735356    202.43033  0.044392616  0.045902298            3 
  381000     1.192947   -5.7269176    204.19627  0.044662351  0.045888585            3 
  382000    1.1742624    -5.766628    203.89631  0.044479999  0.045875095            3 
  383000    1.1880392   -5.7373461    204.93573   0.04459002  0.045861559            1 
  384000    1.1750574    -5.744473    206.08104  0.044722448  0.045850499            2 
  385000    1.1854832   -5.7240969    205.08386  0.044390445  0.045839584            2 
  386000    1.2031225   -5.7534473    206.14154  0.044503787  0.045825452            2 
  387000    1.1961288   -5.7573253    206.70888  0.044510956  0.045812601            2 
  388000    1.1951176   -5.7597217    207.98558  0.044670442  0.045800774            2 
  389000    1.1746114   -5.7653924    207.52332  0.044456582   0.04578959            2 
  390000    1.1652865   -5.7610887    208.47876  0.044546743  0.045776854            2 
  391000    1.1891643   -5.7224127    209.05458  0.044555538  0.045764856            1 
  392000    1.2083211   -5.7375855    210.23737  0.044693319   0.04575398            2 
  393000    1.1458826   -5.7599534    209.87293  0.044502317  0.045741967            1 
  394000    1.1900861   -5.7839538    210.44907  0.044511225   0.04573038            3 
  395000     1.194666   -5.7130116    210.96233   0.04450682  0.045718214            3 
  396000    1.1997447   -5.7624913    210.93478  0.044388632  0.045705656            2 
  397000    1.1803955   -5.7311525    212.04228  0.044509295  0.045692894            4 
  398000    1.1983643    -5.727075    211.77333   0.04434115  0.045681123            3 
  399000    1.1840276    -5.801466    211.79645  0.044234847  0.045666882            2 
  400000    1.1906871   -5.7383637    213.76264  0.044533883  0.045654447            2 
  401000    1.1790781   -5.7332326    213.66499  0.044402532  0.045641715            1 
  402000    1.1640806   -5.7706409    214.02242  0.044366172   0.04562802            3 
  403000    1.2231592   -5.7207916     213.7025   0.04418993  0.045612417            4 
  404000     1.169993   -5.7703842    214.83347  0.044313834  0.045597405            2 
  405000    1.1857112   -5.7514851    214.69946  0.044176843  0.045581721            2 
  406000    1.1705765   -5.7605757    215.17743  0.044166139  0.045566137            5 
  407000    1.1555644   -5.7831436    215.29535  0.044081766  0.045549422            2 
  408000     1.196598    -5.791742     215.4577  0.044006884  0.045534423            5 
  409000    1.1620228   -5.7851462    217.06558  0.044226891  0.045519819            2 
  410000    1.1749321   -5.7680929    216.66274  0.044037143  0.045504384            1 
  411000    1.1801531   -5.7654915    217.31778  0.044062809  0.045488647            2 
  412000    1.1942023   -5.7847423    217.30031  0.043952328  0.045472573            2 
  413000    1.1997694   -5.8474996    217.51614  0.043889456  0.045456277            3 
  414000    1.1967843   -5.8047471    219.10421  0.044103102  0.045439927            2 
  415000     1.206808   -5.7339754    220.26164  0.044229245  0.045426083            5 
  416000     1.190042   -5.7793713    220.00415  0.044071343  0.045411198            3 
  417000    1.1761817   -5.7436728     221.1301  0.044190667  0.045398263            2 
  418000    1.1882271   -5.7889882    220.84682  0.044028473  0.045384334            3 
  419000    1.1966464   -5.7915617    220.94229   0.04394238  0.045370222            3 
  420000    1.1890084   -5.8061169    221.75393  0.043998795  0.045355349            4 
  421000    1.1942662   -5.7367115    222.40576  0.044023309  0.045340759            1 
  422000       1.1712   -5.7482467    223.52133  0.044139283  0.045325552            2 
  423000    1.1801389   -5.7867228    222.96506  0.043925347  0.045310769            2 
  424000    1.1898021   -5.7860627    223.88553  0.044002658  0.045296602            1 
  425000    1.1714249   -5.7456468    225.03169   0.04412386  0.045281741            6 
  426000    1.1807657   -5.7709841    225.71302  0.044153565  0.045269264            3 
  427000    1.1816584   -5.7453273     225.0563  0.043921995  0.045255677            3 
  428000    1.2029991   -5.8379082    225.22954  0.043853104  0.045240979            2 
  429000    1.2312005   -5.7602909    225.56352  0.043815758  0.045226234            4 
  430000    1.1719811   -5.7576101    226.47691  0.043890873  0.045212441            3 
  431000    1.1689755   -5.7776565    226.53501  0.043800272  0.045198286            2 
  432000    1.1856455   -5.7857783    227.69631    0.0439229   0.04518453            2 
  433000     1.179352   -5.7326963    228.27032  0.043931932  0.045169517            1 
  434000    1.1882034    -5.746227    228.03182  0.043784911  0.045154901            3 
  435000    1.1722852   -5.7454385    229.96237  0.044054093  0.045140914            3 
  436000    1.1708209   -5.7312679    230.11854  0.043982901  0.045127129            2 
  437000    1.1911449   -5.7890161    230.14568  0.043887429  0.045111174            6 
  438000    1.2011127   -5.7740016    230.09014  0.043776662  0.045095214            3 
  439000    1.2108365   -5.7687514    230.58668    0.0437712  0.045079645            2 
  440000     1.163598   -5.7428572    232.16117  0.043969919  0.045063963            2 
  441000    1.1781519   -5.7507976    231.46897  0.043739412  0.045048567            1 
  442000    1.1887452    -5.795434    231.88688  0.043719246  0.045032825            3 
  443000    1.1817728   -5.7741957    232.17697  0.043675126  0.045016622            4 
  444000    1.1990691    -5.790116    232.53614   0.04364417  0.045000851            2 
  445000    1.1605169   -5.7366187    233.56277  0.043738346  0.044986315            2 
  446000    1.1779691   -5.7659014    233.87004   0.04369769  0.044970292            3 
  447000    1.1773298   -5.7595634    234.25849   0.04367235  0.044954884            1 
  448000     1.165446   -5.8090474    234.23211  0.043569961  0.044939034            2 
  449000    1.1597145   -5.7708938    234.19595  0.043466211  0.044922431            2 
  450000    1.1695308   -5.7655217     235.5796  0.043625851  0.044906474            4 
  451000    1.1636105   -5.7589476    236.13709   0.04363213  0.044890115            2 
  452000    1.1759949   -5.7562856    235.98153   0.04350692   0.04487399            6 
  453000    1.1764692   -5.7801156    237.18978  0.043633145  0.044857138            4 
  454000    1.2092988   -5.7896887    236.84125  0.043473064  0.044840807            2 
  455000    1.1597771   -5.7851116    237.64898  0.043525453  0.044824474            4 
  456000    1.1724569   -5.7737542    238.15284  0.043522083  0.044808491            4 
  457000    1.1691414   -5.7692027    239.14689  0.043608113  0.044792287            3 
  458000    1.1989867   -5.7584294    239.18096  0.043519097  0.044776252            1 
  459000    1.1710659   -5.7367538    240.40747  0.043646962  0.044760558            1 
  460000    1.1711336   -5.7508591    240.70311  0.043605636  0.044745241            3 
  461000     1.176005   -5.7397343    241.28084  0.043615481  0.044731095            3 
  462000    1.1592764   -5.7793835    241.90603  0.043633843  0.044716601            3 
  463000    1.1689534   -5.8074645     241.6462  0.043492837  0.044701482            5 
  464000    1.2014412   -5.7273622    243.44788   0.04372268  0.044687707            2 
  465000    1.1611342   -5.7755857    242.17362   0.04340029  0.044672982            2 
  466000    1.1473889   -5.8040473    243.15427  0.043482523  0.044658137            2 
  467000     1.164392    -5.799492    243.62313  0.043473077  0.044643573            3 
  468000    1.1819845   -5.7718558    244.12055  0.043468758  0.044630182            3 
  469000    1.1893638   -5.7745031    244.38807  0.043423608  0.044616023            5 
  470000    1.1983752   -5.7208473    245.80354  0.043582189   0.04460204            3 
  471000    1.2042503   -5.8047861    245.27874  0.043396804  0.044588331            2 
  472000    1.2035211    -5.739169    245.21928  0.043294364  0.044572903            2 
  473000     1.162509   -5.7829348    246.21991  0.043379124  0.044557946            6 
  474000    1.1673428   -5.7646655    246.52969   0.04334207  0.044542479            1 
  475000    1.2029082   -5.8226787    246.16028  0.043186015  0.044525204            2 
  476000    1.1821246   -5.8377689    246.95321  0.043234105  0.044508752            2 
  477000    1.1870469   -5.7344737    248.53981  0.043420652  0.044493824            3 
  478000    1.1695685   -5.7782689    249.41993  0.043483251  0.044479097            2 
  479000    1.1606013   -5.7463677    250.35364  0.043554912  0.044465958            2 
  480000    1.1736563   -5.8034925    249.56738   0.04332767  0.044452612            4 
  481000    1.1770733   -5.7994754    250.96198  0.043479207  0.044438727            3 
  482000    1.1695843   -5.7725031    251.92961  0.043556295  0.044425211            2 
  483000    1.1782932   -5.7903011    251.34581  0.043365392  0.044412429            1 
  484000    1.1644017   -5.7720894    252.46286  0.043468124  0.044398919            5 
  485000    1.1723165   -5.7638138    253.32918  0.043527351  0.044386706            5 
  486000    1.1594047   -5.7890918    253.56325  0.043477923  0.044373721            1 
  487000    1.1619515   -5.7674016    254.54736  0.043557043  0.044361595            3 
  488000    1.1890568   -5.7702592    254.10835  0.043392819  0.044349279            6 
  489000    1.1650998   -5.8246716    253.73107  0.043239788  0.044336623            1 
  490000    1.1772689   -5.8202588    254.60449  0.043300083   0.04432379            4 
  491000    1.1604905   -5.7818761    256.35958  0.043509773  0.044311845            4 
  492000    1.1457748   -5.7364627    257.10234  0.043547144   0.04429965            3 
  493000    1.1548024   -5.7939383    255.89333   0.04325445  0.044287311            2 
  494000    1.1584513   -5.7678792      256.557  0.043278846  0.044273613            1 
  495000    1.1732591   -5.7335644     258.4018  0.043501986  0.044260882            2 
  496000     1.151473   -5.7855143    257.42862  0.043250777  0.044248624            4 
  497000    1.1959887   -5.7629566    258.76314  0.043387515  0.044235817            2 
  498000    1.1657828   -5.7621086    259.46648  0.043418086  0.044223859            3 
  499000    1.1538648   -5.8098274     258.3931   0.04315182  0.044211321            6 
  500000    1.1787624   -5.7977513    260.34558  0.043390929  0.044198989            2 
  501000    1.1622035   -5.7421718     261.1082  0.043431171  0.044186721            3 
  502000    1.1627737   -5.7762467     260.1011  0.043177473  0.044175062            2 
  503000    1.1618447   -5.7804418    261.65464  0.043349013  0.044163599            5 
  504000    1.1868012   -5.7977782    262.01141  0.043321992  0.044151953            2 
  505000    1.1553911   -5.7934451    262.16591  0.043261702  0.044140183            3 
  506000    1.1732065   -5.7478652    262.99672   0.04331303  0.044129235            2 
  507000    1.1747978   -5.8289149    262.59086  0.043160891  0.044117094            4 
  508000    1.1819919   -5.7722605     264.5447  0.043396441  0.044105675            1 
  509000    1.1576117   -5.7856475    265.65523  0.043492998  0.044094503            7 
  510000    1.1850293   -5.8082461    264.81676  0.043270712   0.04408331            2 
  511000      1.17384   -5.8197887    265.47781  0.043293837  0.044071633            3 
  512000    1.1909578   -5.8057522    265.42366  0.043200465   0.04405909            2 
  513000    1.1794993   -5.7936879    265.76465  0.043171645  0.044046901            4 
  514000    1.1807699    -5.813991    265.90518  0.043110438  0.044034805            3 
  515000    1.1775682   -5.8027857    267.17854  0.043232773  0.044023308            4 
  516000    1.1689073   -5.7691638    267.75236   0.04324166  0.044013195            2 
  517000    1.1545499   -5.8265296    267.23911  0.043075292   0.04400187            2 
  518000    1.1652873   -5.7727948    269.18317  0.043304886  0.043990202            1 
  519000    1.1604369   -5.7889211    269.46303  0.043266383  0.043979124            3 
  520000    1.1684012   -5.8085029    269.32208   0.04316059  0.043967552            1 
  521000    1.1506611   -5.7597117     271.3504  0.043402175  0.043955207            4 
  522000    1.1872912   -5.8088926    270.59972  0.043199189  0.043943543            2 
  523000    1.1820104   -5.7729405    271.21246  0.043214222  0.043932299            5 
  524000    1.1776369   -5.7899733    271.28676  0.043143569  0.043920896            5 
  525000    1.1662209   -5.7858484    272.37094  0.043233482  0.043910053            3 
  526000    1.1720845   -5.8313193    271.66383  0.043039264  0.043898527            3 
  527000    1.1682194   -5.7780918    273.54156  0.043254516  0.043887043            1 
  528000    1.1489659   -5.7758612     273.6057  0.043182718  0.043875304            4 
  529000    1.1670702   -5.7834397    274.29813  0.043210165  0.043864461            2 
  530000    1.1593233   -5.7541031    275.18018  0.043267323  0.043854211            2 
  531000     1.141023   -5.7970119    275.61781  0.043254521  0.043844146            2 
  532000    1.1771102   -5.7939929    276.29629  0.043279494  0.043833902            3 
  533000    1.1579564    -5.771046    277.07654  0.043320284  0.043824345            1 
  534000    1.1541072   -5.8034813      276.387  0.043131555   0.04381426            7 
  535000    1.1354456   -5.7906303    276.97024  0.043141782   0.04380437            3 
  536000    1.1857694   -5.7808043    278.66033  0.043324056  0.043794319            3 
  537000    1.1736121   -5.8150404     278.2643  0.043181922  0.043785288            5 
  538000    1.1849704   -5.7929266    279.10108   0.04323127  0.043775673            2 
  539000    1.1728807    -5.745527    279.72943  0.043248211  0.043766249            5 
  540000    1.1301394   -5.8238487    279.51867  0.043135598  0.043756743            3 
  541000    1.1406693   -5.8188769    279.93788  0.043120438  0.043746311            3 
  542000    1.1931521   -5.7676848    281.34485  0.043257204   0.04373725            4 
  543000    1.1549041   -5.8176989     281.3982  0.043185727  0.043728057            5 
  544000    1.1549424   -5.7801438    282.16324  0.043223535   0.04371917            1 
  545000    1.1593127   -5.7905785    282.95375  0.043265099  0.043710473            4 
  546000    1.1850065   -5.8568036    283.07165  0.043203853  0.043701506            4 
  547000    1.1752304   -5.8650273     283.4332  0.043179951  0.043693814            2 
  548000    1.1629122   -5.8129194    284.05951  0.043196397  0.043685918            2 
  549000    1.1787188   -5.8033843    285.42552  0.043325064  0.043678603            2 
  550000      1.16468   -5.7839045    284.82986   0.04315604  0.043671577            2 
  551000    1.1871829   -5.8407703    285.46884  0.043174356  0.043664484            5 
  552000     1.191484   -5.7935606    286.58133  0.043264089  0.043656871            2 
  553000    1.1538928   -5.7963559    287.02886  0.043253295  0.043649095            3 
  554000    1.1607018   -5.8038586    286.92686  0.043159877  0.043641083            5 
  555000    1.1639191   -5.8173316    286.80464   0.04306376   0.04363248            3 
  556000    1.1644251   -5.7836225    288.11965  0.043183401  0.043623146            3 
  557000    1.1387285   -5.8313421    287.27582  0.042979627  0.043614346            2 
  558000    1.1431231   -5.7687533    288.29565  0.043054905   0.04360512            2 
  559000    1.1698229   -5.8354339    288.07785  0.042945416  0.043595278            2 
  560000    1.1327192   -5.7923774    288.83408  0.042981261  0.043584937            4 
  561000    1.1319289   -5.8076431     289.1961  0.042958423  0.043573582            4 
  562000     1.181335   -5.8086087    288.88905  0.042836454  0.043563517            3 
  563000    1.1525966   -5.7632575     291.1958  0.043101806  0.043553235            3 
  564000    1.1525332   -5.7946277    290.51501  0.042924795  0.043542718            2 
  565000    1.1530935   -5.8131307    290.41055  0.042833415  0.043532014            3 
  566000    1.1539205   -5.8039477    290.63036    0.0427901  0.043521246            2 
  567000    1.1656801   -5.7985558    291.55863  0.042851062  0.043509804            1 
  568000    1.1598517   -5.8192214     292.2437   0.04287613  0.043499583            2 
  569000    1.1457711   -5.8087371    292.80637  0.042883182  0.043489325            2 
  570000    1.1747166   -5.8085215    293.45031  0.042902092  0.043479146            2 
  571000     1.154848    -5.803208    293.74465  0.042869914   0.04346888            3 
  572000    1.1417214   -5.8523635     293.9264  0.042821445  0.043458214            2 
  573000    1.1686174   -5.8308347    294.75844   0.04286772  0.043447345            3 
  574000    1.1847194    -5.773714      295.386  0.042884146  0.043437098            1 
  575000     1.159661   -5.8137049    296.38651  0.042954566  0.043427187            3 
  576000    1.1408578   -5.8137191     296.4331  0.042886733  0.043417146            3 
  577000    1.1529549   -5.8174288    297.05451  0.042902154  0.043408101            2 
  578000    1.1444391   -5.7988307    298.45913   0.04303044  0.043399397            2 
  579000    1.1418498   -5.7973238     298.7294   0.04299502  0.043390563            5 
  580000    1.1695597    -5.816491    299.96386  0.043098256  0.043381907            1 
  581000    1.1650856   -5.8423924    297.66416  0.042694228  0.043373007            2 
  582000    1.1474221    -5.835259    298.37963  0.042723315  0.043363548            4 
  583000    1.1284608   -5.8007757    299.38598  0.042793879  0.043353544            2 
  584000    1.1837696    -5.822129    300.36391  0.042860147  0.043343137            2 
  585000    1.1459435   -5.8360095    300.12745  0.042753197  0.043333358            2 
  586000    1.1722612    -5.798376    301.36723  0.042856545  0.043324181            3 
  587000    1.1460766   -5.8452237    299.86106  0.042569713  0.043315093            4 
  588000    1.1771878   -5.8542124    302.37602  0.042853745  0.043306304            2 
  589000    1.1513257   -5.7720977    302.95366  0.042862713  0.043297208            2 
  590000    1.1399138   -5.8039665    303.63241  0.042885933  0.043288371            3 
  591000    1.1639422     -5.82059    304.92835  0.042996101  0.043279702            5 
  592000    1.1586642   -5.8416476     303.3144  0.042696284  0.043270429            2 
  593000    1.1700179   -5.8221802    304.02565  0.042724234  0.043261282            4 
  594000    1.1604508   -5.8071316    305.08358  0.042800726  0.043253099            1 
  595000    1.1530657   -5.7953765    306.38826  0.042911521  0.043245743            2 
  596000    1.1745025      -5.8427    306.50088  0.042855269  0.043237116            4 
  597000    1.1460115   -5.8410844    307.57078  0.042932828  0.043229309            4 
  598000    1.1518546   -5.8295496    307.52977  0.042855319  0.043221136            2 
  599000    1.1663578    -5.836727    308.33677  0.042896045  0.043213371            3 
  600000    1.1503858    -5.801428    308.92292  0.042905961  0.043205681            2 
  601000    1.1714557   -5.8317045    309.88588  0.042968092  0.043197957            1 
  602000    1.1669524   -5.7955631    309.35841    0.0428237  0.043191051            6 
  603000    1.1678991   -5.8429971    310.18674  0.042867156  0.043183338            3 
  604000    1.1455789   -5.8225679    311.64499  0.042997377  0.043175649            2 
  605000    1.1742027   -5.8498317    310.55494  0.042776162  0.043168403            5 
  606000    1.1782572   -5.8234957    311.86869  0.042886233  0.043159923            4 
  607000    1.1494272   -5.8027558    311.26013  0.042732033  0.043152523            2 
  608000    1.1534512   -5.8260294    312.32198  0.042807289  0.043145529            5 
  609000    1.1313032   -5.8209425    312.47684  0.042758188  0.043137737            2 
  610000    1.1588185   -5.8184507    312.73136  0.042722864  0.043129844            3 
  611000    1.1634882   -5.8304099     312.6348  0.042639771  0.043121512            1 
  612000    1.1499334   -5.8625813    312.70806  0.042580073  0.043112773            5 
  613000    1.1387122   -5.8453746    312.87835  0.042533761  0.043103311            3 
  614000    1.1365199   -5.8370542    314.04575   0.04262293   0.04309423            3 
  615000    1.1592564   -5.8246751    314.44609  0.042607871  0.043084912            1 
  616000    1.1494702   -5.8614462    314.78114  0.042584029  0.043075708            3 
  617000    1.1544394   -5.8426591    313.78383  0.042380311  0.043065786            2 
  618000    1.1543295   -5.8564672    314.06321  0.042349408  0.043055906            2 
  619000    1.1691055   -5.8585049    315.23099  0.042438206  0.043046164            5 
  620000    1.1306286   -5.8187293    317.11566  0.042623072  0.043037273            4 
  621000    1.1545428   -5.7848651    318.24177  0.042705551  0.043028301            5 
  622000    1.1318184   -5.8424332    316.85835  0.042451548  0.043019369            3 
  623000     1.164424   -5.8309955    318.41799  0.042592027  0.043010485            7 
  624000     1.162868   -5.8674434    318.61044  0.042549471  0.043002151            4 
  625000    1.1302164    -5.811543    319.83783  0.042645045  0.042993987            5 
  626000    1.1353054   -5.8453811     319.4392  0.042523856  0.042986309            2 
  627000    1.1329453   -5.8740279    320.20059  0.042557229  0.042977835            2 
  628000    1.1425885   -5.8892021    318.91278  0.042318574  0.042968635            5 
  629000    1.1337033   -5.8584773    320.41353  0.042450123  0.042959002            2 
  630000    1.1298882   -5.8202249     323.0041  0.042725411   0.04295077            2 
  631000    1.1674915   -5.8198622    321.47694  0.042456014  0.042942309            2 
  632000    1.1749363   -5.8295074    322.22594  0.042487597  0.042933775            1 
  633000    1.1477649   -5.8391169    322.41162  0.042444921  0.042925263            5 
  634000    1.1791234   -5.8136104     324.1109  0.042601328  0.042917129            3 
  635000    1.1489354   -5.8558055    323.02429  0.042391639  0.042908404            4 
  636000     1.184586   -5.7913646    324.27234  0.042488514  0.042899903            3 
  637000    1.1717108   -5.8067787    325.03621  0.042521744  0.042891558            2 
  638000    1.1300889    -5.858279    324.10797  0.042333852  0.042882626            4 
  639000    1.1761941   -5.8570388    325.24028  0.042415268  0.042873642            3 
  640000    1.1696861   -5.8429605    324.99389  0.042316912   0.04286474            2 
  641000    1.1417416   -5.8640225    325.70459   0.04234329  0.042855454            6 
  642000    1.1373206   -5.8510591    327.17753  0.042468526  0.042846324            2 
  643000    1.1455584   -5.8351453    327.29169  0.042417274  0.042837189            2 
  644000    1.1385653   -5.8271276    328.73992   0.04253881  0.042828589            3 
  645000    1.1438076   -5.8364886    328.79715  0.042480251  0.042819832            2 
  646000    1.1586139   -5.8171959    329.19595  0.042465938  0.042811123            1 
  647000    1.1658143   -5.8348354    328.70302  0.042336814   0.04280247            3 
  648000    1.1456517   -5.8507465    327.72487  0.042145688  0.042792575            4 
  649000    1.1256736   -5.8798402    330.34491  0.042417168   0.04278305            7 
  650000    1.1428613   -5.8560633    329.49469  0.042242908  0.042774318            9 
  651000    1.1693617   -5.8438183     329.8183  0.042219444  0.042764884            4 
  652000    1.1454583   -5.8178662    332.05963   0.04244116  0.042756482            2 
  653000    1.1480317   -5.7942419    332.88788  0.042481863  0.042748483            3 
  654000    1.1312084   -5.8525356    332.68951  0.042391629  0.042739867            3 
  655000    1.1519125   -5.8525193    331.27056  0.042146381  0.042731776            4 
  656000    1.1612468   -5.7852955    333.97869  0.042426155  0.042723345            2 
  657000    1.1460781   -5.8564033      333.618   0.04231583  0.042714996            2 
  658000     1.163083    -5.843466    335.67312  0.042511794  0.042706924            3 
  659000    1.1383773   -5.8287608    335.61495  0.042439927  0.042699512            6 
  660000    1.1583729    -5.849727    337.18394  0.042573729  0.042691803            2 
  661000     1.133859   -5.8623936     336.6636  0.042443722  0.042684489            3 
  662000    1.1371962   -5.8824127    337.02946  0.042425662  0.042677086            1 
  663000    1.1302244   -5.8188568    337.85509  0.042465446  0.042669422            1 
  664000    1.1505594   -5.8423677    338.31806  0.042459596  0.042661417            3 
  665000    1.1386814   -5.7935031    338.30322  0.042393887  0.042654288            5 
  666000    1.1521535   -5.8622432    338.16202  0.042312565  0.042647108            3 
  667000    1.1633364    -5.861684    337.77151  0.042200339  0.042639353            4 
  668000    1.1472968   -5.8247078    341.56856  0.042610848  0.042632174            2 
  669000    1.1282657   -5.8232969    341.09463   0.04248812  0.042625543            1 
  670000     1.123418   -5.8340812    340.92262  0.042403311   0.04261814            3 
  671000    1.1553695   -5.8929044    340.58913    0.0422987  0.042610574            1 
  672000    1.1279605    -5.872869    340.69552  0.042248948  0.042602394            3 
  673000    1.1138959    -5.884102     340.7939  0.042198353  0.042594203            3 
  674000    1.1485016   -5.8346859    342.69432  0.042370712  0.042586954            2 
  675000    1.1319987   -5.8467976    343.31381  0.042384421  0.042579722            2 
  676000     1.144587   -5.8949015    342.95943  0.042278036  0.042571818            6 
  677000    1.1371928   -5.8392289    342.85666  0.042202937  0.042564317            5 
  678000    1.1543865   -5.8879263    342.38806  0.042083095  0.042555901            2 
  679000     1.158607   -5.8468816    344.87571  0.042326425  0.042548018            4 
  680000    1.1217325   -5.8612138    345.28387    0.0423142  0.042540066            2 
  681000    1.1242509   -5.8746156    344.53818  0.042160815  0.042531747            5 
  682000    1.1541748   -5.8498353    345.56579  0.042224559   0.04252398            3 
  683000    1.1444822   -5.8939242    344.05219  0.041978061  0.042516269            6 
  684000    1.1430522   -5.8747726    346.52159  0.042217543   0.04250811            3 
  685000    1.1269783   -5.8205236    347.28114  0.042248314  0.042500573            1 
  686000    1.1286941   -5.8611623    345.55164  0.041976632  0.042492451            4 
  687000    1.1359933   -5.8529119    348.65527  0.042292003  0.042484276            3 
  688000     1.149682   -5.8527999    348.11606   0.04216522   0.04247659            2 
  689000    1.1495525   -5.8305728    348.91313  0.042200427  0.042468401            1 
  690000    1.1370922   -5.8821681    349.09367  0.042161072  0.042460684            3 
  691000    1.1449951   -5.8278101    349.77616  0.042182364  0.042454002            4 
  692000    1.1012132   -5.8711403    350.69016  0.042231474  0.042447033            3 
  693000    1.1193732   -5.8393865    351.25759  0.042238767  0.042440765            2 
  694000    1.1511938   -5.8454509    352.12345  0.042281874  0.042434235            5 
  695000    1.1413198   -5.8936293    351.62023  0.042160699  0.042427351            2 
  696000    1.1261648   -5.8325433    352.67712  0.042226666  0.042419952            4 
  697000    1.1551237   -5.8220748    352.88589  0.042191044  0.042413158            2 
  698000     1.145317   -5.9114985    351.14404  0.041922641  0.042405727            4 
  699000     1.148451   -5.8690957    354.69517  0.042286025  0.042398504            3 
  700000    1.1503135   -5.8579019    354.45067  0.042196508  0.042391474            2 
  701000    1.1251436   -5.8703946    354.98482  0.042199812  0.042384442            2 
  702000    1.1504643   -5.9007907    355.39319  0.042188175  0.042377554            3 
  703000    1.1345922   -5.8952599    355.55104  0.042146875  0.042370645            2 
  704000    1.1352029   -5.8477485    357.87577  0.042362189  0.042364154            2 
  705000     1.146834   -5.8805471    357.63655  0.042273824  0.042357907            2 
  706000    1.1411882     -5.81826    358.21486  0.042282207  0.042350864            3 
  707000    1.1489522   -5.8907423    357.34137  0.042119445  0.042343538            2 
  708000    1.1390415   -5.8500536    358.31089  0.042174069   0.04233647            2 
  709000    1.1480618   -5.8764773    358.90449  0.042184354   0.04232977            4 
  710000    1.1393977   -5.8766965    358.53988  0.042082145  0.042322936            5 
  711000    1.1276411    -5.873062    358.37646  0.042003804  0.042315886            3 
  712000    1.1207144    -5.864224    358.83522  0.041998505   0.04230816            2 
  713000    1.1472274   -5.8924474    359.36174  0.042001139  0.042300387            6 
  714000    1.1565868   -5.8935231    359.70887  0.041982828  0.042292394            3 
  715000    1.1455658   -5.8642396    359.87788  0.041943809  0.042284963            4 
  716000    1.1255661   -5.8938763    360.71644  0.041982826  0.042277175            2 
  717000    1.1464896   -5.8551114    361.83276  0.042054017   0.04226995            3 
  718000    1.1320964   -5.8279641    362.98974  0.042129728   0.04226252            2 
  719000    1.1218774   -5.8551876    363.74206  0.042158328  0.042254937            6 
  720000     1.160865   -5.9020961    364.05377  0.042135852  0.042247737            2 
  721000     1.145576   -5.8180002    364.79784  0.042163412  0.042240909            2 
  722000    1.1460186   -5.8923723     363.2933   0.04193136  0.042234143            2 
  723000    1.1467241   -5.8798149     363.8913  0.041942289  0.042226545            2 
  724000    1.1537383   -5.8841568    365.17337  0.042031925   0.04221937            2 
  725000    1.1440978    -5.901024    365.80036  0.042046018  0.042212203            3 
  726000    1.1555272   -5.8463242    367.25381  0.042154936  0.042205613            1 
  727000    1.1480259   -5.8384252    366.99629  0.042067434  0.042198985            2 
  728000    1.1583463   -5.8437302    367.83379  0.042105517  0.042193242            3 
  729000    1.1175226   -5.8745085    368.00068  0.042066836  0.042187149            3 
  730000    1.1679386    -5.874185    368.46699  0.042062442  0.042181289            5 
  731000    1.1504127   -5.8375209    369.44869  0.042116813  0.042175025            4 
  732000    1.1421464   -5.8591418    369.33921  0.042046813  0.042168917            2 
  733000    1.1294117   -5.8633287     370.6357  0.042136846  0.042162866            2 
  734000    1.1151934   -5.8799753    369.71522  0.041974934  0.042156119            5 
  735000    1.1235685   -5.9119349    370.42715  0.041998543  0.042149822            2 
  736000    1.1402658   -5.8565765    372.37944  0.042162527  0.042143853            2 
  737000    1.1310462   -5.8860712    371.39093  0.041993547    0.0421378            3 
  738000     1.129948   -5.8975188    372.81373  0.042097305  0.042131882            3 
  739000    1.1428977   -5.8991488    371.73553  0.041918756  0.042125747            2 
  740000    1.1569121   -5.8708608    372.34508  0.041930753  0.042119161            2 
  741000    1.1571491   -5.8738736    372.54357  0.041896488  0.042112341            2 
  742000    1.1236202   -5.9150893    372.76965  0.041865415  0.042105961            2 
  743000    1.1341589   -5.8317174    374.83647  0.042040879  0.042099613            2 
  744000    1.1381526   -5.8738247    374.87498  0.041988685  0.042093272            3 
  745000    1.1450247   -5.8779379    374.95415   0.04194118  0.042087046            3 
  746000    1.1015634   -5.8618135    377.44687  0.042163413  0.042081626            3 
  747000    1.1283012   -5.8455751     376.9596  0.042052611  0.042076352            4 
  748000    1.1522161   -5.8754224     377.7639  0.042085996  0.042070414            3 
  749000    1.1186928   -5.8795669    378.68411  0.042132188  0.042064784            5 
  750000    1.1433642   -5.8773897    378.56409  0.042062677  0.042059021            1 
  751000    1.1289702   -5.8898864    378.66119  0.042017443  0.042053471            2 
  752000    1.1393793   -5.8803691    378.91746  0.041989967  0.042047602            3 
  753000    1.1165591   -5.8477115    379.66268  0.042016675  0.042041564            5 
  754000    1.1142819   -5.8883846    380.56073  0.042060204  0.042035646            4 
  755000    1.1372509   -5.9106696    378.27706  0.041752435  0.042029468            5 
  756000    1.1400987   -5.8533182    380.41848  0.041933254  0.042023222            2 
  757000    1.0958984   -5.8681801     382.4861  0.042105471  0.042016809            2 
  758000    1.1321881   -5.8690855    383.07466  0.042114628  0.042011028            3 
  759000    1.1317757   -5.8574051    383.09877  0.042061788  0.042005149            5 
  760000    1.1366879   -5.9188457     381.4645  0.041827248  0.041999364            3 
  761000    1.1230778    -5.854988    383.33487  0.041977099  0.041993833            6 
  762000    1.1134382   -5.8824924    383.44421  0.041933968  0.041988452            3 
  763000    1.1162548   -5.8759257    385.40077  0.042092701   0.04198262            4 
  764000    1.1245055   -5.8746756    384.21987  0.041908799  0.041976538            3 
  765000    1.1402385   -5.8815994     384.1773   0.04184938  0.041970158            1 
  766000    1.1361834   -5.8695413    385.33456  0.041920644   0.04196396            3 
  767000    1.1295716   -5.8528439    385.99185  0.041937402  0.041956983            3 
  768000    1.1528824   -5.8711324    386.02947  0.041886878  0.041950663            2 
  769000    1.1282746    -5.880134    386.70795  0.041905933  0.041943934            3 
  770000    1.1174532   -5.8852268    386.25077  0.041802031  0.041937007            4 
  771000    1.1215215   -5.8990991     385.0357  0.041616482  0.041929989            1 
  772000    1.1184509   -5.8577809    388.02568  0.041885328  0.041922889            2 
  773000    1.1166429   -5.8682169    388.27483  0.041858003  0.041916069            3 
  774000    1.1159894   -5.8824591    387.91325  0.041764992  0.041909039            5 
  775000     1.137301   -5.8811403    388.17794  0.041739564  0.041902107            2 
  776000     1.135298   -5.8936513     389.4066  0.041817719   0.04189548            2 
  777000    1.1290306   -5.8641444     390.1927  0.041848209  0.041889072            3 
  778000    1.1047275   -5.8935918    390.12388  0.041787048    0.0418828            3 
  779000    1.1478518   -5.9009164    389.67058  0.041684914  0.041875473            6 
  780000    1.1473311   -5.8899029    389.59376  0.041623265  0.041868076            2 
  781000    1.1324044   -5.9299417    389.14118  0.041521679  0.041860666            2 
  782000    1.1152182   -5.9304273    389.72127  0.041530399  0.041852994            3 
  783000    1.1169208   -5.8980436    389.37378  0.041440377  0.041845118            3 
  784000    1.1206985   -5.8675471    392.32517   0.04170123  0.041837826            2 
  785000    1.1401382   -5.8940506    391.09314  0.041517318  0.041830367            7 
  786000    1.1209226   -5.8566399    392.91658  0.041657822  0.041823278            4 
  787000    1.1306611   -5.8868819    393.12718   0.04162719  0.041816413            3 
  788000    1.1466723   -5.9276132    391.54733  0.041407289  0.041808689            3 
  789000    1.1448719   -5.8977043    393.49604   0.04156063  0.041800837            5 
  790000    1.1147181   -5.9000951    393.48104  0.041506439  0.041793194            3 
  791000    1.1269168   -5.9045841    394.28393  0.041538551  0.041785653            5 
  792000    1.1239037   -5.9163517    393.96609  0.041452661   0.04177813            5 
  793000    1.1279083   -5.8825711    395.81445  0.041594625  0.041771041            2 
  794000    1.1139307   -5.9178435      395.168  0.041474391  0.041764064            2 
  795000    1.1274808   -5.9301364    396.24016  0.041534608  0.041756865            3 
  796000    1.1104353   -5.9376529     396.0172  0.041459087  0.041749757            2 
  797000    1.1037824   -5.9053517    397.48181  0.041560206  0.041742563            3 
  798000    1.1162353   -5.8590506    399.35967  0.041704226  0.041735407            3 
  799000    1.1118453   -5.8591526    400.16505   0.04173603  0.041728664            4 
  800000    1.1168876   -5.8825327    400.09401  0.041676459  0.041722246            1 
  801000    1.1361359   -5.8836966    399.94009  0.041608416   0.04171525            5 
  802000    1.1199096   -5.9158536    399.90233  0.041552611  0.041708703            2 
  803000    1.1068811   -5.8690478    399.63095  0.041472701  0.041701785            3 
  804000    1.1183695   -5.9042032    400.38472  0.041499246  0.041694854            3 
  805000    1.1466591   -5.9319465    398.83026  0.041286776  0.041687296            7 
  806000    1.1019236   -5.9337314    399.11762  0.041265263  0.041679628            3 
  807000    1.1269975   -5.8919403    402.00123  0.041511899  0.041672195            3 
  808000    1.1151246   -5.8819122    402.67752  0.041530272  0.041664541            4 
  809000    1.1313525   -5.8813729    402.47829  0.041458415  0.041657404            3 
  810000    1.1211632   -5.9275183    402.94867  0.041455624  0.041649805            5 
  811000    1.1277679   -5.9103017     402.5032  0.041358734  0.041642506            3 
  812000    1.1132195    -5.917663    403.15896  0.041375099  0.041634792            2 
  813000    1.0959236   -5.9271513    404.50081  0.041461748  0.041627096            2 
  814000    1.1315995   -5.8910238      403.592  0.041317772  0.041619591            4 
  815000    1.1172593   -5.8654382    405.97799  0.041511042  0.041612023            1 
  816000      1.11329   -5.8909524    405.15502  0.041376126  0.041604913            3 
  817000    1.1259127   -5.9256853    404.08075  0.041215907  0.041597406            5 
  818000    1.1377379   -5.9046382    405.71068  0.041331569   0.04159004            2 
  819000    1.1490902   -5.9435755     405.8313  0.041293376  0.041581775            5 
  820000    1.1036493   -5.9144862    407.44068  0.041406573  0.041573749            2 
  821000    1.1213383   -5.8553014    408.32954   0.04144636  0.041566704            4 
  822000    1.1483467   -5.8776531    407.74823  0.041337007  0.041559506            2 
  823000    1.1108592   -5.8942063    408.43978  0.041356802  0.041552043            5 
  824000    1.1141563    -5.887722    408.55497  0.041318262   0.04154489            3 
  825000     1.103645   -5.8997108    408.45906   0.04125849  0.041537438            4 
  826000    1.1251727   -5.9223756    408.81929  0.041244884  0.041529615            5 
  827000    1.1230939   -5.8655779    410.13831  0.041327923  0.041521871            3 
  828000    1.0848179   -5.9058921    410.45927  0.041310313  0.041514106            2 
  829000    1.1172174   -5.8961264    411.01846  0.041316693  0.041506704            5 
  830000    1.1168028   -5.9322027    409.81061  0.041145644  0.041499267            4 
  831000    1.1040929   -5.8934525     412.0583  0.041321531  0.041491389            3 
  832000    1.1381514   -5.9148159    411.32813  0.041198731  0.041483933            3 
  833000    1.1179137   -5.8915976    412.28139  0.041244637  0.041476123            4 
  834000    1.0957001   -5.9130659    412.86971  0.041253968  0.041467764            5 
  835000    1.1008493   -5.9522591    412.05404  0.041123158   0.04145965            5 
  836000     1.096713   -5.9055254    412.96452  0.041164725   0.04145104            3 
  837000    1.1469229    -5.947903    412.26187  0.041045586  0.041442361            2 
  838000    1.1080884   -5.9021745    412.61673  0.041031895  0.041433559            3 
  839000     1.105778   -5.9293903    412.36337  0.040957824  0.041424588            3 
  840000    1.1190317   -5.9101427    415.17221  0.041187719  0.041415783            4 
  841000    1.1078252   -5.9192795    414.31867  0.041054169  0.041406691            4 
  842000    1.1254937   -5.9335004    414.30357  0.041003916  0.041398164            5 
  843000    1.1342009   -5.8741978    416.24101  0.041146798  0.041389355            3 
  844000    1.1019977   -5.8680966    416.34698  0.041108509  0.041381146            4 
  845000      1.09846    -5.869095    415.23591  0.040950287  0.041373023            4 
  846000    1.1408268   -5.9073438    417.22576  0.041097888  0.041364614            2 
  847000     1.108434   -5.9141764     416.5131   0.04097925  0.041356212            3 
  848000    1.1221527   -5.9088402    417.67556  0.041045161  0.041347379            5 
  849000     1.124283   -5.9691457    415.81094  0.040813795  0.041338053            2 
  850000    1.1007176   -5.8746952    418.29247  0.041009066  0.041328724            2 
  851000    1.1197405   -5.9668929    415.97929  0.040734361  0.041319274            2 
  852000    1.1151105   -5.9167227    415.99549  0.040688135  0.041309603            3 
  853000    1.1014153   -5.9416949    418.17779  0.040853633  0.041300297            3 
  854000    1.1212536   -5.9193862    417.43861  0.040733666  0.041291305            8 
  855000    1.1221804   -5.9107158    418.82854  0.040821495  0.041282886            3 
  856000    1.1030828     -5.95459    417.98621  0.040691804  0.041273646            2 
  857000    1.0883977   -5.8913152    420.87176  0.040924908  0.041264169            5 
  858000     1.119453   -5.9268337    418.05009  0.040603155  0.041255181            1 
  859000    1.1238547   -5.9206718    422.11877  0.040950598  0.041246118            6 
  860000    1.1144902   -5.9055113    421.58557  0.040851315  0.041237171            2 
  861000    1.1185414   -5.8933987    423.08762  0.040949247  0.041228424            3 
  862000    1.1092991   -5.9328481    422.88161  0.040881826  0.041219877           11 
  863000    1.1264241   -5.9152194    423.92403  0.040935113  0.041211364            3 
  864000    1.1359842   -5.9314264    423.19374  0.040817297  0.041202776            2 
  865000    1.1321965   -5.9351618    423.18059  0.040768843  0.041194318            4 
  866000    1.1111191   -5.8794209    424.66095  0.040864217  0.041185655            3 
  867000    1.0826623   -5.9073813    427.19107  0.041060272  0.041177673            4 
  868000    1.1122413   -5.8994084    425.52534  0.040853047  0.041169521            3 
  869000    1.1136332   -5.9155151    427.79556   0.04102374  0.041161383            6 
  870000    1.1013739   -5.9182003    426.82607  0.040883723  0.041153487            4 
  871000      1.10494   -5.8920389    427.10241  0.040863224  0.041145387            1 
  872000    1.0942015    -5.946465    425.47518  0.040660855  0.041136464            4 
  873000    1.1214271   -5.9255384    428.10834   0.04086563  0.041127453            3 
  874000    1.0849223   -5.9440269    427.68137  0.040778163  0.041118352            3 
  875000    1.1137285   -5.9414212    428.79387  0.040837512  0.041109669            4 
  876000    1.1034286   -5.9457616    427.03325  0.040623407  0.041100538            3 
  877000    1.1093284   -5.9196922    429.66314   0.04082698  0.041092075            2 
  878000     1.084238   -5.8821436    430.00499  0.040812926  0.041083808            2 
  879000    1.1117755   -5.8920591    429.83837  0.040750699  0.041075604            4 
  880000    1.1046152     -5.90956    429.92234  0.040712343  0.041067281            3 
  881000    1.1318395   -5.9610437    429.91227  0.040665179  0.041058952            6 
  882000    1.1142752   -5.9359383    431.77902  0.040795448  0.041050759            3 
  883000    1.1111037   -5.9182388    433.36288  0.040898724  0.041042326            4 
  884000    1.1018231    -5.938562    431.59028  0.040685358  0.041033996            2 
  885000    1.1305468   -5.9428629    430.10212  0.040499258  0.041025459            7 
  886000    1.0987495   -5.8940742    436.09314  0.041017037  0.041016867            2 
  887000    1.0990864    -5.947503    431.50551  0.040539788   0.04100803            7 
  888000    1.1361318   -5.9980121    433.05555  0.040639597  0.040999209            4 
  889000    1.1351058   -5.9213201    434.08888  0.040690746   0.04099011            3 
  890000    1.1040395   -5.9407407    432.78107  0.040522572    0.0409815            7 
  891000    1.1095273   -5.9363218    433.95453  0.040586843  0.040972899            3 
  892000      1.12283   -5.9397774    434.48011  0.040590444  0.040964052            3 
  893000    1.1141455   -5.9608412     433.7321  0.040475187  0.040954558            2 
  894000    1.1013331   -5.9585099    435.36531   0.04058215  0.040945017            3 
  895000    1.0926616   -5.9554678    436.06199  0.040601675  0.040936008            3 
  896000    1.1026964   -6.0043676    434.87535  0.040445996  0.040927224            6 
  897000    1.1508723   -5.9064856    437.49968  0.040644712  0.040919192            4 
  898000    1.1173104    -5.883564    438.16017  0.040660743  0.040910964            3 
  899000    1.1028645   -5.9245505    438.05979  0.040606209  0.040902644            2 
  900000    1.1088641   -5.9636388    437.20921  0.040482334   0.04089421            6 
  901000    1.0867996   -5.9754334    438.38673  0.040546313  0.040885388            2 
  902000    1.1125899   -5.9738572    438.28275  0.040491754  0.040876251            3 
  903000    1.0998814   -5.9801355    440.17331  0.040621384  0.040867556            3 
  904000    1.1407812   -5.9639964     438.3885   0.04041192  0.040858828            2 
  905000    1.1048905     -5.94555     438.7875  0.040404006  0.040850099            4 
  906000    1.1144789   -5.9407966    440.04567  0.040475135  0.040841212            2 
  907000    1.1066156   -5.9264641    441.79468  0.040591206  0.040832575            1 
  908000    1.1182305    -5.927139    442.09491  0.040574055  0.040824458            5 
  909000    1.0986087   -5.9112362    443.01573  0.040613836  0.040816047            2 
  910000    1.0947776   -5.9363314    442.66825  0.040537385  0.040807145            3 
  911000    1.1193625   -5.9728367    440.68987  0.040311916  0.040798448            2 
  912000    1.1213347   -5.9328419    443.04011  0.040482466  0.040789528            7 
  913000    1.1196634   -5.9722528    441.83238  0.040327891  0.040780799            5 
  914000    1.1091416   -5.9741604    442.50324  0.040344935  0.040771646            4 
  915000    1.1070907   -5.9606006    443.48388  0.040390153  0.040762195            3 
  916000    1.1106635   -5.9169852    443.76808  0.040371914  0.040752922            3 
  917000    1.1268728   -5.9551094    445.32296  0.040469189  0.040743898            2 
  918000    1.0907163   -5.9437347    444.78945  0.040376675  0.040735135            2 
  919000    1.1053777   -5.9361809    446.05832  0.040447798  0.040726358            2 
  920000    1.0996696   -5.9019857    445.75021  0.040375925  0.040717653            2 
  921000    1.0995439   -5.9127695    446.15284  0.040368516  0.040709145            3 
  922000    1.1093596   -5.9547956    445.96313  0.040307586  0.040700335            3 
  923000    1.1115129   -5.9578531    448.41932  0.040485674  0.040691277            1 
  924000    1.0923689   -5.9291795    446.40142  0.040259868  0.040682247            3 
  925000    1.1175699   -5.9591402    444.95294   0.04008585  0.040673074            2 
  926000    1.0947482   -5.9311812    446.51833  0.040183435  0.040663972            6 
  927000    1.0900789   -5.9609157    447.67908  0.040244434  0.040654334            3 
  928000    1.1159821    -5.927679    446.42273  0.040088248  0.040644943            4 
  929000     1.130313   -5.9646255    447.76288   0.04016531  0.040635525            3 
  930000    1.1054161   -5.9729128    446.79599  0.040035483  0.040625102            2 
  931000     1.126196   -5.9450115    447.60669  0.040065046  0.040615401            3 
  932000    1.0780978   -6.0088018    446.50335  0.039923404  0.040605511            3 
  933000    1.1241843   -5.9452052    448.32067  0.040042932  0.040594857            2 
  934000    1.1193796   -5.9422502    449.87938  0.040139131  0.040584755            2 
  935000    1.1104397   -5.9643922    449.49126   0.04006161  0.040574149            3 
  936000     1.102771   -5.9443573     449.2437  0.039996768  0.040563587            3 
  937000    1.1101423   -5.9441609    449.89585  0.040012082  0.040553303            3 
  938000    1.0927817   -5.9525679    451.47694  0.040109892  0.040542869            6 
  939000    1.1048537   -6.0002329    449.51164  0.039892762  0.040532693            6 
  940000    1.1250083    -5.983372    450.03304  0.039896546  0.040522209            4 
  941000     1.088174   -5.9383867    452.04545  0.040032364  0.040512097            3 
  942000    1.0863224   -5.9440086    452.73242  0.040050639  0.040502071            4 
  943000    1.1193337   -5.9397331    453.45457  0.040071984  0.040492255            3 
  944000    1.1001026   -5.9387305     452.1129  0.039911096  0.040481998            4 
  945000    1.0985954    -5.948901    453.25127  0.039969248  0.040472158            1 
  946000    1.1173144   -5.9886645    454.23406  0.040013571  0.040462592            3 
  947000    1.0711589   -5.9857374    453.64773  0.039919722  0.040453064            5 
  948000    1.0877195   -5.9422839    454.52627  0.039954841  0.040443738            2 
  949000     1.114137   -5.9764569    453.95085   0.03986221  0.040434024            3 
  950000    1.1146932   -5.9617635    456.75535  0.040066259  0.040424738            3 
  951000    1.0851518   -5.9778968    457.85559  0.040120539  0.040415395            4 
  952000    1.0947624   -5.9585774    456.44195  0.039954652  0.040406333            3 
  953000    1.0888639   -5.9147733    459.19648  0.040153592  0.040397577            5 
  954000    1.1168076   -5.9629416     456.3295  0.039861068  0.040388684            2 
  955000    1.1076165   -5.9617588    457.39698  0.039912476  0.040379603            5 
  956000    1.0931792    -5.977942    458.46562  0.039963879  0.040369806            5 
  957000    1.0729557    -5.945878    459.83373  0.040041251  0.040360302            2 
  958000    1.1092806   -5.9287451    459.07482  0.039933439  0.040350639            4 
  959000    1.1060759   -5.9425484     459.9299  0.039966102  0.040341505            2 
  960000    1.1019281   -5.9801541    457.92931  0.039750808   0.04033156            2 
  961000    1.0781225   -5.9718153     459.7226   0.03986495  0.040321703            2 
  962000    1.0970429   -5.9675597     459.6737  0.039819274  0.040311635            3 
  963000    1.0878899   -5.9463527     460.0927  0.039814183  0.040301587            4 
  964000    1.1246812   -5.9606369     460.8734   0.03984037  0.040292096            2 
  965000    1.1134283   -5.9786763    461.33549  0.039838988  0.040282338            5 
  966000    1.0826802   -5.9668901    462.50347  0.039898505  0.040272505            2 
  967000    1.0812692   -5.9552645    463.04255  0.039903701  0.040263211            3 
  968000    1.1067356   -5.9914282     462.3055  0.039799027  0.040253911            4 
  969000     1.095336   -5.9597029    463.08033   0.03982459  0.040245038            6 
  970000    1.0789281   -5.9512924      466.351  0.040064519  0.040235815            2 
  971000    1.0873565   -5.9463935    465.30261  0.039933283  0.040226744            3 
  972000    1.0832102   -5.9564229    465.20092   0.03988348  0.040217662            4 
  973000    1.0784536   -5.9230032    467.74969  0.040060782  0.040208684            6 
  974000    1.0946468   -5.9994474    465.45502  0.039823325  0.040199801            2 
  975000    1.1189055   -5.9717827    465.66395  0.039800337  0.040190741            3 
  976000    1.0924501   -5.9465413    466.15924  0.039801847  0.040181863            5 
  977000    1.0971208    -6.005838    466.80968  0.039816588   0.04017312            4 
  978000    1.0619137   -5.9776568    466.87771  0.039781673  0.040164134            2 
  979000    1.0627706   -5.9630605    466.69614  0.039725583  0.040155355            2 
  980000    1.1074808   -5.9731803    469.03391  0.039883836  0.040146491            5 
  981000    1.0957961    -5.942209    468.79067  0.039822517  0.040137564            1 
  982000    1.0997828   -5.9374565    469.21785  0.039818215  0.040128931            3 
  983000    1.0827667   -5.9497372    470.01624  0.039845392  0.040119772            3 
  984000    1.0860047   -5.9807532    470.40846  0.039838115  0.040110864            3 
  985000    1.0901085   -5.9717975    473.02753  0.040019249  0.040102231            3 
  986000    1.0908516   -5.9781387    470.38819  0.039755594  0.040093193            2 
  987000    1.1179821   -5.9275825    472.84777  0.039922979  0.040084618            3 
  988000    1.0773063   -5.9838085    471.41887  0.039762051  0.040076136            5 
  989000    1.1031466   -5.9754533    470.39635  0.039635688  0.040067123            5 
  990000     1.117395   -5.9377682    472.25845  0.039752394  0.040058252            3 
  991000     1.095761   -5.9815198    470.86959  0.039595492  0.040049442            2 
  992000    1.0776827    -5.976582    471.65344  0.039621425  0.040040442            6 
  993000     1.089137   -5.9369086    473.21863  0.039712876   0.04003149            1 
  994000    1.0963237   -5.9654461    473.33754  0.039682893  0.040022192            2 
  995000    1.1048455   -5.9542281    471.92415  0.039524636  0.040013228            2 
  996000    1.0896699   -5.9712714    473.73393  0.039636373  0.040004096            3 
  997000    1.0795143   -6.0209859    473.91406  0.039611673  0.039994748            2 
  998000    1.1111337    -5.969181    475.23766  0.039682504  0.039985858            3 
  999000    1.1125534   -5.9638571    477.05808  0.039794635  0.039977224            5 
 1000000    1.0890369   -5.9443657    477.48991  0.039790826  0.039968819            5 
 1001000    1.1089622   -5.9946966    476.20006  0.039643695  0.039960353            3 
 1002000     1.074905   -5.9847305    476.76188  0.039650855  0.039951814            2 
 1003000    1.0940064    -5.968725    478.66585  0.039769512  0.039943411            2 
 1004000    1.1048637   -5.9333418    479.78033  0.039822405   0.03993545            3 
 1005000    1.1002163   -6.0271914    478.92163  0.039711578     0.039927            2 
 1006000    1.1089825   -6.0130533    477.90218  0.039587656  0.039918429            4 
 1007000    1.0930235   -5.9634949     479.7337  0.039699909  0.039910144            2 
 1008000    1.0826992   -5.9504235     480.2706  0.039704911  0.039901886            2 
 1009000    1.1135811   -5.9675277    480.06543  0.039648615  0.039893673            4 
 1010000    1.0972525   -5.9910225    481.88699  0.039759653  0.039885363            4 
 1011000    1.1105148   -5.9793461    480.70114   0.03962258  0.039877096            8 
 1012000    1.0871396   -5.9914656    481.90851  0.039682848  0.039868631            2 
 1013000    1.0829441   -5.9769968    480.33393  0.039514144  0.039859771            2 
 1014000    1.0873192   -6.0165661    478.64069   0.03933602  0.039850605            3 
 1015000    1.0772342   -5.9600856    483.15263  0.039667703   0.03984163            4 
 1016000    1.0805332   -5.9663176     482.3958  0.039566584  0.039832462            2 
 1017000    1.0878803   -5.9900206    481.12154  0.039423266  0.039823781            2 
 1018000    1.0776589   -6.0009171    481.89805  0.039448105  0.039814794            2 
 1019000    1.0816574   -5.9853239    482.62905  0.039469173  0.039805817            6 
 1020000    1.1077455    -5.995555    482.83623  0.039447405  0.039796951            5 
 1021000    1.0886292   -5.9884388    483.90331  0.039495862  0.039788177            3 
 1022000    1.0765575   -5.9972631    483.55851  0.039429102  0.039779525            4 
 1023000     1.089501   -5.9729551    484.26019  0.039447718  0.039770651            2 
 1024000    1.1066427    -5.984362    483.73168  0.039366185  0.039761661            6 
 1025000    1.0819673     -5.99044    485.87681  0.039502179   0.03975252            1 
 1026000    1.0740791   -5.9808052    483.51499  0.039271848  0.039743137            2 
 1027000    1.0649345   -5.9826113    486.91512  0.039509504  0.039734258            2 
 1028000      1.09482   -5.9465232    487.30495  0.039502671  0.039725612            2 
 1029000    1.0829764   -5.9994924    486.36273  0.039387977  0.039716921            4 
 1030000    1.1036189   -5.9964702    488.09237  0.039489674    0.0397085            5 
 1031000    1.0885192   -5.9885833    486.30374  0.039306801  0.039699844            6 
 1032000     1.076438   -5.9835035    489.21241  0.039503586  0.039691218            5 
 1033000    1.0884712   -5.9863566     488.6191  0.039417482  0.039682515            5 
 1034000    1.0784261   -6.0049864    487.70972   0.03930607   0.03967395            3 
 1035000    1.1209099   -6.0136504     489.0905  0.039379267  0.039664729            3 
 1036000    1.0603984   -6.0074774    488.93316    0.0393286  0.039655994            3 
 1037000    1.0788182   -5.9837836      490.567  0.039421971  0.039647511            6 
 1038000    1.0884449    -5.976689    490.26462  0.039359716  0.039639163            7 
 1039000    1.0842686   -5.9904849    491.22204  0.039398624  0.039630087            5 
 1040000    1.1043008   -6.0261189    488.53639  0.039145544  0.039620996            2 
 1041000    1.0974524    -6.035345    489.63008  0.039195491  0.039612159            2 
 1042000     1.090029   -5.9708608    492.42454  0.039381361  0.039603373            5 
 1043000    1.0847903   -5.9704554    492.27639  0.039331767  0.039594582            3 
 1044000    1.0635507    -5.970989    491.75262  0.039252284  0.039585599            4 
 1045000    1.0722023   -5.9714995    493.38685  0.039345044  0.039577416            2 
 1046000    1.0792316   -5.9912389    493.02279  0.039278425  0.039568766            1 
 1047000    1.1005041   -6.0252907    493.19945  0.039254971  0.039560395            4 
 1048000    1.0780883   -5.9790061     495.8696  0.039429834  0.039551868            2 
 1049000    1.0632166   -5.9846505     495.1238     0.039333  0.039543427            1 
 1050000    1.0929595   -5.9781011    493.92173  0.039200138  0.039534876            6 
 1051000     1.079099   -6.0439115    493.58239  0.039135933  0.039525936            3 
 1052000     1.099545   -5.9983878    496.00205  0.039290403  0.039517135            4 
 1053000    1.0679019   -6.0203751    495.38379  0.039204162  0.039508379            2 
 1054000     1.108397   -5.9465789    497.60567  0.039342637   0.03949991            3 
 1055000    1.0886192   -5.9970114    497.16303  0.039270381  0.039491186            6 
 1056000    1.0808001   -5.9847549    495.86483  0.039130747  0.039482476            1 
 1057000    1.0775758   -5.9967395    496.38247  0.039134538  0.039473663            3 
 1058000    1.0947403   -5.9736188    499.16607  0.039316798  0.039464855            2 
 1059000    1.1198512   -5.9690269    499.89317  0.039336888  0.039456283            2 
 1060000    1.0778739    -5.966312    497.78086  0.039133716  0.039447738            2 
 1061000    1.0916628   -6.0034261    497.44884  0.039070754  0.039438805            3 
 1062000    1.0755978   -5.9754603    501.24072  0.039331507  0.039430343            5 
 1063000    1.0882791   -5.9959487    499.35578  0.039146737  0.039421583            8 
 1064000    1.0663867   -6.0014133    499.60878  0.039129761  0.039413176            2 
 1065000    1.0969016   -6.0078997    502.18471  0.039294578  0.039404742            3 
 1066000    1.1062073    -5.988672    500.73765  0.039144594  0.039396277            4 
 1067000    1.0649411   -6.0218581    500.61022  0.039097955  0.039387452            5 
 1068000     1.071846   -6.0277886    500.50701  0.039053294  0.039378522            5 
 1069000    1.0723948   -6.0204995    500.13482  0.038987747   0.03936936            4 
 1070000    1.0796086   -5.9943776     500.1692  0.038953987  0.039360536            3 
 1071000    1.0936351   -5.9620601    500.73073  0.038961308   0.03935159            4 
 1072000    1.0716411     -6.03016    500.87264  0.038935995  0.039342544            4 
 1073000    1.0845215   -5.9871769    502.92228  0.039058891  0.039333268            1 
 1074000    1.0564587   -5.9938575    502.95068  0.039024727  0.039324102            1 
 1075000    1.0739473     -5.94918    502.90092  0.038984568   0.03931522            5 
 1076000    1.0927602   -6.0629188    502.46976  0.038914944  0.039306236            6 
 1077000    1.0472913   -5.9871109    504.52929  0.039038169  0.039296996            3 
 1078000    1.0689535   -6.0236079    503.70689   0.03893838  0.039287939            2 
 1079000     1.077862   -6.0049874    503.86432  0.038914452  0.039278558            4 
 1080000    1.0685131   -6.0376274    504.60383   0.03893548  0.039269383            4 
 1081000    1.0660187   -6.0581941    504.17104  0.038866099  0.039260102            3 
 1082000    1.0789007   -6.0232712    503.18649  0.038754351  0.039250739            4 
 1083000    1.0835187   -6.0109818    505.41712  0.038890206  0.039241172            3 
 1084000    1.0710927   -5.9916153    505.41625  0.038854263   0.03923192            3 
 1085000    1.0691089   -5.9861727    507.12425  0.038949635  0.039222738            4 
 1086000     1.064766   -5.9958838    505.92902  0.038822055  0.039213643            4 
 1087000    1.0742046   -6.0004155    506.34609  0.038818314  0.039204261            3 
 1088000    1.0722204   -5.9803407    507.64723  0.038882294  0.039194751            4 
 1089000    1.0703837    -6.018738    507.46956  0.038832993  0.039185572            2 
 1090000    1.0960839   -5.9855809    507.71069  0.038815802  0.039176464            9 
 1091000    1.0761483   -6.0288718    507.82838  0.038789213  0.039167361            3 
 1092000    1.0738696   -5.9787054    510.03556  0.038922127  0.039158186            1 
 1093000    1.0627077   -6.0080849    508.59696  0.038776834  0.039148999            4 
 1094000    1.0543364   -6.0130918    509.35373  0.038799035  0.039139939            8 
 1095000    1.0846645   -5.9953558    512.14355  0.038975917  0.039130922            4 
 1096000    1.0843028   -6.0489352    507.50099  0.038587362  0.039121625            6 
 1097000    1.0887136   -6.0080838    509.58438  0.038710451  0.039112233            4 
 1098000    1.0663483   -6.0033519    510.60669  0.038752784   0.03910274            2 
 1099000    1.0689881   -6.0134953     509.9176  0.038665271  0.039093722            3 
 1100000    1.0942926   -6.0357207    510.58025  0.038680322  0.039084222            5 
 1101000    1.0664081   -6.0042661    511.46728  0.038712328  0.039074404            5 
 1102000    1.0781945   -6.0352261    510.87097  0.038632106  0.039064909            2 
 1103000    1.0803599   -6.0200894    513.40171  0.038788282  0.039055838            2 
 1104000    1.0799036   -6.0131222     514.0458  0.038801766  0.039046833           11 
 1105000    1.0783262   -6.0101145    512.72513  0.038667054  0.039037586            5 
 1106000    1.0829503   -6.0388265    512.94458  0.038648627  0.039028396            4 
 1107000    1.0458558   -6.0408606    512.30077  0.038565249  0.039018996            5 
 1108000    1.0871375   -5.9671884    514.57828  0.038701736  0.039009768            2 
 1109000    1.0826308   -6.0223176     515.7598  0.038755621  0.039000539            3 
 1110000     1.061149   -6.0182763    515.65334  0.038712713  0.038991386            3 
 1111000    1.0873312   -6.0270723     515.2083  0.038644487  0.038982362            4 
 1112000     1.070003   -6.0268174    515.96827  0.038666687  0.038973232            4 
 1113000    1.0661622   -6.0365008    515.31651  0.038583147  0.038964118            2 
 1114000    1.0794476   -6.0240277    515.27349  0.038545294  0.038954815            5 
 1115000    1.0849646   -5.9975313    516.87482  0.038630405  0.038945478            7 
 1116000    1.0896878   -6.0487593    516.00464  0.038530812  0.038935835            6 
 1117000       1.0693   -6.0065814    516.37727  0.038524117  0.038926122            4 
 1118000    1.0909879   -6.0290436    516.37496  0.038489487  0.038916298            3 
 1119000    1.0367091   -6.0165896    516.50392  0.038464695  0.038906484            4 
 1120000    1.0515273   -6.0051814    516.81236    0.0384533  0.038896703            2 
 1121000    1.0820517    -5.994683    519.75729   0.03863792  0.038887315            3 
 1122000    1.0849583   -6.0280346    517.94144  0.038468616  0.038877617            3 
 1123000    1.0814781   -6.0137752    516.36868  0.038317652  0.038867622            4 
 1124000    1.0890241   -6.0621271    517.16403  0.038342529  0.038857786            4 
 1125000    1.0354881   -6.0115891    518.97296  0.038442442  0.038847693            2 
 1126000    1.0818793   -6.0200524    519.34657  0.038435951  0.038838004            5 
 1127000    1.0780774   -6.0270918    519.37914  0.038404255  0.038828434            3 
 1128000    1.0761556   -6.0267069    521.96453  0.038561209   0.03881863            3 
 1129000    1.0865226   -6.0236684    520.09027  0.038388712  0.038809003           14 
 1130000    1.0845122   -5.9936258    521.51966  0.038460152  0.038799651            4 
 1131000    1.0619239   -6.0315312     521.6614   0.03843659  0.038790061            3 
 1132000    1.0692273   -6.0342562    522.38722  0.038456067  0.038780499            3 
 1133000    1.0472223   -6.0105825    522.35642   0.03841986  0.038771009            3 
 1134000    1.0860666   -6.0036999    521.13976  0.038296573  0.038761273            3 
 1135000    1.0743544   -5.9808809     523.1506   0.03841047  0.038751686            5 
 1136000    1.0473082    -6.023522    522.36674  0.038319156  0.038741853            4 
 1137000    1.0730216   -6.0190395    522.09777  0.038265741  0.038731896            4 
 1138000    1.0519934    -6.046877    521.04667  0.038155146  0.038721851            5 
 1139000    1.0547218   -6.0656658    523.36882  0.038291544  0.038711906            4 
 1140000    1.0572688   -6.0180664    523.40828   0.03826084  0.038701864            2 
 1141000    1.0589229   -6.0266209    521.78152  0.038108496    0.0386914            3 
 1142000     1.058248   -6.0013196    525.17643  0.038322857  0.038681453            2 
 1143000    1.0583466   -6.0086894    522.92407  0.038125114  0.038671227            4 
 1144000    1.0625784   -6.0427374    523.24541  0.038115196  0.038661089            3 
 1145000    1.0647136   -6.0366431    523.57046  0.038105564  0.038650926            2 
 1146000    1.0538944   -6.0250654    525.38653  0.038204372  0.038640829            3 
 1147000    1.0652832   -6.0311626    523.42675   0.03802868  0.038630933            6 
 1148000    1.0366487   -6.0091904    524.98753  0.038108851  0.038620763            4 
 1149000    1.0574489   -5.9813604    527.55237  0.038261704  0.038610733            4 
 1150000    1.0541364   -6.0243466    526.56404  0.038156815  0.038600538            3 
 1151000     1.073848   -5.9784528    529.24983  0.038318117  0.038590805            5 
 1152000    1.0813617   -6.0249834     527.4819  0.038156966  0.038580647            7 
 1153000     1.064984   -6.0330842    525.51192  0.037981492  0.038570367            6 
 1154000    1.0705175   -6.0118372    526.19116  0.037997628  0.038560083            8 
 1155000    1.0727054   -6.0024377    529.06505  0.038172082  0.038549837            6 
 1156000    1.0591364   -6.0437436    528.16681  0.038074309  0.038539733            3 
 1157000    1.0778898   -6.0374223    526.72978  0.037937898  0.038529366            2 
 1158000    1.0782896   -6.0282169    526.72248  0.037904611  0.038519255            2 
 1159000    1.0895919   -6.0822354    526.29831  0.037841409  0.038508794            6 
 1160000    1.0625056   -6.0346477    527.45728  0.037892046  0.038498303            3 
 1161000    1.0813705   -6.0060244    530.63892  0.038087778  0.038487745            2 
 1162000    1.0659638    -6.030281     529.4491  0.037969672  0.038477654            2 
 1163000    1.0549936   -6.0678468    529.15645  0.037916054  0.038467477            3 
 1164000    1.0496874   -6.0430074    530.04402  0.037947023  0.038457446            6 
 1165000    1.0671569   -6.0244146    530.72977  0.037963503  0.038447464            2 
 1166000    1.0543315    -6.003812    533.51515  0.038130013  0.038437472            2 
 1167000    1.0588459   -6.0265961    529.55797  0.037814765  0.038427501            5 
 1168000     1.063083   -6.0328518    531.69704  0.037935006  0.038417552            6 
 1169000    1.0492622   -6.0524942    532.19295  0.037937907  0.038407564            3 
 1170000    1.0706842   -6.0497887    532.46254  0.037924683  0.038397322            4 
 1171000     1.061435   -6.0177624    532.80961  0.037916995   0.03838714            2 
 1172000     1.066023    -6.024197    534.96223  0.038037702  0.038377149            5 
 1173000    1.0619117   -6.0185953    534.69066  0.037985981  0.038367121            2 
 1174000    1.0475343   -6.0270368    533.98202  0.037903324  0.038357085            2 
 1175000    1.0571366   -6.0401313    533.44723  0.037833137  0.038346746            5 
 1176000     1.060069    -6.040192    532.58872   0.03774013   0.03833624            3 
 1177000    1.0570577   -6.0424979    533.15512  0.037748168  0.038325861            5 
 1178000    1.0726288   -6.0488867    535.27988  0.037866432  0.038315613            3 
 1179000    1.0392769   -6.0256892    537.69652  0.038005126  0.038305341            2 
 1180000    1.0594106   -6.0727546    534.99954  0.037782453  0.038294963            5 
 1181000    1.0831672   -6.0391269     533.5742  0.037649887  0.038284425            9 
 1182000    1.0466992   -6.0514626    534.39889  0.037676177  0.038273707            3 
 1183000    1.0603951   -6.0537708    535.55069  0.037725464   0.03826298            3 
 1184000    1.0487295   -6.0310956    536.92964  0.037790656  0.038252791            2 
 1185000    1.0483205   -6.0403129    536.03199  0.037695639   0.03824241            3 
 1186000    1.0697515   -6.0504138    536.83429  0.037720229  0.038232218            4 
 1187000    1.0630949   -5.9995307    539.65299  0.037886337    0.0382223            3 
 1188000    1.0747281   -6.0297928    539.90374  0.037872036  0.038212662            2 
 1189000    1.0706351   -6.0427626    538.98145  0.037775543  0.038202619            2 
 1190000    1.0717486   -6.0334412    538.07849  0.037680567  0.038192909            3 
 1191000    1.0719068   -6.0625302    538.82438  0.037701118  0.038183007            5 
 1192000    1.0456065   -6.0408843    540.71283  0.037801512  0.038172814            7 
 1193000    1.0584158   -6.0264224     541.9374  0.037855365  0.038162979            4 
 1194000    1.0487496   -6.0375392    541.93007  0.037823148  0.038153201            3 
 1195000    1.0495645   -6.0146673    543.34283  0.037890016  0.038143522            2 
 1196000    1.0896814   -6.0725375    542.22212  0.037780248  0.038134304            6 
 1197000    1.0633293    -6.077519      542.135   0.03774262  0.038124638            4 
 1198000    1.0423241    -6.047793    544.36014  0.037865897  0.038114987            4 
 1199000    1.0690828   -6.0170251    544.99687   0.03787857  0.038105744            7 
 1200000    1.0552893   -6.0390532    544.17346  0.037789824  0.038096574            3 
 1201000    1.0718853   -6.0333375    545.17937  0.037828155  0.038087556            8 
 1202000    1.0631608   -6.0522949    544.83494  0.037772805  0.038078265            3 
 1203000    1.0584659    -6.054457    545.15624  0.037763663  0.038069392            7 
 1204000    1.0592796    -6.033951    546.16972  0.037802444   0.03806034            3 
 1205000    1.0755336   -6.0440884    547.04333  0.037831489  0.038051162            4 
 1206000    1.0458966   -6.0503706    545.59563  0.037700085  0.038041909            2 
 1207000    1.0520866    -6.084998    545.55531  0.037666067  0.038032669            3 
 1208000    1.0578384   -6.0059464    547.72451  0.037784528  0.038023378            3 
 1209000    1.0368046   -6.0439086    547.81354  0.037759412  0.038014121            3 
 1210000    1.0463646   -6.0652407    548.23325  0.037757111  0.038004815            2 
 1211000    1.0563183   -6.0628537    546.96108   0.03763839  0.037995507            6 
 1212000    1.0689393   -6.0491042    549.36144  0.037772376  0.037986549            3 
 1213000    1.0332848   -6.0456983    550.27072  0.037803704  0.037977602            1 
 1214000     1.064672   -5.9994946      551.071  0.037827498  0.037968748            4 
 1215000    1.0540023    -6.049788     549.7727  0.037707318  0.037959705            4 
 1216000    1.0543201   -6.0523693    548.91663  0.037617642  0.037950629            6 
 1217000    1.0543516   -6.0746868    548.94203  0.037588471  0.037941522            2 
 1218000      1.07359   -6.0390197    550.08423  0.037635757  0.037932131            5 
 1219000    1.0657704   -6.0667709    549.65935  0.037575838  0.037922552            2 
 1220000    1.0388252   -6.0803411    549.09319  0.037506366  0.037913117            4 
 1221000    1.0608075    -6.040152    552.66113   0.03771916  0.037903666            2 
 1222000    1.0501034   -6.0785007    550.32734  0.037529142   0.03789443            8 
 1223000    1.0631885    -6.087306    550.79198  0.037530116  0.037884752            7 
 1224000    1.0745986   -6.0028694    553.17661  0.037661806  0.037875591            2 
 1225000    1.0660201   -6.0509371    552.77049  0.037603435  0.037866531            2 
 1226000    1.0620867   -6.0780632    551.33445  0.037475153  0.037857319            3 
 1227000    1.0547788   -6.0703904    552.82584  0.037545901  0.037847799            2 
 1228000    1.0586721   -6.0643945    550.74317  0.037373994  0.037837847            3 
 1229000    1.0765545   -6.0807593    552.89291  0.037489348  0.037827909            2 
 1230000     1.062533   -6.0826077    549.99946  0.037262836  0.037817932            4 
 1231000      1.02926   -6.0278732    554.92993  0.037566337  0.037808076            3 
 1232000    1.0601532   -6.0721096    550.92345  0.037264843  0.037798362            3 
 1233000    1.0474057   -6.0610344    553.92178  0.037437266  0.037788365            3 
 1234000    1.0489093   -6.0756121    552.74202  0.037327257  0.037778202            3 
 1235000    1.0583065   -6.0037871    555.49536  0.037482818  0.037768322            4 
 1236000     1.043141   -6.0520397    553.78196  0.037336971  0.037758303            3 
 1237000    1.0213101   -6.0507012    554.13587   0.03733063  0.037748246            5 
 1238000     1.048075    -6.098615    554.99543  0.037358335  0.037738403            4 
 1239000    1.0590256   -6.0804401    554.46462  0.037292482   0.03772865            7 
 1240000    1.0496353   -6.0384558    557.48663    0.0374655  0.037719021            2 
 1241000    1.0368631   -6.0849623    556.24251  0.037351767  0.037709551            6 
 1242000    1.0572667   -6.0582891    555.82217  0.037293489   0.03769983            5 
 1243000    1.0301164   -6.0532515    557.73384   0.03739165   0.03769003            3 
 1244000    1.0618387   -6.0496182    557.91713   0.03737387  0.037680215            2 
 1245000    1.0739162   -6.0702347    557.26691  0.037300329  0.037670566            4 
 1246000    1.0474965   -6.0554482    556.41877  0.037213668  0.037660835            4 
 1247000    1.0447285   -6.0930566     557.8252  0.037277814  0.037650923            3 
 1248000    1.0647737   -6.0571597    557.41237  0.037220377  0.037640966            2 
 1249000    1.0409938   -6.0692293    558.54093  0.037265875   0.03763097            3 
 1250000    1.0563342   -6.1115061    556.44315   0.03709621  0.037620822            6 
 1251000    1.0740447   -6.0446027    558.32914  0.037192189  0.037610709            4 
 1252000     1.077846   -6.0583778     558.8932  0.037200027  0.037600617            2 
 1253000    1.0306623   -6.0818094    558.72948  0.037159449  0.037590588            4 
 1254000     1.047731   -6.1149152    557.72677  0.037063182  0.037580631            5 
 1255000     1.045763   -6.0650942    559.78907  0.037170589  0.037570673            4 
 1256000    1.0338899   -6.0672398    560.05948  0.037158935  0.037560977            5 
 1257000    1.0686524   -6.0426824    563.49911  0.037357406  0.037551108            1 
 1258000    1.0509506   -6.0822352    560.57984  0.037134329  0.037541316            5 
 1259000    1.0324277   -6.0661203    561.46768  0.037163601  0.037531441            6 
 1260000    1.0688977   -6.0530191    562.79005  0.037221564  0.037521706            4 
 1261000    1.0427674   -6.1013535    559.65418  0.036984812  0.037511647            4 
 1262000    1.0191223   -6.0759105      562.474  0.037141706  0.037501673            3 
 1263000     1.038115    -6.034014    563.65163      0.03719    0.0374917            3 
 1264000    1.0560174   -6.0532863    563.27749   0.03713591  0.037482004            5 
 1265000    1.0457679   -6.0246945      562.242   0.03703834  0.037472259            2 
 1266000     1.016136   -6.0745928    562.46569  0.037023808  0.037462523            2 
 1267000    1.0438512   -6.0776376     563.9104  0.037089608  0.037452539            4 
 1268000       1.0511   -6.1127429    562.43742  0.036963553  0.037442797            3 
 1269000    1.0391433   -6.0393182    566.35928  0.037191968  0.037432879            4 
 1270000    1.0567447    -6.069494    563.75564   0.03699184  0.037423028            3 
 1271000    1.0497283   -6.1068616    563.12749  0.036921551  0.037412938            3 
 1272000    1.0657335   -6.0485125    567.36397  0.037170071  0.037402847            4 
 1273000    1.0546426   -6.0438287    566.36131  0.037075236  0.037392886            7 
 1274000    1.0521429   -6.0848696     566.4132  0.037049529  0.037383212            8 
 1275000    1.0578048   -6.0875184    567.60684  0.037098486   0.03737318            4 
 1276000    1.0348239   -6.1084168    566.31911  0.036985313  0.037363356            4 
 1277000    1.0478245   -6.0881518    567.54574  0.037036397  0.037353491            2 
 1278000    1.0338601   -6.0345294    568.01422  0.037037964  0.037343777            3 
 1279000    1.0347383   -6.1038547    567.01246  0.036943736  0.037333906            5 
 1280000    1.0493331   -6.0536607    567.31136  0.036934333  0.037324275            4 
 1281000    1.0389931   -6.0705546    568.17152  0.036961457  0.037314921            3 
 1282000     1.075432   -6.0570206    570.12095  0.037059344  0.037305527            2 
 1283000    1.0522602   -6.0798892    570.27775  0.037040644  0.037295977            4 
 1284000    1.0536128   -6.0903128    569.81938  0.036982047  0.037286276            3 
 1285000    1.0430847   -6.0709761    571.60715  0.037069206  0.037276958            4 
 1286000    1.0491527    -6.077684     571.0838  0.037006467  0.037267707            4 
 1287000    1.0420179   -6.0771575    573.28299  0.037120111  0.037258372            2 
 1288000    1.0356644   -6.0805727    571.95765  0.037005542   0.03724911            3 
 1289000    1.0633356   -6.0539623    574.15541  0.037118917   0.03724024            3 
 1290000    1.0383323   -6.0780088    572.61125  0.036990391  0.037231357            4 
 1291000    1.0501698   -6.0790731    572.64131  0.036963679  0.037222502            4 
 1292000    1.0320498   -6.1071819    573.41489  0.036984965  0.037213468            3 
 1293000    1.0548826   -6.0537578    576.30639  0.037142716  0.037204364            2 
 1294000    1.0476715   -6.0459001    575.65765  0.037072234  0.037195189            7 
 1295000    1.0401034    -6.051554    573.18424  0.036884443  0.037186088            4 
 1296000    1.0483491   -6.0852933    573.80462  0.036895873  0.037176782            3 
 1297000    1.0480942   -6.0908713    575.07577  0.036949099  0.037167298            2 
 1298000    1.0303378   -6.1097238     574.3738  0.036875565  0.037157863            3 
 1299000     1.045577   -6.0838056     576.8078  0.037003323   0.03714861            2 
 1300000    1.0461255   -6.1076305    574.06846  0.036799261  0.037139155            5 
 1301000    1.0323498   -6.0860783     574.9319  0.036826281    0.0371299            3 
 1302000    1.0400215   -6.0822912    576.55217  0.036901701  0.037120573            3 
 1303000    1.0459464   -6.0807261    576.97857   0.03690065  0.037111313            2 
 1304000    1.0518558   -6.0956573    575.92042  0.036804731   0.03710213            6 
 1305000    1.0505222   -6.0702912    578.64652  0.036950608  0.037092902            3 
 1306000    1.0460402   -6.0642693    577.51386  0.036850042  0.037083783            4 
 1307000    1.0547745   -6.0993332    578.72407   0.03689901  0.037074472            4 
 1308000    1.0308622   -6.0786124    578.78097  0.036874425  0.037065139            3 
 1309000    1.0447388   -6.0707256     579.5935  0.036897982  0.037055889            1 
 1310000    1.0511306   -6.1066821    577.58179  0.036741844  0.037046723            7 
 1311000    1.0507072   -6.0642523    580.54604   0.03690224  0.037037513           12 
 1312000    1.0317437   -6.0866471    581.32792  0.036923775  0.037028671            6 
 1313000    1.0401913   -6.0437258    582.36152  0.036961254   0.03701951            3 
 1314000    1.0325857   -6.0817011    581.45421  0.036875584  0.037010587            2 
 1315000    1.0369626   -6.0851504    581.55789  0.036854112  0.037001855            2 
 1316000    1.0417164   -6.0691288    582.75153  0.036901693  0.036993149            4 
 1317000     1.024662   -6.1205906    581.28308  0.036780757  0.036984351            2 
 1318000    1.0561695   -6.0848619    580.23195   0.03668639  0.036975475            5 
 1319000    1.0199499   -6.1007368    582.43153  0.036797544  0.036966519            2 
 1320000    1.0233801   -6.0675081    582.60509  0.036780624  0.036957496            3 
 1321000    1.0302531    -6.074424    582.83047  0.036766999   0.03694847            4 
 1322000    1.0470888   -6.0481288    583.69984  0.036793989  0.036939484            3 
 1323000    1.0426149   -6.0628876    583.38977  0.036746647  0.036930629            2 
 1324000     1.023026   -6.0777589    584.26247  0.036773821  0.036921618            3 
 1325000    1.0419322   -6.1278396    583.36899  0.036689874  0.036912527            2 
 1326000    1.0368568   -6.0944256    582.64814  0.036616902  0.036903584            5 
 1327000    1.0379884   -6.0876895    583.26419  0.036627995  0.036894476            4 
 1328000    1.0456665   -6.0986473    583.63905  0.036623936  0.036885287            6 
 1329000    1.0415086   -6.0755476    584.17803  0.036630175  0.036876221            3 
 1330000     1.047881   -6.1038623    583.44212  0.036556524  0.036867034            3 
 1331000    1.0411063   -6.0791319    586.33457  0.036710153  0.036857918            2 
 1332000    1.0354722   -6.0641253    584.96418  0.036596858  0.036848578            5 
 1333000    1.0297237   -6.0829929    585.22935  0.036585981  0.036839323            4 
 1334000    1.0334348    -6.155669    584.13877  0.036490428  0.036829849            5 
 1335000    1.0355672   -6.0872625    586.07344   0.03658386  0.036820295            4 
 1336000    1.0554135   -6.1178479    585.50036  0.036520731  0.036811045            3 
 1337000    1.0196741   -6.0772533    587.34664  0.036608492  0.036801781            3 
 1338000    1.0202366     -6.09193    586.89364  0.036552917  0.036792458            3 
 1339000    1.0420641   -6.1023045    585.83417  0.036459682  0.036783283            5 
 1340000    1.0466355   -6.0679261    588.59347  0.036604072  0.036773872            2 
 1341000    1.0268279   -6.1109046    586.92203  0.036472908  0.036764609            4 
 1342000     1.013682   -6.1076855    586.58445  0.036424767  0.036755401            4 
 1343000    1.0069589   -6.1051984    590.65961  0.036650509  0.036746123            2 
 1344000    1.0556233   -6.1223543    589.89795  0.036576014  0.036737074            7 
 1345000    1.0431687   -6.1038418    590.24589  0.036570377  0.036727838            2 
 1346000    1.0161149   -6.0701972    589.93676  0.036524069  0.036718801            3 
 1347000     1.053924   -6.0634179    593.75182  0.036732976  0.036709938            5 
 1348000    1.0468169   -6.1084473    591.68649  0.036578047  0.036701246            4 
 1349000    1.0434297   -6.1370973     592.0609  0.036574061  0.036692172            3 
 1350000    1.0470079    -6.127199    591.73194  0.036526663  0.036683427            3 
 1351000    1.0722448   -6.1157779    592.74595  0.036562173  0.036674708           12 
 1352000    1.0494614    -6.078628     594.0747   0.03661703  0.036666129            4 
 1353000    1.0329273   -6.1125355     594.2599  0.036601373  0.036657647            2 
 1354000    1.0393953   -6.1174544    591.42807  0.036400054  0.036649194            4 
 1355000    1.0283939   -6.1124362    593.40222  0.036494602  0.036640717            5 
 1356000    1.0351472   -6.1198929    594.35503  0.036526244  0.036632143            2 
 1357000    1.0307432   -6.0990257    594.67743  0.036519125  0.036623413            5 
 1358000    1.0229868   -6.1305574    595.53926  0.036545119  0.036614906            4 
 1359000    1.0574101   -6.0755061    596.68128  0.036588256  0.036606638            6 
 1360000    1.0208299   -6.0662922    598.49075  0.036672227  0.036598525            5 
 1361000    1.0382395   -6.1033581    600.00062  0.036737731   0.03659034            5 
 1362000    1.0283993   -6.1349238    598.35581   0.03661012  0.036582369            5 
 1363000    1.0360355   -6.0643341    600.19423  0.036695661  0.036574353            2 
 1364000    1.0302069    -6.086976    600.50571  0.036687788  0.036566281            4 
 1365000    1.0439936   -6.0779301    600.79643  0.036678659  0.036558195            4 
 1366000    1.0341976   -6.1298054    598.59292  0.036517381  0.036550038            3 
 1367000    1.0560011   -6.1282903    599.63467  0.036554174  0.036541763            4 
 1368000      1.03155   -6.1013306    602.06472  0.036675482  0.036533743            4 
 1369000    1.0070204   -6.1103703    598.21305  0.036414235  0.036525564            6 
 1370000    1.0223193   -6.1055708    602.67058  0.036658794  0.036517477            2 
 1371000    1.0168741   -6.0891518    599.09196  0.036414537  0.036509115            6 
 1372000    1.0465244    -6.124469    601.64248  0.036542911  0.036501125            4 
 1373000       1.0088   -6.1105126    601.27442  0.036493956  0.036492951            4 
 1374000    1.0387093   -6.1200873    601.58568  0.036486274  0.036484714            6 
 1375000    1.0241433   -6.1311307    601.61689   0.03646163  0.036476476            5 
 1376000    1.0465606    -6.080309    602.47993  0.036487399  0.036468102            4 
 1377000    1.0137269   -6.0959871     603.6857  0.036533872   0.03645986            3 
 1378000    1.0273163    -6.143973    600.63246  0.036322718   0.03645153            1 
 1379000    1.0240785   -6.0933767     602.8356  0.036429514  0.036443076            4 
 1380000    1.0421031   -6.0930128    604.35323   0.03649476  0.036434948            4 
 1381000    1.0315531   -6.1335339    602.81508  0.036375518  0.036426622            2 
 1382000    1.0291617   -6.1059834    604.54313  0.036453397  0.036418298            5 
 1383000    1.0230956   -6.0635071    604.55055  0.036427486      0.03641            2 
 1384000    1.0326839   -6.1204153    602.59956  0.036283692  0.036401693            4 
 1385000    1.0110161   -6.1055835    603.74217  0.036326243  0.036393367            5 
 1386000    1.0322049   -6.1064609    604.37064  0.036337821  0.036384926            3 
 1387000     1.042583   -6.1158882    603.91605   0.03628431  0.036376571            5 
 1388000    1.0405707   -6.1261907    604.36767  0.036285283  0.036368171            2 
 1389000    1.0299262   -6.1228975    606.32387  0.036376522  0.036359799            3 
 1390000    1.0168341   -6.1043419    605.77521  0.036317459  0.036351265            4 
 1391000    1.0121934    -6.120747    607.02524  0.036366238  0.036342565            3 
 1392000    1.0249189   -6.1017812    606.98838  0.036337906  0.036334105            2 
 1393000    1.0324066   -6.1038853    609.41296  0.036456865  0.036325628            2 
 1394000    1.0031578   -6.1062838    608.30152  0.036364271   0.03631717            2 
 1395000    1.0463298   -6.0972829    607.55435  0.036293569  0.036308728            5 
 1396000     1.015986   -6.1264555     607.9234  0.036289601  0.036300255            3 
 1397000   0.99648407   -6.0912286    608.37383  0.036290493  0.036291774            4 
 1398000    1.0498948   -6.1263387    608.14113  0.036250663  0.036283238            4 
 1399000    1.0192841    -6.098011    609.74586   0.03632034  0.036274846            2 
 1400000    1.0303698   -6.1344415    608.30295  0.036208509  0.036266337            5 
 1401000    1.0141691   -6.0911367    609.58643  0.036259007  0.036257807            4 
 1402000    1.0036933   -6.1353659    609.19625  0.036209953  0.036249275            5 
 1403000    1.0267154   -6.1353938    608.97717  0.036171131  0.036240528            3 
 1404000    1.0295648   -6.1161373    608.46181   0.03611478  0.036231868            2 
 1405000    1.0406766   -6.1107602    609.78905  0.036167797  0.036223337            2 
 1406000    1.0153763   -6.1660005     607.7937  0.036023809   0.03621461           11 
 1407000    1.0308617   -6.1439831    607.39778  0.035974756  0.036205802            4 
 1408000    1.0458499   -6.1278996    609.35238   0.03606489  0.036196982            3 
 1409000    1.0299241   -6.1270732    609.98541  0.036076734  0.036188263            3 
 1410000    1.0309673   -6.1053525    610.59096  0.036086936  0.036179795            2 
 1411000    1.0279186   -6.1447037    610.13299  0.036034313  0.036171007            4 
 1412000    1.0184855   -6.1458975    608.85616  0.035933437  0.036162057            3 
 1413000    1.0427329   -6.1225691    609.81945  0.035964818  0.036153393            8 
 1414000     1.025233   -6.1837211    610.07824  0.035954635   0.03614456            4 
 1415000    1.0213385   -6.1105093    610.95517   0.03598087  0.036135965            4 
 1416000    1.0114602   -6.1303008     612.0004  0.036016973  0.036127241            4 
 1417000    1.0079829   -6.1605865    610.30154  0.035891646  0.036118648            5 
 1418000    1.0461571   -6.1134809    612.90977  0.036019615  0.036109953            2 
 1419000    1.0108183   -6.1407516    613.21076  0.036011908  0.036101395            6 
 1420000    1.0206969   -6.1680364    611.54374  0.035888717  0.036092671            4 
 1421000     1.023954   -6.1316731    612.98264  0.035947844  0.036083987            3 
 1422000    1.0131406   -6.0987682    614.10736  0.035988476   0.03607523            6 
 1423000    1.0224187   -6.1220782    614.00593  0.035957246  0.036066445            1 
 1424000    1.0173869   -6.1385033     614.1068  0.035937898  0.036057579            2 
 1425000    1.0308539   -6.1738646    613.61387  0.035883852  0.036048757            4 
 1426000    1.0172595   -6.1432836    614.27433  0.035897284  0.036039945            4 
 1427000     1.019732   -6.1016908    615.61489  0.035950414  0.036031311            2 
 1428000    1.0172142    -6.134636    613.99067  0.035830455  0.036022604            6 
 1429000    1.0218089   -6.0907017    615.69415  0.035904721  0.036013809            3 
 1430000    1.0143221   -6.1392767    613.96039  0.035778578   0.03600486            5 
 1431000    1.0322456    -6.157059    615.66424  0.035852798  0.035995987            1 
 1432000    1.0321882    -6.130282    618.37381  0.035985441  0.035987151            5 
 1433000    1.0213695   -6.1666887    615.79176  0.035810175  0.035978306            3 
 1434000    1.0102655   -6.1627099    617.38126  0.035877572  0.035969437            5 
 1435000    1.0166822   -6.1217561     618.6566  0.035926632  0.035960552            2 
 1436000    1.0127877   -6.1453775    619.54948  0.035953429  0.035951911            2 
 1437000     1.023488   -6.1451439    619.11057  0.035902956  0.035943247            4 
 1438000    1.0353141   -6.1187764    617.82468   0.03580347  0.035934659            6 
 1439000    1.0139733   -6.1384673    617.79322  0.035776767  0.035925839            3 
 1440000    1.0198906    -6.161128    617.65625  0.035743996  0.035916793            3 
 1441000    1.0222235   -6.1672936    618.93934  0.035793392  0.035907885            6 
 1442000    1.0380855   -6.1105889    620.38816  0.035852298  0.035899161            8 
 1443000    1.0015472    -6.154267    618.67823  0.035728704  0.035890362            3 
 1444000    1.0353766    -6.140599    620.22017  0.035792946  0.035881595            3 
 1445000    1.0192083   -6.1588642    618.47387  0.035667467   0.03587274            3 
 1446000    1.0157363   -6.1467181    620.41848  0.035754869  0.035863796            2 
 1447000    1.0113563    -6.154728    619.40484  0.035671783  0.035854836            3 
 1448000    1.0352712   -6.1310016    621.08184   0.03574366  0.035846241            5 
 1449000    1.0122945   -6.1087568    622.52974  0.035802262  0.035837743            6 
 1450000    1.0205998   -6.1579093    621.32712  0.035708455  0.035829214            3 
 1451000    1.0348037   -6.1638475    620.39494  0.035630309  0.035820443            4 
 1452000    1.0263422   -6.1282677    621.45222   0.03566645  0.035811834            4 
 1453000    1.0369306   -6.1464177    623.65612  0.035768302  0.035803232            3 
 1454000      1.04893   -6.1469503      619.921  0.035529631  0.035794517            7 
 1455000   0.99443611   -6.1403506    623.57056  0.035714236  0.035785784            3 
 1456000    1.0324092   -6.1384102    622.15623  0.035608759   0.03577703            3 
 1457000   0.98615626    -6.128883    625.98575  0.035803349  0.035768283            5 
 1458000    1.0079937   -6.1306079    623.47588  0.035635338  0.035759782            6 
 1459000    1.0209158   -6.1296881     623.4187  0.035607648  0.035751178            5 
 1460000    1.0245088   -6.1427727    623.58442  0.035592718  0.035742521            6 
 1461000    1.0158381   -6.1351441    624.49414  0.035620245  0.035733801            3 
 1462000    1.0179204    -6.160016    622.90481   0.03550529  0.035724851            4 
 1463000    1.0323499   -6.1518172    624.74074  0.035585597  0.035716077            4 
 1464000    1.0323455   -6.1398477    624.60384  0.035553497  0.035707203            3 
 1465000    1.0097787   -6.1482587    627.44706  0.035690959  0.035698274            3 
 1466000    1.0151047   -6.1217345     624.4022  0.035493531  0.035689608            4 
 1467000    1.0388681   -6.1660789    625.02768  0.035504867  0.035680766            3 
 1468000    1.0338729   -6.1591889    624.58389  0.035455489  0.035671758            2 
 1469000     1.034119   -6.1504292    627.18234  0.035578758  0.035662728            3 
 1470000   0.99304255   -6.1455888    626.95378  0.035541598  0.035653825           12 
 1471000   0.98929911   -6.1240364    629.47934  0.035660511   0.03564538            3 
 1472000   0.99974122   -6.1734568    626.21369  0.035451409  0.035636718            4 
 1473000    1.0119289   -6.1539411     627.3394  0.035491027  0.035628243            4 
 1474000    1.0307603   -6.1891403    627.24688  0.035461719  0.035619545           11 
 1475000    1.0169941   -6.1207679    632.26712  0.035721306  0.035610866            3 
 1476000    1.0085712   -6.2049571    626.82952  0.035390104  0.035602397            7 
 1477000    1.0030358   -6.1665124    629.31264  0.035506242  0.035593787            3 
 1478000    1.0202893   -6.1916033      629.083  0.035469272  0.035585252            3 
 1479000     1.039854   -6.2030884    631.25999   0.03556795  0.035576645            3 
 1480000    1.0026164   -6.1674809    629.13613  0.035424332  0.035568217            1 
 1481000    1.0228179   -6.1363859    629.56542  0.035424568  0.035559551            2 
 1482000    1.0060801   -6.1369748    632.63537  0.035573289  0.035550835            3 
 1483000    1.0167003   -6.1649498     630.7535  0.035443555  0.035542107            3 
 1484000    1.0178208   -6.1886051     629.2511  0.035335304  0.035533364            5 
 1485000    1.0043745   -6.1766433    632.38352  0.035487291  0.035524599            4 
 1486000    1.0229954   -6.1665107    632.28403   0.03545783  0.035515929            5 
 1487000    1.0270391   -6.1286763    630.79936  0.035350782  0.035507295            5 
 1488000    1.0193975   -6.1677012    631.58526  0.035371038  0.035498605            2 
 1489000    1.0154147   -6.1115771    632.97861  0.035425263  0.035489903            5 
 1490000    1.0049904   -6.1242154    632.98541  0.035401869  0.035481221            6 
 1491000    1.0261881   -6.1661896    632.99972  0.035378925  0.035472572            3 
 1492000    1.0045034   -6.1059849    634.62156  0.035445797  0.035464029            5 
 1493000    1.0010035    -6.134077    633.54309  0.035361861   0.03545546            4 
 1494000    1.0096312   -6.1653384     635.1032  0.035425212  0.035446847            4 
 1495000    1.0162952   -6.1292892    637.14395   0.03551527  0.035438351            4 
 1496000    1.0240102   -6.1496488    636.29413  0.035444192  0.035429836            4 
 1497000    1.0128674   -6.1258013    636.15544  0.035412794   0.03542135            3 
 1498000   0.99814973   -6.1607034    634.27175  0.035284365  0.035412814            7 
 1499000    1.0103451   -6.1444619    636.91601  0.035407828  0.035404131            4 
 1500000   0.98332423   -6.1302925    637.49829  0.035416572  0.035395692            3 
 1501000    1.0026624   -6.1612984    636.42459  0.035333366  0.035387279            4 
 1502000    1.0000022   -6.1713315    636.63542  0.035321539  0.035378947            7 
 1503000    1.0210369   -6.2089301    635.87449  0.035255849  0.035370069            3 
 1504000    1.0137709   -6.1768761    636.79738  0.035283543  0.035361113            4 
 1505000    1.0109006   -6.1501267    636.38437   0.03523723   0.03535235            7 
 1506000     1.024796   -6.1728309    637.27934  0.035263354  0.035343601            2 
 1507000    1.0120032   -6.1847238    636.99613  0.035224294  0.035334895            7 
 1508000    1.0167799   -6.1554416    636.95457  0.035198639  0.035326232            3 
 1509000   0.99854784   -6.1700053    638.41962   0.03525622  0.035317632            2 
 1510000    1.0043952    -6.149136    638.50058  0.035237339  0.035309208            2 
 1511000   0.97746193   -6.1616312    638.82752  0.035232049  0.035300666            4 
 1512000   0.99883276   -6.1556651    639.70775  0.035257261  0.035292119            4 
 1513000    1.0092612   -6.1294078    641.28656  0.035320917  0.035283783            8 
 1514000    1.0280502   -6.1443724    640.13571  0.035234242  0.035275372            4 
 1515000    1.0006465   -6.1835746    641.71349  0.035297772  0.035266992            2 
 1516000    1.0251657   -6.1580918    640.94617  0.035232309  0.035258509            3 
 1517000    1.0140625   -6.1647678    642.73987  0.035307617  0.035250275            4 
 1518000   0.99808112   -6.1679065    641.66217  0.035225196  0.035241868            3 
 1519000    1.0003188   -6.1823023    642.29637  0.035236799  0.035233385            4 
 1520000   0.98132355   -6.1363278    645.89595  0.035410962  0.035225218            7 
 1521000      1.01307   -6.1773847    642.51734  0.035202572  0.035217053            5 
 1522000   0.99909068   -6.1649229    644.31093  0.035277646  0.035208843            5 
 1523000    1.0218534   -6.1441913    644.30264  0.035254029   0.03520056            3 
 1524000    1.0010676   -6.1720062    641.66028  0.035086411  0.035192197            4 
 1525000    1.0030027    -6.192292    641.44847  0.035051829  0.035183557            2 
 1526000    1.0119064   -6.1605621    647.32295  0.035349659  0.035175139           11 
 1527000    1.0026952   -6.1246767    648.03483  0.035365358  0.035166887            2 
 1528000    1.0092453   -6.1885576    646.12864  0.035238255  0.035158596            4 
 1529000    1.0199154   -6.1894704    645.46703  0.035179149  0.035150447            6 
 1530000   0.99971301   -6.1952451    647.09983  0.035245089  0.035142196            5 
 1531000    1.0285789   -6.1646913    643.73588  0.035038966  0.035133841            3 
 1532000    1.0197152    -6.191413    644.96551   0.03508298  0.035125409            6 
 1533000   0.98756482   -6.1805043    645.71355  0.035100758  0.035117184            3 
 1534000    1.0091908   -6.1707915    645.19301  0.035049599  0.035108733            2 
 1535000    1.0115815    -6.237279    645.64106  0.035051089   0.03510024            5 
 1536000    1.0026056    -6.148383    647.29066  0.035117766  0.035091867            5 
 1537000   0.99789526   -6.2073331    644.72363  0.034955738  0.035083356            3 
 1538000    1.0031763    -6.192983    646.61889    0.0350357  0.035074868            4 
 1539000    1.0024281   -6.1799004    647.61737  0.035067001   0.03506636            3 
 1540000    1.0127568    -6.161835    647.71924  0.035049743  0.035057895            4 
 1541000   0.99310698   -6.1546773    649.13794  0.035103718  0.035049466           10 
 1542000   0.98377247   -6.2063047    646.09273  0.034916382  0.035041126            6 
 1543000   0.99404354   -6.1952589    645.57639  0.034865867  0.035032565            6 
 1544000   0.99632972   -6.1972833    646.13432  0.034873398  0.035023936            2 
 1545000    1.0079997   -6.1837657    648.51695  0.034979339  0.035015359            9 
 1546000    1.0004411   -6.1793386    648.01666  0.034929746  0.035006748            3 
 1547000   0.98481049   -6.2070695    646.49965   0.03482545  0.034997983            3 
 1548000    1.0088239   -6.1546116    648.20384  0.034894694  0.034989365            8 
 1549000   0.99875762   -6.2169805    648.58519  0.034892683  0.034980778            4 
 1550000    1.0037496   -6.1766065    649.48347  0.034918466  0.034972129            7 
 1551000    1.0130217   -6.1785124    651.02564  0.034978811   0.03496385            3 
 1552000    1.0050762   -6.1703314    650.99401  0.034954575  0.034955335            3 
 1553000    1.0207483   -6.2160801    649.98476  0.034877911  0.034946929            3 
 1554000   0.99542078   -6.1827965    652.40536  0.034985272  0.034938634            1 
 1555000     1.023631   -6.1850212    651.20079   0.03489822  0.034930374            3 
 1556000   0.98509223     -6.19475      653.197  0.034982701  0.034922025            6 
 1557000   0.99254457   -6.1736724    650.97208  0.034841152  0.034913716            2 
 1558000    1.0113412   -6.1736292    653.10159  0.034932691  0.034905245            4 
 1559000    0.9996532   -6.1747908    651.83589  0.034842628  0.034896656           12 
 1560000    1.0011587   -6.2149037    652.25425  0.034842642   0.03488821            3 
 1561000    1.0085373   -6.1707301    652.12778  0.034813569  0.034879693            3 
 1562000    1.0015995   -6.1845882     652.0862  0.034789063  0.034871229            6 
 1563000    0.9914838    -6.170979    652.94018  0.034812337  0.034862821            3 
 1564000    1.0258005   -6.1802242    653.02008  0.034794335  0.034854129            5 
 1565000    0.9950032   -6.2112133    651.87522  0.034711141  0.034845455            4 
 1566000   0.98100565   -6.2174024    653.45733  0.034773166  0.034836849            4 
 1567000    1.0063765   -6.2055292    653.29389  0.034742283  0.034828146            4 
 1568000   0.99489561   -6.1675386    655.96787  0.034862238  0.034819612            3 
 1569000   0.99443979    -6.155144    655.47704  0.034813949  0.034811023            3 
 1570000    1.0198884   -6.2095793    653.73949  0.034699548  0.034802325            5 
 1571000    1.0236954   -6.1981451    655.59239  0.034775748  0.034793665            8 
 1572000   0.99843708   -6.2266566    651.08401  0.034514632  0.034784971            6 
 1573000   0.97644507   -6.1660599    656.60484  0.034785169  0.034776413            2 
 1574000    1.0022769    -6.187458    655.98513  0.034730259  0.034768015            4 
 1575000    1.0003154   -6.1847061    656.67245  0.034744574   0.03475945            2 
 1576000    1.0221802   -6.1453611    657.83829  0.034784173  0.034751052            3 
 1577000    1.0223879   -6.1551715     659.0813    0.0348278  0.034742624            3 
 1578000    1.0184961   -6.1589157    658.75014  0.034788241  0.034734212            3 
 1579000   0.99317204   -6.1536228    659.28085  0.034794219  0.034725837            7 
 1580000   0.98906012   -6.2095251    655.68029  0.034582294  0.034717311            2 
 1581000     1.020582   -6.1915985    658.49389  0.034708723  0.034708852            4 
 1582000    1.0081062   -6.1908043    658.96711   0.03471171  0.034700609            2 
 1583000   0.98504943   -6.1789638    656.47276  0.034558473  0.034692092            3 
 1584000    1.0090577   -6.2192778    658.23374    0.0346293  0.034683661            2 
 1585000   0.98810286   -6.2334592    659.42321   0.03466999  0.034675179            3 
 1586000   0.99198267   -6.1689043    660.23708  0.034690893  0.034666766            5 
 1587000   0.99443204    -6.219359    659.99994  0.034656581  0.034658438            3 
 1588000     1.002822   -6.2215671    661.68156  0.034723004  0.034650079            5 
 1589000   0.98442633   -6.2008763    660.14329  0.034620479   0.03464171            4 
 1590000   0.99281002   -6.1979097    662.68108  0.034731713  0.034633513            8 
 1591000    1.0021076   -6.1875513    662.38199  0.034694217  0.034625264            1 
 1592000   0.97943627   -6.2324471    659.94273  0.034544741  0.034616855            7 
 1593000   0.99453959   -6.2067562    661.54655  0.034606955  0.034608448            4 
 1594000    0.9896848   -6.1869565     661.3035  0.034572538  0.034600142            6 
 1595000    1.0111038   -6.1990115    660.90398  0.034529988   0.03459163            3 
 1596000   0.99753819   -6.2332842     661.1078  0.034518995  0.034583061            3 
 1597000    1.0018468   -6.1952182    662.20675  0.034554725  0.034574493            5 
 1598000    1.0066771   -6.1668577    662.83884  0.034566064  0.034566014            5 
 1599000    1.0085889   -6.2348904    661.06834  0.034452175  0.034557577            8 
 1600000    1.0048291   -6.2130679    661.24013   0.03443959  0.034549107            3 
 1601000   0.97969581   -6.2003242    662.78697  0.034498593  0.034540695            4 
 1602000   0.97474309   -6.1909591     661.5713  0.034413821  0.034532304            2 
 1603000     0.973153   -6.1849071    664.79768  0.034560079  0.034523883            4 
 1604000   0.99888633   -6.2000043    664.94097  0.034545977   0.03451546            6 
 1605000   0.99367095   -6.1865972    665.71244  0.034564509  0.034507052            4 
 1606000   0.97170663   -6.2090915      665.454  0.034529577  0.034498669            5 
 1607000   0.98648659   -6.2000363    666.22513  0.034548077  0.034490368            4 
 1608000   0.99458654   -6.2227141    664.35177  0.034429507  0.034482018            3 
 1609000    0.9939987   -6.2092761    664.20257  0.034400382  0.034473611            3 
 1610000   0.99740383   -6.2220781    666.41001  0.034493272   0.03446519            6 
 1611000    1.0030893   -6.1749504    666.08592  0.034455096  0.034457025            6 
 1612000   0.98773936   -6.1957428    666.07203  0.034433004  0.034448854            4 
 1613000    1.0009695   -6.2236839    667.64568  0.034492957  0.034440576            4 
 1614000   0.99232392   -6.2217329    666.49903  0.034412383  0.034432164            5 
 1615000    1.0101162   -6.2012388    667.83023  0.034459764  0.034423955           10 
 1616000    1.0038484   -6.1741728    667.92847  0.034443506  0.034415623            3 
 1617000    1.0048167   -6.2130691    667.27288  0.034388419  0.034407281            5 
 1618000   0.98454829   -6.2232324    667.54625  0.034381245  0.034398741            3 
 1619000    1.0168558   -6.2146157    667.81264  0.034373721  0.034390244            3 
 1620000   0.99645521    -6.204767    667.62483  0.034342841  0.034381796            7 
 1621000   0.98672029   -6.2390651    669.08809  0.034396879  0.034373288            3 
 1622000    0.9864463   -6.2110473    669.96868  0.034420914  0.034364812            4 
 1623000    0.9896689   -6.1998542    670.77781  0.034441251  0.034356369            3 
 1624000   0.96770649   -6.2225951    669.38545  0.034348597  0.034347835            4 
 1625000   0.98424545   -6.1846528    669.02588  0.034309019  0.034339163            4 
 1626000   0.97734257   -6.2219631    668.80948  0.034276829  0.034330687            6 
 1627000   0.97853279   -6.2004253    668.91013  0.034260916  0.034322103            3 
 1628000    1.0023585   -6.2264145    667.82897   0.03418453  0.034313322            4 
 1629000   0.99231367   -6.2448112    665.76418  0.034057918  0.034304658            3 
 1630000    1.0151956   -6.2243198      668.721   0.03418819  0.034295979            4 
 1631000    1.0000655   -6.2120003    670.24594  0.034245143  0.034287443            5 
 1632000    0.9930543   -6.2350505     668.6124  0.034140748  0.034278829            8 
 1633000    0.9928891   -6.2242117    669.45571  0.034162876  0.034270203            3 
 1634000   0.97254131   -6.2293999    671.30798  0.034236433  0.034261448            4 
 1635000    1.0053443   -6.2517885    668.79566  0.034087444   0.03425281            7 
 1636000    1.0156837   -6.2078901    672.96817  0.034279145  0.034244184           10 
 1637000   0.98124736   -6.2195482    671.34218  0.034175432  0.034235556            2 
 1638000    1.0002546   -6.2006904    672.86388  0.034231984  0.034227053            3 
 1639000   0.99916921   -6.2104442    673.71039  0.034254138   0.03421853            4 
 1640000   0.99312942   -6.2198382    672.63339  0.034178526  0.034210099            5 
 1641000    0.9849312   -6.2413382    673.92203  0.034223138  0.034201546            8 
 1642000   0.96572336   -6.2179263    672.61014  0.034135715  0.034192883            7 
 1643000   0.99191468   -6.2294903    673.32943  0.034151422  0.034184442           11 
 1644000    1.0114243   -6.1971129    673.27551  0.034127915  0.034175897            4 
 1645000   0.98492811   -6.2537658    671.64464  0.034024551  0.034167407            4 
 1646000    1.0049243   -6.2521748    673.21771  0.034083521  0.034158889            5 
 1647000   0.99897909   -6.2180218    676.06303  0.034206792  0.034150517            4 
 1648000   0.99868636   -6.2242727     674.9825  0.034131397  0.034142283            5 
 1649000   0.97521577   -6.1940091    677.69047  0.034247548  0.034133872            4 
 1650000   0.97933359   -6.2461922     673.5016  0.034015232   0.03412553            3 
 1651000   0.99293956   -6.2068321    676.10763  0.034126167  0.034116995            3 
 1652000   0.97703605   -6.2166191    675.46712    0.0340732  0.034108443            4 
 1653000   0.98439008   -6.2032067    677.22961   0.03414144  0.034099958            5 
 1654000   0.96519356   -6.2415741    674.08582  0.033962405  0.034091328            3 
 1655000    0.9780707   -6.2301071    675.49147  0.034012662  0.034082889            3 
 1656000   0.99725077   -6.2052762    678.08321  0.034122545  0.034074362            4 
 1657000   0.99240552    -6.255033    675.16909  0.033955396  0.034065948            3 
 1658000   0.99598372   -6.2164041    677.67308   0.03406077  0.034057646            5 
 1659000   0.97792728   -6.1784581    681.78106  0.034246587   0.03404927            4 
 1660000   0.98601548   -6.2180248    678.95716  0.034084195  0.034041031            5 
 1661000   0.97653218   -6.2411276    677.93621  0.034012453  0.034032484            2 
 1662000   0.97595358   -6.2288329     679.2116  0.034055937  0.034024139            3 
 1663000   0.97276081   -6.2153706     677.7732  0.033963379  0.034015839            9 
 1664000    1.0105432   -6.2354616    677.51503   0.03393004  0.034007401            5 
 1665000   0.98266882   -6.2661072    677.60191  0.033914009  0.033998715            5 
 1666000   0.97999687   -6.2452289    677.83894  0.033905509  0.033990057            8 
 1667000   0.97100352   -6.2340776    677.88841  0.033887643   0.03398136            5 
 1668000   0.96202241   -6.2319252    680.49873  0.033997738  0.033972867            6 
 1669000    1.0038894   -6.2149565     680.9721  0.034001004  0.033964434            6 
 1670000   0.99634571   -6.1909673    681.53951  0.034008957  0.033956154            6 
 1671000   0.98753316   -6.1871455    679.48343  0.033886068  0.033947735            9 
 1672000    1.0021567   -6.2358409    681.32129  0.033957401  0.033939344            7 
 1673000   0.99542773   -6.2227899    679.51654  0.033847208  0.033930798            5 
 1674000   0.97680872   -6.2862142    677.41421  0.033722332  0.033922051            3 
 1675000   0.99278675   -6.2348984    680.12944  0.033837286  0.033913374            2 
 1676000   0.97070372   -6.2719589    679.66502  0.033794004  0.033904638            5 
 1677000    1.0051427   -6.1982789    681.86371   0.03388311  0.033896016            2 
 1678000   0.98303791   -6.2101982    682.44987  0.033892028  0.033887639            6 
 1679000   0.99063591   -6.2087911    684.63325  0.033980209  0.033879306            6 
 1680000   0.98820658   -6.2411766    681.78975  0.033818936  0.033870776            4 
 1681000   0.98723459    -6.243614    680.91087  0.033755248   0.03386209            4 
 1682000    0.9665026   -6.2427515    680.77635  0.033728515  0.033853434            5 
 1683000   0.97877025   -6.2430376    682.70309  0.033803876   0.03384483           12 
 1684000   0.96584086   -6.2195377    682.33023  0.033765352  0.033836207            4 
 1685000   0.97080673   -6.2526707    684.26943  0.033841218  0.033827651            4 
 1686000   0.98542009    -6.225449    682.68564  0.033742865  0.033818999           12 
 1687000   0.98379537   -6.2580395    684.08762  0.033792117  0.033810404            2 
 1688000   0.95664873   -6.2622148    682.30071  0.033683882  0.033801709            2 
 1689000    1.0009553   -6.2540019    683.98492  0.033747036  0.033792972            9 
 1690000   0.98575268   -6.2604519    682.86361  0.033671776  0.033784356            2 
 1691000   0.99041659   -6.2359554    682.81456  0.033649446  0.033775695            4 
 1692000   0.97758973   -6.2349595    685.57167   0.03376535  0.033766995            3 
 1693000   0.99300582   -6.2686351    682.91465  0.033614621  0.033758387            4 
 1694000   0.96959286   -6.2501497    685.60849  0.033727297  0.033749584            6 
 1695000   0.98175607   -6.2574294    683.74523  0.033615793  0.033740941            3 
 1696000     0.989154   -6.2343304    683.60775  0.033589217  0.033732146            6 
 1697000   0.95649022    -6.244202    684.42126  0.033609372  0.033723306            3 
 1698000     0.960183   -6.2378122    683.38945   0.03353894  0.033714463            7 
 1699000   0.98190129   -6.2622646    685.80007  0.033637437  0.033705807            5 
 1700000   0.99245552   -6.2492856    685.23137  0.033589773  0.033697029            4 
 1701000   0.98640149   -6.2247148     686.9287  0.033653179  0.033688506            2 
 1702000   0.98443991   -6.2316028    686.94614  0.033634261  0.033679958            6 
 1703000   0.96855167   -6.2512519    687.56398  0.033644744  0.033671255           14 
 1704000    0.9961645   -6.2586702    686.14933  0.033555816  0.033662591            5 
 1705000   0.95263662   -6.2041743    689.19006  0.033684754  0.033654117            3 
 1706000     0.962475   -6.2101552    690.14663  0.033711735   0.03364577           10 
 1707000   0.97661552   -6.2242618    691.03072  0.033735145  0.033637497            3 
 1708000   0.99663972   -6.2516199     687.8228   0.03355888  0.033629114            4 
 1709000   0.97094361   -6.2564422    687.08392  0.033503214  0.033620573            5 
 1710000   0.96087617   -6.2520381    687.58701  0.033508139  0.033612053            5 
 1711000   0.96343846   -6.2332277      691.198  0.033664426  0.033603491            3 
 1712000   0.96872577   -6.2626821    687.95861  0.033487082  0.033594937            5 
 1713000    1.0099654    -6.256463    688.83741  0.033510284  0.033586299            5 
 1714000    0.9881175   -6.2642687    687.04778  0.033403723  0.033577562            3 
 1715000   0.97031361   -6.2528778    690.03639  0.033529465  0.033569029            4 
 1716000   0.97208117   -6.2497192    688.99894  0.033459544  0.033560426            4 
 1717000   0.97254786   -6.2562647    690.27022  0.033501758  0.033551782            5 
 1718000    0.9874928   -6.2585882     689.8757  0.033463121  0.033543173            2 
 1719000   0.95550367   -6.2469045    689.89811  0.033444741  0.033534683            2 
 1720000   0.97570646   -6.2585964    691.97316  0.033525831  0.033526177            6 
 1721000    0.9683504   -6.2052266    693.33773  0.033572425  0.033517672            5 
 1722000   0.97782891   -6.2241398    693.04726  0.033538872  0.033509362            2 
 1723000   0.97397681   -6.2348463    691.84939  0.033461472  0.033501044            6 
 1724000    1.0095114   -6.2556916     693.1471   0.03350479  0.033492712            1 
 1725000   0.99131626    -6.258711    691.14014  0.033388412  0.033484303            4 
 1726000   0.96816427   -6.2586283    693.06787  0.033462141   0.03347599            6 
 1727000   0.96547559   -6.2475648    693.39852   0.03345872  0.033467565            5 
 1728000   0.98910608    -6.252038    694.31419  0.033483516    0.0334591            4 
 1729000   0.99098973   -6.2741084    692.21476  0.033362963  0.033450669            3 
 1730000   0.97378437   -6.2970544    691.74587  0.033321092  0.033442056            2 
 1731000   0.97354794   -6.2292562    693.66121   0.03339405   0.03343352            4 
 1732000   0.97549665   -6.2263863    693.62002  0.033372788  0.033424979            7 
 1733000   0.97259152   -6.2555373     694.4285  0.033392407  0.033416332            6 
 1734000   0.96259299   -6.2266677    696.12078  0.033454478  0.033407722            3 
 1735000   0.98867581   -6.2137952    694.64644  0.033364382  0.033399175            4 
 1736000    0.9862331   -6.2695231     693.0365  0.033267881   0.03339059            2 
 1737000   0.96428526   -6.2751071    692.55859  0.033225801  0.033381801            3 
 1738000   0.97867014    -6.239721        694.8  0.033314154  0.033373095            3 
 1739000   0.97558968   -6.2395168    694.86797  0.033298254   0.03336432            2 
 1740000   0.96046541   -6.2466383    695.60613   0.03331447  0.033355647           10 
 1741000   0.98975529   -6.2254854    697.71664  0.033396355  0.033346962            2 
 1742000    0.9850889    -6.278412    694.54822  0.033225613  0.033338371            5 
 1743000   0.96670327   -6.2519164    698.56124  0.033398414  0.033329685            3 
 1744000   0.96682072   -6.2607195    694.28624  0.033174993  0.033321036            4 
 1745000   0.97207053   -6.2361086    698.93252  0.033377866  0.033312494            3 
 1746000   0.97459565   -6.2500575    699.07874  0.033365728  0.033304079            3 
 1747000   0.98018133   -6.2525718    697.45228  0.033269046  0.033295632            6 
 1748000   0.97110015   -6.2335403    698.74841  0.033311804  0.033287051            8 
 1749000   0.97353395   -6.2708155    695.48419   0.03313723  0.033278624            3 
 1750000   0.96119599   -6.2767375    698.12993  0.033244282  0.033270042            4 
 1751000   0.96975692   -6.2896733    699.53586  0.033292207  0.033261509            2 
 1752000   0.96657094    -6.261194    699.79284  0.033285428  0.033253151            6 
 1753000   0.95317203   -6.2486235    701.62052  0.033353324   0.03324479            2 
 1754000   0.97867309    -6.285342    700.24682  0.033269043  0.033236583            3 
 1755000   0.97886946   -6.2626337    701.17197  0.033294016  0.033228379            5 
 1756000   0.97080316   -6.2579342    702.22842  0.033325191  0.033220208            6 
 1757000   0.97466976   -6.2201866    703.37113  0.033360422  0.033211976            5 
 1758000   0.96882224   -6.2666696    701.95752  0.033274437  0.033203811            4 
 1759000   0.97819909   -6.2745843    700.91766  0.033206256  0.033195457            2 
 1760000   0.94483635   -6.2358134    703.39911  0.033304882  0.033187396            4 
 1761000   0.98217415   -6.2733402     700.6596  0.033156331  0.033179214            8 
 1762000   0.95087723   -6.2583794    702.65751  0.033232005  0.033171057            3 
 1763000   0.96445484    -6.313507    702.76628  0.033218297  0.033162839            5 
 1764000   0.98390456   -6.2805031    703.87195  0.033251698  0.033154677            4 
 1765000   0.97770791   -6.2457026    705.90093  0.033328656  0.033146601            7 
 1766000   0.96342094   -6.2690936    705.47472  0.033289672  0.033138541            5 
 1767000   0.97446586   -6.2793678     703.8323  0.033193374  0.033130429            4 
 1768000   0.95802465   -6.3011423    703.30876  0.033149923  0.033122394            5 
 1769000   0.96361932   -6.2541983    704.79141  0.033201027   0.03311437            5 
 1770000     0.966254   -6.2655016    705.28107  0.033205323  0.033106456            3 
 1771000   0.95997268   -6.2559686     705.6425  0.033203581  0.033098435            4 
 1772000   0.92511656   -6.2551374    706.78809  0.033238717  0.033090501            3 
 1773000   0.97006779    -6.256529     708.3295  0.033292419  0.033082531            4 
 1774000    0.9827779    -6.244529    710.16934  0.033360078  0.033074737            4 
 1775000   0.97081756   -6.2509079     709.5526  0.033312329  0.033066951            2 
 1776000   0.96888609   -6.2746082    705.76922  0.033116048  0.033058967            5 
 1777000   0.99186981   -6.2375778    711.24655  0.033354274  0.033051073            6 
 1778000   0.97591179   -6.2843797    709.05717  0.033232901  0.033043349            5 
 1779000   0.97453415   -6.2854443    708.56348  0.033191094  0.033035553            5 
 1780000   0.97898049   -6.3017957    709.15915  0.033200335  0.033027675            4 
 1781000   0.99687033   -6.2742868    708.95558  0.033172168  0.033019684            6 
 1782000    0.9893958   -6.2712439    709.78639  0.033192405  0.033011846            3 
 1783000   0.94892615   -6.2811938    708.78657   0.03312706  0.033004005            4 
 1784000   0.97274186   -6.3125211    708.58945  0.033099283  0.032995926            8 
 1785000   0.95619527   -6.2729388    710.34836  0.033162855  0.032987938            4 
 1786000   0.96892061   -6.3198481    709.38883  0.033099516  0.032980056            3 
 1787000   0.97642195   -6.2910705    710.56983  0.033136067  0.032972121            5 
 1788000   0.96775952   -6.2749251    711.34203  0.033153525  0.032964411            8 
 1789000   0.94157936   -6.2649644    710.66585  0.033103496    0.0329566            3 
 1790000   0.97789796   -6.2541727    710.30275  0.033068098  0.032948765            5 
 1791000   0.97486902   -6.2760333    713.37926  0.033192781  0.032941062            6 
 1792000   0.94639539   -6.2935854    711.03967  0.033065461  0.032933394            5 
 1793000   0.96372728   -6.2770791    711.00785  0.033045541  0.032925593            3 
 1794000   0.99062441   -6.3033684    711.49613  0.033049802   0.03291755            4 
 1795000   0.96526251   -6.2936296    711.52544   0.03303275  0.032909427            4 
 1796000   0.96975339   -6.3259419     710.8898  0.032984865  0.032901388           10 
 1797000   0.98744486   -6.2483218    713.93658  0.033107799  0.032893525            4 
 1798000    0.9650182   -6.2930181    711.10595  0.032958192  0.032885653            3 
 1799000   0.98259473   -6.2856619    712.98201  0.033026775  0.032877828            2 
 1800000   0.96128666   -6.2449374    714.61549  0.033084051  0.032870013            2 
 1801000   0.96986856   -6.2645608    714.60172  0.033065044  0.032862244            3 
 1802000    1.0048226   -6.2936066    713.07209  0.032975957  0.032854615            3 
 1803000   0.94491288    -6.300327    714.35482  0.033016954  0.032846943            4 
 1804000   0.94947911   -6.2974486    715.23144  0.033039146  0.032839304            5 
 1805000   0.93881442   -6.2794128    716.73351   0.03309019  0.032831631            6 
 1806000   0.96852358   -6.3136934    715.77664  0.033027715  0.032823945            3 
 1807000   0.95916839   -6.2620754    718.24012  0.033123045  0.032816258            3 
 1808000   0.94079568   -6.2671163    715.61069  0.032983531  0.032808721            2 
 1809000   0.97840099   -6.2746998    718.44179  0.033095715  0.032801198            7 
 1810000   0.99338903   -6.3209948    716.08519  0.032968932  0.032793537            4 
 1811000   0.96234168   -6.2861064    716.10964  0.032951852  0.032785921            3 
 1812000   0.97097786    -6.267827    716.83226  0.032966899  0.032778329            6 
 1813000   0.97642675   -6.3021511    717.25023  0.032967927  0.032770768            2 
 1814000   0.96178385    -6.296035    718.02309  0.032985258  0.032763017            5 
 1815000   0.95515829    -6.278951    718.52548   0.03299015  0.032755354            2 
 1816000   0.96168659   -6.2723064    719.95849  0.033037743  0.032747625            4 
 1817000   0.96654203   -6.2632254    721.17647  0.033075421      0.03274            4 
 1818000   0.95095403   -6.2939574    718.59146  0.032938736  0.032732502            8 
 1819000   0.95277707   -6.2860782    718.44915  0.032914108  0.032724967            4 
 1820000   0.95488473    -6.288113    719.71713  0.032954081  0.032717459            9 
 1821000   0.97964192   -6.2426821    724.38979  0.033149817  0.032709914            3 
 1822000   0.94484286   -6.2781257    720.96352  0.032974914    0.0327026            7 
 1823000   0.94707111   -6.3294846     719.0274  0.032868321  0.032695079            5 
 1824000   0.97106911   -6.3223614    718.00007  0.032803366   0.03268735            4 
 1825000   0.96344946   -6.2819636    720.82838  0.032914538  0.032679658            6 
 1826000   0.95078333   -6.2690461    722.35496  0.032966181  0.032672127            4 
 1827000   0.96835326   -6.2548968    720.48207  0.032862711  0.032664677            3 
 1828000   0.95455754   -6.2903921    721.47914  0.032890187  0.032657229            9 
 1829000   0.97596248   -6.2844369    722.20022  0.032905058  0.032649816            3 
 1830000   0.95043253   -6.3249936    720.50277   0.03280978  0.032642165            7 
 1831000   0.94129689   -6.3116933     721.0531  0.032816908  0.032634635            2 
 1832000    0.9540082   -6.2661534    724.93109  0.032975396  0.032627096            6 
 1833000   0.94517246   -6.3290872    722.00934  0.032824574  0.032619556            2 
 1834000   0.95845684   -6.2612089    724.69379  0.032928653  0.032611952            6 
 1835000   0.96703765   -6.3037825    722.81035  0.032825175  0.032604499           12 
 1836000   0.96003958   -6.2624504    725.32786  0.032921562  0.032596905            6 
 1837000   0.96697316   -6.2604898    723.35907  0.032814329  0.032589387            3 
 1838000   0.96344203   -6.2913963    725.42987  0.032890364  0.032581805            6 
 1839000   0.94934412   -6.3019079    724.20145  0.032816814  0.032574348            2 
 1840000    0.9447813   -6.3083086    724.94232  0.032832532  0.032566717            8 
 1841000    0.9503309   -6.2967595    724.66177  0.032801999  0.032559075            8 
 1842000   0.96054609   -6.3091376    724.47172  0.032775594   0.03255148            5 
 1843000   0.95552769   -6.3053111    722.02552  0.032647202  0.032543857            7 
 1844000   0.96913577   -6.2395668    727.68087  0.032885072  0.032536285            3 
 1845000   0.94062982   -6.2874117    726.32686  0.032806091  0.032528788            2 
 1846000    0.9599232   -6.2799898    724.67931  0.032713945  0.032521219            4 
 1847000   0.93990659   -6.2742806    725.78109  0.032745943  0.032513602            3 
 1848000   0.95499318   -6.2789048    725.66773  0.032723112  0.032505994            9 
 1849000   0.96764192    -6.316606     724.3632   0.03264662  0.032498301            4 
 1850000   0.93307224   -6.3173724     724.8108  0.032649135  0.032490482            3 
 1851000   0.98221217    -6.338261    726.30697  0.032698855   0.03248253            4 
 1852000   0.92853581   -6.3007886    723.88121  0.032572049  0.032474539            6 
 1853000   0.94353538    -6.311357    723.12163  0.032520311  0.032466659            5 
 1854000   0.96132313   -6.2989789    727.47543  0.032698464  0.032458678            4 
 1855000   0.95939537   -6.2891752    725.60747  0.032596921  0.032450803            3 
 1856000   0.95199642   -6.2891241    726.52304  0.032620467  0.032442853            5 
 1857000   0.95353668   -6.3163786    725.89901  0.032574897  0.032434974           10 
 1858000    0.9563187   -6.3060589    727.56446  0.032632062  0.032427036            5 
 1859000   0.95575611   -6.3134007    725.18761  0.032507962  0.032419162            3 
 1860000   0.94563138   -6.2958781    728.22248  0.032626455  0.032411298           10 
 1861000   0.96709459   -6.3155851    727.74145  0.032587383  0.032403347            4 
 1862000   0.94473853   -6.2924111    727.30448  0.032550326  0.032395456            4 
 1863000   0.94232227   -6.3208246    727.00989  0.032519677  0.032387664            5 
 1864000   0.95601614   -6.3118634    728.27464  0.032558773  0.032379849            4 
 1865000   0.97695489   -6.3166639    726.69618  0.032470786  0.032372019            4 
 1866000   0.95811438   -6.3028411    726.53926  0.032446376  0.032364145            3 
 1867000   0.95731107   -6.3194666    728.74168  0.032527302  0.032356107            5 
 1868000   0.94199366   -6.2825039    729.22357  0.032531387  0.032348108            3 
 1869000   0.95938962   -6.3117978    728.70843  0.032491013  0.032340083            8 
 1870000   0.95667149   -6.2799167    729.56373  0.032511753  0.032332191            2 
 1871000   0.97208728   -6.3118473    729.55877  0.032494155  0.032324295            4 
 1872000   0.94096135   -6.3130433    726.89445  0.032358193  0.032316378            3 
 1873000   0.95189548   -6.3432125    728.39116  0.032407508  0.032308399            5 
 1874000   0.95915624   -6.2931306    727.83582   0.03236552  0.032300488            3 
 1875000   0.95370256   -6.3390474    728.94376  0.032397501  0.032292455            9 
 1876000   0.94678671   -6.3344118    729.95569  0.032425182  0.032284362            5 
 1877000   0.95818223   -6.3158337    729.36465  0.032381666  0.032276209            3 
 1878000   0.93721299   -6.2970713    728.74454  0.032336907  0.032268136            3 
 1879000   0.95131466   -6.2790306    732.68782  0.032494581  0.032260088            4 
 1880000   0.93536092   -6.3412301    727.59929  0.032251742  0.032252125            5 
 1881000   0.95316943   -6.2986896    730.62175  0.032368499   0.03224405            3 
 1882000   0.92354895   -6.3154047    728.14198  0.032241498  0.032235832            7 
 1883000   0.96856455   -6.2936402    731.29548  0.032363935  0.032227678            6 
 1884000   0.95331802   -6.3019977    728.80418  0.032236561  0.032219524            7 
 1885000   0.92562794   -6.3306153    727.14625  0.032146165  0.032211123            4 
 1886000   0.93317018   -6.2780629    731.29407  0.032312393  0.032202911            5 
 1887000   0.94980313   -6.3337076    731.13242   0.03228813  0.032194675            4 
 1888000   0.94336973   -6.3088722    731.65524  0.032294105  0.032186497            4 
 1889000   0.93246248   -6.2844823    733.44495  0.032355962  0.032178392            5 
 1890000    0.9505663   -6.2995726       729.82  0.032179012  0.032170345            6 
 1891000   0.93911708   -6.3305655    728.93473  0.032122983   0.03216208            4 
 1892000   0.93689436   -6.3132054    730.29945  0.032166114  0.032153827            5 
 1893000   0.92736063   -6.3186706    731.13399   0.03218586  0.032145572            4 
 1894000   0.94634889   -6.2950562    732.38481  0.032223901  0.032137188            6 
 1895000   0.96574242   -6.3415217    731.41948  0.032164445  0.032128975            4 
 1896000   0.92298371   -6.3158843    730.35931  0.032100884  0.032120667            4 
 1897000   0.95440607   -6.3063712    730.49549  0.032089944  0.032112506            7 
 1898000   0.92170454    -6.304096    731.22221  0.032104944  0.032104096            3 
 1899000   0.95936325   -6.3311451    732.82602  0.032158418  0.032095728            3 
 1900000    0.9452979   -6.3308254     729.5791  0.031999083  0.032087422            3 
 1901000   0.95111368   -6.3013756      732.275  0.032100429  0.032079101            5 
 1902000   0.95150638    -6.336665    730.75912  0.032017136   0.03207067            9 
 1903000   0.94024807   -6.3074781    732.78275  0.032088927  0.032062379            5 
 1904000   0.95346597   -6.3165194    732.20477  0.032046777  0.032054104            6 
 1905000   0.94941701   -6.2828657    736.13611   0.03220193  0.032045732            3 
 1906000   0.94647206   -6.3112888    734.35826  0.032107304  0.032037438            3 
 1907000   0.95690374   -6.3214621    732.78598  0.032021761  0.032029007            6 
 1908000   0.93840095   -6.3043767    734.51678  0.032080572  0.032020644            4 
 1909000   0.95159514   -6.3420906    734.35093  0.032056528  0.032012295            4 
 1910000   0.93160895   -6.3587963    733.14878  0.031987294  0.032003914            4 
 1911000   0.92957677   -6.3581319    732.85056  0.031957551   0.03199536            5 
 1912000   0.92834052   -6.3522523    732.35297   0.03191915  0.031986908            2 
 1913000   0.95347984   -6.3470618    733.28884  0.031943232  0.031978469            5 
 1914000   0.92408531   -6.3532241    733.30527  0.031927258  0.031970017           10 
 1915000     0.943369   -6.3027711    738.32084  0.032128844  0.031961633            7 
 1916000   0.94129717   -6.3160214    735.93972  0.032008513  0.031953235            5 
 1917000   0.94403408   -6.3207366    734.49576  0.031929045  0.031944875            6 
 1918000   0.93699133    -6.338822    734.43598  0.031909801  0.031936398            6 
 1919000   0.94001458   -6.3250249    737.14247  0.032010703  0.031928034            3 
 1920000    0.9363784   -6.3007541    737.08539  0.031991553  0.031919635            5 
 1921000   0.96620262   -6.3424817    734.33193  0.031855454  0.031911129            5 
 1922000   0.94247946   -6.3110325    736.86864  0.031948866   0.03190274            6 
 1923000    0.9368567   -6.3355064    736.55316   0.03191858  0.031894323            3 
 1924000   0.93924131   -6.3367951    738.10687  0.031969286  0.031885972            4 
 1925000   0.94772718   -6.3142325    737.44212  0.031923901  0.031877607            2 
 1926000   0.93596435   -6.3320254    733.87176  0.031752845  0.031869237            5 
 1927000   0.92989216   -6.3325139    738.12177  0.031920159   0.03186097            5 
 1928000   0.94585863   -6.2817376     739.8108  0.031976608  0.031852704            3 
 1929000   0.96417646   -6.3361569    737.72799  0.031870053  0.031844553            4 
 1930000   0.94637188    -6.305014    739.26219  0.031919784   0.03183635            6 
 1931000   0.96014668   -6.3654297    737.13285   0.03181136  0.031828152            4 
 1932000   0.95167197   -6.3486487    738.07062  0.031835344  0.031819851            3 
 1933000   0.94841982   -6.3668734    737.81894  0.031808025  0.031811512            6 
 1934000   0.94368355   -6.3100445     738.5428  0.031822768  0.031803135           11 
 1935000   0.94112111   -6.3303827    737.85773  0.031776819   0.03179489            3 
 1936000    0.9507214   -6.3369743    737.83761  0.031759539  0.031786674            4 
 1937000   0.95334392   -6.3468825    738.51934  0.031772472  0.031778311            3 
 1938000   0.94685027   -6.3307649    738.97269  0.031775571  0.031769917            5 
 1939000   0.93501904   -6.3026529    738.45764  0.031737048  0.031761549            5 
 1940000   0.93165104   -6.3751812    736.82934  0.031650745  0.031753112            5 
 1941000   0.95347763   -6.3663989    738.90345  0.031723487  0.031744647           11 
 1942000   0.93803028    -6.362116    738.27201  0.031680055  0.031736242            3 
 1943000   0.94714164   -6.3707491    737.13956  0.031615181  0.031727807            3 
 1944000   0.93814435    -6.331679    740.32483  0.031735461   0.03171941            4 
 1945000   0.94226029   -6.3656747    739.27305  0.031674081   0.03171094            6 
 1946000    0.9508676   -6.3953318    737.23888  0.031570695  0.031702378            2 
 1947000   0.92830921   -6.3296144    737.41437  0.031561992  0.031693779            5 
 1948000   0.95185668   -6.3505173    741.35833  0.031714507  0.031685318            4 
 1949000   0.93788867   -6.3459884    740.22293  0.031649689  0.031676913            5 
 1950000   0.93513988   -6.3225851    740.00518  0.031624153   0.03166848            3 
 1951000   0.94199587    -6.372664    739.75734  0.031597358  0.031659976            2 
 1952000   0.93177363   -6.3434657    740.86354  0.031628396  0.031651605            6 
 1953000   0.93870701   -6.3319216    744.00565  0.031746273  0.031643365            2 
 1954000   0.93891677   -6.3451436    744.37811  0.031745911  0.031635061            4 
 1955000   0.94280377    -6.339379    743.11164  0.031675688   0.03162669            6 
 1956000   0.93539489   -6.3492458    740.82102  0.031561904  0.031618324            8 
 1957000   0.94223641   -6.3718868    741.03395  0.031554844  0.031609976            5 
 1958000   0.94003504    -6.359376    740.46121  0.031514352  0.031601409            4 
 1959000   0.94989219   -6.3509649    743.17958  0.031613901  0.031592946            5 
 1960000   0.94719775   -6.3640327    742.67318  0.031576241  0.031584525            5 
 1961000   0.94898099   -6.3153696    741.92782  0.031528464  0.031576181            4 
 1962000   0.93433285   -6.3502075     741.5255  0.031495307  0.031567815            6 
 1963000   0.93349637   -6.3356008    744.65235  0.031612003  0.031559315            6 
 1964000   0.95459201   -6.3810979    741.12359  0.031446181  0.031550825            4 
 1965000   0.96367883   -6.4021214    740.69094  0.031411829   0.03154215            6 
 1966000   0.94859834     -6.35772    741.62313  0.031435365  0.031533499            7 
 1967000   0.95793662   -6.3496252    742.39935  0.031452268  0.031524876            6 
 1968000   0.95322871    -6.372044    740.17026  0.031341898  0.031516416            5 
 1969000   0.93449778   -6.3584612    742.84554  0.031439205  0.031507843            3 
 1970000    0.9522073   -6.3598978    744.58805  0.031496956  0.031499475            4 
 1971000   0.93923565   -6.3502565    743.51914  0.031435783  0.031490949            2 
 1972000   0.93530944   -6.3480369    744.91946  0.031479017  0.031482453            3 
 1973000   0.91362587   -6.3627222    744.02484  0.031425276  0.031474035            4 
 1974000   0.95316947    -6.381104    742.30574  0.031336784  0.031465532            5 
 1975000   0.94561254   -6.3691409    743.61843  0.031376305  0.031456963            6 
 1976000   0.94733035   -6.3372545    744.22558  0.031386031  0.031448474            4 
 1977000   0.93480299   -6.3600529    746.48958  0.031465587  0.031440081            3 
 1978000   0.95087403   -6.3882461    743.99647  0.031344644  0.031431585            3 
 1979000   0.94043935   -6.3449144    745.40733  0.031388215  0.031422911            5 
 1980000   0.93614901    -6.367569    746.13971  0.031403187  0.031414284            7 
 1981000   0.93534178   -6.3540477    743.25138  0.031265833  0.031405624            5 
 1982000    0.9419908   -6.3116298    745.90464  0.031361614  0.031397129            6 
 1983000   0.91991831   -6.3859375    742.94804  0.031221552    0.0313886            5 
 1984000   0.91262614   -6.3232575    745.75314  0.031323637  0.031379997            3 
 1985000     0.904464   -6.3958245    746.86863  0.031354686  0.031371321            4 
 1986000   0.95089507   -6.3474894    745.88484  0.031297618  0.031362744            9 
 1987000   0.93400934   -6.3482732    744.22413  0.031212218  0.031354222            5 
 1988000   0.94005641   -6.3584273    746.67126  0.031299097  0.031345626           14 
 1989000   0.91267305   -6.3910315     744.1941  0.031179575  0.031336997            4 
 1990000   0.92869157   -6.3385115    747.93299  0.031320477  0.031328351            7 
 1991000   0.93616767   -6.3396052    744.78282  0.031172896  0.031319841            5 
 1992000   0.92901058   -6.3375369    745.98614  0.031207586  0.031311346            4 
 1993000   0.92136161   -6.3604416    745.97185   0.03119133  0.031302728            4 
 1994000   0.93055519     -6.32703    748.87578  0.031297049   0.03129432            6 
 1995000   0.93805912   -6.3471896    746.62999  0.031187552  0.031285804            4 
 1996000    0.9290309   -6.3415351    748.98721  0.031270341  0.031277253            7 
 1997000   0.95335798   -6.3993426    748.90904   0.03125142  0.031268732            5 
 1998000   0.94474198   -6.3294147    749.82729  0.031274078  0.031260323           11 
 1999000   0.92083933   -6.3466014    749.66745   0.03125177  0.031251848            2 
 2000000   0.94110143    -6.396267    746.21738  0.031092391  0.031243308            3 
 2001000   0.91428913   -6.4046639    747.76882  0.031141463  0.031234618            3 
 2002000   0.90854734   -6.3797506    748.12664  0.031140802  0.031225973            4 
 2003000   0.93026101   -6.3787515    747.04571  0.031080284  0.031217338            8 
 2004000    0.9361008   -6.3613368    747.54994  0.031085743  0.031208852            6 
 2005000   0.91984947   -6.3823432    750.16883  0.031179087  0.031200252            3 
 2006000   0.94295001      -6.3805    747.88772  0.031068782  0.031191721            5 
 2007000   0.92810171   -6.3495608    750.41285  0.031158148  0.031183067            9 
 2008000   0.90615194   -6.3695214    749.31538  0.031097086  0.031174406            9 
 2009000   0.90344805   -6.3983009    748.31716  0.031040201  0.031165779           11 
 2010000   0.94569779   -6.3388627    749.29141   0.03106515  0.031157229            5 
 2011000   0.94413136   -6.3397336    751.94153   0.03115952  0.031148667           15 
 2012000   0.90924067   -6.3764932     751.7832  0.031137475    0.0311401            5 
 2013000    0.9099046   -6.3535279     752.2691  0.031142122  0.031131656            5 
 2014000   0.92987408   -6.3572652    751.10567   0.03107852  0.031123135           10 
 2015000   0.94241767   -6.3488205    750.87145   0.03105341  0.031114567            5 
 2016000   0.94027022   -6.3726339    750.23237  0.031011589  0.031106013            5 
 2017000    0.9337186   -6.3643494    749.68297  0.030973516  0.031097394            5 
 2018000   0.94805025   -6.3974193    748.31477  0.030901667  0.031088706            5 
 2019000   0.94091469   -6.3746399    749.77365  0.030946576  0.031079889            4 
 2020000   0.92997944   -6.3737284    750.51561  0.030961865  0.031071109            5 
 2021000   0.92977402   -6.3863309    748.89098  0.030879555  0.031062261            5 
 2022000   0.92597763   -6.3533014    750.44174  0.030928196  0.031053503            3 
 2023000   0.91402813   -6.4010333    749.75386  0.030884572  0.031044725           12 
 2024000   0.94826335    -6.370302    752.90826  0.030999187  0.031035946            6 
 2025000   0.91299395   -6.3740584    751.31208  0.030918192  0.031027192           11 
 2026000   0.92396705   -6.3684904    751.27269  0.030901312  0.031018405            6 
 2027000   0.91133893    -6.351091    752.20369  0.030924342  0.031009675           10 
 2028000   0.93404287   -6.3536468    753.94448  0.030980625  0.031001032            5 
 2029000   0.91578207   -6.3641253    750.95874  0.030842728    0.0309923            3 
 2030000   0.92493177   -6.3738228     750.7153  0.030817541  0.030983499            6 
 2031000   0.95626341   -6.3861502    753.26259  0.030906884  0.030974678            7 
 2032000   0.92158005   -6.3561625    752.57095   0.03086331  0.030965982            4 
 2033000   0.92674323   -6.3318963    752.85244  0.030859667  0.030957216            5 
 2034000   0.90264781   -6.3563711    753.42567  0.030867981   0.03094846            4 
 2035000   0.90761933   -6.3633169    751.42533  0.030770898  0.030939835            5 
 2036000   0.95630479   -6.3626379    754.61927  0.030886512  0.030931188            4 
 2037000   0.90083563    -6.394391    752.17916  0.030771525  0.030922532            5 
 2038000   0.93198599   -6.3696295    755.89348  0.030908304  0.030913742            4 
 2039000   0.93505655   -6.3651601    752.03634  0.030735505  0.030905055            3 
 2040000   0.91537236    -6.381288    754.63425  0.030826562  0.030896338            9 
 2041000   0.92347645   -6.3440957     755.1977  0.030834464  0.030887644            3 
 2042000   0.92676281   -6.3503683    757.86535   0.03092823  0.030878964            4 
 2043000   0.91991144   -6.3824991    753.62843  0.030740269  0.030870377            4 
 2044000     0.936564   -6.4110642    753.10532  0.030703902  0.030861644            2 
 2045000   0.91984672   -6.3906537    754.91849  0.030762775  0.030852826            5 
 2046000   0.92486508   -6.3555902    753.15549  0.030675932  0.030844075            3 
 2047000   0.92666452   -6.3633722    755.76152  0.030767038   0.03083547            6 
 2048000   0.91529959    -6.358426    755.58816  0.030744961  0.030826916            6 
 2049000   0.89675837   -6.3507929    756.65528  0.030773356   0.03081827            5 
 2050000   0.92831036   -6.3648142    755.62127  0.030716312   0.03080972            5 
 2051000   0.93071531   -6.3947813    755.39559  0.030692166  0.030801102            5 
 2052000   0.91225517   -6.4128048    755.34735   0.03067525  0.030792344            4 
 2053000   0.94893699   -6.3759771    757.38666  0.030743086  0.030783692            2 
 2054000   0.92600567   -6.3628049    754.70004  0.030619119  0.030775118            4 
 2055000   0.91876907   -6.3567174    758.73412  0.030767807  0.030766498            6 
 2056000   0.92080189   -6.3977006    757.90963  0.030719424  0.030757825            5 
 2057000    0.9500549   -6.4102789    755.73083  0.030616222  0.030749047            3 
 2058000    0.9183179   -6.3851379    755.75955  0.030602509  0.030740265            4 
 2059000   0.93328963    -6.371106    757.69945  0.030666159  0.030731552            5 
 2060000   0.92865888   -6.3644153    755.82914  0.030575612  0.030722812            5 
 2061000    0.9295199   -6.3878622    754.84472  0.030520973  0.030714021            3 
 2062000   0.91994359   -6.3698795    758.04363  0.030635452  0.030705248            5 
 2063000   0.93948362   -6.4079433    755.70601  0.030526176  0.030696506            7 
 2064000    0.9202913   -6.3475139    759.53588  0.030666016  0.030687754           10 
 2065000    0.9358666    -6.403415    756.96956  0.030547601  0.030679089            5 
 2066000   0.92934197   -6.3800299    756.99473  0.030533831  0.030670363            5 
 2067000   0.91093274   -6.3847157    759.11953  0.030604722  0.030661507            3 
 2068000   0.91699928   -6.3936834       756.67  0.030491215  0.030652741            6 
 2069000   0.94235149    -6.424751    755.64026  0.030435003  0.030643827            4 
 2070000   0.91909124    -6.404877    756.71472  0.030463556  0.030634837            8 
 2071000   0.91221114   -6.3880274    755.90138  0.030416119  0.030625987            5 
 2072000   0.93548581   -6.4211883    757.06381   0.03044819  0.030617137            2 
 2073000   0.91553391   -6.3675281    757.85072  0.030465136  0.030608285            5 
 2074000   0.92382226   -6.4145791    756.09237  0.030379796  0.030599346            4 
 2075000   0.93043647     -6.41283    756.43764  0.030379022  0.030590518            4 
 2076000   0.92522813   -6.4199591    757.90061  0.030423114  0.030581698            3 
 2077000   0.91745205   -6.3824833    757.88084  0.030407673  0.030572859            7 
 2078000   0.91361604    -6.386231    758.34964   0.03041184  0.030564024            3 
 2079000   0.92915062   -6.3783362    759.65129  0.030449386  0.030555176            8 
 2080000   0.92564099   -6.4214187    758.74465  0.030398424   0.03054633            5 
 2081000   0.91437635   -6.4135515    758.19674  0.030361875  0.030537439            5 
 2082000   0.91271702   -6.3914313    760.90209  0.030455575  0.030528588            5 
 2083000   0.92133552   -6.3725327    761.32693   0.03045795  0.030519792            5 
 2084000   0.90939722   -6.4070095    759.59076  0.030373911  0.030511053            5 
 2085000   0.92658365   -6.4049052    757.95487   0.03029396  0.030502241            3 
 2086000   0.93004052   -6.4081513    760.14648  0.030366989  0.030493242            4 
 2087000   0.92568859   -6.3870193    758.30992  0.030279105  0.030484361            5 
 2088000    0.9170666   -6.4222247    759.18426    0.0302995  0.030475538            7 
 2089000   0.93140972   -6.4062383    759.66875  0.030304322  0.030466674            5 
 2090000   0.95393925   -6.3826279    760.19467  0.030310792  0.030457935            7 
 2091000   0.89675262   -6.3882937     762.4836  0.030387518  0.030449175            4 
 2092000   0.91355661   -6.4054769     759.9288  0.030271224  0.030440467            9 
 2093000   0.92921368    -6.390199    763.12081  0.030383851  0.030431672            3 
 2094000   0.93164522   -6.3949893    763.02285  0.030365443  0.030422925            7 
 2095000   0.94201591   -6.4029995    761.01547  0.030271101  0.030414083            4 
 2096000   0.91778749   -6.4299317    760.62718  0.030241221  0.030405234            6 
 2097000    0.9328299   -6.3910819    763.07225  0.030323965  0.030396564            7 
 2098000   0.91736969   -6.3791136    764.64542  0.030371998  0.030387916            4 
 2099000   0.90800488   -6.4001177    761.72028  0.030241396  0.030379273            5 
 2100000   0.91166593   -6.4111703    760.71972   0.03018729  0.030370414            8 
 2101000   0.92179064   -6.4203214    762.85708  0.030257698  0.030361555            4 
 2102000   0.92227992   -6.3958805     760.6036  0.030153965  0.030352616            4 
 2103000   0.92744548   -6.4398587    761.30375   0.03016737  0.030343682            4 
 2104000   0.91543718   -6.4041474    762.37374  0.030195411  0.030334846            6 
 2105000   0.91012336   -6.4198159    762.09624  0.030170081  0.030326019            6 
 2106000   0.91102137   -6.4453132    761.16202  0.030118788  0.030317139           11 
 2107000   0.90956595   -6.4005857    765.49598  0.030275905  0.030308244           15 
 2108000   0.90827744   -6.4216797    763.06545  0.030165459  0.030299442            6 
 2109000   0.93501156    -6.343008    766.91464   0.03030325  0.030290784            4 
 2110000   0.93726245   -6.3547285    766.55998  0.030274881   0.03028217            5 
 2111000   0.91624307   -6.4029225    764.98882  0.030198517  0.030273431           10 
 2112000   0.92234369   -6.3692179    766.55429  0.030245987  0.030264758            8 
 2113000     0.924799   -6.4184673    764.59937  0.030154574  0.030256097            4 
 2114000   0.91679195   -6.4183868    762.27538  0.030048698  0.030247419            5 
 2115000   0.91205076    -6.417645    764.36852  0.030116963  0.030238592            8 
 2116000   0.93031549   -6.4063206     764.8741  0.030122641  0.030229797            8 
 2117000   0.90660422   -6.4549356    762.67359  0.030021791   0.03022096            9 
 2118000   0.89852841   -6.4117734    766.67635  0.030165107  0.030212134            6 
 2119000   0.90831973   -6.4351324    763.84314   0.03003945  0.030203342            4 
 2120000   0.92018454   -6.4495873    765.10405  0.030074845   0.03019445            5 
 2121000   0.90893475   -6.4232704    764.32797  0.030030173  0.030185554            6 
 2122000   0.90493864    -6.436572    762.14286   0.02993021   0.03017671            4 
 2123000   0.90110001    -6.412671    763.09876  0.029953633  0.030167883            4 
 2124000     0.891406   -6.4409514    765.08874  0.030017606  0.030159104            5 
 2125000   0.92022739   -6.4354824    765.19592  0.030007683  0.030150251            4 
 2126000   0.89519552   -6.4207067    764.36134  0.029960855  0.030141381            5 
 2127000   0.91492914   -6.4016167    763.74209  0.029922508  0.030132551            5 
 2128000   0.90899555   -6.3949211     764.2986   0.02993024  0.030123767            4 
 2129000   0.89441615   -6.4231114     766.9875   0.03002143  0.030114927            4 
 2130000   0.91084936   -6.3902935    767.32956  0.030020718  0.030106191            3 
 2131000   0.91737717   -6.4049495    766.88487  0.029989241  0.030097494            5 
 2132000   0.91218511   -6.4195948    765.64032  0.029926529  0.030088774            5 
 2133000   0.88938357   -6.4086793    766.81698  0.029958469  0.030080022            3 
 2134000   0.92262468   -6.4088109    767.50865  0.029971441  0.030071278            3 
 2135000   0.92607281   -6.3769039    768.73507  0.030005272  0.030062627            6 
 2136000   0.90977432   -6.3884451    768.87543    0.0299967  0.030054101           11 
 2137000   0.90995995    -6.376827    769.44221  0.030004766  0.030045643            4 
 2138000   0.91792354   -6.3819387    769.84247  0.030006332  0.030037177            3 
 2139000   0.90024875   -6.4148639    770.01297  0.029998947  0.030028572            5 
 2140000   0.91044714   -6.4548103    766.59588  0.029851864  0.030019953            6 
 2141000    0.9108727   -6.4267793    767.33261  0.029866597  0.030011349            6 
 2142000   0.92218633   -6.4066718    772.40925  0.030050158   0.03000273            4 
 2143000   0.89989023   -6.3950282    770.62287  0.029966669  0.029994071           13 
 2144000   0.91928641   -6.4384132    768.01161  0.029851197  0.029985404            4 
 2145000   0.90313776   -6.4068863    772.80695   0.03002358    0.0299768            4 
 2146000   0.91872917   -6.4255848    768.55159  0.029844346  0.029968216            9 
 2147000   0.89933086   -6.4042828    769.98964  0.029886262  0.029959545            5 
 2148000   0.89255687   -6.4060115    770.36757   0.02988701  0.029951006            3 
 2149000   0.90671155   -6.4367129    771.41464  0.029913706  0.029942427            4 
 2150000   0.91456853   -6.4419375    770.00332   0.02984509  0.029933756            7 
 2151000   0.88137145   -6.4196275    769.81229  0.029823814  0.029925103           10 
 2152000   0.92328952   -6.4396485    768.74194  0.029768508  0.029916403            6 
 2153000   0.90258399    -6.452061    771.54204  0.029863061  0.029907688            3 
 2154000   0.90035945    -6.399476    772.73644  0.029895405   0.02989908           11 
 2155000   0.91502546   -6.4123752    772.81122  0.029884425  0.029890571            3 
 2156000   0.89917895   -6.3778522    775.67284  0.029981171  0.029882107            6 
 2157000   0.89812996   -6.4181103    770.45162  0.029765555  0.029873559            3 
 2158000   0.90822717   -6.4029261    773.42677   0.02986665  0.029864987            5 
 2159000   0.89662854   -6.4341341    772.46493  0.029815691  0.029856444            8 
 2160000   0.88730725   -6.4187285    772.71807  0.029811654  0.029847909            5 
 2161000     0.904317   -6.4386419    770.88523   0.02972718  0.029839254            5 
 2162000    0.9028762    -6.413018    774.38037  0.029848149  0.029830612            6 
 2163000   0.89378837   -6.4163386    773.13408  0.029786334  0.029821919            5 
 2164000   0.89904733   -6.4287458     772.2408   0.02973817  0.029813232            5 
 2165000   0.90398704   -6.4232955    773.15374  0.029759574  0.029804515            5 
 2166000   0.91817349   -6.4422484    772.15369  0.029707359  0.029795793            7 
 2167000   0.89691028   -6.4436183    772.12269  0.029692458  0.029787178            3 
 2168000   0.90611813    -6.412275    771.01397  0.029636146  0.029778544            5 
 2169000   0.89111421   -6.4492908     772.9073  0.029695225  0.029769817            7 
 2170000   0.89748053   -6.3792137    776.93836  0.029836342  0.029761194            3 
 2171000     0.898142   -6.4033416    776.13613  0.029791806    0.0297526            8 
 2172000   0.90432128   -6.4523658     770.9556  0.029579328  0.029743949            8 
 2173000   0.91354278   -6.4296502    772.62969  0.029629916  0.029735202            7 
 2174000   0.90839915   -6.4304824    773.88618   0.02966445  0.029726501            4 
 2175000   0.90228091   -6.4252362    774.30706  0.029666937  0.029717757            3 
 2176000   0.90349132   -6.4143563    772.84571  0.029597339  0.029709098            7 
 2177000    0.9165575    -6.438906    773.20438  0.029597473  0.029700486            4 
 2178000   0.88629639   -6.4642622     771.8955  0.029533804  0.029691773            6 
 2179000    0.8886743   -6.4499352    771.82821  0.029517677  0.029682943            2 
 2180000   0.90298063   -6.4357615    774.54186  0.029607869  0.029674158            6 
 2181000   0.90245145   -6.4497801    772.93047  0.029532725  0.029665413           10 
 2182000   0.90558129   -6.4523997    777.09213  0.029678129  0.029656622            9 
 2183000   0.91307466   -6.4639462    774.76486  0.029575693  0.029647867            5 
 2184000   0.92102285   -6.4545425    773.79139  0.029525007  0.029639085            9 
 2185000   0.91921504   -6.4219204    775.95386  0.029593969   0.02963039            4 
 2186000   0.92345407   -6.4103755    773.75806  0.029496724  0.029621624            4 
 2187000   0.90006227   -6.4393226     774.4573   0.02950988   0.02961292            9 
 2188000   0.92220235   -6.4525852    775.22872  0.029525774  0.029604134            7 
 2189000   0.89598548   -6.4533977    774.31852  0.029477635   0.02959544            3 
 2190000   0.89402563   -6.4211657    776.76855  0.029557403  0.029586759            7 
 2191000   0.90704381   -6.4250691    777.65072  0.029577465  0.029578109            9 
 2192000   0.90745946   -6.4262172    774.32699  0.029437614  0.029569498            4 
 2193000   0.88056494   -6.4077329    778.18895  0.029570944  0.029560872            4 
 2194000   0.90597974   -6.4574261    776.41157  0.029489956  0.029552224            6 
 2195000   0.89823992   -6.4834081    774.94538  0.029420857  0.029543413            7 
 2196000   0.89999441   -6.4869776    773.84214  0.029365594  0.029534581            5 
 2197000   0.90399258   -6.4390725    776.41081  0.029449659    0.0295258            6 
 2198000   0.88039357   -6.4556384    777.26142   0.02946851  0.029517096            3 
 2199000    0.9307152   -6.4476019    776.45236  0.029424449  0.029508414            4 
 2200000   0.90515407   -6.4021191    779.63834  0.029531755  0.029499817            9 
 2201000    0.8841651    -6.428915    779.39494  0.029509122    0.0294913            8 
 2202000    0.9103643   -6.4490541    775.58929  0.029351699  0.029482616            8 
 2203000   0.91188968   -6.4495548    776.89801  0.029387881   0.02947392           10 
 2204000   0.91533989   -6.4078727    779.88514   0.02948749  0.029465388            7 
 2205000   0.89328735   -6.4398887    776.65817  0.029352161   0.02945683            4 
 2206000   0.91938478   -6.4267262    778.50263  0.029408531  0.029448205            9 
 2207000    0.9101647   -6.3935148    781.08734  0.029492801  0.029439593           10 
 2208000   0.91450768   -6.4599894    778.14451  0.029368377  0.029430985            6 
 2209000   0.90818476   -6.4417533    778.64283  0.029373881  0.029422343            5 
 2210000   0.88838729   -6.4415925    777.79633   0.02932867  0.029413653            4 
 2211000   0.92561374   -6.4232942    777.31793  0.029297374  0.029405067            9 
 2212000     0.882371   -6.4375078    779.16788  0.029353823  0.029396453            4 
 2213000   0.88720754   -6.4581623    777.70539  0.029285487  0.029387905            2 
 2214000   0.90294416   -6.4522474     778.8323  0.029314675  0.029379312            6 
 2215000   0.87770048    -6.447639    777.97368  0.029269138  0.029370693            6 
 2216000   0.89628028   -6.4706667    779.42828   0.02931063  0.029362059            6 
 2217000   0.89154892    -6.445657    780.32545  0.029331133   0.02935349            6 
 2218000   0.89264446   -6.4834555    777.06176  0.029195287  0.029344868            8 
 2219000   0.89370327   -6.4455433    781.93772  0.029365244  0.029336241            7 
 2220000   0.89590047   -6.4549651    778.42739  0.029220247  0.029327745            5 
 2221000   0.90780573   -6.4734438    780.50844  0.029285173  0.029319126            7 
 2222000   0.88391253   -6.4677991    781.34178  0.029303247  0.029310635           11 
 2223000   0.90187169   -6.4631754    778.97423  0.029201313   0.02930205            3 
 2224000   0.90504652   -6.4239094    780.68681  0.029252354  0.029293512            7 
 2225000   0.90299455   -6.4266654    781.56858  0.029272231  0.029284997            7 
 2226000   0.88275798   -6.4582096    780.81251  0.029230777  0.029276423            9 
 2227000   0.89997721   -6.4334259    780.43243  0.029203429  0.029267762            3 
 2228000   0.89307558   -6.4374806    782.24196  0.029258003  0.029259305            9 
 2229000   0.87155074   -6.4528852    781.99363  0.029235592  0.029250672            9 
 2230000   0.90697348   -6.4650178    781.54576  0.029205746  0.029242102            4 
 2231000   0.91057584   -6.4647551    782.29248  0.029220547  0.029233522            4 
 2232000    0.9000368   -6.4645407    784.01121  0.029271625  0.029224959            5 
 2233000   0.87753186   -6.4682565     782.5053  0.029202318  0.029216438            5 
 2234000   0.88246571   -6.4406497    784.36225  0.029258514  0.029207893            5 
 2235000   0.90546657   -6.4435095    783.96272  0.029230526  0.029199465            6 
 2236000   0.88760839   -6.4320808    782.38534  0.029158667  0.029190993            6 
 2237000   0.89750625   -6.4852691    783.44297  0.029185031  0.029182464           11 
 2238000   0.90829214   -6.4297928     783.9647  0.029191417  0.029173929            5 
 2239000    0.9199511   -6.4581967    782.04816  0.029107048  0.029165436            5 
 2240000   0.88723381   -6.4697203     782.2471  0.029101455  0.029156859           11 
 2241000   0.90810143   -6.4358614    785.59832  0.029213086  0.029148394            4 
 2242000   0.90722106   -6.4445009    783.58548  0.029125241  0.029139974            6 
 2243000   0.89255709   -6.4841576    783.27151  0.029100591   0.02913156            9 
 2244000   0.89509457    -6.488763    783.93557  0.029112283  0.029123103            7 
 2245000   0.92719363   -6.4716707    786.48074  0.029193792  0.029114625            4 
 2246000   0.89087138    -6.475475    784.17145  0.029095112  0.029106125            5 
 2247000   0.88296919   -6.4451478     785.5015   0.02913149  0.029097645            4 
 2248000   0.89020137   -6.4508798    783.45653  0.029042724  0.029089193            3 
 2249000    0.8737277   -6.4656083    784.22487   0.02905828  0.029080694            7 
 2250000   0.88168557    -6.427759    786.18841  0.029118089   0.02907216            7 
 2251000   0.89765315   -6.4238881    785.24385  0.029070186   0.02906381            3 
 2252000   0.88426765   -6.4470312    785.77385  0.029076889  0.029055353            5 
 2253000   0.88267577   -6.4753612    785.80361  0.029065084  0.029046857            6 
 2254000   0.88111764   -6.4809247    783.68328  0.028973798  0.029038362            5 
 2255000   0.91396219   -6.4548233    784.53915  0.028992578  0.029029967            9 
 2256000   0.91347138   -6.4587993    784.80545  0.028989563  0.029021473            6 
 2257000   0.88110812   -6.4613508    786.40685  0.029035846   0.02901307           11 
 2258000   0.90571755   -6.4689485    786.17094   0.02901428  0.029004596            4 
 2259000   0.89692495   -6.4689181    785.86983  0.028990329  0.028996021            5 
 2260000   0.90474174    -6.485784    783.07852  0.028874577  0.028987487            5 
 2261000   0.88614119   -6.4873842    784.86759  0.028927746  0.028978959            6 
 2262000   0.89925721    -6.461244    783.22227  0.028854342  0.028970389            4 
 2263000   0.90233176   -6.4939796    784.75139  0.028897901  0.028961825            6 
 2264000   0.88790212   -6.4786696    787.45921  0.028984806  0.028953381            3 
 2265000   0.88210653    -6.472759     785.4735  0.028898952  0.028944949            9 
 2266000   0.88959871   -6.4524903    787.81281  0.028972227  0.028936515            3 
 2267000   0.87522921   -6.4650221    788.53705   0.02898607  0.028928084            5 
 2268000   0.87301215    -6.480472     786.6281  0.028903149  0.028919708            6 
 2269000   0.88682352   -6.4394768    789.37178  0.028991177  0.028911312            7 
 2270000   0.88042361   -6.4760207    788.78046  0.028956698  0.028902881            3 
 2271000   0.89856144   -6.4546389    790.27249  0.028998697  0.028894531            2 
 2272000    0.8816184   -6.4608023    787.33391  0.028878151  0.028886138            3 
 2273000    0.8840638   -6.4614163    791.13927  0.029004959  0.028877814            2 
 2274000   0.88772533   -6.4629494     789.4067  0.028928712  0.028869407            4 
 2275000   0.89124527    -6.471099    790.59228  0.028959424   0.02886111            7 
 2276000    0.8889652   -6.4676735    791.50137  0.028979986    0.0288528            4 
 2277000   0.89030698   -6.5071628    788.16921  0.028845309  0.028844434            4 
 2278000   0.89114561   -6.4491183    791.82463  0.028966368  0.028836174            7 
 2279000   0.91004308   -6.4871726    789.94063  0.028884768  0.028827776            7 
 2280000   0.88780903   -6.4489167    790.25797  0.028883698  0.028819447            3 
 2281000   0.87573541   -6.4839893    789.80559  0.028854508  0.028811048            8 
 2282000   0.88474987   -6.4711197    792.60752  0.028944183  0.028802708           13 
 2283000   0.87401285    -6.473933    791.51782  0.028891729  0.028794407            5 
 2284000   0.87655721   -6.5051731    789.70468  0.028812926  0.028786093            7 
 2285000    0.8936169   -6.4849775    790.57176  0.028831939  0.028777782            4 
 2286000   0.89407076    -6.477485    791.24319  0.028843802  0.028769507            4 
 2287000   0.90719035   -6.4714944    791.07368  0.028825014  0.028761297            7 
 2288000   0.86969526   -6.4771086    792.89234  0.028878655  0.028753061            9 
 2289000   0.88176082   -6.4581143    792.16634  0.028839608  0.028744822            4 
 2290000   0.87402831   -6.4700177    792.92065  0.028854463  0.028736551            4 
 2291000   0.89190145   -6.4643238    791.41295  0.028787027  0.028728301            6 
 2292000   0.87771226   -6.4699298    793.05875  0.028834306  0.028720017           11 
 2293000   0.88600366    -6.483645    792.79531  0.028812157  0.028711845            3 
 2294000   0.92035527   -6.4678663    793.32479  0.028818831  0.028703572            4 
 2295000   0.85763762   -6.4479593    792.22959  0.028766506  0.028695303            7 
 2296000   0.88377662   -6.4817914    791.58064  0.028730424   0.02868715           12 
 2297000   0.89084811   -6.4596474    793.14132  0.028774536  0.028678942            6 
 2298000   0.89130729   -6.4766391    793.73602  0.028783581  0.028670728            7 
 2299000   0.89180352   -6.4802318    793.89865  0.028776956  0.028662543            5 
 2300000   0.87342392   -6.4474898    793.82566  0.028761799  0.028654317            5 
 2301000   0.88418351   -6.4349546    796.95772  0.028862731  0.028646207            3 
 2302000   0.88456062   -6.4829598    793.93083  0.028740618  0.028638028            3 
 2303000   0.90490439    -6.470818    795.96567  0.028801768  0.028629751           11 
 2304000   0.87776048   -6.4634245    794.67004  0.028742406  0.028621535            3 
 2305000   0.87604608   -6.4489696    795.13677   0.02874681  0.028613326            5 
 2306000    0.8780628    -6.520417    794.86647  0.028724576  0.028605164           23 
 2307000   0.86928964   -6.5251544    793.00009  0.028644708  0.028596882            6 
 2308000   0.89564308   -6.4775415    792.99229  0.028632015  0.028588626            3 
 2309000   0.88618388   -6.5094844    793.74172  0.028646662  0.028580364            3 
 2310000    0.8768291   -6.5096507    794.75126   0.02867068  0.028572086            6 
 2311000   0.86709641   -6.5122811     791.8484  0.028553599   0.02856376           10 
 2312000   0.87160915    -6.483992     794.3092  0.028629945  0.028555458           13 
 2313000   0.88319245   -6.4996398     796.4141  0.028693403  0.028547159            5 
 2314000   0.88147613   -6.4806667    794.24969  0.028603057  0.028538887            4 
 2315000   0.88563309   -6.4757058    795.26492  0.028627247  0.028530747            6 
 2316000   0.90187318   -6.4772712    796.24359    0.0286501  0.028522563           13 
 2317000   0.88607871   -6.5205934    794.59942  0.028578601  0.028514245            3 
 2318000   0.87798139   -6.5268106    794.16603  0.028550691  0.028505797            2 
 2319000   0.88188195   -6.4842645    794.39408  0.028546575  0.028497533            3 
 2320000   0.89067003   -6.5048241    795.30741  0.028567077  0.028489246           13 
 2321000   0.90477834   -6.4740938      794.354  0.028520537  0.028480993            8 
 2322000   0.87922029   -6.5055017    796.07964  0.028570185  0.028472702            3 
 2323000   0.87571722   -6.4803104     796.9624  0.028589554  0.028464414            6 
 2324000    0.8857002   -6.4938903    796.97477  0.028577695  0.028456212            4 
 2325000   0.86467043   -6.5226091    795.83946  0.028524712  0.028447972            3 
 2326000   0.88706706   -6.4746008    798.50803  0.028608055   0.02843981            4 
 2327000   0.89254623    -6.500231    798.60755  0.028599325  0.028431689            7 
 2328000   0.86131452   -6.4836101    797.44655  0.028545481  0.028423484            8 
 2329000   0.89538764   -6.5168183     798.5389  0.028572309  0.028415417           11 
 2330000   0.88067327   -6.4831281    799.13081  0.028581216  0.028407275            8 
 2331000   0.89368229   -6.4933979    797.33181  0.028504641  0.028399097            8 
 2332000   0.86033227   -6.5039849    798.06871   0.02851875   0.02839082            6 
 2333000    0.8701968   -6.5202977    796.14621  0.028437856  0.028382543            6 
 2334000   0.86536345   -6.5140455    797.47526  0.028473124  0.028374299            4 
 2335000   0.88248953   -6.5097394    797.85057  0.028474324  0.028366074            5 
 2336000   0.88459696   -6.5095991    795.96313  0.028394803  0.028357902           11 
 2337000   0.88148579   -6.5060883    797.77324  0.028447199  0.028349819            6 
 2338000   0.89137004   -6.4689801    800.02321  0.028515227  0.028341683            4 
 2339000   0.88107579   -6.5068739    798.31916  0.028442324  0.028333548            6 
 2340000    0.8906433   -6.5369811    799.32016  0.028465818  0.028325338            5 
 2341000   0.88584913   -6.4734069    797.65153  0.028394259  0.028317227           15 
 2342000   0.87394893   -6.5093903    798.78016  0.028422294  0.028309053            4 
 2343000   0.86156942   -6.4973016    797.82895  0.028376332  0.028300908            3 
 2344000   0.87959128   -6.5161754    799.09545  0.028409252   0.02829278            7 
 2345000   0.86579528   -6.4996311    799.52618  0.028412444  0.028284585            4 
 2346000   0.88657308    -6.535305    795.75041  0.028266212  0.028276379           10 
 2347000   0.89174644   -6.5312861    797.50861  0.028316596    0.0282681            9 
 2348000   0.86443979   -6.5456691     796.6037   0.02827242   0.02825977            9 
 2349000   0.88549539   -6.5397291    797.82956  0.028303873  0.028251415            7 
 2350000   0.86634156     -6.51542    798.33094  0.028309608  0.028243127            4 
 2351000   0.88800667   -6.5321294    798.09198  0.028289096   0.02823484            7 
 2352000   0.87824363   -6.4995608    798.78043  0.028301461  0.028226728            5 
 2353000   0.89321041   -6.5258264    799.93641  0.028330373  0.028218604            5 
 2354000   0.88671163    -6.483426    802.65779  0.028414677  0.028210472            9 
 2355000   0.87226713   -6.5400129    800.51271  0.028326706  0.028202337            4 
 2356000   0.87788198   -6.5062581    800.51651  0.028314817  0.028194082            9 
 2357000   0.86719989   -6.5053264    800.17828  0.028290846  0.028185911            6 
 2358000   0.88768339   -6.5266541    801.07684  0.028310604  0.028177759            6 
 2359000   0.87464477   -6.5390278    797.92866  0.028187391  0.028169544            7 
 2360000   0.85865742   -6.4984943    800.35233  0.028261029  0.028161323            4 
 2361000   0.86099679   -6.4916378    799.62005  0.028223212  0.028153093            8 
 2362000   0.87156813   -6.4958685    801.66034  0.028283247  0.028144858            4 
 2363000    0.8781057   -6.5146259    799.29872  0.028187993  0.028136622            8 
 2364000   0.86745516   -6.5164984     797.5526  0.028114516  0.028128312            7 
 2365000   0.88063054   -6.5088892    800.09129  0.028192082  0.028119954           11 
 2366000   0.87084439   -6.5163272    797.69941  0.028095922  0.028111624            5 
 2367000    0.8808025   -6.4987263    799.01744  0.028130455  0.028103268            3 
 2368000   0.88152296   -6.5251785    796.90113  0.028044099  0.028094889            7 
 2369000   0.87145649   -6.5234571    798.64848  0.028093727  0.028086537            9 
 2370000   0.88100928   -6.5217701    800.09985  0.028132906   0.02807809            4 
 2371000   0.87822683   -6.5200779    798.19197  0.028053984  0.028069694            6 
 2372000   0.86741644    -6.517254    799.08294  0.028073459  0.028061367            5 
 2373000   0.88899927   -6.5333723    798.81887  0.028052355  0.028052923            6 
 2374000   0.85840161   -6.5253281    798.79059  0.028039546  0.028044528           14 
 2375000     0.867513   -6.5239537    802.12037  0.028144574  0.028036175            3 
 2376000   0.85672942   -6.4902007    798.93889  0.028021145  0.028027864           12 
 2377000   0.88398322   -6.5236946    798.62324  0.027998291   0.02801945            9 
 2378000   0.87005303    -6.493782    802.71477  0.028129898  0.028011119            6 
 2379000   0.86629562   -6.5180635    803.38079  0.028141404  0.028002763            8 
 2380000   0.87463264   -6.5242542     800.9306  0.028043788  0.027994484            4 
 2381000   0.85792238   -6.5655472    799.83656   0.02799372  0.027986137            7 
 2382000   0.85450389   -6.5276426    800.13628  0.027992453  0.027977711            5 
 2383000   0.89462942   -6.5241692    800.63767   0.02799824  0.027969294            4 
 2384000   0.89486919   -6.5467945    799.97235  0.027963239  0.027960868            6 
 2385000   0.84942099   -6.4978008    803.90591  0.028088955   0.02795261            9 
 2386000   0.86826426   -6.5192745    802.33842  0.028022437  0.027944344           13 
 2387000   0.87876885   -6.4937069    801.15385  0.027969343  0.027935988            5 
 2388000   0.87230724   -6.4993632    802.22844   0.02799513  0.027927699            6 
 2389000   0.87881591    -6.516785     800.4415  0.027921079  0.027919325            9 
 2390000   0.84938615   -6.5344306    799.72173    0.0278843  0.027910952            9 
 2391000   0.86412599   -6.5127573    802.31209   0.02796292    0.0279026            4 
 2392000   0.86705124   -6.5307833    802.44997  0.027956033  0.027894276           15 
 2393000   0.85384762   -6.5295042    803.88542  0.027994338  0.027885961            5 
 2394000    0.8564698   -6.4968332    803.98211   0.02798601  0.027877666            4 
 2395000   0.86103074    -6.530337    801.48419  0.027887411  0.027869387            5 
 2396000   0.87783616   -6.5190291    802.19237  0.027900402  0.027861038           10 
 2397000   0.86064237   -6.5222844    804.18368  0.027957992  0.027852769            5 
 2398000    0.8521364   -6.5127692     804.1415  0.027944867  0.027844515            6 
 2399000   0.85211856   -6.5224411    802.84771  0.027888277  0.027836155            7 
 2400000   0.86321546   -6.5124578    802.88687  0.027878016  0.027827808            4 
 2401000   0.87400631   -6.5492102    803.57849   0.02789041  0.027819432            7 
 2402000   0.88444799   -6.5391373    802.66631  0.027847152  0.027811189            7 
 2403000   0.87148805   -6.5385057    802.57928  0.027832545  0.027802873            5 
 2404000   0.86449644   -6.5106647    806.88081  0.027970078  0.027794612            7 
 2405000   0.86708578   -6.5140488    804.08151  0.027861452  0.027786399            7 
 2406000   0.85988355   -6.5422887    803.83393  0.027841297  0.027778217            7 
 2407000   0.84702917   -6.5572163    804.28477  0.027845339  0.027769993            5 
 2408000   0.87440077   -6.5486036    806.27282  0.027902575  0.027761774            5 
 2409000   0.85983512   -6.5333934     804.1949  0.027819112   0.02775354            4 
 2410000   0.86233926   -6.5240308    805.93942  0.027867891  0.027745304            6 
 2411000   0.85222417   -6.5464417    806.28834  0.027868393  0.027737062            6 
 2412000   0.86085657   -6.5474551    804.55079  0.027796807   0.02772884           10 
 2413000   0.87771036   -6.5442573    807.18888  0.027876394   0.02772063            6 
 2414000   0.85915835   -6.5234978    806.24258   0.02783218  0.027712426           17 
 2415000   0.86661445   -6.5430457    806.27757  0.027821862  0.027704318           10 
 2416000   0.84268279   -6.5413483    806.79541  0.027828208  0.027696182            5 
 2417000   0.87180567   -6.5388806    808.77183  0.027884838  0.027688084            8 
 2418000   0.85391098   -6.5211578    808.54134  0.027865362  0.027679964            8 
 2419000   0.86651065   -6.5571907    805.49115  0.027748765  0.027671859            4 
 2420000   0.85022443   -6.5397093    807.33461  0.027800779  0.027663766            8 
 2421000   0.87295557   -6.5603555    807.44163  0.027792979  0.027655646            8 
 2422000   0.85438362   -6.5158936    808.86821  0.027830588  0.027647528            6 
 2423000   0.86045159   -6.5045993    809.01723  0.027824227   0.02763938            6 
 2424000   0.86985361   -6.5530665    807.56439  0.027762802  0.027631246            6 
 2425000   0.83791864   -6.5474405    805.30019  0.027673546   0.02762308           18 
 2426000   0.85741586    -6.583404    804.75651  0.027643463  0.027614833            7 
 2427000   0.87653724   -6.5450832    806.69651  0.027698685  0.027606612            4 
 2428000   0.86380798   -6.5681204     806.5688  0.027682894  0.027598364            5 
 2429000    0.8621179   -6.5558927    804.87137  0.027613262  0.027590126            4 
 2430000   0.83861136   -6.5349004    806.93288  0.027672595  0.027581884            2 
 2431000   0.86686242   -6.5288715    807.80303   0.02769104  0.027573693            7 
 2432000   0.85081533   -6.5376243    806.47836  0.027634264  0.027565534           11 
 2433000   0.87997354   -6.5652052    806.85937  0.027635956  0.027557289            3 
 2434000   0.86230201   -6.5316397    805.95666  0.027593696  0.027549064            5 
 2435000   0.85038993   -6.5509163    806.83715  0.027612497  0.027540807            7 
 2436000   0.87190536   -6.5371678    807.76248  0.027632816  0.027532543            9 
 2437000   0.86717517   -6.5552345    806.80692  0.027588802  0.027524317            8 
 2438000   0.87605416   -6.5606989    807.21713  0.027591507  0.027515978            5 
 2439000     0.867192   -6.6133531     804.3875  0.027483514  0.027507623            9 
 2440000   0.87283019   -6.5557478    806.58023  0.027547139  0.027499322            8 
 2441000   0.85721388   -6.5070136    809.67955  0.027641662  0.027491111            5 
 2442000   0.85520398   -6.5240461    807.48628  0.027555497  0.027482908            5 
 2443000   0.86015942   -6.5674269    807.66639  0.027550361  0.027474735           11 
 2444000   0.84201622   -6.5579872    808.02937  0.027551465  0.027466548            8 
 2445000     0.862975   -6.5436963    808.26771   0.02754832   0.02745833           10 
 2446000   0.86121255    -6.539617    809.86266  0.027591396  0.027450131            8 
 2447000   0.85328383   -6.5866533    807.68601  0.027505994  0.027441913            6 
 2448000   0.85766231   -6.5801058    807.04931  0.027473084  0.027433616            8 
 2449000   0.85227161   -6.5715248     807.9265  0.027491714  0.027425267            6 
 2450000   0.87042352   -6.5503352    808.79516   0.02751004  0.027416998            5 
 2451000   0.86897226   -6.5131999    810.74586  0.027565139  0.027408772            8 
 2452000   0.85745364    -6.537996    810.69982  0.027552332  0.027400598            4 
 2453000   0.85239153   -6.5434851    809.38815   0.02749654  0.027392381            7 
 2454000   0.85534281   -6.5699294    811.43887  0.027554974  0.027384135            8 
 2455000    0.8749086    -6.597291    808.03303  0.027428141  0.027375837            2 
 2456000   0.83383285   -6.5645447    812.39534  0.027564988  0.027367572            8 
 2457000   0.88291426   -6.5476686    810.21525  0.027479828  0.027359329            6 
 2458000   0.85537798   -6.5408286    811.41401   0.02750929  0.027351108            5 
 2459000   0.86034233   -6.5597724    810.78864  0.027476909  0.027342811            6 
 2460000    0.8494567   -6.5679478    810.76578  0.027464966  0.027334591            8 
 2461000   0.86630471   -6.5809098    810.08063  0.027430605  0.027326379            6 
 2462000   0.81725659   -6.5339853     810.9078  0.027447461  0.027318214            6 
 2463000   0.86896008   -6.5527482    810.26025  0.027414408  0.027309992            5 
 2464000   0.90130858   -6.5665568    810.38554   0.02740752  0.027301798            5 
 2465000   0.85246372   -6.5453921    810.29966  0.027393498  0.027293592            7 
 2466000   0.84796969   -6.5503157    810.45181  0.027387531  0.027285385            5 
 2467000   0.84547442   -6.5259007    812.30107  0.027438896  0.027277259            6 
 2468000   0.84259334   -6.5559326    811.04621  0.027385407  0.027269079           10 
 2469000   0.85623824   -6.5462126    813.77204  0.027466317  0.027260865            7 
 2470000   0.85395636   -6.5426076    810.76791  0.027353843  0.027252627           25 
 2471000   0.86042321   -6.5356158    810.48751  0.027333317  0.027244456            5 
 2472000   0.87177415    -6.543279    812.80802  0.027400486  0.027236321           11 
 2473000   0.84120945    -6.548181    811.74348  0.027353534  0.027228147            7 
 2474000   0.85805827   -6.5134429    812.52994  0.027368968  0.027219999           12 
 2475000   0.86237531   -6.5519552     813.6186  0.027394566  0.027211936            4 
 2476000   0.86821263   -6.5564594    812.48565  0.027345371  0.027203805            4 
 2477000   0.83048462   -6.5656475    812.73667  0.027342776  0.027195605            7 
 2478000   0.85758037   -6.5603637    811.57811   0.02729278  0.027187399            5 
 2479000   0.86729769    -6.569464     813.1245  0.027333754  0.027179189            7 
 2480000   0.84950373   -6.5398993    813.15295  0.027323688  0.027171023            7 
 2481000   0.86345304   -6.5755026    812.22631   0.02728155  0.027162864            7 
 2482000   0.86559501   -6.5508837      812.059  0.027264941   0.02715476            5 
 2483000    0.8528205   -6.5657665     812.1356  0.027256531  0.027146579            6 
 2484000    0.8593327   -6.5541437    815.02072  0.027342348   0.02713844            9 
 2485000   0.84545352   -6.5676676    811.55119  0.027214996  0.027130309            6 
 2486000   0.85154042    -6.553371    814.54482  0.027304398  0.027122113            6 
 2487000   0.85543505   -6.5565757    812.84926  0.027236606  0.027113933            7 
 2488000   0.85976488   -6.5840857    811.52112  0.027181174  0.027105768            7 
 2489000   0.86004188   -6.5531583    811.92388  0.027183738   0.02709756            7 
 2490000   0.84743035   -6.5668763    813.63572  0.027230111  0.027089414            6 
 2491000   0.85290509   -6.5715326    812.41335  0.027178287   0.02708118           15 
 2492000   0.86946328   -6.5754626    812.76065  0.027178994  0.027073063           12 
 2493000   0.86665867   -6.5703308    813.55004  0.027194479  0.027064914            8 
 2494000   0.87208811   -6.5518858    814.75831  0.027223948   0.02705675           29 
 2495000   0.84819535   -6.5517513     813.1129   0.02715808  0.027048587            4 
 2496000   0.84424215   -6.5503201    814.53718  0.027194751  0.027040505            9 
 2497000    0.8398124   -6.5445049    815.68387  0.027222129  0.027032443            7 
 2498000   0.86398769   -6.5684513    813.34713  0.027133278  0.027024343            9 
 2499000   0.84580084   -6.5666688    814.36243  0.027156277  0.027016165            8 
 2500000   0.85390884   -6.5752447    813.36985  0.027112328  0.027007946           10 
 2501000   0.84421585   -6.5909085    814.44602  0.027137346   0.02699974            5 
 2502000   0.84212405   -6.5560048    813.43812   0.02709293  0.026991543            5 
 2503000   0.84291256   -6.5860111    815.02927   0.02713508  0.026983383            9 
 2504000   0.82957633   -6.5371204    817.40471  0.027203298  0.026975268            9 
 2505000   0.85012771   -6.5335016    816.79714  0.027172227  0.026967266            3 
 2506000   0.84941779   -6.6068327    816.19533  0.027141372  0.026959211           10 
 2507000   0.83702405   -6.5711436    816.02104  0.027124752  0.026951161            4 
 2508000   0.83897158    -6.525171    816.35533  0.027125044  0.026943201            5 
 2509000   0.87072922   -6.5372094    816.47209  0.027118111  0.026935253            5 
 2510000   0.85772844   -6.5800219    813.55996  0.027010623  0.026927216            6 
 2511000   0.85590913   -6.5401465     818.2161  0.027154391  0.026919247            6 
 2512000   0.84110338   -6.5726376    818.23862  0.027144328  0.026911212           12 
 2513000   0.85033022   -6.5832841     816.7731  0.027084928  0.026903123            6 
 2514000   0.84742353   -6.5949924    814.49813  0.026998745  0.026894972            6 
 2515000   0.86997743   -6.5624843    814.42489  0.026985583  0.026886901            3 
 2516000   0.85676435   -6.5546554    813.00788  0.026927924  0.026878781            3 
 2517000   0.84940152   -6.5506815    817.37143  0.027061695  0.026870641            7 
 2518000   0.85879624   -6.5691101    816.38747  0.027018383   0.02686251            5 
 2519000   0.83631176   -6.5481708    815.74566  0.026986425  0.026854428           16 
 2520000    0.8442448     -6.59255    815.06834  0.026953318  0.026846348           13 
 2521000   0.84874986   -6.5953591    814.19691  0.026913821  0.026838231           10 
 2522000   0.86333264   -6.6123092    815.96444  0.026961553  0.026830086            7 
 2523000   0.83546861   -6.6232984    814.25266  0.026894328  0.026821926            6 
 2524000   0.85009999   -6.6021533    816.56067  0.026959874  0.026813831           12 
 2525000   0.83787718    -6.584234    816.87949  0.026959719  0.026805735           10 
 2526000   0.84280176   -6.5853425    814.11729  0.026857921  0.026797537            6 
 2527000   0.84964288   -6.5944272    816.82061   0.02693644  0.026789428           17 
 2528000   0.84480608   -6.5688796    816.89765  0.026928324   0.02678129            6 
 2529000   0.83902233   -6.5635761    817.58702  0.026940392  0.026773194            5 
 2530000   0.84680211   -6.5816977    817.89455  0.026939873  0.026765111            8 
 2531000   0.86884773   -6.5787021    818.21344  0.026939729  0.026756968            8 
 2532000   0.85512688   -6.5929486    815.42176  0.026837209  0.026748835            6 
 2533000     0.850489    -6.593545    814.08835  0.026782746  0.026740776           14 
 2534000   0.84459215   -6.5514798    819.79658  0.026959898  0.026732677            4 
 2535000   0.84967401   -6.5999663    816.30303  0.026834419  0.026724565            3 
 2536000   0.86000326   -6.5753313    817.44728  0.026861438   0.02671641           10 
 2537000    0.8353059   -6.5873623    816.84134  0.026830947  0.026708292            6 
 2538000    0.8509595   -6.5821203    816.42303   0.02680664  0.026700138            7 
 2539000   0.84940696   -6.5619026    817.18401  0.026821058  0.026692087            7 
 2540000   0.84958866   -6.6083192    814.96651  0.026737746  0.026684022            8 
 2541000   0.85198737   -6.5550809    819.52628  0.026876764  0.026675931            8 
 2542000   0.83289377   -6.5533679    818.87167  0.026844731   0.02666788           14 
 2543000   0.83479664   -6.5787571     819.5039  0.026854892  0.026659781           11 
 2544000   0.85035213   -6.5921774    817.03113  0.026763336  0.026651679            4 
 2545000   0.82807441    -6.574323    818.36484  0.026796491  0.026643568           12 
 2546000   0.83836598   -6.5891598    817.73978  0.026765507  0.026635377            8 
 2547000    0.8665113   -6.5801717    816.67377  0.026720121   0.02662724            2 
 2548000    0.8436008   -6.5593106    818.28231  0.026762242  0.026619046            4 
 2549000   0.84951363   -6.5918689    818.18256  0.026748482   0.02661094            4 
 2550000   0.82846043   -6.5807371    818.59379  0.026751431  0.026602796            7 
 2551000   0.82740747   -6.6121433    818.71659  0.026744956  0.026594639            5 
 2552000   0.84598135   -6.5785033    820.43431  0.026790566  0.026586557            6 
 2553000   0.84351764   -6.5814355    817.66553  0.026689696   0.02657845            6 
 2554000   0.85810974   -6.6088865     819.2322  0.026730364  0.026570319            5 
 2555000    0.8410963   -6.5821934    818.62693  0.026700161  0.026562241            3 
 2556000   0.84412834   -6.6187814    816.24753  0.026612139  0.026554125           14 
 2557000   0.84206587   -6.6007812    817.44209  0.026640663  0.026545947            5 
 2558000   0.84637188   -6.6086761    817.89814  0.026645105    0.0265377           11 
 2559000    0.8354952   -6.6170229    819.97855  0.026702441  0.026529524            4 
 2560000    0.8453805   -6.5719568    817.98481   0.02662711  0.026521333            9 
 2561000   0.83384212   -6.6220982    816.42332  0.026565903  0.026513134            5 
 2562000   0.83689393   -6.5941877     817.8518  0.026601997  0.026505002            7 
 2563000   0.86303951   -6.6314184    817.48803   0.02657979  0.026496837            4 
 2564000   0.84462445   -6.5896872     821.7914  0.026709289  0.026488692           10 
 2565000    0.8433074   -6.5884745    819.96222  0.026639448  0.026480535            6 
 2566000   0.83242651     -6.58909    819.31628  0.026608089  0.026472376            9 
 2567000   0.85064719   -6.6057388    821.03713  0.026653588  0.026464215            8 
 2568000   0.81824861   -6.5934391    819.07379  0.026579497   0.02645614           16 
 2569000   0.84569525   -6.6026448    817.62802  0.026522253  0.026448043            5 
 2570000    0.8300288   -6.5630372    824.11962  0.026722426  0.026439995            5 
 2571000   0.84089988   -6.5946639    820.96625  0.026609823  0.026431912            6 
 2572000   0.82856762   -6.6117407    821.99055  0.026632664  0.026423843            4 
 2573000    0.8370968   -6.5755569    821.72889  0.026613839  0.026415779           15 
 2574000   0.83778967   -6.6047315    821.03369  0.026580992  0.026407812           17 
 2575000   0.83389273   -6.5682653    824.22413   0.02667392  0.026399833           10 
 2576000   0.82952233   -6.6129193    820.98028  0.026558627  0.026391821            6 
 2577000   0.83958309   -6.5882863    823.73624  0.026637442  0.026383865            6 
 2578000   0.85273637   -6.5740246    823.35389   0.02661475  0.026375911            8 
 2579000   0.84389964   -6.5914567      822.141  0.026565238  0.026368003           12 
 2580000   0.83065729   -6.6076902    821.10482  0.026521474  0.026360038            8 
 2581000   0.85203506    -6.617863     821.0347  0.026508934  0.026352087            5 
 2582000   0.82601706    -6.616451    822.86693  0.026557802  0.026344116           12 
 2583000   0.86032018   -6.6325807    822.58294  0.026538358  0.026336174            3 
 2584000   0.83579024   -6.6018903    824.25206  0.026581916  0.026328271            8 
 2585000   0.84765113   -6.6195726    823.74681  0.026555345  0.026320433            6 
 2586000   0.83280296   -6.5786563    823.54413  0.026538545  0.026312555            4 
 2587000   0.82356426   -6.6027973    823.83238  0.026537572  0.026304655           14 
 2588000   0.82340501    -6.597554    821.96611  0.026467224  0.026296675            6 
 2589000   0.83179129   -6.6252503    824.23054  0.026529887  0.026288685            5 
 2590000   0.85162943   -6.5945284    821.79291  0.026441213  0.026280731            5 
 2591000   0.83169357   -6.6004579    824.95531  0.026532719  0.026272778           15 
 2592000   0.84642086   -6.6193082    823.32514  0.026470073  0.026264845            5 
 2593000   0.82910821   -6.6278757    821.19767  0.026391492  0.026256874           15 
 2594000   0.82714736   -6.5770317    826.18807  0.026541637  0.026248946            9 
 2595000   0.84501251   -6.5688873    825.78691  0.026518526  0.026241034            5 
 2596000   0.82697042   -6.6126276    824.25233   0.02645905   0.02623314           13 
 2597000   0.81819185   -6.6345001    822.69012  0.026398733  0.026225231           16 
 2598000   0.82301164   -6.6355399    824.56416  0.026448684  0.026217272           17 
 2599000   0.83430955   -6.5739846    826.80646  0.026510403  0.026209356           14 
 2600000   0.83408049   -6.6180987     824.1235  0.026414215  0.026201482            4 
 2601000   0.82449483   -6.6402131    825.74561   0.02645603  0.026193575           22 
 2602000   0.84171104   -6.6357559    823.85464  0.026385301  0.026185648            6 
 2603000    0.8310546   -6.6211555    826.22041  0.026450903  0.026177742            3 
 2604000   0.85027797   -6.5993134    828.89145  0.026526224  0.026169895            5 
 2605000   0.83444208   -6.6074064    828.31686   0.02649766  0.026162063            5 
 2606000    0.8104258   -6.6234037    825.36953  0.026393244  0.026154244            5 
 2607000   0.82930823   -6.6175709    826.96059  0.026433979  0.026146395            5 
 2608000   0.83798127   -6.6283183     826.0313   0.02639415  0.026138519            7 
 2609000   0.82867785   -6.6056075    825.99373  0.026382833  0.026130595            5 
 2610000    0.8218188   -6.6226402    828.17644  0.026442415  0.026122761           10 
 2611000   0.83603872   -6.6114765    824.69145   0.02632106  0.026114954            4 
 2612000   0.82057827   -6.5898482    826.98709  0.026384223   0.02610707            7 
 2613000   0.83352278   -6.6187442    826.98424  0.026374035  0.026099171           12 
 2614000   0.82118182   -6.6059289    825.10045  0.026303891  0.026091187           11 
 2615000   0.80429744   -6.6601997    825.34556  0.026301643   0.02608322            8 
 2616000    0.8299394   -6.5988885    824.74693   0.02627252  0.026075249           10 
 2617000   0.84392619     -6.63722    823.20948  0.026213523  0.026067335           17 
 2618000   0.82313661    -6.576913    828.75007  0.026379872  0.026059454            6 
 2619000   0.83135901   -6.6019675     826.5111  0.026298559  0.026051556            5 
 2620000   0.83774831    -6.601637    827.59926  0.026323132  0.026043756           10 
 2621000   0.83039814   -6.5999413    827.05645   0.02629583  0.026035914            6 
 2622000   0.84284874   -6.6051558    825.86452  0.026247919  0.026028033            5 
 2623000     0.834939   -6.6044328    827.39108  0.026286411  0.026020124            8 
 2624000   0.83984779   -6.5951647     826.8947   0.02626063  0.026012191           11 
 2625000   0.81819462   -6.6136109    827.11521  0.026257626  0.026004296            5 
 2626000   0.86696135   -6.6157257    825.25178  0.026188493  0.025996386           10 
 2627000   0.81933966   -6.6108298     823.8708  0.026134716   0.02598846            6 
 2628000   0.84006914   -6.6153865    827.10836  0.026227434  0.025980491            6 
 2629000   0.82672989   -6.6367301    825.82574  0.026176802  0.025972566           11 
 2630000   0.84882513   -6.6280948    824.02469  0.026109781  0.025964615            4 
 2631000   0.83707947    -6.599397    824.42201  0.026112442  0.025956629           11 
 2632000   0.83365328   -6.6739587    825.97822  0.026151793  0.025948596           10 
 2633000   0.81786045    -6.613039      826.385  0.026154735  0.025940625            6 
 2634000   0.81538703   -6.6432936    824.71495  0.026091969  0.025932624            5 
 2635000   0.83263801   -6.6536897    824.66672  0.026080542  0.025924542            9 
 2636000   0.82617446   -6.6378478    824.58083  0.026067932   0.02591642           14 
 2637000   0.83281867    -6.613101    824.79437  0.026064795  0.025908363           13 
 2638000   0.83130814   -6.6272104     824.8359  0.026056226  0.025900352            8 
 2639000   0.83845716   -6.6153803    826.13698  0.026087438  0.025892362           11 
 2640000   0.82032415   -6.5994216    827.84334  0.026131419  0.025884413            5 
 2641000   0.82684183   -6.6187379    824.35714  0.026011522  0.025876508            4 
 2642000   0.81889045   -6.6194126    827.79047  0.026109969   0.02586857            5 
 2643000   0.82357134   -6.6813334    822.44778  0.025931636  0.025860545            7 
 2644000     0.841827   -6.6417167    823.52601  0.025955812  0.025852521            6 
 2645000   0.82509477   -6.6093889    827.26439   0.02606378  0.025844532            5 
 2646000   0.84462489   -6.6760895    826.30853  0.026023826  0.025836564            6 
 2647000   0.81756749   -6.6147436    827.41285  0.026048761  0.025828641           11 
 2648000   0.82177046   -6.6058171    826.29801   0.02600384  0.025820717           11 
 2649000   0.82027903   -6.5936485    828.12034  0.026051351  0.025812856            9 
 2650000   0.83134101   -6.6366289    828.09819  0.026040824  0.025804915            6 
 2651000   0.82674979   -6.6021007    829.34392   0.02607016  0.025796984            8 
 2652000   0.83906356   -6.6095322    828.11643  0.026021758   0.02578905            6 
 2653000   0.81892465   -6.6404891    826.77143  0.025969702  0.025781084            7 
 2654000   0.83044873   -6.6195932    829.49769  0.026045519  0.025773148            5 
 2655000   0.83372815   -6.6175754     828.2001  0.025994981  0.025765188            8 
 2656000    0.8084897   -6.6397314    827.42933  0.025961011  0.025757233            9 
 2657000   0.82318874   -6.6245821     826.7898  0.025931182  0.025749266            8 
 2658000   0.83794873   -6.6385436    826.82382  0.025922493  0.025741304           12 
 2659000   0.82274581   -6.6582588    825.74183  0.025878834  0.025733329            6 
 2660000   0.83214927   -6.6292991    829.08972  0.025973989  0.025725367            5 
 2661000   0.83067011   -6.6235971    829.79248  0.025986236  0.025717454            4 
 2662000    0.8220172    -6.636408    827.57065   0.02590692  0.025709549           12 
 2663000   0.83709175    -6.639125    826.51934  0.025864293  0.025701571           10 
 2664000   0.84398345    -6.665149    826.82173  0.025864043  0.025693597           16 
 2665000   0.82068158   -6.6531391    827.16641  0.025865116  0.025685622            8 
 2666000   0.81701199   -6.6369849    828.35132  0.025892452  0.025677681           11 
 2667000   0.81610699    -6.634562     829.5986  0.025921716  0.025669765            9 
 2668000   0.84160322   -6.6243475    829.61132  0.025912398  0.025661886            8 
 2669000   0.81337527   -6.6804852    825.42175  0.025771879  0.025653946            8 
 2670000    0.8168196    -6.663886    828.61998  0.025862047  0.025646002            9 
 2671000   0.82439152   -6.6335334    826.90707  0.025798923  0.025638029           12 
 2672000   0.82546275   -6.6481773    828.79469  0.025848138  0.025630066           10 
 2673000   0.81004714   -6.6515821    829.33011   0.02585516  0.025622125            6 
 2674000   0.81391496   -6.6205236     830.2756  0.025874956  0.025614156           11 
 2675000   0.83080807   -6.6303317    829.09775   0.02582859  0.025606183           14 
 2676000   0.83217762    -6.671742    827.30112   0.02576299  0.025598175           21 
 2677000   0.82739428   -6.6450481    829.34407  0.025816962  0.025590177           11 
 2678000   0.81766173   -6.6513104      829.527  0.025813013   0.02558217            9 
 2679000   0.82339975   -6.6678214    826.88036  0.025721052  0.025574173            8 
 2680000   0.81728872   -6.6118188    828.71509  0.025768504  0.025566175            5 
 2681000   0.82029655   -6.6223839    830.75035  0.025822154  0.025558232           13 
 2682000    0.8344658   -6.6396168    830.69067  0.025810672  0.025550302            8 
 2683000   0.82217912   -6.6354768    828.93278  0.025746452  0.025542356            4 
 2684000   0.81942355   -6.6774143    827.09357  0.025679756  0.025534324           16 
 2685000   0.81002493   -6.6672542    828.47397  0.025713035  0.025526277            9 
 2686000   0.81955361    -6.649102     829.6679  0.025740503  0.025518254            9 
 2687000   0.82623222   -6.6592008     828.3183  0.025689068   0.02551024           13 
 2688000   0.82188764   -6.6392715    829.11232  0.025704127  0.025502262           13 
 2689000   0.82327182   -6.6268536    830.39723  0.025734388  0.025494294            9 
 2690000   0.84066553   -6.6362867    832.64358  0.025794411  0.025486389            8 
 2691000   0.82290448   -6.6746389    828.26444  0.025649215  0.025478471            9 
 2692000   0.81893713   -6.6593381    828.05964  0.025633347  0.025470537            4 
 2693000   0.81449486   -6.6749322    829.67109  0.025673694  0.025462518           12 
 2694000   0.82854548    -6.678783    827.09053   0.02558434  0.025454501            6 
 2695000   0.83253752   -6.6661424    828.67378  0.025623803  0.025446482            4 
 2696000   0.83454498   -6.6758224    829.56308  0.025641787   0.02543848            8 
 2697000   0.80258082    -6.696738    828.27239  0.025592399  0.025430476            8 
 2698000   0.83864195   -6.6772395    827.37094   0.02555507  0.025422457            6 
 2699000   0.81884581   -6.6479741    826.78766  0.025527592  0.025414449            9 
 2700000   0.81844788   -6.6516602    828.35499  0.025566512   0.02540653           11 
 2701000   0.82242001   -6.6504145    829.30778  0.025586443  0.025398541            8 
 2702000   0.82864353   -6.6611338    830.90778   0.02562632  0.025390597            6 
 2703000   0.81919299   -6.6351658    830.74672  0.025611873  0.025382701           19 
 2704000   0.81178632   -6.6150794    832.49763  0.025656362  0.025374865            8 
 2705000   0.84075243   -6.6298958    830.87958  0.025597029  0.025367016            9 
 2706000   0.81422884   -6.6484914    830.96061  0.025590066  0.025359089            8 
 2707000   0.80510139   -6.6714945    830.34301    0.0255616  0.025351126           15 
 2708000   0.82179173   -6.6477494    833.92915  0.025662517  0.025343215           10 
 2709000   0.82157861   -6.6552683     829.0406  0.025502664  0.025335337            8 
 2710000   0.81244634   -6.5979243    830.50725  0.025538353  0.025327429           15 
 2711000   0.81816221   -6.6502785    831.40628  0.025556568  0.025319546           14 
 2712000   0.81955318     -6.64857    832.98379  0.025595618  0.025311653            8 
 2713000   0.82458245   -6.6358942    831.82746  0.025550665  0.025303745            8 
 2714000   0.79253663   -6.6600708    829.72919  0.025476823  0.025295835            4 
 2715000   0.80937473   -6.6356636    831.69396  0.025527746  0.025287935           16 
 2716000   0.81212188     -6.64485    831.33754  0.025507411  0.025280034            7 
 2717000   0.82509383   -6.6454975    832.37111  0.025529724  0.025272115            7 
 2718000   0.82019848   -6.6594362    829.73157  0.025439403  0.025264177            4 
 2719000   0.81505684   -6.6332783    831.99835   0.02549952   0.02525623            7 
 2720000   0.80709529   -6.6657515    829.95391   0.02542751  0.025248319            9 
 2721000   0.81192854   -6.6773167    828.17866  0.025363796  0.025240405            9 
 2722000   0.79948067   -6.6747236    831.46674  0.025455141  0.025232457            3 
 2723000   0.81953203   -6.6077068    832.92144  0.025490312  0.025224594            8 
 2724000   0.81218755   -6.6189641    833.62855  0.025502587   0.02521674            7 
 2725000   0.81834426   -6.6719385    829.69657  0.025372984  0.025208777           20 
 2726000   0.82029232   -6.6644513    830.22782  0.025379916  0.025200834           23 
 2727000   0.81977669   -6.6558688    830.49652   0.02537882  0.025192873           13 
 2728000   0.82340375   -6.6857658    830.89096  0.025381566  0.025184969            9 
 2729000   0.81587479   -6.6819619    830.85275  0.025371099  0.025177017           11 
 2730000    0.8302582   -6.6786255    831.57972  0.025383996  0.025169054            9 
 2731000   0.81007978   -6.6752936    834.65831  0.025468641  0.025161155            6 
 2732000   0.81202672   -6.6485487    832.51721   0.02539401   0.02515326            4 
 2733000   0.81430523   -6.6755716    833.02749  0.025400277   0.02514533            7 
 2734000   0.81685192   -6.6852751    832.11298  0.025363112  0.025137422            9 
 2735000   0.84008052   -6.6520812    832.49337  0.025365429  0.025129559            5 
 2736000   0.81241864   -6.6590352    831.02531  0.025311443  0.025121663            9 
 2737000   0.82948883   -6.6742473     827.6194  0.025198496  0.025113748            6 
 2738000   0.80513237   -6.6722077    830.60189  0.025280067  0.025105797           14 
 2739000    0.8217293   -6.7016933     830.7581   0.02527559  0.025097844            5 
 2740000   0.81697664    -6.697003    833.03962  0.025335755  0.025089911            5 
 2741000   0.81083831   -6.6681626    830.89885  0.025261427  0.025081966            7 
 2742000    0.7887583   -6.6359655    833.17828  0.025321489  0.025074038            8 
 2743000   0.81226359   -6.6888083    833.05436  0.025308493  0.025066096            8 
 2744000   0.81916051   -6.7076517    831.74178  0.025259408  0.025058103            9 
 2745000   0.83569621   -6.6685065     831.8487  0.025253452  0.025050109            8 
 2746000    0.8141783   -6.6695364    832.82101  0.025273762  0.025042189            9 
 2747000   0.79411766   -6.6814608    830.08181  0.025181465  0.025034269            7 
 2748000   0.79405514   -6.6863275    833.22019  0.025267473  0.025026313           12 
 2749000   0.82373108   -6.6621948    832.43526  0.025234487  0.025018403           10 
 2750000   0.81733909    -6.651836    832.97093  0.025241543  0.025010488            6 
 2751000   0.82878233   -6.6877751    831.99015  0.025202658    0.0250026            6 
 2752000   0.82488029   -6.6623804     832.2147    0.0252003  0.024994722            8 
 2753000    0.8232074   -6.6629762    832.66213   0.02520469  0.024986851            9 
 2754000   0.81122893   -6.6494803     833.3536  0.025216461  0.024978981           10 
 2755000   0.82328842    -6.660356    834.30374  0.025236048  0.024971097            8 
 2756000   0.81086504   -6.6779309    831.90664   0.02515441  0.024963184            6 
 2757000   0.82376253   -6.6482809    833.53984  0.025194651  0.024955305            6 
 2758000   0.82106481   -6.6720334    836.78202  0.025283479  0.024947428           15 
 2759000   0.82343582   -6.6740401    832.15302    0.0251345  0.024939529            9 
 2760000   0.80237209   -6.6810564    831.45454  0.025104304    0.0249316            8 
 2761000   0.81510148   -6.6785492     833.1104  0.025145189  0.024923664           13 
 2762000   0.79691321   -6.6872632    832.92188  0.025130397  0.024915745           10 
 2763000   0.80425921   -6.6482691    835.85686  0.025209822  0.024907848            8 
 2764000   0.81523585   -6.6827711    832.74589  0.025106907  0.024900006           12 
 2765000   0.80504441   -6.6627774    833.33418  0.025115557  0.024892125            7 
 2766000   0.80850869   -6.6528177    832.92274  0.025094081  0.024884243            6 
 2767000   0.82936825   -6.7085134    832.68849  0.025077957  0.024876362           10 
 2768000   0.80424462   -6.6949787     831.4007  0.025030127  0.024868418            8 
 2769000   0.80417987   -6.6971243    833.97316  0.025098506  0.024860463            7 
 2770000   0.80854123   -6.6780293     834.2044  0.025096402  0.024852523            4 
 2771000   0.81962787   -6.6990896    835.44641  0.025124696  0.024844617           12 
 2772000   0.79734727   -6.7019361    831.22332  0.024988676  0.024836699           18 
 2773000   0.82854687   -6.6733301    833.64586  0.025052466  0.024828807           11 
 2774000   0.80246978    -6.701706    833.37619  0.025035334  0.024820917            4 
 2775000   0.80826114   -6.6848218    833.12935  0.025018899   0.02481297            8 
 2776000   0.83049049    -6.689883    834.03865  0.025037183  0.024805041            7 
 2777000   0.81578186   -6.6955108    833.91123  0.025024344  0.024797124            9 
 2778000   0.80338637   -6.7204089    833.28178  0.024996454  0.024789164           11 
 2779000   0.80965378   -6.7077315    834.71428  0.025030415  0.024781268            6 
 2780000   0.81601361   -6.7170304    832.67987  0.024960428  0.024773308           21 
 2781000   0.81135786   -6.7012578    834.03529  0.024992068  0.024765403            8 
 2782000   0.80860248   -6.6718508    831.78049  0.024915543  0.024757527           13 
 2783000   0.80532789   -6.6846678     836.0823  0.025035402  0.024749618            4 
 2784000    0.7910093   -6.6978303    835.10992  0.024997304  0.024741783            5 
 2785000    0.8098546   -6.6801447    834.90633  0.024982236  0.024734019           17 
 2786000   0.79561358    -6.676603    834.27219  0.024954301  0.024726178           13 
 2787000   0.80516647   -6.6981977    834.86339  0.024963024  0.024718331            8 
 2788000   0.80541546   -6.7134455    833.36084  0.024909159  0.024710451            7 
 2789000   0.81344327   -6.7092801    834.65888  0.024939013  0.024702552            6 
 2790000    0.8267232   -6.7032754    835.15409  0.024944865  0.024694669            8 
 2791000   0.81144955   -6.6974158    835.91948  0.024958781  0.024686782           13 
 2792000   0.81837116   -6.7222438    833.20378  0.024868785  0.024678945            7 
 2793000   0.81257578   -6.7074377    834.33673  0.024893685  0.024671078           19 
 2794000   0.81384539   -6.6873547    834.37073  0.024885789  0.024663221           18 
 2795000    0.8020814   -6.7320887    834.40549  0.024877921  0.024655415            6 
 2796000   0.81280534   -6.6822932    834.99946  0.024886727   0.02464765            8 
 2797000   0.81242892   -6.6851692    835.90279  0.024904743    0.0246398            6 
 2798000   0.80535556   -6.7047531    834.57883   0.02485641  0.024631989            6 
 2799000   0.79414395   -6.7027454    835.36859  0.024871043  0.024624235           11 
 2800000    0.8202805   -6.7382081    836.71179  0.024902137  0.024616503           15 
 2801000   0.81568458   -6.6979763     837.6091  0.024919942   0.02460878           12 
 2802000    0.8011292    -6.651542    840.20287  0.024988189  0.024601102            8 
 2803000   0.80497629   -6.6712642    839.83264  0.024968267  0.024593468            9 
 2804000   0.81563681   -6.6721334    840.63038  0.024983071  0.024585854            5 
 2805000   0.82065518   -6.7062932    838.08563  0.024898563  0.024578278            7 
 2806000   0.80058256    -6.681829     841.2936  0.024984961  0.024570647            9 
 2807000      0.81555   -6.6951058    838.98967  0.024907662  0.024563029            6 
 2808000   0.81154804   -6.7056567    838.61337  0.024887624  0.024555331            9 
 2809000   0.79187475   -6.7213325    835.23471  0.024778531  0.024547579           11 
 2810000   0.80409693   -6.7240744    837.66408  0.024841758  0.024539832            5 
 2811000   0.80182129    -6.699373    837.02332  0.024813925  0.024532113           11 
 2812000   0.78908473   -6.6834561    838.44254  0.024847159   0.02452439           13 
 2813000   0.80533274   -6.7210506    837.84477  0.024820618  0.024516637            8 
 2814000   0.81092537   -6.7054162     838.4249  0.024828977  0.024508978            6 
 2815000   0.80046031   -6.7037635    839.05069  0.024838682  0.024501282            7 
 2816000   0.80851983   -6.7153282    838.32127  0.024808276   0.02449355           13 
 2817000   0.82043614   -6.7022262    838.52684  0.024805551  0.024485819            9 
 2818000   0.80931379   -6.7309593    839.21846  0.024817201  0.024478107           12 
 2819000   0.81162337   -6.7410008    836.88286  0.024739354  0.024470394            4 
 2820000   0.81468451   -6.7219742    837.72407  0.024755439  0.024462688            9 
 2821000   0.80788115    -6.699834     839.3319   0.02479416  0.024454961            9 
 2822000   0.80481379   -6.7251684    837.97562  0.024745323   0.02444725            9 
 2823000   0.79467637   -6.7001114    838.59488  0.024754838  0.024439533            7 
 2824000    0.8076772   -6.7408369    837.98032  0.024727937  0.024431859           16 
 2825000   0.81051331   -6.7394117    838.56489  0.024736428  0.024424176           11 
 2826000   0.80223173   -6.7002411    838.37995  0.024722221  0.024416444           14 
 2827000   0.81014422   -6.7254068    839.08449  0.024734244  0.024408744            8 
 2828000   0.80646416   -6.6860424    841.06527  0.024783866  0.024401091           14 
 2829000   0.81309705   -6.7386614     838.8255  0.024709129   0.02439341           39 
 2830000   0.79297192   -6.7210798     838.5408  0.024692014  0.024385689           20 
 2831000   0.79423785   -6.7283119    839.76297  0.024719268  0.024377964           23 
 2832000   0.79155607   -6.7052594    838.47463  0.024672629  0.024370248            5 
 2833000   0.78841065   -6.6933586     840.0121  0.024709145  0.024362599           15 
 2834000   0.78029495   -6.7169507    838.94806  0.024669138  0.024354939            8 
 2835000   0.79962025   -6.7196989    839.89401  0.024688243  0.024347324           13 
 2836000   0.78974389   -6.7044333    840.44824  0.024695823  0.024339714           10 
 2837000   0.78819755   -6.7222489    838.27816  0.024623374  0.024331995           33 
 2838000    0.7880004   -6.6971313    840.80286  0.024688832  0.024324326           20 
 2839000   0.78440826   -6.6945616    840.51733  0.024671754  0.024316654           16 
 2840000   0.79637049   -6.7348319    838.17128  0.024594228  0.024308966            8 
 2841000   0.80353875   -6.7350355     839.3159  0.024619145  0.024301333           10 
 2842000   0.80492182   -6.7058142    839.98566  0.024630121   0.02429368            6 
 2843000    0.8004056   -6.7192861    838.92795  0.024590455  0.024286033            5 
 2844000   0.78436419   -6.7051871    841.43034  0.024655132  0.024278397            9 
 2845000   0.80280446   -6.6871852    842.52655  0.024678575  0.024270837           12 
 2846000   0.80753484   -6.7313669    840.11159  0.024599191  0.024263264           17 
 2847000   0.79232401   -6.6757664    842.79955  0.024669229  0.024255653           19 
 2848000   0.80373106   -6.7109916    840.25435  0.024586094  0.024248078            6 
 2849000    0.8048252   -6.7404461    839.51994  0.024555983  0.024240506            7 
 2850000   0.79365662   -6.7077798    842.43696   0.02463266  0.024232883           12 
 2851000    0.7797277   -6.7157021    841.99931  0.024611227  0.024225297           13 
 2852000   0.80468299   -6.7006554     843.1437  0.024636036  0.024217666           14 
 2853000   0.80567837   -6.7170037    840.40657  0.024547452  0.024210064           16 
 2854000   0.78963532   -6.7254691    840.30776  0.024535966  0.024202494            9 
 2855000   0.78781906   -6.7091759    841.09959  0.024550484  0.024194937            8 
 2856000   0.80448511   -6.7448456    838.98874  0.024480297  0.024187345           19 
 2857000   0.78783601   -6.7333013    842.13338  0.024563452  0.024179762           14 
 2858000   0.79074749   -6.7693483    840.07459  0.024494827  0.024172131            7 
 2859000   0.78283333   -6.7106811    842.24615  0.024549555   0.02416453            8 
 2860000   0.79330255   -6.7284905    841.88521  0.024530455  0.024156989            9 
 2861000   0.79154366   -6.7556761    841.88028  0.024521737  0.024149398            7 
 2862000   0.79065825   -6.7590905    841.23293   0.02449432  0.024141845            6 
 2863000   0.78105409   -6.7209033    839.87945  0.024446369  0.024134281            9 
 2864000   0.79244745   -6.7196745    843.67567  0.024548291  0.024126778           11 
 2865000   0.78519753   -6.7390051     842.8718  0.024516341  0.024119299            7 
 2866000   0.77385671   -6.7566561    843.15947  0.024516151  0.024111817           11 
 2867000   0.80341271   -6.7293252     842.8301  0.024498026  0.024104351           26 
 2868000   0.80156837   -6.7680971    842.06641  0.024467295  0.024096879           11 
 2869000   0.80801125   -6.7184039     843.1971  0.024491608  0.024089415            6 
 2870000   0.77664801   -6.7326349    842.86343  0.024473387  0.024081943           12 
 2871000   0.79882004   -6.7309906    843.23035  0.024475512  0.024074466           12 
 2872000   0.80354142   -6.7597797    840.79759  0.024396402  0.024066983           10 
 2873000    0.8007104   -6.7671199    840.97727  0.024393122  0.024059417           16 
 2874000   0.80959381   -6.7366231     844.3012  0.024481014  0.024051917            4 
 2875000   0.81986579   -6.7505358    842.24187  0.024412808  0.024044477            8 
 2876000    0.7961765   -6.7775919    841.68203  0.024388098  0.024036999           10 
 2877000   0.79009469   -6.7067382    843.67479  0.024437342   0.02402953            9 
 2878000   0.79069377   -6.7340659    842.92037  0.024407006  0.024022101           21 
 2879000   0.79286736   -6.7403278    843.01493  0.024401266  0.024014608           14 
 2880000   0.78392522    -6.756838    842.87556  0.024388761  0.024007133           18 
 2881000   0.78016256   -6.7616007     844.4826  0.024426779  0.023999634            7 
 2882000   0.79379592   -6.7487031    845.29162  0.024441696  0.023992158           11 
 2883000   0.77928008   -6.7319448    845.41936  0.024436911  0.023984705            7 
 2884000   0.78375584   -6.7645111     844.3943  0.024398818  0.023977255           12 
 2885000   0.78469235   -6.7272941    844.83208  0.024403006  0.023969804           11 
 2886000   0.80446761   -6.7624685    844.72377  0.024391423   0.02396233            9 
 2887000   0.79873551   -6.7445864    843.11773  0.024336616  0.023954928           11 
 2888000   0.79278491   -6.7386046    845.34768  0.024392534  0.023947471            7 
 2889000   0.78218873   -6.7440342    843.77748  0.024338799  0.023939966           14 
 2890000   0.77960382   -6.7279537     845.8069  0.024388895  0.023932502            8 
 2891000   0.79547793   -6.7181231    846.62897  0.024404156  0.023925108           16 
 2892000   0.80091071   -6.7433594    844.31879  0.024329149  0.023917719            6 
 2893000   0.79405766   -6.7257263    844.78787  0.024334251  0.023910328            7 
 2894000   0.81174406   -6.7122296    847.58843  0.024406486  0.023902945            9 
 2895000   0.77175366   -6.7645304    843.48219  0.024279856   0.02389557            7 
 2896000   0.79197285   -6.7383528    847.32192  0.024381961  0.023888227            9 
 2897000    0.7907506   -6.7189995    848.22881  0.024399632  0.023880939            7 
 2898000   0.80143873   -6.7433443    845.23251  0.024305053    0.0238736           11 
 2899000   0.77987506   -6.7479489    845.14793  0.024294237  0.023866203            6 
 2900000   0.78877565   -6.7232391     847.5295  0.024354296   0.02385884            9 
 2901000   0.79144505   -6.6878544    849.34519  0.024398058  0.023851554            9 
 2902000   0.79411302    -6.725855    847.48044  0.024336103  0.023844271            9 
 2903000   0.80156892   -6.6966876    850.99436   0.02442859  0.023836948           18 
 2904000   0.78886878   -6.7231699     845.8146  0.024271539  0.023829655           10 
 2905000   0.80256532   -6.7561519    845.44545  0.024252595  0.023822327            5 
 2906000   0.77149622   -6.7485312    847.79305   0.02431157   0.02381499            7 
 2907000   0.77807235   -6.7531784    847.52597   0.02429555  0.023807614           12 
 2908000   0.79484588    -6.756174    844.78902  0.024208764  0.023800242            8 
 2909000   0.80915332    -6.755773    847.86967  0.024288692  0.023792938            6 
 2910000   0.75482503   -6.7239045    849.57033  0.024329047  0.023785641            6 
 2911000   0.79251189   -6.7692551    846.53034  0.024233664  0.023778302            7 
 2912000    0.7908107   -6.7687365    846.99031  0.024238505  0.023770876            8 
 2913000   0.77901839   -6.7953292    845.95231   0.02420049  0.023763454           11 
 2914000   0.78178758   -6.7664615    847.79631  0.024244918  0.023756036            9 
 2915000   0.78059522   -6.7708182    845.79795  0.024179473  0.023748635           14 
 2916000   0.78931114   -6.7724847    846.39188  0.024188154   0.02374121            7 
 2917000   0.78125687   -6.7574772    846.30096  0.024177264  0.023733859           12 
 2918000   0.79157742    -6.756591    846.69609  0.024180263  0.023726515            8 
 2919000   0.77601217   -6.7425611    848.17367  0.024214162  0.023719157           11 
 2920000   0.77671502   -6.7367579    847.72493  0.024193063  0.023711805            8 
 2921000   0.79160825   -6.7248664    848.37143  0.024203225  0.023704494            7 
 2922000   0.79146233   -6.7087768    849.08049  0.024215163  0.023697228            8 
 2923000   0.77732322   -6.7719266    847.32183   0.02415674  0.023689915           17 
 2924000   0.78812104     -6.76446    846.02746   0.02411159  0.023682521           16 
 2925000   0.78540886   -6.7557373    848.18253  0.024164744  0.023675135           12 
 2926000   0.78874692   -6.7476244    846.20728   0.02410023  0.023667793            7 
 2927000   0.76486504   -6.7397356    848.01963  0.024143595  0.023660421           13 
 2928000   0.77668351   -6.7890751    847.87332  0.024131185   0.02365302           19 
 2929000   0.77215327   -6.7623537    846.74872   0.02409095  0.023645607           12 
 2930000    0.7988492   -6.7660327    845.86082  0.024057475  0.023638177           13 
 2931000   0.77843579   -6.7565204    845.25729  0.024032108  0.023630748           14 
 2932000   0.78606053   -6.7832233    847.78046  0.024095625  0.023623312           25 
 2933000   0.79926876   -6.7697185    846.83798  0.024060631  0.023615873           21 
 2934000   0.77113682   -6.7734418    845.49634  0.024014325  0.023608421           16 
 2935000   0.78242128   -6.7560338    846.56522  0.024036491  0.023601001           11 
 2936000   0.78562779   -6.7300643    849.65035   0.02411587  0.023593579           11 
 2937000   0.78915492   -6.7649822    846.02696  0.024004851  0.023586247           10 
 2938000   0.79241198    -6.755483    846.98626   0.02402389  0.023578907           10 
 2939000   0.77343958   -6.7233484    847.66717  0.024035022  0.023571534            7 
 2940000    0.7777872   -6.7407975    847.63967  0.024026068  0.023564193            9 
 2941000   0.78348491   -6.7539245    849.12704  0.024060043  0.023556848           11 
 2942000   0.77908571   -6.7515972    848.00406  0.024020056  0.023549522            6 
 2943000    0.7951926   -6.7549641    850.37785   0.02407911   0.02354222            4 
 2944000   0.77121767   -6.7341529     847.1875  0.023980624   0.02353493           27 
 2945000   0.75551161   -6.7406989    848.11934   0.02399885  0.023527628           10 
 2946000       0.7761   -6.7398484    847.08227  0.023961368  0.023520323           10 
 2947000   0.76853359   -6.7533683    850.42535   0.02404777  0.023512967           20 
 2948000   0.78597946   -6.7660236     847.7028  0.023962653  0.023505637            9 
 2949000   0.76563513   -6.7884089    847.23966   0.02394144  0.023498292           15 
 2950000   0.77522796   -6.7346824    849.87473  0.024007761  0.023490985            6 
 2951000   0.77707325   -6.7679349     850.4403  0.024015596  0.023483729            9 
 2952000   0.76327888   -6.7723474    848.98551  0.023966393   0.02347646           17 
 2953000   0.77497147   -6.7677726    848.06584  0.023932324  0.023469111           11 
 2954000    0.7683418   -6.7697968    849.68849  0.023969998  0.023461828           10 
 2955000    0.7726288    -6.772408    849.50664  0.023956758  0.023454575           12 
 2956000   0.78902118   -6.7935191    849.62796  0.023952074  0.023447245           11 
 2957000   0.79368795   -6.7842541    848.64469  0.023916263  0.023439874           12 
 2958000   0.77763495   -6.7863561    849.38671  0.023929083  0.023432493           21 
 2959000   0.78108313   -6.7828665    848.95253  0.023908768  0.023425143           14 
 2960000   0.77748964   -6.7516648    850.32658  0.023939374  0.023417927            7 
 2961000   0.78420463   -6.7592888    850.73895  0.023942895  0.023410735            7 
 2962000   0.79013402   -6.7681286    849.69746   0.02390551  0.023403501           25 
 2963000   0.77260797   -6.8091705    848.79442  0.023872045  0.023396234           18 
 2964000   0.78399681     -6.80063    847.76449  0.023835034  0.023388963           21 
 2965000   0.78650782   -6.7998309    847.14308   0.02380953  0.023381617           14 
 2966000   0.78566259   -6.7554754    849.78552  0.023875745  0.023374346            4 
 2967000   0.78776068   -6.7932974    849.97076  0.023872901  0.023367039           15 
 2968000   0.77189152   -6.7910266    847.60836  0.023798528  0.023359721           13 
 2969000   0.78170075   -6.7639632    850.27671  0.023865407   0.02335243            9 
 2970000   0.79239361   -6.7670084    851.37291  0.023888129  0.023345184            8 
 2971000   0.78637362   -6.7720642    848.01823  0.023785993  0.023337891           23 
 2972000   0.77776781   -6.7839937    849.12814  0.023809111  0.023330601           15 
 2973000   0.79860159   -6.7685877     850.6192  0.023842897   0.02332335            5 
 2974000   0.77329003   -6.7632639     849.8276  0.023812699  0.023316105           20 
 2975000   0.76538693   -6.7647523    852.78548  0.023887549    0.0233089            9 
 2976000   0.76703537   -6.7527619    852.17578  0.023862449  0.023301678           10 
 2977000   0.79733594   -6.7462591    852.62596  0.023867035  0.023294462           18 
 2978000    0.7810893   -6.7739092    851.19888  0.023819087  0.023287265           12 
 2979000   0.76215279   -6.7462979    851.28323   0.02381345  0.023280062           10 
 2980000   0.79536352   -6.7537277    852.11466   0.02382871  0.023272861            4 
 2981000   0.77707675   -6.7764638    850.39007  0.023772506  0.023265691           13 
 2982000   0.79196731   -6.7667209    853.51461   0.02385185  0.023258534           18 
 2983000   0.78190215    -6.755217     852.5046  0.023815639  0.023251408           14 
 2984000   0.77862489   -6.7985179    851.72136  0.023785784  0.023244264           26 
 2985000   0.79006355   -6.7743218     851.5937  0.023774252  0.023237093           15 
 2986000   0.76539669    -6.755172    851.86982  0.023773996  0.023229956            8 
 2987000   0.75618038    -6.757395    854.13934  0.023829353  0.023222815            8 
 2988000    0.7644781   -6.7734294    853.28418  0.023797528  0.023215657           13 
 2989000   0.77818738   -6.8017436    851.45845  0.023738666  0.023208502           10 
 2990000   0.75146964   -6.8060551    850.97502  0.023717253    0.0232013           10 
 2991000   0.78630072   -6.7821644    850.27722  0.023689881  0.023194088            9 
 2992000    0.7667798   -6.8029139     853.3582  0.023767775  0.023186884           10 
 2993000   0.78457955   -6.7779036    854.79992  0.023799975  0.023179686            8 
 2994000   0.77844854   -6.8054517     853.1531   0.02374619  0.023172541           12 
 2995000   0.75905156   -6.7747681    852.47098  0.023719282  0.023165391            5 
 2996000   0.76580676   -6.7508836    853.26903  0.023733562  0.023158252            9 
 2997000   0.76873658   -6.7479004    855.68684  0.023792872  0.023151152            8 
 2998000   0.77168404    -6.794151    853.04178  0.023711412  0.023144044           25 
 2999000   0.77709199   -6.8132246     851.4593  0.023659534  0.023136878           14 
 3000000   0.78169077   -6.7717619    852.94776  0.023692993  0.023129741           11 
 3001000   0.77279784   -6.7865405    852.65118  0.023676863  0.023122614           13 
 3002000   0.77124298   -6.8075582    851.80825  0.023645577    0.0231155           25 
 3003000   0.76427117   -6.7893229    853.25987  0.023677985    0.0231083           22 
 3004000   0.77068336   -6.8027096    851.96486  0.023634178  0.023101121            9 
 3005000   0.77156351   -6.8267148    850.98844  0.023599236  0.023093881           10 
 3006000   0.77670506   -6.7953062    853.77834  0.023668728  0.023086662            9 
 3007000   0.77659821   -6.8069332    850.27157  0.023563673   0.02307942            8 
 3008000   0.77298216   -6.8179177    852.63943  0.023621438  0.023072241           18 
 3009000   0.77872958   -6.7547824    854.72537  0.023671357  0.023065109           10 
 3010000   0.75900221   -6.7621408    855.22012   0.02367719  0.023057976           11 
 3011000   0.77015323   -6.7471214    853.97796  0.023634949  0.023050903            9 
 3012000   0.75432809   -6.7804759    852.27397  0.023579957  0.023043837           41 
 3013000   0.76679864   -6.7981102    853.43429  0.023604223  0.023036764           43 
 3014000   0.78082197   -6.7718366    854.06234  0.023613756  0.023029652           23 
 3015000   0.77865031   -6.7813698    853.58162  0.023592637  0.023022534           21 
 3016000    0.7578963    -6.795378    852.47072   0.02355412  0.023015395           27 
 3017000   0.77997099   -6.7629253    853.80291   0.02358311  0.023008244           15 
 3018000   0.77855318   -6.8131772    851.70945  0.023517491  0.023001071           21 
 3019000   0.77629872   -6.7995777     853.8283  0.023568187  0.022993916           11 
 3020000   0.76819964   -6.7870124    854.36139  0.023575094  0.022986804           15 
 3021000   0.77374581   -6.7581605    855.80078  0.023606995  0.022979736           11 
 3022000   0.76832458   -6.7683633    852.92499  0.023519882  0.022972658           17 
 3023000   0.77468975   -6.7598326    853.81837  0.023536729  0.022965569           16 
 3024000   0.76641217   -6.7912935    852.75807  0.023499726  0.022958474            6 
 3025000   0.78407889   -6.8109307    853.92119     0.023524  0.022951368           12 
 3026000   0.77810407   -6.7875637     853.9702  0.023517576  0.022944253            7 
 3027000    0.7738289    -6.812499    850.36254  0.023410487  0.022937137            8 
 3028000   0.75173874   -6.7852926    854.81571  0.023525311  0.022930006            4 
 3029000   0.76172785    -6.811979    854.63145  0.023512475  0.022922896            7 
 3030000    0.7712347   -6.8133739     855.8258  0.023537563   0.02291577           11 
 3031000   0.74796267   -6.7984736    851.97316  0.023423874  0.022908642           24 
 3032000   0.78161155   -6.7832176    856.10278   0.02352965  0.022901562            6 
 3033000   0.77486631    -6.791414    855.11497  0.023494751  0.022894453           19 
 3034000   0.77654484   -6.7935688    855.61806  0.023500826  0.022887371           17 
 3035000   0.76689039   -6.8169153    853.15688  0.023425505  0.022880245           17 
 3036000   0.75614523   -6.8084124    853.88017  0.023437642  0.022873117           36 
 3037000   0.76734063   -6.8079981    856.37039  0.023498254  0.022866025           12 
 3038000   0.77320682   -6.7985803    854.15886  0.023429857  0.022858916           19 
 3039000    0.7562591   -6.7671058    856.26764  0.023479973   0.02285184            5 
 3040000   0.76854041    -6.802644    852.47072  0.023368167  0.022844739           12 
 3041000   0.76849429   -6.7909315    855.96436  0.023456219  0.022837666            9 
 3042000   0.75193905    -6.783745    854.74557  0.023415121  0.022830584            9 
 3043000   0.76505281   -6.7876119    855.88855  0.023438727   0.02282348            6 
 3044000   0.75622057   -6.8059202    854.49779  0.023392953   0.02281642            9 
 3045000    0.7667865    -6.816779     856.1806  0.023431325  0.022809337            6 
 3046000   0.75076269   -6.7880669    855.96315  0.023417683  0.022802217            9 
 3047000   0.76835714   -6.8085985    854.67479  0.023374762  0.022795097            9 
 3048000   0.77111876   -6.8122999    853.74649  0.023341713  0.022787981            7 
 3049000   0.75309386   -6.7751872    855.11119  0.023371356  0.022780915            4 
 3050000   0.77283849   -6.7810726     856.0562  0.023389514  0.022773876           15 
 3051000    0.7662016   -6.8104004     855.9144  0.023377974  0.022766819            8 
 3052000   0.75969204   -6.7886348    856.83652  0.023395492  0.022759749           17 
 3053000   0.75579643    -6.823656    856.55271  0.023380083  0.022752678           13 
 3054000   0.75530906   -6.7937656    853.96009  0.023301683  0.022745582            9 
 3055000   0.74878944   -6.8578049     853.0589  0.023269474  0.022738489           10 
 3056000   0.74044758   -6.8313782    855.23288  0.023321141  0.022731369           14 
 3057000   0.78584302    -6.794814    855.25301  0.023314061  0.022724322            5 
 3058000   0.76597065   -6.8107081    854.68781  0.023291035  0.022717313           14 
 3059000   0.78138565   -6.7810092    855.73842  0.023312041  0.022710296            8 
 3060000   0.74456294   -6.7911987    854.22842  0.023263301  0.022703258           10 
 3061000    0.7587053   -6.8048444    855.47179  0.023289551  0.022696254            8 
 3062000   0.75007949   -6.8146391     855.1245  0.023272494   0.02268923            6 
 3063000   0.77167634   -6.8072889    853.69692  0.023226056  0.022682191            6 
 3064000   0.75513577   -6.8044779    856.02042  0.023281669  0.022675154            5 
 3065000   0.75922093   -6.7824114    854.96589  0.023245402  0.022668139            8 
 3066000   0.77914449   -6.8073448    856.50238  0.023279582  0.022661152           25 
 3067000   0.75996878   -6.8179958    855.77649  0.023252268  0.022654139           10 
 3068000   0.76024074   -6.8025844    855.74197  0.023243752  0.022647083           15 
 3069000   0.76018482   -6.8236501    856.23089  0.023249454  0.022640085            9 
 3070000    0.7644217    -6.796271    856.39838  0.023246427  0.022633083            8 
 3071000   0.75238506   -6.8238724    856.48662  0.023241252  0.022626092           11 
 3072000    0.7530679   -6.8181385    854.43252  0.023177965  0.022619096           10 
 3073000    0.7620015   -6.8397865    856.36691   0.02322288  0.022612099            7 
 3074000   0.75934691   -6.8085277    857.90313  0.023256971  0.022605111            9 
 3075000   0.75681021   -6.8159418    856.59134  0.023213858  0.022598143           11 
 3076000   0.76541204   -6.8433857    857.62821  0.023234401  0.022591109           15 
 3077000   0.74763623   -6.8171964    854.87513  0.023152289  0.022584071            7 
 3078000   0.75480334   -6.8040052    856.17577  0.023179981  0.022577004            9 
 3079000    0.7539122   -6.8330633    855.90986  0.023165255  0.022569971            7 
 3080000   0.77446403   -6.8395553    854.80088  0.023127729  0.022562928           14 
 3081000   0.76288068   -6.8380638    855.04668  0.023126871   0.02255586           19 
 3082000   0.76472652    -6.814985    856.29656  0.023153162  0.022548845            8 
 3083000   0.75586562   -6.8308651    857.49115  0.023177942  0.022541861           11 
 3084000    0.7684852    -6.779748    855.23026  0.023109335  0.022534895            9 
 3085000    0.7445141   -6.8202166    856.26718  0.023129854  0.022527934           10 
 3086000   0.75852343   -6.8166836    855.64083  0.023105445  0.022520958           20 
 3087000   0.74990295   -6.8208997      857.218  0.023140536  0.022513946            6 
 3088000   0.76609438   -6.8334196    854.03496  0.023047144  0.022506953           12 
 3089000   0.74098354   -6.8378632    856.05299  0.023094124  0.022499941           14 
 3090000    0.7600862   -6.8085656    859.67893  0.023184437  0.022492959           13 
 3091000   0.75998987   -6.8027979    858.02786  0.023132424  0.022485964           12 
 3092000   0.76619724   -6.8057971    860.03647  0.023179077  0.022478984           11 
 3093000   0.75668166    -6.799992    856.78278   0.02308392  0.022472032           16 
 3094000   0.75257495   -6.7988932    858.52012  0.023123253  0.022465066            9 
 3095000    0.7468017   -6.8156896    856.48976  0.023061114  0.022458109           14 
 3096000    0.7507421   -6.8254955    856.76755  0.023061142  0.022451126            9 
 3097000   0.75357734   -6.8323777    855.96085  0.023031989  0.022444155           10 
 3098000   0.76119873   -6.8575514    857.10096  0.023055223  0.022437165           15 
 3099000   0.74355566   -6.8192469    857.83367  0.023067486  0.022430163           15 
 3100000   0.75843198   -6.8447118    857.85338  0.023060575  0.022423205           19 
 3101000   0.76284594   -6.8235414    858.81579  0.023079001  0.022416247            6 
 3102000   0.75282943    -6.810773    858.48421  0.023062653  0.022409327           13 
 3103000    0.7693816   -6.8342452     858.1437  0.023046076  0.022402395            7 
 3104000   0.74900287   -6.8276997    858.96217  0.023060625  0.022395429           24 
 3105000   0.76085465   -6.8331247    855.24913  0.022953546  0.022388489           15 
 3106000   0.74722849    -6.835038    856.77564  0.022987112  0.022381547           18 
 3107000   0.75408198   -6.8212638    859.42414  0.023050749  0.022374612           45 
 3108000   0.76761831   -6.8351702    856.64089  0.022968707  0.022367684           25 
 3109000   0.75781472   -6.8177955    859.35018  0.023033939  0.022360757           13 
 3110000   0.74781216   -6.8150878    858.61652  0.023006873  0.022353832            7 
 3111000   0.74906923   -6.8335926    860.92494  0.023061313  0.022346946            5 
 3112000   0.75539435   -6.8395032    858.63752   0.02299265  0.022340001           28 
 3113000   0.75665024   -6.8473395    858.63956  0.022985319  0.022333028           10 
 3114000   0.74795261   -6.8209719    859.80696  0.023009178  0.022326068           22 
 3115000   0.75003191   -6.8420176    859.08464  0.022982468  0.022319101            8 
 3116000   0.74698117   -6.8030338    858.07213  0.022948014  0.022312165            9 
 3117000   0.75172771   -6.8576116    858.13007  0.022942201  0.022305169           19 
 3118000   0.75281886    -6.857451    858.20111  0.022936741  0.022298172           18 
 3119000   0.73225146    -6.861387     857.5491  0.022911967   0.02229116            8 
 3120000   0.74281898   -6.8288374    856.57143   0.02287851  0.022284124           14 
 3121000   0.75481211   -6.8211769    858.55098  0.022924036  0.022277128            9 
 3122000   0.74737261   -6.8433162    855.57487  0.022837254  0.022270138           13 
 3123000   0.73728472   -6.8558064     857.0087  0.022868201  0.022263156           16 
 3124000   0.72367946   -6.8495096    857.71089  0.022879612  0.022256159            8 
 3125000   0.75744639   -6.8531189    857.66335  0.022871023  0.022249153            6 
 3126000   0.73721624   -6.8876751    856.12782  0.022822772  0.022242157           20 
 3127000   0.74267439   -6.8421594    858.54555  0.022879905  0.022235183           23 
 3128000   0.75813928   -6.8537329    858.74634   0.02287794  0.022228231           16 
 3129000   0.75200002   -6.8232755    860.49989  0.022917329  0.022221337           10 
 3130000     0.751508   -6.8666693    857.96349  0.022842478  0.022214369           16 
 3131000   0.75738586   -6.8774918    857.21914  0.022815372  0.022207396            7 
 3132000    0.7497561   -6.8591194    859.64884  0.022872734  0.022200424            9 
 3133000   0.74955865   -6.8569078    857.32324  0.022803576  0.022193477           14 
 3134000   0.74242508    -6.864518    857.45303  0.022799751  0.022186518           14 
 3135000   0.76407095   -6.8862587    857.97206  0.022806275  0.022179563           37 
 3136000   0.74362259   -6.8594051    858.88045  0.022823141  0.022172644            8 
 3137000   0.76096985   -6.8725314     857.5874  0.022781516  0.022165704           10 
 3138000   0.76537964   -6.8688057      858.721   0.02280436  0.022158759           19 
 3139000   0.75402291   -6.8435785    860.05208  0.022832433  0.022151857           24 
 3140000   0.75506199   -6.8477705     856.7479  0.022737471  0.022144962            7 
 3141000   0.75691327   -6.8661259    857.87048  0.022760015  0.022138054            7 
 3142000   0.75672548   -6.8548456    857.66336  0.022747278  0.022131112           24 
 3143000   0.74740604   -6.8525192    857.92148  0.022746884  0.022124174           23 
 3144000   0.74110968   -6.8623851    859.56516  0.022783216  0.022117271           15 
 3145000   0.75408897   -6.8446294    858.19361  0.022739629  0.022110351           19 
 3146000   0.74002172   -6.8501942    859.88475  0.022777197  0.022103409           10 
 3147000    0.7407176     -6.85452    862.74752  0.022845766  0.022096509            6 
 3148000   0.73955637   -6.8393526    861.24408   0.02279871  0.022089652           14 
 3149000    0.7528117   -6.8305122     859.2404  0.022738446  0.022082781           14 
 3150000   0.74294076   -6.8464448    860.42902  0.022762672  0.022075884           12 
 3151000   0.72894378   -6.8707836    859.29644  0.022725496  0.022068987            9 
 3152000   0.74623959   -6.8714359    858.62958  0.022700655  0.022062069           10 
 3153000   0.73788857     -6.86079    858.86838  0.022699767  0.022055121           23 
 3154000   0.74481209   -6.8809874    857.85767  0.022665865  0.022048143           20 
 3155000   0.75088859   -6.8625808    857.90693  0.022659982  0.022041181           13 
 3156000   0.75531934   -6.8630771    858.38418  0.022665404   0.02203425           27 
 3157000   0.73481762   -6.8426743    858.34697  0.022657242  0.022027375           17 
 3158000   0.75033792   -6.8479064    860.97417  0.022719394  0.022020512           20 
 3159000   0.75798069   -6.8392236    860.31061  0.022694698  0.022013647           13 
 3160000   0.74832439   -6.8138525    860.41479  0.022690263  0.022006808            7 
 3161000   0.74233213   -6.8667031    862.31038  0.022733059  0.021999939           12 
 3162000   0.75088737   -6.8448391    860.70816  0.022683643  0.021993073           12 
 3163000   0.75023494   -6.8614411    859.65402  0.022648699  0.021986166           16 
 3164000   0.74938221   -6.8733478    859.17552  0.022628938  0.021979263           10 
 3165000   0.74972346   -6.8378487    861.19032  0.022674837  0.021972404           14 
 3166000   0.73626109   -6.8473807    861.62533  0.022679125  0.021965562           13 
 3167000   0.74324596   -6.8473191    861.44028  0.022667095  0.021958717           15 
 3168000    0.7526406    -6.852577    862.19965  0.022679915  0.021951875           10 
 3169000   0.75220301   -6.8405072    862.04905  0.022668798  0.021945072           14 
 3170000   0.75330007   -6.8596162    862.91528  0.022684418  0.021938233           12 
 3171000   0.74205247   -6.8425954    860.35737  0.022610043  0.021931389            9 
 3172000   0.74434008   -6.8553903    861.50212   0.02263299  0.021924581            9 
 3173000   0.72144693   -6.8599355     860.6634  0.022603829  0.021917703           11 
 3174000   0.73053737   -6.8828537    860.55188   0.02259378  0.021910857           13 
 3175000   0.72898335   -6.8717569    859.19975  0.022551175   0.02190402           34 
 3176000   0.74977046   -6.8739821     861.2745  0.022598512  0.021897162           11 
 3177000   0.74157506   -6.8953743    859.62741  0.022548196  0.021890315           20 
 3178000   0.74066539   -6.8894166    859.50349  0.022537851  0.021883477            7 
 3179000   0.72760861   -6.8716061    859.79981  0.022538529  0.021876663           12 
 3180000   0.74799533   -6.8968192    861.12761  0.022566237  0.021869854           17 
 3181000   0.74673254   -6.8891592    860.20166  0.022534886  0.021863011           22 
 3182000   0.75334949   -6.8838299    862.26663  0.022581883  0.021856156           19 
 3183000   0.73164865   -6.8856889    861.24873  0.022548139  0.021849331           19 
 3184000   0.74533683   -6.8865122    861.97413  0.022560043  0.021842531           21 
 3185000   0.75277337   -6.8671295    862.14371  0.022557397  0.021835699            8 
 3186000   0.74186426   -6.8787936    861.71409   0.02253908  0.021828901           18 
 3187000   0.73395917   -6.8770508    859.99758  0.022487124  0.021822073           10 
 3188000   0.74042102   -6.8770139    862.08732  0.022534696  0.021815269            7 
 3189000   0.73075945   -6.8825025    860.93083  0.022497409  0.021808409           17 
 3190000   0.73576089   -6.9014886    860.65568  0.022483168  0.021801573            9 
 3191000   0.76672856   -6.8613717    862.80249  0.022532187  0.021794778           10 
 3192000   0.75159348   -6.8762661    862.54395  0.022518378  0.021788004           15 
 3193000   0.73072742   -6.8680478    860.34554   0.02245395  0.021781225           12 
 3194000   0.75383901   -6.8990743    860.75001  0.022457472  0.021774427           14 
 3195000   0.72410795   -6.8898402    861.44388  0.022468542  0.021767623           16 
 3196000   0.73785228   -6.8959977    860.35889  0.022433221   0.02176081            9 
 3197000   0.72634893   -6.8551661    862.89329  0.022492266   0.02175401           13 
 3198000   0.71681626   -6.8841902    861.36102  0.022445305  0.021747205           22 
 3199000   0.73512533   -6.9054023    861.85754  0.022451223  0.021740368            7 
 3200000    0.7454125   -6.8647596    863.37357  0.022483687  0.021733562            7 
 3201000   0.75389471   -6.8796794    859.86846  0.022385412  0.021726774           26 
 3202000   0.72447179   -6.8770066    861.46659  0.022420013  0.021719984           11 
 3203000    0.7523656   -6.8774089    861.95077  0.022425611  0.021713176            6 
 3204000    0.7258006   -6.8358573    864.55646  0.022486383  0.021706403           10 
 3205000   0.75878372   -6.8780746     863.0221  0.022439472  0.021699672           13 
 3206000   0.72356555   -6.8651902    861.75341  0.022399496  0.021692919           13 
 3207000   0.74296343   -6.8551671    863.46884  0.022437087   0.02168617           13 
 3208000   0.74214011   -6.8722058    862.52923  0.022405684  0.021679397           19 
 3209000   0.73445917   -6.8771377    860.00745  0.022333215  0.021672613           23 
 3210000   0.71377269   -6.8673517    861.99604  0.022377883  0.021665795           16 
 3211000   0.75554321   -6.8827142    860.73311  0.022338137  0.021659041           24 
 3212000   0.74874189   -6.8842323    862.10029  0.022366654  0.021652278           12 
 3213000   0.74261608   -6.9090838    862.00989  0.022357348  0.021645478           20 
 3214000   0.73116474   -6.9073811    859.62352  0.022288517  0.021638662            8 
 3215000   0.73265259    -6.894666    863.47068  0.022381303  0.021631897            7 
 3216000   0.74530978   -6.9014418    864.73115  0.022407005  0.021625132           21 
 3217000   0.75062498   -6.8996756    861.92355  0.022327312  0.021618357           16 
 3218000   0.73013563   -6.8655974    861.52393  0.022310025  0.021611591            5 
 3219000   0.73775449   -6.8755358     863.2633  0.022348123  0.021604837           11 
 3220000   0.73296287   -6.8839422    862.49542   0.02232131  0.021598116            9 
 3221000   0.74909636    -6.870128    864.57391  0.022368154  0.021591366           14 
 3222000   0.73192181   -6.9339342    862.01732  0.022295089  0.021584566           24 
 3223000   0.72281322   -6.8815334    863.03259  0.022314422  0.021577801           19 
 3224000    0.7428469   -6.9322856    859.95089  0.022227845  0.021571019            9 
 3225000   0.74181882   -6.9274131    862.06027  0.022275459  0.021564201           26 
 3226000   0.74379659   -6.8991845    863.34426  0.022301722  0.021557405            6 
 3227000    0.7423862   -6.9044244    860.54974  0.022222646  0.021550643           14 
 3228000   0.73387151   -6.9036971    862.99199   0.02227881  0.021543913           14 
 3229000    0.7507208   -6.8917034    860.80026  0.022215347  0.021537142           11 
 3230000   0.75610423   -6.9165177    862.88413  0.022262233  0.021530388           14 
 3231000   0.73874418   -6.8851557    863.97986  0.022283603  0.021523694           10 
 3232000   0.74398159   -6.8889781    864.77055  0.022297095  0.021517001            8 
 3233000   0.72813026   -6.8673728    866.41487  0.022332583  0.021510361            7 
 3234000   0.74547094   -6.8946874    864.39192   0.02227355  0.021503724           10 
 3235000   0.72963073   -6.8933682    864.30755  0.022264491  0.021497014           17 
 3236000   0.72165872   -6.8847633    862.39726  0.022208417  0.021490323            6 
 3237000   0.73436785   -6.8846654    863.48533  0.022229568  0.021483634           11 
 3238000   0.72701922   -6.8622735    863.86813  0.022232554  0.021476939           14 
 3239000   0.73986236    -6.874958    864.86508   0.02225134  0.021470289           20 
 3240000    0.7366425   -6.9105553    862.92456  0.022194562  0.021463609           12 
 3241000   0.73364789   -6.9076967    863.38421  0.022199532  0.021456903           22 
 3242000   0.72330126   -6.8959129     863.2845  0.022190122  0.021450176           11 
 3243000   0.73346844   -6.8901363     863.1402  0.022179571   0.02144347           10 
 3244000   0.75622504   -6.8989632    861.81495  0.022138691  0.021436738           11 
 3245000   0.73312963   -6.9321918    861.32179  0.022119204  0.021430008           13 
 3246000   0.73966839   -6.9141084    862.50591  0.022142789  0.021423242           16 
 3247000   0.74398834   -6.9279826    861.04526  0.022098482  0.021416523           14 
 3248000   0.73756321    -6.896326    863.91627  0.022165339  0.021409807            7 
 3249000   0.73234378   -6.9062543    862.17296  0.022113803  0.021403089           31 
 3250000   0.71707731    -6.913735    863.29459  0.022135759   0.02139635           37 
 3251000   0.72640654   -6.9281782    863.64069  0.022137822  0.021389633           12 
 3252000   0.74081284   -6.8936047     863.6026  0.022130038  0.021382891           39 
 3253000   0.76251609   -6.9168925     862.6661  0.022099244  0.021376164           22 
 3254000   0.73103357   -6.8924766    862.17802  0.022079953  0.021369413           25 
 3255000   0.73279032   -6.8853182    863.60685   0.02210975  0.021362723           16 
 3256000   0.71801729   -6.8977748    864.47757  0.022125245  0.021356021           23 
 3257000   0.72902084   -6.9041313    864.27181  0.022113187   0.02134933           27 
 3258000   0.73879562   -6.9127021    862.31797  0.022056425  0.021342628           39 
 3259000   0.75249934   -6.8751872    863.55429   0.02208127  0.021335909           17 
 3260000   0.71573785   -6.9250966    862.00534  0.022034901  0.021329175           21 
 3261000   0.71988512    -6.918456    862.94904   0.02205226  0.021322423           15 
 3262000   0.72819768   -6.9200925    862.53497  0.022034922  0.021315711           22 
 3263000   0.75017171   -6.9156981    862.93474  0.022038378  0.021308955           18 
 3264000   0.73676387   -6.9188574    862.86187  0.022029766  0.021302245           34 
 3265000   0.74214853   -6.8953571    865.29962  0.022085238  0.021295554           14 
 3266000    0.7380113   -6.9195946    862.42864  0.022005221  0.021288867           26 
 3267000   0.73475863   -6.9300441    860.28994  0.021943933  0.021282155           12 
 3268000   0.72239842   -6.9068412    862.18017  0.021985418  0.021275469           14 
 3269000   0.71374566   -6.9227514    861.81335  0.021969342   0.02126877           19 
 3270000   0.73246845   -6.9341597    863.86566  0.022014925  0.021262043           20 
 3271000   0.72441251   -6.8974416    864.00886  0.022011843   0.02125532           18 
 3272000   0.74430737   -6.9184187    863.23723  0.021985463  0.021248603           19 
 3273000   0.73807708   -6.8888306     865.1035  0.022026263  0.021241859           10 
 3274000   0.72702338   -6.9301049    864.62054  0.022007242   0.02123515           35 
 3275000   0.71717535   -6.9103119    863.13357  0.021962686  0.021228453           26 
 3276000   0.72666217   -6.9237726    863.58808  0.021967544    0.0212218           14 
 3277000   0.71059752   -6.9047049    864.05225  0.021972644  0.021215145           20 
 3278000   0.71887656    -6.923895    865.00762  0.021990228  0.021208477           11 
 3279000   0.72182625   -6.9061904    864.62719  0.021973854  0.021201787           12 
 3280000   0.73954163   -6.9309219    865.46983  0.021988563  0.021195122           12 
 3281000   0.74809193    -6.910054    864.23944  0.021950611  0.021188464           15 
 3282000   0.73341599   -6.9118438    865.85377  0.021984912  0.021181783           15 
 3283000   0.72740965   -6.9168621     863.9591  0.021930122  0.021175114           15 
 3284000   0.72135204   -6.9279091    864.05259  0.021925817  0.021168447           10 
 3285000   0.73285292   -6.9134589     862.4776  0.021879188  0.021161781           22 
 3286000   0.72192198   -6.8960404     863.7527  0.021904867  0.021155132           13 
 3287000   0.74614297   -6.8944326    865.75122   0.02194887  0.021148536           27 
 3288000   0.72624012   -6.8979987    867.06194  0.021975414  0.021141922           34 
 3289000   0.72751255   -6.9356805    864.47757  0.021903252  0.021135298           13 
 3290000   0.73128025   -6.9271759    863.03503  0.021860056  0.021128663            9 
 3291000    0.7236039   -6.8990511     864.3454  0.021886595  0.021122043            9 
 3292000   0.74053566   -6.9058633    864.27986  0.021878287  0.021115446           12 
 3293000   0.73159118   -6.9036689     864.3597  0.021873664  0.021108839           22 
 3294000   0.70466741   -6.9122945    864.62428  0.021873717  0.021102206           11 
 3295000   0.72562406   -6.8981288    865.08673  0.021878774  0.021095578           15 
 3296000   0.72922242   -6.9169825    864.80041  0.021864897  0.021088957           10 
 3297000   0.71901371   -6.9624609    863.25802  0.021819281  0.021082307           10 
 3298000   0.70718936   -6.8989888     863.2979  0.021813672  0.021075675            7 
 3299000   0.71835583   -6.9375381    864.96461  0.021849162  0.021069037           12 
 3300000   0.72127837   -6.9018095    864.47558  0.021830191  0.021062403           14 
 3301000    0.7170301   -6.9274316    863.00756  0.021786518   0.02105577           17 
 3302000   0.72039814   -6.9382464    862.92826  0.021777919  0.021049114           22 
 3303000   0.71844991   -6.9008212    864.64629  0.021814671  0.021042473           29 
 3304000   0.71067277   -6.9237582    865.11273  0.021819833  0.021035843           10 
 3305000    0.7273051   -6.9037359    865.92908  0.021833815  0.021029222            7 
 3306000   0.72532679   -6.9166186    864.60736  0.021793894  0.021022597            8 
 3307000   0.73269668   -6.9284352    861.89093  0.021718852  0.021015972           20 
 3308000   0.73424068   -6.9065306     865.8453  0.021811903  0.021009366           15 
 3309000   0.72824982   -6.9200163    865.00048  0.021784035  0.021002718           22 
 3310000   0.72180987   -6.9208798     864.0431  0.021753351  0.020996063           25 
 3311000   0.73273592   -6.8938936     865.0008  0.021770885  0.020989422           30 
 3312000   0.71802498   -6.9128463    865.21847  0.021769788    0.0209828           32 
 3313000   0.69672417   -6.8721883    865.87968  0.021779849   0.02097621           10 
 3314000   0.71876371   -6.9005193    863.78112  0.021720507  0.020969596           15 
 3315000   0.71292151   -6.9067638    865.20568  0.021749766     0.020963           14 
 3316000   0.71998977   -6.8982503    864.75077  0.021731774   0.02095639           15 
 3317000   0.72044224   -6.9499014    865.08488  0.021733617  0.020949781           12 
 3318000   0.71300559   -6.9147771    865.12611  0.021728102  0.020943159           19 
 3319000   0.70972295   -6.9222167    867.64979   0.02178492  0.020936536           26 
 3320000   0.71890292    -6.938938    865.56744   0.02172609  0.020929891           19 
 3321000    0.6975141   -6.9387265    862.50081  0.021642598  0.020923226           24 
 3322000   0.73308352   -6.9697531    864.50432  0.021686341   0.02091657           11 
 3323000   0.72147945    -6.952269    862.92746  0.021640271  0.020909904           16 
 3324000   0.71223803   -6.9264915    863.11962  0.021638579   0.02090326           30 
 3325000   0.72408733   -6.9703565    864.91113  0.021676971  0.020896593           29 
 3326000   0.69942791   -6.9390677      863.732   0.02164091   0.02088991           32 
 3327000   0.72351076   -6.9147643    864.86585  0.021662806  0.020883259           10 
 3328000   0.72197334   -6.9532017    863.89822  0.021632067  0.020876632           55 
 3329000   0.73051694   -6.9437631    865.53599  0.021666566  0.020869986           17 
 3330000   0.71236608   -6.9237267    865.69379  0.021664009  0.020863354           32 
 3331000   0.71776664   -6.9213842    866.01874  0.021665634  0.020856758           33 
 3332000   0.71883803   -6.9532565    863.48843  0.021595849  0.020850125           43 
 3333000   0.72831437   -6.9159409    866.91329     0.021675  0.020843506           21 
 3334000   0.71267083   -6.9304188    866.32665  0.021653836  0.020836887           18 
 3335000   0.72743315    -6.955605    863.68473  0.021581328   0.02083025           20 
 3336000   0.73208103   -6.9408898    865.13453  0.021611074  0.020823641           24 
 3337000   0.71374927   -6.9360253    864.34517  0.021584886   0.02081701           14 
 3338000   0.72238415   -6.9420279    863.88744  0.021566992  0.020810387           23 
 3339000   0.72524837   -6.9391079    864.99027  0.021588057  0.020803816           11 
 3340000   0.71103356   -6.9315227    866.12119   0.02160981   0.02079725            9 
 3341000   0.71569915   -6.9481767    863.56397  0.021539558  0.020790653           22 
 3342000   0.72303687   -6.9566378    864.06205  0.021545533  0.020784058           23 
 3343000   0.71356365   -6.9383607    865.99755  0.021587336  0.020777472           12 
 3344000   0.72178742   -6.9225445    864.06549  0.021532732   0.02077087           26 
 3345000   0.70408561   -6.9356253    864.15262  0.021528466  0.020764275           13 
 3346000   0.72210072   -6.9318457    866.06072  0.021569554  0.020757701           14 
 3347000   0.72399374   -6.9155043    867.29664  0.021593881  0.020751141           21 
 3348000   0.72623235   -6.9232764    865.55373  0.021544049  0.020744562           19 
 3349000   0.71901019   -6.9253251      867.494  0.021585896  0.020737988           14 
 3350000   0.72408792   -6.9531066    863.27551  0.021474515  0.020731376           19 
 3351000   0.71836212   -6.9318471    865.07013  0.021512736  0.020724796           19 
 3352000   0.71727718    -6.916239    868.07428  0.021581003  0.020718245           41 
 3353000    0.6953138   -6.9388164    864.21439  0.021478636  0.020711686           17 
 3354000   0.71410089   -6.9334149    864.38778   0.02147654  0.020705088           20 
 3355000   0.71173619   -6.9454302    865.57969  0.021499744  0.020698509           20 
 3356000   0.69849924   -6.9425688    863.48689  0.021441371  0.020691928           15 
 3357000   0.71288616   -6.9393885    867.04803  0.021523385  0.020685344            7 
 3358000   0.72290674   -6.9266001    864.88759  0.021463361  0.020678789            7 
 3359000   0.70860432   -6.9273575    864.93712    0.0214582  0.020672238            7 
 3360000   0.72559757   -6.9410584     864.0073  0.021428752   0.02066568           12 
 3361000   0.70872043    -6.956409    863.29935  0.021404824  0.020659098           16 
 3362000   0.72921988   -6.9338099    864.84298  0.021436719  0.020652516           14 
 3363000   0.70311849   -6.9261743    866.88045  0.021480832  0.020645957            7 
 3364000   0.71237627   -6.9485136    863.30376  0.021385844  0.020639409            7 
 3365000   0.71308982   -6.9361857     866.1467  0.021449894  0.020632841           13 
 3366000   0.71406972   -6.9508357    864.69105  0.021407483  0.020626219            7 
 3367000   0.71544725   -6.9527179    865.26416  0.021415309  0.020619619           13 
 3368000   0.70653368   -6.9587423    863.61051  0.021368035  0.020613015           26 
 3369000   0.71405437   -6.9405418    863.73905  0.021364872   0.02060643           15 
 3370000    0.7199246   -6.9774308     863.6846  0.021357186  0.020599842           27 
 3371000   0.70512663   -6.9437855    865.06803   0.02138505  0.020593277           13 
 3372000   0.70645536     -6.93877    867.38162  0.021435884  0.020586719           13 
 3373000   0.71519388   -6.9547664    866.37259    0.0214046  0.020580144           31 
 3374000   0.71547992   -6.9474984    866.26728  0.021395655  0.020573554           12 
 3375000   0.71553898   -6.9386124    863.91262  0.021331176  0.020566972           27 
 3376000   0.71419419   -6.9643157    864.54347  0.021340429  0.020560391           17 
 3377000   0.71430119   -6.9673085    865.63974  0.021361162  0.020553794           21 
 3378000   0.72983757   -6.9478176     864.6674  0.021330852  0.020547193           20 
 3379000   0.71548119   -6.9618471    863.73583  0.021301564  0.020540595           42 
 3380000   0.70318791   -6.9692469    864.27284  0.021308502  0.020534006           12 
 3381000    0.7145235   -6.9671553    863.90252  0.021293072  0.020527435           22 
 3382000   0.70705249   -6.9631686    864.65306   0.02130527  0.020520861           15 
 3383000   0.70536228   -6.9742032    864.78062  0.021302114  0.020514299           30 
 3384000   0.71867396   -6.9730704    865.40241  0.021311131  0.020507745           19 
 3385000   0.69165667    -6.959854    866.72381  0.021337366  0.020501196           33 
 3386000   0.71559671   -6.9522289    864.12953  0.021267216  0.020494637           31 
 3387000   0.69966005   -6.9617761    864.21533  0.021263048  0.020488058           25 
 3388000   0.69122833   -6.9753023    864.76829  0.021270373    0.0204815           62 
 3389000   0.71823201   -6.9669939     866.7236  0.021312177  0.020474925            9 
 3390000   0.69777075   -6.9761439    863.86038  0.021235506  0.020468342           29 
 3391000   0.70624639   -6.9933751    863.91082  0.021230483  0.020461762           24 
 3392000   0.71670317   -6.9709093    864.72808  0.021244302  0.020455174           42 
 3393000   0.72016805   -6.9661337    865.96749  0.021268481   0.02044861           19 
 3394000   0.72705311   -6.9801457    864.62063  0.021229145   0.02044202           21 
 3395000   0.72034866   -6.9532556    866.94614  0.021279974  0.020435458           37 
 3396000   0.70686381   -6.9959577    863.89833  0.021198918    0.0204289           26 
 3397000   0.70400489   -6.9649136    865.23417  0.021225448  0.020422338           27 
 3398000   0.70101648   -6.9712402    865.92709  0.021236195  0.020415765           24 
 3399000   0.70465595   -6.9590761    866.18441  0.021236256  0.020409208           20 
 3400000   0.70602021   -6.9834293    864.88393  0.021198135  0.020402664           16 
 3401000   0.69718743   -6.9680407    864.72222   0.02118794  0.020396138           30 
 3402000   0.70327087   -6.9772239    864.99331  0.021188353  0.020389613           26 
 3403000   0.70962316   -6.9534332    866.86777  0.021228028  0.020383111           11 
 3404000   0.70972362   -6.9604115    865.74139  0.021194217   0.02037662           11 
 3405000   0.68996529   -6.9798767    866.87661  0.021215776  0.020370115           14 
 3406000    0.7146824   -6.9764137    865.95464   0.02118699  0.020363579           29 
 3407000   0.70634736    -6.986764    866.47164  0.021193417  0.020357044           19 
 3408000   0.70049894   -6.9746601    862.94183  0.021100886  0.020350494           19 
 3409000   0.71390332   -6.9740726    866.08473  0.021171525   0.02034396           16 
 3410000   0.71904076   -6.9654066    862.99157  0.021089726  0.020337414           33 
 3411000   0.69314669   -6.9766726    863.91976  0.021106219  0.020330888           31 
 3412000     0.704191   -6.9873863    864.83711  0.021122438   0.02032436           18 
 3413000   0.71294532    -6.947412    866.16742  0.021148731  0.020317842           28 
 3414000   0.71850229   -6.9760428    866.90545  0.021160551  0.020311338           32 
 3415000   0.71063936   -6.9824002    863.35306  0.021067669  0.020304817           36 
 3416000    0.7179652   -6.9505838     865.2135  0.021106887  0.020298309           23 
 3417000   0.71077171   -6.9629165    863.67196  0.021063115  0.020291814           23 
 3418000   0.71217386   -6.9715574    865.23181  0.021094983  0.020285288           26 
 3419000   0.69841257   -6.9868018       865.02   0.02108365  0.020278753           29 
 3420000   0.69964601   -6.9843004    863.19764  0.021033081  0.020272188           28 
 3421000   0.70909471   -6.9733017      863.184    0.0210266  0.020265641           24 
 3422000   0.69650338   -6.9820523    865.98034  0.021088553  0.020259081           20 
 3423000   0.70718384   -6.9917306    863.82921  0.021030023  0.020252529           18 
 3424000   0.69972807   -7.0022721    864.95742  0.021051339  0.020245976           14 
 3425000   0.70003722   -6.9879238     864.5615  0.021035559   0.02023939           12 
 3426000   0.69946326   -6.9856122    863.46701  0.021002798  0.020232798           22 
 3427000   0.68770663   -7.0126315    863.17006  0.020989448   0.02022621           28 
 3428000    0.7045106   -6.9982629    862.29987  0.020962171  0.020219606           48 
 3429000   0.71146732    -6.954798    866.99186  0.021070085  0.020213059           17 
 3430000   0.69557706   -6.9984543    864.84262  0.021011725  0.020206527           25 
 3431000   0.69977895   -6.9729796    864.12362  0.020988138  0.020199994           47 
 3432000   0.70624268   -6.9982066    862.04459  0.020931541  0.020193461           35 
 3433000   0.69420938   -6.9865535    864.27432  0.020979569  0.020186924           34 
 3434000   0.69984377   -7.0004161    865.51579  0.021003586  0.020180379           69 
 3435000   0.70791148   -6.9719306    865.22677   0.02099046  0.020173841           60 
 3436000    0.7011845   -6.9766329    865.57724  0.020992851  0.020167294           47 
 3437000   0.69520442   -6.9946506    866.09049  0.020999187  0.020160758           42 
 3438000   0.68963042    -6.975796    863.01943   0.02091864  0.020154234           38 
 3439000    0.6874461   -7.0069643    865.20678  0.020965561  0.020147705           42 
 3440000   0.69226819   -6.9969393    864.71892  0.020947648  0.020141209           17 
 3441000   0.70451406   -7.0074807     864.7975  0.020943464  0.020134702           83 
 3442000   0.70130994   -6.9781536    866.02846  0.020967181  0.020128182           37 
 3443000     0.680664   -6.9892821    865.65871  0.020952142  0.020121685           26 
 3444000   0.70765469   -6.9888181    864.82485  0.020925882  0.020115201           18 
 3445000    0.6954985   -6.9876536    863.35412  0.020884231  0.020108713           16 
 3446000   0.69385337   -6.9820106     866.2876   0.02094911  0.020102237           12 
 3447000   0.70472215   -6.9901533    864.64481  0.020903317   0.02009576           12 
 3448000   0.71626192   -6.9767047    866.32278  0.020937809  0.020089289           17 
 3449000   0.70487025   -6.9757656    864.69793  0.020892479  0.020082798            9 
 3450000   0.70474506   -6.9989464    863.56211  0.020858988  0.020076311           22 
 3451000    0.6919203   -6.9685096    863.83737  0.020859591  0.020069806           18 
 3452000   0.71315148   -7.0006301    864.04791  0.020858631  0.020063293           20 
 3453000   0.70564218   -7.0070859    865.14948  0.020879175  0.020056786           25 
 3454000   0.69556277   -6.9626042    864.28723  0.020852327  0.020050314            8 
 3455000   0.69418481   -6.9785065    865.40145  0.020873166   0.02004384           15 
 3456000   0.69330739   -6.9881885    865.20409  0.020862367  0.020037344           15 
 3457000   0.69312097   -7.0165299    863.65761  0.020819053  0.020030825           25 
 3458000   0.69784783    -6.999924    865.89407  0.020866929  0.020024329           26 
 3459000   0.69340083   -6.9917873    864.82194  0.020835066  0.020017842           22 
 3460000   0.69063403   -6.9874949    865.68672  0.020849873  0.020011357           10 
 3461000   0.71045097   -6.9949196    863.10651  0.020781723  0.020004851           16 
 3462000   0.69512613   -7.0259136     862.0345  0.020749916  0.019998338           28 
 3463000     0.703148   -7.0322449    862.39209  0.020752529  0.019991807           38 
 3464000   0.69586101   -7.0226906    863.95673  0.020784178  0.019985278           27 
 3465000   0.68014812   -7.0193006    862.92365  0.020753335  0.019978747           34 
 3466000   0.70282562   -6.9926989    864.18041  0.020777563  0.019972185           35 
 3467000   0.68748706   -7.0104152    863.67075   0.02075932  0.019965654           22 
 3468000   0.69676366   -7.0030393     864.1013   0.02076368  0.019959109           18 
 3469000   0.70588826   -7.0088464    861.98437  0.020706841  0.019952552           15 
 3470000   0.68772936   -7.0147864    864.92527    0.0207715  0.019946027           20 
 3471000   0.70152268   -7.0122697    861.89885  0.020692856  0.019939482           32 
 3472000   0.69508027   -6.9928426    864.55588  0.020750669  0.019932976           34 
 3473000    0.7077092   -7.0334047    865.07278  0.020757097  0.019926489           32 
 3474000   0.69527169   -7.0328632    864.99392   0.02074923  0.019919976           23 
 3475000   0.71681769    -7.013491    861.40268  0.020657139  0.019913444           12 
 3476000   0.70393548   -7.0189157    863.29518  0.020696566  0.019906916           19 
 3477000   0.70158577   -7.0225454    863.71074  0.020700574  0.019900382           54 
 3478000   0.69355259   -7.0159912    863.10645  0.020680143   0.01989383           23 
 3479000   0.68264967   -7.0207684    861.88871   0.02064503  0.019887305           44 
 3480000    0.6802103   -7.0562681    863.33895  0.020673825  0.019880784           28 
 3481000   0.69789805   -7.0176229    862.49782   0.02064775  0.019874272           40 
 3482000   0.68502937   -7.0384548    862.29138   0.02063688  0.019867766           18 
 3483000   0.69384256   -7.0158617    864.93231  0.020694141   0.01986125           11 
 3484000   0.68716974   -7.0215083    863.05902  0.020643394  0.019854737           15 
 3485000   0.68696196   -7.0239394    864.93917  0.020682429  0.019848227           20 
 3486000   0.69813213   -7.0366604    861.76354  0.020600582   0.01984173           36 
 3487000   0.69945184   -7.0144618    864.66165  0.020663934  0.019835218           36 
 3488000   0.67382483   -7.0111107    863.68865  0.020634763  0.019828771           19 
 3489000   0.69867093    -7.019947    864.82773  0.020656055  0.019822283           39 
 3490000   0.68227271   -6.9983784    865.10365  0.020656725  0.019815794           19 
 3491000   0.70350771   -7.0175358    863.76502  0.020618854  0.019809312           14 
 3492000    0.7086267    -6.983565    864.72715  0.020635909  0.019802843           23 
 3493000   0.69524794   -6.9707209    865.90732  0.020658157  0.019796407           11 
 3494000   0.68769953   -6.9770531    867.46896  0.020689491   0.01979001           12 
 3495000   0.68846982   -6.9792758    864.70663  0.020617707  0.019783604           12 
 3496000   0.69073051   -7.0201281    862.62742  0.020562248   0.01977713           10 
 3497000   0.68750836   -6.9943422    862.84468  0.020561545  0.019770666           24 
 3498000    0.6913444    -6.998699    863.16264  0.020563242  0.019764206           15 
 3499000   0.68709503   -7.0194061    863.60586  0.020567921  0.019757725           15 
 3500000   0.68852564   -6.9882389     864.2086  0.020576395  0.019751262           16 
 3501000    0.6887273   -7.0038439    864.61338  0.020580153  0.019744819           33 
 3502000   0.70004881   -6.9914097    866.97326  0.020630432  0.019738377           30 
 3503000   0.67921453   -7.0252814    863.88178  0.020550999  0.019731917           66 
 3504000   0.69586031   -7.0166978    865.76944  0.020590027  0.019725479           34 
 3505000   0.68575857   -7.0037916    865.56315  0.020579247  0.019719059           23 
 3506000   0.69483011    -7.003257    865.04195   0.02056099  0.019712605           31 
 3507000   0.68085821   -7.0084107    864.31524  0.020537859  0.019706145           20 
 3508000   0.68899503   -7.0124133    863.36955  0.020509539  0.019699679           35 
 3509000   0.68939863   -6.9963033    865.05836  0.020543801  0.019693234           14 
 3510000   0.69615197    -7.007612    861.86549  0.020462144  0.019686794            6 
 3511000   0.69742153   -7.0192835    865.10606   0.02053323  0.019680331           20 
 3512000   0.69379094   -7.0159029    863.62028  0.020492129  0.019673882           15 
 3513000   0.68726465   -7.0170372    864.71536  0.020512272  0.019667435           14 
 3514000   0.67107911   -7.0422367     862.9583  0.020464767  0.019660983           15 
 3515000   0.69684901   -7.0103261    865.49987    0.0205192  0.019654533           26 
 3516000   0.69218611   -6.9929294    863.63697  0.020469211  0.019648083           19 
 3517000   0.69480938   -7.0453027    864.70457  0.020488688  0.019641641           25 
 3518000   0.69192669   -7.0385378    861.67434  0.020411084   0.01963518           15 
 3519000   0.67396239   -7.0301835    862.47814  0.020424319  0.019628719           29 
 3520000   0.68385652   -7.0187302    864.51083  0.020466639  0.019622272            9 
 3521000   0.68154623     -7.03702    865.69866  0.020488939  0.019615821           17 
 3522000   0.69026737   -6.9974196     865.2021  0.020471373  0.019609387           19 
 3523000   0.66945061   -7.0453173    863.22905  0.020418891  0.019602955           44 
 3524000   0.66376546    -7.010278    863.99606  0.020431235  0.019596538           37 
 3525000   0.71240246   -7.0447221    863.63772  0.020416967  0.019590115           19 
 3526000   0.70368695   -7.0250145    863.49751  0.020407863  0.019583674           21 
 3527000   0.67972914   -7.0217547    866.86904  0.020481737  0.019577258           22 
 3528000    0.6907314   -7.0353129    863.26354  0.020390768  0.019570834           53 
 3529000   0.68000584   -7.0335584    865.98297  0.020449206  0.019564387           28 
 3530000   0.68191823   -7.0298645    865.28861  0.020427021  0.019557957           44 
 3531000   0.68904547   -7.0370428    864.01245  0.020391118  0.019551527           22 
 3532000   0.68727723   -7.0254487    865.23867  0.020414276  0.019545113           21 
 3533000   0.68968153   -7.0389455     864.8318  0.020398901  0.019538708            9 
 3534000   0.69520236   -7.0423978    863.91464  0.020371502  0.019532307           22 
 3535000    0.6792155   -7.0392901    862.06088  0.020322039  0.019525891           19 
 3536000   0.69148485   -7.0549173    864.95438  0.020384483  0.019519487           32 
 3537000   0.67926434   -7.0513183    862.02082  0.020309604  0.019513047           26 
 3538000   0.67893154   -7.0461407    864.57313   0.02036398  0.019506612           23 
 3539000   0.68438801   -7.0344502    865.54868  0.020381197  0.019500178           23 
 3540000    0.6673075   -7.0348312    864.03014  0.020339693  0.019493742           23 
 3541000   0.67452135   -7.0507576    864.63563  0.020348198  0.019487344           49 
 3542000   0.67415006   -7.0206234     863.4629  0.020314862  0.019480968           49 
 3543000   0.69528638   -7.0184542    865.57107  0.020358714  0.019474581           18 
 3544000   0.68899431   -7.0221044    866.49255  0.020374637  0.019468189           18 
 3545000   0.67892631    -7.030181    863.84935  0.020306755  0.019461802           17 
 3546000   0.69567987   -7.0104967    864.82051  0.020323851  0.019455416           13 
 3547000   0.68428405   -7.0410675    863.59565  0.020289344  0.019449036           37 
 3548000   0.68385698   -7.0420963    865.50853  0.020328554  0.019442634           34 
 3549000   0.68714886   -7.0444674    864.30641    0.0202946  0.019436254           29 
 3550000   0.69268457   -7.0162809    863.54151  0.020270927  0.019429869           15 
 3551000   0.68562126   -7.0595783    865.08046  0.020301334  0.019423463           16 
 3552000   0.68710503   -7.0342736    862.83178  0.020242863  0.019417077           19 
 3553000   0.68146603   -7.0395877    863.40978  0.020250722  0.019410691           26 
 3554000   0.68246409   -7.0339788    863.84294  0.020255181  0.019404274           39 
 3555000   0.68352619    -7.065033    863.77329   0.02024785   0.01939786           21 
 3556000   0.69461838    -7.065814    863.35877  0.020232442  0.019391442           19 
 3557000   0.66839246   -7.0424695    861.91655  0.020192966  0.019385013           25 
 3558000   0.68176576   -7.0574423    864.58704  0.020249837  0.019378589           28 
 3559000   0.68430323   -7.0694326    864.27795   0.02023691  0.019372168           37 
 3560000    0.6897001   -7.0517153    862.31706  0.020185325  0.019365775           80 
 3561000   0.66726916   -7.0696662    862.19681  0.020176842  0.019359345           42 
 3562000   0.67332993   -7.0708661    861.95293  0.020165472  0.019352929           31 
 3563000   0.66917834   -7.0524107    862.28538  0.020167588  0.019346508           36 
 3564000   0.67621278   -7.0568424     861.3458   0.02013996  0.019340122           50 
 3565000   0.67853629   -7.0502453    863.26466  0.020179165   0.01933374           44 
 3566000   0.68029587   -7.0684794     864.1541  0.020194291  0.019327368           29 
 3567000    0.6726038   -7.0621145    862.95232  0.020160553  0.019320976           48 
 3568000   0.66634442   -7.0417624    862.14121  0.020135959   0.01931458           52 
 3569000   0.69083034   -7.0519832    861.24266  0.020109336  0.019308203           93 
 3570000    0.6749514   -7.0287683     864.0729  0.020169769  0.019301812           93 
 3571000   0.68976096   -7.0418119    864.41356   0.02017207  0.019295432           37 
 3572000   0.66858782   -7.0509613    865.79533  0.020198659  0.019289073           47 
 3573000   0.68176503   -7.0459322    865.52953  0.020186807  0.019282709           50 
 3574000   0.68746838   -7.0600913    863.71358  0.020138817   0.01927635           42 
 3575000   0.69706383   -7.0499829    862.95493    0.0201155  0.019269985           45 
 3576000   0.66502305   -7.0657007    864.70794  0.020150726  0.019263601           36 
 3577000    0.6844416   -7.0549776    863.03247  0.020106059  0.019257208           17 
 3578000   0.67531241   -7.0502305    864.05908   0.02012435  0.019250848           47 
 3579000   0.67663883   -7.0742391    862.58659  0.020084442  0.019244484           34 
 3580000   0.68209175   -7.0688576    864.05408  0.020112991  0.019238103           36 
 3581000   0.68605913   -7.0381417    866.67926  0.020168465  0.019231751           37 
 3582000   0.67404218   -7.0472653    864.62956  0.020115149  0.019225404           35 
 3583000   0.67855849   -7.0573716    866.03961   0.02014233  0.019219067           22 
 3584000   0.67422014   -7.0708751     862.0283  0.020043441  0.019212702           45 
 3585000   0.69110476   -7.0450445    864.42949  0.020093666  0.019206348           19 
 3586000   0.67495751   -7.0538581    863.13693  0.020058025       0.0192           17 
 3587000   0.68255097   -7.0462105    863.26228  0.020055345  0.019193653           23 
 3588000   0.68303009   -7.0614137    861.26472  0.020003361  0.019187304           12 
 3589000   0.65056923   -7.0520607     863.2817   0.02004462   0.01918095           27 
 3590000   0.66860599   -7.0622551    864.99307  0.020078762  0.019174594           27 
 3591000   0.66612123   -7.0610422    862.97531  0.020026346  0.019168254           12 
 3592000   0.67340851   -7.0240206    863.90337  0.020042302  0.019161939           17 
 3593000   0.67300211   -7.0417587    863.46715  0.020026606  0.019155607           18 
 3594000   0.68539794   -7.0554328    862.74132  0.020004204  0.019149264           21 
 3595000    0.6722798   -7.0560069    863.18876  0.020009012  0.019142923           25 
 3596000   0.69438083   -7.0652633    863.36818  0.020007605  0.019136579           48 
 3597000   0.68498385   -7.0470026    863.23899   0.01999905  0.019130262           20 
 3598000   0.66891536    -7.073111    864.30599  0.020018204  0.019123951           17 
 3599000     0.678653    -7.050104    863.23165  0.019987766  0.019117639           23 
 3600000   0.68756727   -7.0570385    863.42656  0.019986726  0.019111325           34 
 3601000   0.68298465   -7.0654949    863.78449  0.019989459  0.019105016           46 
 3602000   0.66849789   -7.0502184     863.7744  0.019983676  0.019098717           41 
 3603000   0.68592145   -7.0520758    862.83104  0.019956311  0.019092414           45 
 3604000   0.68672181   -7.0738536     863.4358  0.019964757  0.019086114           25 
 3605000   0.68789072   -7.0629703    864.29219  0.019979015  0.019079812           27 
 3606000   0.66855158   -7.0784142    865.36823  0.019998341    0.0190735           30 
 3607000   0.68425316   -7.0591916    863.01211  0.019938363  0.019067184           36 
 3608000   0.68532619   -7.0708553    864.74684  0.019972904  0.019060881           34 
 3609000   0.68157303   -7.0269705    866.28314  0.020002843  0.019054602           48 
 3610000   0.67254409   -7.0507849    864.01002   0.01994483  0.019048325           30 
 3611000   0.68367801   -7.0609043    863.83971  0.019935376  0.019042044           27 
 3612000    0.6689746   -7.0548481    864.53449  0.019945886  0.019035755           36 
 3613000   0.66966741   -7.0533618    864.48941  0.019939326  0.019029482           35 
 3614000   0.67721024   -7.0590198    864.89402  0.019943138  0.019023219           46 
 3615000   0.67916234   -7.0470089    864.84686  0.019936534  0.019016954           36 
 3616000   0.66152838   -7.0506598     864.8415  0.019930897  0.019010696           41 
 3617000   0.67435711    -7.051902    863.88634  0.019903381  0.019004449           36 
 3618000   0.67985294    -7.064367    866.02207  0.019947072  0.018998181          182 
 3619000   0.65666027   -7.0621967    863.49102  0.019883279  0.018991908          127 
 3620000   0.67434695   -7.0631004    863.30482  0.019873499  0.018985621           34 
 3621000   0.67769081   -7.0518571     865.8655  0.019926942  0.018979361           37 
 3622000   0.67346474   -7.0411131    862.70418  0.019848707  0.018973109           49 
 3623000    0.6729534   -7.0771363    865.58911  0.019909585  0.018966871           35 
 3624000   0.67748755   -7.0631587    863.94678  0.019866326  0.018960628           20 
 3625000   0.66538167   -7.0546395    865.46583  0.019895766  0.018954395           36 
 3626000   0.66024226   -7.0643307    864.45649  0.019867082  0.018948165           25 
 3627000    0.6609948   -7.0811007    866.83959  0.019916359  0.018941928           20 
 3628000   0.67274464   -7.0465541    866.07897  0.019893398  0.018935694           43 
 3629000   0.67707505   -7.0716495    864.36764  0.019848619  0.018929463           39 
 3630000   0.66571094   -7.0662257    866.23893   0.01988611   0.01892323           26 
 3631000   0.67243421   -7.0577677    865.76258    0.0198697  0.018916999           25 
 3632000   0.67595142   -7.0874622     865.6437  0.019861502   0.01891076           26 
 3633000   0.68112184   -7.0997358    862.25519   0.01977831  0.018904488           21 
 3634000   0.66727394    -7.071573    864.92091  0.019833996  0.018898248           33 
 3635000   0.66506183   -7.0767513    863.67132  0.019799893  0.018892011           19 
 3636000   0.68528098   -7.1014905    864.79615  0.019820227  0.018885771           33 
 3637000   0.66034855    -7.065994    865.46107  0.019830013  0.018879554           29 
 3638000   0.67020185   -7.0596918    866.75271  0.019854148  0.018873348           28 
 3639000   0.67962095   -7.0749337     863.6939  0.019778646  0.018867135           39 
 3640000   0.67700585   -7.0925745    863.26931  0.019763492  0.018860915           38 
 3641000   0.66227403   -7.0825356    863.97363  0.019774184   0.01885469           33 
 3642000   0.66638745   -7.0962794       863.52  0.019758375  0.018848464           24 
 3643000   0.66792423   -7.0964966    862.78978  0.019736247  0.018842204           20 
 3644000   0.66986993   -7.1096715    863.84084  0.019754867   0.01883596           38 
 3645000   0.65694959    -7.075672    864.17816   0.01975716   0.01882971           34 
 3646000   0.66951887   -7.0814204    864.34348  0.019755519  0.018823457           52 
 3647000   0.66390508   -7.0800606    863.73732  0.019736252  0.018817215           27 
 3648000   0.67241362   -7.0950708    864.29583    0.0197436  0.018810956           44 
 3649000   0.68168841   -7.0933763    863.45905   0.01971908  0.018804703           24 
 3650000   0.66171219   -7.1101083    861.81678  0.019676182  0.018798444           23 
 3651000   0.67030429   -7.0910643    865.59902  0.019757122  0.018792197           38 
 3652000   0.66687203   -7.0997588    863.27691  0.019698725  0.018785959           20 
 3653000   0.66831664   -7.0983059    863.75797  0.019704306  0.018779725           44 
 3654000   0.66340759   -7.0821346    864.77014  0.019721997  0.018773499           37 
 3655000   0.65405632   -7.0861277    864.27793  0.019705379   0.01876727           33 
 3656000   0.66088903   -7.0830305    864.44022  0.019703689   0.01876105           35 
 3657000   0.67038484   -7.0725815    866.57733     0.019747  0.018754833           40 
 3658000    0.6618666   -7.1051542    864.08996  0.019684936  0.018748642           23 
 3659000   0.66621894   -7.0904038    862.93386  0.019653226  0.018742438           22 
 3660000    0.6644147   -7.0941553    865.13904  0.019698066  0.018736235           45 
 3661000   0.66402336   -7.1074428    864.58053  0.019679972  0.018730021           54 
 3662000   0.65886537   -7.0982401    863.83404  0.019657611  0.018723811           39 
 3663000   0.66344633   -7.0984373    862.26435  0.019616534   0.01871759           36 
 3664000   0.66900634   -7.0975371    864.92932  0.019671791  0.018711387           48 
 3665000   0.65383752   -7.0829807    864.85995  0.019664847  0.018705183           45 
 3666000    0.6587308   -7.0862082    863.80108  0.019635413  0.018698976           25 
 3667000   0.65704826   -7.0933136    862.50172   0.01960053  0.018692772           54 
 3668000   0.66415708   -7.0924101    863.47586  0.019617318  0.018686579           16 
 3669000   0.66272388   -7.0889233    864.68855  0.019639515  0.018680395           44 
 3670000   0.64867879   -7.0964367    863.78842  0.019613724  0.018674212           29 
 3671000   0.66211274   -7.0591451    865.59235  0.019649332  0.018668014           30 
 3672000     0.649039   -7.1123593    863.86877  0.019604865  0.018661831           37 
 3673000   0.67373119   -7.1071186    862.08195  0.019558988  0.018655628           25 
 3674000   0.66799096   -7.0971216     864.2013  0.019601735  0.018649423           54 
 3675000   0.67781595   -7.1023521    865.24821  0.019620141  0.018643222           41 
 3676000   0.67479772   -7.1120716    864.33646  0.019594134  0.018637024           66 
 3677000   0.65081655   -7.0896776    864.24573  0.019586749  0.018630826           31 
 3678000   0.67155045   -7.1141113    862.63019   0.01954482  0.018624607           56 
 3679000   0.68257343   -7.0968397    863.41614   0.01955731  0.018618418           14 
 3680000   0.67068587   -7.0747082    863.20499  0.019547214  0.018612222           21 
 3681000   0.64841031   -7.1029337    863.34801  0.019545142  0.018606039           35 
 3682000   0.66969335     -7.09167    863.24009  0.019537391  0.018599884           13 
 3683000   0.65755155      -7.1032     864.0382  0.019550145  0.018593725           33 
 3684000   0.66528079   -7.0813936    865.30104  0.019573404  0.018587555           20 
 3685000   0.65871096   -7.1267306    863.45693  0.019526389  0.018581391           20 
 3686000   0.66724759   -7.1190997    863.65753  0.019525627  0.018575211           18 
 3687000   0.66452204   -7.1236148    862.72158  0.019499177  0.018569031           13 
 3688000   0.67305515   -7.1257799    863.44113  0.019510148  0.018562864           17 
 3689000    0.6838252   -7.1077581    863.91945  0.019515665  0.018556716           17 
 3690000   0.66350441   -7.0977028     865.7108  0.019550831  0.018550563           20 
 3691000   0.66124426   -7.0992193    864.45332  0.019517143  0.018544449           14 
 3692000   0.66233101   -7.0945962    864.30628  0.019508538   0.01853831           45 
 3693000   0.65674933   -7.0824803    864.85404  0.019515616  0.018532176           35 
 3694000   0.66915115   -7.1111078    863.34997  0.019476403  0.018526055           14 
 3695000   0.65017597   -7.1072239    865.17333  0.019512254  0.018519912           42 
 3696000   0.65746228   -7.0966149    865.04508  0.019504083  0.018513789           44 
 3697000    0.6541624   -7.0907283    864.82642  0.019493878  0.018507671           22 
 3698000   0.63899195   -7.1033324    863.88882  0.019467478  0.018501549           21 
 3699000   0.64187462    -7.086573    867.30239  0.019539118  0.018495432           18 
 3700000   0.65489606   -7.1058846    864.90436  0.019479828  0.018489321           52 
 3701000   0.66324872   -7.0844929    865.85062  0.019495871  0.018483204           28 
 3702000   0.66473619   -7.1057011    863.10313  0.019428758  0.018477082           22 
 3703000   0.64418261   -7.1183362    864.77922   0.01946123  0.018470963           40 
 3704000   0.66351563   -7.1051034    864.34543  0.019446216  0.018464841           54 
 3705000   0.65883892   -7.1270966     864.3996  0.019442186  0.018458711           27 
 3706000    0.6608589   -7.1180618       863.27   0.01941154  0.018452589           14 
 3707000   0.67329035   -7.0868618    865.02738  0.019445809  0.018446473           16 
 3708000    0.6647939   -7.1092536    863.01999  0.019395451  0.018440373           35 
 3709000   0.67018785   -7.0851842    865.47415  0.019445361  0.018434291           37 
 3710000   0.66276073   -7.1040113    863.88246  0.019404368  0.018428213           21 
 3711000   0.65271336   -7.1072714    865.06105  0.019425605  0.018422127           21 
 3712000   0.65336979   -7.1072479    865.07036  0.019420581  0.018416051           20 
 3713000   0.65883199   -7.1125974    863.93055  0.019389769  0.018409954           15 
 3714000    0.6477406    -7.095849     864.7753  0.019403502  0.018403848           31 
 3715000   0.65400841   -7.1173356    864.99796  0.019403274  0.018397751           47 
 3716000   0.65014128   -7.1313586     864.2492  0.019381261  0.018391655           28 
 3717000   0.64939694   -7.1300114    863.66143   0.01936287  0.018385563           63 
 3718000   0.65991255   -7.1206153     864.2507  0.019370869  0.018379454           57 
 3719000   0.64479481   -7.1344437    865.73441  0.019398907  0.018373364           54 
 3720000   0.66523014   -7.1346832    863.65225  0.019347049  0.018367284           25 
 3721000   0.64934049   -7.1097531    865.08503  0.019373937  0.018361195           14 
 3722000   0.65702439   -7.1236377    864.12377   0.01934721  0.018355102           30 
 3723000   0.64130484   -7.1115729     863.7428  0.019333485  0.018349016           34 
 3724000   0.65381183   -7.1210315     864.8197  0.019352392  0.018342921           27 
 3725000   0.65423847   -7.1264186    863.71874  0.019322567  0.018336811           26 
 3726000   0.65344999   -7.1219063    864.72892  0.019339974  0.018330722           37 
 3727000   0.65029496   -7.1311134    864.92681   0.01933921  0.018324641           41 
 3728000   0.65360226   -7.1087096    864.42581  0.019322823  0.018318552           21 
 3729000   0.65955966   -7.1299577    863.64156  0.019300115  0.018312458           23 
 3730000   0.65187611   -7.1285047    863.45176  0.019290701  0.018306364           25 
 3731000     0.660924     -7.12149    863.36202  0.019283526   0.01830029           17 
 3732000     0.658511   -7.1193676    863.75153  0.019287056  0.018294225           24 
 3733000    0.6631446   -7.1076777     864.3508  0.019295267   0.01828817           24 
 3734000   0.66721782   -7.1036412    865.78921  0.019322202  0.018282128           26 
 3735000   0.64953433   -7.1129548    863.54133  0.019266875  0.018276101           17 
 3736000   0.65527743   -7.1141808    864.75869  0.019288872  0.018270076           58 
 3737000   0.65419902   -7.1147669    866.14651  0.019314658  0.018264046           31 
 3738000   0.66145477   -7.1239666    863.58068  0.019252289  0.018258003           49 
 3739000   0.64260039   -7.1216907    865.04215  0.019279713  0.018251952           23 
 3740000   0.65869704   -7.1231683    864.44419  0.019261234  0.018245913           66 
 3741000   0.64496862   -7.1061133    863.79675  0.019241663   0.01823988           60 
 3742000   0.66566715   -7.1367831    863.41919  0.019228113  0.018233846           37 
 3743000   0.66397779    -7.121719    864.74974  0.019252599    0.0182278           22 
 3744000   0.63788128   -7.1310171    862.02857  0.019186889  0.018221769           26 
 3745000    0.6549561   -7.1078371    864.80509  0.019243549  0.018215728           27 
 3746000   0.65266121   -7.1248053    865.31161   0.01924968  0.018209704           47 
 3747000   0.65645173   -7.1252519    865.91802  0.019258029  0.018203679           44 
 3748000    0.6561414   -7.1432424    863.89275  0.019207861  0.018197641           24 
 3749000   0.65235352   -7.1408894    862.43413  0.019170315  0.018191606           38 
 3750000   0.65584189   -7.1206263     865.1062  0.019224582  0.018185554           40 
 3751000   0.66147717   -7.1582624    863.64414  0.019186976  0.018179518           41 
 3752000   0.66341868   -7.1237795    865.28379  0.019218279  0.018173482           49 
 3753000   0.65736276   -7.1306256    865.90132   0.01922687  0.018167458           21 
 3754000   0.65478831   -7.1283339    865.11641  0.019204325  0.018161453           35 
 3755000     0.637543   -7.1166996    864.16894  0.019178183  0.018155454           30 
 3756000   0.65311403   -7.1466573    863.96094  0.019168462  0.018149419           44 
 3757000   0.66074611   -7.1294271    865.06499  0.019187849   0.01814339           31 
 3758000   0.64186055   -7.1259283    866.15333  0.019206877  0.018137367           48 
 3759000   0.65220486    -7.138185    864.48464  0.019164774  0.018131345           98 
 3760000    0.6706641   -7.1482966    863.19033  0.019130991  0.018125314           32 
 3761000    0.6439507   -7.1325495    865.41468   0.01917519  0.018119301           30 
 3762000   0.64958344   -7.1170661    864.25179  0.019144333    0.0181133           37 
 3763000   0.65271796   -7.1132242    866.11753  0.019180564  0.018107309           41 
 3764000   0.65403448   -7.1448732    864.09961  0.019130792  0.018101316           45 
 3765000   0.64833196    -7.133572    863.50102  0.019112462  0.018095312           56 
 3766000    0.6580036   -7.1330534    863.58946  0.019109344    0.0180893           70 
 3767000   0.66083182    -7.167961    864.91667  0.019133631  0.018083285          109 
 3768000   0.65726742   -7.1576335    863.35345  0.019093981  0.018077296           58 
 3769000   0.63330883   -7.1643551    864.09073  0.019105217  0.018071278           74 
 3770000   0.65625998   -7.1670088    864.44582  0.019107998  0.018065266           62 
 3771000   0.63815055   -7.1705407    864.49858  0.019104097  0.018059278           53 
 3772000    0.6314903   -7.1634346    862.48894  0.019054634  0.018053283           66 
 3773000   0.64013751   -7.1406126    865.64009  0.019119182  0.018047288           62 
 3774000   0.64857454   -7.1639417    862.91232  0.019053885  0.018041296          124 
 3775000   0.63892914   -7.1512195    863.94153  0.019071557  0.018035301           70 
 3776000   0.65007127   -7.1718571    863.42944  0.019055205  0.018029315           83 
 3777000   0.64739875   -7.1646467     865.0026  0.019084869  0.018023321           90 
 3778000   0.63661955   -7.1465102     863.6729  0.019050488  0.018017332           24 
 3779000   0.63957932   -7.1472335     866.1305  0.019099641  0.018011359           35 
 3780000   0.64432612    -7.131399    866.23678  0.019096931  0.018005383           29 
 3781000   0.66021867   -7.1543646    863.65143  0.019034899  0.017999406           48 
 3782000   0.65137817   -7.1532603    863.29846  0.019022088  0.017993416           72 
 3783000   0.65301941   -7.1631115    863.26279  0.019016274  0.017987448           46 
 3784000   0.63956037   -7.1614675    865.92243  0.019069821   0.01798148           37 
 3785000   0.64954679   -7.1325215    863.86148  0.019019407  0.017975523           31 
 3786000   0.64558535   -7.1495685    864.24153  0.019022749  0.017969563           31 
 3787000   0.66151337   -7.1323976    863.49477  0.019001293  0.017963608           67 
 3788000   0.64791332   -7.1455986    863.30116  0.018992018  0.017957632           63 
 3789000   0.65896971   -7.1670573    865.18832  0.019028511  0.017951661           40 
 3790000   0.64427077   -7.1469426    864.89588   0.01901706  0.017945691           28 
 3791000   0.67186656   -7.1599361    864.22234  0.018997238  0.017939744           49 
 3792000   0.65242521   -7.1330186    865.09913  0.019011496  0.017933817           23 
 3793000   0.64694476   -7.1375574    864.94364  0.019003068  0.017927878           58 
 3794000   0.64381565   -7.1471347    863.41154  0.018964407  0.017921927           66 
 3795000   0.64430989   -7.1624976    863.24622   0.01895578  0.017915986           99 
 3796000   0.64231224   -7.1528521    864.78883  0.018984651  0.017910027           92 
 3797000   0.65550173   -7.1492662    863.60581  0.018953687  0.017904069          107 
 3798000   0.63818414    -7.142651    864.65656  0.018971752  0.017898122           44 
 3799000   0.64592206   -7.1500644    864.90338  0.018972172  0.017892202           74 
 3800000   0.62673865   -7.1515192    863.68894  0.018940547   0.01788627           76 
 3801000   0.63885951   -7.1461577    863.92831  0.018940812  0.017880337           55 
 3802000   0.64792385   -7.1304485    862.98083  0.018915063  0.017874416           66 
 3803000   0.64493143    -7.182085    862.05768  0.018889861  0.017868488          112 
 3804000   0.64786062   -7.1414577     864.6371  0.018941402  0.017862525           93 
 3805000   0.64995629   -7.1563935    864.77978  0.018939548  0.017856592          122 
 3806000   0.63985587   -7.1771069    864.59858  0.018930605  0.017850648          107 
 3807000   0.64167318   -7.1533095    862.74317  0.018885018  0.017844699          138 
 3808000   0.63553198   -7.1873086    861.92184  0.018862085  0.017838753          104 
 3809000   0.64980491   -7.1576769    864.35523  0.018910371  0.017832813          114 
 3810000   0.64249783   -7.1640529    862.73803  0.018870036  0.017826879          175 
 3811000   0.63242055   -7.1698659    864.31539  0.018899576  0.017820928          221 
 3812000   0.64367201   -7.1610906    862.97251  0.018865261  0.017814984          121 
 3813000   0.63679868   -7.1407663    864.83855  0.018901096  0.017809045           72 
 3814000    0.6429274   -7.1565937    865.73755  0.018915783  0.017803121           78 
 3815000     0.629328   -7.1695915    863.29648  0.018857503  0.017797182          122 
 3816000   0.62969385   -7.1831332    864.17818  0.018871816  0.017791237           89 
 3817000   0.64011687   -7.1627705      863.787  0.018858331  0.017785291          118 
 3818000   0.64092822   -7.1867026    863.91842   0.01885626   0.01777936           89 
 3819000   0.64686013   -7.1494823     864.8712  0.018872113  0.017773438           52 
 3820000   0.64326706   -7.1660774    863.56511   0.01883868  0.017767518           63 
 3821000   0.64387862    -7.158506    863.63344   0.01883524  0.017761587           28 
 3822000   0.64229203   -7.1766366    863.37305  0.018824635   0.01775566           40 
 3823000   0.63405792   -7.1824975      863.683  0.018826467  0.017749724           81 
 3824000   0.63729119   -7.1653684    865.07855  0.018851956  0.017743778          104 
 3825000   0.64346637   -7.1648967    863.68685  0.018816707  0.017737829           36 
 3826000   0.63920332   -7.2203249    860.85976  0.018750213  0.017731893          133 
 3827000   0.61887036   -7.2006855    862.77104  0.018786931  0.017725942           46 
 3828000   0.63116939   -7.1675112    863.58235  0.018799686  0.017720004           92 
 3829000   0.64852346   -7.1726956    863.26075  0.018787776  0.017714056           40 
 3830000   0.64444394   -7.1686545     863.4206  0.018786349  0.017708114           33 
 3831000   0.64107783   -7.1843957    862.90295  0.018770185  0.017702179           46 
 3832000   0.63850916   -7.1963263    862.83302  0.018763766  0.017696234           74 
 3833000   0.63173571   -7.1870914     861.1504  0.018722289  0.017690292           70 
 3834000   0.64324531   -7.1823831    863.50929  0.018768677  0.017684369           89 
 3835000   0.63567704   -7.1810975    861.80438  0.018726736  0.017678442           62 
 3836000   0.64884956     -7.20031    862.21955  0.018730873  0.017672526           42 
 3837000   0.63161299   -7.1914236     863.5332  0.018754522  0.017666594           98 
 3838000   0.63888429   -7.1877339    862.39976  0.018725025  0.017660665           68 
 3839000    0.6347419   -7.2036147    864.16697  0.018758509  0.017654756           48 
 3840000    0.6420083    -7.207446    863.69094  0.018743293  0.017648855           88 
 3841000   0.64706325   -7.2034805    861.72293  0.018695716  0.017642936           70 
 3842000   0.63278593    -7.184594    861.71614  0.018690702  0.017637036           74 
 3843000   0.63793447   -7.1807182    862.98435  0.018713339   0.01763115          111 
 3844000   0.63560758   -7.1875808    862.46607  0.018697235  0.017625259          115 
 3845000   0.63265465   -7.1748028    862.74195  0.018698352  0.017619366           50 
 3846000   0.63792523   -7.2074887    862.22415  0.018682271  0.017613479           69 
 3847000   0.64166165   -7.1625048    864.19859  0.018720184  0.017607584           75 
 3848000   0.63907514   -7.1841694    864.58372   0.01872366   0.01760168          137 
 3849000   0.64617539   -7.1813964    864.31954  0.018713076  0.017595783           51 
 3850000   0.63363821    -7.183373    862.75327  0.018674313  0.017589913           86 
 3851000   0.63592085   -7.1635445    862.21403  0.018657795   0.01758403           98 
 3852000   0.62840416   -7.1739953    863.26378  0.018675662   0.01757816           70 
 3853000   0.63881165   -7.1641122    863.73904  0.018681094  0.017572298           58 
 3854000   0.63877611   -7.1926555    863.27935  0.018666307  0.017566424          142 
 3855000   0.62680754    -7.194437    863.98878    0.0186768  0.017560536           93 
 3856000   0.64663439   -7.1779105    862.14489  0.018632108  0.017554645           89 
 3857000   0.63530198   -7.1991108    864.17062  0.018671044  0.017548764          146 
 3858000    0.6379804   -7.1791814    863.60915  0.018654077  0.017542886           79 
 3859000   0.62903173   -7.1971332    861.03261  0.018593604  0.017536995          138 
 3860000   0.61892996   -7.2109217    861.94835  0.018608557  0.017531111          116 
 3861000   0.63948045   -7.1887798     862.2739  0.018610764   0.01752523          125 
 3862000   0.64265375   -7.1807405    861.69316  0.018593414  0.017519345           86 
 3863000   0.63846633   -7.1913303    862.11435  0.018597686  0.017513471           37 
 3864000    0.6318144   -7.1852162     862.6313  0.018604022  0.017507608           86 
 3865000   0.62539074   -7.2125828    863.09303  0.018609164  0.017501744           91 
 3866000   0.63950005   -7.2028426    862.65247  0.018594854  0.017495894           53 
 3867000   0.63719568    -7.207905    864.28615  0.018625251  0.017490033          104 
 3868000   0.64616238   -7.1952307    863.81595  0.018610306  0.017484156           97 
 3869000   0.63135489   -7.2061809    862.34197  0.018573748  0.017478284           60 
 3870000   0.63943103   -7.1735626    864.41455  0.018613578  0.017472429           66 
 3871000   0.63010371    -7.182532    863.24518  0.018583595  0.017466581          130 
 3872000   0.63293569   -7.1944376     866.0986  0.018640207  0.017460721           66 
 3873000   0.62084341   -7.1924598    863.84329  0.018586868  0.017454884          119 
 3874000   0.64283457   -7.1713172    864.82639  0.018603218  0.017449033           38 
 3875000   0.62558674   -7.1910004    863.03947  0.018559989  0.017443191           45 
 3876000   0.63603416   -7.1836463     862.7683   0.01854937  0.017437359           47 
 3877000   0.64643452   -7.1943281    863.97803  0.018570588  0.017431528           97 
 3878000   0.61867922   -7.1793497    862.83176  0.018541167  0.017425693          133 
 3879000   0.62838592   -7.1804447    862.89343  0.018537712  0.017419867          120 
 3880000   0.63584972   -7.2039871    863.01524  0.018535551  0.017414033           51 
 3881000   0.63059835   -7.1802364    861.59762  0.018500335  0.017408184           49 
 3882000   0.63525806   -7.2032051    862.90317  0.018523595  0.017402343           87 
 3883000    0.6412303   -7.2108017    863.73407  0.018536657  0.017396501           78 
 3884000   0.63059309   -7.2143771    863.51032  0.018527084  0.017390662           89 
 3885000    0.6217006   -7.2078112    861.05335  0.018469613  0.017384832           41 
 3886000   0.62854443   -7.1984828    861.57526  0.018476052  0.017379006           53 
 3887000   0.62971286   -7.1891616    863.25905  0.018507398  0.017373188           97 
 3888000   0.62816228   -7.1802162    861.92657  0.018474078  0.017367374           64 
 3889000   0.62813757   -7.1674798    865.37965   0.01854332  0.017361557           32 
 3890000    0.6256462   -7.1971381    864.48355  0.018519356  0.017355742           48 
 3891000   0.62403203   -7.2071683    861.99128   0.01846122  0.017349927           69 
 3892000   0.62974349   -7.1930813    863.65523  0.018492104  0.017344124           35 
 3893000   0.62800694   -7.1852337    863.63765  0.018486978  0.017338315           75 
 3894000   0.62929301   -7.1795593    863.20791  0.018473034  0.017332511           50 
 3895000   0.62905688   -7.1757188    862.20022  0.018446731  0.017326719           81 
 3896000   0.62903953   -7.1899357    862.94958  0.018458025  0.017320919           58 
 3897000   0.62029416   -7.1860112    863.50399  0.018465144  0.017315141           64 
 3898000   0.63275708   -7.2205106    861.10605  0.018409143  0.017309364           56 
 3899000   0.62140591   -7.1850382      863.243  0.018450094  0.017303579           35 
 3900000    0.6334651   -7.1982378    862.21047  0.018423301   0.01729781           45 
 3901000   0.63569656   -7.2048096    862.02299  0.018414573  0.017292025           79 
 3902000   0.62976513   -7.1896932    861.39937  0.018396535  0.017286237           67 
 3903000   0.63802179    -7.192967    862.22263  0.018409399   0.01728045           42 
 3904000   0.63502937   -7.1822998    862.23486  0.018404945  0.017274667           49 
 3905000   0.63527402   -7.2227827    861.50863  0.018384734  0.017268873           35 
 3906000   0.62683621   -7.2143349    861.93315  0.018389084  0.017263078           59 
 3907000   0.63441605   -7.2070085    862.16916  0.018389411  0.017257292           62 
 3908000   0.63454105    -7.210984    863.29484   0.01840871  0.017251495           64 
 3909000    0.6232597   -7.1979279    862.45001   0.01838599  0.017245698           70 
 3910000   0.61333691   -7.2175061    861.77712  0.018366946  0.017239911           76 
 3911000   0.62501435   -7.2205683    860.21169  0.018328895  0.017234086           97 
 3912000   0.62171361   -7.2359776    859.94779  0.018318588  0.017228274           41 
 3913000   0.62534408   -7.2084591     861.9338  0.018356202  0.017222473           69 
 3914000   0.62731713    -7.233766    859.61967  0.018302241  0.017216668           61 
 3915000   0.62866686   -7.2145559     860.5254  0.018316845  0.017210867           46 
 3916000   0.63131342    -7.242855    861.24476  0.018327476  0.017205062           60 
 3917000   0.61264097   -7.2173278     861.0156  0.018317922   0.01719927           80 
 3918000   0.63416243   -7.2182217    861.64148  0.018326559  0.017193486           69 
 3919000   0.62244126   -7.2212392    863.51424  0.018361704  0.017187694           52 
 3920000    0.6304129   -7.2244108    860.89837  0.018301411  0.017181899           75 
 3921000   0.62723357   -7.2380051    860.48422  0.018287941  0.017176102           67 
 3922000   0.62494909   -7.2257402    861.07463  0.018295823  0.017170308          129 
 3923000   0.61662731   -7.2362218    862.88558  0.018329628  0.017164515          108 
 3924000   0.62563879   -7.2171207    859.94828  0.018262578  0.017158722           56 
 3925000   0.61850192   -7.2515645    859.86955  0.018256254  0.017152921          139 
 3926000    0.6222973   -7.2212309    860.48087   0.01826458  0.017147134          115 
 3927000   0.61871365   -7.2094011    861.91176  0.018290293  0.017141348          146 
 3928000   0.62709925     -7.21052    861.02307  0.018266783  0.017135566           81 
 3929000   0.61592843   -7.2234466    862.08739  0.018284707  0.017129803           53 
 3930000   0.62392469   -7.2467125    861.70552  0.018271958  0.017124032          137 
 3931000    0.6225768   -7.2167532    861.33703  0.018259498  0.017118257           36 
 3932000   0.62119155   -7.2263801    861.33853  0.018254886  0.017112494           78 
 3933000   0.63463733   -7.2268707    862.79896  0.018281188  0.017106729           83 
 3934000   0.62456192   -7.2377052    860.64479   0.01823091  0.017100966          150 
 3935000   0.63702147   -7.2408996    861.52616  0.018244942  0.017095203          122 
 3936000   0.60371891   -7.2310353    861.53465  0.018240486  0.017089446           98 
 3937000   0.61333114   -7.2169454    861.71831  0.018239741  0.017083695          152 
 3938000   0.63698932   -7.2066682    862.82669  0.018258564  0.017077941          108 
 3939000   0.61456188   -7.2319206    861.87514  0.018233798  0.017072177           82 
 3940000    0.6179898   -7.2457178    858.82414  0.018164639  0.017066423          156 
 3941000   0.61457322   -7.2380946    860.60159  0.018197615  0.017060653           62 
 3942000    0.6202338   -7.2159107    863.44117  0.018253027  0.017054909           46 
 3943000    0.6239064    -7.227565    861.08779   0.01819866  0.017049156           88 
 3944000   0.62696192    -7.218509    861.85202  0.018210193  0.017043397           76 
 3945000   0.61709215   -7.2111612    863.28311  0.018235807  0.017037643           55 
 3946000    0.6202722   -7.2168544    860.35286  0.018169303  0.017031907           56 
 3947000   0.62168432   -7.2268873    860.35702  0.018164788  0.017026157           88 
 3948000   0.60927381     -7.24226     859.9549  0.018151699  0.017020413           53 
 3949000   0.61254045   -7.2395359     861.7371  0.018184711  0.017014669          111 
 3950000   0.61881834   -7.2184317    861.94681  0.018184532  0.017008937           85 
 3951000   0.62729339   -7.2194402    860.43367  0.018148015  0.017003205           63 
 3952000   0.59734415    -7.231478    860.98926  0.018155138  0.016997472           74 
 3953000   0.62358211   -7.2416482     861.4048  0.018159305  0.016991739           89 
 3954000   0.61247783   -7.2471651    861.16058  0.018149565  0.016986006          144 
 3955000   0.61513976   -7.2202471    862.82066  0.018179955  0.016980273          109 
 3956000   0.61885164   -7.2478094    863.65519  0.018192939  0.016974539           70 
 3957000    0.6052126   -7.2613415    861.08608  0.018134236  0.016968811          113 
 3958000   0.62218022   -7.2342804    861.98809  0.018148646  0.016963088          166 
 3959000   0.61188414   -7.2359597    860.58852  0.018114602  0.016957371          128 
 3960000   0.61289564   -7.2140902    862.37955  0.018147718  0.016951648          155 
 3961000   0.62394118   -7.2603714    859.60805  0.018084828  0.016945933          197 
 3962000   0.62102035     -7.24936    860.53891  0.018099843  0.016940216          182 
 3963000   0.61140795   -7.2320575    862.16783  0.018129528  0.016934513          124 
 3964000   0.61750856   -7.2347334    861.38037    0.0181084  0.016928808          148 
 3965000   0.62081313   -7.2307538    860.81082  0.018091862   0.01692309          101 
 3966000   0.60854621   -7.2358813    861.14846  0.018094395  0.016917375          133 
 3967000   0.61635095    -7.241479    860.55282  0.018077322  0.016911669          147 
 3968000   0.61152646   -7.2648991    860.16204  0.018064559  0.016905953          324 
 3969000   0.62083799   -7.2483902    861.08458  0.018079377   0.01690024          157 
 3970000   0.60456146   -7.2378748    863.36683  0.018122729  0.016894543          173 
 3971000   0.61120684   -7.2647419    863.51996  0.018121379  0.016888858          120 
 3972000   0.60766434   -7.2479679    860.57296  0.018054988  0.016883167           66 
 3973000   0.63514736    -7.248215    860.94437  0.018058234   0.01687748          154 
 3974000   0.61679618   -7.2561977    860.27561  0.018039666  0.016871795          134 
 3975000   0.61494232   -7.2558456     860.8497  0.018047164  0.016866117          145 
 3976000   0.60865765   -7.2559804    859.78824  0.018020377  0.016860429           89 
 3977000   0.61909078   -7.2494401    861.05415  0.018042372  0.016854748          233 
 3978000    0.6091084   -7.2491421     861.2244  0.018041403  0.016849064          145 
 3979000   0.60791558   -7.2558341    860.88519  0.018029764  0.016843374          105 
 3980000    0.6067619   -7.2626271    860.25213  0.018011979  0.016837682          108 
 3981000   0.62079567   -7.2516834    861.24311  0.018028199  0.016831997          101 
 3982000   0.62148561   -7.2592358    861.91253  0.018037681  0.016826314          179 
 3983000   0.62532187   -7.2527703    860.22528  0.017997851  0.016820635           81 
 3984000   0.60949935   -7.2459514    861.22333   0.01801421  0.016814962          125 
 3985000     0.606475   -7.2287395    860.74476  0.017999681  0.016809305          146 
 3986000    0.5953635   -7.2568607    861.55527   0.01801211  0.016803634          124 
 3987000   0.61401705   -7.2625531     859.2155  0.017958689  0.016797964           96 
 3988000   0.61699397   -7.2714243    862.16824  0.018015886  0.016792281           96 
 3989000   0.61464461    -7.265201    862.81071  0.018024791  0.016786602          124 
 3990000   0.61572193   -7.2398547    860.77815  0.017977823  0.016780942          174 
 3991000   0.61575279   -7.2446195    861.10764  0.017980198  0.016775277          208 
 3992000   0.60460189   -7.2514709    859.85337  0.017949511  0.016769612          165 
 3993000   0.61520174   -7.2517907    860.82237  0.017965238  0.016763962          134 
 3994000   0.61122706   -7.2427829    861.41354  0.017973075  0.016758313          144 
 3995000   0.59810014   -7.2537925     860.8077  0.017955939  0.016752648          167 
 3996000   0.60705454   -7.2578085     861.2987  0.017961685  0.016746984          203 
 3997000   0.60834371   -7.2416517    861.57417  0.017962934   0.01674132          190 
 3998000   0.61313474   -7.2424668    860.95346  0.017945503  0.016735665          226 
 3999000   0.61668584   -7.2460174    861.66362  0.017955814  0.016730013          310 
 4000000   0.60356569   -7.2434336    862.55758   0.01796995  0.016724364          222 
 4001000   0.60803042   -7.2680089      859.722  0.017906398  0.016718721          236 
 4002000   0.60770861   -7.2615021    861.23587  0.017933447  0.016713089          250 
 4003000   0.61186165   -7.2640563    860.95844  0.017923192  0.016707454          211 
 4004000    0.6289154   -7.2679769    861.24316  0.017924641   0.01670183          323 
 4005000   0.60461631   -7.2593136    860.82314  0.017911426   0.01669619          280 
 4006000   0.61284251   -7.2641815    861.27368  0.017916327  0.016690547          321 
 4007000   0.61217584   -7.2665806    859.23422  0.017869441  0.016684924          317 
 4008000   0.61862375   -7.2607268    859.40185  0.017868468  0.016679287          250 
 4009000   0.59610842   -7.2834437    860.91682  0.017895502  0.016673668          254 
 4010000   0.62253656   -7.2644363    860.47953  0.017881952  0.016668035          298 
 4011000   0.60790149   -7.2671778    861.30727  0.017894691  0.016662417          260 
 4012000   0.60264091   -7.2712969    860.90511  0.017881877  0.016656795          291 
 4013000    0.6233961   -7.2691579    859.42034  0.017846589  0.016651163          260 
 4014000   0.61656995   -7.2523709    861.23111  0.017879736  0.016645537          259 
 4015000   0.61567169   -7.2651401     861.0328  0.017871166  0.016639926          230 
 4016000   0.62035512   -7.2668613    860.04527  0.017846225  0.016634319          239 
 4017000   0.60627343   -7.2379727     861.3386  0.017868613  0.016628717          258 
 4018000   0.59397479   -7.2870681    859.23782  0.017820595  0.016623112          270 
 4019000   0.61125018   -7.2772076    861.09958  0.017854764  0.016617508          268 
 4020000   0.61802035   -7.2556427    862.90382  0.017887724  0.016611903          252 
 4021000   0.61744586    -7.279712    860.42665  0.017831938    0.0166063          284 
 4022000   0.61919261   -7.2769407    858.56753  0.017788984  0.016600698          398 
 4023000   0.61123551   -7.2502773    860.51922   0.01782499  0.016595087          405 
 4024000   0.60578142   -7.2636357    860.18865  0.017813715  0.016589471          400 
 4025000    0.5998106   -7.2865953    860.16897  0.017808881  0.016583863          239 
 4026000   0.60676746   -7.2964154    859.29811  0.017786432  0.016578258          414 
 4027000   0.60480157   -7.2717775    860.57602   0.01780846  0.016572662          468 
 4028000   0.61448337   -7.2875254    859.44228  0.017780583  0.016567061          407 
 4029000   0.59421501   -7.2769935    861.53557  0.017819467  0.016561463          266 
 4030000   0.61011502   -7.2720935    861.39782  0.017812196  0.016555875          298 
 4031000   0.60264321   -7.2792706    859.14109  0.017761124  0.016550287          298 
 4032000   0.59151175   -7.2607637    860.22408  0.017779102  0.016544713          252 
 4033000   0.60229218   -7.2674196    862.34693  0.017818558  0.016539139          338 
 4034000   0.60925868   -7.2592825    860.73429  0.017780827  0.016533549          214 
 4035000   0.59309165   -7.2655246    859.70496  0.017755162  0.016527963          415 
 4036000   0.60488826   -7.2735655    859.52111  0.017746967  0.016522385          386 
 4037000   0.60875755   -7.2985146    859.65561  0.017745347  0.016516792          283 
 4038000    0.5977043   -7.2770916    858.99507  0.017727321  0.016511204          230 
 4039000   0.60855767   -7.2859492    861.34772  0.017771472  0.016505618          324 
 4040000   0.59964036   -7.2677854    859.36464  0.017726168  0.016500042          277 
 4041000   0.60855996   -7.2882246    861.50826  0.017765987  0.016494464          209 
 4042000   0.60666324   -7.2863348    857.16821  0.017672114   0.01648888          269 
 4043000     0.607114    -7.283285    859.41286  0.017714009  0.016483304          352 
 4044000    0.6202012   -7.3013498     860.9648  0.017741609  0.016477732          226 
 4045000   0.59637201   -7.2867382    859.70854  0.017711342  0.016472159          203 
 4046000   0.58984156   -7.2913783    859.62144  0.017705171  0.016466578          214 
 4047000   0.60120115    -7.297327    858.45023  0.017676679   0.01646099          356 
 4048000   0.60866162   -7.2899981     858.0476  0.017664023  0.016455398          248 
 4049000   0.59563293   -7.3003601    858.20963  0.017662996  0.016449797          513 
 4050000   0.60523964    -7.314993    858.98476  0.017674584  0.016444202          479 
 4051000   0.60972664   -7.3028071     859.1472  0.017673562  0.016438613          472 
 4052000   0.60461835   -7.2870171    859.04354  0.017667069  0.016433027          230 
 4053000     0.596095   -7.3026071    858.45027  0.017650511  0.016427446          499 
 4054000   0.60868483    -7.318215    859.77362   0.01767336  0.016421859          314 
 4055000   0.60694008   -7.3044361    859.44294  0.017662206  0.016416282          537 
 4056000   0.59600426   -7.2878196    858.95231  0.017647771  0.016410701          306 
 4057000   0.59680765   -7.3019402    858.05118  0.017624911  0.016405111          289 
 4058000   0.61671943   -7.3133306    858.13267  0.017622242  0.016399532          489 
 4059000   0.60733227   -7.3067501    857.44766  0.017603836  0.016393955          349 
 4060000   0.60146203    -7.312138    859.25477  0.017636592  0.016388382          320 
 4061000   0.60774591   -7.2928266    858.74597  0.017621808  0.016382802          503 
 4062000   0.59139899   -7.3085726    859.85341   0.01764019  0.016377224          297 
 4063000   0.60185173   -7.3083569    857.28244  0.017583117  0.016371647          424 
 4064000    0.5924797   -7.3093389    859.13865  0.017616852  0.016366089          286 
 4065000   0.59108481   -7.3137543     858.8331  0.017606255  0.016360518          277 
 4066000   0.59476843   -7.3122846    858.63982  0.017597963   0.01635495          501 
 4067000   0.60698622   -7.3167596    859.65356  0.017614408  0.016349402          358 
 4068000    0.6003252   -7.3167277    858.23951  0.017581111  0.016343852          449 
 4069000   0.60040654   -7.2989301    857.62301  0.017564164  0.016338298          473 
 4070000    0.6078859   -7.3013795    858.69571  0.017581812  0.016332751          572 
 4071000   0.60565037   -7.3058402    858.02366  0.017563737  0.016327208          469 
 4072000   0.60651257   -7.3101643    857.94225  0.017557757  0.016321657          557 
 4073000   0.61329647   -7.3092505    858.64777  0.017567881  0.016316106          503 
 4074000   0.60326134   -7.3143725    856.43729  0.017518354  0.016310558          549 
 4075000   0.60247882   -7.3149344    859.52512  0.017577201  0.016305003          513 
 4076000   0.60313171   -7.3217596    858.37024  0.017549277  0.016299462          481 
 4077000   0.60365057   -7.2975597    857.86061  0.017534556   0.01629391          543 
 4078000   0.60519226   -7.3005906    858.60739  0.017545516  0.016288371          365 
 4079000   0.59877693   -7.3156115    857.75556  0.017523812  0.016282836          429 
 4080000   0.60609335   -7.3067759    858.17616  0.017528108  0.016277294          657 
 4081000   0.59430478   -7.3068825    857.93628  0.017518914  0.016271754          623 
 4082000   0.59230131   -7.2974829    859.34858  0.017543455  0.016266221          456 
 4083000   0.60376963   -7.3213402    856.86353  0.017488438   0.01626069          537 
 4084000   0.59051056   -7.3034424    857.40283  0.017495161  0.016255181          527 
 4085000   0.59871965   -7.3052552    857.39071  0.017490631  0.016249669          400 
 4086000   0.60705557   -7.3016917    859.19735  0.017523196  0.016244158          425 
 4087000   0.60070469    -7.319166    858.64228  0.017507591  0.016238643          553 
 4088000    0.6075613   -7.3159124    858.94772  0.017509534  0.016233133          560 
 4089000   0.59374845   -7.3241112    858.90277  0.017504336  0.016227613          521 
 4090000   0.60495851   -7.2954664    856.76351  0.017456469  0.016222099          635 
 4091000   0.60892669   -7.3164719    859.60552  0.017510094   0.01621659          576 
 4092000   0.59306606   -7.3162172    858.42693  0.017481813  0.016211071          518 
 4093000   0.59610025   -7.3267671    858.60809   0.01748123  0.016205558          530 
 4094000   0.60642641   -7.3036049    859.62456   0.01749765   0.01620005          553 
 4095000   0.60407501   -7.3307006    859.08906   0.01748248  0.016194546          714 
 4096000   0.60007061   -7.3259591    857.66034  0.017449144  0.016189034          441 
 4097000   0.58952509    -7.312321    858.06854  0.017453188   0.01618353          525 
 4098000   0.58451202   -7.2989287    859.50653  0.017478171  0.016178028          560 
 4099000   0.60129815   -7.3471224    856.22415  0.017407176  0.016172523          535 
 4100000   0.59973232   -7.3308116    857.06811  0.017420083  0.016167008          663 
 4101000   0.59122595   -7.3030527    858.12959  0.017437405  0.016161496          501 
 4102000   0.60262736   -7.3170015    857.51377  0.017420644     0.016156          533 
 4103000   0.59217642   -7.3382323    857.92103   0.01742467  0.016150501          527 
 4104000   0.60938814   -7.3311155    858.16524  0.017425383  0.016145003          531 
 4105000   0.59927884   -7.3135358    857.31263  0.017403829  0.016139506          405 
 4106000   0.59884028   -7.3372451    858.11555  0.017415886  0.016134006          703 
 4107000   0.59288033   -7.3289483    858.09372  0.017411203  0.016128507          608 
 4108000   0.59099859   -7.3411892    857.38754  0.017392639  0.016123022          419 
 4109000   0.60181249    -7.335103    857.18929  0.017384386  0.016117525          528 
 4110000   0.58790226   -7.3249744    858.45221  0.017405763  0.016112045          632 
 4111000   0.58115232   -7.3190796    856.73951  0.017366811  0.016106564          616 
 4112000   0.59412466   -7.3336074    858.73501  0.017403028  0.016101088          580 
 4113000   0.59043926   -7.3271966    856.12862  0.017345989    0.0160956          608 
 4114000   0.60883875   -7.3038783    858.94203  0.017398761  0.016090116          613 
 4115000   0.59962727   -7.3269039    858.35058  0.017382555  0.016084641          630 
 4116000   0.58343752   -7.3178636    859.03312  0.017392151  0.016079178          480 
 4117000   0.59547251   -7.3258457    856.93966  0.017345552  0.016073717          673 
 4118000   0.58995477   -7.3211858    857.17492  0.017346101  0.016068256          564 
 4119000   0.59661003     -7.31071    857.99184  0.017358417  0.016062796          577 
 4120000   0.58807961      -7.3283    856.73791  0.017328841   0.01605734          521 
 4121000   0.59563323   -7.3319854    857.84328  0.017346989  0.016051871          578 
 4122000   0.60422177   -7.3287242    856.56345  0.017316906  0.016046401          568 
 4123000   0.59011327   -7.3271878    857.81419  0.017337986  0.016040929          532 
 4124000   0.58666769   -7.3229011    856.90927  0.017315496  0.016035466          624 
 4125000    0.6001058   -7.3356984    856.86037  0.017310311  0.016030001          560 
 4126000   0.59463162   -7.3273961    857.21801  0.017313338  0.016024527          667 
 4127000   0.58017897   -7.3141586    857.42998  0.017313423  0.016019058          577 
 4128000   0.58703198   -7.3273089    857.71552  0.017314994  0.016013608          470 
 4129000   0.58879301    -7.335007    857.83783  0.017313268  0.016008158          529 
 4130000   0.58762724   -7.3382891    856.51272  0.017282339  0.016002705          496 
 4131000   0.58099121    -7.333064     858.2303  0.017312804  0.015997257          485 
 4132000   0.59400303   -7.3210125    857.78827  0.017299699   0.01599181          451 
 4133000   0.59438266   -7.3254556    856.20002  0.017263489  0.015986351          391 
 4134000   0.59597104   -7.3273245    856.77691  0.017270942  0.015980898          615 
 4135000   0.58668972   -7.3220991    857.88911   0.01728918  0.015975456          436 
 4136000   0.59184131   -7.3415288    855.86798  0.017244277  0.015970012          561 
 4137000   0.59237412   -7.3262947    858.11848  0.017285442  0.015964561          593 
 4138000   0.58715474    -7.338639    858.10857  0.017281065  0.015959118          616 
 4139000   0.59361444   -7.3323292    857.45809  0.017263793  0.015953672          508 
 4140000   0.58593214     -7.34295     856.8831  0.017248049  0.015948225          620 
 4141000   0.59182465   -7.3409451    857.71529  0.017260631   0.01594279          555 
 4142000   0.58428466   -7.3527558     857.3963  0.017250046  0.015937346          621 
 4143000   0.59883861   -7.3431094    857.41706    0.0172463  0.015931908          560 
 4144000   0.58571075   -7.3385711    855.28111  0.017199186  0.015926475          574 
 4145000   0.58252427   -7.3245063    856.56049  0.017220758  0.015921039          510 
 4146000   0.58618459   -7.3427612    857.16612  0.017228777  0.015915611          626 
 4147000   0.58386396   -7.3296395    858.26734  0.017246751  0.015910176          527 
 4148000   0.58070827   -7.3458947    856.14312  0.017199918  0.015904749          629 
 4149000   0.59909088   -7.3553245     858.2475  0.017238039  0.015899325          483 
 4150000   0.57781018   -7.3589116    856.53299  0.017199458  0.015893892          455 
 4151000   0.58138719   -7.3478366      858.014  0.017225046  0.015888456          392 
 4152000   0.61141505   -7.3498167    856.03001  0.017181078  0.015883034          553 
 4153000   0.58142448   -7.3439951    857.70276  0.017210506  0.015877613          528 
 4154000   0.59614619   -7.3475416    856.51823    0.0171826  0.015872195          540 
 4155000   0.59324646   -7.3286538    856.24746  0.017173034  0.015866782          435 
 4156000   0.58957839   -7.3312878    858.61388  0.017216351  0.015861368          586 
 4157000   0.59180692   -7.3214094    858.72181  0.017214373  0.015855968          519 
 4158000   0.57826269   -7.3437458    854.88734  0.017133384  0.015850568          592 
 4159000   0.59806745   -7.3383651    856.53737  0.017162326  0.015845168          524 
 4160000   0.59078109   -7.3461948     857.0532  0.017168534  0.015839763          485 
 4161000   0.58071722   -7.3319399    856.82137  0.017159765   0.01583437          558 
 4162000   0.57613503   -7.3326081    856.64158  0.017152042  0.015828979          511 
 4163000   0.59406515   -7.3415039    857.54546  0.017166015  0.015823586          492 
 4164000    0.5865694    -7.330991    857.55802  0.017162144  0.015818182          514 
 4165000   0.59155096    -7.343157    857.08965  0.017148653  0.015812791          510 
 4166000   0.57558265   -7.3313018    856.38989  0.017130539  0.015807398          510 
 4167000   0.58188254   -7.3274994    858.40489  0.017166724  0.015801998          476 
 4168000   0.59299222    -7.341028    856.99102  0.017134337  0.015796609          533 
 4169000   0.59499495   -7.3544366    856.29893  0.017116393  0.015791218          457 
 4170000   0.58352509   -7.3617175    854.93561  0.017085044  0.015785825          536 
 4171000   0.58166927   -7.3358016    856.56616  0.017113525  0.015780436          584 
 4172000   0.58278026   -7.3436515    856.56246  0.017109349  0.015775051          523 
 4173000   0.58616875   -7.3530028    855.94072  0.017092833  0.015769675          597 
 4174000   0.57202313    -7.349192     855.5687  0.017081311  0.015764306          553 
 4175000   0.58504162   -7.3485436    856.17418  0.017089305  0.015758939          643 
 4176000   0.59702234   -7.3486759    857.03849   0.01710246  0.015753573          589 
 4177000   0.59912729   -7.3350115    858.39801  0.017125489  0.015748209          641 
 4178000   0.58373764   -7.3442418    856.61078  0.017085742  0.015742862          520 
 4179000   0.58271307    -7.334288    857.34093  0.017096214  0.015737507          559 
 4180000   0.58722629   -7.3425628    856.14547  0.017068291  0.015732157          575 
 4181000    0.5842934   -7.3602598    855.90023   0.01705932  0.015726812          481 
 4182000   0.58258194   -7.3375191    856.06987  0.017058622  0.015721462          547 
 4183000   0.58003164    -7.335675    857.47352  0.017082507  0.015716107          369 
 4184000   0.58245178   -7.3286592    858.88371  0.017106511  0.015710767          496 
 4185000   0.58314506   -7.3365364    857.81296  0.017081102  0.015705431          492 
 4186000    0.5803702   -7.3401707    856.05468  0.017042019  0.015700094          469 
 4187000   0.58810615    -7.343766    857.80217  0.017072729  0.015694754          544 
 4188000   0.57460401   -7.3444962    856.81616  0.017049032  0.015689419          594 
 4189000   0.57507349   -7.3608238    855.95722  0.017027875  0.015684075          556 
 4190000   0.58283977    -7.339415    858.13285  0.017067081  0.015678746          527 
 4191000   0.58292962   -7.3524323    854.88744  0.016998478  0.015673409          555 
 4192000   0.58786291   -7.3767075    856.59867   0.01702844  0.015668072          542 
 4193000   0.57252054   -7.3500378    857.68133  0.017045897  0.015662739          544 
 4194000    0.5819512   -7.3712831    854.81233  0.016984826  0.015657402          650 
 4195000    0.5689514   -7.3328543    857.51728  0.017034511  0.015652071          551 
 4196000   0.57642248   -7.3443904    856.74826  0.017015178  0.015646744          422 
 4197000   0.59097718   -7.3408928    856.47195  0.017005638  0.015641428          492 
 4198000   0.58744691    -7.326991    858.35793  0.017039025  0.015636106          423 
 4199000   0.57233155   -7.3467859    857.75967  0.017023094  0.015630792          603 
 4200000   0.58463509   -7.3570441    856.96122  0.017003199  0.015625476          483 
 4201000   0.59185911   -7.3602769    855.06612  0.016961559  0.015620162          622 
 4202000   0.57824442   -7.3492456    856.25353  0.016981071   0.01561484          611 
 4203000   0.57198803   -7.3668807    855.72679  0.016966587  0.015609519          529 
 4204000   0.56666676   -7.3544967    857.09967  0.016989765  0.015604206          505 
 4205000   0.57886131   -7.3562334    856.64406  0.016976696  0.015598896          431 
 4206000   0.59010456   -7.3422086      855.592  0.016951815  0.015593582          549 
 4207000   0.59084218   -7.3626294    856.37894  0.016963373  0.015588278          573 
 4208000   0.58270889    -7.353999    855.81033  0.016948082  0.015582979          731 
 4209000   0.57552991   -7.3591187     855.1252   0.01693049  0.015577664          769 
 4210000   0.58920982   -7.3390612    856.93879  0.016962367  0.015572348          713 
 4211000   0.57596695   -7.3613254     855.5018  0.016929902   0.01556704          698 
 4212000   0.59467128    -7.338981    856.69267  0.016949443  0.015561731          594 
 4213000   0.58056507   -7.3361266    858.67299  0.016984591  0.015556425          626 
 4214000   0.58173861   -7.3323113    856.62497   0.01694006  0.015551126          655 
 4215000   0.58416342   -7.3578949    856.44595  0.016932502  0.015545831          650 
 4216000   0.57665512   -7.3406887    855.92815  0.016918251  0.015540541          617 
 4217000   0.57847826   -7.3438747    856.57849   0.01692709   0.01553526          683 
 4218000   0.57832486   -7.3435257    857.44651  0.016940227  0.015529983          545 
 4219000    0.5742772   -7.3413965    857.70189  0.016941256  0.015524705          560 
 4220000   0.57048387   -7.3401657    855.29353  0.016889683  0.015519423          568 
 4221000   0.57921332    -7.355115     855.7423  0.016894541  0.015514147          530 
 4222000    0.5634078   -7.3534767    856.45883  0.016904682  0.015508862          383 
 4223000   0.57928944   -7.3506131    856.61332  0.016903728  0.015503566          643 
 4224000   0.57202347   -7.3526639    855.73397  0.016882378   0.01549829          474 
 4225000   0.57753877   -7.3680377    854.36978  0.016851475  0.015493002          622 
 4226000   0.58291949   -7.3400965    856.03144  0.016880254   0.01548772          669 
 4227000   0.56722574   -7.3444008     855.4379  0.016864559  0.015482442          684 
 4228000   0.57916058   -7.3469186    853.90182  0.016830295  0.015477152          738 
 4229000   0.57723979   -7.3361256    856.14814  0.016870579  0.015471873          725 
 4230000   0.57618726   -7.3611849    854.90889  0.016842177  0.015466599          686 
 4231000   0.56204373   -7.3559189    857.99588  0.016898997  0.015461318          686 
 4232000    0.5808152   -7.3644217     853.8988  0.016814327  0.015456041          764 
 4233000   0.58201908   -7.3704502     855.0686  0.016833384  0.015450767          733 
 4234000   0.56621803   -7.3440622    856.69375  0.016861395  0.015445496          658 
 4235000   0.57608524   -7.3683125    856.60176  0.016855603  0.015440222          543 
 4236000   0.56733779   -7.3693544     855.2219  0.016824479  0.015434952          644 
 4237000   0.58153559   -7.3536453    857.21579  0.016859724  0.015429688          690 
 4238000   0.58103664   -7.3582501    856.52808  0.016842223  0.015424432          753 
 4239000   0.57223222   -7.3543515    854.81111  0.016804496  0.015419161          776 
 4240000   0.57331006   -7.3602545    856.30603  0.016829914  0.015413898          723 
 4241000   0.56734709   -7.3495722      856.249  0.016824825  0.015408637          666 
 4242000   0.57543478   -7.3740472    855.45033  0.016805169  0.015403375          752 
 4243000   0.57535937   -7.3559397    855.33949  0.016799031  0.015398123          807 
 4244000   0.57145579   -7.3689014    854.93156  0.016787063  0.015392871          743 
 4245000   0.57049924   -7.3622888     854.4591  0.016773834  0.015387617          758 
 4246000   0.57038975   -7.3744812    854.59869  0.016772623  0.015382358          646 
 4247000   0.56805987   -7.3679894     856.0641  0.016797428   0.01537711          672 
 4248000   0.56895162   -7.3784451    856.04785  0.016793155  0.015371861          708 
 4249000   0.57485322   -7.3704147    853.76939  0.016744516  0.015366611          675 
 4250000   0.56430422   -7.3767889    855.26108  0.016769825  0.015361366          636 
 4251000   0.56883895   -7.3699255    854.27086  0.016746469  0.015356124          661 
 4252000   0.58094961   -7.3814039    853.03037  0.016718218  0.015350885          624 
 4253000   0.57419605   -7.3784241    854.77875  0.016748545  0.015345648          601 
 4254000   0.57934323   -7.3785717    855.13883  0.016751662  0.015340414          622 
 4255000   0.58384224    -7.363848    854.02412  0.016725894  0.015335168          686 
 4256000   0.57218625   -7.3699157    855.05625  0.016742173  0.015329933          661 
 4257000   0.57575509   -7.3674659     854.3395  0.016724209  0.015324692          656 
 4258000   0.58142017   -7.3927377    855.47243  0.016742454  0.015319451          722 
 4259000   0.57505481   -7.3844393    854.17381  0.016713114  0.015314204          744 
 4260000   0.57239893   -7.3753702    853.53558  0.016696705  0.015308959          733 
 4261000   0.56095958   -7.3872007    853.75076  0.016696995  0.015303717          682 
 4262000   0.56976956   -7.3865102    855.15451  0.016720525  0.015298486          710 
 4263000   0.56325056   -7.3804089    854.99309  0.016713447  0.015293251          678 
 4264000   0.56818414   -7.3843632    854.13296  0.016692717  0.015288026          759 
 4265000   0.58610892   -7.3754544    852.99158  0.016666502   0.01528279          649 
 4266000   0.57355366   -7.3730822    854.95908  0.016701029  0.015277559          687 
 4267000   0.57506474   -7.3889754    855.01059  0.016698121  0.015272329          774 
 4268000   0.56898995    -7.395673    852.60627  0.016647264  0.015267097          752 
 4269000   0.57948084   -7.3806494    854.14513  0.016673404  0.015261875          709 
 4270000    0.5574521   -7.3775975    853.76637  0.016662107  0.015256654          656 
 4271000   0.57005059   -7.3835112    855.13236  0.016684858  0.015251439          630 
 4272000   0.57647514   -7.3886237    851.93785  0.016618638   0.01524622          650 
 4273000   0.57658976   -7.3800638    853.89017  0.016652823  0.015241007          557 
 4274000    0.5626119   -7.3887063    853.14395  0.016634378  0.015235795          547 
 4275000   0.57925558   -7.3860537     853.6637  0.016640618  0.015230591          736 
 4276000   0.57016973   -7.3825438    852.21218  0.016608438  0.015225377          720 
 4277000   0.55700771   -7.4155997    854.11175  0.016641566  0.015220159          657 
 4278000   0.55823295   -7.3797368    853.86468  0.016632864  0.015214953          588 
 4279000   0.56276512   -7.4058955    854.77867  0.016646776  0.015209753          712 
 4280000   0.57403495   -7.3673682    853.08237  0.016609859  0.015204556          664 
 4281000   0.56541376   -7.3811121    855.05418  0.016644362  0.015199351          622 
 4282000   0.55032721    -7.395573    852.74084  0.016595455  0.015194146          704 
 4283000    0.5750147   -7.3942442    852.72622  0.016591295   0.01518894          681 
 4284000   0.56990859   -7.4057714    853.86587  0.016609591   0.01518374          665 
 4285000   0.57120477   -7.3830658    854.63346  0.016620643  0.015178539          754 
 4286000   0.56927467   -7.3934806    854.13276   0.01660703  0.015173342          728 
 4287000   0.56448164   -7.3911796    854.04394  0.016601429  0.015168145          704 
 4288000   0.55697953   -7.3818482    853.80854  0.016592983  0.015162954          578 
 4289000   0.56025548    -7.402737    853.12654  0.016575863  0.015157761          638 
 4290000   0.57927473   -7.3818353    854.78018  0.016604122   0.01515258          690 
 4291000    0.5585375   -7.3867934    853.49724  0.016575337  0.015147392          544 
 4292000   0.57184318   -7.3997456    853.43305  0.016570229  0.015142197          776 
 4293000   0.56559666   -7.4022461    854.38922  0.016584929  0.015137011          780 
 4294000   0.57282433   -7.4041303    852.80078   0.01655024  0.015131827          746 
 4295000   0.57008842   -7.3621839    856.33922  0.016615041  0.015126654          654 
 4296000   0.56894113   -7.4146026    852.03969  0.016527772  0.015121478          628 
 4297000   0.56878874   -7.3937402    852.61856  0.016535152  0.015116296          622 
 4298000   0.55793317   -7.4008273    853.28157   0.01654416  0.015111121          733 
 4299000   0.56413139   -7.4068649    853.77173  0.016549813   0.01510595          534 
 4300000    0.5686612   -7.4106648    852.43821   0.01652012  0.015100775          772 
 4301000   0.56157219   -7.4046326    853.45408  0.016535962  0.015095605          645 
 4302000   0.56437584   -7.3881397    856.02272  0.016581875  0.015090438          741 
 4303000   0.56199367   -7.4101163    851.95881  0.016499318  0.015085273          704 
 4304000   0.56536133   -7.3800987    853.56528  0.016526589  0.015080109          667 
 4305000   0.56041081    -7.392211    854.07737  0.016532663  0.015074949          767 
 4306000   0.55727162     -7.40298    853.76487  0.016522776   0.01506978          710 
 4307000   0.56320462   -7.3903552    852.71362    0.0164986  0.015064624          746 
 4308000   0.55888011   -7.4098177    853.57704  0.016511472  0.015059471          829 
 4309000     0.570386   -7.3888685    855.00498  0.016535255  0.015054325          623 
 4310000   0.56422665   -7.4101229    851.85192  0.016470455  0.015049166          690 
 4311000   0.56952685   -7.4011262    855.26836  0.016532675  0.015044004          652 
 4312000   0.56680727   -7.4003455    852.11427  0.016467886  0.015038851          473 
 4313000   0.55805773   -7.3993869    853.07075  0.016482548  0.015033688          752 
 4314000   0.56621466    -7.396706    852.90981  0.016475618  0.015028541          749 
 4315000   0.57015673   -7.4003101    853.45567  0.016482342   0.01502339          699 
 4316000   0.55131924   -7.4244914    852.57828  0.016461582  0.015018243          762 
 4317000    0.5653759   -7.4148891    852.13844  0.016449279  0.015013099          772 
 4318000   0.56156556    -7.416083    853.43303  0.016470454  0.015007963          847 
 4319000   0.55101564   -7.4041853     852.7854  0.016454145  0.015002823          667 
 4320000   0.56873971   -7.4061682     852.7785  0.016450203  0.014997686          789 
 4321000   0.56371944   -7.3972097    855.10366  0.016491238   0.01499256          671 
 4322000    0.5629494   -7.3980049    852.88044  0.016444556  0.014987431          760 
 4323000   0.57437432   -7.3974743    854.68592  0.016475556  0.014982304          796 
 4324000   0.56271603   -7.3926199    854.11813  0.016460803  0.014977187          748 
 4325000   0.55808747   -7.3949563     852.5862   0.01642748  0.014972067          854 
 4326000   0.56352663   -7.3816661    852.00087  0.016412407  0.014966945          697 
 4327000   0.55291848   -7.4118815    853.38984  0.016435364  0.014961828          762 
 4328000   0.56526744   -7.4018918    853.76705   0.01643883  0.014956715          835 
 4329000   0.55697257   -7.4050393    853.37437  0.016427473    0.0149516          678 
 4330000   0.57322664   -7.4141044    851.86694  0.016394668  0.014946484          761 
 4331000   0.56577668   -7.4166261     853.7928  0.016427938  0.014941366          774 
 4332000   0.55610814   -7.3974732    852.50169  0.016399309  0.014936255          638 
 4333000   0.55272842    -7.410597    853.86212  0.016421689  0.014931142          817 
 4334000   0.55488398   -7.3957334    853.04085  0.016402108  0.014926038          762 
 4335000   0.55400126   -7.4051833    853.94406  0.016415687  0.014920938          741 
 4336000   0.55776843   -7.4123986    852.11439  0.016376737  0.014915838          792 
 4337000   0.55210169   -7.4046964    855.62313   0.01644038  0.014910736          716 
 4338000   0.56432864   -7.4104061    852.68621  0.016380172  0.014905642          820 
 4339000   0.56458306   -7.4079906    851.52877  0.016354167   0.01490054          787 
 4340000   0.54218797   -7.4027387    853.73281  0.016392719  0.014895449          729 
 4341000   0.56287227   -7.4130357     853.5433  0.016385305  0.014890349          853 
 4342000   0.55691566     -7.41114    852.48068  0.016361137  0.014885265          874 
 4343000   0.55863474   -7.4084232    852.49514  0.016357647  0.014880177          844 
 4344000   0.56107651   -7.4075939    851.49414  0.016334679  0.014875089          842 
 4345000    0.5571997   -7.3877435    853.32494  0.016366033      0.01487          843 
 4346000   0.56133885   -7.4028616    852.40643  0.016344655  0.014864912          742 
 4347000    0.5495181   -7.4169426     853.1732  0.016355594  0.014859823          663 
 4348000   0.56938067   -7.4037884    852.88793  0.016346365  0.014854737          690 
 4349000   0.54887347   -7.4211654     853.2696  0.016349919  0.014849655          696 
 4350000   0.55665774   -7.4192504    853.36745  0.016348035  0.014844576          821 
 4351000   0.55276546   -7.4171159    852.08573   0.01631973  0.014839505          950 
 4352000   0.55017683   -7.4115688    852.76731  0.016329031  0.014834428          783 
 4353000   0.56110636   -7.4007257    853.31942  0.016335849  0.014829363          801 
 4354000   0.56054702   -7.4112843    851.70829  0.016301261  0.014824297          858 
 4355000   0.55062606   -7.4277314    853.22816  0.016326601  0.014819238          656 
 4356000   0.55599374   -7.4018547    854.25244  0.016342448  0.014814175          790 
 4357000   0.55800585   -7.4214833    852.93881  0.016313572  0.014809118          827 
 4358000    0.5688295   -7.4019987    854.05959   0.01633126  0.014804064          762 
 4359000   0.54911877   -7.4251774    853.30236  0.016313037  0.014799015          887 
 4360000   0.56837362    -7.407695    853.78754  0.016318569   0.01479397          766 
 4361000   0.55105674   -7.4237243     852.9027  0.016297919  0.014788926          678 
 4362000    0.5564064   -7.4232356    852.13689  0.016279552  0.014783875          897 
 4363000   0.55236597   -7.4141636    851.72217    0.0162679   0.01477882          769 
 4364000   0.55563277   -7.4053135    854.91195  0.016325083  0.014773769          822 
 4365000    0.5583021   -7.4337632    851.72509  0.016260502  0.014768721          782 
 4366000   0.56759826   -7.4177868    853.78086  0.016296016  0.014763672          847 
 4367000   0.55672408   -7.4216137    852.79736  0.016273517  0.014758634          828 
 4368000   0.54816319   -7.4278028    852.00855  0.016254742  0.014753587          849 
 4369000   0.53408684   -7.4193844    852.87543  0.016267556   0.01474854          859 
 4370000   0.55278387   -7.4072587    852.90716  0.016264439  0.014743497          744 
 4371000    0.5503523   -7.4073787    853.04477  0.016263341  0.014738463          877 
 4372000   0.53928097   -7.4227615    851.93953  0.016238555  0.014733428          793 
 4373000   0.55661011      -7.4326    852.08453  0.016237604   0.01472839          807 
 4374000   0.56377208   -7.4228559    853.27015   0.01625648   0.01472336          798 
 4375000   0.54876289   -7.4385807    851.05602  0.016210591  0.014718327          911 
 4376000   0.56064813   -7.4398253    853.30067  0.016249632  0.014713289          909 
 4377000   0.54673159   -7.4311669    851.88245  0.016218918  0.014708262          858 
 4378000   0.54986221   -7.4203733     852.2991  0.016223144  0.014703234          896 
 4379000   0.56678407   -7.4268355    851.05883  0.016195837  0.014698212          857 
 4380000   0.54742996   -7.4307729    852.38068  0.016217288  0.014693186          955 
 4381000   0.55264609   -7.4182311    851.64022  0.016199502  0.014688167          853 
 4382000   0.56055496    -7.430837    851.62476  0.016195511  0.014683146          949 
 4383000   0.54830798   -7.4278984     852.6562  0.016211427  0.014678128          840 
 4384000   0.55909288   -7.4240339    852.25477  0.016200098   0.01467311          882 
 4385000    0.5405578   -7.4149555    853.64265  0.016222779  0.014668097          843 
 4386000   0.54772662   -7.4397536    852.97827  0.016206457  0.014663099          962 
 4387000   0.54559037   -7.4228168    852.57345  0.016195073  0.014658097          911 
 4388000   0.54727278   -7.4312752    851.47346  0.016170493  0.014653091          918 
 4389000   0.54397396   -7.4333078    851.98752  0.016176569  0.014648085          873 
 4390000   0.55238567    -7.424208    851.78289     0.016169  0.014643085          927 
 4391000   0.53891761   -7.4418541    852.80099  0.016184639  0.014638082         1029 
 4392000   0.55224985   -7.4187924    851.93775  0.016164575  0.014633081          911 
 4393000   0.54451825   -7.4316962    850.72956  0.016137976   0.01462808          910 
 4394000   0.54260244   -7.4430281    852.86305  0.016174766  0.014623077          926 
 4395000   0.54734208   -7.4236507    852.48158  0.016163852  0.014618083          893 
 4396000    0.5558899   -7.4231103    851.80851  0.016147416  0.014613087          916 
 4397000   0.53173602   -7.4222261    853.31428  0.016172282  0.014608093          915 
 4398000   0.55622527   -7.4416146    851.21894  0.016128902  0.014603109          865 
 4399000   0.55602507   -7.4206589    852.94016  0.016157842  0.014598126          819 
 4400000   0.54501757   -7.4349497    852.01914  0.016136726  0.014593145         1022 
 4401000   0.55513386    -7.446003    851.75495  0.016128057  0.014588155          886 
 4402000   0.54639755   -7.4316191    851.38577  0.016117404  0.014583176          852 
 4403000   0.53698157   -7.4302697    852.09392  0.016127147  0.014578201          939 
 4404000     0.556336   -7.4291454    852.12704  0.016124111  0.014573223          952 
 4405000   0.55373977   -7.4514621    852.07417  0.016119451  0.014568253         1014 
 4406000   0.55266385   -7.4402886    852.33341  0.016120695  0.014563287          970 
 4407000   0.54008081   -7.4264143    851.25539  0.016096653  0.014558323          920 
 4408000   0.54822559   -7.4410056    851.86769  0.016104577  0.014553356          963 
 4409000   0.54204765   -7.4266058    851.80281  0.016099698  0.014548395          936 
 4410000   0.55190173   -7.4550328    851.35108  0.016087511   0.01454343          969 
 4411000   0.55526704   -7.4474725    851.80421  0.016092425  0.014538466          975 
 4412000   0.53560738   -7.4195148    853.18958  0.016114944  0.014533508          939 
 4413000   0.53291435   -7.4451317    851.36797  0.016076894  0.014528552          972 
 4414000   0.55918224   -7.4324201    853.02736  0.016104579  0.014523593          906 
 4415000    0.5523771   -7.4281979    851.40815  0.016070369  0.014518632          968 
 4416000   0.55554222   -7.4408726    852.39116   0.01608528  0.014513679          883 
 4417000    0.5445337   -7.4221425    852.16146  0.016077305  0.014508721          895 
 4418000   0.55762757   -7.4505607    851.45778  0.016060393  0.014503768          865 
 4419000   0.53850178   -7.4524369     850.4688  0.016038108  0.014498814         1019 
 4420000   0.53864193   -7.4377721    851.28733  0.016049912  0.014493856          958 
 4421000    0.5434197   -7.4597687    852.02674  0.016060219  0.014488906         1013 
 4422000   0.53842097   -7.4361852    852.17506  0.016059382  0.014483966          840 
 4423000   0.53966332    -7.458963     850.9868  0.016033363  0.014479033          944 
 4424000   0.53748968   -7.4405597    852.34501  0.016055323  0.014474098          961 
 4425000    0.5328309   -7.4656963    850.76945  0.016022024   0.01446916         1012 
 4426000   0.54715206   -7.4451653     851.4183   0.01603062  0.014464223          880 
 4427000   0.54280045   -7.4340627    851.64474  0.016031262  0.014459293          901 
 4428000   0.53126013   -7.4512787    852.34791  0.016040875  0.014454362         1023 
 4429000   0.54406358   -7.4258749    851.07553  0.016013312  0.014449429          936 
 4430000   0.54033041   -7.4447392    850.83349  0.016005145    0.0144445          931 
 4431000   0.53136925   -7.4542405    852.08659    0.0160251  0.014439574          949 
 4432000   0.54140466   -7.4395209    851.74082  0.016014982  0.014434651          901 
 4433000   0.54438491   -7.4442315    848.78448  0.015955795  0.014429724          938 
 4434000   0.54237792   -7.4511827    850.23773  0.015979509  0.014424802          960 
 4435000   0.53212126   -7.4415985     851.2791  0.015995474  0.014419879          987 
 4436000   0.53847959   -7.4397332    852.40527  0.016013024  0.014414954          934 
 4437000   0.55233557    -7.441223    851.60199  0.015994328  0.014410036          968 
 4438000   0.55078151   -7.4685779    850.66429  0.015973117  0.014405119          975 
 4439000    0.5496609   -7.4475213     852.2309  0.015998928  0.014400201          922 
 4440000   0.54102494   -7.4278881    850.49206  0.015962689  0.014395287          964 
 4441000   0.54814817   -7.4621213    851.23302  0.015972998  0.014390378          879 
 4442000   0.54082065   -7.4599826    850.34043  0.015952657   0.01438546          975 
 4443000   0.54188652   -7.4538047      849.962  0.015941969  0.014380548         1006 
 4444000   0.54671005   -7.4454798     853.0379   0.01599606  0.014375639          964 
 4445000   0.53812044    -7.439747    851.47513  0.015963163  0.014370736          959 
 4446000   0.54767186   -7.4529293    849.34971  0.015919735  0.014365833          915 
 4447000   0.53465231   -7.4510388    850.37065  0.015935287  0.014360933          955 
 4448000   0.53061789   -7.4341251    849.62487  0.015917732  0.014356029         1101 
 4449000   0.54629517   -7.4399734    850.89271  0.015937902  0.014351131          953 
 4450000   0.54169913   -7.4509619    850.37505  0.015924626  0.014346239          976 
 4451000   0.54393278   -7.4410572    850.53021  0.015923954  0.014341339         1078 
 4452000   0.53212632   -7.4542653    851.47734  0.015938105  0.014336444         1074 
 4453000   0.55107074   -7.4605799    849.63487  0.015900046  0.014331552          949 
 4454000   0.53758486   -7.4729742    850.18977  0.015906858   0.01432666          955 
 4455000   0.53771089   -7.4685051    850.83657  0.015915387  0.014321775          968 
 4456000   0.52737534   -7.4548519    851.56395  0.015925418  0.014316883          969 
 4457000   0.54061758   -7.4698361    852.23392  0.015934371     0.014312          949 
 4458000   0.53957981    -7.437688    849.91322  0.015887416  0.014307118         1029 
 4459000   0.53458327    -7.451693    850.10411  0.015887421  0.014302241          980 
 4460000   0.53535062   -7.4581342    850.29326  0.015887393  0.014297366          945 
 4461000   0.54966685   -7.4706987    850.60191  0.015889597  0.014292485          967 
 4462000     0.537569   -7.4455124    852.02915  0.015912691  0.014287613         1050 
 4463000   0.53359765   -7.4416702    850.92369  0.015888485  0.014282737          984 
 4464000   0.53584607   -7.4639899    850.35397   0.01587429  0.014277865         1026 
 4465000   0.53359715   -7.4468108    852.21008  0.015905377  0.014272997          949 
 4466000   0.54074026   -7.4533141    849.53265  0.015851856  0.014268134          966 
 4467000   0.53107502   -7.4455901    851.42464  0.015883603  0.014263274          915 
 4468000   0.53770096   -7.4489865    851.07303   0.01587349  0.014258417         1078 
 4469000   0.53978807    -7.458656    850.66824   0.01586239  0.014253554          958 
 4470000   0.53456631   -7.4609708    850.40582  0.015853949  0.014248692         1018 
 4471000   0.54404836   -7.4644867    849.97408  0.015842356  0.014243837          966 
 4472000   0.53589844   -7.4721347    850.48766  0.015848384  0.014238987         1079 
 4473000   0.54852087   -7.4461089    850.59051  0.015846757  0.014234125          985 
 4474000   0.52764151   -7.4463713    850.07449  0.015833603  0.014229275         1025 
 4475000   0.54244584   -7.4555988    849.62811  0.015821753  0.014224427         1090 
 4476000    0.5452222     -7.46251    849.79658  0.015821354  0.014219567         1011 
 4477000   0.53586072    -7.458914    851.62245  0.015851807  0.014214718         1083 
 4478000   0.54196169   -7.4514337    852.00504  0.015855386  0.014209871          995 
 4479000   0.53620958   -7.4625422    849.08484  0.015797515  0.014205029         1056 
 4480000   0.53667093   -7.4755836    850.14482  0.015813706  0.014200185         1143 
 4481000   0.53091819   -7.4635102    848.88923  0.015786826  0.014195338          993 
 4482000   0.53081775   -7.4609638    850.52111  0.015813646  0.014190495         1058 
 4483000    0.5421338   -7.4521781    851.33319  0.015825214  0.014185656         1027 
 4484000   0.53622488   -7.4628692    849.85788  0.015794266  0.014180813         1077 
 4485000   0.52993297   -7.4563779    850.03704  0.015794074  0.014175972         1135 
 4486000   0.53639511   -7.4723149    849.25282  0.015775985  0.014171133         1150 
 4487000   0.53644711    -7.464388     849.7521  0.015781742    0.0141663         1173 
 4488000   0.54264238   -7.4609062     849.8142  0.015779378  0.014161471         1076 
 4489000   0.52989565   -7.4719525    848.45014  0.015750541  0.014156638         1089 
 4490000   0.53049655    -7.452343    849.80973  0.015772267  0.014151817         1117 
 4491000   0.52730418   -7.4573323    849.65483   0.01576588  0.014146992         1124 
 4492000   0.53508143   -7.4667025    851.18419  0.015790743  0.014142172         1141 
 4493000   0.53622428   -7.4603942    850.51691  0.015774852  0.014137352         1190 
 4494000   0.54273254   -7.4576085    851.27759  0.015785447  0.014132529         1084 
 4495000   0.52407184   -7.4630518     849.2909  0.015745104   0.01412771         1077 
 4496000   0.53473482   -7.4606633    849.39364  0.015743506  0.014122894         1125 
 4497000   0.53087692   -7.4786161     850.1498  0.015754017  0.014118084         1141 
 4498000   0.53462237   -7.4600504    850.88422  0.015764122  0.014113271         1027 
 4499000   0.53636151   -7.4838807    850.52418  0.015753949  0.014108462         1024 
 4500000    0.5246325   -7.4783462    849.38866   0.01572942  0.014103655         1051 
 4501000   0.52972174   -7.4800584    850.04433  0.015738064  0.014098846         1016 
 4502000   0.52193777   -7.4757809    849.17938  0.015718558  0.014094041         1096 
 4503000   0.52739459   -7.4699526    849.67644  0.015724266  0.014089238         1018 
 4504000   0.53010315   -7.4772636     850.9262  0.015743898  0.014084437          964 
 4505000   0.53111748    -7.463142    849.78952  0.015719377  0.014079638         1081 
 4506000   0.53559445   -7.4725818    850.77024  0.015734026  0.014074842         1058 
 4507000   0.52164394   -7.4546954    848.99365  0.015697686  0.014070055         1132 
 4508000   0.54481436   -7.4750598    851.27008  0.015736285  0.014065267         1120 
 4509000    0.5426147   -7.4801851    849.89287  0.015707342  0.014060477         1039 
 4510000   0.52963059   -7.4738467    851.75944  0.015738349  0.014055686         1093 
 4511000   0.52652579   -7.4644798    848.67491  0.015677878  0.014050907         1075 
 4512000   0.53111163   -7.4731401    849.97244  0.015698368  0.014046122         1096 
 4513000   0.52813751    -7.464606    849.84825  0.015692596  0.014041347         1093 
 4514000   0.53186364   -7.4528795    850.47936  0.015700771  0.014036566         1030 
 4515000   0.52006675   -7.4776964    851.10412  0.015708825  0.014031787         1197 
 4516000   0.53158112   -7.4741259    849.90901  0.015683293  0.014027005         1075 
 4517000   0.52186205   -7.4791222    849.07504  0.015664435  0.014022231         1054 
 4518000   0.52095531   -7.4754699    850.60722  0.015689229  0.014017454         1050 
 4519000   0.52082316   -7.4832304    848.38947   0.01564486  0.014012675         1153 
 4520000   0.52209952   -7.4588107    848.51553  0.015643723  0.014007902         1068 
 4521000   0.52375697   -7.4786654      849.344  0.015655533  0.014003131          968 
 4522000    0.5306054   -7.4729685    849.45912  0.015654193   0.01399836         1087 
 4523000   0.53029739   -7.4926932    850.13236  0.015663136  0.013993596         1059 
 4524000   0.51705827   -7.4764288    849.45804  0.015647252  0.013988834          999 
 4525000   0.53261714   -7.4619284    847.92793  0.015615616  0.013984076         1132 
 4526000   0.52379406    -7.489553    850.17381  0.015653517  0.013979318         1152 
 4527000   0.52820995   -7.4759584    849.76959  0.015642618  0.013974558         1030 
 4528000   0.53340287   -7.4954553    850.83837  0.015658833  0.013969804         1076 
 4529000   0.52732661   -7.4770998    850.07482  0.015641327  0.013965053         1077 
 4530000   0.54360587   -7.4547646    850.19521  0.015640088  0.013960304         1097 
 4531000   0.51999233   -7.4702036    849.15527   0.01561751   0.01395556         1071 
 4532000   0.53830778   -7.4555172    848.32551  0.015598807  0.013950815         1102 
 4533000   0.52933672   -7.4987436    850.05899  0.015627233  0.013946071         1111 
 4534000   0.53068095   -7.4930604    848.94681  0.015603345  0.013941328         1134 
 4535000   0.51572396   -7.4718212    848.70146  0.015595396  0.013936582         1120 
 4536000   0.52409248   -7.4708245    849.83439  0.015612772  0.013931838         1135 
 4537000   0.53566934   -7.4770661     849.5902  0.015604845  0.013927091         1159 
 4538000   0.51163509   -7.4723639    850.47481  0.015617651  0.013922356         1130 
 4539000   0.52222919   -7.4847894    849.23135  0.015591381  0.013917616         1163 
 4540000   0.52001174   -7.4804641    850.16199  0.015605029  0.013912877         1133 
 4541000   0.51471767   -7.4844227    849.31535  0.015586056   0.01390814         1174 
 4542000   0.52441066    -7.459005    851.06261  0.015614682  0.013903406         1135 
 4543000      0.51872   -7.4716929    848.76062  0.015569019  0.013898688         1028 
 4544000   0.52020076   -7.4535686    850.42437  0.015596104  0.013893968         1060 
 4545000   0.52021132   -7.4882084    850.64812  0.015596775  0.013889245         1101 
 4546000   0.53478207   -7.4641599    849.12772  0.015565474  0.013884517         1130 
 4547000   0.52353286   -7.4748252     850.0566  0.015579074  0.013879795         1123 
 4548000    0.5272017   -7.4872295    848.06426  0.015539143  0.013875076         1060 
 4549000   0.52667069   -7.4970649    849.17408  0.015556058  0.013870356         1104 
 4550000    0.5269784   -7.4986234    849.44081  0.015557524  0.013865639         1163 
 4551000   0.52091102   -7.4956862    850.32181  0.015570238   0.01386092         1125 
 4552000    0.5265901   -7.5020019    849.06637  0.015543834  0.013856201         1073 
 4553000   0.53137194    -7.501722    850.52464   0.01556711  0.013851488         1131 
 4554000   0.52330637   -7.5049044    848.87531  0.015533511  0.013846776         1177 
 4555000   0.53109492   -7.4791762    850.10195  0.015552542  0.013842069         1128 
 4556000    0.5143296   -7.4785268    847.77993  0.015506657  0.013837364         1173 
 4557000   0.50863889   -7.4794159    850.09445  0.015545579  0.013832658         1035 
 4558000   0.51742538   -7.4855399    848.60024   0.01551485  0.013827958         1103 
 4559000   0.51715598   -7.5003407    848.93283  0.015517526  0.013823255         1041 
 4560000   0.52923957   -7.5018152    848.91947  0.015513879  0.013818558         1111 
 4561000    0.5113046   -7.4910344    849.20274  0.015515653   0.01381386         1077 
 4562000   0.52000822    -7.497855    848.92786  0.015507231   0.01380916         1139 
 4563000   0.52789383   -7.4802472    848.41278  0.015494426  0.013804466         1141 
 4564000   0.52272244   -7.5116151    848.61306  0.015494688  0.013799776         1235 
 4565000   0.51852523   -7.4866766     848.9844  0.015498072  0.013795086         1065 
 4566000   0.52512217   -7.4907913    848.81028    0.0154915  0.013790396         1184 
 4567000   0.52771868    -7.473055    848.94652  0.015490594  0.013785712         1154 
 4568000   0.51915505   -7.4794436    849.39093   0.01549531  0.013781029         1124 
 4569000   0.52021987   -7.4997601    849.17211  0.015487928  0.013776348         1170 
 4570000   0.52350796   -7.5008951    850.06005   0.01550073  0.013771668          980 
 4571000   0.52533112   -7.4956858    848.84173  0.015475128  0.013766996         1087 
 4572000   0.52094393   -7.4918202    849.65563  0.015486578  0.013762323         1112 
 4573000   0.52561105   -7.4864187    848.39695  0.015460255  0.013757654         1113 
 4574000   0.52274533   -7.5022983    849.07426  0.015469215  0.013752988         1156 
 4575000   0.54026989   -7.4830914    849.19329  0.015468002  0.013748319          985 
 4576000   0.53058966   -7.4922143    849.69414  0.015473742   0.01374366         1085 
 4577000   0.51315303   -7.4880047    848.70562  0.015452364  0.013738993         1040 
 4578000   0.52305709   -7.4908868    850.92992  0.015489477  0.013734332         1090 
 4579000   0.51729304    -7.477986    849.04051  0.015451709   0.01372967         1110 
 4580000   0.50866674   -7.4886016    848.49046  0.015438327  0.013725013         1090 
 4581000   0.51008581   -7.4806108    849.87019  0.015460056  0.013720355         1112 
 4582000   0.53188452   -7.5024329    849.20004  0.015444494  0.013715696         1076 
 4583000   0.51597225   -7.4942286    850.16198  0.015458615  0.013711044         1121 
 4584000   0.51816949    -7.500125    849.48176  0.015442877  0.013706392         1090 
 4585000   0.52924376   -7.4892609    848.50211  0.015421703  0.013701745         1084 
 4586000   0.51510599   -7.5027914       847.89  0.015407218  0.013697096         1162 
 4587000    0.5190394   -7.4878455    847.97968  0.015405488  0.013692449         1120 
 4588000   0.52154592    -7.507417    849.00366  0.015420729    0.0136878         1126 
 4589000   0.51798303   -7.4723468    850.40936  0.015442895  0.013683163         1141 
 4590000   0.51733074   -7.4971046    848.35644  0.015402259  0.013678524         1154 
 4591000   0.51493532   -7.4942594    849.22563  0.015414681  0.013673885         1140 
 4592000   0.52093219   -7.5008393    847.32462  0.015376826  0.013669242         1145 
 4593000   0.51804331   -7.5063958    848.19602  0.015389288   0.01366461         1103 
 4594000   0.51373462   -7.5173298    849.29801  0.015405928  0.013659977         1134 
 4595000   0.52331233   -7.4889096    848.01233  0.015379259  0.013655347         1039 
 4596000   0.50756386   -7.5063818    849.14873  0.015396517  0.013650713         1232 
 4597000   0.52032594   -7.5039318     847.7399  0.015367629  0.013646086         1234 
 4598000   0.51660971     -7.50686    848.39271  0.015376118  0.013641464         1140 
 4599000   0.51157216   -7.4988414     848.6419   0.01537729  0.013636839         1079 
 4600000   0.51255736   -7.5020517    849.13184  0.015382823  0.013632214         1022 
 4601000   0.51160588   -7.4961944    848.61678  0.015370151  0.013627595         1147 
 4602000   0.51397734   -7.5148098    848.90201  0.015371976  0.013622977         1113 
 4603000   0.50755129   -7.5068397    847.07815  0.015335617  0.013618364         1186 
 4604000   0.50036093   -7.4949041    848.02788  0.015349477  0.013613753         1141 
 4605000    0.5164414    -7.486785    849.42217  0.015371375  0.013609137         1025 
 4606000   0.51082513   -7.4930239    847.79613  0.015338619  0.013604524         1074 
 4607000   0.51348653   -7.5031066    850.20461  0.015378855  0.013599914         1086 
 4608000   0.51694829   -7.4967838    848.27382    0.0153406  0.013595303         1192 
 4609000   0.51912464   -7.4835896    846.89199  0.015312287  0.013590701         1056 
 4610000   0.51987838   -7.5058383    849.58667  0.015357677  0.013586097         1104 
 4611000   0.51340053   -7.4992224    848.92577  0.015342402  0.013581499         1126 
 4612000   0.51544799   -7.5068998    848.43449  0.015330198  0.013576899         1120 
 4613000   0.51482219   -7.5065036    848.67423  0.015331206  0.013572299         1166 
 4614000   0.51883885   -7.4970085    848.13862  0.015318209  0.013567701         1137 
 4615000   0.51480685   -7.4894611     848.3262  0.015318277  0.013563111         1188 
 4616000   0.52105342   -7.5064007    848.07924  0.015310501  0.013558525         1069 
 4617000   0.50929367   -7.4969738    849.89197  0.015339903  0.013553936         1045 
 4618000   0.51595583   -7.4923005    848.73003  0.015315613  0.013549351         1107 
 4619000   0.51383586   -7.5109285    847.75721  0.015294747  0.013544767         1143 
 4620000   0.50790344   -7.4948245    848.38769  0.015302808  0.013540186         1114 
 4621000    0.5103875    -7.489417    849.61055  0.015321549  0.013535608         1049 
 4622000   0.50763363   -7.5122236    848.07833  0.015290609  0.013531033         1202 
 4623000   0.50615457   -7.5031808    848.85478  0.015301298  0.013526455         1021 
 4624000   0.51598964   -7.5115398    849.16474  0.015303575  0.013521879         1148 
 4625000   0.50603945    -7.507689    848.29682  0.015284627  0.013517305         1020 
 4626000   0.52136191   -7.5012229     847.4355  0.015265807  0.013512741         1121 
 4627000   0.52611667   -7.5036557    848.98792  0.015290468  0.013508172         1179 
 4628000   0.52262362   -7.5075015    847.98665  0.015269134  0.013503608         1082 
 4629000   0.51052336   -7.5086473    849.42601  0.015291748  0.013499045         1164 
 4630000   0.51524635   -7.5154961    849.18551  0.015284117  0.013494478         1094 
 4631000   0.49853013   -7.5126954    849.57094  0.015287752  0.013489917         1107 
 4632000   0.50770609   -7.5024002    849.18321  0.015277476  0.013485359         1085 
 4633000   0.51270687   -7.4891327    848.71993  0.015265845  0.013480806         1155 
 4634000   0.50729506   -7.5111295    849.34933  0.015273869  0.013476255         1068 
 4635000   0.51263622   -7.5146918    847.03124  0.015228897  0.013471702         1154 
 4636000   0.51942186   -7.4959056    849.04435  0.015261798  0.013467145         1080 
 4637000   0.51344428   -7.5059696    849.84193   0.01527284   0.01346259         1131 
 4638000   0.51713505   -7.4967835    848.13538  0.015238885  0.013458036         1070 
 4639000   0.50739014   -7.5027227    848.38367   0.01524006  0.013453485         1148 
 4640000   0.50530078   -7.5018133    849.20076   0.01525145  0.013448942         1041 
 4641000   0.50942626   -7.5103875    847.02855   0.01520916  0.013444396         1153 
 4642000   0.49690007   -7.5176825     848.3638  0.015229854  0.013439857         1057 
 4643000   0.51184287    -7.514164     847.7503  0.015215563  0.013435309         1083 
 4644000   0.51894639   -7.5141877    849.67476  0.015246819   0.01343077         1168 
 4645000   0.52503033    -7.526685    848.56511   0.01522363  0.013426233         1115 
 4646000   0.50417212   -7.5341239     847.5648  0.015202411  0.013421696         1058 
 4647000     0.509548   -7.5157573    849.03828  0.015225563  0.013417163         1151 
 4648000   0.50006741   -7.5221605    848.36086  0.015210142  0.013412631         1099 
 4649000   0.49691512    -7.530356    846.77106  0.015178373  0.013408101         1134 
 4650000   0.49764606    -7.506727    848.59371  0.015207773  0.013403574         1169 
 4651000   0.51373703   -7.5278652    847.74417  0.015189281  0.013399052          999 
 4652000   0.49795125   -7.5146673    846.07921  0.015156191   0.01339452         1067 
 4653000   0.50136919   -7.5185599     848.5159  0.015196574  0.013389997         1056 
 4654000   0.50215235   -7.4980966    848.69222  0.015196466   0.01338548         1045 
 4655000   0.50721329   -7.5150258    849.14476  0.015201302  0.013380961         1063 
 4656000   0.50847399    -7.526916    847.31341   0.01516526  0.013376443         1129 
 4657000   0.50237254   -7.5151314    849.07185  0.015193469   0.01337193         1073 
 4658000   0.51090272   -7.5319944    847.68554  0.015165406  0.013367419         1223 
 4659000   0.50119883   -7.5246622    848.23216  0.015171928  0.013362915         1123 
 4660000   0.50688217   -7.5145147    848.65342  0.015176206  0.013358403         1093 
 4661000   0.50777214   -7.5230686     848.3412  0.015167368  0.013353898         1163 
 4662000   0.51828577   -7.5260662    848.23932  0.015162293  0.013349392         1103 
 4663000   0.51088235   -7.5251808    847.57885  0.015147238  0.013344896         1151 
 4664000   0.50311462   -7.5105039    848.58876  0.015162035  0.013340395         1168 
 4665000   0.49561652   -7.5161732    849.61829  0.015177176  0.013335897         1169 
 4666000    0.5086652   -7.5116373    847.02813  0.015127663  0.013331401         1117 
 4667000   0.51722937   -7.5252643    847.97068  0.015141252  0.013326907         1108 
 4668000    0.5067762   -7.5348345    846.86447   0.01511826  0.013322414         1056 
 4669000   0.50016113   -7.5195152    848.26477  0.015140015  0.013317923         1225 
 4670000   0.52323091   -7.5016387    849.34317  0.015156017  0.013313441         1173 
 4671000   0.49603643   -7.5178826    849.71549  0.015159414  0.013308956         1130 
 4672000   0.51386341   -7.5191722    848.11071  0.015127546  0.013304471          986 
 4673000   0.50368732    -7.516677    848.83398  0.015137206  0.013299992         1082 
 4674000   0.50208834   -7.5167484    847.89022  0.015117141  0.013295508         1028 
 4675000   0.51071631   -7.5278811    847.06767  0.015099245  0.013291033         1025 
 4676000   0.51715904   -7.5247676    850.07596  0.015149629  0.013286554         1074 
 4677000   0.50169557   -7.5282381    847.81483  0.015106101  0.013282077         1110 
 4678000    0.5149203   -7.5187915    848.09311  0.015107829  0.013277605         1145 
 4679000   0.50218203   -7.5192806     847.3748  0.015091807  0.013273131         1083 
 4680000   0.49997274   -7.5308928    847.94114  0.015098667  0.013268659         1048 
 4681000   0.50140965   -7.5237395    848.32052  0.015102195  0.013264188         1067 
 4682000   0.49880164   -7.5158186    847.59159  0.015085996  0.013259723          972 
 4683000     0.494787   -7.5023468    848.53539  0.015099569  0.013255262         1102 
 4684000   0.50231785   -7.5236644    847.25836  0.015073626  0.013250799         1086 
 4685000   0.49800088   -7.5207478    847.70485   0.01507835  0.013246336         1077 
 4686000   0.51054869   -7.5261206    849.13673  0.015100596  0.013241875         1069 
 4687000   0.49861966    -7.521674    848.55403  0.015087014  0.013237415         1090 
 4688000   0.50259534   -7.5317216    845.59614  0.015031217  0.013232955         1137 
 4689000   0.49429024   -7.5236001    847.38886  0.015059872  0.013228499         1106 
 4690000   0.50495078    -7.528025    847.13899  0.015052221  0.013224045         1154 
 4691000   0.49647656   -7.5235991    847.13037  0.015048859  0.013219589         1073 
 4692000   0.50025247   -7.5300095     848.5127  0.015070203  0.013215139         1134 
 4693000   0.49751675    -7.526483    847.61403  0.015051034  0.013210695         1141 
 4694000   0.49311836   -7.5215682    847.60282  0.015047629  0.013206243         1158 
 4695000   0.50548405   -7.5192557    847.58364  0.015044083  0.013201798         1169 
 4696000   0.49587272   -7.5435658    848.03184  0.015048833  0.013197354         1119 
 4697000   0.49647392   -7.5333379    847.66364  0.015039096  0.013192915         1182 
 4698000   0.49545516   -7.5338476    848.42747  0.015049444  0.013188479         1119 
 4699000   0.51148828   -7.5336035    849.32236  0.015062112  0.013184044         1171 
 4700000   0.49483918   -7.5195685    847.66775   0.01502957  0.013179615         1108 
 4701000   0.49020647   -7.5250311    848.02795  0.015032758  0.013175185         1129 
 4702000   0.50153124   -7.5239822    847.80155  0.015025549  0.013170758         1125 
 4703000    0.5062273   -7.5297025    849.16903  0.015046584  0.013166326         1047 
 4704000   0.51050955   -7.5395587    846.56287  0.014997216  0.013161902         1118 
 4705000   0.49842782   -7.5273887    848.73699  0.015032536  0.013157474         1006 
 4706000   0.48379352   -7.5378401    845.70034  0.014975569  0.013153054         1049 
 4707000   0.50100188   -7.5229021    848.88347  0.015028742  0.013148629         1054 
 4708000    0.4897986    -7.537338    846.41161  0.014981797  0.013144206         1101 
 4709000   0.49328171   -7.5327539    848.00558  0.015006823  0.013139794         1120 
 4710000   0.49689625   -7.5249891    846.89553  0.014983997  0.013135378         1120 
 4711000    0.4953596     -7.53719    847.69829  0.014995017  0.013130966         1174 
 4712000   0.50254245   -7.5405485    846.83651  0.014976594  0.013126552         1043 
 4713000   0.50849559   -7.5379862    846.62286  0.014969638   0.01312214         1170 
 4714000   0.49444425   -7.5285269    848.39959  0.014997871  0.013117727         1064 
 4715000   0.50191178   -7.5360451    847.84996  0.014984976   0.01311332         1084 
 4716000   0.50234529   -7.5235918     847.8428  0.014981672  0.013108917         1111 
 4717000   0.48156751   -7.5269875    846.92222  0.014962233  0.013104509         1114 
 4718000   0.49166738   -7.5270004    847.83245  0.014975139  0.013100106         1139 
 4719000   0.50076372   -7.5309234    846.75989  0.014953025  0.013095702         1191 
 4720000   0.49345321   -7.5420403    847.50867  0.014963077  0.013091298         1135 
 4721000   0.50577517   -7.5358762    846.78441  0.014947123  0.013086899         1134 
 4722000   0.49035887   -7.5398093    847.33589   0.01495369   0.01308251         1056 
 4723000   0.49350978   -7.5252167    847.77312  0.014958238  0.013078112         1101 
 4724000   0.50203111   -7.5286547    847.90314  0.014957366  0.013073719         1082 
 4725000   0.49680639   -7.5412334    848.43409  0.014963564  0.013069331         1121 
 4726000   0.50532332   -7.5369258    846.95127  0.014934251  0.013064943         1175 
 4727000   0.49043276   -7.5322344    847.01387  0.014932196  0.013060558         1043 
 4728000   0.50432094   -7.5241466    848.63021  0.014957526  0.013056178         1074 
 4729000   0.49909024   -7.5245781    846.69068  0.014920185  0.013051798         1134 
 4730000   0.49563689   -7.5301283    848.49269  0.014948779  0.013047423         1148 
 4731000   0.49861734   -7.5178567    846.17173  0.014904737  0.013043055         1123 
 4732000   0.49553528   -7.5211698    846.98387  0.014915889  0.013038688         1134 
 4733000   0.49420092   -7.5356554     846.8669  0.014910679  0.013034318         1027 
 4734000   0.49126995   -7.5274165    848.01892  0.014927808  0.013029955         1086 
 4735000   0.49609492   -7.5313605      846.263  0.014893752  0.013025589         1097 
 4736000   0.48760179    -7.536198    846.71444  0.014898551  0.013021223         1127 
 4737000   0.49891665    -7.528962    846.67356  0.014894687  0.013016862         1083 
 4738000    0.4955805   -7.5264019    847.38297   0.01490402  0.013012502         1071 
 4739000   0.49334823   -7.5412039    846.41378  0.014883832  0.013008138         1008 
 4740000   0.48273688   -7.5328196    847.33035  0.014896806   0.01300378         1065 
 4741000   0.48583009   -7.5508214    846.82678  0.014884813  0.012999418         1092 
 4742000   0.49677685   -7.5292107    846.50519  0.014876023  0.012995063         1159 
 4743000   0.49030656   -7.5315986    846.78864  0.014877866  0.012990711         1050 
 4744000   0.50265263   -7.5360758    848.34435  0.014902058  0.012986357         1031 
 4745000   0.49962022   -7.5452833    847.03668  0.014875952  0.012982006         1044 
 4746000   0.49058542   -7.5282905    847.93389  0.014888571  0.012977656         1021 
 4747000    0.4844352   -7.5375389    848.03174  0.014887152  0.012973305         1135 
 4748000   0.49396676   -7.5318835    847.12917  0.014868175  0.012968961         1179 
 4749000   0.49022444   -7.5493816    846.58531  0.014855501  0.012964618         1181 
 4750000   0.49176485   -7.5457029    846.67459   0.01485394  0.012960275         1128 
 4751000   0.48458435   -7.5328583    848.12387  0.014876234  0.012955934         1165 
 4752000   0.48258563   -7.5389952    846.70797  0.014848274  0.012951596         1204 
 4753000    0.4953877   -7.5377122    845.90798  0.014831124  0.012947259         1133 
 4754000   0.48211424   -7.5358694     846.7361   0.01484252  0.012942925         1143 
 4755000   0.48859784   -7.5373027    848.10657  0.014863417  0.012938589         1104 
 4756000   0.49681353   -7.5349312    847.30338  0.014846218  0.012934256         1098 
 4757000   0.49363984   -7.5514779    847.10961  0.014839703  0.012929929         1089 
 4758000   0.50575715   -7.5502579    845.69933  0.014811884  0.012925601         1125 
 4759000   0.49421364    -7.549721    847.08646  0.014833061  0.012921273         1122 
 4760000    0.4883717   -7.5416799     845.8313  0.014807971  0.012916948         1203 
 4761000   0.49861589   -7.5353603    846.85419  0.014822765  0.012912622         1077 
 4762000   0.48694913   -7.5301942    848.87341  0.014854988  0.012908304         1103 
 4763000   0.48210635   -7.5272848    845.75762  0.014797355  0.012903986         1069 
 4764000   0.48799615   -7.5425671     848.1083  0.014835368   0.01289967         1136 
 4765000   0.50419013   -7.5523003    847.65741  0.014824369  0.012895354         1157 
 4766000   0.49155188    -7.560128    845.59918   0.01478527  0.012891033         1235 
 4767000   0.48019671   -7.5292306    846.44924  0.014797029  0.012886724         1148 
 4768000   0.47853619   -7.5247537     847.3327  0.014809366  0.012882416         1151 
 4769000   0.48084514   -7.5507992    847.07987  0.014801843  0.012878102         1151 
 4770000   0.47915673   -7.5424199    845.84383  0.014777146  0.012873796         1222 
 4771000   0.48236026   -7.5376947    846.75789  0.014790014  0.012869491         1155 
 4772000   0.48325063   -7.5640043     846.5328  0.014782984  0.012865181         1120 
 4773000    0.4908292   -7.5459776    846.61827  0.014781379  0.012860876         1140 
 4774000   0.47880128   -7.5400729    848.22077  0.014806256  0.012856575         1197 
 4775000   0.48067221    -7.557761    846.67647  0.014776204  0.012852274         1104 
 4776000   0.49145966   -7.5380755    847.69578  0.014790895  0.012847972         1144 
 4777000    0.4856389   -7.5508221    846.82327  0.014772578  0.012843676         1124 
 4778000   0.48114442   -7.5449907    845.59547  0.014748072  0.012839382         1134 
 4779000   0.49310651   -7.5493084    847.57571  0.014779516  0.012835087         1185 
 4780000   0.49629715   -7.5456155    846.96498  0.014765777  0.012830795         1074 
 4781000   0.48806277   -7.5379539    846.38399  0.014752562  0.012826505         1113 
 4782000   0.49669632   -7.5457059    845.99379  0.014742677  0.012822212         1137 
 4783000   0.48601252   -7.5498865    847.29343  0.014762238  0.012817923         1194 
 4784000   0.48235804   -7.5438863    845.33431  0.014725026  0.012813639         1125 
 4785000    0.4847583   -7.5528333    846.17287  0.014736553  0.012809356         1114 
 4786000   0.48235434   -7.5534948    847.03494  0.014748484  0.012805075         1148 
 4787000   0.47988814    -7.552715     847.1178  0.014746846  0.012800791         1191 
 4788000   0.49840121   -7.5360661    844.82389  0.014703841  0.012796514         1194 
 4789000    0.4710455   -7.5411911    846.59553  0.014731599  0.012792239         1207 
 4790000   0.49266182   -7.5653132     846.9864  0.014735324  0.012787961         1118 
 4791000   0.49256038   -7.5519811    846.98329  0.014732194  0.012783686         1197 
 4792000   0.48950092   -7.5560473    846.92673  0.014728136  0.012779409         1109 
 4793000   0.48896906   -7.5325907    847.07716  0.014727679  0.012775146         1163 
 4794000    0.4831578   -7.5323845    846.10415  0.014707693  0.012770875         1224 
 4795000   0.47872448   -7.5481407    846.42157  0.014710142  0.012766609         1182 
 4796000   0.48138886   -7.5499812    846.08759  0.014701272  0.012762344         1167 
 4797000   0.48089249   -7.5495061    847.35439  0.014720214  0.012758075         1203 
 4798000   0.48882859    -7.557655    847.15588  0.014713698  0.012753804         1163 
 4799000     0.476883   -7.5326739     847.5062  0.014716715  0.012749538         1148 
 4800000   0.48616274   -7.5466579    846.87469  0.014702686  0.012745277         1124 
 4801000    0.4811383   -7.5439506    845.94592  0.014683502  0.012741022         1112 
 4802000   0.49803347    -7.563537    846.13057  0.014683649  0.012736764         1231 
 4803000   0.48572826   -7.5459584    846.24951  0.014682655  0.012732504         1169 
 4804000   0.47806898   -7.5535168    846.09737   0.01467696  0.012728247         1136 
 4805000   0.48898507   -7.5525489    846.49712  0.014680838  0.012723993         1102 
 4806000   0.48537131   -7.5488403    846.58893  0.014679375  0.012719741         1175 
 4807000   0.48178807   -7.5743082    847.42275  0.014690776  0.012715489         1111 
 4808000   0.48601366   -7.5669504    845.43558  0.014653279  0.012711241         1077 
 4809000   0.48067629   -7.5513142    846.25304  0.014664397  0.012706989         1114 
 4810000   0.48611674   -7.5608337    846.97523   0.01467386  0.012702744         1163 
 4811000   0.47625354   -7.5599568    845.83069  0.014650985  0.012698502         1188 
 4812000   0.47850518   -7.5588777    847.10505   0.01467001   0.01269426         1137 
 4813000   0.49179136   -7.5533661    846.91769  0.014663718   0.01269002         1149 
 4814000   0.48717041    -7.571342     845.8889  0.014642863  0.012685782         1226 
 4815000    0.4844001   -7.5610388    847.28396  0.014663966  0.012681548         1171 
 4816000   0.47981515   -7.5669454    845.68698  0.014633288  0.012677314         1275 
 4817000   0.47946858   -7.5626879    845.48104  0.014626688  0.012673084         1155 
 4818000   0.49049403   -7.5553832    847.00929  0.014650085  0.012668853         1192 
 4819000   0.47865066   -7.5555302    844.46343   0.01460302  0.012664622         1182 
 4820000   0.48567734   -7.5396789    845.82046  0.014623452  0.012660395         1107 
 4821000   0.47743953   -7.5751957    846.54285  0.014632905  0.012656173         1189 
 4822000   0.47657302   -7.5729135    845.46073   0.01461117  0.012651952         1167 
 4823000   0.48133885   -7.5709681    845.11631  0.014602189  0.012647725         1225 
 4824000   0.48350623   -7.5755016    847.99618  0.014648911  0.012643498         1200 
 4825000   0.48601383    -7.565304    845.74346  0.014606968  0.012639279         1089 
 4826000   0.48721594   -7.5621764    846.11477  0.014610353   0.01263506         1184 
 4827000   0.48229011   -7.5773446     845.2408  0.014592238  0.012630842         1168 
 4828000   0.46952449   -7.5648589    845.67555   0.01459672  0.012626628         1147 
 4829000   0.48233364   -7.5753827    844.29585  0.014569888  0.012622414         1170 
 4830000   0.47803082   -7.5604907    847.08862  0.014615056  0.012618202         1165 
 4831000   0.48789796   -7.5669397    846.40759  0.014600283   0.01261399         1175 
 4832000   0.47554159   -7.5800641    845.82712   0.01458725  0.012609781         1159 
 4833000   0.47847745   -7.5695336    847.61425  0.014615047  0.012605575         1237 
 4834000   0.47927061    -7.566883    845.64572  0.014578088  0.012601365         1273 
 4835000   0.48113684   -7.5695955    846.99554  0.014598338  0.012597162         1116 
 4836000   0.47894838   -7.5635364    845.05094   0.01456181  0.012592964         1165 
 4837000   0.47081469   -7.5669654    845.60403  0.014568328  0.012588767         1157 
 4838000    0.4898385   -7.5635097     847.1015   0.01459111  0.012584569         1163 
 4839000   0.47692331   -7.5739918    847.06537  0.014587473  0.012580376          974 
 4840000   0.48252151   -7.5750578     845.8355  0.014563283  0.012576186         1204 
 4841000   0.48172103   -7.5708713    847.74685  0.014593177  0.012571994         1173 
 4842000    0.4699015   -7.5509028    845.13867  0.014545275  0.012567797         1174 
 4843000   0.48040864   -7.5586955    845.21201  0.014543534  0.012563608         1216 
 4844000   0.48501104   -7.5836161    844.47275  0.014527814  0.012559423         1233 
 4845000   0.47251695    -7.578046    845.76335  0.014547013  0.012555236         1303 
 4846000   0.48033421   -7.5859368    846.57825  0.014558025  0.012551052         1268 
 4847000   0.47968761   -7.5609405    844.34983  0.014516708  0.012546868         1213 
 4848000   0.47748706   -7.5757995    845.69189  0.014536783   0.01254269         1216 
 4849000   0.48331081   -7.5543961    845.54928  0.014531334  0.012538506         1251 
 4850000     0.471003   -7.5793239    846.77945  0.014549475  0.012534329         1201 
 4851000    0.4839831   -7.5773636    844.97981  0.014515561  0.012530153         1225 
 4852000   0.47874719   -7.5759121    844.53112  0.014504863  0.012525976         1236 
 4853000   0.47264022   -7.5759829    846.19526   0.01453045    0.0125218         1168 
 4854000   0.46616273   -7.5617196    845.38594  0.014513562  0.012517633         1248 
 4855000   0.48025047   -7.5753543     844.1655  0.014489624  0.012513467         1212 
 4856000   0.47734643   -7.5768871    844.61339  0.014494326  0.012509303         1279 
 4857000   0.46523236   -7.5696715    844.56364  0.014490489  0.012505136         1240 
 4858000   0.47193371   -7.5742884    845.72339    0.0145074  0.012500971         1254 
 4859000   0.46250648   -7.5773764    845.70003  0.014504014  0.012496809         1264 
 4860000   0.47805398   -7.5608833    846.29856  0.014511292  0.012492646         1232 
 4861000   0.47720562   -7.5709188    845.50169  0.014494646  0.012488484         1273 
 4862000   0.46812302   -7.5803091    845.31762   0.01448851  0.012484327         1266 
 4863000   0.47785713     -7.56752    843.95058  0.014462105  0.012480169         1220 
 4864000   0.47268294   -7.5687276    845.44344  0.014484708   0.01247601         1181 
 4865000   0.47158969   -7.5630731    845.01313   0.01447436   0.01247186         1265 
 4866000   0.48048865   -7.5686151    845.12146   0.01447324  0.012467709         1255 
 4867000   0.47776423   -7.5761654    846.69142  0.014497148  0.012463557         1298 
 4868000   0.46449232   -7.5693539    845.24122  0.014469344  0.012459411         1214 
 4869000   0.45864158   -7.5819155    846.32706  0.014484957  0.012455267         1304 
 4870000   0.47801108   -7.5767241    844.65525  0.014453375   0.01245112         1262 
 4871000   0.47426813   -7.5722669    845.57361  0.014466119  0.012446976         1162 
 4872000   0.47661996   -7.5828538    847.25899  0.014491978  0.012442834         1159 
 4873000    0.4640323   -7.5713091    845.33433   0.01445609  0.012438693         1207 
 4874000    0.4555899   -7.5836779    846.65697  0.014475738  0.012434557         1286 
 4875000   0.46167781   -7.5636891    845.68414  0.014456139  0.012430421         1181 
 4876000   0.47401881   -7.5711147    843.50782   0.01441598  0.012426288         1214 
 4877000   0.46721052   -7.5594707    845.94907  0.014454738  0.012422161         1181 
 4878000   0.47123093   -7.5874019    845.34836  0.014441512  0.012418033         1159 
 4879000    0.4777117   -7.5727511    846.08923  0.014451206  0.012413906         1183 
 4880000   0.47074567    -7.574231    846.03292  0.014447283  0.012409777         1158 
 4881000   0.46452312   -7.5507621    845.99612  0.014443695  0.012405652         1023 
 4882000   0.47385437   -7.5852319    844.42184  0.014413865  0.012401529         1190 
 4883000   0.46270803   -7.5959968    846.63428   0.01444867  0.012397404         1194 
 4884000    0.4660285    -7.564921     845.5587   0.01442736  0.012393282         1175 
 4885000   0.47477488   -7.5699864    845.16587  0.014417705   0.01238916         1241 
 4886000     0.467549   -7.5712247     845.6759  0.014423453  0.012385038         1180 
 4887000   0.46826319   -7.5910983    843.08814  0.014376375   0.01238092         1182 
 4888000   0.46442292   -7.5795947    845.15628  0.014408693  0.012376805         1223 
 4889000   0.47971409   -7.5720566    845.56155  0.014412653  0.012372694         1137 
 4890000    0.4800916   -7.5764694    845.33737  0.014405886  0.012368584         1157 
 4891000   0.47593353   -7.5725736    846.85032  0.014428718  0.012364476         1145 
 4892000   0.46536694   -7.5910698     844.2886  0.014382131   0.01236037         1185 
 4893000   0.47045121   -7.5922072    845.28536  0.014396167  0.012356263         1160 
 4894000   0.47265741   -7.5694943    845.99428  0.014405297  0.012352158         1160 
 4895000   0.47722036   -7.5782034    844.75862  0.014381318  0.012348056         1169 
 4896000    0.4698199   -7.5812874     844.3267  0.014371029  0.012343953         1181 
 4897000    0.4672265   -7.5917782    845.07449   0.01438082  0.012339855         1230 
 4898000   0.45987806   -7.5775901    845.32366  0.014382123  0.012335758         1164 
 4899000   0.46908679   -7.5863038    844.78339  0.014369997  0.012331663         1246 
 4900000   0.46648447   -7.5786313    844.46736   0.01436169  0.012327573         1201 
 4901000   0.45728192   -7.5900207    845.41547  0.014374881   0.01232348         1197 
 4902000   0.46795856    -7.565785    844.93753  0.014363823  0.012319386         1137 
 4903000   0.46661665    -7.578941    844.62325  0.014355552  0.012315301         1143 
 4904000   0.45938631   -7.5827258    845.39118  0.014365674  0.012311216         1140 
 4905000   0.47013764   -7.5821557    846.08882  0.014374598  0.012307129         1160 
 4906000   0.46612058   -7.5764361    844.26922   0.01434076  0.012303042         1124 
 4907000   0.45839866   -7.5960819    844.51133  0.014341949  0.012298958         1210 
 4908000   0.47131266   -7.5743334    844.09505  0.014331959  0.012294872         1235 
 4909000   0.47137484   -7.5784421     845.1612  0.014347138  0.012290792         1219 
 4910000   0.47434783   -7.5844397    845.41666  0.014348552  0.012286713         1204 
 4911000   0.46007305   -7.5976527    845.57553  0.014348326  0.012282635         1239 
 4912000   0.46629935   -7.5924413      845.264  0.014340119  0.012278556         1225 
 4913000   0.46547706   -7.5780748    843.88746  0.014313852   0.01227448         1192 
 4914000   0.46249503   -7.5901973    845.28914  0.014334709  0.012270405         1184 
 4915000   0.46698054   -7.5857561    845.23141  0.014330814  0.012266335         1244 
 4916000   0.45885633   -7.5970046    845.48597  0.014332214  0.012262268         1238 
 4917000   0.46806566   -7.5736898    845.33254  0.014326699  0.012258198         1182 
 4918000   0.46398087   -7.5949694    844.34018  0.014306971  0.012254132         1250 
 4919000   0.46659711    -7.602856    843.97867  0.014297938  0.012250063         1246 
 4920000   0.46907459   -7.5858547    845.01423  0.014312572  0.012246001         1201 
 4921000   0.46676447   -7.5931956    844.92451  0.014308144  0.012241942         1284 
 4922000   0.46329041   -7.5831817    843.50686  0.014281235  0.012237878         1259 
 4923000   0.46764752   -7.5892972    844.92308  0.014302307  0.012233821         1169 
 4924000   0.46474415   -7.5944311    846.33645  0.014323322   0.01222976         1189 
 4925000   0.46541732   -7.6028126    845.79825  0.014311307  0.012225705         1218 
 4926000   0.46580167   -7.5907002    845.40587  0.014301764  0.012221654         1117 
 4927000   0.46316236   -7.5953698    844.99968  0.014291991  0.012217601         1197 
 4928000   0.47045083   -7.5984058     844.5655  0.014281749  0.012213553         1173 
 4929000    0.4593979   -7.5813758    844.30127  0.014274384    0.0122095         1199 
 4930000   0.47490607   -7.5961589    846.00447  0.014300278  0.012205454         1284 
 4931000   0.47054504   -7.5786649    845.04841  0.014281221   0.01220141         1182 
 4932000   0.45534403   -7.5786653    844.52128  0.014269419  0.012197367         1271 
 4933000   0.46181068   -7.5928179    844.83297  0.014271792  0.012193321         1210 
 4934000   0.46752112   -7.5946992    844.59532  0.014264885  0.012189277         1244 
 4935000   0.46258303    -7.588524    845.59206  0.014278826  0.012185236         1196 
 4936000   0.45858662   -7.6034153    842.79115  0.014228646  0.012181196         1295 
 4937000   0.45420196   -7.5897279    845.38565  0.014269557  0.012177158         1294 
 4938000   0.45989261   -7.5979388    844.36976  0.014249523  0.012173124         1313 
 4939000   0.45295361   -7.6013117    844.53053  0.014249351  0.012169089         1254 
 4940000   0.45887428    -7.590681    844.11737  0.014239497  0.012165055         1165 
 4941000   0.46247444   -7.5993297     843.8629  0.014232323  0.012161026         1291 
 4942000   0.46703607   -7.5917489    844.72398  0.014243963  0.012156995         1249 
 4943000   0.46469656   -7.5827741    845.45297  0.014253371  0.012152968         1244 
 4944000   0.46992755   -7.5848892    842.85239  0.014206654  0.012148941         1175 
 4945000   0.46720272   -7.5997123    844.98119  0.014239656  0.012144914         1246 
 4946000    0.4482082   -7.5929572    844.49678  0.014228615  0.012140891         1318 
 4947000   0.46101461   -7.5892712     844.4834  0.014225514   0.01213687         1215 
 4948000   0.46089225   -7.5986495    844.14156  0.014216882   0.01213285         1237 
 4949000   0.45676567   -7.5945288    844.54453  0.014220794  0.012128834         1291 
 4950000   0.46138908   -7.5832027    843.71618  0.014203976  0.012124817         1214 
 4951000   0.46032872   -7.6013765    843.91767  0.014204499    0.0121208         1341 
 4952000   0.46522963   -7.5904183    845.12873   0.01422201  0.012116786         1241 
 4953000   0.45674739   -7.5964731    844.41746  0.014207172  0.012112777         1238 
 4954000   0.46157363   -7.5974944    843.82071  0.014194266   0.01210876         1253 
 4955000   0.46843208   -7.6075699    843.43075  0.014184843  0.012104753         1239 
 4956000   0.45931774   -7.6030244    842.14645  0.014160386  0.012100741         1242 
 4957000   0.45707009   -7.6119678    844.93412  0.014204393  0.012096737         1283 
 4958000    0.4629852   -7.5997809    843.24257  0.014173097  0.012092732         1223 
 4959000   0.47080753   -7.5990241    844.02542  0.014183394  0.012088728         1189 
 4960000   0.45349099    -7.578697    844.11191  0.014181988   0.01208473         1182 
 4961000   0.46353561   -7.6166668    844.77445  0.014190258  0.012080733         1257 
 4962000    0.4517239   -7.5973581    843.64097  0.014168362  0.012076736         1214 
 4963000   0.45554254   -7.5989911    844.11274  0.014173429  0.012072744         1204 
 4964000   0.46376603   -7.5995834    844.33643  0.014174329  0.012068749         1244 
 4965000   0.45898863   -7.6048893    842.94444  0.014148111  0.012064755         1224 
 4966000   0.46115364   -7.6013313     843.4026   0.01415295  0.012060764         1343 
 4967000   0.44970094   -7.6041246    843.06213  0.014144388  0.012056775         1179 
 4968000   0.45555955   -7.6122372    844.44345  0.014164712  0.012052786         1228 
 4969000   0.45859263   -7.6104143    842.17901  0.014123885  0.012048798         1288 
 4970000   0.46290897   -7.6022454    845.52747  0.014177188  0.012044815         1254 
 4971000   0.45503598   -7.5935737    844.64826  0.014159597  0.012040827         1235 
 4972000   0.46685348    -7.581336    844.54655  0.014155044  0.012036845         1117 
 4973000   0.45145963   -7.6039845    844.31226  0.014148272   0.01203286         1261 
 4974000   0.45946522   -7.5894202    844.21975  0.014143877  0.012028881         1252 
 4975000   0.45664134   -7.5971482    843.71629  0.014132601  0.012024905         1309 
 4976000   0.44676916   -7.6044308    844.24086  0.014138546   0.01202093         1274 
 4977000   0.45368808   -7.6056508    843.82625  0.014128763  0.012016957         1196 
 4978000   0.45234022   -7.6046299    844.09286  0.014130388  0.012012986         1272 
 4979000   0.45177131   -7.6003755    843.71161  0.014121169  0.012009015         1196 
 4980000    0.4497148   -7.5871337    843.90032  0.014121491  0.012005047         1305 
 4981000   0.46062587   -7.5994058    845.16851  0.014139873  0.012001079         1203 
 4982000   0.45836917   -7.6133665    842.35425  0.014089961  0.011997113         1273 
 4983000   0.44778564   -7.6017564     843.0416  0.014098629  0.011993148         1263 
 4984000   0.46089457   -7.6014663     844.1635  0.014114558  0.011989185         1155 
 4985000   0.46548064   -7.5954116     843.6455  0.014103068  0.011985228         1216 
 4986000   0.44191575   -7.5954096    844.21416  0.014109743   0.01198127         1252 
 4987000   0.46366191   -7.6157087    842.59587  0.014079872  0.011977315         1314 
 4988000   0.45674789   -7.6051938    844.10552  0.014102271   0.01197336         1297 
 4989000     0.451732   -7.6092514    844.19827  0.014100993  0.011969404         1259 
 4990000   0.45566802      -7.5929    844.17874  0.014097841  0.011965454         1229 
 4991000   0.46409721   -7.6087941    844.45883  0.014099693  0.011961503         1243 
 4992000   0.45197681   -7.6128254    844.33598  0.014094818   0.01195755         1233 
 4993000   0.45059575   -7.5975397     843.2784  0.014074344  0.011953599         1223 
 4994000   0.45238435   -7.6067496    843.81364  0.014080457  0.011949651         1268 
 4995000   0.45533988   -7.6021319    842.40733  0.014054176  0.011945705         1275 
 4996000   0.44909077   -7.6107398    842.19302  0.014047788  0.011941761         1225 
 4997000    0.4400794   -7.6160737    843.82532  0.014072199  0.011937818         1343 
 4998000   0.44872782   -7.6037959    843.69907  0.014067278  0.011933873         1233 
 4999000   0.45594297   -7.6177747    843.25393  0.014057044  0.011929934         1330 
 5000000   0.45580788   -7.6060529    841.40035  0.014023339  0.011925995         1328 
 5001000   0.45470763   -7.6161218    842.66244  0.014041566  0.011922055         1262 
 5002000   0.44577901   -7.6220071    844.48905   0.01406919  0.011918121         1261 
 5003000   0.45013312   -7.6162008    842.61955  0.014035238  0.011914186         1247 
 5004000   0.45369919   -7.6044855     843.1884  0.014041907  0.011910251         1254 
 5005000   0.44680932   -7.6124066    844.42952  0.014059766   0.01190632         1255 
 5006000   0.45355127   -7.6026412    842.36583  0.014022603   0.01190239         1210 
 5007000   0.45193073   -7.6101658    843.65202  0.014041209  0.011898462         1193 
 5008000   0.45603337   -7.6055817     843.3332    0.0140331  0.011894537         1202 
 5009000   0.44357693   -7.6143369     843.1839  0.014027815  0.011890612         1173 
 5010000    0.4442801   -7.6129115    843.30506   0.01402703  0.011886688         1252 
 5011000   0.44761386   -7.6151212     842.4978  0.014010806  0.011882768         1266 
 5012000   0.44209252   -7.6166184    843.60358  0.014026396  0.011878848         1290 
Loop time of 12989.2 on 48 procs for 5000000 steps with 4000 atoms

Performance: 66516.934 tau/day, 384.936 timesteps/s
99.4% CPU use with 48 MPI tasks x no OpenMP threads

MPI task timing breakdown:
Section |  min time  |  avg time  |  max time  |%varavg| %total
---------------------------------------------------------------
Pair    | 962.48     | 1046.4     | 1125.9     | 115.1 |  8.06
Neigh   | 90.801     | 94.305     | 99.136     |  17.4 |  0.73
Comm    | 840.82     | 919.4      | 1009.8     | 119.5 |  7.08
Output  | 16.043     | 16.047     | 16.14      |   0.3 |  0.12
Modify  | 10755      | 10791      | 10819      |  15.7 | 83.08
Other   |            | 121.9      |            |       |  0.94

Nlocal:        83.3333 ave          89 max          78 min
Histogram: 2 4 5 10 5 8 3 6 2 3
Nghost:        2423.83 ave        2440 max        2413 min
Histogram: 4 3 11 5 12 8 1 3 0 1
Neighs:        16808.3 ave       19594 max       14579 min
Histogram: 2 3 12 6 6 5 6 6 0 2
FullNghs:      33616.3 ave       35752 max       31467 min
Histogram: 2 4 5 6 9 5 4 8 2 3

Total # of neighbors = 1613583
Ave neighs/atom = 403.39575
Neighbor list builds = 267311
Dangerous builds = 0

#clear
#
#next RN
#
#jump SELF
Total wall time: 3:36:32
