
units lj                  # Use reduced LJ style units
atom_style atomic         # Uncharged point particles
atom_modify map hash      # Needed for indexing of clusters etc
                          # Used to be able to find where atoms are in relation to each other.

lattice fcc 1.0 spacing 1 1 1
Lattice spacing in x,y,z = 1.5874011 1.5874011 1.5874011
region box block 0 10 0 10 0 10 units lattice
create_box 2 box
Created orthogonal box = (0.0000000 0.0000000 0.0000000) to (15.874011 15.874011 15.874011)
  3 by 4 by 4 MPI processor grid
create_atoms 1 box
Created 4000 atoms
  using lattice units in orthogonal box = (0.0000000 0.0000000 0.0000000) to (15.874011 15.874011 15.874011)
  create_atoms CPU = 0.003 seconds
set type 1 type/fraction 2 0.04 78393
Setting atom values ...
  161 settings made for type/fraction
mass 1 1.0
mass 2 1.0
pair_style lj/cut  3.5
pair_modify tail  yes
pair_coeff 1  1  1.0  1.0   # Intearaction between 1 and 1 set with epsilon = 1 and sigma = 1
pair_coeff 1  2  1.5  0.8
pair_coeff 2  2  0.5  0.88

write_data data.0
System init for write_data ...
Neighbor list info ...
  update every 1 steps, delay 10 steps, check yes
  max neighbors/atom: 2000, page size: 100000
  master list distance cutoff = 3.8
  ghost atom cutoff = 3.8
  binsize = 1.9, bins = 9 9 9
  1 neighbor lists, perpetual/occasional/extra = 1 0 0
  (1) pair lj/cut, perpetual
      attributes: half, newton on
      pair build: half/bin/atomonly/newton
      stencil: half/bin/3d
      bin: standard
WARNING: Not all mixed pair coeffs generated from mixing. Use write_data with 'pair ij' option to store all pair coeffs. (../write_data.cpp:312)


#############################
#   M E L T   S Y S T E M   #
#############################

velocity all create 2.4 1741580 mom yes dist gaussian # Assign velocities
                                                    # Temperature 2.4, random number seed, zero linear momentum
                                                                                # Gaussian distribution

timestep 0.002   # simulation timestep
thermo 1000       # output thermodynamic data every 1000 steps bf 100

# Define a fix  in this case with index 1 applied to all
# particles in the simulation. This fix is for simulations
# in the anisotropic NPT ensemble. Note that we use the MTK
# correction.
fix 1 all npt temp 2.4 2.4 0.1 iso 5.68 5.68 0.5 mtk yes tchain 5 pchain 5 # Use NPT ensemble
                                                                         # Set temperature and pressure and damping
                                                                         # Numbers of thermostats in chain and in barostat
run 10000          # run for 10000 steps
Per MPI rank memory allocation (min/avg/max) = 3.642 | 3.644 | 3.648 Mbytes
Step Temp E_pair E_mol TotEng Press Volume 
       0          2.4   -8.1195307            0   -4.5204307   -2.5632236         4000 
    1000    2.3953671   -4.4841387            0  -0.89198638    5.7351661     5054.596 
    2000    2.4277191   -4.4099147            0  -0.76924643    5.7016099    5110.9118 
    3000    2.3913796   -4.4883759            0   -0.9022033    5.7525231    5050.3285 
    4000    2.4540668   -4.4493577            0   -0.7691778    5.6335419    5091.9907 
    5000    2.4247555   -4.4606906            0  -0.82446667    5.5832036    5096.9651 
    6000    2.4015455   -4.4650947            0  -0.86367694    5.8193671    5052.8614 
    7000    2.3855952   -4.4224862            0  -0.84498801    5.7081373    5088.2268 
    8000     2.403952   -4.4260987            0  -0.82107226    5.6577408    5101.2216 
    9000    2.4364467   -4.4313534            0  -0.77759704     5.623627    5114.3045 
   10000    2.3722188   -4.4842085            0  -0.92676986    5.6075898    5073.6897 
Loop time of 2.10485 on 48 procs for 10000 steps with 4000 atoms

Performance: 820962.897 tau/day, 4750.943 timesteps/s
99.7% CPU use with 48 MPI tasks x no OpenMP threads

MPI task timing breakdown:
Section |  min time  |  avg time  |  max time  |%varavg| %total
---------------------------------------------------------------
Pair    | 0.86344    | 0.92622    | 1.0576     |   4.0 | 44.00
Neigh   | 0.16571    | 0.17259    | 0.19541    |   1.5 |  8.20
Comm    | 0.589      | 0.74284    | 0.80192    |   5.0 | 35.29
Output  | 0.00024053 | 0.00024421 | 0.00030476 |   0.0 |  0.01
Modify  | 0.20296    | 0.24848    | 0.30448    |   5.6 | 11.81
Other   |            | 0.01447    |            |       |  0.69

Nlocal:        83.3333 ave          94 max          76 min
Histogram: 1 10 10 5 5 8 3 2 1 3
Nghost:        1405.08 ave        1436 max        1379 min
Histogram: 3 4 3 7 13 8 3 3 2 2
Neighs:        7499.73 ave        8905 max        6556 min
Histogram: 5 5 5 11 7 8 2 1 2 2

Total # of neighbors = 359987
Ave neighs/atom = 89.996750
Neighbor list builds = 894
Dangerous builds = 170

# Equilibrate just above the melting temperature to avoid step fn in T

fix 1 all npt temp 1.25 1.25 0.1 iso 5.68 5.68 0.5 mtk yes tchain 5 pchain 5
run 2000
Per MPI rank memory allocation (min/avg/max) = 3.643 | 3.645 | 3.648 Mbytes
Step Temp E_pair E_mol TotEng Press Volume 
   10000    2.3722188   -4.4842085            0  -0.92676986    5.6075898    5073.6897 
   11000    1.2660258   -5.9769935            0   -4.0784295    5.6141568    4213.0674 
   12000    1.2618057   -5.9669283            0   -4.0746929    5.6042908    4215.9136 
Loop time of 0.46589 on 48 procs for 2000 steps with 4000 atoms

Performance: 741805.252 tau/day, 4292.854 timesteps/s
99.6% CPU use with 48 MPI tasks x no OpenMP threads

MPI task timing breakdown:
Section |  min time  |  avg time  |  max time  |%varavg| %total
---------------------------------------------------------------
Pair    | 0.20039    | 0.21429    | 0.25932    |   2.1 | 46.00
Neigh   | 0.030841   | 0.032091   | 0.037593   |   0.7 |  6.89
Comm    | 0.12104    | 0.16475    | 0.17964    |   2.8 | 35.36
Output  | 5.0082e-05 | 5.1598e-05 | 6.5239e-05 |   0.0 |  0.01
Modify  | 0.042589   | 0.050199   | 0.065854   |   2.8 | 10.77
Other   |            | 0.004508   |            |       |  0.97

Nlocal:        83.3333 ave          90 max          76 min
Histogram: 1 1 7 4 1 17 7 7 1 2
Nghost:        1591.62 ave        1614 max        1576 min
Histogram: 4 5 7 8 6 6 8 3 0 1
Neighs:        9060.77 ave        9966 max        8206 min
Histogram: 1 5 6 3 7 13 5 5 1 2

Total # of neighbors = 434917
Ave neighs/atom = 108.72925
Neighbor list builds = 141
Dangerous builds = 6

#############################
# L I N E A R  Q U E N C H  #
#############################

# Define solid atoms. This closely follows ten Wolde  Ruiz-Montero and Frenkel  Faraday Discuss  1996  104  93-110
# Compute components of the per-atom q6 vector
compute q6 all orientorder/atom degrees 1 6 components 6 nnn NULL cutoff 1.3 # compute the Q6 parameter.
                                                                             # Use all neighbours within 1.3 unit cell.

# get number of connections
compute coord_number all coord/atom orientorder q6 0.5

# An atom is solid if it has 8 or more connections (of a possible 14)
variable is_solid atom c_coord_number>=8
group solid dynamic all var is_solid    # Must be dynamic to update
dynamic group solid defined

# do clustering
compute cluster solid cluster/atom 1.3 # Create a cluster where all atoms within are solid and max 1.3 units from another member

# define chunks one chunk per cluster
compute clus_chunks solid chunk/atom c_cluster nchunk every compress yes  # Says which atoms are in which chunk

# count the size of each chunk
compute size_chunks solid property/chunk clus_chunks count


# Find the maximum entry in the vector of chunk sizes
variable max_n equal max(c_size_chunks)


# Thermo style which includes this variable
# thermo_style custom step temp pe vol v_max_n

thermo ${N}  # Print the thermo information every 100 steps
thermo 1000  

# Reset the npt fix at a lower temperature (below freezing)
fix 1  all npt temp  ${temp} ${temp}  0.1  iso  5.68  5.68  0.5  mtk yes tchain  5  pchain  5
fix 1  all npt temp  0.45 ${temp}  0.1  iso  5.68  5.68  0.5  mtk yes tchain  5  pchain  5
fix 1  all npt temp  0.45 0.45  0.1  iso  5.68  5.68  0.5  mtk yes tchain  5  pchain  5

dump dmp2 all dcd ${N} traj.dcd
dump dmp2 all dcd 1000 traj.dcd


compute msd all msd com yes
variable twopoint equal c_msd[4]/6/(step*dt+1.0e-6)
fix 9 all vector 10 c_msd[4]
variable fit equal slope(f_9)/6/(10*dt)
thermo_style custom step temp pe c_msd[4] v_twopoint v_fit v_max_n

fix 1 all npt temp 1.25 ${temp} 0.1 iso 5.68 5.68 0.5 mtk yes tchain 5 pchain 5
fix 1 all npt temp 1.25 0.45 0.1 iso 5.68 5.68 0.5 mtk yes tchain 5 pchain 5
run 2000000 # 5000000  # Run for this many steps
Neighbor list info ...
  update every 1 steps, delay 10 steps, check yes
  max neighbors/atom: 2000, page size: 100000
  master list distance cutoff = 3.8
  ghost atom cutoff = 3.8
  binsize = 1.9, bins = 9 9 9
  4 neighbor lists, perpetual/occasional/extra = 1 3 0
  (1) pair lj/cut, perpetual
      attributes: half, newton on
      pair build: half/bin/atomonly/newton
      stencil: half/bin/3d
      bin: standard
  (2) compute orientorder/atom, occasional
      attributes: full, newton on
      pair build: full/bin/atomonly
      stencil: full/bin/3d
      bin: standard
  (3) compute coord/atom, occasional
      attributes: full, newton on
      pair build: full/bin/atomonly
      stencil: full/bin/3d
      bin: standard
  (4) compute cluster/atom, occasional
      attributes: full, newton on
      pair build: full/bin/atomonly
      stencil: full/bin/3d
      bin: standard
Per MPI rank memory allocation (min/avg/max) = 9.736 | 9.740 | 9.746 Mbytes
Step Temp PotEng c_msd[4] v_twopoint v_fit v_max_n 
   12000    1.2618057   -5.9669283 1.6879651e-30 1.172198e-32 8.3333333e+20            2 
   13000     1.217787    -5.961207   0.56280127 0.0036077003  0.046835524            2 
   14000    1.2276459   -5.9905347    1.1027296 0.0065638665  0.045722401            2 
   15000    1.2652534   -6.0269341    1.6523998 0.0091799984  0.045886588            3 
   16000    1.2490531   -5.9877652    2.2278733  0.011603506  0.045919291            5 
   17000     1.280894   -5.9941547    2.8272444  0.013859041  0.046641225            3 
   18000     1.274475   -6.0073381     3.465964  0.016046129  0.047523975            3 
   19000    1.2458555   -5.9982238    4.0457299  0.017744429  0.048155624            2 
   20000    1.2554241   -5.9997695    4.5199316  0.018833048  0.048005808            2 
   21000    1.2473012   -5.9850459    5.0344346  0.019977915  0.047361459            2 
   22000    1.2630624   -5.9538241    5.5156521  0.020892621  0.046903333            2 
   23000    1.2396653   -5.9797165     6.051077  0.021924192  0.046401949            3 
   24000    1.2543009   -6.0494199    6.5923319  0.022890041  0.045976795            2 
   25000    1.2396014    -6.012702    7.1165595  0.023721865   0.04578202            3 
   26000    1.2177523   -5.9732611    7.6672489  0.024574515  0.045552283            4 
   27000    1.2260259   -5.9614644    8.2541064  0.025475637  0.045434528            4 
   28000    1.2579425    -5.956518    8.7713756  0.026105284  0.045444011            3 
   29000    1.2328961   -5.9939829    9.3298428  0.026809893  0.045429767            4 
   30000     1.248666   -5.9912443    9.7963773  0.027212159  0.045371648            2 
   31000    1.2538909   -6.0275654    10.239375    0.0275252  0.045179069            2 
   32000     1.242456   -5.9937445    10.902664  0.028392352  0.045094151            3 
   33000    1.2641159   -5.9537973    11.475909  0.028979567  0.045081639            3 
   34000    1.2526209   -5.9591616     12.17373  0.029837572  0.045185021            2 
   35000    1.2331419   -5.9883375    12.714292  0.030272124   0.04530667            3 
   36000    1.2392368   -5.9567018    13.402865  0.031025149   0.04547672            3 
   37000    1.2395703   -5.9876996    13.888539  0.031280493  0.045622194            5 
   38000      1.22554   -5.9874505    14.265864  0.031284789  0.045667393            2 
   39000    1.2627477   -6.0279202    14.758891  0.031536092  0.045652754            4 
   40000    1.2295408   -5.9820175    15.243891  0.031758107  0.045584127            5 
   41000    1.2251413   -6.0004711    15.841879  0.032198941  0.045520775            5 
   42000    1.2156638   -6.0078045     16.36223  0.032464742  0.045486264            4 
   43000     1.253017   -5.9890668    16.967359  0.032882478  0.045460222            3 
   44000       1.2215   -5.9908884    17.487122  0.033119549  0.045437288            3 
   45000    1.2495847   -5.9691506    17.909175  0.033165138  0.045371312            4 
   46000    1.2454571   -5.9635394    18.283557  0.033122386  0.045263666            5 
   47000    1.2304251   -5.9907958    18.899146  0.033509123  0.045163045            4 
   48000    1.2381464   -6.0038183    19.598565  0.034025286   0.04513197            2 
   49000    1.2294752   -6.0153774    20.313908  0.034547462  0.045154035            5 
   50000    1.2303511    -6.010297     20.78964  0.034649399  0.045187896            5 
   51000    1.1981776   -6.0290466    21.348643  0.034883404  0.045210879            1 
   52000    1.2395496   -6.0165175    21.762253  0.034875406  0.045214362            4 
   53000    1.2259158   -6.0272533    22.019348  0.034621616  0.045162634            2 
   54000    1.2268417   -6.0192065    22.608713  0.034889989  0.045098263            3 
   55000    1.2355317   -6.0031478    23.159235  0.035089749  0.045047252            4 
   56000    1.2176465    -6.000715    23.757978  0.035354133  0.045008119            3 
   57000    1.2216789   -6.0052596    24.224181  0.035415469  0.044972627            3 
   58000     1.217385   -5.9799873    24.785963  0.035612015  0.044929178            2 
   59000    1.2489701   -6.0263832    25.250657  0.035664769  0.044878413            3 
   60000    1.2000702   -5.9940318     25.83812  0.035886277  0.044836588            3 
   61000     1.241753   -6.0227684    26.311082    0.0359441  0.044798284            5 
   62000    1.2492691   -6.0340071    27.042552  0.036347516  0.044775615            3 
   63000    1.2243346   -6.0193528    27.558961  0.036453652  0.044778511            2 
   64000    1.2263509   -6.0259039    28.144102  0.036645965  0.044790132            3 
   65000    1.2020345   -6.0320404    28.599056  0.036665457  0.044792876            3 
   66000    1.2325407    -5.959059    29.081621  0.036719219  0.044778545            2 
   67000    1.2191088    -6.042659    29.505767  0.036698715  0.044746439            4 
   68000     1.225886   -6.0220213    30.067916  0.036847936  0.044718981            2 
   69000     1.229815   -6.0415474    30.497428  0.036832642  0.044686799            5 
   70000    1.1983057   -6.0099041    31.220425  0.037167173  0.044667271            1 
   71000    1.2053043    -6.008376    31.896044  0.037436672  0.044670869            6 
   72000    1.2254484   -6.0205716     32.48493  0.037598299  0.044684189            1 
   73000     1.249009    -6.068053    32.880627  0.037534963  0.044696282            5 
   74000    1.2425115   -6.0236427     33.50923  0.037735619  0.044700792            3 
   75000    1.2072458   -6.0290687    34.161318  0.037957019  0.044722543            6 
   76000    1.2052577   -6.0174503     34.68854   0.03803568  0.044747448            2 
   77000    1.2354483    -6.019607    35.214395  0.038110817  0.044760353            2 
   78000     1.237107   -5.9926183    35.802132   0.03825014  0.044775814            4 
   79000     1.237116   -6.0402952    36.246592  0.038234801  0.044786097            5 
   80000    1.2285501   -6.0164871    37.004519  0.038546374  0.044804121            3 
   81000    1.2208323   -6.0416861    37.381895   0.03845874  0.044810921            2 
   82000    1.2180757   -6.0059279    37.870692  0.038486475  0.044821112            5 
   83000    1.1998779   -6.0543032    38.483985  0.038638539  0.044832632            4 
   84000     1.193887   -6.0263008     38.91258   0.03860375  0.044845297            3 
   85000    1.2163423   -6.0297756    39.507607  0.038732947  0.044855999            2 
   86000    1.2134866   -6.0365184    40.038938   0.03879742  0.044856048            3 
   87000    1.2417282   -6.0422744    40.466287  0.038760811  0.044852887            6 
   88000    1.2215162   -6.0432299    40.964268   0.03879192  0.044852087            3 
   89000    1.2109175   -6.0334309    41.786972  0.039126378  0.044856857            2 
   90000    1.2426808   -6.0749658    42.170856  0.039047088  0.044864255            3 
   91000    1.2465333   -5.9886322    43.009469   0.03938596  0.044876504            4 
   92000    1.2329584   -6.0076385     43.55069  0.039448088  0.044898432            5 
   93000    1.2339444   -6.0625013    43.862954  0.039303722  0.044917381            3 
   94000     1.213882   -6.0403779    44.466104  0.039420305  0.044931195            4 
   95000    1.2174604   -6.0224787    45.114332  0.039573975    0.0449416            4 
   96000    1.2170535   -6.0743745    45.497842  0.039494654  0.044950853            3 
   97000    1.2146243   -6.0140685    46.316547  0.039790847   0.04496513            6 
   98000    1.2172746   -6.0357144    46.707732  0.039717459  0.044975157            5 
   99000    1.1918987   -6.0279983    47.149535   0.03968816    0.0449891            4 
  100000    1.2152495   -6.0703316    47.827736  0.039856446  0.044999371            3 
  101000    1.2007806   -6.0201769    48.209165  0.039776538  0.045007592            2 
  102000    1.2279289    -6.020298    49.103306   0.04011708  0.045021161            3 
  103000    1.1964109   -6.0262347    49.719073  0.040225787  0.045040338            4 
  104000    1.2399273    -6.021272    50.237915  0.040254739   0.04506105            5 
  105000    1.2211222   -6.0446467    50.554184  0.040122368  0.045073867            3 
  106000    1.2150964   -6.0391835    51.175594  0.040232385  0.045078733            2 
  107000    1.2457021   -6.0248627    51.448934  0.040069263  0.045086302            3 
  108000    1.2238684   -6.0421618    52.085419  0.040189367  0.045086837            4 
  109000      1.23003   -6.0367677    52.588203  0.040205048  0.045088183            1 
  110000    1.2116001   -6.0746986    53.125476  0.040246572  0.045091657            1 
  111000    1.2052542   -6.0896862    53.828165  0.040411535  0.045106606            4 
  112000    1.2039334   -6.0794058    54.528851  0.040572062    0.0451223            4 
  113000    1.2065621   -6.0628507    54.897537  0.040484909  0.045136911            2 
  114000    1.2144005   -6.0492672    55.455901  0.040537939  0.045150426            3 
  115000    1.1980221   -6.0420583    56.060314  0.040623416  0.045162411            3 
  116000    1.1917315   -6.0103103    56.551884  0.040626353  0.045176241            3 
  117000    1.1985985   -6.0440374    57.190751  0.040734153  0.045186642            3 
  118000    1.1994503   -6.0409227    57.704432  0.040751717  0.045195212            2 
  119000    1.2180946   -6.0447065     58.19412  0.040752185  0.045204322            3 
  120000    1.2122251   -6.0430246      58.9404  0.040930833  0.045214192            4 
  121000    1.1836122   -6.0457623    59.486516  0.040968675  0.045222914            2 
  122000    1.2228002   -6.0531549     60.23788  0.041146093  0.045238381            4 
  123000    1.2056765   -6.0924099    60.368217  0.040899876  0.045250428            3 
  124000    1.1960856   -6.0591694    60.863981  0.040903213   0.04525409            3 
  125000    1.1956046   -6.0390793    61.661176  0.041107451  0.045257246            4 
  126000    1.1798013   -6.0404604    61.940303  0.040965809   0.04525526            5 
  127000    1.2207736   -6.0292339    62.483838  0.040999893  0.045254896            2 
  128000     1.236112   -6.0773962    63.003103  0.041017645  0.045253075            3 
  129000    1.2094872   -6.0854727    63.440391  0.040982164   0.04524946            4 
  130000     1.169511   -6.0703503    63.721955  0.040847407  0.045239784            5 
  131000    1.1863851   -6.0844301    64.106655  0.040780315  0.045226797            7 
  132000    1.2267404   -6.0890362    64.746497  0.040875314  0.045212455            5 
  133000     1.208905   -6.0614963    65.048486  0.040757196  0.045194889            2 
  134000    1.2144906    -6.034544    65.737854   0.04088175  0.045178835            4 
  135000    1.2175948   -6.0656652    66.029246  0.040758794  0.045162494            2 
  136000    1.2104459   -6.0992883    66.247293  0.040592704  0.045135838            6 
  137000    1.2055246   -6.0296726    66.841773  0.040658012  0.045102768            9 
  138000    1.1840576     -6.03253     67.48901  0.040754233  0.045071532            1 
  139000    1.1823653   -6.0449363    67.626556  0.040543498  0.045037018            9 
  140000    1.1896147    -6.064343    67.852259  0.040388249  0.044994063            4 
  141000    1.1978047   -6.0533016    68.218916  0.040318508   0.04495147            2 
  142000    1.2045222    -6.060692    68.524858  0.040214118   0.04490337            3 
  143000    1.2041082   -6.0883789    68.886549  0.040143677  0.044850919            2 
  144000    1.1962317   -6.0556446    69.383121  0.040152269  0.044802724            2 
  145000    1.2089012   -6.0801025    69.947168  0.040199521  0.044754286            5 
  146000     1.174033   -6.0774873    70.444974  0.040208318  0.044706453            5 
  147000    1.1862568   -6.0589622    71.294407   0.04041633  0.044663461            5 
  148000    1.1852954   -6.0741095    71.601723  0.040316285  0.044624269            5 
  149000    1.1650041   -6.0997213    71.647349  0.040071224   0.04458204            2 
  150000    1.1892258   -6.0703274    72.243868  0.040135482  0.044534656            4 
  151000    1.1963937   -6.1366972    72.717433  0.040131034  0.044482823            5 
  152000    1.1859443   -6.0935885    72.929786  0.039983435  0.044431945            2 
  153000    1.2067703   -6.1234774    73.682601  0.040132135    0.0443816            5 
  154000      1.20042   -6.0777048    74.219556  0.040162097  0.044339287            3 
  155000    1.1929291   -6.0252951    74.836613  0.040234738  0.044297294            4 
  156000    1.2052863   -6.0892112    75.234424  0.040189329   0.04425065            4 
  157000    1.1908258   -6.0824565    75.529744  0.040090098  0.044203187            3 
  158000    1.2076145   -6.0711069    75.982268  0.040075036  0.044160598            4 
  159000    1.2045618   -6.0794402    76.951091   0.04033076  0.044120402            3 
  160000    1.1699138   -6.0843599    77.245525  0.040232044  0.044080321            4 
  161000    1.2015437   -6.0614104    77.745021  0.040240694  0.044042751            4 
  162000    1.2090712    -6.094213    78.312877  0.040284402  0.044006389            5 
  163000    1.1783209   -6.1110014    78.386195  0.040074742   0.04397015            2 
  164000    1.1763687   -6.1380867    79.024342  0.040154645  0.043930657            4 
  165000    1.1608519   -6.0657199    79.614153  0.040209168   0.04389111            3 
  166000    1.1826477    -6.094926    80.042213  0.040181834  0.043854466            3 
  167000    1.1990865   -6.1263203    80.375653  0.040107611  0.043819572            7 
  168000    1.2045447   -6.0941406    80.998263   0.04017771  0.043784531            5 
  169000    1.2113087   -6.0788247     81.89041  0.040379886  0.043752766            3 
  170000    1.1936739    -6.115921     82.15354  0.040271343  0.043723176            2 
  171000    1.1849208   -6.0454192    82.904644  0.040401873  0.043694786            2 
  172000    1.1981426   -6.0965915    83.380231  0.040397399  0.043667408            2 
  173000    1.1831866   -6.0772142    83.685124  0.040310753  0.043636253            2 
  174000    1.1758705   -6.0825219    83.911196  0.040187354  0.043602279            2 
  175000    1.1917451    -6.082573    84.406595  0.040193617  0.043567796            7 
  176000    1.1914794   -6.0679336    85.295081  0.040385928   0.04353775            4 
  177000    1.1886798   -6.0703222    85.557702  0.040281404  0.043504465            2 
  178000    1.1934074   -6.0932851    85.982646  0.040254048  0.043472578            2 
  179000    1.2044163   -6.0696483     86.69666  0.040361574  0.043441952            5 
  180000    1.1628669   -6.0851533    87.251228  0.040394087  0.043414397            1 
  181000     1.180707   -6.1217563    87.495645  0.040283446  0.043385434            3 
  182000    1.1730727   -6.0872365    88.337606  0.040447622    0.0433593            5 
  183000    1.2008176   -6.0922548    88.588754  0.040340962  0.043336019            1 
  184000    1.1854805   -6.0887877    89.211173  0.040403611   0.04331101            4 
  185000    1.1564447   -6.0901117    89.440452  0.040288492  0.043286771            7 
  186000    1.1697944   -6.0812919    89.953992  0.040301968  0.043261474            5 
  187000    1.1815551   -6.1160724    90.433811  0.040300272  0.043236441            3 
  188000     1.201929   -6.0749998    91.090942   0.04037719  0.043212746            2 
  189000    1.1849761   -6.0654284    91.427582  0.040311985  0.043190158            2 
  190000     1.181877   -6.1231873    91.753623  0.040242817  0.043164385            3 
  191000    1.1856017   -6.0864906    92.211968  0.040232098  0.043138174            5 
  192000     1.178112   -6.1007106    92.129585  0.039986799   0.04310815            4 
  193000    1.1486846   -6.0998831     92.77838  0.040059749  0.043078785            4 
  194000    1.1748312    -6.089357    93.656427  0.040230424  0.043049905            6 
  195000    1.1879927   -6.1309424      93.9027  0.040129359  0.043021131            2 
  196000    1.1481421   -6.0958349    94.354364  0.040116651  0.042991347            4 
  197000    1.1518886    -6.096358    95.009086  0.040189968  0.042963588            6 
  198000    1.1671299   -6.1044244    95.389099  0.040146927  0.042934425            3 
  199000    1.1998396   -6.1063488    95.631238  0.040046582  0.042906636            4 
  200000    1.1664469   -6.0998011    96.445369   0.04018557  0.042880328            6 
  201000    1.1740918   -6.1099662    96.919122  0.040182057  0.042853345            3 
  202000    1.1478681   -6.1163557    97.147529  0.040077364  0.042827665            2 
  203000    1.1834741   -6.0840465    97.658902  0.040089861  0.042799098            4 
  204000    1.1864996   -6.1255915    98.197648  0.040113418  0.042771838            6 
  205000    1.1777405   -6.1307386    98.440273  0.040016371  0.042747156            2 
  206000    1.1855038   -6.1406722    99.096876  0.040087733  0.042719739            4 
  207000    1.1875841   -6.1309666    99.496039  0.040054766  0.042695924            8 
  208000     1.157828   -6.1172588    100.15493  0.040126176   0.04267198            6 
  209000    1.1553331   -6.0790369    100.85093  0.040211694  0.042648584            3 
  210000    1.1499309   -6.1321987     101.4555  0.040260118  0.042626808           11 
  211000    1.1596301   -6.1152587    101.28739  0.040002919  0.042604385            2 
  212000    1.1684144   -6.0874365    102.05741  0.040116907   0.04258215            2 
  213000     1.165925   -6.1182889    102.47942  0.040093671  0.042558046            4 
  214000    1.1612544   -6.1251428    102.67422  0.039982173  0.042533766            3 
  215000    1.2084644   -6.0820527    103.38448  0.040071504   0.04250971            4 
  216000    1.1748897    -6.100558    103.71401   0.04001312  0.042487129            2 
  217000     1.199895   -6.0885932    104.43497  0.040105597  0.042464515            5 
  218000    1.1774159   -6.1369184    105.11037  0.040179805   0.04244394            4 
  219000    1.1768053   -6.1461861    105.57415  0.040172811   0.04242315            2 
  220000     1.192801   -6.1431886    105.83947   0.04009071  0.042400076            3 
  221000    1.2003407   -6.1582169    106.02063  0.039977614   0.04237773            6 
  222000     1.173349   -6.1438546    106.20012   0.03986491  0.042353014            5 
  223000    1.1812938   -6.1266978    107.17216  0.040049387  0.042328884            2 
  224000    1.1484583   -6.1163297    107.49535  0.039990829  0.042305359            7 
  225000    1.1464555   -6.1199232    107.88668  0.039958031   0.04228233            6 
  226000    1.1872136   -6.1192964    108.05495  0.039843272  0.042257381            7 
  227000    1.1690005   -6.1107382    108.07388    0.0396747  0.042228432            4 
  228000    1.1671136   -6.1482427    108.43578  0.039632961  0.042198934            2 
  229000    1.1650944   -6.1351198    109.35236  0.039793435  0.042167637            4 
  230000    1.1857672   -6.1641547    109.53462  0.039686457  0.042137391            4 
  231000     1.182756   -6.1484414    110.29393  0.039788576  0.042107969            4 
  232000    1.1642966   -6.1432118    110.56552  0.039714628  0.042082699            4 
  233000    1.1668619   -6.0994588    111.60822  0.039917103  0.042057533            2 
  234000    1.1865545   -6.0842267    111.80888  0.039817977  0.042033815            4 
  235000    1.1840476    -6.115948    112.36735  0.039846579  0.042008776            5 
  236000    1.1614452    -6.141895    112.58914  0.039756053  0.041983839           11 
  237000    1.1954878   -6.1382242    112.61013  0.039595685  0.041958091            2 
  238000    1.1460077   -6.1035352    113.72869   0.03982097  0.041934549            3 
  239000    1.1542356   -6.1321803    114.00899  0.039752088    0.0419115            5 
  240000    1.1513915   -6.1273233    114.40931  0.039725454  0.041888041            3 
  241000    1.1677388   -6.1406129    114.53676  0.039604688  0.041862875            5 
  242000    1.1658455   -6.1123608    114.84754   0.03954805   0.04183599            2 
  243000    1.1270017   -6.1136656    115.29398    0.0395384  0.041807972            6 
  244000    1.1563214   -6.1429905    115.45073  0.039429896  0.041778507            2 
  245000    1.1598801   -6.1013005    115.77186  0.039378182   0.04174829            3 
  246000     1.167516   -6.1335333    116.38778  0.039426755  0.041717211            9 
  247000    1.1574473   -6.1247402    116.63609  0.039350906  0.041686592            3 
  248000    1.1444366   -6.1467021    116.81299  0.039251675  0.041655958            6 
  249000    1.1598057   -6.1409652    117.44644  0.039306039  0.041624029            2 
  250000    1.1451572   -6.1246955    117.89572  0.039298573  0.041594769            4 
  251000    1.1563569   -6.1358142    118.43359  0.039320581   0.04156398            3 
  252000    1.1353334   -6.1479006    118.99131  0.039348977  0.041534366            4 
  253000    1.1499228   -6.1782166    118.96108   0.03918349  0.041505577            2 
  254000    1.1362812   -6.1573519    119.66341  0.039259649   0.04147702            4 
  255000    1.1375569   -6.1537387    120.19512  0.039279451  0.041448656            3 
  256000    1.1554717   -6.1722802    120.29002  0.039156906  0.041419775            4 
  257000    1.1461263   -6.1514844     121.0553  0.039252691  0.041389449            5 
  258000    1.1510624   -6.0667085    121.64825  0.039292071  0.041360947            6 
  259000    1.1678892   -6.1187617     121.8868  0.039217116  0.041332995            2 
  260000    1.1407629   -6.1478975    121.92383  0.039078152  0.041303236            6 
  261000    1.1532259   -6.1508114    121.94211  0.038934263  0.041273618            4 
  262000    1.1438913   -6.1565167    122.96675  0.039111561  0.041243486            4 
  263000    1.1247439   -6.1457628    123.96799  0.039280099  0.041216852            4 
  264000    1.1625071    -6.195316    124.11814  0.039178707  0.041190422            3 
  265000    1.1272698   -6.1884578    125.31374  0.039406837  0.041165243            3 
  266000    1.1378984   -6.1134075    125.61643  0.039353519  0.041142082            8 
  267000    1.1327209   -6.1685652    125.82966  0.039272677  0.041118901            4 
  268000     1.130176   -6.1677031    126.43804   0.03931531  0.041096798            4 
  269000    1.1665025   -6.1591071    126.59228  0.039216938  0.041074724            3 
  270000    1.1595591   -6.1562271    127.81956  0.039450481  0.041053663            4 
  271000    1.1214024   -6.1786091    127.51586  0.039211518   0.04103183            5 
  272000    1.1642725   -6.1462931    128.26307  0.039296284  0.041008597            2 
  273000    1.1410201   -6.1665919    128.63681  0.039266424  0.040988817            3 
  274000    1.1192575   -6.1713283    129.10984  0.039266982  0.040967477            5 
  275000     1.114592    -6.185979    129.42936  0.039221017  0.040946637            2 
  276000     1.125952   -6.2026338     129.5925   0.03912817  0.040926189            3 
  277000    1.1212794   -6.1533406    130.24263    0.0391825  0.040905391            2 
  278000    1.1487577   -6.1584132    130.59886  0.039148339  0.040883226            3 
  279000    1.1559725   -6.1780694    131.19993  0.039187555  0.040860108            3 
  280000    1.1569933   -6.1533534    131.37991  0.039101164  0.040836157            3 
  281000     1.141633   -6.1693885    131.43387  0.038978017  0.040811077            4 
  282000    1.1295105   -6.1277471    132.54903  0.039169335  0.040787163            6 
  283000    1.1450307   -6.1871612    132.02766  0.038877402  0.040762145            3 
  284000    1.1436282     -6.19458    132.77359  0.038959387  0.040737229            3 
  285000     1.152396    -6.208222    132.73226  0.038810603  0.040710276            3 
  286000    1.1408201   -6.1758187    133.42288   0.03887613  0.040682144            4 
  287000    1.1300317   -6.1939688    133.44477  0.038747031  0.040655296            3 
  288000    1.1488144   -6.1643366    133.85755   0.03873193  0.040627377            6 
  289000    1.1088474   -6.2076294    134.36719  0.038744865  0.040599904            3 
  290000    1.1411587   -6.1650395    134.56455  0.038667975  0.040573206            5 
  291000    1.1079432   -6.1642736    134.98296  0.038654915  0.040546627            2 
  292000    1.1181373   -6.1987997    135.17236  0.038576586  0.040519779            4 
  293000     1.156884   -6.2165785    135.82683  0.038631066   0.04049291            3 
  294000    1.1327886   -6.1906249    136.07636  0.038570396  0.040465792            6 
  295000    1.1670686   -6.2015412    136.26991  0.038494325  0.040437236            4 
  296000    1.1224631   -6.1923987    136.04065  0.038299734  0.040408276            5 
  297000    1.1239094   -6.2252544    136.73173  0.038364683  0.040378164            9 
  298000     1.113977   -6.1712992    138.00086  0.038590846  0.040349182            2 
  299000    1.1360827   -6.1524451     137.9697  0.038453092  0.040320828            6 
  300000    1.1452803   -6.1831227    138.24063  0.038400174  0.040292359            5 
  301000     1.105688    -6.140029    139.03583  0.038492755  0.040264305            3 
  302000    1.1307573   -6.1813154    138.98037  0.038349993  0.040235863            5 
  303000    1.1388229   -6.1654404    139.54794  0.038379521  0.040206329            4 
  304000    1.1382245   -6.1855901    140.19252  0.038429966  0.040178369            8 
  305000    1.1332381   -6.1672757    140.91924  0.038502524  0.040151691            3 
  306000    1.1210493   -6.1771659    140.52639  0.038269713  0.040125312            4 
  307000    1.1615538   -6.1533983    141.72329  0.038469948    0.0400979            2 
  308000    1.1422567   -6.1471641    142.00908   0.03842237  0.040071389            3 
  309000    1.1372027   -6.1484995    142.00198   0.03829611  0.040044927            4 
  310000    1.1423827   -6.1515042    142.85539  0.038401986  0.040019351            3 
  311000    1.1124037   -6.2052251     142.9923  0.038315194  0.039993241            4 
  312000     1.138458   -6.2119279    143.12594  0.038228082  0.039965405            6 
  313000    1.1079247   -6.1730493    143.75678  0.038273904  0.039939001            2 
  314000    1.1239449   -6.2204279    143.83002  0.038171448  0.039912057            2 
  315000    1.1225483   -6.2454499    144.80736  0.038308827  0.039885295            3 
  316000    1.1161411   -6.1632542    145.37777  0.038338019  0.039859991            2 
  317000    1.1379513   -6.1671296    146.32501  0.038466091   0.03983625            8 
  318000     1.140996   -6.2217909    146.49941  0.038390831  0.039814234            4 
  319000    1.1339226   -6.1851853    146.81126  0.038351949  0.039791424            3 
  320000    1.1183925    -6.220856    146.95517  0.038269576  0.039768148            4 
  321000    1.1230729   -6.2020909     147.1787  0.038208386  0.039742859            2 
  322000    1.1279785   -6.1835215    147.86936  0.038268467  0.039716719            5 
  323000    1.1357276   -6.1823637    147.68083  0.038101349  0.039690823            5 
  324000    1.1267799    -6.218323    148.29896  0.038142737  0.039664605            2 
  325000    1.1305366   -6.1887955    148.41017  0.038053889  0.039638276            4 
  326000    1.1263672   -6.1864627     149.0899  0.038110914  0.039612745            3 
  327000    1.1195702   -6.2075393    149.37209  0.038066283  0.039588498            4 
  328000    1.1292851   -6.2082727    150.12089   0.03814047  0.039564727            5 
  329000    1.1172625   -6.1983899    150.75677  0.038185606  0.039541678            7 
  330000    1.1273514   -6.1302203    150.84511    0.0380922  0.039518173            3 
  331000     1.129492   -6.2175409    151.18375  0.038062374  0.039493779            2 
  332000    1.1187401    -6.209155    151.43538  0.038010889   0.03946929            3 
  333000    1.1182823   -6.2013198    151.85691  0.038002229  0.039445002            3 
  334000    1.1501494   -6.1979397     152.6841  0.038094835  0.039422037            3 
  335000    1.1045032   -6.1969922    152.88632  0.038031423  0.039399868            5 
  336000    1.1110352   -6.1698213    153.44173  0.038055984   0.03937823            2 
  337000    1.1513111   -6.1504456     154.1389  0.038115454  0.039356901            3 
  338000    1.1312385    -6.266844    154.04766  0.037980193   0.03933563            5 
  339000    1.1134782   -6.2160037    155.01807  0.038106703  0.039314871            2 
  340000    1.1206124   -6.2272445    155.09207  0.038012763   0.03929446            6 
  341000    1.1054021   -6.2242155    155.23765  0.037936865  0.039273935            6 
  342000    1.1149613   -6.2057944    157.01497  0.038259008  0.039253543            8 
  343000    1.1361677   -6.2309192    156.57068  0.038039525  0.039232837            4 
  344000     1.127576   -6.2120853    156.87373  0.038002356  0.039212646            1 
  345000    1.1273797    -6.238538    156.59316  0.037824435  0.039191545            4 
  346000    1.1057018   -6.1993945    157.25822  0.037875294  0.039170139            3 
  347000    1.1117617   -6.2238418    158.04472  0.037955025  0.039149144            5 
  348000    1.1037059   -6.2261617     158.2675  0.037899306  0.039128363            2 
  349000    1.0898681   -6.2202684    158.67034    0.0378869  0.039107596            3 
  350000    1.1137945   -6.2273173    159.19805  0.037904298  0.039087395            2 
  351000    1.1230374   -6.2430649    159.77033  0.037932177  0.039068616            6 
  352000    1.1448344   -6.2091612    160.25539   0.03793925   0.03905005            4 
  353000      1.11059   -6.2306966     161.0081  0.038009466  0.039030682            3 
  354000    1.1228081   -6.2269176    161.27805  0.037965642  0.039011235            8 
  355000    1.1122218   -6.2180088    161.99136   0.03802614  0.038992698            5 
  356000    1.1253685   -6.1980627    162.59099  0.038059688  0.038974745            3 
  357000    1.1119032   -6.2238051    162.88321  0.038021291  0.038958577            3 
  358000    1.1042654   -6.2325268    163.83718  0.038137145  0.038942335            4 
  359000    1.1149757   -6.1887714    163.17954  0.037878259  0.038926242            2 
  360000    1.1185838   -6.2243662    164.43639  0.038063979  0.038908212            4 
  361000    1.0927624    -6.223639     164.4875  0.037970338  0.038890433            7 
  362000    1.1147834   -6.2143318    164.70905  0.037916449  0.038872606            4 
  363000    1.1091209    -6.236446     165.7044  0.038040495  0.038855739            6 
  364000    1.0862964   -6.2533507    165.65342  0.037924317  0.038838309            2 
  365000    1.0835566   -6.2352327    165.22541  0.037722697  0.038819657            3 
  366000    1.0958015   -6.2189316     165.8996  0.037773132  0.038800306            4 
  367000    1.1328142   -6.2171358    166.03397   0.03770072   0.03878096            5 
  368000    1.0991398    -6.230251    166.39291  0.037679554  0.038760996            4 
  369000    1.1297003   -6.2063124    166.84499  0.037679537  0.038741159            4 
  370000    1.0911036   -6.2507405    167.14249  0.037644705  0.038721382            2 
  371000    1.1210437   -6.2510079    167.68191  0.037664399  0.038701158            4 
  372000    1.0995629   -6.2201014    167.92959  0.037618635  0.038680072            5 
  373000    1.1359273   -6.2503555    167.97447  0.037527808  0.038658576            4 
  374000    1.0959212    -6.198611    168.17971  0.037473197  0.038636857            7 
  375000    1.1325192   -6.1566854    168.35261  0.037411691  0.038615944            3 
  376000    1.1010539   -6.2297336    169.20681   0.03750151  0.038595525            4 
  377000    1.1215772   -6.2192577    169.55487  0.037478972  0.038574823            2 
  378000    1.1043233   -6.2658897    168.95121  0.037246738  0.038553128            2 
  379000    1.1213415   -6.2360485    170.08039  0.037396744  0.038531363            2 
  380000    1.0899262   -6.2212727    170.40684   0.03736992  0.038508865            7 
  381000    1.0809773   -6.2546462    170.83148  0.037364717  0.038486135            3 
  382000    1.1340958   -6.2599459    170.52175  0.037199335  0.038463222            5 
  383000     1.084522   -6.1999294    171.25968  0.037262767  0.038441487            2 
  384000     1.117271    -6.242875    171.35509  0.037186433  0.038419355            4 
  385000    1.0977341    -6.273369    172.65236   0.03737064  0.038397629            6 
  386000     1.119123   -6.2621116    172.55738   0.03725332  0.038376422            5 
  387000    1.1337363   -6.2426059     173.1464  0.037283893  0.038355689            4 
  388000    1.0978792   -6.2277008    174.10296  0.037393247  0.038335796            3 
  389000    1.1276465   -6.2425249     174.4154  0.037364054  0.038316178            1 
  390000    1.0943553   -6.2424355    174.60691  0.037309169  0.038295928            2 
  391000    1.1340041   -6.2409542    174.71209  0.037236166   0.03827633            4 
  392000    1.0929521   -6.2450712    175.87381  0.037388141    0.0382567            2 
  393000    1.1036849   -6.2691175    175.57822  0.037230327  0.038236848            4 
  394000    1.1213096   -6.2492781    175.76433  0.037175196   0.03821624            4 
  395000    1.0851626   -6.2505254    176.47866  0.037231786  0.038196143           11 
  396000    1.0941014   -6.2410353    176.15387  0.037069417  0.038176013            8 
  397000      1.09736   -6.2572189    176.91378  0.037135555  0.038155339            4 
  398000    1.1035313   -6.2473999    177.43529  0.037151443  0.038135108            2 
  399000    1.0850096   -6.2711378    177.54092  0.037080392   0.03811438            3 
  400000    1.1029588   -6.2540186    177.93789  0.037070393  0.038093205            6 
  401000    1.0761812   -6.2371345    178.93665  0.037185505  0.038072994            3 
  402000    1.0902495   -6.2528011    178.87572  0.037080372  0.038052872            5 
  403000    1.1050812    -6.250522    179.38109  0.037092863    0.0380325            2 
  404000    1.0988263   -6.2142802    180.32138  0.037195003  0.038013821            2 
  405000    1.0876644   -6.2575017     180.2555  0.037089609  0.037994597            4 
  406000    1.0964829   -6.2532393    180.60587  0.037070171  0.037974986            2 
  407000    1.0816574   -6.2491124    180.89267  0.037037812  0.037954928            5 
  408000    1.0890724   -6.2617938    181.22335  0.037014572  0.037935491            7 
  409000     1.079392   -6.2064334    181.32405   0.03694459  0.037915994            4 
  410000    1.0796741   -6.2541351    181.62048  0.036914733  0.037895941            3 
  411000    1.1242065   -6.2684266    181.97666  0.036897132  0.037875681            5 
  412000    1.0887768   -6.2546874    182.12504  0.036837589  0.037854233            3 
  413000    1.0841596   -6.2509396    182.56327  0.036836817   0.03783272            3 
  414000    1.0769293   -6.2320578    182.89393  0.036814399  0.037811177            5 
  415000    1.0866527   -6.2651965    182.97895  0.036742761  0.037789418            3 
  416000    1.0827146   -6.2711235    183.94639  0.036848235  0.037768817            4 
  417000    1.0819276   -6.2684713    184.10129  0.036790825  0.037748755            3 
  418000    1.0875278   -6.2609837    184.75041  0.036832219  0.037729357            6 
  419000    1.0642434   -6.2279051    184.55444  0.036705338   0.03770805            4 
  420000    1.0857735   -6.2206579    184.55751  0.036618554  0.037686782            5 
  421000    1.0880375   -6.2883095    184.92697  0.036604704  0.037664874            4 
  422000    1.0881918   -6.2647423    186.03788  0.036737339  0.037643807            3 
  423000    1.0912564   -6.2692844    186.41132  0.036724059  0.037622035            4 
  424000    1.0815873   -6.2485244    187.15444  0.036783499  0.037600134            3 
  425000    1.0862535   -6.3004467    186.54834  0.036578107  0.037579014            4 
  426000     1.077385   -6.2699556    187.44934  0.036668494  0.037557662            2 
  427000     1.101235   -6.2676405     187.5858  0.036609251  0.037536708            4 
  428000    1.0731073   -6.2696755    188.17355  0.036638153  0.037516792            9 
  429000    1.0927214   -6.2675511    188.50398  0.036616934  0.037496283            5 
  430000     1.103873   -6.2348608    188.94588  0.036617419  0.037475512            4 
  431000    1.0587534   -6.2954639    188.62022  0.036469493  0.037454907            9 
  432000    1.0810036   -6.2585945    188.86218  0.036431747  0.037434148            5 
  433000    1.0876048   -6.3178047     189.5514  0.036480253  0.037413086            3 
  434000    1.0976317   -6.2711651    189.71743  0.036428078   0.03739195            7 
  435000    1.0781188    -6.259185    190.41768  0.036478482  0.037370944            3 
  436000    1.1004727     -6.25253    190.32334  0.036376785  0.037349654            2 
  437000    1.0861654   -6.2696124     190.4009  0.036308333  0.037328273            3 
  438000    1.0877973   -6.2978725    191.29381  0.036395321  0.037307071            3 
  439000    1.0760341    -6.285506    191.58648  0.036367972  0.037286227            6 
  440000    1.0763842   -6.2857646    192.51545   0.03646126  0.037265912            4 
  441000    1.0608673   -6.2511223     192.0245  0.036285808  0.037245074            3 
  442000    1.0866288   -6.2918288    193.03735  0.036394673  0.037224574            4 
  443000    1.0909635   -6.2408599    193.61032  0.036420301  0.037203448            3 
  444000    1.1011161    -6.243037    193.91423  0.036395313  0.037183282            4 
  445000    1.1031062   -6.2865953    193.80091  0.036292306   0.03716385            8 
  446000    1.0793254    -6.283177    193.99171  0.036246583  0.037144296            4 
  447000    1.0533713   -6.2729141    194.72502  0.036302204  0.037124139            5 
  448000    1.0625258    -6.316472    195.12919  0.036296353  0.037103646            5 
  449000    1.0550248   -6.2880622    195.45981  0.036276877   0.03708391            4 
  450000    1.0688027   -6.2951813    195.74583  0.036249229  0.037064195            5 
  451000     1.065294   -6.2867048    196.10101   0.03623448  0.037044514            2 
  452000    1.0679906   -6.3056389    196.16842  0.036166744  0.037024384            4 
  453000     1.077306   -6.3100726    196.82527  0.036207739   0.03700439            4 
  454000    1.0560863   -6.2717176     197.1457  0.036186802  0.036984943            4 
  455000    1.0738196   -6.2631828    198.23344  0.036306491  0.036965644            3 
  456000    1.0789051   -6.2589295    197.86597  0.036159717   0.03694614            3 
  457000    1.0608879   -6.2747646    198.86635  0.036263011  0.036926976            5 
  458000    1.0963186   -6.2806178    198.43375  0.036105121  0.036907692           10 
  459000    1.0741599    -6.293564    199.26057  0.036176573  0.036888466            3 
  460000    1.0642666    -6.318783    198.38526  0.035939359  0.036868979            4 
  461000    1.0860805   -6.2917899    198.51529  0.035884904  0.036848911            4 
  462000    1.0694961   -6.2807143    199.64823  0.036011585  0.036828854            5 
  463000    1.0560065   -6.3266793    199.65078  0.035934265  0.036808509            7 
  464000    1.0778632   -6.3189726    199.70949  0.035867366  0.036788019            6 
  465000    1.0727015   -6.3172929    200.54803  0.035940508  0.036767212            6 
  466000    1.0508847   -6.2920484    201.62284  0.036055586  0.036746824            4 
  467000    1.0748615    -6.285922    201.06878  0.035879512  0.036726952            3 
  468000    1.0571077   -6.2719807    202.26713  0.036016227  0.036707572            5 
  469000    1.0914129   -6.3130475     201.9889  0.035889996  0.036687974            2 
  470000    1.0810716   -6.3178602    202.73488  0.035945901   0.03666846            2 
  471000     1.072228   -6.2782678    202.32651   0.03579733  0.036648679            4 
  472000    1.0721446   -6.2966513    203.02643  0.035845062  0.036628395            3 
  473000    1.0554009   -6.3211556    202.35867  0.035651634  0.036607319            3 
  474000    1.0701337   -6.2715815    203.08159  0.035703514  0.036585606            3 
  475000     1.065427   -6.3238297    202.97899   0.03561035  0.036563412            6 
  476000     1.051398   -6.2757982    203.81518  0.035681929  0.036541336            5 
  477000    1.0388476   -6.3152216    203.28205  0.035513984    0.0365199            5 
  478000    1.0717936    -6.321893    204.12174  0.035586078  0.036497647            4 
  479000    1.0845585   -6.3102676     204.4026  0.035560646  0.036475428            3 
  480000    1.0923877   -6.3237694     204.6576  0.035530834  0.036452934            4 
  481000    1.0731814   -6.3119498    204.78703  0.035479388  0.036431238            3 
  482000    1.0874749   -6.2671976    205.70489  0.035564469  0.036409308            4 
  483000    1.0506807   -6.2607685     205.8992  0.035524361   0.03638723            6 
  484000    1.0609554   -6.2841049    206.44159  0.035544351  0.036365956            4 
  485000    1.0551571   -6.2882679    206.88275  0.035546864   0.03634478            6 
  486000    1.0632153   -6.2927017    206.65327  0.035434375  0.036323714            6 
  487000    1.0831514   -6.2725592    206.98896  0.035419056  0.036302381            3 
  488000    1.0482399   -6.3239985    207.14102  0.035372442  0.036281105            5 
  489000    1.0587916   -6.3083985    207.75483  0.035404709  0.036259776            6 
  490000    1.0899509   -6.3251265     208.7322  0.035498673   0.03623823            5 
  491000    1.0342813   -6.3220208    208.04742  0.035310153  0.036216376            6 
  492000    1.0803156    -6.316605    208.12646  0.035251771  0.036194577            5 
  493000    1.0543116    -6.310171    208.96649  0.035322259  0.036172401            3 
  494000    1.0650184   -6.3225524    208.48289  0.035169178  0.036150087            4 
  495000    1.0795002   -6.3297535    209.17128   0.03521402  0.036127812            5 
  496000    1.0466535   -6.3222867     210.0253  0.035286508  0.036105876            6 
  497000    1.0582041   -6.3572441    209.83632  0.035183823  0.036084318            4 
  498000    1.0624089   -6.3175446    210.30609  0.035191783  0.036062255            7 
  499000    1.0353305   -6.3007654    211.18508  0.035268049  0.036040537            4 
  500000    1.0457156   -6.3484001    211.51823  0.035253038  0.036019343            7 
  501000    1.0468383   -6.3069385    211.51638  0.035182365  0.035997941            4 
  502000    1.0725886   -6.3336777     211.6429  0.035133284  0.035976295           10 
  503000    1.0258644   -6.3246901     211.9265   0.03511042  0.035955304           10 
  504000    1.0937618   -6.3472628    212.46221  0.035129333  0.035934019            7 
  505000    1.0412537   -6.3188529    212.93224  0.035137333  0.035912857            2 
  506000    1.0551748   -6.3164047    213.05396  0.035087937  0.035891605            3 
  507000    1.0603236   -6.2905134    214.40608  0.035240972   0.03587112            3 
  508000    1.0593544   -6.3062405     214.2985  0.035153953  0.035850564            4 
  509000    1.0599964   -6.3101185    213.98101  0.035032909  0.035829763            5 
  510000    1.0479963   -6.3112778    214.25991  0.035009789  0.035808661            8 
  511000    1.0399361   -6.3869981    214.58625  0.034994495  0.035787327            3 
  512000    1.0591223   -6.3100967    215.23725  0.035032105  0.035765968            3 
  513000    1.0476109   -6.3621745    214.94132  0.034915744  0.035744756            4 
  514000    1.0430019   -6.3376759    215.19423  0.034888818  0.035723398            5 
  515000    1.0485161   -6.3162684    215.85651  0.034928238  0.035701624            5 
  516000    1.0598576   -6.3596655    215.25631  0.034763615  0.035679708            3 
  517000    1.0624354   -6.3499038    216.26966  0.034859713  0.035657311            9 
  518000     1.069306   -6.3236029    216.70698   0.03486277  0.035635182            5 
  519000    1.0357058   -6.3362668    217.45402  0.034915546  0.035613086            3 
  520000    1.0324056     -6.37011    217.32198   0.03482724  0.035591495           13 
  521000    1.0607859   -6.3517017    217.68028  0.034817702  0.035570054            7 
  522000     1.035738   -6.3398523    217.94573   0.03479338   0.03554871            3 
  523000    1.0578324   -6.3240441    218.06546   0.03474593  0.035527594            4 
  524000    1.0402388   -6.3287135    218.67606  0.034776726   0.03550668            5 
  525000    1.0358028   -6.3099794    219.07254  0.034773419  0.035485234            2 
  526000    1.0477302   -6.3524958     218.2139  0.034571276   0.03546329            9 
  527000    1.0401411   -6.3211647    219.04538  0.034637157  0.035440744            4 
  528000    1.0362874   -6.3475765    219.20298  0.034596431  0.035418286            6 
  529000    1.0494501   -6.3719632    219.42435  0.034565902  0.035396026            2 
  530000    1.0490361   -6.3594059    219.77632  0.034556026  0.035373868            5 
  531000    1.0477108   -6.3263414    220.94427  0.034674242  0.035352622            6 
  532000    1.0514635   -6.3352355    221.53658  0.034701846  0.035331967            6 
  533000    1.0528259   -6.3691366    221.69333  0.034661247  0.035311375            4 
  534000    1.0466401   -6.3458473    221.51616  0.034568689    0.0352906            2 
  535000    1.0335131   -6.3517461    221.77192  0.034543913  0.035269611            4 
  536000    1.0489071   -6.3631644     221.5952   0.03445199   0.03524796            3 
  537000    1.0288983   -6.3344604    222.17322  0.034477533   0.03522653            3 
  538000    1.0454895   -6.3563536    221.99099  0.034385221  0.035204694           12 
  539000    1.0403427    -6.348175    222.94312  0.034468633  0.035183147            2 
  540000    1.0644266   -6.3459651    223.01621  0.034416082  0.035161879            5 
  541000    1.0228342   -6.3509107    223.97614   0.03450033  0.035141044           12 
  542000    1.0572117    -6.338662    224.50618   0.03451817  0.035120782            3 
  543000    1.0434305   -6.3492213    224.51315  0.034455671  0.035100262            3 
  544000    1.0448076    -6.342328    224.53145  0.034395137  0.035080023            8 
  545000    1.0285176   -6.3609561    225.40094  0.034464976  0.035059977            6 
  546000    1.0329749   -6.3853188    225.90477  0.034478751  0.035039914            4 
  547000    1.0128374   -6.3174299    225.78728  0.034397819  0.035019406            9 
  548000     1.026926   -6.3749511    225.67902  0.034318586  0.034998868            4 
  549000    1.0333933   -6.3330124    226.37352  0.034361493  0.034978432            3 
  550000    1.0518784   -6.3283823    227.00289  0.034394377  0.034958164            3 
  551000    1.0141576   -6.3399215    226.71398  0.034288261   0.03493801            2 
  552000    1.0247594    -6.356986    227.44685  0.034336783   0.03491782            3 
  553000    1.0222278   -6.3211126    227.83229  0.034332774  0.034897505            2 
  554000     1.004978   -6.3540577    228.14635  0.034318043  0.034877545            3 
  555000     1.012483   -6.3410893    228.71527  0.034341633  0.034858181            4 
  556000    1.0308131   -6.3598635    228.62494  0.034266328  0.034838994            4 
  557000    1.0261483   -6.3890345    229.46906  0.034331098  0.034820002            4 
  558000    1.0312601   -6.3930859    229.37643  0.034255739  0.034800779            4 
  559000    1.0393205    -6.347381    229.40219  0.034198299   0.03478164            2 
  560000    1.0175727   -6.3623778    230.11385  0.034243132  0.034762624            7 
  561000    1.0156513   -6.3433953      230.965  0.034308527  0.034743413            6 
  562000    1.0409109   -6.3573758    230.54194  0.034184748  0.034724244           10 
  563000    1.0437498   -6.3568122    231.14831  0.034213782  0.034704875           10 
  564000     1.029834   -6.3504341    230.64692  0.034079037  0.034685175            4 
  565000    1.0313185   -6.3849013    231.70033   0.03417409  0.034665759           14 
  566000    1.0337719   -6.3839226    231.99026  0.034156398  0.034646228            5 
  567000    1.0190529   -6.3298211    231.99072  0.034096225   0.03462718            3 
  568000    1.0362363   -6.3581316    233.13828  0.034204559  0.034608662            6 
  569000    1.0306601    -6.390708    232.75894   0.03408889  0.034589181            2 
  570000    1.0336361   -6.3607444    232.98156  0.034061632  0.034570257           11 
  571000    1.0298783   -6.4029439    234.01517  0.034152827  0.034551049            6 
  572000    1.0174407   -6.3660894    233.16627  0.033969445  0.034531899            7 
  573000    1.0364439   -6.4193628    234.35698   0.03408333  0.034512287            7 
  574000    1.0207304   -6.3917219    233.91636  0.033959983  0.034493016            6 
  575000    1.0733356   -6.3898582    234.28023  0.033953656  0.034473737            7 
  576000   0.99262654   -6.3564015    234.78885  0.033968294  0.034454891           10 
  577000    1.0079318   -6.3641136    235.71286  0.034042874   0.03443607            5 
  578000    1.0281965   -6.3801914    235.70267  0.033982507   0.03441758            2 
  579000      1.01848   -6.3618468    235.82736  0.033941761  0.034398641            4 
  580000    1.0185037    -6.400289    236.17714  0.033933497  0.034379548            8 
  581000    1.0105692   -6.3462334    236.90263  0.033979149  0.034360609            3 
  582000    1.0499888   -6.3621329    237.27682  0.033974344  0.034342038            5 
  583000    1.0147221   -6.4004262    236.75796  0.033841904  0.034323362            4 
  584000    1.0131247   -6.3906637    237.40871  0.033876813  0.034304178            5 
  585000    1.0065946   -6.3786667    237.09379  0.033774044  0.034285292            4 
  586000    1.0317622   -6.3631886    237.77009  0.033812584  0.034266208            5 
  587000    1.0159839   -6.4162859    237.93602  0.033778538  0.034247286            6 
  588000    1.0295534   -6.3681186    238.15117  0.033751583  0.034228115            7 
  589000    1.0178623   -6.3894549    238.00372  0.033673418  0.034208808           12 
  590000     1.016165   -6.3781927     239.3256  0.033803051   0.03418995            5 
  591000    1.0161945    -6.423436    238.64315  0.033649627  0.034171055            5 
  592000    1.0030598   -6.3492823    239.82092  0.033758576  0.034152216           11 
  593000    1.0294709   -6.4011873    239.96512  0.033721911  0.034133567            6 
  594000    1.0219759   -6.3973813    240.14908  0.033690949  0.034115188            8 
  595000    1.0273069   -6.4041005      239.885  0.033597339  0.034096684            2 
  596000    1.0162383   -6.4059051     240.2337  0.033589723  0.034078119            4 
  597000    1.0374378   -6.3751807    241.59718  0.033723782  0.034059356            2 
  598000    1.0001127   -6.4123533    240.99698  0.033583748  0.034040708            4 
  599000    1.0182168   -6.3864895     241.6325  0.033616096  0.034021752            7 
  600000    1.0249123   -6.3727895    241.83582  0.033588308  0.034003108            3 
  601000    1.0352593   -6.3843681    242.24084   0.03358858  0.033983991            4 
  602000    1.0181017   -6.4142551    241.44848  0.033423101  0.033964689            6 
  603000    1.0122667   -6.4165165     241.7223  0.033405514   0.03394551            4 
  604000    1.0123757    -6.372007    242.11969  0.033405035  0.033926472            6 
  605000     1.026376   -6.3960283    243.00653  0.033471974  0.033907164            6 
  606000    1.0270732   -6.4129279     243.1326  0.033434075  0.033888206            7 
  607000    1.0304139   -6.4395814    242.84507  0.033339521  0.033869047            5 
  608000    1.0111938   -6.3837906     243.3768  0.033357565  0.033849899            8 
  609000    0.9923112   -6.3760537    244.35147  0.033436162  0.033830909            8 
  610000    1.0127867   -6.4011159    244.59398  0.033414478  0.033811939            3 
  611000    1.0158892   -6.4066729    245.08822  0.033427199  0.033792753            4 
  612000    1.0281311   -6.3806162    244.76457  0.033328509   0.03377393            8 
  613000   0.98991907   -6.3882015    245.23455   0.03333803  0.033754837            3 
  614000   0.99755281   -6.4145621    245.49094  0.033318532  0.033735875            8 
  615000      1.00954   -6.3892024    245.00553  0.033198581  0.033716702            4 
  616000   0.99008505   -6.4102695    245.36272  0.033193009  0.033697564            4 
  617000    1.0021417   -6.4270372    246.13757  0.033243864  0.033678281            7 
  618000   0.98194345   -6.4245002    246.41067  0.033226897  0.033658822            6 
  619000    1.0058428   -6.3976589    246.41471  0.033173763  0.033638994           18 
  620000    1.0154052   -6.3771147    247.27589  0.033236007  0.033619465            5 
  621000   0.99827451   -6.3865957    247.64192  0.033231604   0.03360028            3 
  622000     0.998211   -6.4072564    247.16891  0.033114805  0.033580463            7 
  623000   0.99894016   -6.3892097     248.0791  0.033183401  0.033560996            3 
  624000    1.0016295   -6.3796665    247.34256  0.033031859  0.033540926            4 
  625000    1.0115549   -6.3884592    247.54555  0.033006073  0.033520751            3 
  626000    1.0121402   -6.4260675    247.76853  0.032983032  0.033500707            3 
  627000    1.0296714   -6.4322488    247.77375  0.032931121  0.033480745            4 
  628000    1.0358302   -6.4356748    248.45744  0.032969406  0.033461155            5 
  629000    1.0097667   -6.4057127     248.7431  0.032954836  0.033441401            5 
  630000     1.002309    -6.410465    249.74513   0.03303507  0.033421745            4 
  631000    1.0239226   -6.4540022    248.47565  0.032815062   0.03340196            7 
  632000   0.98502454   -6.4532068    248.55026  0.032772978  0.033381627            4 
  633000    1.0018992   -6.4128766    249.14079  0.032798946  0.033361362            6 
  634000   0.97602223    -6.409613    249.41426  0.032783157  0.033341164            6 
  635000    1.0130263   -6.4128203    249.98607   0.03280657  0.033321029           12 
  636000   0.99802483   -6.4246668    249.37934   0.03267549   0.03330067            7 
  637000    1.0023068   -6.4051875    250.94737  0.032829326   0.03328039            5 
  638000    1.0115468     -6.40537    250.53356  0.032723819  0.033260298            8 
  639000    1.0193741    -6.400113    250.66066  0.032689183  0.033239937            4 
  640000   0.98933154    -6.430625    251.02721  0.032685835  0.033219668            5 
  641000   0.99589514   -6.4210582    251.46235  0.032691413  0.033199484            4 
  642000   0.99983019   -6.4322765    251.59661   0.03265792  0.033179445            7 
  643000   0.99408624   -6.4148589    251.93863  0.032651455    0.0331596            6 
  644000    1.0136913   -6.4602294    252.87144   0.03272146  0.033139645            5 
  645000   0.98902186   -6.4386822    252.14717  0.032577154  0.033119537            6 
  646000   0.99172481   -6.4066418    252.61833  0.032587503  0.033099544            3 
  647000    1.0107859     -6.43564    253.54532  0.032656532  0.033079763            6 
  648000   0.98657398   -6.4215048    253.95579  0.032658923  0.033059943           11 
  649000   0.97811146   -6.4448561    253.65093  0.032569457  0.033040004            6 
  650000   0.99652417   -6.4345016    254.02564   0.03256739  0.033020132            4 
  651000    1.0044994   -6.4452517    254.21829  0.032542023  0.033000228            9 
  652000   0.99956654   -6.4275268    254.14067  0.032482192  0.032980186           13 
  653000     1.004448   -6.4379183    253.81523  0.032390918  0.032960291            8 
  654000   0.98473227   -6.4601915    254.65279  0.032448112  0.032940142            5 
  655000   0.99654931   -6.4357366    255.35767  0.032488254  0.032920234            6 
  656000   0.98218715   -6.4067469    255.54103  0.032462021  0.032900794            5 
  657000    1.0209847   -6.4358237    254.88875  0.032329877  0.032881297            3 
  658000   0.96546308   -6.4291278    256.50877  0.032485913  0.032861781            4 
  659000    1.0118909   -6.4458054    256.36575  0.032418532  0.032842001            8 
  660000   0.99728778   -6.4218401    256.48063  0.032383918  0.032822405            9 
  661000   0.97988243   -6.4439466    256.10775  0.032287915  0.032802375           12 
  662000   0.99882707   -6.4421898    255.50926  0.032163804  0.032782563            7 
  663000   0.99029843   -6.4638419    257.02728  0.032306093  0.032762965            6 
  664000   0.97220948   -6.4674861    257.35465  0.032298525  0.032743328            4 
  665000   0.98061344   -6.4470238    258.04455  0.032336409  0.032723625            7 
  666000   0.97550494   -6.4376054    257.99295    0.0322814  0.032703892           10 
  667000    0.9884012   -6.4514304    258.43393  0.032288097  0.032684217            5 
  668000    0.9812526   -6.4614516    258.56947   0.03225667   0.03266487            5 
  669000   0.96437518   -6.4605738    258.14077  0.032155054  0.032645225           10 
  670000    1.0003431   -6.4475636    259.74541  0.032306643  0.032625668            8 
  671000    1.0167832   -6.4586108    259.76823  0.032261331  0.032606177            4 
  672000   0.98541296   -6.4619908    259.40458  0.032168226  0.032586558            7 
  673000     1.002847    -6.466045     259.2198  0.032097548  0.032567091            2 
  674000    1.0002344   -6.4643576    260.41771  0.032198036  0.032547549           11 
  675000   0.98529451   -6.4559939    259.96637  0.032094614  0.032528007            8 
  676000   0.97526461   -6.4209607    260.60574  0.032125954  0.032508636            7 
  677000    0.9906861   -6.4312208     261.7659  0.032221307  0.032489401            4 
  678000   0.99426255   -6.4424344    261.02535  0.032082762  0.032470255            7 
  679000   0.97818873    -6.400475    262.34637  0.032197639  0.032451075           11 
  680000   0.97477656   -6.4605523    261.46395   0.03204215   0.03243219            7 
  681000   0.96975205    -6.463212    261.57196  0.032008316  0.032412897            6 
  682000   0.95429888   -6.4371207    261.25622  0.031922804   0.03239332            6 
  683000   0.97822705   -6.4578646    261.64306  0.031923263  0.032373674            6 
  684000   0.98268271   -6.5058119    261.84545  0.031901249  0.032353865            4 
  685000    0.9761476    -6.485424    261.81719  0.031851239   0.03233412            5 
  686000    0.9735116   -6.4749366    262.19591  0.031850814  0.032314289            4 
  687000   0.96414719   -6.4765391    262.35918  0.031824257  0.032294504            6 
  688000   0.99430451   -6.3947345    262.91627  0.031845479  0.032274573            7 
  689000   0.98604109   -6.4309815    263.80659  0.031906941  0.032254908            5 
  690000   0.99039883   -6.4687558    263.10235  0.031775646  0.032235383            4 
  691000   0.97102427    -6.455271    263.51464  0.031779383  0.032216116           11 
  692000   0.98468497   -6.4679757    264.62724  0.031867442   0.03219673            9 
  693000   0.98189937   -6.4783973    264.54719  0.031811832  0.032177353            6 
  694000   0.97419043   -6.4509539    265.17011  0.031840791  0.032158231            4 
  695000   0.99517272   -6.4426263    265.63178  0.031850334  0.032139319            8 
  696000   0.97160055   -6.4806743    264.60525  0.031681663   0.03212016            5 
  697000   0.98275075   -6.4856429     265.7871  0.031777511  0.032101114            7 
  698000   0.96611466   -6.4426464    266.63784  0.031833553  0.032082407            6 
  699000   0.99380146   -6.4361026    265.64114  0.031669187  0.032063421            4 
  700000   0.95902127   -6.4684615    266.26345   0.03169803  0.032044132            5 
  701000   0.96352984   -6.4462945    266.94878  0.031734282   0.03202528            6 
  702000   0.98963308   -6.4730225    266.71673  0.031661531  0.032006258            5 
  703000   0.96820805    -6.458058    267.17647   0.03167099   0.03198741            8 
  704000   0.98794416    -6.463229    266.77612  0.031578613  0.031968295            5 
  705000   0.96395908   -6.4799683    267.01303  0.031561824   0.03194927            6 
  706000   0.96552901   -6.5145371     266.7114  0.031481516  0.031929611            5 
  707000   0.97956738   -6.4708462    267.51234  0.031531393  0.031909917           10 
  708000   0.96733597   -6.4580168    268.17343  0.031564669  0.031890848            6 
  709000   0.96529482   -6.4595848    268.98374   0.03161539  0.031872254            6 
  710000   0.97133544   -6.4669584    268.87037  0.031557555  0.031853526            6 
  711000   0.95062504   -6.4734584    269.12471  0.031542981   0.03183451            4 
  712000   0.97110687   -6.4676654    269.45062  0.031536823  0.031815815            8 
  713000   0.96250851   -6.4629594    269.54824  0.031504002  0.031796875            4 
  714000   0.94248404   -6.4712797    269.69986  0.031477575  0.031778307            3 
  715000     0.975317   -6.4724691    269.27352   0.03138386  0.031759625            9 
  716000   0.95951911   -6.4870792    270.22012    0.0314502  0.031741011            6 
  717000   0.95642683   -6.4788725    271.92005  0.031603911  0.031722619            5 
  718000   0.97248273   -6.5044559    270.86467  0.031437404  0.031704682            8 
  719000    0.9406836   -6.4935501    271.02377   0.03141212  0.031686466            4 
  720000   0.97421217   -6.4804666    271.71479   0.03144847  0.031668309            7 
  721000    0.9620398   -6.4843851    271.51474  0.031381731  0.031650048            3 
  722000   0.97491207   -6.5209698    271.25966  0.031308825  0.031631442            3 
  723000   0.96732532   -6.4687902    272.44658  0.031402326  0.031612757            9 
  724000   0.98230842   -6.4836338    272.22205  0.031333109  0.031594101           12 
  725000   0.93830529   -6.4721129    271.96339   0.03126016  0.031575434            4 
  726000   0.96041789     -6.49423    272.14147  0.031237542  0.031556482            6 
  727000   0.96528051   -6.5020117    273.39802  0.031338608  0.031537705            4 
  728000   0.95919825   -6.4771478    273.31704  0.031286291  0.031518922            5 
  729000   0.98826145    -6.487077     272.9456  0.031200914  0.031500253            5 
  730000   0.95818594   -6.4817402    272.54233  0.031112138  0.031481302           12 
  731000   0.97037584   -6.5020779    273.91011  0.031225502  0.031462332           10 
  732000   0.92918312   -6.4898249    273.69321  0.031158152  0.031443675            7 
  733000   0.94016188   -6.4961819     274.1566  0.031168327  0.031425142            9 
  734000   0.95911609   -6.4972291    274.31106  0.031143399  0.031406434            9 
  735000   0.96923128   -6.4934702    274.00624  0.031066467  0.031387834            2 
  736000   0.96083426   -6.4938952    274.09137  0.031033897   0.03136928            7 
  737000   0.98342412   -6.5040128     274.7847  0.031070183  0.031350369            7 
  738000   0.95281419   -6.4744593    275.63645   0.03112426  0.031331917            4 
  739000   0.96846269   -6.4717398     275.7387  0.031093674  0.031313591            5 
  740000   0.94145047   -6.4889306    275.01411  0.030970057   0.03129513            6 
  741000   0.95107017   -6.4857752    276.12985  0.031053739  0.031276252            7 
  742000   0.97398333   -6.5137424    275.77409  0.030971933  0.031257598            4 
  743000   0.93304464   -6.4676342    277.24379  0.031095086  0.031238946            4 
  744000   0.95999958   -6.5091863    275.99006  0.030912866  0.031220202            5 
  745000   0.94528103   -6.4854145     275.9997   0.03087245  0.031201235            8 
  746000     0.953075   -6.5297354    276.82711  0.030923493  0.031182459            6 
  747000   0.96337384   -6.5161018    276.22436  0.030814855  0.031163645           18 
  748000   0.95631601   -6.4943186    276.76034  0.030833371  0.031144394           10 
  749000   0.94654135   -6.5044762    277.39872  0.030863231  0.031125438            7 
  750000   0.93813748   -6.5313371    277.63325  0.030848139   0.03110636           11 
  751000   0.95468464   -6.5143073    276.39741   0.03066993  0.031086969            7 
  752000   0.95701524   -6.5393252    277.01774  0.030697888  0.031067532            3 
  753000   0.94768951   -6.5166115    276.89679  0.030643735  0.031047997            5 
  754000   0.95563166   -6.4941124    277.95173  0.030719688  0.031028124           16 
  755000   0.95564256   -6.4774312    277.28592   0.03060551  0.031008591           17 
  756000   0.96527095   -6.5046957    277.86785  0.030629172  0.030988851            4 
  757000   0.96228744   -6.5091021    277.72541   0.03057303  0.030969425            6 
  758000   0.94715928   -6.5020433    278.12008  0.030576086  0.030950002           14 
  759000   0.96981348   -6.5345987    277.57046  0.030475457  0.030930696           15 
  760000   0.94686847   -6.5287311    278.30794  0.030516222   0.03091094            6 
  761000   0.95900152   -6.5207257    279.46776  0.030603127  0.030891397           16 
  762000   0.93023628    -6.555023    279.21458  0.030535277  0.030871868            7 
  763000   0.93919786   -6.4977579    279.33683   0.03050861  0.030852281            9 
  764000   0.95959427   -6.5047253    279.13731  0.030446914  0.030832684            6 
  765000   0.95123234   -6.5400585    279.87917  0.030487927  0.030812997            7 
  766000   0.93932955   -6.5131811    279.80451  0.030440003  0.030793211            9 
  767000   0.95502727   -6.5281995    280.25098  0.030448825  0.030773394           12 
  768000   0.95642773   -6.5029033    280.37602  0.030422745  0.030753932            3 
  769000   0.96279684   -6.5245964    280.66661  0.030414674  0.030734494            9 
  770000   0.94361704   -6.5343607    280.41168  0.030347585  0.030714836            3 
  771000   0.94600518   -6.5001226    281.06723  0.030379078  0.030695204            7 
  772000   0.92937867    -6.501512      281.061  0.030339054  0.030675765           11 
  773000   0.94537826   -6.5187293    281.76781  0.030376004  0.030656266            3 
  774000   0.94646614   -6.4683492    282.39314  0.030404084  0.030637072            2 
  775000   0.95994214   -6.5286014    282.14237  0.030337889  0.030618089            5 
  776000   0.95533906   -6.5182544    282.60634  0.030348619  0.030598799            4 
  777000   0.95060319    -6.548625    282.28135  0.030274705  0.030579464            5 
  778000   0.93346383   -6.5193377    281.95625  0.030200969   0.03055994            6 
  779000   0.93982579   -6.4905251    283.24586  0.030300157  0.030540498           13 
  780000   0.94859953   -6.5239258    281.39214  0.030063262  0.030520988           11 
  781000   0.92920336   -6.5711439    282.46912  0.030139684  0.030501575            9 
  782000   0.92275425   -6.5235081    283.46327  0.030207083  0.030482208            6 
  783000   0.93478425   -6.5185056    283.30773  0.030151951  0.030463332            4 
  784000   0.96710422   -6.5400202    282.90191  0.030070356  0.030444146            6 
  785000   0.93817395   -6.5252392    283.10007  0.030053086  0.030424863            9 
  786000    0.9505476   -6.5206143    282.98153  0.030002283  0.030405228            3 
  787000   0.93263172     -6.54835     283.3975  0.030008207  0.030385549            5 
  788000    0.9292007   -6.5342108    284.06318  0.030040522  0.030365882            5 
  789000   0.94377458   -6.5307262    283.88737   0.02998388  0.030346331            5 
  790000   0.94880763   -6.5038428    284.78987  0.030041125  0.030326795            4 
  791000   0.92662175   -6.5106735    284.86524  0.030011087   0.03030745            4 
  792000   0.95700916   -6.5233157     284.7448  0.029960521  0.030288004            6 
  793000   0.95826136   -6.5254733    284.21349  0.029866907  0.030268522            8 
  794000   0.94734578   -6.5325938    284.87215   0.02989842  0.030248756            5 
  795000   0.94705006   -6.5565036     284.6298  0.029835409  0.030229036            7 
  796000   0.92858032   -6.5561802    285.30152   0.02986825  0.030209149           10 
  797000   0.92431107   -6.5633316    285.43073  0.029844284  0.030189398            4 
  798000    0.9396214   -6.5602924    285.94335  0.029860417  0.030169695            4 
  799000   0.93085969   -6.5602255    285.34005  0.029760122  0.030150077            6 
  800000   0.93602038   -6.5498103    286.02903   0.02979469   0.03013057           20 
  801000   0.93093109   -6.5847446    285.90924  0.029745031  0.030110839            5 
  802000   0.92997112   -6.5374285    286.96182  0.029817313  0.030091478            6 
  803000   0.93007442    -6.600001    286.21092  0.029702254  0.030072008            8 
  804000   0.92033661   -6.5575528    287.54059   0.02980313  0.030052443            6 
  805000   0.92236854    -6.554292    287.78989  0.029791915  0.030033019            4 
  806000   0.93086358   -6.5486035    287.70793  0.029746477  0.030013643            8 
  807000   0.92089499   -6.5777689    287.79882  0.029719002  0.029994105            5 
  808000     0.933825   -6.5462942    287.89914  0.029692568  0.029974733            8 
  809000     0.940116   -6.5513102    288.44311  0.029711898  0.029955503            8 
  810000   0.92837319   -6.5458851    288.00664  0.029630313  0.029936289           13 
  811000   0.93899257   -6.5546786     288.0502  0.029598253  0.029916895            6 
  812000    0.9050022   -6.5580124    288.30526  0.029587978  0.029897554            6 
  813000   0.92628253   -6.5403431     289.3194  0.029655535  0.029878213           10 
  814000   0.93586458   -6.5616464     289.1052  0.029597175  0.029858621           10 
  815000   0.92376354   -6.5454616    289.04709  0.029554917  0.029839129            9 
  816000   0.91863884   -6.5378836    288.73959  0.029487294  0.029819861            5 
  817000   0.93309225   -6.5819278    289.00418  0.029478191  0.029800556           10 
  818000   0.91787366   -6.5468724    289.35379   0.02947777  0.029781142           15 
  819000   0.94198188   -6.5585133    289.63694  0.029470588  0.029761863           13 
  820000   0.93508797   -6.5695488    289.85703  0.029457015  0.029742426           30 
  821000   0.91974634   -6.5569529    290.17506  0.029453417  0.029723093            9 
  822000   0.91878887   -6.5298729    290.63071  0.029463779  0.029703785            7 
  823000   0.93977637   -6.5784288    290.34649  0.029399199  0.029684409            8 
  824000   0.92555176   -6.5623392    290.44545  0.029373528  0.029665134            4 
  825000   0.93767588   -6.5845173    290.38019  0.029331333  0.029645866           10 
  826000   0.91928514   -6.5747686    290.95375  0.029353688  0.029626773            8 
  827000   0.90468564   -6.5657336    291.05138  0.029328031  0.029607659            6 
  828000   0.93258127   -6.5350028    293.24881  0.029513769   0.02958897            7 
  829000   0.93055705   -6.5414082    292.51276  0.029404178  0.029570359            7 
  830000   0.90021022   -6.5845955    292.08378  0.029325681  0.029551811            5 
  831000   0.91525059    -6.593549    292.39236  0.029321336  0.029533179            9 
  832000   0.93316814   -6.5783201    292.53328  0.029300209  0.029514501           17 
  833000   0.90976344   -6.5290831    294.13897  0.029425667  0.029495972           10 
  834000   0.90323322    -6.560748    293.46857  0.029323398  0.029477344            8 
  835000   0.92438089   -6.5831217     293.1005  0.029251547  0.029458586            9 
  836000   0.91527169   -6.5781486     292.9635  0.029202901  0.029439831            7 
  837000   0.90946554   -6.5548846    294.17791   0.02928892  0.029421333            4 
  838000   0.94615398   -6.5593822    294.05109  0.029241358  0.029402801           18 
  839000   0.90771372   -6.5773839    293.97461  0.029198908   0.02938429           10 
  840000   0.91770567   -6.5891225    293.90281  0.029157025  0.029365625            5 
  841000   0.94136739   -6.5644759    294.30524  0.029162232  0.029346906            7 
  842000   0.92609989   -6.5797505    294.41993  0.029138948  0.029328179           10 
  843000   0.93356973   -6.5415269    293.84393  0.029047443  0.029309438            6 
  844000   0.89787085   -6.5786331    294.61201  0.029088864  0.029290735            7 
  845000   0.91299841   -6.5782843    294.74173  0.029067232  0.029271983            5 
  846000   0.89552907   -6.5767772     294.5695  0.029015908  0.029253174            6 
  847000   0.92920796   -6.5887627    294.84886  0.029009136  0.029234428            8 
  848000   0.93009011   -6.6042478    294.90465   0.02898041  0.029215784           11 
  849000      0.92129   -6.6050919    296.13812  0.029067346  0.029196986            6 
  850000   0.88535905   -6.5940623    295.42741  0.028963471  0.029178265            6 
  851000   0.90810701   -6.5863628     296.2851  0.029013425  0.029159745           14 
  852000   0.91640849   -6.5841692    296.11512  0.028962747  0.029141074           14 
  853000   0.92160205   -6.5938445    296.41914  0.028958494  0.029122651            5 
  854000   0.91224471   -6.6042989    296.30126  0.028913082  0.029104069           11 
  855000   0.91637133   -6.5788135    297.01206  0.028948544  0.029085618            9 
  856000     0.915071   -6.6019623    296.76423  0.028890599  0.029067028           19 
  857000   0.91466229   -6.5858131    297.60561  0.028938702  0.029048719            6 
  858000   0.91297059    -6.583167    297.75627  0.028919607  0.029030591           10 
  859000   0.88095607   -6.5933075    298.42022  0.028950351  0.029012711            9 
  860000   0.90509292   -6.5513819    298.23832  0.028899062  0.028994972            7 
  861000   0.92494149   -6.5883439    299.03778  0.028942874  0.028977149            8 
  862000   0.90138235   -6.6141684    299.16479  0.028921577  0.028959306           10 
  863000   0.89587402    -6.577752    299.22599  0.028893974  0.028941402            7 
  864000   0.90411407   -6.5984943     299.5517  0.028891946  0.028923593            9 
  865000   0.90315522   -6.5771451    298.65865  0.028772509  0.028905793            8 
  866000   0.89822536    -6.578521    299.93807  0.028862401  0.028888059            8 
  867000   0.90333502   -6.5768828    299.86956  0.028822526  0.028870198            4 
  868000   0.91908191    -6.585668    300.07827  0.028809358  0.028852372            5 
  869000   0.89864223   -6.6145446    300.27183  0.028794767  0.028834502            6 
  870000   0.91643499   -6.6194136    299.85045  0.028721307  0.028816566            4 
  871000    0.9019446   -6.5860977    300.64076  0.028763945  0.028798779            8 
  872000   0.91743518   -6.6025049    300.53272  0.028720634  0.028781037            6 
  873000   0.90590876   -6.5814717     301.1005  0.028741934   0.02876326            6 
  874000    0.8894726   -6.5937787    300.82826  0.028683092  0.028745458            4 
  875000   0.88747882   -6.6196198     300.6377  0.028632162  0.028727618            8 
  876000   0.91111692   -6.5996943    301.88971  0.028718579  0.028709845           11 
  877000   0.90606025   -6.5814092    300.67919  0.028570808  0.028692152           11 
  878000   0.89036467   -6.5856851    301.11481  0.028579614  0.028674132            5 
  879000   0.89616018   -6.6179445    301.94646  0.028625944  0.028656243            8 
  880000   0.89726124   -6.6106706    301.93347  0.028592185  0.028638558           20 
  881000   0.92722351   -6.5893301    302.90728  0.028651843  0.028620804            5 
  882000   0.91047424   -6.6285265    302.41716   0.02857305  0.028603298            8 
  883000   0.90884759   -6.5981836    302.81891  0.028578606  0.028585654            6 
  884000   0.89692844   -6.6039435    302.31198  0.028498489  0.028567682           10 
  885000   0.92581605   -6.6240408     302.8293     0.028515  0.028549837           12 
  886000     0.889073   -6.6151637    302.85218  0.028484968   0.02853211            5 
  887000   0.90728492   -6.6336932    302.89413  0.028456795  0.028514231            4 
  888000   0.90092943   -6.6178922    303.00036  0.028434718  0.028496281            6 
  889000   0.88049045   -6.5883852      302.574  0.028362767  0.028478033            6 
  890000   0.90064474   -6.6122997    302.30579  0.028305786  0.028459736            7 
  891000   0.91115141   -6.6026845    302.98513  0.028337555  0.028441451            5 
  892000   0.89637671   -6.5987537    303.77052  0.028379159  0.028423279            8 
  893000   0.89804803   -6.5970527    302.77627  0.028254598  0.028405081           13 
  894000   0.88641846   -6.6236098    303.36174  0.028277567  0.028386733            9 
  895000   0.90752951   -6.6288083    303.16646  0.028227789  0.028368409            5 
  896000   0.89226591   -6.6085577    303.36115  0.028214393  0.028349914            7 
  897000   0.89339323   -6.6228499    302.92022  0.028141976  0.028331451           15 
  898000   0.89125545   -6.6283475    303.90143  0.028201692  0.028312978           10 
  899000   0.91071383   -6.6508624    302.88485  0.028076089  0.028294327            6 
  900000   0.88795475   -6.6207607    304.16716  0.028163626  0.028275768            6 
  901000   0.90954347   -6.6134599    303.53738   0.02807412  0.028257169           12 
  902000   0.91054041   -6.6132794    304.54631  0.028136207  0.028238543           10 
  903000   0.92559265   -6.5964162    303.98146  0.028052922  0.028219953           14 
  904000   0.90865843   -6.6326661    303.79834   0.02800501  0.028201317            9 
  905000   0.89971259   -6.6221187    304.54264    0.0280426  0.028182827            6 
  906000   0.90370651   -6.6087154    305.33423  0.028084459  0.028164541            9 
  907000   0.89744113   -6.6075291    304.44269  0.027971581  0.028146116            4 
  908000   0.88660245   -6.6163562     305.3767  0.028026496  0.028127784            5 
  909000   0.89519591    -6.626606    305.41823  0.027999471   0.02810952            5 
  910000   0.90835231   -6.6262821    305.27595  0.027955673  0.028091151           13 
  911000   0.86958358   -6.6149134    306.03081  0.027994037  0.028072786            7 
  912000   0.89389882   -6.6305269    305.63951  0.027927587   0.02805447            9 
  913000    0.8878645   -6.6323074    306.67914   0.02799189  0.028036241           15 
  914000   0.89927925   -6.6346958    305.90246   0.02789045  0.028018016            8 
  915000   0.89807609   -6.6187307    306.44662  0.027909528  0.027999965            6 
  916000    0.8762057   -6.6120749    306.61971  0.027894806  0.027981935            6 
  917000   0.90711842   -6.6387117    306.31312  0.027836525  0.027963659           16 
  918000   0.89624315   -6.6336358    306.62876  0.027834855  0.027945342            7 
  919000   0.88029003   -6.6463149    306.59581  0.027801579  0.027926975            6 
  920000   0.89998275   -6.6391491    306.37386  0.027751255  0.027908434            8 
  921000   0.87490324   -6.5962395    307.37946  0.027812112  0.027889945           11 
  922000   0.88886609   -6.6587166    306.59172  0.027710749   0.02787145            7 
  923000   0.88176104   -6.6402572    307.69275  0.027780133  0.027852974           13 
  924000   0.88130437   -6.6425396    306.77976  0.027667728  0.027834326            5 
  925000   0.88609788   -6.6415328    306.83186   0.02764251  0.027815794           13 
  926000   0.89584079   -6.6746305    306.95608  0.027623837  0.027797232            8 
  927000    0.8866988   -6.6558604    306.94468  0.027593013  0.027778464           14 
  928000   0.88886043    -6.638607    307.93754  0.027652437  0.027759664           17 
  929000   0.89292152   -6.6606269    307.41097  0.027575436  0.027740908            6 
  930000   0.89194285   -6.6140809    307.38125  0.027543123   0.02772213           12 
  931000   0.88906736    -6.596336    307.20497  0.027497759  0.027703348           17 
  932000    0.8905276   -6.6332137    307.99394    0.0275388  0.027684691           10 
  933000    0.9003347   -6.6589892    307.93432  0.027503958   0.02766614            7 
  934000   0.88428054   -6.6529848    308.15691  0.027494371  0.027647531            7 
  935000   0.87197016   -6.6337832    309.14652  0.027553166  0.027628948            3 
  936000    0.9042052   -6.6235404    308.87384  0.027499451  0.027610595            7 
  937000   0.87292548   -6.6604722      309.118  0.027491818     0.027592            4 
  938000   0.88632752   -6.6415879    308.61525  0.027417844  0.027573279           20 
  939000   0.87856416   -6.6219997    309.43411  0.027461316  0.027554604            3 
  940000   0.90080864   -6.6547374    309.10964  0.027403337  0.027535959            6 
  941000   0.86673314   -6.6262517    307.92273  0.027269104  0.027517348            5 
  942000   0.87853327   -6.6707223    308.23378  0.027267673  0.027498506            8 
  943000   0.84874658   -6.6559652    309.66796  0.027365496  0.027479908           12 
  944000   0.86636257   -6.6415009    309.54957  0.027326057  0.027461359           22 
  945000   0.86733121   -6.6587138    309.69182  0.027309684  0.027442904            5 
  946000   0.86186885   -6.6619396    310.16841  0.027322798  0.027424476            4 
  947000   0.87497506   -6.6528155    309.96762  0.027276278  0.027406015            6 
  948000   0.84269707    -6.664249    310.35359  0.027281434  0.027387767           12 
  949000   0.87532636    -6.659187    310.49979  0.027265524  0.027369438           17 
  950000   0.87349233   -6.6449432    311.20041  0.027298281  0.027351391            5 
  951000   0.88795026   -6.6451837    311.56591  0.027301604  0.027333338            4 
  952000   0.87560611   -6.6455581     311.8873  0.027301059  0.027315324           10 
  953000   0.89125211   -6.6550821    310.74443  0.027172476  0.027297314            4 
  954000    0.8585971   -6.6707058    311.49895  0.027209901  0.027279375           10 
  955000   0.87618677   -6.6300658    311.84145  0.027211296  0.027261356           11 
  956000   0.86771865   -6.6619536     312.2418   0.02721773  0.027243555            7 
  957000   0.86950857   -6.6787883    311.69945  0.027142063  0.027225582           12 
  958000   0.85924998   -6.6590401     311.8265  0.027124782  0.027207529            7 
  959000   0.87749591   -6.6660134    312.96504  0.027195433  0.027189624            7 
  960000   0.88414283   -6.6625149    312.28863  0.027108388  0.027171566            8 
  961000   0.87190498   -6.6870581    312.59085  0.027106387  0.027153333           13 
  962000   0.86733398   -6.6525798    312.21741   0.02704586  0.027135226            9 
  963000   0.85862973   -6.6866184     312.5186  0.027043839  0.027117086            8 
  964000   0.86452226   -6.6971799    312.75042  0.027035825  0.027098969            9 
  965000   0.85957882   -6.6678342    313.18627  0.027045446  0.027080886           11 
  966000   0.88460448    -6.655626    313.20054   0.02701868  0.027063016            7 
  967000   0.87713027    -6.687077    313.82183   0.02704428  0.027045189            6 
  968000   0.87188547   -6.6723634    313.63191  0.026999992  0.027027473            6 
  969000   0.86748938   -6.6470963    314.73015  0.027066576  0.027009725           15 
  970000   0.86969899   -6.6382923    314.35008  0.027006021    0.0269921            7 
  971000   0.85783255   -6.6698448     313.9319  0.026942319  0.026974484            7 
  972000   0.88229631   -6.6552935    314.91784  0.026999129  0.026956541            6 
  973000   0.86484177    -6.679115    313.78054  0.026873976  0.026938476            9 
  974000   0.87370973   -6.7015719    313.93815  0.026859869  0.026920404            6 
  975000   0.85841389   -6.6836834     314.2166  0.026856119  0.026902336            7 
  976000   0.86150792   -6.6659885    314.57359  0.026859084  0.026884289           10 
  977000   0.84817178   -6.6797928    314.33809  0.026811506  0.026866314           15 
  978000   0.87281121   -6.6644891    315.19801  0.026857363  0.026848238           20 
  979000   0.86518984   -6.6507358    315.31119  0.026839563  0.026830352            8 
  980000   0.86212194   -6.6957412    314.71044  0.026761092  0.026812435           10 
  981000   0.87871244   -6.6892602      314.488  0.026714917  0.026794392           12 
  982000   0.88178378   -6.6919456      315.266  0.026753734  0.026776411            9 
  983000   0.88878306   -6.6851689    314.76279  0.026683858  0.026758501           20 
  984000   0.87378018   -6.6703643    315.75315  0.026740612  0.026740626            9 
  985000   0.85953568   -6.7209657    315.79714  0.026717186  0.026722801           10 
  986000   0.84404229   -6.6824895    315.95925   0.02670379  0.026704937            6 
  987000    0.8732892   -6.6862576    315.25278  0.026617087  0.026687153           13 
  988000   0.88211752   -6.7033215     316.4152  0.026688192  0.026669362           14 
  989000   0.85752055   -6.6487361    316.47918  0.026666598  0.026651525           13 
  990000   0.85831768   -6.6776033    315.40339  0.026549107  0.026633579            9 
  991000   0.84906362   -6.6732148    316.10668  0.026581457  0.026615722           29 
  992000   0.85710572   -6.6959583    315.19365  0.026477961  0.026597677           10 
  993000   0.86723314   -6.6802042    315.90535  0.026511023  0.026579556            7 
  994000   0.86979977   -6.7057416    316.20058  0.026509103  0.026561652           21 
  995000   0.85149216   -6.6752342    315.57488  0.026430057  0.026543587           11 
  996000    0.8495893   -6.7022401    316.84628  0.026509896  0.026525465           12 
  997000   0.83781689   -6.6859909    317.24465  0.026516604  0.026507539           14 
  998000   0.85287377   -6.7052843    317.11093  0.026478869  0.026489744           21 
  999000   0.85105872   -6.6866979    317.43451  0.026479355  0.026472076           13 
 1000000   0.85290223    -6.685011     317.9609  0.026496741  0.026454512           14 
 1001000   0.86243751   -6.6857553    317.84774  0.026460851  0.026436923            9 
 1002000   0.86087547   -6.6988049    318.56049   0.02649372  0.026419332            9 
 1003000   0.84140172   -6.6911233    318.73303  0.026481641  0.026401665            7 
 1004000   0.86430385   -6.6960055    318.30957  0.026420117  0.026384157            8 
 1005000   0.86290912   -6.6937855    318.60412  0.026418252   0.02636674           12 
 1006000    0.8599555   -6.6980481    318.94393   0.02642014  0.026349225            7 
 1007000   0.85782588   -6.6887622    318.50619  0.026357678   0.02633191            9 
 1008000   0.84305547   -6.6674378    319.79445  0.026438033  0.026314578           10 
 1009000   0.85873484   -6.6876685    320.03977  0.026432092  0.026297448            8 
 1010000   0.84556794   -6.7025314    319.12689  0.026330601   0.02628028            5 
 1011000   0.84909951   -6.7107801    319.48558  0.026334123  0.026262977           10 
 1012000   0.86085695    -6.736938    319.74503  0.026329466  0.026245517           12 
 1013000   0.84230526     -6.71189    319.92824  0.026318546  0.026228021           15 
 1014000    0.8538206   -6.7176109    318.91345  0.026209192  0.026210493            7 
 1015000   0.83953503   -6.7127715    319.50985  0.026232336  0.026193078           19 
 1016000   0.84010896   -6.7196731     320.1328  0.026257612   0.02617569           15 
 1017000   0.83483781   -6.7110866    319.33858  0.026166714  0.026158278            7 
 1018000   0.85285807   -6.7129003    320.20527  0.026211957  0.026140917           23 
 1019000   0.83374681   -6.6714932    320.66646   0.02622395  0.026123557            4 
 1020000   0.85119017    -6.724834    320.67256  0.026198739  0.026106254           10 
 1021000   0.85337363   -6.7090549     321.8482  0.026269033  0.026088965            5 
 1022000   0.84690625   -6.7121783    320.88597   0.02616487  0.026071719           14 
 1023000   0.84104276   -6.6964816     320.3887  0.026098787  0.026054413           12 
 1024000   0.84237096    -6.702569    320.78147  0.026105263  0.026037193           31 
 1025000   0.84458142   -6.7464706    321.48163  0.026136718  0.026020051           22 
 1026000   0.81588641   -6.7010856    321.85512  0.026141579  0.026003009           17 
 1027000   0.83202795   -6.7465454    321.74651  0.026107312  0.025985951            9 
 1028000   0.84807497    -6.730006    321.10225  0.026029689  0.025968747           16 
 1029000   0.83712211   -6.7393879    322.46157  0.026114478   0.02595156           12 
 1030000   0.85221773   -6.7254569    321.23853  0.025990172  0.025934334            9 
 1031000   0.85246004   -6.7310693       321.45  0.025982056  0.025917001            7 
 1032000   0.83856504   -6.7138018    321.33499  0.025947593  0.025899798            7 
 1033000   0.85739502    -6.725519    321.57949  0.025942198  0.025882497           13 
 1034000   0.84794491   -6.7280493    322.23734  0.025970127  0.025865149            6 
 1035000   0.83350491   -6.7432572    322.32354  0.025951976  0.025847956            9 
 1036000   0.83964047   -6.6922107    322.27164  0.025922751  0.025830844           10 
 1037000   0.84502082   -6.7313454    322.27759  0.025898232  0.025813669           12 
 1038000   0.85363147   -6.7252008    322.39737  0.025882898  0.025796406            5 
 1039000   0.85337488   -6.7234021    323.17171  0.025920092  0.025779202           11 
 1040000   0.84309238   -6.7230631    322.30177  0.025825463  0.025761969           11 
 1041000   0.84452539   -6.6974108     322.3797  0.025806892  0.025744754            8 
 1042000   0.82432406   -6.6899848    322.80601   0.02581622  0.025727453           12 
 1043000   0.85564088   -6.7175593    322.46543  0.025764256  0.025710186           13 
 1044000   0.84491513   -6.7426004     322.6106  0.025751165   0.02569287           10 
 1045000   0.82335661   -6.7127431    322.74622  0.025737338   0.02567554           22 
 1046000   0.83202331   -6.7281916    322.88792  0.025724022  0.025658278           17 
 1047000   0.83068385   -6.7563565    322.80295   0.02569269  0.025640716           13 
 1048000   0.84588381   -6.7264235    323.21182  0.025700685  0.025623269           11 
 1049000   0.81497612   -6.7600538    322.45748   0.02561626  0.025605823           12 
 1050000   0.82987483   -6.7016328    323.69016  0.025689695  0.025588357           18 
 1051000   0.82771199   -6.7203134    322.90193  0.025602754  0.025570941           11 
 1052000   0.81962644   -6.7602339    322.66954  0.025560008  0.025553286           20 
 1053000   0.84164213   -6.7506499    322.99011  0.025561104  0.025535469            8 
 1054000   0.83990467   -6.7568914    323.01021  0.025538442  0.025517753            4 
 1055000   0.83880373   -6.7393205    323.24446  0.025532738  0.025500115           13 
 1056000   0.81682058   -6.7427501    322.07355  0.025416158  0.025482333           14 
 1057000   0.83259018   -6.7546767    322.98415  0.025463903  0.025464633            5 
 1058000   0.83199525   -6.7327401    323.12317  0.025450786    0.0254469            9 
 1059000   0.82840399    -6.759949    323.46481  0.025453636  0.025429271           12 
 1060000   0.84114547   -6.7506309    323.44026  0.025427693   0.02541159           11 
 1061000   0.82855729   -6.7532055    322.43406  0.025324698  0.025393915           46 
 1062000   0.82326383   -6.7393573    323.67289  0.025398061  0.025376178           14 
 1063000   0.85037667   -6.7265591     324.5481   0.02544278  0.025358659            7 
 1064000   0.82954825   -6.7816861    324.48566  0.025413977   0.02534118            5 
 1065000    0.8339214   -6.7359915    324.50881  0.025391926  0.025323723            9 
 1066000   0.82752389   -6.7773144    323.83659  0.025315556  0.025306109            6 
 1067000   0.83170694   -6.7772359    324.45308  0.025339978  0.025288431            6 
 1068000   0.81204291   -6.7840583    324.65684  0.025332151  0.025270699           10 
 1069000   0.84382114   -6.7475906    323.25798  0.025199406  0.025252808            7 
 1070000   0.81888958   -6.7540607    323.51993  0.025196256  0.025235024            7 
 1071000   0.83027602   -6.7506238    324.98808  0.025286965  0.025217358           12 
 1072000   0.82891501   -6.7237033    324.49405  0.025224973   0.02519967           21 
 1073000   0.81594665   -6.7416748    324.65348  0.025213846  0.025182078           23 
 1074000   0.81243938   -6.7627433    325.09554   0.02522467  0.025164414           13 
 1075000    0.7969284   -6.7873321    324.70045  0.025170577  0.025146726           11 
 1076000   0.83202847   -6.7657577    324.24302  0.025111758  0.025129029            9 
 1077000   0.82797626   -6.7677102     324.2167  0.025086405  0.025111226            9 
 1078000   0.82743082    -6.741416    324.59724  0.025092551  0.025093585            9 
 1079000   0.82938071   -6.7876766    325.04463  0.025103848  0.025075879           14 
 1080000   0.81729214   -6.7848461    325.05522  0.025081421  0.025058215            8 
 1081000   0.83368317   -6.7330526    325.15476  0.025065893  0.025040609            8 
 1082000   0.81954357   -6.7610063     325.3702   0.02505932  0.025022995           22 
 1083000    0.8241504   -6.7574787    324.77969  0.024990743  0.025005298           10 
 1084000   0.81712591   -6.7574934    325.43926  0.025018393  0.024987691           17 
 1085000   0.81553284   -6.7619921    324.99213  0.024960993   0.02497006           31 
 1086000   0.82050469   -6.7730307    326.10753  0.025023598  0.024952414           18 
 1087000   0.84527596   -6.7705617    326.22906  0.025009894  0.024934784           31 
 1088000   0.82599769   -6.7670845    325.87597  0.024959863  0.024917177           12 
 1089000   0.80078478   -6.7482163    325.66009  0.024920423  0.024899652            5 
 1090000   0.80552287   -6.7604264    326.65658  0.024973745   0.02488226           16 
 1091000   0.82049748   -6.7920348    326.25095  0.024919871  0.024864826           14 
 1092000   0.82250407   -6.7363893    326.59257   0.02492312  0.024847406           10 
 1093000   0.79708717   -6.7825888    327.43235  0.024964345  0.024829938           12 
 1094000   0.80419949   -6.7601421    326.55668  0.024874823  0.024812392           11 
 1095000   0.81161507   -6.7387203    326.62857  0.024857578  0.024794913           18 
 1096000   0.82553782   -6.7987616    326.85628  0.024852211  0.024777536           12 
 1097000   0.81425807   -6.7473052    327.78056  0.024899769  0.024760113           13 
 1098000   0.81023422   -6.7564795    327.24584  0.024836509  0.024742746            9 
 1099000   0.81953371   -6.7988282    327.03582  0.024797984  0.024725398           23 
 1100000   0.81088003   -6.7827252     327.0767  0.024778538  0.024708007           11 
 1101000   0.82467033   -6.7596024    327.96412    0.0248232   0.02469066            6 
 1102000   0.81267672   -6.8058689    327.19189  0.024742278  0.024673388           19 
 1103000    0.8067319   -6.7505224    327.22787  0.024722565   0.02465606           15 
 1104000   0.79932246    -6.768111    327.84417  0.024746692  0.024638725            7 
 1105000   0.83600759   -6.7768995    327.52395  0.024700147  0.024621432           11 
 1106000   0.82600416    -6.772543    327.06138  0.024642961  0.024604203           13 
 1107000   0.81196424   -6.7892808    327.61697  0.024662524   0.02458682           17 
 1108000   0.81100214    -6.770575    328.41438   0.02470024  0.024569427           10 
 1109000   0.80092143   -6.7984479      328.632  0.024694319  0.024552142           18 
 1110000   0.79496113   -6.8108816    327.97727  0.024622918  0.024534742           16 
 1111000    0.8158713   -6.7657688    327.70615  0.024580419  0.024517391           27 
 1112000   0.81441923   -6.7853068    328.65923  0.024629739  0.024500109           12 
 1113000   0.80100194   -6.7679961     329.7082  0.024686148  0.024482857           11 
 1114000    0.8126272   -6.7854161    328.46674  0.024571121  0.024465558           17 
 1115000   0.79190248   -6.8058468    328.01103  0.024515025  0.024448177           11 
 1116000   0.79225981   -6.8180652     329.0748  0.024572491  0.024430784           45 
 1117000   0.82818435   -6.8023609    328.53593   0.02451029  0.024413491           25 
 1118000   0.82092969   -6.7744725    328.11642  0.024457097  0.024396221            8 
 1119000   0.79998575   -6.8209844    327.54278  0.024392522  0.024378873           18 
 1120000   0.80181232   -6.8020915    328.24076  0.024422675  0.024361514           11 
 1121000   0.81421813   -6.7678917    328.29159  0.024404668  0.024344255           16 
 1122000   0.80840243   -6.7855734    329.61389  0.024481127  0.024326974            5 
 1123000   0.80555085   -6.7689958    328.49879   0.02437658   0.02430972           10 
 1124000   0.81022043   -6.8044307    329.47179  0.024427031  0.024292346           16 
 1125000   0.80389006   -6.7974686    329.47336  0.024405434  0.024275007            9 
 1126000   0.80164346   -6.7763077    330.17393  0.024435607  0.024257863           12 
 1127000   0.79908293   -6.7672861    329.79963  0.024386249  0.024240747           10 
 1128000   0.77685754   -6.7698603    330.27273  0.024399581  0.024223689           19 
 1129000    0.8146589   -6.7731501    329.42938   0.02431572  0.024206675           12 
 1130000    0.7853862   -6.8129027     329.6317  0.024309123  0.024189627           11 
 1131000     0.805749    -6.812326    329.82055  0.024301544  0.024172545           10 
 1132000   0.79572541   -6.7737428    330.37542  0.024320923  0.024155464           23 
 1133000   0.81365873   -6.8279598    330.10221  0.024279362  0.024138488           13 
 1134000   0.79810588   -6.8173565    329.47298  0.024211712  0.024121459            9 
 1135000   0.80637302   -6.8028008    329.53987  0.024195291  0.024104419           11 
 1136000   0.81445963   -6.8258826    329.76485  0.024190497  0.024087351           14 
 1137000   0.78376551   -6.8076514    330.95734  0.024256621  0.024070268            8 
 1138000   0.80965873   -6.7981026    330.17373  0.024177924  0.024053164           10 
 1139000   0.79862595   -6.7970604    330.49748  0.024180383  0.024036127           10 
 1140000    0.8236402   -6.8046941    330.59433  0.024166252  0.024019076           17 
 1141000   0.78918998   -6.7582762     330.5834  0.024144274  0.024002028           11 
 1142000    0.7927712   -6.7825057    330.12589  0.024089747  0.023985065           14 
 1143000   0.80511533   -6.8105363    330.52396  0.024097694  0.023968034           10 
 1144000   0.80511661   -6.7853939    330.21305  0.024053981  0.023951064            8 
 1145000   0.78663863   -6.8174673    330.88531    0.0240819  0.023934107           17 
 1146000   0.80350746   -6.8197088    330.97355  0.024067303  0.023917102            7 
 1147000   0.79960721   -6.8142356    331.14052  0.024058451  0.023900038            7 
 1148000   0.79813252   -6.8112545    330.90569  0.024020448  0.023883085           11 
 1149000   0.79198493   -6.8146286    330.75424  0.023988558  0.023866009            7 
 1150000   0.79769582   -6.8004128    331.61494  0.024030068  0.023849027            9 
 1151000   0.79960611   -6.8244291    330.87382  0.023955533  0.023832012           11 
 1152000   0.79910029   -6.7935043    331.77235  0.023999736   0.02381504           12 
 1153000   0.79671068   -6.8342351    332.08172  0.024001281  0.023798155            9 
 1154000   0.77968506   -6.8075828    332.23487  0.023991542  0.023781353            9 
 1155000   0.80892612   -6.8295184    331.30924  0.023903985  0.023764482           19 
 1156000   0.78078102   -6.8261255    332.16521  0.023945012  0.023747687            7 
 1157000   0.79163841   -6.8084378    332.13859  0.023922399  0.023730843            9 
 1158000   0.79308012   -6.8456291    331.79649  0.023877122  0.023714082           20 
 1159000   0.79497906   -6.8089334    332.56457  0.023911747  0.023697227           12 
 1160000   0.78048721   -6.8261455     333.0276  0.023924396  0.023680525           34 
 1161000   0.78202768    -6.826291    333.01184  0.023902658  0.023663811           29 
 1162000   0.78639341   -6.8229004    332.65974  0.023856837   0.02364709           10 
 1163000   0.80036004   -6.8138215    332.75942  0.023843467  0.023630462           12 
 1164000   0.78346053   -6.8375023    332.91362  0.023834022  0.023613786           11 
 1165000   0.77548161    -6.829759    332.37678  0.023775163  0.023597079           24 
 1166000   0.78335381   -6.8271786    333.00033  0.023799338  0.023580357           16 
 1167000   0.78627474   -6.8428604    332.90052  0.023771816  0.023563671           15 
 1168000   0.78699642    -6.828903    333.09818  0.023765567  0.023547094           13 
 1169000   0.78398907   -6.8244121    333.51368  0.023774856  0.023530557           17 
 1170000   0.79003853   -6.8475961    333.49881  0.023753476  0.023514001           22 
 1171000   0.78778492   -6.8377103    332.85143  0.023687121  0.023497449           16 
 1172000   0.79390973   -6.8244931     333.6268  0.023722042  0.023480939           36 
 1173000   0.79272274   -6.8538309    334.36653  0.023754371  0.023464503           15 
 1174000   0.78857079   -6.8213519    333.85253  0.023697653   0.02344805           13 
 1175000   0.80752292   -6.8315429     334.2834  0.023708043  0.023431677            8 
 1176000   0.79008528   -6.8339016    334.77729   0.02372288   0.02341539           29 
 1177000   0.77712212    -6.830197    335.47777   0.02375232  0.023399067           12 
 1178000   0.76911198   -6.8549572    335.03077  0.023700535  0.023382796           12 
 1179000    0.7798095   -6.8302163    334.90809  0.023671762  0.023366471           12 
 1180000   0.78151491   -6.8476453    334.61719  0.023631158  0.023350178            8 
 1181000   0.78036745   -6.8158246    334.39707  0.023595616  0.023334015           12 
 1182000   0.78860269    -6.854718    334.22623  0.023563609   0.02331772           24 
 1183000   0.77850031   -6.8517711    334.15795  0.023538881  0.023301393           25 
 1184000   0.77842854   -6.8525196    335.14406  0.023588405  0.023285067           17 
 1185000   0.79709381   -6.8419403    334.45368  0.023519949  0.023268664           20 
 1186000   0.78385211   -6.8564271     333.9086  0.023461819  0.023252308           26 
 1187000   0.76155373   -6.8460378    335.16672  0.023530379  0.023235907           23 
 1188000   0.78925548   -6.8477674    334.94626  0.023495108  0.023219448           31 
 1189000   0.77495406   -6.8491463    335.19806  0.023492996     0.023203           23 
 1190000   0.76650015   -6.8928131    334.81147  0.023446181  0.023186509           57 
 1191000    0.7960375   -6.8683636    334.44419  0.023400797  0.023169974           23 
 1192000    0.8000098   -6.8756201    334.18736  0.023363211  0.023153513           12 
 1193000   0.77169792   -6.8906561    334.23912  0.023347242  0.023136947           19 
 1194000   0.76314321   -6.8610355    335.30363  0.023401984  0.023120449           17 
 1195000   0.77741491   -6.8550362      335.125  0.023369944  0.023104081           14 
 1196000   0.78736685   -6.8621268    334.00448   0.02327233  0.023087616           37 
 1197000   0.77385054    -6.865462    335.61415  0.023364951  0.023071162           22 
 1198000   0.78703936   -6.8535502    335.23165   0.02331884  0.023054765            6 
 1199000   0.76025743   -6.8807593    335.27984  0.023302741  0.023038438            5 
 1200000    0.7762863   -6.8514844    336.46375  0.023365538  0.023022147           18 
 1201000   0.77665972   -6.8850005    335.54777  0.023282526  0.023005903           19 
 1202000   0.78362107   -6.8719578    335.95318  0.023291263  0.022989691           50 
 1203000   0.77427025    -6.842419    336.01357  0.023276086  0.022973526            8 
 1204000   0.79910389    -6.841615    335.72609  0.023236856  0.022957333           12 
 1205000   0.78100582   -6.8430306    335.96936  0.023234395  0.022941105           18 
 1206000   0.77996773   -6.8359043    336.36489   0.02324246  0.022924981           11 
 1207000   0.77846759   -6.8159177    336.72678   0.02324819  0.022908943           18 
 1208000   0.76785946   -6.9112477    336.42789  0.023208326  0.022892769           15 
 1209000   0.77491874   -6.8870386    336.10369  0.023166783  0.022876435           20 
 1210000   0.79369876    -6.882642    336.99301  0.023208885  0.022860149           20 
 1211000   0.78514032   -6.8868211    337.10516  0.023197438   0.02284386           33 
 1212000   0.77217076   -6.8846226    336.23012  0.023118132    0.0228277           32 
 1213000    0.7615044   -6.8740069    335.98549  0.023082268  0.022811481           19 
 1214000   0.78826148   -6.9003321    336.39142  0.023091119  0.022795198           19 
 1215000   0.77492984   -6.8818426    336.38633  0.023071765  0.022778965           26 
 1216000   0.76713221   -6.8620977    336.35328  0.023050526  0.022762767           10 
 1217000   0.76847999   -6.8655545    336.60455  0.023048791  0.022746573            6 
 1218000   0.76477418   -6.8804453    336.50165  0.023022827  0.022730353            8 
 1219000   0.75755565    -6.868081    336.84724  0.023027566  0.022714159           15 
 1220000   0.75473342   -6.8962723    336.80728  0.023005962  0.022697985           13 
 1221000   0.76143395   -6.8716866    336.59209  0.022972433   0.02268176           15 
 1222000   0.77347339   -6.8977081    336.63221   0.02295637  0.022665591           11 
 1223000   0.75493113   -6.8449077    336.93145  0.022957989  0.022649448           10 
 1224000   0.76116581   -6.8583325    336.51341  0.022910771  0.022633303           29 
 1225000   0.76774282   -6.8436897    337.11042  0.022932681  0.022617145           27 
 1226000   0.75568455   -6.8607057    336.24779  0.022855342  0.022600975           27 
 1227000    0.7831126   -6.8604147    336.44898  0.022850379  0.022584833           22 
 1228000   0.75117083   -6.9091418    337.65069   0.02291332  0.022568733           45 
 1229000   0.76045019   -6.8869345    337.72973  0.022900036  0.022552604           34 
 1230000   0.76300087   -6.8676496    337.43094  0.022861175  0.022536516           16 
 1231000   0.75642114   -6.8713757    337.18481  0.022825942  0.022520461           32 
 1232000   0.75437659    -6.887029    337.75561  0.022846024  0.022504365           30 
 1233000   0.76978718   -6.9048765    337.49767  0.022810061  0.022488264           20 
 1234000   0.76126434   -6.8956131    337.94818     0.022822  0.022472263           16 
 1235000   0.77642825   -6.8805013    338.05844  0.022810961  0.022456327           21 
 1236000    0.7456948   -6.8668529    337.88388  0.022780737  0.022440336           10 
 1237000   0.76712405    -6.913556    337.61988  0.022744535  0.022424409           28 
 1238000   0.76200308   -6.8793257    338.33169  0.022774077  0.022408444           16 
 1239000   0.74820401   -6.8814659    337.80922  0.022720555  0.022392552            9 
 1240000   0.75173061   -6.8961617    338.51911   0.02274994  0.022376668           14 
 1241000   0.75309575   -6.8886859    338.59381  0.022736625  0.022360751           15 
 1242000   0.75483637   -6.8970041    338.15768  0.022689055  0.022344861           24 
 1243000   0.76655852   -6.9120343    338.12862  0.022668854  0.022328823           33 
 1244000   0.74156188   -6.8805961    337.33823  0.022597685  0.022312813           36 
 1245000   0.76787576   -6.9179768    337.34251   0.02257982  0.022296785           24 
 1246000   0.76703846   -6.8763169    338.43606  0.022634836  0.022280828           19 
 1247000   0.74945951   -6.8767626    338.88053  0.022646387  0.022264883           10 
 1248000   0.74407233   -6.8999899    338.64341  0.022612407  0.022248861           18 
 1249000   0.74512819   -6.8944634     337.4707  0.022516059  0.022232871           15 
 1250000   0.74600909   -6.9239441    338.42888  0.022561925  0.022216838           25 
 1251000   0.76604015   -6.9055702    337.76866  0.022499911  0.022200779           14 
 1252000   0.74572907   -6.8765461     338.7929  0.022550113   0.02218486           30 
 1253000   0.75075733    -6.901587    337.94107  0.022475464  0.022168914           21 
 1254000    0.7550657   -6.9043361    339.10901  0.022535155  0.022152953           15 
 1255000   0.74673342   -6.9122836    338.58775  0.022482587  0.022137011           13 
 1256000   0.75896867   -6.8925734    339.06495  0.022496348  0.022121183           18 
 1257000   0.77197115   -6.8801227    339.26879  0.022491964   0.02210538           14 
 1258000   0.75298384   -6.9074849    339.51954  0.022490696  0.022089606           19 
 1259000   0.74164249   -6.8988318    338.86204  0.022429312    0.0220738           19 
 1260000     0.771228   -6.9134813    339.82029  0.022474887   0.02205799           22 
 1261000   0.74820513   -6.8792567     338.7405  0.022385705  0.022042158           30 
 1262000   0.74645492   -6.9037748    338.61462  0.022359655  0.022026302           23 
 1263000   0.73782419   -6.9127286    339.29716  0.022386986   0.02201046           26 
 1264000   0.74883042   -6.9013417    339.67213  0.022393996  0.021994601           28 
 1265000   0.74482574   -6.9257237    339.44882  0.022361582  0.021978759           18 
 1266000   0.74583627   -6.9027666    340.22589  0.022395069  0.021963027           27 
 1267000   0.74601306   -6.9037004    339.29396  0.022316098  0.021947247           16 
 1268000   0.73895446   -6.9308255    339.21835   0.02229353  0.021931446           23 
 1269000   0.76099307   -6.9185199    338.98243  0.022260469  0.021915633           19 
 1270000   0.74174951   -6.9199149    339.64913  0.022286688  0.021899812           20 
 1271000   0.74734991   -6.9147045    339.08344  0.022232064  0.021884062           11 
 1272000   0.74824987   -6.9193127    339.51843  0.022243084  0.021868271           32 
 1273000   0.74460889   -6.9015303    338.58635  0.022164595  0.021852441           17 
 1274000   0.74272124   -6.9255772    338.98526   0.02217329  0.021836597           27 
 1275000    0.7473039   -6.9612251    340.00101  0.022222288  0.021820651           19 
 1276000   0.74245369   -6.9285462    340.02626  0.022206522  0.021804796           68 
 1277000   0.74313078   -6.9217723     340.4866  0.022219173  0.021789015           46 
 1278000   0.74146008    -6.898452    340.48054  0.022201391  0.021773293           24 
 1279000   0.73413538   -6.9279287    339.96164  0.022150224   0.02175762           56 
 1280000   0.73228028   -6.9155631     339.7954  0.022122097  0.021741916           15 
 1281000   0.73882851   -6.9145374    339.79741  0.022104958  0.021726152           32 
 1282000   0.74155986   -6.9162373     339.9279  0.022096197  0.021710411           14 
 1283000   0.73717242   -6.9182456    340.61847  0.022123829  0.021694686           15 
 1284000   0.74095241   -6.9377412    340.12195  0.022074374   0.02167903           15 
 1285000   0.72817873   -6.9399468    341.00953  0.022114755  0.021663382           13 
 1286000   0.74464401   -6.9171094    340.43104  0.022060073  0.021647699           12 
 1287000   0.73290075   -6.9144364    340.65126  0.022057191   0.02163202           15 
 1288000   0.73866037   -6.9515808    340.78816  0.022048924  0.021616321           17 
 1289000   0.73751225   -6.9288929    340.69371  0.022025712  0.021600684           16 
 1290000   0.72043708   -6.9030238    340.31106  0.021983919  0.021585085           31 
 1291000   0.74857428   -6.9423853    340.02988   0.02194874  0.021569453           49 
 1292000   0.75383143    -6.939298    339.61794  0.021905182  0.021553751           13 
 1293000   0.72980208   -6.9218991    341.14542  0.021986686  0.021538067           84 
 1294000   0.74361734   -6.9370264    341.05141  0.021963641  0.021522432           17 
 1295000   0.72747758   -6.9692853    340.59349  0.021917213  0.021506763           14 
 1296000   0.73440602   -6.9372868    341.26192  0.021943282  0.021491143           10 
 1297000   0.72933371   -6.9337777    340.12571  0.021853361  0.021475567           37 
 1298000   0.73294565   -6.9317193    340.21139  0.021842026  0.021459942           32 
 1299000    0.7265882     -6.95282    340.83824  0.021865424  0.021444332           18 
 1300000   0.74215818   -6.9647589    340.87998   0.02185128   0.02142874           22 
 1301000   0.73452838   -6.9364511      340.484  0.021809121  0.021413079           47 
 1302000   0.72530687   -6.9502472    340.99268  0.021824929  0.021397445           50 
 1303000   0.73112937   -6.9569933    341.20641  0.021821848  0.021381762           33 
 1304000   0.73076603   -6.9442378    341.21769  0.021805834   0.02136612           28 
 1305000   0.72646412   -6.9644249    340.91584  0.021769849  0.021350455           82 
 1306000   0.73889169   -6.9573017    340.81797  0.021746935  0.021334747           48 
 1307000   0.72187815   -6.9609527    340.66549  0.021720574  0.021319094           31 
 1308000   0.74144218   -6.9705715     340.1945  0.021673962  0.021303437           36 
 1309000   0.73162028   -6.9606653    340.71074  0.021690269  0.021287849           32 
 1310000    0.7413556   -6.9599983    340.94841   0.02168883  0.021272233           28 
 1311000   0.74576961   -6.9415478    341.26484    0.0216924  0.021256596           49 
 1312000   0.74172559    -6.948925    340.53869  0.021629744  0.021241004           21 
 1313000   0.71575672   -6.9572066    340.98555  0.021641632  0.021225407           25 
 1314000   0.72949139   -6.9382396    341.44261  0.021654148   0.02120974           34 
 1315000   0.73481108   -6.9395417    340.94989  0.021606457  0.021194068           15 
 1316000   0.73867401    -6.945018    340.34071  0.021551463  0.021178441           17 
 1317000     0.734456   -6.9442959    340.71802  0.021558974  0.021162786           15 
 1318000   0.73391392   -6.9505406    340.79563  0.021547524   0.02114712           17 
 1319000   0.73584194   -6.9541769    340.48408  0.021511504  0.021131469           23 
 1320000   0.72575826   -6.9631696    341.33856  0.021549152  0.021115835           15 
 1321000   0.74033989   -6.9568763    340.49877  0.021479862  0.021100222           22 
 1322000   0.73348827   -6.9428545    340.92561   0.02149052   0.02108466           20 
 1323000   0.74415263   -6.9482094    340.83569  0.021468612  0.021068984            9 
 1324000   0.70410024   -6.9358258    341.02622  0.021464389  0.021053378           14 
 1325000   0.71914361   -6.9304529    340.70738  0.021428137  0.021037894            7 
 1326000   0.71477124   -6.9384259    341.28898  0.021448528  0.021022446           22 
 1327000   0.73507251   -6.9629442    341.40214  0.021439471  0.021006944           44 
 1328000   0.70360874   -6.9318735    341.09939  0.021404329  0.020991468           31 
 1329000   0.72479239   -6.9382313    341.54075  0.021415898   0.02097594           29 
 1330000   0.72521034   -6.9365692    341.97967  0.021427298  0.020960432           30 
 1331000   0.71312759   -6.9832817    341.20101  0.021362447  0.020944864           36 
 1332000   0.72746323   -6.9625471    341.22977  0.021348209  0.020929308           17 
 1333000   0.70243354   -6.9666077    340.85682  0.021308879  0.020913749           40 
 1334000   0.73277349   -6.9814911    341.19805  0.021314221  0.020898203           38 
 1335000   0.71314388   -6.9864554    341.62342  0.021324807   0.02088266           58 
 1336000     0.715117   -6.9908719    340.96485  0.021267768  0.020867085           58 
 1337000    0.7253273   -6.9599253    341.14653  0.021263184  0.020851568           22 
 1338000   0.71923791   -6.9885922    341.03674  0.021240455   0.02083603           18 
 1339000   0.73799043   -6.9593124    340.96258  0.021219976  0.020820543           15 
 1340000   0.72510273   -6.9721638    342.19046  0.021280501  0.020805081           57 
 1341000   0.70878973   -6.9871589     341.6648  0.021231966  0.020789655           80 
 1342000   0.74111884   -7.0017697    341.14483  0.021183857  0.020774207           31 
 1343000   0.72026418   -6.9502418    341.96306  0.021218854  0.020758752           36 
 1344000   0.71392928   -6.9726957     342.6029  0.021242739  0.020743403           26 
 1345000   0.70947504   -6.9790582    342.04388   0.02119231  0.020728058           52 
 1346000   0.73435415   -6.9691392    342.19898  0.021186168  0.020712718           30 
 1347000   0.71585181   -6.9522373    342.31727  0.021177757  0.020697443           49 
 1348000   0.70985514   -6.9986099    342.21107  0.021155482  0.020682108           59 
 1349000    0.7123878   -6.9489604    342.87174  0.021180612  0.020666824           28 
 1350000   0.71484321   -6.9874146    342.65406  0.021151485   0.02065153           76 
 1351000   0.71114315   -7.0021907    341.74784  0.021079931  0.020636174           73 
 1352000   0.72263039    -6.987146    341.99737   0.02107972  0.020620769           60 
 1353000    0.7214796   -6.9780371     341.6081  0.021040164  0.020605422           41 
 1354000   0.72674655   -6.9995311    341.17734  0.020998113  0.020590036           41 
 1355000   0.71709721   -6.9782898     341.9159  0.021028038  0.020574696           70 
 1356000   0.70833855   -6.9707241    342.65565  0.021057992  0.020559416           45 
 1357000   0.69547976   -6.9740189    342.22098  0.021015781  0.020544109           49 
 1358000   0.70728464    -6.982706    342.31058  0.021005804   0.02052881           32 
 1359000   0.70186908   -6.9811831    342.35629   0.02099315  0.020513525           62 
 1360000   0.72283598   -6.9859089    341.62315  0.020932791  0.020498224           34 
 1361000   0.70791014   -6.9858386    342.03473  0.020942612  0.020482955           27 
 1362000   0.69479123   -6.9701299    342.50114  0.020955772  0.020467714           62 
 1363000   0.70334687   -6.9957229    341.93746  0.020905934  0.020452538           30 
 1364000   0.71111232   -7.0171225    341.86081  0.020885924  0.020437262           32 
 1365000   0.71471763   -7.0039972    341.84236  0.020869497  0.020422007           99 
 1366000   0.71110963   -7.0113902     342.8364  0.020914861   0.02040679           29 
 1367000   0.71158398   -6.9663912    343.20236   0.02092187  0.020391643           13 
 1368000   0.68970356   -6.9922053    343.03006   0.02089608  0.020376537           17 
 1369000   0.71825386   -6.9887311    343.06637  0.020883027  0.020361436           25 
 1370000   0.70797157   -6.9827026    342.72618  0.020847091  0.020346332           27 
 1371000   0.71312869    -7.005545    342.51179  0.020818854  0.020331227           21 
 1372000   0.70586995   -7.0005779    343.17001  0.020843659  0.020316082           23 
 1373000   0.72039449   -7.0157468    343.40986  0.020843036  0.020300988           25 
 1374000   0.70946855   -6.9929911    342.79729  0.020790714  0.020285854           33 
 1375000   0.69350457   -6.9822894    343.43066   0.02081398  0.020270829           76 
 1376000   0.69228689   -6.9799968    343.13885   0.02078118  0.020255781           47 
 1377000   0.70815415    -7.014903    343.70733  0.020800492  0.020240734           98 
 1378000   0.69957128   -6.9932853    342.37659  0.020704922  0.020225678           43 
 1379000   0.70559835   -6.9953338    342.43943  0.020693705  0.020210577           36 
 1380000   0.70095272   -7.0129292     343.0898  0.020717983   0.02019548           29 
 1381000   0.69450424   -7.0125493    343.32179   0.02071698  0.020180392           38 
 1382000   0.70668624   -7.0371742    342.49308  0.020652019  0.020165286           67 
 1383000   0.69983217   -7.0362736    343.70552  0.020710142  0.020150194           74 
 1384000   0.70827554   -7.0259482    342.48421  0.020621641  0.020135173           52 
 1385000   0.71211999    -7.033704    343.14107  0.020646274  0.020120194           55 
 1386000   0.70110291   -7.0296611    343.17605  0.020633481  0.020105213           52 
 1387000   0.70724823   -7.0154293    343.42889  0.020633795  0.020090218          116 
 1388000   0.71173988   -7.0320555    343.33961  0.020613569  0.020075225           55 
 1389000    0.7019165   -7.0256753    343.28703  0.020595574  0.020060213           55 
 1390000   0.69064912   -7.0142524    343.52482  0.020595013  0.020045241           69 
 1391000   0.70474861   -7.0250227    342.38173  0.020511726  0.020030202           39 
 1392000   0.69866772   -7.0445662    342.50295  0.020504248  0.020015124           36 
 1393000   0.71614093   -7.0342564    343.17264  0.020529591  0.020000089           46 
 1394000   0.70362659   -7.0268062    343.10648  0.020510909  0.019985063           39 
 1395000   0.71159733   -7.0062184    343.26393  0.020505611  0.019970048           31 
 1396000   0.67705981   -7.0229714     343.6116  0.020511676  0.019955081           37 
 1397000    0.6921159   -7.0553867    343.68123  0.020501147  0.019940136           28 
 1398000   0.68467957   -7.0623482    342.53232  0.020417997  0.019925142           82 
 1399000   0.69786198   -7.0383439    342.70449  0.020413658   0.01991013           54 
 1400000   0.69880207   -7.0027006    343.38571  0.020439626   0.01989517           99 
 1401000   0.69989404   -7.0204288    343.64949  0.020440726  0.019880216           63 
 1402000    0.6813538    -7.010233    343.43054  0.020413132  0.019865276           64 
 1403000   0.69135543   -7.0222741    343.25857  0.020388368  0.019850395           44 
 1404000   0.70498007   -7.0252808    343.15897  0.020367935  0.019835458           99 
 1405000   0.69038188   -7.0201752    343.64582  0.020382314  0.019820603           80 
 1406000   0.69415704    -7.023218    343.59288   0.02036468  0.019805772           75 
 1407000   0.68771003    -7.022961    343.83462  0.020364524  0.019790981           38 
 1408000   0.69581923   -7.0317736    343.71544  0.020343007  0.019776146           92 
 1409000   0.68343922   -7.0194995    344.30934  0.020363694  0.019761357           47 
 1410000   0.69612402   -7.0175931    343.68996  0.020312645  0.019746571           62 
 1411000   0.69217395   -7.0324987    344.67511  0.020356432  0.019731767           38 
 1412000   0.69675762   -7.0321651    344.01632  0.020303135  0.019716983           45 
 1413000   0.68643264   -7.0100529    343.35339  0.020249669  0.019702193           33 
 1414000   0.69839383   -7.0378472    343.34405  0.020234798  0.019687394           53 
 1415000   0.69144647   -7.0360382    343.45555  0.020227064  0.019672606           43 
 1416000     0.692284   -7.0530385     343.0999  0.020191849  0.019657784           21 
 1417000   0.68654353   -7.0338351    343.69753  0.020212746   0.01964292           30 
 1418000   0.68724013   -7.0400371    344.33667  0.020236052  0.019628069           92 
 1419000   0.69428312    -7.039765    343.71661  0.020185378  0.019613295          125 
 1420000   0.69024504   -7.0593844    344.09304  0.020193253  0.019598485           73 
 1421000    0.6950603   -7.0478449    344.31318  0.020191953  0.019583758           46 
 1422000   0.68826242   -7.0681766    343.52033   0.02013129  0.019568975          100 
 1423000    0.7002959   -7.0679698     343.3755  0.020108661  0.019554153           85 
 1424000   0.67531658   -7.0480725    344.06917  0.020135134  0.019539372           31 
 1425000   0.66763107   -7.0488301    343.54413    0.0200903  0.019524645           87 
 1426000   0.69843849   -7.0410542    343.50822  0.020074113  0.019509899           97 
 1427000   0.70197979   -7.0301736    343.92729  0.020084518  0.019495196           26 
 1428000   0.68467205   -7.0577439    343.91849   0.02006994  0.019480467          105 
 1429000    0.6894495   -7.0480083    343.27799  0.020018544  0.019465715           49 
 1430000   0.67706674   -7.0548976    343.93855  0.020043039  0.019450961           46 
 1431000   0.67578486    -7.062294    344.02034  0.020033796  0.019436243           59 
 1432000   0.65528572   -7.0233157    343.73455  0.020003175  0.019421558           38 
 1433000   0.68502965   -7.0463415     344.1799  0.020015114  0.019406826          136 
 1434000   0.67595078   -7.0462455    344.03461  0.019992713   0.01939211          100 
 1435000   0.68411246   -7.0495638    343.87463  0.019969491  0.019377404           80 
 1436000   0.67186914   -7.0571464    344.07009  0.019966927  0.019362718          127 
 1437000    0.6742179   -7.0739367    344.18879  0.019959916   0.01934802          232 
 1438000   0.66493486   -7.0613882    343.76829  0.019921667  0.019333308          126 
 1439000   0.67759865   -7.0595863    343.29766  0.019880569  0.019318579          259 
 1440000   0.68798644    -7.071549    343.30578  0.019867232  0.019303845          281 
 1441000   0.66317306   -7.0735595    343.89962  0.019887788  0.019289154          220 
 1442000   0.67785073   -7.0654037    343.30316  0.019839526  0.019274442          260 
 1443000   0.68146086    -7.063152     343.0844  0.019813144  0.019259717          237 
 1444000   0.67824836   -7.0696051    343.29343  0.019811486  0.019245007          154 
 1445000    0.6822687   -7.0752043    343.59112  0.019814944  0.019230294          285 
 1446000   0.66776516   -7.0727831     343.8142  0.019814097  0.019215648          215 
 1447000   0.66411717   -7.0579984      344.206  0.019822967  0.019201013          104 
 1448000   0.67777533   -7.0619443      343.876  0.019790286  0.019186405          307 
 1449000   0.68799944   -7.0492671    344.16613  0.019793313  0.019171859          248 
 1450000   0.65759464   -7.0694793    344.29267  0.019786935  0.019157311          332 
 1451000   0.66722858   -7.0699487    343.80134  0.019745081  0.019142711          133 
 1452000   0.66826648   -7.0702928    343.76945  0.019729652  0.019128085          208 
 1453000   0.67203159   -7.0513547    343.87921  0.019722368  0.019113469          417 
 1454000   0.66861152    -7.079584    343.33303    0.0196775  0.019098839          469 
 1455000   0.66167197   -7.0864287    344.12488  0.019709329  0.019084184          213 
 1456000   0.65938017   -7.0845245    343.78668  0.019676435  0.019069559          254 
 1457000   0.68464404   -7.0903266     342.8771  0.019610907  0.019054916          345 
 1458000   0.66053354   -7.1297501    343.70677  0.019644877  0.019040245          418 
 1459000   0.67608065   -7.1111256    343.66092  0.019628794  0.019025565          450 
 1460000   0.68139357   -7.0992495    343.62041  0.019613037  0.019010871          538 
 1461000   0.66950027   -7.0909022    343.16377  0.019573567  0.018996169          393 
 1462000   0.66315625   -7.0898738    343.46404  0.019577293  0.018981509          542 
 1463000   0.66292152   -7.0844743    343.92914  0.019590404  0.018966866          543 
 1464000   0.67223077   -7.0954484    344.07681  0.019585429  0.018952288          386 
 1465000   0.67195721   -7.0893968    343.47187  0.019537649  0.018937699          541 
 1466000   0.66826104   -7.1086489    343.86666  0.019546764   0.01892313          275 
 1467000   0.65927426   -7.0976527    344.74119  0.019583117   0.01890858          199 
 1468000   0.68414186   -7.1099429    343.10205  0.019476729  0.018894042          461 
 1469000   0.65980842   -7.0981091    344.03466  0.019516375  0.018879528          271 
 1470000   0.68651545   -7.1006382    343.88967  0.019494879  0.018865024          222 
 1471000   0.66047942   -7.1110765    343.87251  0.019480655  0.018850503          501 
 1472000    0.6684715   -7.1209701     343.8118  0.019463983  0.018835991          300 
 1473000   0.65613281   -7.1095479    343.59668  0.019438599  0.018821419          282 
 1474000    0.6680009   -7.0888804     344.2849  0.019464321  0.018806871          270 
 1475000   0.65894516   -7.1333882    343.80531  0.019424029  0.018792359          460 
 1476000   0.65554944   -7.1143758    343.57918  0.019398102  0.018777879          271 
 1477000    0.6559479   -7.1121367     343.2573  0.019366808  0.018763383          543 
 1478000   0.66096322   -7.1097447    343.84319  0.019386738   0.01874889          549 
 1479000   0.64953606   -7.1378242    343.81164  0.019371852  0.018734362          544 
 1480000   0.67070221   -7.1323338    343.53756  0.019343331  0.018719846          460 
 1481000   0.65107665   -7.1166573    343.59759  0.019333648  0.018705364          250 
 1482000   0.64625604   -7.1246041    344.30283  0.019360258  0.018690867          354 
 1483000     0.659815   -7.1096676    342.72744  0.019258678  0.018676373          633 
 1484000   0.66262573   -7.1284078     343.4233  0.019284777  0.018661919          304 
 1485000   0.64993648    -7.138989    343.89101  0.019298036  0.018647488          627 
 1486000   0.65189594   -7.1191195    343.76313  0.019277879  0.018633102          588 
 1487000    0.6571423   -7.1242745      343.243  0.019235766  0.018618698          702 
 1488000   0.65243856   -7.1132736    343.37219  0.019230073  0.018604314          807 
 1489000   0.66098883   -7.1158253    343.32209  0.019214355    0.0185899          813 
 1490000   0.64803021   -7.1212502    343.89308  0.019233394  0.018575523          728 
 1491000    0.6480478   -7.1219009    343.38308   0.01919199  0.018561111          726 
 1492000   0.65388206   -7.1407443    343.06405  0.019161307  0.018546683          830 
 1493000   0.65614721   -7.1445668    344.01287  0.019201433  0.018532261          818 
 1494000   0.65499151   -7.1450206     343.4001  0.019154401  0.018517864          903 
 1495000   0.65756602      -7.1592    343.74829  0.019160997  0.018503429          820 
 1496000   0.64408555    -7.132162    343.43822  0.019130917  0.018489014          838 
 1497000   0.66378752   -7.1417295    343.41688   0.01911695  0.018474598          802 
 1498000   0.63695567   -7.1328218    343.45183  0.019106132  0.018460201          835 
 1499000   0.65644282   -7.1716575    343.49608  0.019095846  0.018445841          881 
 1500000   0.65425319   -7.1524496    343.63121  0.019090623  0.018431457          846 
 1501000   0.65177463   -7.1889851    342.73494  0.019028145  0.018417068          960 
 1502000   0.64167661    -7.135014    343.29346  0.019046463  0.018402684         1047 
 1503000   0.65255622    -7.166172    343.53097   0.01904696  0.018388289          944 
 1504000   0.66836216   -7.1822792    342.87738  0.018998082  0.018373904         1109 
 1505000   0.65471789   -7.1867079    342.37971  0.018957902  0.018359454         1143 
 1506000   0.65184263   -7.1715123    342.80387  0.018968784  0.018345037         1113 
 1507000   0.64898522   -7.1828623    343.33669  0.018985661  0.018330615         1130 
 1508000   0.63566387   -7.1744111    342.90797  0.018949379  0.018316217         1125 
 1509000   0.65275468   -7.1664284    343.50602  0.018969849  0.018301813         1120 
 1510000   0.64164078   -7.1817062    343.54673  0.018959532  0.018287424         1131 
 1511000   0.65239917    -7.202377    342.43201  0.018885507  0.018273029         1144 
 1512000   0.63810537   -7.2037079    343.32001  0.018921958  0.018258657         1131 
 1513000   0.64956771   -7.1650996    343.02703  0.018893315  0.018244264         1155 
 1514000   0.65761445   -7.1797711    343.05402  0.018882321  0.018229877         1260 
 1515000   0.64048611   -7.2028033    343.23089  0.018879587  0.018215494         1260 
 1516000   0.64876674   -7.1960911    342.38936  0.018820875  0.018201098         1232 
 1517000   0.64357745   -7.1903336    342.28142  0.018802539  0.018186705         1192 
 1518000   0.67308251   -7.1884306    342.99689   0.01882943  0.018172319         1225 
 1519000   0.64885305   -7.1993033    343.08136  0.018821668   0.01815795         1260 
 1520000   0.64540009    -7.187619    342.20081  0.018761009  0.018143527         1298 
 1521000   0.64643604   -7.2129092    342.83832  0.018783603  0.018129149         1263 
 1522000     0.640825   -7.2054816    343.10052  0.018785617  0.018114737         1224 
 1523000    0.6407623   -7.1866274    342.09684  0.018718365  0.018100361         1318 
 1524000   0.63771152   -7.1892598    342.46666  0.018726304  0.018086024         1288 
 1525000   0.63929575   -7.1885498    342.50927  0.018716353  0.018071663         1278 
 1526000   0.64526476   -7.2048153    342.43272  0.018699908   0.01805731         1292 
 1527000   0.66398878   -7.2221378    342.38264  0.018684929  0.018042954         1234 
 1528000   0.64752941    -7.221109    341.75087  0.018638246  0.018028588         1360 
 1529000   0.65027077   -7.1965141    342.34485  0.018658429   0.01801421         1384 
 1530000   0.64709606   -7.2368278    341.85202  0.018619391  0.017999837         1468 
 1531000   0.64801456   -7.2071042    342.07418  0.018619322  0.017985457         1455 
 1532000   0.62537041   -7.2201404    342.74405  0.018643606  0.017971085         1525 
 1533000   0.65019354   -7.2167129    341.32101  0.018554088  0.017956725         1476 
 1534000   0.64996301   -7.2267397    341.99873   0.01857881  0.017942373         1623 
 1535000   0.65935978    -7.240131    342.29703  0.018582901   0.01792803         1618 
 1536000    0.6452276   -7.2532656    342.53089   0.01858349  0.017913683         1674 
 1537000   0.63712117   -7.2301171    341.77085  0.018530191  0.017899341         1677 
 1538000   0.64184265   -7.2624534    341.78371   0.01851884  0.017885024         1671 
 1539000   0.63411529   -7.2513905    341.71658  0.018503172   0.01787069         1777 
 1540000   0.64487914   -7.2522421    342.12598  0.018513311  0.017856404         1703 
 1541000   0.62985639   -7.2404587    342.07455  0.018498516    0.0178421         1772 
 1542000   0.63385397   -7.2359802    342.00191  0.018482594  0.017827798         1814 
 1543000   0.64140665   -7.2537054    341.69383  0.018453977  0.017813482         1898 
 1544000    0.6432842   -7.2508849    341.96897  0.018456874  0.017799187         1777 
 1545000   0.63494211   -7.2435544    342.21861  0.018458393  0.017784903         1887 
 1546000   0.62070958   -7.2385292     341.6015   0.01841319  0.017770647         1915 
 1547000   0.62902261   -7.2530523    341.70204  0.018406703  0.017756376         1850 
 1548000   0.62708264   -7.2693612    341.89837  0.018405381  0.017742089         1951 
 1549000   0.63457839   -7.2583073    341.55542   0.01837505  0.017727804         1939 
 1550000   0.64248678   -7.2806138    341.55181     0.018363  0.017713523         1948 
 1551000   0.64542364   -7.2666291    341.39843   0.01834292  0.017699239         1928 
 1552000   0.63233911   -7.2830153    341.48898  0.018335963  0.017684953         2016 
 1553000   0.63497553   -7.2799862    341.26966  0.018312388  0.017670637         2014 
 1554000   0.62311798    -7.280978     341.7479  0.018326249  0.017656296         2086 
 1555000   0.61812636   -7.2820516    341.86178  0.018320567  0.017641998         2056 
 1556000   0.63326874   -7.2733433    340.95288  0.018260116  0.017627677         2009 
 1557000   0.63774449   -7.2884525    341.25703  0.018264666  0.017613354         2077 
 1558000   0.62537859   -7.3224585    341.17873  0.018248755  0.017599032         2096 
 1559000    0.6433732   -7.3218022    340.30467  0.018190329  0.017584695         2248 
 1560000   0.61303198   -7.3019907    340.89107  0.018209993  0.017570347         2232 
 1561000   0.60423872   -7.3257106    340.47323  0.018176021  0.017555981         2235 
 1562000   0.63058396   -7.2986827     340.7019  0.018176585  0.017541611         2201 
 1563000   0.63549627   -7.3108617    341.23497  0.018193377  0.017527235         2112 
 1564000    0.6307412   -7.2934605    340.24402  0.018128944  0.017512911         2108 
 1565000   0.63554747   -7.3248222    340.59633   0.01813612    0.0174986         2334 
 1566000    0.6287309   -7.3111362    341.37607  0.018166032  0.017484293         2267 
 1567000   0.62927033   -7.3124184    340.54284  0.018110128  0.017469966         2249 
 1568000   0.62409611   -7.3056584    340.63802  0.018103636  0.017455682         2302 
 1569000   0.63831606   -7.3068934    340.57003  0.018088487    0.0174414         2356 
 1570000   0.63521568   -7.3289694    340.43976  0.018070051  0.017427125         2401 
 1571000   0.61871271   -7.3101064    340.44201  0.018058668  0.017412832         2375 
 1572000   0.60864279   -7.3264881    340.67062  0.018059299  0.017398557         2315 
 1573000   0.63522837   -7.3255598    340.60995  0.018044604  0.017384299         2421 
 1574000   0.61859263   -7.3305919    340.83607  0.018045112   0.01737005         2436 
 1575000   0.62497676   -7.3509058    339.92061  0.017985217  0.017355777         2500 
 1576000   0.61512361   -7.3262804    340.49706  0.018004286  0.017341521         2497 
 1577000   0.61999085   -7.3341297    340.43777  0.017989736  0.017327299         2469 
 1578000     0.628556   -7.3363324    340.43221  0.017978042  0.017313082         2497 
 1579000   0.62375104    -7.322013    340.17661  0.017953167   0.01729888         2461 
 1580000   0.62730333   -7.3333927    340.23411  0.017944837  0.017284655         2505 
 1581000    0.6248896   -7.3217038    339.97164  0.017919652  0.017270425         2494 
 1582000   0.61819719   -7.3193804     339.1834  0.017866804  0.017256194         2597 
 1583000   0.61939015   -7.3496146     339.8868  0.017892546  0.017241973         2558 
 1584000   0.61379449   -7.3494082    339.97954  0.017886129  0.017227782         2578 
 1585000   0.62961257   -7.3364931    340.02485  0.017877227  0.017213612         2590 
 1586000   0.62727461   -7.3412879    339.95693  0.017862386  0.017199423         2579 
 1587000   0.63221274   -7.3489749    340.14127   0.01786081  0.017185241         2648 
 1588000   0.62530798   -7.3635043    339.78937  0.017831096  0.017171054         2622 
 1589000   0.62102931   -7.3527598    340.12719  0.017837591  0.017156873         2641 
 1590000   0.60150195   -7.3615709    339.74352  0.017806264  0.017142689         2721 
 1591000    0.6172012   -7.3686305    339.89247  0.017802874  0.017128529         2709 
 1592000   0.62773499   -7.3707378    339.88345  0.017791219  0.017114386         2606 
 1593000   0.61119999   -7.3679194    339.82387  0.017776934  0.017100241         2672 
 1594000   0.61176431    -7.374484    339.58741  0.017753419  0.017086081         2723 
 1595000   0.60510668   -7.3700719    339.43186  0.017734162  0.017071926         2716 
 1596000   0.62487657   -7.3901618    339.66082  0.017735005  0.017057766         2711 
 1597000   0.61627321   -7.3854599     339.3256  0.017706408  0.017043594         2720 
 1598000   0.61789025    -7.378812    339.35513  0.017696868  0.017029434         2787 
 1599000    0.6189742   -7.3893544    339.86107  0.017712168  0.017015288         2765 
 1600000   0.61348051   -7.3830891    339.55331  0.017685068  0.017001139         2765 
 1601000   0.62796358   -7.3709678    339.29723  0.017660693  0.016987019         2792 
 1602000   0.60878347   -7.3887246    338.91699  0.017629889  0.016972907         2733 
 1603000   0.61212193   -7.3807738    338.71441   0.01760836  0.016958784         2709 
 1604000   0.60388745   -7.4009844    339.13298  0.017619128   0.01694466         2730 
 1605000   0.61049206   -7.4058474     339.1297   0.01760798  0.016930551         2742 
 1606000   0.61224352   -7.4021834    339.21295  0.017601336  0.016916454         2789 
 1607000   0.61110954   -7.3760673    339.41129  0.017600668   0.01690236         2748 
 1608000   0.61781876   -7.3948146    339.12742  0.017575011  0.016888282         2794 
 1609000   0.61352633    -7.389624    339.03884  0.017559501  0.016874197         2805 
 1610000   0.59448043   -7.4074453    339.24591  0.017559312  0.016860141         2799 
 1611000   0.61140329   -7.3901088    339.23165  0.017547675  0.016846093         2749 
 1612000    0.6100186   -7.3792157    339.32034  0.017541374  0.016832056         2787 
 1613000     0.618103   -7.3933719     339.2662  0.017527702  0.016818051         2765 
 1614000   0.60810714   -7.3853184    339.45155  0.017526412  0.016804048         2808 
 1615000   0.60863075   -7.3957946    338.42203  0.017462437  0.016790049         2762 
 1616000    0.6018674   -7.3929002    339.00116  0.017481496  0.016776041         2821 
 1617000   0.61317226   -7.3989697    339.19328  0.017480585   0.01676206         2757 
 1618000   0.59629725   -7.3937945    338.92567  0.017455999  0.016748091         2834 
 1619000   0.60251245   -7.3889937    338.86026   0.01744185  0.016734144         2761 
 1620000    0.6137589   -7.4314834    339.45397  0.017461624  0.016720196         2787 
 1621000   0.60389103   -7.3986847    339.67944  0.017462443  0.016706266         2835 
 1622000   0.59512988   -7.4182223    338.94734  0.017414064  0.016692312         2879 
 1623000   0.59372354    -7.411871     339.2265  0.017417668  0.016678374         2826 
 1624000   0.60681167   -7.4022338    339.10605  0.017400762  0.016664457         2836 
 1625000    0.6090376    -7.421323    338.98554  0.017383874   0.01665057         2885 
 1626000   0.59263764   -7.4142681    338.93954  0.017370825  0.016636684         2882 
 1627000   0.61594817   -7.4060039    338.53189  0.017339269  0.016622804         2860 
 1628000   0.59091671   -7.4193698    338.49371  0.017326664  0.016608938         2850 
 1629000   0.60282084   -7.4054799    338.84296  0.017333894   0.01659507         2897 
 1630000   0.61110063   -7.4075745    338.87157  0.017324722  0.016581225         2856 
 1631000   0.59411053   -7.4200996    338.79237  0.017310054  0.016567371         2870 
 1632000   0.60222776   -7.4184537    338.52563  0.017285827  0.016553527         2791 
 1633000   0.60750615   -7.4010021    338.39393  0.017268521  0.016539715         2871 
 1634000    0.6216508   -7.4183372    338.66846  0.017271954  0.016525897         2789 
 1635000   0.61136338   -7.4375349    338.44869  0.017250188    0.0165121         2845 
 1636000   0.60230862   -7.4396633    338.66997  0.017250916  0.016498278         2835 
 1637000   0.59483652   -7.4339303    338.47589  0.017230497  0.016484462         2887 
 1638000   0.59966687   -7.4280838    338.74753  0.017233798  0.016470667         2887 
 1639000   0.59808713   -7.4174215    338.23426  0.017197186  0.016456886         2939 
 1640000   0.60243052    -7.430059    338.82664  0.017216801  0.016443095         2941 
 1641000   0.59801449   -7.4378193    338.63976  0.017196819  0.016429347         2871 
 1642000   0.59382728   -7.4410097     338.7847  0.017193702  0.016415608         2867 
 1643000   0.59733091   -7.4294551    338.36028  0.017161711  0.016401878         2919 
 1644000   0.60206102   -7.4247229    338.74308  0.017170675  0.016388172         2890 
 1645000   0.59578564   -7.4532966    338.76876  0.017161538  0.016374458         2866 
 1646000   0.59455646   -7.4433531    338.09923  0.017117215  0.016360755         2960 
 1647000    0.5917595   -7.4570765     338.7773   0.01714113  0.016347083         2960 
 1648000   0.58704681   -7.4420368    338.27051  0.017105103  0.016333404         2925 
 1649000   0.59528372   -7.4375624    338.56523  0.017109623  0.016319742         2931 
 1650000   0.59136442   -7.4406479    338.36594  0.017089189  0.016306087         2953 
 1651000   0.59537849   -7.4292484    338.78527  0.017100003  0.016292461         2840 
 1652000   0.59530565    -7.445756    338.08822  0.017054491  0.016278812         3006 
 1653000   0.59793168   -7.4683304     338.1837  0.017048987   0.01626516         2999 
 1654000   0.59210788   -7.4579113    338.12834   0.01703589  0.016251528         2971 
 1655000   0.59120306   -7.4318312    338.03445  0.017020868  0.016237915         2992 
 1656000   0.59546555   -7.4566411    337.48166  0.016982773  0.016224297         2996 
 1657000   0.60940867   -7.4248575    337.88992  0.016993056  0.016210706         2917 
 1658000   0.60325846   -7.4421718    338.08126  0.016992424  0.016197124         2967 
 1659000   0.59753961   -7.4486254    338.13199  0.016984729  0.016183555         2960 
 1660000   0.58685613   -7.4494008    338.67726   0.01700187  0.016170001         2926 
 1661000   0.58330192   -7.4603473    337.87417  0.016951343  0.016156456         2979 
 1662000   0.58165899   -7.4450548    338.72052   0.01698358  0.016142914         2932 
 1663000   0.58268634   -7.4585752    338.67401  0.016971037  0.016129375         2961 
 1664000   0.58038791   -7.4639605    338.00104  0.016927135  0.016115841         2989 
 1665000   0.59939253   -7.4611199    337.57253  0.016895522   0.01610232         2937 
 1666000   0.59528335   -7.4464201    337.95528  0.016904526  0.016088829         3044 
 1667000   0.58837356   -7.4544887    338.34126   0.01691368   0.01607535         3008 
 1668000   0.58779692   -7.4448007     338.0106   0.01688702  0.016061883         2977 
 1669000   0.58724311    -7.467495    338.01004  0.016876875  0.016048432         3036 
 1670000   0.57763511   -7.4676861    338.01845  0.016867188  0.016034994         2985 
 1671000    0.5881822   -7.4735492    338.42096  0.016877167   0.01602156         3007 
 1672000    0.5895676   -7.4662349    338.21581  0.016856849  0.016008136         2973 
 1673000   0.58020856   -7.4759379    337.57626  0.016814916  0.015994715         3053 
 1674000   0.58750463   -7.4889595    338.39245  0.016845502  0.015981306         3054 
 1675000   0.58300221   -7.4827996    338.14753   0.01682326  0.015967904         3042 
 1676000   0.58272239   -7.4700366    337.84151  0.016798007  0.015954514         3060 
 1677000   0.57941866   -7.4513789    338.15537  0.016803586  0.015941137         3015 
 1678000   0.58651893    -7.473528     337.7999  0.016775919  0.015927771         3016 
 1679000   0.59853705   -7.4821275    338.28573   0.01679004  0.015914406         3040 
 1680000   0.57481715   -7.4595926    337.66484  0.016749248  0.015901072         3055 
 1681000   0.57927738   -7.4720875    338.18646  0.016765143  0.015887743         3044 
 1682000   0.58725571   -7.4575939    337.96576  0.016744241  0.015874443         3022 
 1683000    0.5936683   -7.4748534    337.94201  0.016733116  0.015861153         3015 
 1684000   0.58088889   -7.4774723    337.74714  0.016713536  0.015847859         2995 
 1685000   0.57176354   -7.4793754    338.11306  0.016721714  0.015834583         3024 
 1686000   0.59069412   -7.4736523    338.08615  0.016710466  0.015821317         2945 
 1687000   0.58473816   -7.4687237    337.87153  0.016689959  0.015808063         3033 
 1688000   0.57843778   -7.4836744    338.35657  0.016704017  0.015794817         2981 
 1689000   0.58099477   -7.4989228    337.76774  0.016665075  0.015781581         3029 
 1690000   0.57676111   -7.4929924    338.18172  0.016675627  0.015768363         3048 
 1691000   0.59258329   -7.4641443     337.8671  0.016650261  0.015755148         3013 
 1692000   0.57220624   -7.4899115    338.19371  0.016656507  0.015741949         3029 
 1693000   0.57269182   -7.4878991    337.03035  0.016589405  0.015728757         3053 
 1694000   0.57838821     -7.49259    337.89301  0.016622049  0.015715578         3039 
 1695000   0.57219758   -7.4782714     337.4143  0.016588707  0.015702405         3012 
 1696000   0.56587394   -7.5010325    338.06473  0.016610885  0.015689245         3010 
 1697000   0.57733539   -7.4742284    337.71466  0.016583906  0.015676084         3001 
 1698000   0.56937386   -7.4879512    337.87018  0.016581772  0.015662934         2972 
 1699000   0.57060222   -7.4937321    338.38792  0.016597406  0.015649798         3017 
 1700000   0.57826653   -7.4911506    337.68501  0.016553187  0.015636664         3065 
 1701000   0.57835398   -7.4698074    337.62963  0.016540742   0.01562355         3032 
 1702000   0.57112607   -7.4846637    337.03641  0.016501978  0.015610463         2999 
 1703000   0.56419258   -7.5038922    337.65751  0.016522681  0.015597384         2967 
 1704000   0.57050032   -7.4828176    337.59892  0.016510119  0.015584318         3054 
 1705000   0.56141483   -7.4791811    337.67141  0.016503979   0.01557126         2994 
 1706000   0.58678927    -7.495167    337.24655  0.016473552  0.015558204         3080 
 1707000   0.56586256   -7.4945551    337.45958  0.016474301  0.015545157         3044 
 1708000   0.57554516   -7.4830509    337.19989  0.016451985  0.015532123         2993 
 1709000   0.57463873    -7.491281    337.28637  0.016446576  0.015519094         3107 
 1710000   0.57889439   -7.5053549    337.76722  0.016460391  0.015506074         3096 
 1711000   0.56990551   -7.5015464    337.73335  0.016449121  0.015493069         3112 
 1712000   0.56703464   -7.5050521    337.66368  0.016436121   0.01548007         3114 
 1713000   0.56722072   -7.4914485    337.19776  0.016403861  0.015467074         3119 
 1714000   0.56428439   -7.5195355    337.19154  0.016393988  0.015454084         3035 
 1715000   0.56692711   -7.5182763    337.26035  0.016387772  0.015441117         3078 
 1716000    0.5704295   -7.5172573    337.40569   0.01638528  0.015428162         3080 
 1717000   0.56265344   -7.4956067    337.84905  0.016397256  0.015415222         3119 
 1718000   0.56850935     -7.50306    337.36613  0.016364286    0.0154023         3039 
 1719000   0.57408646   -7.4986659    337.32153  0.016352605  0.015389381         3079 
 1720000   0.56817581   -7.5170238    337.45852  0.016349735  0.015376483         3109 
 1721000   0.56762251   -7.4965334    337.26603  0.016330914  0.015363595         3113 
 1722000   0.55931034   -7.4945053    337.06415   0.01631166  0.015350705         3101 
 1723000   0.55405417    -7.517893     337.3353  0.016315307  0.015337829         3138 
 1724000   0.56363148   -7.5157913    337.22675  0.016300597  0.015324959         3062 
 1725000   0.56763822   -7.5005827     337.0012  0.016280251  0.015312107         3120 
 1726000   0.55194661   -7.5116999    337.48286  0.016294074  0.015299267         3144 
 1727000   0.56930063   -7.5206747    337.05449  0.016263969  0.015286444         3154 
 1728000   0.55872633   -7.5182878    337.24771  0.016263875  0.015273645         3116 
 1729000   0.55725166   -7.5195198    336.94981   0.01624011   0.01526084         3113 
 1730000   0.55945322   -7.5291768    337.28201  0.016246725  0.015248053         3184 
 1731000   0.55817661   -7.5216564    336.82168  0.016215178  0.015235275         3124 
 1732000    0.5576016   -7.5300208    337.37792  0.016232579  0.015222492         3117 
 1733000   0.55343239   -7.5127545    337.15898  0.016212684  0.015209728         3150 
 1734000   0.55435784   -7.5218637    336.94051  0.016192835  0.015196984         3102 
 1735000   0.56057242   -7.5294963    337.40673  0.016205895  0.015184238         3104 
 1736000   0.54506525   -7.5200385    337.23421  0.016188278  0.015171505         3096 
 1737000   0.56381431   -7.5019806     337.2321  0.016178857   0.01515879         3154 
 1738000   0.55110887   -7.5118013    336.99928  0.016158385  0.015146086         3082 
 1739000   0.57505406   -7.5151793    337.11737  0.016154752  0.015133391         3059 
 1740000   0.56287253   -7.5251928    337.27916  0.016153216  0.015120712         3103 
 1741000   0.54503039   -7.5395897     337.0965  0.016135196  0.015108045         3121 
 1742000   0.56185313   -7.5336158    337.14524  0.016128265  0.015095398         3123 
 1743000   0.55024188   -7.5323024    336.44449  0.016085508  0.015082759         3116 
 1744000     0.562827   -7.5448736     337.7105  0.016136778  0.015070132         3160 
 1745000   0.55048435   -7.5319016    336.81998  0.016085004   0.01505751         3103 
 1746000   0.55860314   -7.5448105    336.86917  0.016078139  0.015044916         3074 
 1747000    0.5505058   -7.5257913    337.44529  0.016096417  0.015032314         3117 
 1748000   0.56520803   -7.5245467    337.04709  0.016068225  0.015019729         3155 
 1749000   0.54434143   -7.5288962    336.44566  0.016030382  0.015007157         3198 
 1750000   0.56144931   -7.5505003    337.24836  0.016059446  0.014994599         3147 
 1751000   0.55781302   -7.5382519    336.76566  0.016027302  0.014982061         3135 
 1752000   0.56422452   -7.5302425    336.50041  0.016005537  0.014969534         3170 
 1753000   0.55975931   -7.5277777    337.49572  0.016043721  0.014957029         3120 
 1754000   0.55858225   -7.5474573    336.81681  0.016002319  0.014944525         3121 
 1755000   0.55308043   -7.5416072    336.93527  0.015998826  0.014932016         3188 
 1756000   0.54479408   -7.5458189    337.21244  0.016002868  0.014919525         3193 
 1757000   0.55232857   -7.5283035    336.80812  0.015974583  0.014907047         3158 
 1758000   0.55549109   -7.5249845    337.07695   0.01597824  0.014894579         3143 
 1759000   0.55475025   -7.5369098    337.40161  0.015984537  0.014882118         3177 
 1760000   0.54728896    -7.553686    336.91175  0.015952261  0.014869679         3203 
 1761000   0.55349102   -7.5554867    336.71671  0.015933973  0.014857251         3146 
 1762000   0.54985695   -7.5502052    337.03542  0.015940003  0.014844839         3154 
 1763000   0.54919321   -7.5299155    336.65666  0.015913058  0.014832433         3159 
 1764000   0.54392294   -7.5433843    336.51845  0.015897508  0.014820036         3174 
 1765000   0.56261706   -7.5512906    336.73453  0.015898703  0.014807667         3154 
 1766000   0.54868427   -7.5462252    336.82286  0.015893869  0.014795295         3168 
 1767000   0.55678228   -7.5498251    336.48599  0.015868987  0.014782926         3203 
 1768000   0.54376388   -7.5578886    336.37005  0.015854546  0.014770561         3161 
 1769000    0.5582593   -7.5706066     337.1699  0.015883263  0.014758218         3222 
 1770000   0.55425467   -7.5513845    336.52068  0.015843723  0.014745894         3236 
 1771000   0.53729049   -7.5391346    336.51198  0.015834368  0.014733578         3230 
 1772000   0.53912548   -7.5535788    336.63395  0.015831168  0.014721256         3245 
 1773000   0.54938103   -7.5390018    336.22928  0.015803219   0.01470894         3172 
 1774000   0.55715943   -7.5458244    336.64586  0.015813879  0.014696651         3206 
 1775000   0.55407796   -7.5521103    336.52426  0.015799261  0.014684367         3264 
 1776000    0.5428666   -7.5451096    336.14724  0.015772674  0.014672083         3227 
 1777000   0.54707059   -7.5456224    336.85473  0.015796977  0.014659811         3293 
 1778000   0.55839509   -7.5637732    336.55253  0.015773928  0.014647559         3243 
 1779000   0.54344054   -7.5592019    336.30604  0.015753515  0.014635318         3229 
 1780000   0.54289004   -7.5562933    336.61781  0.015759261  0.014623085         3298 
 1781000   0.53418534   -7.5552395    336.83681  0.015760659  0.014610865         3284 
 1782000   0.53978954   -7.5597578    336.12384  0.015718473   0.01459866         3274 
 1783000   0.54387288   -7.5733043     336.4296  0.015723948  0.014586468         3294 
 1784000   0.53276484   -7.5551112    336.54418  0.015720487  0.014574287         3246 
 1785000   0.53702651   -7.5626663    336.60912  0.015714712   0.01456211         3259 
 1786000   0.54708989   -7.5606488    336.44588  0.015698296  0.014549946         3280 
 1787000   0.53171395   -7.5660013     336.2976  0.015682597  0.014537776         3268 
 1788000   0.53680889   -7.5856891    336.46107  0.015681444  0.014525627         3265 
 1789000   0.54454278    -7.579097    335.72194   0.01563825  0.014513483         3208 
 1790000   0.54147883   -7.5729213    336.26443  0.015654769  0.014501342         3242 
 1791000   0.54554355   -7.5752831    336.40986  0.015652794  0.014489221         3274 
 1792000   0.54266051    -7.577871     336.5375  0.015649996  0.014477099         3293 
 1793000   0.54115783   -7.5680939    336.45773  0.015637559  0.014464998         3291 
 1794000   0.54067017   -7.5754065    335.62171  0.015590009  0.014452894         3257 
 1795000   0.53350241   -7.5700585    336.27165  0.015611497  0.014440806         3321 
 1796000   0.54066476   -7.5688477     335.9708  0.015588846  0.014428732         3259 
 1797000   0.53357214   -7.5640857    335.96704  0.015579996  0.014416665         3281 
 1798000   0.52669479     -7.56845    335.46582  0.015548101  0.014404602         3224 
 1799000    0.5381032   -7.5828751    336.69287  0.015596297  0.014392551         3275 
 1800000   0.52394788    -7.578056       336.65  0.015585648  0.014380512         3261 
 1801000   0.53658189   -7.5837689    335.34749  0.015516726  0.014368483         3209 
 1802000   0.54544371   -7.5864842    336.33404  0.015553738   0.01435647         3237 
 1803000   0.53102564   -7.5620308    336.28718  0.015542946  0.014344476         3257 
 1804000   0.52262059   -7.5833044    336.81458  0.015558693  0.014332484         3296 
 1805000   0.52990838   -7.5884666    335.82376  0.015504329  0.014320506         3258 
 1806000   0.54030234   -7.5974785    336.00657  0.015504179  0.014308542         3278 
 1807000   0.52218317   -7.5883842    336.06222  0.015498165  0.014296599         3276 
 1808000   0.53130902   -7.6112091    336.21006  0.015496408  0.014284651         3309 
 1809000   0.52372991   -7.5915177    335.77523  0.015467811  0.014272711         3310 
 1810000   0.53662949   -7.5961036    335.75437  0.015458304  0.014260778         3313 
 1811000   0.52579869   -7.5889169    336.14845  0.015467902  0.014248857         3240 
 1812000   0.52846304    -7.593036     335.0034  0.015406705  0.014236938         3268 
 1813000   0.54278527   -7.5798227    335.63563  0.015427268  0.014225032         3233 
 1814000   0.52886844   -7.5999599    335.97183  0.015434208  0.014213153         3295 
 1815000   0.54115907   -7.5956107    336.01616  0.015427739  0.014201287         3298 
 1816000   0.52618442   -7.5940015    335.97583  0.015417393   0.01418943         3255 
 1817000   0.53944832    -7.592481    336.19903  0.015419145  0.014177576         3211 
 1818000   0.52073106   -7.5952589    335.81237   0.01539294  0.014165743         3253 
 1819000   0.51965241   -7.5749725    335.34035  0.015362853  0.014153919         3301 
 1820000   0.53382055   -7.5916557    335.69769  0.015370773  0.014142109         3265 
 1821000   0.54051419   -7.6092414      335.648  0.015360058   0.01413031         3252 
 1822000   0.52199666    -7.611303    336.30129  0.015381508  0.014118523         3269 
 1823000   0.52306466   -7.5938603    335.51525  0.015337139  0.014106745         3312 
 1824000   0.52774593   -7.5966116    335.94215  0.015348234  0.014094981         3286 
 1825000   0.51577544   -7.5801894    335.97335  0.015341249  0.014083234         3294 
 1826000   0.52945065   -7.6200959    335.87521  0.015328368  0.014071488         3316 
 1827000   0.53152137   -7.5909779    336.14103  0.015332103  0.014059762         3276 
 1828000   0.53275627   -7.5933079    335.30654  0.015285674  0.014048046         3280 
 1829000   0.52140632   -7.6011151    335.60023  0.015290698  0.014036346         3345 
 1830000    0.5323026   -7.6140238    335.95632  0.015298557  0.014024644         3296 
 1831000   0.52445394   -7.6070433    336.03865  0.015293949  0.014012962         3260 
 1832000   0.51689499   -7.6042859    335.28622  0.015251374   0.01400129         3327 
 1833000   0.52848059    -7.604065    335.22977  0.015240488  0.013989623         3322 
 1834000   0.52216431   -7.6289018    335.55626  0.015247013  0.013977968         3332 
 1835000   0.52560472   -7.6225254    336.10031  0.015263411  0.013966322         3309 
 1836000   0.52018384   -7.6012954    335.63543  0.015233998   0.01395469         3325 
 1837000   0.52100347   -7.6024048    335.48646  0.015218947  0.013943079         3290 
 1838000    0.5175817   -7.6001868    335.43761  0.015208452  0.013931475         3263 
 1839000   0.52104061   -7.5989485    335.34141  0.015195822  0.013919881         3262 
 1840000   0.51120812   -7.6104042    335.10253  0.015176745  0.013908294         3288 
 1841000   0.50902167   -7.6244139    335.08119  0.015167535  0.013896718         3310 
 1842000   0.51358946   -7.6093907    335.34573  0.015171269  0.013885151         3349 
 1843000   0.51719505   -7.6118204    335.60845  0.015174916  0.013873606         3326 
 1844000   0.52453554    -7.608339    335.55577  0.015164306  0.013862059         3298 
 1845000   0.52091208   -7.6133721    335.10689  0.015135812  0.013850531         3330 
 1846000   0.50675526   -7.6153557    335.38099  0.015139987  0.013839011         3334 
 1847000   0.51638409   -7.6026648    335.19895  0.015123577  0.013827496         3301 
 1848000   0.51115313   -7.6249378    335.44563  0.015126516     0.013816         3287 
 1849000   0.51675695   -7.6195904    335.38159  0.015115449  0.013804515         3368 
 1850000   0.51948187   -7.6169756    335.04408  0.015092076  0.013793036         3335 
 1851000   0.52208798   -7.6204691     335.3321  0.015096889  0.013781565         3335 
 1852000   0.51888649   -7.6316325    335.80138  0.015109853  0.013770107         3268 
 1853000   0.49941654   -7.6157748    335.87256    0.0151049  0.013758664         3323 
 1854000    0.5104282   -7.6145055    335.10287  0.015062157  0.013747242         3295 
 1855000   0.50345447   -7.6084797    335.25498  0.015060871  0.013735826         3306 
 1856000   0.52831407   -7.6294372    335.45709  0.015061831  0.013724428         3334 
 1857000   0.50312403   -7.5960556    335.44694  0.015053264  0.013713028         3247 
 1858000   0.50204823   -7.6171911    335.65619  0.015054547  0.013701651         3328 
 1859000   0.50687905    -7.615378    335.58368  0.015043199  0.013690282         3293 
 1860000   0.49625487   -7.6172574    335.07976  0.015012534   0.01367892         3330 
 1861000    0.5048519   -7.6206842     335.4757  0.015022197  0.013667573         3316 
 1862000   0.50929094   -7.6125844    335.46283  0.015013553  0.013656231         3294 
 1863000   0.51598934   -7.6241971    334.73128  0.014972771  0.013644901         3296 
 1864000   0.51716864    -7.633719    335.19982  0.014985686  0.013633581         3317 
 1865000   0.50104893   -7.6344984    335.11599  0.014973905  0.013622272         3333 
 1866000    0.5111218    -7.622778    334.58902  0.014942346  0.013610977         3306 
 1867000   0.49465627   -7.6290172    335.21291   0.01496219  0.013599693         3309 
 1868000   0.50364037   -7.6301035    334.27478   0.01491233  0.013588412         3287 
 1869000   0.51791095   -7.6388648    334.99717   0.01493656  0.013577143         3315 
 1870000   0.50842198    -7.630095    335.08957   0.01493269  0.013565878         3309 
 1871000   0.51180664   -7.6304532    335.17408  0.014928473  0.013554624         3320 
 1872000   0.51483654   -7.6229386    334.87057  0.014906988  0.013543387         3341 
 1873000   0.51885296   -7.6294027    335.06898  0.014907856  0.013532157         3304 
 1874000   0.51201332   -7.6313029    335.17078  0.014904428  0.013520945         3303 
 1875000   0.49699738   -7.6281035    334.95579  0.014886924   0.01350974         3302 
 1876000   0.51161759   -7.6364641    334.82163  0.014873029  0.013498544         3302 
 1877000   0.49945518   -7.6311169    334.45709  0.014848921  0.013487366         3303 
 1878000   0.50109131   -7.6397236    334.76932  0.014854868  0.013476193         3307 
 1879000   0.50710704   -7.6407263     335.0226  0.014858196  0.013465026         3337 
 1880000   0.49979058   -7.6313157    335.10127   0.01485378  0.013453879         3324 
 1881000    0.5011801   -7.6221504    334.47986  0.014818353  0.013442742         3276 
 1882000   0.50319934   -7.6331566    335.24725  0.014844459  0.013431622         3323 
 1883000   0.49973258   -7.6387705    334.80158  0.014816852  0.013420506         3333 
 1884000     0.500394   -7.6594586    335.60109  0.014844351  0.013409409         3289 
 1885000   0.50442585   -7.6451446    334.95837  0.014808062  0.013398317         3380 
 1886000   0.50429913   -7.6545127    334.41974  0.014776411   0.01338722         3316 
 1887000   0.50676506   -7.6575905    334.81056   0.01478584   0.01337614         3347 
 1888000   0.49948026   -7.6482528    334.83584  0.014779124  0.013365068         3311 
 1889000   0.50354842   -7.6700581    334.71278  0.014765872  0.013354003         3298 
 1890000   0.49968242   -7.6721003    335.03397  0.014772221  0.013342957         3304 
 1891000   0.48865321   -7.6600092     334.7382  0.014751375  0.013331916         3282 
 1892000    0.4920956   -7.6387012    334.75075  0.014744131   0.01332089         3312 
 1893000   0.49481088   -7.6649116    334.80335  0.014738658  0.013309875         3344 
 1894000   0.49206912   -7.6441179    334.65236  0.014724233  0.013298867         3331 
 1895000    0.5032732   -7.6474672    334.62789  0.014715387  0.013287874         3356 
 1896000   0.48621043   -7.6527056    335.14758  0.014730467  0.013276898         3294 
 1897000   0.49072094   -7.6550617    334.80798  0.014707784  0.013265935         3374 
 1898000   0.49541276   -7.6416715    335.01175  0.014708981  0.013254983         3274 
 1899000   0.49076052   -7.6588653    334.32549   0.01467112  0.013244037         3303 
 1900000   0.49936183   -7.6517136    334.63582   0.01467701  0.013233105         3317 
 1901000   0.49967842    -7.654611    334.65863  0.014670289  0.013222179         3328 
 1902000    0.4949288   -7.6573998      334.884   0.01467245  0.013211268         3285 
 1903000   0.49082883   -7.6544318    334.87785  0.014664471  0.013200368         3282 
 1904000   0.49228463   -7.6545858     335.1225  0.014667476  0.013189481         3279 
 1905000   0.50214435   -7.6716654    334.42324  0.014629188  0.013178601         3314 
 1906000   0.49003042   -7.6489982    334.76337  0.014636384  0.013167732         3337 
 1907000   0.47716359   -7.6800278    334.76065   0.01462859  0.013156871         3327 
 1908000    0.4878598   -7.6602242    334.51736  0.014610297  0.013146024         3278 
 1909000   0.50408832   -7.6563253    334.56064  0.014604533  0.013135194         3283 
 1910000   0.48313428   -7.6561995    334.39623  0.014589713  0.013124374         3284 
 1911000   0.49042335   -7.6617459     334.8226  0.014600672   0.01311356         3272 
 1912000    0.4966495   -7.6518497    334.82437  0.014593112   0.01310276         3338 
 1913000   0.49643892   -7.6540907    334.28887  0.014562157  0.013091973         3379 
 1914000     0.491867   -7.6513164     334.5734  0.014566937  0.013081196         3337 
 1915000   0.47781268   -7.6467278    334.87724  0.014572552  0.013070425         3362 
 1916000   0.48018066   -7.6666024    334.88621  0.014565336  0.013059673         3350 
 1917000   0.49632635   -7.6573206     334.5322  0.014542349  0.013048921         3345 
 1918000   0.49430216    -7.645234    334.88833   0.01455024  0.013038192         3360 
 1919000   0.47728763   -7.6689461    334.54676  0.014527825  0.013027468         3375 
 1920000   0.48932514   -7.6634968    334.45987  0.014516487   0.01301676         3372 
 1921000   0.49477563   -7.6625635     334.5382  0.014512328  0.013006058         3352 
 1922000   0.49376639   -7.6626572    334.23538  0.014491649  0.012995373         3374 
 1923000   0.49211036   -7.6610551    334.66684   0.01450281  0.012984694         3332 
 1924000    0.4857049   -7.6793809    334.38836   0.01448321  0.012974021         3398 
 1925000   0.47969157   -7.6696216    334.31536  0.014472527  0.012963363         3364 
 1926000   0.49230039   -7.6686608    334.42823  0.014469896  0.012952713         3351 
 1927000   0.48408662   -7.6650512    334.76669  0.014477023  0.012942075         3374 
 1928000    0.4849928    -7.675948    334.62861  0.014463546  0.012931447         3380 
 1929000    0.4827583   -7.6674203    334.34875  0.014443959   0.01292084         3335 
 1930000   0.48724617    -7.678547    334.36938  0.014437365  0.012910232         3386 
 1931000   0.48915893   -7.6494996      334.369  0.014429872  0.012899636         3387 
 1932000   0.49335538   -7.6674668    334.56967  0.014431059  0.012889053         3401 
 1933000    0.4806102   -7.6705001    334.07748  0.014402375  0.012878477         3427 
 1934000   0.47159129   -7.6654487    334.14629  0.014397893  0.012867914         3437 
 1935000    0.4820395   -7.6727207    334.24532  0.014394717  0.012857359         3406 
 1936000   0.48073417   -7.6820695    334.05302  0.014379004  0.012846819         3380 
 1937000   0.48271429   -7.6553542    334.11297   0.01437416  0.012836289         3400 
 1938000   0.47277284   -7.6649169    334.50941  0.014383789  0.012825782         3383 
 1939000   0.46907748   -7.6863759    334.08989  0.014358342  0.012815265         3403 
 1940000   0.47317955   -7.6599483    334.36837  0.014362902  0.012804762         3384 
 1941000   0.47616458    -7.666799    334.29908  0.014352528  0.012794273         3375 
 1942000    0.4694405   -7.6811241    334.86335  0.014369351  0.012783806         3395 
 1943000   0.47608552   -7.6805835    334.05231  0.014327171  0.012773345         3442 
 1944000   0.47359162   -7.6790552    334.75287  0.014349831   0.01276289         3385 
 1945000   0.46893988   -7.6640537    334.26562  0.014321578  0.012752451         3372 
 1946000   0.46851955   -7.6814514    334.23445  0.014312883   0.01274202         3396 
 1947000   0.47466905   -7.6546543    333.81449  0.014287557  0.012731592         3410 
 1948000   0.48279407   -7.6921003    333.94936  0.014285992  0.012721183         3414 
 1949000   0.48850247    -7.668951    334.53241  0.014303592  0.012710784         3403 
 1950000   0.47777936   -7.6758662    334.26984  0.014285036  0.012700399         3408 
 1951000   0.48251665   -7.6676551    334.44328  0.014285122  0.012690021         3429 
 1952000   0.47402124   -7.6698577    334.09904  0.014263108  0.012679658         3417 
 1953000   0.46667433    -7.686222    334.40424  0.014268827    0.0126693         3414 
 1954000   0.46955344   -7.6765914    334.29464  0.014256851  0.012658953         3426 
 1955000   0.47273392   -7.6736689    334.00912  0.014237388  0.012648625         3424 
 1956000   0.47911956    -7.682788    333.99029  0.014229307  0.012638297         3401 
 1957000   0.46893314   -7.6977998    334.58929  0.014247542  0.012627985         3403 
 1958000   0.46761108   -7.6864598    334.30055  0.014227977  0.012617685         3416 
 1959000   0.46786724   -7.6762382    334.11291  0.014212732  0.012607388         3422 
 1960000   0.47690195    -7.689808    334.50488  0.014222146  0.012597114         3430 
 1961000   0.46705087   -7.6830057    334.65576  0.014221306  0.012586842         3420 
 1962000   0.47107441   -7.6807059    334.35745  0.014201387  0.012576585         3465 
 1963000   0.47141834   -7.6947926     334.4833  0.014199495   0.01256633         3440 
 1964000   0.47235697   -7.6839719     333.8241  0.014164295  0.012556082         3411 
 1965000   0.47297315   -7.6713083    333.80358  0.014156216  0.012545848         3463 
 1966000   0.46512648   -7.6832379    334.75054  0.014189155  0.012535622         3395 
 1967000   0.46575779   -7.7088736    334.28846  0.014162365  0.012525403         3424 
 1968000   0.46078018    -7.694305    333.85591  0.014136852  0.012515197         3428 
 1969000   0.46927552   -7.7042348     333.9166  0.014132241  0.012505009         3450 
 1970000   0.46737058   -7.7299191    334.45368  0.014147787  0.012494823         3437 
 1971000    0.4728437   -7.6886348    334.30182  0.014134188  0.012484652         3393 
 1972000    0.4772451   -7.6851358    334.16896  0.014121406  0.012474489         3441 
 1973000   0.46804782   -7.7007528      333.573  0.014089078  0.012464338         3363 
 1974000   0.46287949    -7.688546    333.92154  0.014096654  0.012454196         3390 
 1975000   0.47456027   -7.7030924    333.69763  0.014080069  0.012444061         3455 
 1976000   0.47419881   -7.7024821    334.20408  0.014094301  0.012433942         3445 
 1977000   0.47245537   -7.6967683    334.59311   0.01410357  0.012423834         3425 
 1978000   0.46572956   -7.7097397    333.85809  0.014065474  0.012413734         3422 
 1979000   0.47705687   -7.6948914    334.34667   0.01407894  0.012403649         3423 
 1980000   0.45712123   -7.6865989    333.92197  0.014053955  0.012393572         3425 
 1981000   0.46464753   -7.7050873    334.46408  0.014069665  0.012383501         3423 
 1982000   0.46451357   -7.6973503    333.72178  0.014031356  0.012373438         3414 
 1983000   0.45908973   -7.6931728    333.82721  0.014028711  0.012363388         3440 
 1984000   0.46470191   -7.6922311     333.7021  0.014016385  0.012353352         3430 
 1985000   0.46984227   -7.7069189     334.6349  0.014048485  0.012343322         3431 
 1986000   0.46410892    -7.702883    334.15622  0.014021325  0.012333302         3406 
 1987000   0.46934633   -7.6914456    333.53498  0.013988214  0.012323296         3430 
 1988000   0.45755728   -7.7044197    333.67397  0.013987004  0.012313292         3420 
 1989000   0.45745561   -7.7101391    333.88522  0.013988823  0.012303304         3446 
 1990000   0.45904541   -7.6994635    333.98472   0.01398596  0.012293332         3404 
 1991000   0.47287249   -7.7137585     333.2179   0.01394684  0.012283356         3440 
 1992000   0.45521411   -7.7000381    333.71491   0.01396063    0.0122734         3428 
 1993000   0.45775413   -7.7074354    334.02266  0.013966494  0.012263445         3430 
 1994000   0.46289774    -7.704531     333.8972  0.013954246  0.012253503         3387 
 1995000    0.4634205   -7.7041287    333.61287  0.013935375  0.012243571         3419 
 1996000   0.46324819   -7.7117886    333.90639  0.013940648  0.012233656         3390 
 1997000   0.45246026   -7.7099285    333.77127  0.013928028  0.012223752         3415 
 1998000   0.46179977   -7.7056483    333.25123  0.013899367   0.01221386         3418 
 1999000   0.45572264   -7.7162624    333.87241   0.01391831  0.012203978         3386 
 2000000   0.45919566   -7.7077513    334.12293  0.013921789    0.0121941         3422 
 2001000    0.4564185   -7.7170251    333.81623  0.013902059  0.012184231         3408 
 2002000   0.46066755   -7.7162748    333.32504  0.013874669  0.012174378         3405 
 2003000     0.455644    -7.703514    333.51121  0.013875487  0.012164538         3415 
 2004000   0.45080585   -7.7186085    333.72089  0.013877282  0.012154702         3394 
 2005000   0.46127848   -7.7074165    334.16108  0.013888657  0.012144882         3408 
 2006000   0.45496666   -7.7207626    333.43645   0.01385163  0.012135067         3417 
 2007000   0.45159403    -7.711799    333.61229   0.01385203  0.012125257         3418 
 2008000   0.45308207   -7.7112151    333.78765  0.013852409  0.012115462         3428 
 2009000   0.45322815   -7.7304341    333.34701  0.013827236   0.01210567         3432 
 2010000   0.45531748   -7.7268816    333.39404  0.013822307  0.012095892         3408 
 2011000   0.45390623   -7.7177869    333.53522  0.013821284  0.012086135         3445 
 2012000   0.46166898   -7.7153084    333.76558  0.013823955  0.012076375         3416 
Loop time of 4328.06 on 48 procs for 2000000 steps with 4000 atoms

Performance: 79850.939 tau/day, 462.100 timesteps/s
99.4% CPU use with 48 MPI tasks x no OpenMP threads

MPI task timing breakdown:
Section |  min time  |  avg time  |  max time  |%varavg| %total
---------------------------------------------------------------
Pair    | 270.33     | 293.93     | 311.52     |  58.1 |  6.79
Neigh   | 26.48      | 27.049     | 27.924     |   5.7 |  0.62
Comm    | 231.68     | 247.03     | 272.43     |  59.6 |  5.71
Output  | 4.4292     | 4.4311     | 4.4676     |   0.3 |  0.10
Modify  | 3693.9     | 3707.2     | 3722.7     |  13.3 | 85.65
Other   |            | 48.42      |            |       |  1.12

Nlocal:        83.3333 ave          88 max          78 min
Histogram: 2 4 6 4 2 5 5 7 3 10
Nghost:        1770.08 ave        1786 max        1751 min
Histogram: 3 0 6 6 5 5 10 6 1 6
Neighs:        10684.3 ave       11419 max        9907 min
Histogram: 3 4 10 3 3 1 6 8 9 1
FullNghs:      21368.0 ave       22779 max       19910 min
Histogram: 5 4 7 3 3 5 4 8 5 4

Total # of neighbors = 1025664
Ave neighs/atom = 256.41600
Neighbor list builds = 107960
Dangerous builds = 0

#clear
#
#next RN
#
#jump SELF
Total wall time: 1:12:11
