
units lj                  # Use reduced LJ style units
atom_style atomic         # Uncharged point particles
atom_modify map hash      # Needed for indexing of clusters etc
                          # Used to be able to find where atoms are in relation to each other.

lattice fcc 1.0 spacing 1 1 1
Lattice spacing in x,y,z = 1.5874011 1.5874011 1.5874011
region box block 0 10 0 10 0 10 units lattice
create_box 2 box
Created orthogonal box = (0.0000000 0.0000000 0.0000000) to (15.874011 15.874011 15.874011)
  3 by 4 by 4 MPI processor grid
create_atoms 1 box
Created 4000 atoms
  using lattice units in orthogonal box = (0.0000000 0.0000000 0.0000000) to (15.874011 15.874011 15.874011)
  create_atoms CPU = 0.002 seconds
set type 1 type/fraction 2 0.0 78393
Setting atom values ...
  0 settings made for type/fraction
mass 1 1.0
mass 2 1.0
pair_style lj/cut  3.5
pair_modify tail  yes
pair_coeff 1  1  1.0  1.0   # Intearaction between 1 and 1 set with epsilon = 1 and sigma = 1
pair_coeff 1  2  1.5  0.8
pair_coeff 2  2  0.5  0.88

write_data data.0
System init for write_data ...
Neighbor list info ...
  update every 1 steps, delay 10 steps, check yes
  max neighbors/atom: 2000, page size: 100000
  master list distance cutoff = 3.8
  ghost atom cutoff = 3.8
  binsize = 1.9, bins = 9 9 9
  1 neighbor lists, perpetual/occasional/extra = 1 0 0
  (1) pair lj/cut, perpetual
      attributes: half, newton on
      pair build: half/bin/atomonly/newton
      stencil: half/bin/3d
      bin: standard
WARNING: Not all mixed pair coeffs generated from mixing. Use write_data with 'pair ij' option to store all pair coeffs. (../write_data.cpp:312)


#############################
#   M E L T   S Y S T E M   #
#############################

velocity all create 2.4 1741580 mom yes dist gaussian # Assign velocities
                                                    # Temperature 2.4, random number seed, zero linear momentum
                                                                                # Gaussian distribution

timestep 0.002   # simulation timestep
thermo 1000       # output thermodynamic data every 1000 steps bf 100

# Define a fix  in this case with index 1 applied to all
# particles in the simulation. This fix is for simulations
# in the anisotropic NPT ensemble. Note that we use the MTK
# correction.
fix 1 all npt temp 2.4 2.4 0.1 iso 5.68 5.68 0.5 mtk yes tchain 5 pchain 5 # Use NPT ensemble
                                                                         # Set temperature and pressure and damping
                                                                         # Numbers of thermostats in chain and in barostat
run 10000          # run for 10000 steps
Per MPI rank memory allocation (min/avg/max) = 3.642 | 3.644 | 3.648 Mbytes
Step Temp E_pair E_mol TotEng Press Volume 
       0          2.4   -8.3859253            0   -4.7868253   -2.2405722         4000 
    1000    2.3665579   -4.4849007            0  -0.93595129    5.3827989    5183.0868 
    2000    2.3766513   -4.3593179            0  -0.79523217    5.8479051    5191.4903 
    3000    2.3957732   -4.3590227            0  -0.76626129    5.6082724    5238.8421 
    4000    2.3735381   -4.3666232            0  -0.80720609    5.6130507    5225.6107 
    5000    2.3969396   -4.3665735            0  -0.77206291    5.6800274    5220.2459 
    6000    2.4153599   -4.3308294            0  -0.70869525    5.8758855    5220.6629 
    7000    2.3972881   -4.3733727            0  -0.77833947    5.7269081    5213.6447 
    8000    2.4392018   -4.3837287            0  -0.72584071    5.5494192    5239.9551 
    9000    2.4200921   -4.3468357            0  -0.71760503    6.0313714    5192.0987 
   10000     2.428261   -4.3774577            0  -0.73597689    5.3162872    5285.0734 
Loop time of 2.2186 on 48 procs for 10000 steps with 4000 atoms

Performance: 778869.167 tau/day, 4507.345 timesteps/s
99.5% CPU use with 48 MPI tasks x no OpenMP threads

MPI task timing breakdown:
Section |  min time  |  avg time  |  max time  |%varavg| %total
---------------------------------------------------------------
Pair    | 0.82782    | 0.90418    | 1.0093     |   3.4 | 40.75
Neigh   | 0.16658    | 0.17122    | 0.18711    |   0.9 |  7.72
Comm    | 0.65666    | 0.76109    | 0.92139    |   7.1 | 34.31
Output  | 0.00024268 | 0.00024697 | 0.00030199 |   0.0 |  0.01
Modify  | 0.28434    | 0.36752    | 0.44306    |   8.6 | 16.57
Other   |            | 0.01434    |            |       |  0.65

Nlocal:        83.3333 ave          93 max          75 min
Histogram: 2 4 3 11 6 11 5 3 1 2
Nghost:        1359.65 ave        1382 max        1330 min
Histogram: 1 1 7 2 7 10 5 8 1 6
Neighs:        7204.10 ave        8195 max        6435 min
Histogram: 3 4 5 8 9 9 6 2 1 1

Total # of neighbors = 345797
Ave neighs/atom = 86.449250
Neighbor list builds = 904
Dangerous builds = 205

# Equilibrate just above the melting temperature to avoid step fn in T

fix 1 all npt temp 1.25 1.25 0.1 iso 5.68 5.68 0.5 mtk yes tchain 5 pchain 5
run 2000
Per MPI rank memory allocation (min/avg/max) = 3.642 | 3.644 | 3.648 Mbytes
Step Temp E_pair E_mol TotEng Press Volume 
   10000     2.428261   -4.3774577            0  -0.73597689    5.3162872    5285.0734 
   11000    1.2700043   -5.8177951            0    -3.913265    5.6463621    4356.8837 
   12000    1.2682562   -5.8625038            0   -3.9605951    5.5099495    4346.9764 
Loop time of 0.449745 on 48 procs for 2000 steps with 4000 atoms

Performance: 768435.639 tau/day, 4446.966 timesteps/s
99.6% CPU use with 48 MPI tasks x no OpenMP threads

MPI task timing breakdown:
Section |  min time  |  avg time  |  max time  |%varavg| %total
---------------------------------------------------------------
Pair    | 0.19149    | 0.20704    | 0.23923    |   1.9 | 46.03
Neigh   | 0.030727   | 0.032132   | 0.036534   |   0.6 |  7.14
Comm    | 0.12486    | 0.15763    | 0.17635    |   2.8 | 35.05
Output  | 4.8257e-05 | 4.9243e-05 | 6.1375e-05 |   0.0 |  0.01
Modify  | 0.038133   | 0.048656   | 0.056615   |   2.4 | 10.82
Other   |            | 0.00424    |            |       |  0.94

Nlocal:        83.3333 ave          90 max          76 min
Histogram: 1 2 6 4 6 11 7 7 2 2
Nghost:        1554.00 ave        1576 max        1534 min
Histogram: 2 2 5 9 9 8 6 3 2 2
Neighs:        8767.40 ave        9620 max        7923 min
Histogram: 2 3 3 6 10 9 6 6 2 1

Total # of neighbors = 420835
Ave neighs/atom = 105.20875
Neighbor list builds = 145
Dangerous builds = 16

#############################
# L I N E A R  Q U E N C H  #
#############################

# Define solid atoms. This closely follows ten Wolde  Ruiz-Montero and Frenkel  Faraday Discuss  1996  104  93-110
# Compute components of the per-atom q6 vector
compute q6 all orientorder/atom degrees 1 6 components 6 nnn NULL cutoff 1.3 # compute the Q6 parameter.
                                                                             # Use all neighbours within 1.3 unit cell.

# get number of connections
compute coord_number all coord/atom orientorder q6 0.5

# An atom is solid if it has 8 or more connections (of a possible 14)
variable is_solid atom c_coord_number>=8
group solid dynamic all var is_solid    # Must be dynamic to update
dynamic group solid defined

# do clustering
compute cluster solid cluster/atom 1.3 # Create a cluster where all atoms within are solid and max 1.3 units from another member

# define chunks one chunk per cluster
compute clus_chunks solid chunk/atom c_cluster nchunk every compress yes  # Says which atoms are in which chunk

# count the size of each chunk
compute size_chunks solid property/chunk clus_chunks count


# Find the maximum entry in the vector of chunk sizes
variable max_n equal max(c_size_chunks)


# Thermo style which includes this variable
# thermo_style custom step temp pe vol v_max_n

thermo ${N}  # Print the thermo information every 100 steps
thermo 1000  

# Reset the npt fix at a lower temperature (below freezing)
fix 1  all npt temp  ${temp} ${temp}  0.1  iso  5.68  5.68  0.5  mtk yes tchain  5  pchain  5
fix 1  all npt temp  0.45 ${temp}  0.1  iso  5.68  5.68  0.5  mtk yes tchain  5  pchain  5
fix 1  all npt temp  0.45 0.45  0.1  iso  5.68  5.68  0.5  mtk yes tchain  5  pchain  5

dump dmp2 all dcd ${N} traj.dcd
dump dmp2 all dcd 1000 traj.dcd


compute msd all msd com yes
variable twopoint equal c_msd[4]/6/(step*dt+1.0e-6)
fix 9 all vector 10 c_msd[4]
variable fit equal slope(f_9)/6/(10*dt)
thermo_style custom step temp pe c_msd[4] v_twopoint v_fit v_max_n

fix 1 all npt temp 1.25 ${temp} 0.1 iso 5.68 5.68 0.5 mtk yes tchain 5 pchain 5
fix 1 all npt temp 1.25 0.45 0.1 iso 5.68 5.68 0.5 mtk yes tchain 5 pchain 5
run 2000000 # 5000000  # Run for this many steps
Neighbor list info ...
  update every 1 steps, delay 10 steps, check yes
  max neighbors/atom: 2000, page size: 100000
  master list distance cutoff = 3.8
  ghost atom cutoff = 3.8
  binsize = 1.9, bins = 9 9 9
  4 neighbor lists, perpetual/occasional/extra = 1 3 0
  (1) pair lj/cut, perpetual
      attributes: half, newton on
      pair build: half/bin/atomonly/newton
      stencil: half/bin/3d
      bin: standard
  (2) compute orientorder/atom, occasional
      attributes: full, newton on
      pair build: full/bin/atomonly
      stencil: full/bin/3d
      bin: standard
  (3) compute coord/atom, occasional
      attributes: full, newton on
      pair build: full/bin/atomonly
      stencil: full/bin/3d
      bin: standard
  (4) compute cluster/atom, occasional
      attributes: full, newton on
      pair build: full/bin/atomonly
      stencil: full/bin/3d
      bin: standard
Per MPI rank memory allocation (min/avg/max) = 9.729 | 9.732 | 9.737 Mbytes
Step Temp PotEng c_msd[4] v_twopoint v_fit v_max_n 
   12000    1.2682562   -5.8625038 1.3805066e-33 9.5868509e-36 8.3333333e+20            2 
   13000    1.2439442    -5.843115   0.57052938 0.0036572394  0.047474673            2 
   14000    1.2619698   -5.8478315    1.0896537 0.0064860334  0.045371725            2 
   15000    1.2755215   -5.8942181    1.6443206 0.0091351139   0.04459447            2 
   16000    1.2595837   -5.8646074    2.1703281  0.011303792  0.044588326            2 
   17000    1.2564827   -5.8508317    2.7554522  0.013507118  0.044881448            5 
   18000    1.2420506   -5.8252973    3.4010016  0.015745377  0.045979602            5 
   19000    1.2675568   -5.8663706    3.9930265  0.017513274  0.046980165            3 
   20000    1.2323735   -5.8527095    4.5551456  0.018979773  0.047473785            2 
   21000    1.2428689   -5.8450021    5.1385946  0.020391248   0.04774677            3 
   22000    1.2325219   -5.8364519    5.7623261  0.021826992  0.047988564            3 
   23000    1.2581514   -5.8286225    6.2101762  0.022500638  0.047958685            3 
   24000    1.2174553   -5.8474115    6.7589562  0.023468597  0.047653419            3 
   25000    1.2657147   -5.8234462    7.4016845  0.024672281  0.047475541            3 
   26000    1.2559821    -5.891525    8.0451485  0.025785732  0.047629985            8 
   27000    1.2483823   -5.8781219    8.6829099  0.026799104   0.04794291            2 
   28000    1.2671946   -5.8484585    9.2533671  0.027539783  0.048079971            3 
   29000    1.2357679    -5.880282    9.7695314  0.028073366  0.048223677            2 
   30000    1.2528651   -5.8591602    10.355396  0.028764988  0.048276831            4 
   31000    1.2555942   -5.8279585    10.873018  0.029228543  0.048213695            2 
   32000    1.2147831   -5.8673097    11.477558  0.029889474  0.048187428            2 
   33000    1.2352562   -5.8948197    12.042203  0.030409603    0.0481829            3 
   34000    1.2466031    -5.873158    12.502879  0.030644311  0.048080952            3 
   35000     1.260835   -5.8717627    12.962076  0.030862084  0.047897349            2 
   36000    1.2241717   -5.8115137    13.535405  0.031331955   0.04775034            7 
   37000    1.2622282   -5.8500534    14.102758  0.031762968  0.047629932            3 
   38000    1.2174548   -5.8273134    14.643613  0.032113187  0.047506899            3 
   39000    1.2468101   -5.8590294    15.159529  0.032392156  0.047378512            3 
   40000    1.2477233   -5.8735007    15.716825  0.032743386  0.047278645            6 
   41000    1.2196048   -5.8781709    16.247495  0.033023364  0.047150525            2 
   42000    1.2324489    -5.860525    16.711151  0.033157046  0.047007148            3 
   43000    1.2400325   -5.8589233    17.249217  0.033428715   0.04685933            1 
   44000    1.2179134   -5.8581414     17.85339  0.033813237  0.046762671            3 
   45000    1.2418001   -5.8289943    18.367602  0.034014077  0.046650736            7 
   46000    1.2330139   -5.8243306     18.95081  0.034331176  0.046555923            4 
   47000    1.2231486   -5.8768011    19.441523  0.034470786  0.046484306            2 
   48000     1.270627   -5.8835916    20.060855  0.034827873  0.046425808            4 
   49000      1.23393   -5.8522162    20.605144  0.035042761   0.04639361            3 
   50000    1.2019172   -5.8863459    21.197995  0.035329992  0.046362199            6 
   51000    1.2246008   -5.8663682    21.756448  0.035549752  0.046323891            4 
   52000        1.218   -5.9147329     22.28341  0.035710592  0.046317173            7 
   53000    1.2595943   -5.9036394    22.876967  0.035970073  0.046314271            4 
   54000    1.2199544   -5.8338422    23.482678    0.0362387   0.04630837            4 
   55000    1.2168215   -5.8957011    23.897781  0.036208759  0.046296352            4 
   56000    1.2279877    -5.848084     24.51155  0.036475521  0.046265179            2 
   57000    1.2414956   -5.9022286    25.013052   0.03656879   0.04623721            4 
   58000    1.2372579   -5.8768307    25.523803   0.03667213  0.046211666            3 
   59000    1.2249352   -5.8496573    26.088029  0.036847498  0.046178336            2 
   60000    1.2434283   -5.8348678    26.607322  0.036954614  0.046154298            4 
   61000    1.2503115   -5.9063014    26.986142  0.036866314  0.046116533            2 
   62000    1.2559736     -5.88024    27.622509  0.037127028  0.046071314            3 
   63000    1.2547005   -5.8805875    28.175099  0.037268649  0.046048294            2 
   64000    1.2174867    -5.856259    28.694988  0.037363265  0.046013377            3 
   65000    1.1976796   -5.8717389    29.305512  0.037571169   0.04598096            5 
   66000     1.239542   -5.8915286    29.795296  0.037620323  0.045961248            4 
   67000    1.2338217   -5.8952171    30.502277  0.037938155  0.045945234            3 
   68000    1.2413502   -5.8945514    30.900466  0.037868218   0.04592958            5 
   69000    1.2018861   -5.8645472    31.200048  0.037681218  0.045887648            4 
   70000    1.2128131   -5.8918183    31.695714  0.037732993  0.045828921            2 
   71000    1.2321912   -5.8657074    32.212538  0.037808143  0.045767905            2 
   72000    1.2477198   -5.8595587    32.813218  0.037978261  0.045716076            4 
   73000     1.227049   -5.8414922    33.539351   0.03828693  0.045675546            4 
   74000    1.2212712   -5.8511153     34.10497  0.038406497  0.045648966            3 
   75000     1.245087   -5.8820112    34.602713  0.038447459  0.045626485            3 
   76000    1.2462019   -5.8806263    34.867099  0.038231468  0.045582964            3 
   77000    1.2220123   -5.9275783    35.306906  0.038210937  0.045517778            3 
   78000    1.2173072   -5.8549256    35.708852  0.038150482  0.045447406            4 
   79000    1.2406806   -5.8726139    36.088559    0.0380681  0.045367321            4 
   80000    1.2057462   -5.9386354    36.500732  0.038021595  0.045287873            4 
   81000    1.2121634   -5.8494937     37.12701  0.038196512  0.045209662            7 
   82000    1.2416149   -5.8921984    37.690139  0.038302987  0.045140302            2 
   83000     1.200979   -5.8656529    38.147174  0.038300375  0.045073336            6 
   84000    1.2353812    -5.837832     38.82838  0.038520218   0.04500805            3 
   85000    1.1956521   -5.9256075    39.147925  0.038380318  0.044944829            2 
   86000    1.2194611   -5.8555727    39.858791  0.038622859  0.044886274            3 
   87000    1.2079987   -5.9034147    40.243659  0.038547566  0.044829919            2 
   88000    1.2136078   -5.8919051     40.94531  0.038773967  0.044777058            5 
   89000    1.2269244   -5.8745664    41.352933  0.038719975  0.044734703            3 
   90000    1.2135035   -5.9005228     41.74402   0.03865187  0.044693136            5 
   91000    1.1827726   -5.9056146    42.236063  0.038677713  0.044638451            3 
   92000    1.2198926   -5.8807365    42.714204  0.038690402  0.044586159            4 
   93000    1.2187532    -5.892588    43.269333  0.038771803  0.044532643            4 
   94000    1.2269807   -5.9044713    43.588417  0.038642214  0.044476375            2 
   95000    1.2291313   -5.9027032    44.026254  0.038619521  0.044413154            2 
   96000    1.1833925   -5.8809181    44.564459  0.038684426  0.044355496            2 
   97000    1.2162949   -5.9167051    44.928135  0.038598054  0.044292168            2 
   98000    1.2407617   -5.9243139    45.200384  0.038435701   0.04422452            3 
   99000    1.2186578   -5.9108078    45.585493  0.038371627  0.044149957           10 
  100000    1.2000313    -5.902727    45.881141  0.038234284  0.044067531            4 
  101000    1.1906131   -5.9108727    46.479829  0.038349694   0.04398239            5 
  102000    1.1727543   -5.9243491    46.967257  0.038371942  0.043898613            6 
  103000    1.2088279    -5.906613     47.55164  0.038472201  0.043825726            3 
  104000     1.178861   -5.9121449    47.916712  0.038394801  0.043755334            4 
  105000    1.2106616   -5.9051838    48.634902  0.038599129  0.043690615            3 
  106000    1.2416052   -5.9298307    49.155599  0.038644339  0.043632978            2 
  107000    1.2005902   -5.9181683     50.06967   0.03899507  0.043586691            3 
  108000    1.2050134   -5.9355145    50.336504  0.038839895  0.043544227            3 
  109000    1.2376124   -5.9128614     50.72893  0.038783586  0.043499026            2 
  110000    1.1871277   -5.9241322    51.098138  0.038710711  0.043450889            3 
  111000    1.2369374   -5.8974342    51.633212  0.038763672  0.043399796            5 
  112000    1.1934712   -5.8998962    52.172285  0.038818664  0.043349544            2 
  113000    1.2098126   -5.8870874    52.720488  0.038879416  0.043309744            2 
  114000     1.205158   -5.9142789    53.186656  0.038879135  0.043269546            5 
  115000    1.2150235     -5.92147    53.760988  0.038957238   0.04323111            2 
  116000    1.2029619   -5.8606196    54.407347  0.039085737  0.043195488            3 
  117000    1.2178456   -5.8972709    54.926342  0.039121326  0.043164417            4 
  118000    1.2419081   -5.9369617    55.088268  0.038904144  0.043128104            3 
  119000    1.1833309   -5.9299538    55.580664  0.038922033  0.043092711            3 
  120000    1.1829108    -5.892272    56.361566  0.039139976  0.043059149            5 
  121000    1.2012918   -5.9155159    56.682076  0.039037242  0.043025099            6 
  122000    1.2356133   -5.8993943     57.28653  0.039130143  0.042996538            4 
  123000    1.2024068   -5.9201058    57.490102  0.038949933  0.042971348            4 
  124000    1.1942486   -5.9185668    58.474537  0.039297404  0.042949378            4 
  125000    1.2045326   -5.9165197    58.983296  0.039322197  0.042931825            5 
  126000    1.1839176   -5.8894037    59.189248  0.039146328  0.042912662            6 
  127000    1.1875959   -5.8893251    60.160374  0.039475311  0.042896656            4 
  128000    1.1963814   -5.9113377    60.615484  0.039463206   0.04288543           10 
  129000    1.2082294   -5.9380799    60.938651  0.039366054  0.042870177            6 
  130000    1.1981945   -5.8805775    61.826285  0.039632234  0.042858161            2 
  131000    1.1945355   -5.9020992    62.301225  0.039631823  0.042850632            4 
  132000    1.1799216   -5.9067325     62.72201  0.039597228  0.042843755            4 
  133000    1.2159827   -5.9175283    63.206353  0.039602978  0.042835441            2 
  134000    1.2022374   -5.9044407    63.468125  0.039470227  0.042823342            3 
  135000    1.1983299   -5.9269831    64.215931  0.039639463  0.042815147            6 
  136000    1.1929479      -5.8948    65.067739  0.039869938  0.042813427            7 
  137000    1.2029674   -5.9227213    65.739913  0.039987781  0.042816623            5 
  138000    1.2012079   -5.9427733    66.117034  0.039925745  0.042819811            4 
  139000    1.1963872    -5.910653    66.829576  0.040065693  0.042826568            6 
  140000    1.1860925   -5.8841131    67.261374  0.040036532  0.042832615            8 
  141000    1.2055973   -5.9281731    67.620235  0.039964678  0.042843241            3 
  142000    1.2007159   -5.8876179    68.434617   0.04016116  0.042853962            3 
  143000    1.2124607   -5.9351988    68.587042  0.039969139  0.042860587            4 
  144000    1.2164669   -5.9143891    69.160131  0.040023224  0.042863582            3 
  145000    1.1868013   -5.8925127    69.336643  0.039848645    0.0428606            5 
  146000     1.185741   -5.9534533    69.747499  0.039810216  0.042853493            6 
  147000    1.1973871   -5.9266461    70.414066  0.039917271  0.042844106            3 
  148000     1.231667   -5.9216785    70.565158  0.039732634  0.042829646            3 
  149000    1.1952937   -5.9270387    71.221948  0.039833304   0.04281661            4 
  150000    1.1758593   -5.9030462    71.470404   0.03970578   0.04279825            4 
  151000    1.2018225   -5.9355205    72.115178  0.039798663  0.042779503            2 
  152000    1.2097041   -5.9454757     72.30319  0.039639907  0.042761759            3 
  153000    1.2018225    -5.941812    72.752768  0.039625691  0.042742086            4 
  154000      1.21306   -5.8924146     73.53001  0.039788966  0.042724621            4 
  155000    1.2139732   -5.9113295    73.829039  0.039693032  0.042708364            4 
  156000    1.1758121   -5.9552658    74.224091  0.039649621  0.042693742            2 
  157000    1.1951333   -5.9494988    75.109783  0.039867188  0.042676114            7 
  158000    1.1845291   -5.9348042    75.573784  0.039859591  0.042661006            6 
  159000    1.1909867   -5.9236215    75.891951  0.039775655    0.0426488            3 
  160000    1.2162916   -5.9806361    76.710096  0.039953175  0.042637968            2 
  161000    1.2013639   -5.9669988     77.14997  0.039932696  0.042627087            2 
  162000    1.1975142   -5.9107784    77.844737  0.040043589  0.042617062            2 
  163000    1.2087463   -5.9289029    78.212198  0.039985786  0.042609126            4 
  164000    1.1815746   -5.9729721    78.675476  0.039977376  0.042601268            9 
  165000    1.2037405   -5.9524211    78.972173  0.039884936  0.042590155            3 
  166000    1.1621827   -5.9528379    79.496428  0.039907845  0.042577718            5 
  167000    1.1992716   -5.9193719    80.087252  0.039963699  0.042566329            5 
  168000    1.2084902   -5.9703001    80.475273   0.03991829  0.042555649            5 
  169000     1.176987   -5.9225201     81.32267  0.040099936  0.042545586            3 
  170000    1.1930379   -5.9313378     81.92762  0.040160598  0.042537023            5 
  171000    1.1880774   -5.9476424    82.143541  0.040030965  0.042528872            5 
  172000    1.1727685   -5.9298948    82.611219  0.040024815  0.042521154            4 
  173000    1.1764605   -5.9467408    82.758508  0.039864406  0.042510198            2 
  174000    1.1776791   -5.9221841    82.820974  0.039665217  0.042497192            3 
  175000    1.1803083   -5.9036596    83.592335  0.039805874  0.042480095            3 
  176000    1.1815399   -5.9293423    83.915771  0.039732846  0.042462031            3 
  177000    1.1627258   -5.9498114    84.619487  0.039839683   0.04244444           10 
  178000    1.1800701   -5.9684488    84.874806  0.039735396  0.042426301            3 
  179000    1.1883846   -5.9945698    85.007622  0.039575243  0.042405427            2 
  180000    1.1965095   -5.9460284    85.551821  0.039607324  0.042380514            2 
  181000    1.1871473   -5.9756491    86.195984  0.039685075  0.042357971            3 
  182000    1.1867974   -5.9732292    86.801483  0.039744269  0.042337001            3 
  183000     1.216047   -5.9413986    87.151732  0.039686581  0.042315988            5 
  184000    1.1974534   -5.9559131     87.51665  0.039636164  0.042291951            3 
  185000    1.1781078   -5.9617709    87.420981   0.03937882  0.042265254            5 
  186000    1.1601822    -5.952677    87.752714  0.039315732    0.0422337            4 
  187000    1.1780404   -5.9505012    88.673103  0.039515643   0.04220455            5 
  188000    1.1769725   -5.9778576    88.857886  0.039387361  0.042172785            4 
  189000       1.1615   -5.9786286    88.891826  0.039193927  0.042140371            3 
  190000     1.179466   -5.9751901    89.533823   0.03926922  0.042106029            5 
  191000    1.1800206   -5.9408888    90.169195  0.039340835  0.042074497            5 
  192000     1.183057   -5.9769325    90.616392  0.039330031  0.042043482            4 
  193000    1.1863828   -5.9585042    90.973836  0.039280585  0.042011287            5 
  194000    1.1729783   -5.9721793    91.530831  0.039317367  0.041979451            1 
  195000    1.1776754   -5.9609952    91.935446  0.039288652  0.041948492            3 
  196000    1.1649019   -5.9888896    92.159617   0.03918351  0.041915957            3 
  197000    1.1878388   -5.9711404    92.145421  0.038978604   0.04188148            5 
  198000    1.1814188   -5.9894473    92.939809  0.039116081  0.041848126            4 
  199000    1.2074694   -5.9724748    93.489896  0.039149873  0.041816067            3 
  200000     1.168248   -5.9725403    94.242759  0.039267816  0.041786299            3 
  201000    1.1899362   -5.9910367    95.053656  0.039408647  0.041758614            7 
  202000    1.1713106   -5.9951845    94.845975  0.039127878  0.041729403            3 
  203000    1.1650224   -5.9693186    95.426826  0.039173574  0.041699265            4 
  204000    1.1856698   -5.9728517    95.931361  0.039187647  0.041669746            4 
  205000     1.161928   -5.9477701    96.465882  0.039213773  0.041643077            3 
  206000    1.1848462   -5.9742056    96.742538  0.039135331  0.041615277            5 
  207000    1.1488273   -6.0276161     97.10017  0.039090245   0.04158869            3 
  208000    1.1579061   -5.9693195    97.523008  0.039071718  0.041560506            3 
  209000    1.1810628    -6.004217    97.681875  0.038948116  0.041530829            6 
  210000    1.1719881   -5.9922867    98.382187   0.03904055  0.041498423            7 
  211000    1.1704489   -5.9752739    98.482343   0.03889508  0.041464812            4 
  212000    1.1610917   -5.9453219    98.862909  0.038861206   0.04142996            2 
  213000    1.1344653    -6.015168    99.137062  0.038786018  0.041393391            3 
  214000    1.1546696   -5.9788957    99.387027  0.038702113  0.041355733            5 
  215000    1.1623565   -5.9826889    100.09936  0.038798202  0.041319184            4 
  216000     1.163139   -6.0170537    100.56955  0.038799979  0.041281922            3 
  217000    1.1803309   -5.9742967    100.83167   0.03872184  0.041246952            3 
  218000    1.1748483   -5.9622756    101.63621  0.038851763  0.041212094            4 
  219000    1.1432806   -5.9907599     101.8745  0.038765031  0.041180629            3 
  220000    1.1627905    -5.999116    102.24312  0.038728455  0.041148005            3 
  221000      1.16798   -5.9765792    102.90138  0.038801426  0.041115712            3 
  222000     1.175303   -5.9892408    103.34388  0.038792747  0.041085774            4 
  223000    1.1793103   -5.9787764    103.85282  0.038808977  0.041056447            4 
  224000    1.1776802   -5.9590058     104.6074  0.038916442  0.041028257            2 
  225000    1.1666312   -6.0017752    104.93672  0.038865451   0.04100082            3 
  226000    1.1825501   -5.9543293    105.09708  0.038752612   0.04097385            4 
  227000    1.1587369   -6.0094142    105.51542  0.038735469  0.040947504            3 
  228000    1.1379876   -5.9597194    106.17699   0.03880738  0.040919117            3 
  229000    1.1786751   -5.9742158    106.63686  0.038805263  0.040891422            3 
  230000    1.1560741   -5.9943473    107.11491  0.038809749   0.04086243            5 
  231000    1.1543341   -5.9752374    107.12996  0.038647173  0.040834329            3 
  232000    1.1861731   -6.0058724    107.46784  0.038601955  0.040804697            2 
  233000    1.1700066   -5.9488181    108.08499  0.038657005  0.040775198            2 
  234000    1.1708214   -6.0007003     108.3776  0.038596011  0.040746526            2 
  235000    1.1768581   -5.9819325    108.63543  0.038523204  0.040716746            3 
  236000    1.1350548   -6.0136949    109.52687  0.038674741  0.040687402            2 
  237000    1.1756341    -5.970393       110.08  0.038706047  0.040659908            1 
  238000    1.1551371   -5.9516262    110.41153  0.038659499  0.040632831            3 
  239000    1.1569318   -5.9770516    110.64479  0.038579077  0.040606302            4 
  240000     1.174809   -6.0383266    111.07281  0.038566948  0.040580628            5 
  241000    1.1603248    -6.010298    111.56863  0.038578364  0.040556213            7 
  242000     1.147019   -6.0031273    112.58337  0.038768377  0.040533877           12 
  243000    1.1526951   -6.0063729    112.98603  0.038746925  0.040512088            3 
  244000    1.1573309   -5.9996382    113.00756  0.038595477  0.040490039            5 
  245000    1.1545605   -5.9906926    114.39004  0.038908178  0.040469365            4 
  246000    1.1554506   -5.9752544    114.74985    0.0388719  0.040450697            5 
  247000     1.166079   -6.0020266    115.06077  0.038819423  0.040431785            3 
  248000    1.1537466   -6.0038993    115.59647  0.038842901  0.040414393            7 
  249000    1.1669714   -6.0010049    116.53878  0.039002268  0.040398021            7 
  250000    1.1551603   -5.9975352    116.69721   0.03889907  0.040381675            5 
  251000    1.1717275   -5.9864845    117.10119  0.038878217  0.040365838            2 
  252000    1.1678093    -6.007487    117.85353  0.038972728  0.040349717            9 
  253000    1.1442981   -6.0313958    117.64462  0.038749874  0.040334229            5 
  254000    1.1160157   -6.0494504    118.24914  0.038795648  0.040318522            4 
  255000    1.1551092   -6.0108174    119.34981  0.039003205  0.040303088            4 
  256000    1.1554303   -5.9536253    119.64227  0.038946052  0.040290273            7 
  257000    1.1494026    -6.003563    120.30485  0.039009356  0.040279177            4 
  258000    1.1522066   -6.0349715      120.587  0.038949291   0.04026847            5 
  259000    1.1601513   -6.0201878     120.7509   0.03885164  0.040255473            3 
  260000    1.1407716   -6.0019533    121.51106  0.038945852  0.040242624            3 
  261000    1.1623776    -5.981938    122.09554  0.038983249  0.040230432            6 
  262000    1.1565056   -6.0020584    122.60817  0.038997511  0.040218463            4 
  263000    1.1321065   -6.0183946    122.60355  0.038847767  0.040206785            3 
  264000    1.1392519   -6.0201861     123.5055  0.038985322  0.040195514            6 
  265000    1.1337161   -6.0041265    123.74328  0.038912982  0.040184618            3 
  266000    1.1501083   -5.9756518    124.21765  0.038915305   0.04017311            2 
  267000    1.1586952    -6.030405    124.40229  0.038827183  0.040159986            4 
  268000     1.167103   -6.0020377     125.1809  0.038924408  0.040148862            3 
  269000    1.1467581   -6.0351674    124.99524  0.038722193  0.040137093           10 
  270000    1.1486731   -6.0249044    125.75401  0.038812966  0.040123484            3 
  271000    1.1535024   -6.0131349     126.4544  0.038885118   0.04010969            7 
  272000    1.1547445   -5.9881999    126.73537   0.03882824  0.040096917            5 
  273000    1.1469086   -6.0156401    127.15788  0.038814983  0.040082372            3 
  274000    1.1412578   -6.0530238    127.35882  0.038734435  0.040069232            3 
  275000    1.1525668   -6.0167647    128.17815  0.038841862  0.040056644            3 
  276000    1.1304175   -5.9943942    128.26961  0.038728747  0.040045306            2 
  277000    1.1037229   -6.0233768    129.30678  0.038900958  0.040032964            8 
  278000    1.1391651   -6.0014425    129.09121  0.038696405  0.040019752            3 
  279000    1.1441968   -6.0217802    129.61355  0.038713725   0.04000489            2 
  280000    1.1584607   -6.0208644    129.52569  0.038549313  0.039987832            3 
  281000    1.1332923   -6.0401629    130.10403   0.03858364  0.039970554            6 
  282000    1.1471912   -6.0121592    129.84156  0.038369256  0.039951225            7 
  283000    1.1540867   -6.0355405    130.62535  0.038464473  0.039931479            5 
  284000     1.143529    -6.006847    131.00516  0.038440482  0.039911804            3 
  285000     1.155248   -6.0401649    131.39544  0.038419719  0.039893054            3 
  286000    1.1584054    -6.006388    132.11716  0.038495676  0.039874453            2 
  287000    1.1375531   -6.0230906    132.21362  0.038389552  0.039855232            3 
  288000    1.1290276   -6.0069049    132.62382  0.038374947  0.039835352            2 
  289000    1.1420793    -6.028097     133.3049  0.038438553  0.039815926            4 
  290000    1.1452523   -6.0308475     133.6669   0.03841003  0.039797352            9 
  291000    1.1323867   -6.0681882    134.34653   0.03847266   0.03977879            7 
  292000    1.1505216   -6.0146054    135.10406  0.038557095  0.039761932            4 
  293000    1.1220691   -6.0041279    135.43917  0.038520811  0.039746851            4 
  294000    1.1310549   -6.0556059    135.23327  0.038331425   0.03972984            2 
  295000    1.1115414   -6.0716157    135.80777  0.038363778  0.039713542            3 
  296000    1.1339635   -6.0124385    137.01991  0.038575424  0.039697909            2 
  297000    1.1358075    -6.049379    137.23682  0.038506403  0.039683982            5 
  298000    1.1225587   -6.0629734    137.96584  0.038581052  0.039670689            2 
  299000    1.1387983   -6.0412703    138.27856  0.038539175  0.039657757            2 
  300000    1.1478297   -6.0552145    138.63773   0.03851048   0.03964452            2 
  301000    1.1454334   -6.0365159    139.19037   0.03853554  0.039632392            4 
  302000    1.1530963    -6.066073      139.327   0.03844564  0.039618745            5 
  303000    1.1203081   -6.0439018    139.32359   0.03831782  0.039603381            4 
  304000     1.117541   -6.0348486    139.97206  0.038369535  0.039588203            4 
  305000    1.1105304   -6.0348873    141.31142  0.038609678  0.039572876            6 
  306000    1.1229407   -6.0317574     140.2578  0.038196568  0.039557624            6 
  307000    1.1220723   -6.0566764    141.34722  0.038367866  0.039541669            7 
  308000    1.1279892   -6.0346618     142.2233  0.038480329  0.039527669            7 
  309000    1.1564941   -6.0662854    142.13474  0.038331914  0.039513004            4 
  310000    1.1404304    -6.030134    142.78249  0.038382389  0.039498155            7 
  311000    1.1384858   -6.0575849     143.2146   0.03837476  0.039483131            8 
  312000    1.1438663   -6.0061172    143.67601  0.038375003  0.039469183            5 
  313000    1.1357803   -6.0745894    143.96009  0.038328033  0.039453985            7 
  314000    1.1286897   -6.0299111    144.20415  0.038270741  0.039438888            5 
  315000    1.1225845   -6.0394564    144.93814  0.038343422  0.039423788            2 
  316000    1.1226869   -6.0300839    145.24801    0.0383038  0.039408187            5 
  317000    1.1468112   -6.0535752    144.92797  0.038098835  0.039392614            3 
  318000    1.1388023   -6.0647372    146.18629  0.038308777  0.039377199            3 
  319000    1.1370466   -6.0309946    146.37348  0.038237585  0.039363744            7 
  320000    1.1253309   -6.0142664     146.8474  0.038241511  0.039349464            5 
  321000     1.151227   -6.0480131    147.14064  0.038198504  0.039334639           14 
  322000    1.1253469   -6.0334836    147.19126  0.038092977  0.039320039            5 
  323000    1.1528166   -6.0522075    148.16399  0.038226004  0.039305282            4 
  324000    1.1045223   -6.0173245    148.80465  0.038272801  0.039290881            3 
  325000     1.147406   -6.0427766    148.85147  0.038167044  0.039276817            5 
  326000     1.137508   -6.0529048    149.09266  0.038111621  0.039262893            7 
  327000    1.1316055   -6.0635405    149.33079  0.038055757  0.039248054            3 
  328000    1.0972366   -6.0308793    150.54264  0.038247622  0.039233109            4 
  329000     1.124462   -6.0420177    150.90407  0.038222915  0.039218915            3 
  330000    1.0946607   -6.0365169    151.57695  0.038277008  0.039205642            5 
  331000    1.1232739    -6.057717    152.02061  0.038273065   0.03919329            6 
  332000     1.141486   -6.0565334    151.90156  0.038127902  0.039178635            3 
  333000      1.13857   -6.0600727     152.4227   0.03814382   0.03916353            6 
  334000    1.1344576   -6.0661684    152.86049  0.038138845  0.039149245            6 
  335000    1.1032528   -6.0359609    153.49257   0.03818223   0.03913521            4 
  336000    1.1399575    -6.050874    153.30741  0.038022672  0.039120539            4 
  337000    1.1218972   -6.0770013    154.07711  0.038100175  0.039105772            8 
  338000     1.102045   -6.0475024    154.59896  0.038116114  0.039091425            6 
  339000    1.1230905    -6.092514    155.27066  0.038168795  0.039077354            4 
  340000    1.1305015    -6.090295    155.04572  0.038001401  0.039064899            5 
  341000    1.1123258   -6.0526509    156.39663  0.038220096  0.039052932            7 
  342000    1.1195844   -6.0691193    156.70421  0.038183286  0.039040596            6 
  343000     1.129084   -6.0729472    156.62321  0.038052285  0.039027334            3 
  344000    1.1027197   -6.0799697    156.55278  0.037924608  0.039012698            7 
  345000    1.1189356   -6.0544082    157.41724  0.038023488  0.038998459            6 
  346000    1.1139787   -6.1009806    157.77181   0.03799899  0.038985816            3 
  347000    1.1166863   -6.0403997    158.68189  0.038108044  0.038974069            4 
  348000    1.1104005    -6.085774    159.00151  0.038075075  0.038962901            2 
  349000    1.0990978   -6.0723743    159.74561  0.038143651  0.038951842            6 
  350000    1.1143076   -6.0889323    160.72057  0.038266803  0.038941332            6 
  351000      1.10808   -6.0808508    161.01791  0.038228373  0.038931868            4 
  352000    1.0933426   -6.0374759     161.7253  0.038287241  0.038921723            2 
  353000    1.1104845   -6.0836331     161.4476   0.03811322  0.038910789            5 
  354000    1.1012055   -6.0665048    161.67246  0.038058489  0.038899322            5 
  355000    1.1028565   -6.0614645    161.96881  0.038020846  0.038887436            2 
  356000    1.1260679   -6.0470557    162.49564  0.038037369  0.038874994            6 
  357000    1.1297487   -6.0958598     163.4204  0.038146686    0.0388638            5 
  358000    1.0893754    -6.057371    163.74091  0.038114736  0.038852395            5 
  359000    1.1326341   -6.0893231    164.08106  0.038087527  0.038841312            7 
  360000    1.1439204   -6.0654292      164.678  0.038119906  0.038829578            5 
  361000    1.0934561   -6.0832244    165.07538  0.038106042  0.038818535            9 
  362000     1.107322   -6.0627502    165.59622  0.038120678  0.038808878            5 
  363000    1.0662924   -6.0858741    165.62358  0.038021942   0.03879798            6 
  364000    1.1070254   -6.0839243    165.99959   0.03800357  0.038786134            6 
  365000    1.1021085   -6.0627721    166.72644  0.038065398  0.038774724            7 
  366000    1.0889316   -6.0819609    167.15948  0.038059991  0.038763149            2 
  367000    1.1317925   -6.1084034    167.48697  0.038030646  0.038750876            4 
  368000    1.0868827   -6.0709435    167.75172  0.037987255  0.038737856           12 
  369000    1.0957694   -6.0866041    167.78809  0.037892522  0.038726824            3 
  370000    1.1095691   -6.0559875    168.89118  0.038038553  0.038715667            4 
  371000    1.0823614   -6.0908434    169.08287  0.037979082  0.038704397            3 
  372000    1.0825403    -6.099131    168.88119  0.037831809  0.038693669            4 
  373000    1.1274486   -6.0898114    170.22909  0.038031522  0.038682776            3 
  374000    1.1180428   -6.0874927    169.86937  0.037849681    0.0386717            5 
  375000     1.091679   -6.0800285     171.0396  0.038008799  0.038660636            9 
  376000    1.0897387   -6.0596507    171.31442   0.03796862  0.038649392            4 
  377000    1.1117623   -6.0740283    170.86712  0.037769037  0.038638346            3 
  378000    1.1052733    -6.072824     172.0752   0.03793545  0.038626559            3 
  379000    1.1006864   -6.0949361    172.12705  0.037846756  0.038614896            5 
  380000    1.0827438   -6.0380207    172.92989  0.037923222  0.038603703            3 
  381000     1.096639   -6.1038622    172.80118  0.037795533  0.038592861            5 
  382000    1.0920747   -6.0566334    173.45598  0.037839437  0.038581265            6 
  383000    1.1000868   -6.0815601    174.06031   0.03787213  0.038569799            4 
  384000    1.1084232   -6.0638674    173.96593  0.037753023  0.038558148            3 
  385000    1.0922303   -6.0839426    173.90813  0.037642452  0.038545445            3 
  386000    1.1119031   -6.1055229    174.57776  0.037689499   0.03853383            6 
  387000    1.0897352   -6.1091952    175.15532  0.037716477  0.038521962            7 
  388000    1.0969335   -6.0870425    175.72861    0.0377424  0.038509094            5 
  389000    1.0816155   -6.1040506    176.62845  0.037838144  0.038497329            5 
  390000    1.0924175   -6.1029618     176.7169   0.03776002  0.038486053            4 
  391000    1.1187092    -6.137235    176.69226  0.037658197  0.038473748            5 
  392000    1.0893814   -6.0942984    177.08177  0.037644934  0.038461638            6 
  393000    1.1040102   -6.1067908     177.9907  0.037741879  0.038449824            9 
  394000    1.1144054    -6.064823    178.84111  0.037825954  0.038438787            4 
  395000    1.1071248   -6.1177927    178.89428  0.037741409  0.038427642            5 
  396000    1.1061916     -6.15203    178.55718  0.037575165  0.038415345            8 
  397000    1.1100984    -6.092579     179.3588  0.037648783  0.038402805            5 
  398000    1.1235091   -6.0949925    179.06022  0.037491671   0.03838944            4 
  399000    1.0681798    -6.114621    179.88164  0.037569266    0.0383761            7 
  400000     1.090441   -6.0946722    179.89556  0.037478242  0.038361924            2 
  401000    1.0801864   -6.0926922    180.00174  0.037406846  0.038347781            7 
  402000    1.0886503   -6.1014236    181.07225  0.037535706  0.038333327            9 
  403000    1.1002817    -6.091739    181.40236  0.037510826   0.03831905            4 
  404000    1.1022226   -6.0980349    182.09672  0.037561204  0.038305553            4 
  405000    1.0840303    -6.128216    181.92591  0.037433314  0.038292505            3 
  406000    1.0895247   -6.1139228    182.35879  0.037429964  0.038278943            7 
  407000    1.0978413   -6.1223293     181.9271   0.03724961  0.038264157            6 
  408000    1.1027336   -6.1185699    183.29227  0.037437146  0.038248844            4 
  409000    1.0580917   -6.1138906    183.25889  0.037338813  0.038234271            5 
  410000    1.1265594   -6.1489215    183.24124  0.037244154  0.038218638            3 
  411000     1.113704   -6.1177391     183.7791  0.037262592  0.038203096            7 
  412000    1.1106692   -6.1164154    184.21622  0.037260563  0.038188192           12 
  413000    1.0932693   -6.1111031    184.66896  0.037261695  0.038173159            7 
  414000    1.0781195   -6.1264474    184.91251  0.037220715   0.03815658           10 
  415000    1.0921264   -6.0925388    185.47012  0.037242997  0.038140826            6 
  416000    1.1044107   -6.0929344    185.54416  0.037168301  0.038125043            3 
  417000    1.0974681   -6.1304384    185.92814  0.037155903  0.038109702            2 
  418000    1.0701062    -6.095486    186.62117  0.037205178  0.038094228            8 
  419000    1.0598169    -6.108093     187.2195  0.037235381  0.038078594            3 
  420000    1.0851669   -6.1200767    187.05332  0.037113755  0.038061936            4 
  421000    1.1078945    -6.090951    186.91809   0.03699883  0.038044772            4 
  422000    1.0754456    -6.090722    187.94925   0.03711478  0.038027909            3 
  423000     1.076313   -6.1109248     188.2523  0.037086741  0.038011557            3 
  424000    1.1066549   -6.1254623    188.38661   0.03702567  0.037994993            5 
  425000    1.0645834   -6.1157541    188.10844  0.036884009  0.037977551            5 
  426000    1.1069551   -6.1080174    188.79036  0.036930822   0.03795897           10 
  427000    1.0720801   -6.1079535    189.39328  0.036961998  0.037941225            5 
  428000    1.0802231   -6.1198933    189.06914  0.036812528  0.037924218            4 
  429000    1.0756321   -6.1216916    190.14237  0.036935191  0.037906585            2 
  430000    1.0533108   -6.1307463    190.12995  0.036846889  0.037888909            5 
  431000    1.0772167   -6.1228907    190.46962  0.036827073  0.037870872            6 
  432000    1.0802028   -6.1082297    190.64962  0.036776547  0.037852431            3 
  433000    1.0739751   -6.1179731    191.65496  0.036885096  0.037834243            4 
  434000    1.0957334   -6.1356529    191.62706   0.03679475  0.037816273            6 
  435000    1.0608215   -6.1273962    191.63601  0.036711879  0.037798973            5 
  436000    1.0452147   -6.0941553    192.61655  0.036815089  0.037781182            4 
  437000    1.1158235   -6.1428962    192.66404    0.0367399   0.03776327            4 
  438000    1.0821613   -6.1289453    193.23772  0.036765167  0.037744881            3 
  439000    1.0622976   -6.1414725    193.44804  0.036721345  0.037725785            4 
  440000     1.073879   -6.1235034    193.55638  0.036658404  0.037707233            6 
  441000    1.0561001   -6.1467634     193.6985  0.036602135  0.037688386            3 
  442000     1.078878     -6.14475     194.5086  0.036672058   0.03767014            6 
  443000    1.0796147   -6.1021635    194.67542  0.036620659  0.037651864            5 
  444000    1.0892503   -6.1140314     195.2991  0.036655236  0.037634228            7 
  445000    1.0900262   -6.1507649    195.42583  0.036596597  0.037616463            4 
  446000    1.0855886   -6.1059139    196.62883  0.036739319  0.037599358            5 
  447000    1.0832899   -6.1769208    196.86533  0.036701217  0.037582629            5 
  448000    1.0771018   -6.1599812    196.85093  0.036616616  0.037565755            5 
  449000    1.0838739   -6.0969182    197.85723  0.036721831  0.037548646           10 
  450000    1.0856073   -6.1201225    197.32436  0.036541548  0.037530795            6 
  451000    1.0988403   -6.1297469    197.53583  0.036499599  0.037512449            7 
  452000    1.0859391   -6.1303923    198.23733   0.03654818  0.037494085            4 
  453000     1.077634   -6.1688387    198.54428  0.036523966  0.037476505            6 
  454000    1.0660832   -6.1772724     199.0566  0.036537555  0.037458739            4 
  455000    1.0567468   -6.1298344    199.31772  0.036505077  0.037440687            8 
  456000    1.0688203   -6.1339841    199.61457   0.03647927  0.037422815            4 
  457000    1.0650083   -6.1410989    199.44068  0.036367738  0.037404364            5 
  458000    1.0628402   -6.1432186    200.23604  0.036433049  0.037386777            8 
  459000    1.0687524   -6.1462297    201.09742  0.036510061  0.037370347            6 
  460000    1.0827221   -6.1605941    201.29886  0.036467185  0.037354615           10 
  461000    1.0608626   -6.1717821    201.76991   0.03647323  0.037337736            2 
  462000     1.052303    -6.126282    201.92981  0.036423125  0.037320732           12 
  463000    1.0859235   -6.1476298    202.44076  0.036436421  0.037303918            6 
  464000    1.0743353   -6.1345519    202.96839  0.036452657  0.037287515            6 
  465000    1.0768392   -6.1184679    203.98216  0.036555942   0.03727128            3 
  466000    1.0749979   -6.1615532    204.04759  0.036489197  0.037255969            7 
  467000    1.0543167   -6.1749922    204.76323  0.036538763  0.037241066            5 
  468000    1.0710262   -6.1438211    205.13197  0.036526348  0.037226797            7 
  469000    1.0590089     -6.15521    205.63706  0.036538213  0.037212771            6 
  470000    1.0592205   -6.1535759    206.03016  0.036530171   0.03719803            5 
  471000    1.0844562    -6.132181    205.93549  0.036435862  0.037182851            4 
  472000    1.0885456   -6.1547489    205.70742  0.036318401    0.0371666            4 
  473000    1.0697865   -6.1635813    206.46688   0.03637542  0.037150728            8 
  474000    1.0559632   -6.1065135    206.79439  0.036356258  0.037135304            3 
  475000    1.0523668   -6.1160722    207.35493  0.036378058  0.037119202            9 
  476000    1.0637022   -6.1630732    206.94073  0.036229119  0.037103118            4 
  477000    1.0912859   -6.1535153     207.0221  0.036167384  0.037086989            3 
  478000    1.0641884   -6.1502729     207.7925  0.036226029  0.037070399            2 
  479000    1.0805272   -6.1498663    208.50903  0.036275057   0.03705341           16 
  480000    1.0658222    -6.158749    209.20723    0.0363207  0.037036979            6 
  481000    1.0697586   -6.1332667    209.43421  0.036284514  0.037020584            6 
  482000    1.0571997   -6.1956624    209.57595   0.03623374   0.03700432            4 
  483000     1.063401   -6.1543121    209.81721  0.036200347  0.036988614           10 
  484000    1.0643072   -6.1886912    209.55522  0.036080443  0.036971993            7 
  485000    1.0538915   -6.1659111    210.33076  0.036139307  0.036955307            8 
  486000    1.0376168   -6.1501157     210.4027   0.03607728  0.036938938            7 
  487000    1.0802179   -6.1427865     210.9664  0.036099658  0.036921995            7 
  488000    1.0670022    -6.158414    211.23275  0.036071166  0.036904883            6 
  489000    1.0575874   -6.1678963    211.36552  0.036020028  0.036887913            6 
  490000    1.0523075   -6.1636052    212.21519  0.036091019  0.036871449            6 
  491000    1.0694895    -6.151026    211.94068  0.035970922  0.036854377            5 
  492000    1.0730698    -6.203987    212.07357   0.03592032  0.036836382            5 
  493000    1.0436216   -6.1856441    212.62551  0.035940755  0.036818864            3 
  494000    1.0514286   -6.1323054    213.19959  0.035964843  0.036801109            7 
  495000    1.0674679   -6.1337658     213.1395   0.03588207  0.036783728            8 
  496000    1.0310569   -6.1737754    213.31778  0.035839681  0.036765678            3 
  497000    1.0503704   -6.1663847    213.24098  0.035754691  0.036747389            4 
  498000    1.0732336   -6.1532386    213.66343  0.035753586  0.036728682           11 
  499000    1.0382066   -6.1971386    213.96237  0.035731859  0.036708981            5 
  500000    1.0626925   -6.1844339    213.83826  0.035639711  0.036689095            8 
  501000    1.0615187   -6.1905739    214.79842  0.035728281  0.036669193            4 
  502000    1.0719522    -6.173671    214.77822  0.035653754  0.036649023           13 
  503000    1.0782809   -6.1721385    214.55324    0.0355456     0.036629           13 
  504000     1.077656   -6.1234594    214.69559  0.035498609  0.036608938            4 
  505000    1.0403344   -6.1672035    215.25071  0.035519919  0.036588781            5 
  506000    1.0504097   -6.1721759    215.98562  0.035570754  0.036568277            4 
  507000    1.0639661   -6.1646775    215.70677  0.035454762  0.036547496            5 
  508000    1.0805221   -6.2186097    215.86673  0.035411209  0.036526046            5 
  509000     1.034025   -6.1967082    216.09857  0.035379595  0.036505044            7 
  510000    1.0554729    -6.187758    216.76732  0.035419496  0.036484245           10 
  511000    1.0328051   -6.1967718    216.50481  0.035307373  0.036463316            4 
  512000     1.071824   -6.1452861    217.52155  0.035403897  0.036442022            9 
  513000    1.0541002   -6.1919598    216.58839  0.035183299   0.03642025            6 
  514000    1.0479023   -6.1729235    217.38074   0.03524331  0.036398045            7 
  515000    1.0644849   -6.2356473    217.40509  0.035178816  0.036376224            8 
  516000    1.0445101   -6.1827105    218.54112  0.035294108  0.036354629            8 
  517000    1.0581253   -6.1873386    218.89176   0.03528236  0.036333044            3 
  518000    1.0490972   -6.1739637    218.78039   0.03519633  0.036312083            7 
  519000    1.0429907   -6.1769102    218.98969  0.035162122  0.036290739            4 
  520000    1.0283146   -6.1912942    218.72635    0.0350523  0.036268983            7 
  521000    1.0289994   -6.1914837    218.70507  0.034981617  0.036246902            6 
  522000    1.0505834   -6.2153644    219.87145  0.035100806  0.036224627            6 
  523000    1.0633926   -6.2359936    219.29416  0.034941707  0.036202057           14 
  524000    1.0334807   -6.1877673    220.49756  0.035066406  0.036179312            7 
  525000    1.0254194   -6.1688851    220.50907  0.035001439  0.036157274            3 
  526000    1.0443575   -6.1879992    221.16545  0.035038886  0.036135005            3 
  527000     1.063392   -6.1901676    220.89582  0.034929763  0.036112635            4 
  528000     1.031855   -6.2175221    221.84019  0.035012657  0.036090576           18 
  529000    1.0518718   -6.1823252    220.98711  0.034812084  0.036068238            5 
  530000    1.0389648   -6.2063024    221.04071  0.034754829   0.03604589            2 
  531000    1.0375308   -6.2383054    222.05398  0.034848396  0.036023289           10 
  532000    1.0432071   -6.1580403    222.13061  0.034794894   0.03600068            6 
  533000    1.0091402   -6.2001555    222.33388  0.034761395   0.03597793            5 
  534000    1.0436629   -6.2254269    222.24749  0.034682817  0.035954751            5 
  535000    1.0219202   -6.1881791    223.83529   0.03486531  0.035931583            3 
  536000    1.0251792   -6.1843224    223.56678  0.034758517  0.035908853            5 
  537000    1.0359305   -6.2211654    223.81768  0.034732726  0.035886296            4 
  538000    1.0344729   -6.2248248    223.21949   0.03457551  0.035863373            6 
  539000    1.0233809    -6.209615    224.79881  0.034755537  0.035840647            5 
  540000    1.0449287   -6.1736489     224.7305  0.034680632  0.035818849            5 
  541000      1.01497   -6.1893848    225.13687  0.034679123  0.035796465           12 
  542000    1.0362888   -6.1993305    225.32487  0.034644045  0.035774161            7 
  543000    1.0344319   -6.2238363    226.36407  0.034739728  0.035752087            3 
  544000    1.0441861   -6.2177201    225.56806   0.03455393   0.03573006            5 
  545000    1.0429254   -6.2460948    225.47574  0.034476413  0.035707659            5 
  546000    1.0253872   -6.2141783    226.75284  0.034608187  0.035685253            4 
  547000    1.0248009   -6.2119482    226.81525  0.034554425  0.035662424            5 
  548000    1.0394207   -6.2232996    226.74268  0.034480334  0.035640108            5 
  549000    1.0246004   -6.2115726    226.53002  0.034385249  0.035617204            7 
  550000     1.014468   -6.2226494    226.84966  0.034371161  0.035594882            5 
  551000    1.0622049   -6.2249782    227.76338  0.034446972  0.035572308            5 
  552000    1.0272034   -6.2224725    228.19697  0.034450025  0.035549845           10 
  553000    1.0275596   -6.2257569    228.69101  0.034462177  0.035527433            6 
  554000    1.0026298   -6.2070433    229.29023  0.034490106  0.035504987            5 
  555000    1.0305449   -6.2068308    228.68993  0.034337827   0.03548256           10 
  556000    1.0450106   -6.1971379    229.41239  0.034384351  0.035460609            7 
  557000    1.0102182   -6.2408996    229.87394  0.034391673  0.035438543            3 
  558000    1.0425847   -6.2077286    230.22592  0.034382604  0.035416806            4 
  559000    1.0228021   -6.2128885    230.59954  0.034376795  0.035395273           10 
  560000    1.0364084   -6.2396247    229.87478  0.034207556  0.035373577            7 
  561000   0.99894871   -6.2328034    231.06084  0.034322763  0.035351206            6 
  562000    1.0256092   -6.2115743    231.28171  0.034294442  0.035328972            3 
  563000    1.0488758    -6.198846    231.94605  0.034331861  0.035307238            6 
  564000    1.0353453   -6.2135166    231.41024  0.034191821  0.035285664            5 
  565000    1.0551697   -6.2014462    232.61213  0.034308573  0.035264126            3 
  566000    1.0229824   -6.1865299     233.1389  0.034325515  0.035242808            5 
  567000    1.0333866   -6.1962044    232.63441   0.03419083    0.0352213            8 
  568000    1.0371843   -6.2175431    232.76489  0.034149779   0.03519961           10 
  569000    1.0139026   -6.1953009    233.39099  0.034181457  0.035177582           14 
  570000    1.0577504   -6.2310736    233.81315   0.03418321  0.035155173           13 
  571000    1.0271583   -6.2137102    233.50023  0.034077675  0.035132623            5 
  572000    1.0295046   -6.2471428    232.83407  0.033921047  0.035109816            6 
  573000    1.0218499   -6.2222585     234.4948  0.034103374  0.035086968            7 
  574000    1.0264982   -6.2370869    233.68432  0.033926295  0.035063739            4 
  575000    1.0374247   -6.2385293    233.61443  0.033857163  0.035039629            3 
  576000    1.0229863   -6.1946734    233.96393  0.033848948  0.035015533            7 
  577000    1.0231804   -6.2403891    234.28231  0.033836266  0.034991673            6 
  578000    1.0467601   -6.2082885     234.3148  0.033782411  0.034967681            6 
  579000    1.0366732   -6.2277232    234.65307   0.03377275  0.034944156            4 
  580000    1.0257011   -6.2429562    234.93057  0.033754392  0.034920321            3 
  581000    1.0163509   -6.2446495    234.73503  0.033668248  0.034896535            3 
  582000     1.046807   -6.2231809    235.63967   0.03373993    0.0348731            7 
  583000    1.0202737   -6.2728982    235.93748  0.033724625  0.034849787            4 
  584000    1.0168394   -6.2272376    236.30747  0.033719673   0.03482616            3 
  585000    1.0112191   -6.2248433    236.89596  0.033745864  0.034802594            4 
  586000    1.0038596   -6.2421285    236.53369   0.03363676   0.03477929            8 
  587000    1.0154585   -6.2221295    238.04718  0.033794319  0.034756044            4 
  588000    1.0210917   -6.2205147    237.36768  0.033640544  0.034732842            4 
  589000    1.0386309   -6.2591481    237.68312  0.033628059  0.034709623           12 
  590000    1.0100008   -6.2363066    238.46893  0.033682052  0.034687007            7 
  591000    1.0273638   -6.2549932    238.34837  0.033608062  0.034664946            9 
  592000    1.0371505    -6.217046     238.4538  0.033566131  0.034642493           15 
  593000     1.026367   -6.2405732    239.01907  0.033588965  0.034619708            8 
  594000     1.015043   -6.2444966    239.78369  0.033639687  0.034596943            5 
  595000    1.0372262   -6.2631963    239.76709  0.033580825  0.034574446           12 
  596000    1.0056346   -6.2627166    240.11443  0.033573046  0.034552241            4 
  597000   0.99888229   -6.2412534    240.51421  0.033572614  0.034530132            5 
  598000    1.0231356   -6.2345514    241.05107  0.033591286  0.034508636            6 
  599000    1.0179517   -6.2130568    241.71096  0.033627011  0.034487036            7 
  600000     1.016931     -6.24738    241.85594  0.033591103  0.034465678            4 
  601000    1.0200392   -6.2572234    241.55654  0.033493697  0.034444072            5 
  602000    1.0161489   -6.2387998    241.52139  0.033433193  0.034422133            6 
  603000    1.0015116   -6.2498538    242.28571  0.033483376  0.034400335            3 
  604000    1.0219696   -6.2015675    242.78192  0.033496402  0.034378777            9 
  605000    1.0219453   -6.2394531    242.81535  0.033445641  0.034357255            7 
  606000    1.0193312   -6.2188078    242.74973  0.033381426   0.03433565            6 
  607000    1.0330576   -6.2211778    243.87682  0.033481167  0.034313575           10 
  608000    1.0299401   -6.2664334    243.26497  0.033342239  0.034291168            5 
  609000    1.0016363   -6.2211178    243.21349  0.033280444  0.034268885            6 
  610000    1.0218857   -6.2551458    243.66411  0.033287446  0.034246556            7 
  611000    1.0151088   -6.2644236    243.50794  0.033211667   0.03422406            5 
  612000    1.0143925   -6.2116439    244.13705  0.033243063  0.034201433            9 
  613000    1.0082714   -6.2571021    243.56701  0.033111339  0.034178464            8 
  614000   0.98941649   -6.2554993    244.11916   0.03313235  0.034155042            7 
  615000    1.0133174   -6.2682781    243.81271  0.033036953  0.034131924            3 
  616000    1.0031323   -6.2689893    244.31775  0.033051644  0.034108895            4 
  617000    1.0057947   -6.2584226    245.59636  0.033170767  0.034085852            8 
  618000    1.0190341   -6.2712703    245.76775  0.033140204  0.034063151            4 
  619000    1.0180192   -6.2868038     245.0134   0.03298511  0.034040124            6 
  620000    1.0039755   -6.2467249    246.42014  0.033120986  0.034016954            6 
  621000    1.0157806   -6.2466553      246.421  0.033067767  0.033994262            4 
  622000   0.98518135   -6.2394193    247.12015  0.033108273  0.033971873            4 
  623000   0.99609609   -6.2563794    247.00886  0.033040244  0.033949849            8 
  624000     0.994459   -6.2720633    247.40533  0.033040241  0.033927573            4 
  625000     1.008583   -6.2463422    248.07081  0.033076108  0.033905609            5 
  626000    1.0285301   -6.2924871    247.17274   0.03290372  0.033883287           17 
  627000    1.0183843   -6.2471829    248.59927  0.033040839  0.033861108            8 
  628000   0.99818993   -6.2798963       248.66  0.032996285  0.033839009            6 
  629000   0.99484995   -6.2801945    249.05398  0.032996023  0.033816738            6 
  630000   0.99899013   -6.2708439    248.68054  0.032894252  0.033794299           13 
  631000    1.0191464     -6.24795      248.908  0.032872161  0.033772156            6 
  632000   0.98020704   -6.2813431    249.35245  0.032878751  0.033750186           10 
  633000    1.0146311   -6.2639297    249.59345  0.032858538  0.033727851           13 
  634000    1.0133905   -6.2403475    249.78658  0.032832096   0.03370579            8 
  635000    1.0023236   -6.2947615    250.14319   0.03282719  0.033683977           20 
  636000   0.99636613   -6.2594156    251.24821  0.032920363  0.033662424           19 
  637000   0.98645484   -6.2716722    250.59492  0.032783219   0.03364096            6 
  638000    1.0017522   -6.2384697    250.75694  0.032752997  0.033619205            4 
  639000   0.99881873   -6.3157322    250.51038  0.032669585  0.033597667           12 
  640000   0.99772301   -6.2807674    251.55107  0.032754045  0.033575641           12 
  641000   0.98348795    -6.277137    251.48696  0.032694613  0.033553883            7 
  642000   0.99638193   -6.2777755    251.95278  0.032704151  0.033532063            6 
  643000    1.0078772   -6.2657937    252.34678  0.032704351  0.033510429            5 
  644000   0.98307051   -6.2727519    252.68815  0.032697742  0.033489218            5 
  645000     1.000495   -6.2810079    253.48447  0.032749932  0.033467893           15 
  646000   0.98956072   -6.2805384    253.17995  0.032659952  0.033446808            7 
  647000   0.97136204    -6.277526    253.19173   0.03261099   0.03342608            5 
  648000   0.99985169   -6.2758476    253.96961    0.0326607  0.033405318            7 
  649000    1.0069414   -6.2873902     255.0637   0.03275086  0.033385025            8 
  650000   0.97558458   -6.2854336    255.39207  0.032742572  0.033364726            7 
  651000    1.0029112   -6.3009999    255.24225  0.032673099  0.033344566            7 
  652000    0.9905895   -6.2984289    255.57484  0.032665496  0.033324536           16 
  653000   0.99758727   -6.2577967    255.47375  0.032602571  0.033304184           13 
  654000   0.98027441    -6.253256    255.68531  0.032579677  0.033283288            9 
  655000    1.0070277   -6.2661569    255.49958  0.032506308  0.033262835            4 
  656000    0.9878933    -6.283295     255.9052  0.032508282  0.033242325            6 
  657000    1.0001151    -6.283165    256.64337  0.032552432  0.033221845            3 
  658000    1.0114077   -6.2892592    255.01661  0.032296936  0.033200883            6 
  659000    1.0010508   -6.2880853    256.02741  0.032375747  0.033179449           13 
  660000   0.99915705    -6.279306    256.17763  0.032345661  0.033158329            5 
  661000   0.98596607    -6.284833    257.04037  0.032405492  0.033137144            7 
  662000   0.99600656   -6.2314365    257.35337  0.032395942  0.033116145           15 
  663000   0.99750071   -6.2934503    257.81742  0.032405407  0.033095113            9 
  664000    0.9746543   -6.2857265    257.44917  0.032310388  0.033073759           10 
  665000   0.97685927   -6.2822126    257.69071  0.032292069  0.033052649            7 
  666000   0.97331898   -6.2951787    257.74155  0.032249944  0.033031339            4 
  667000   0.98444688   -6.3164401    258.12143  0.032249054  0.033010164            6 
  668000   0.98642919    -6.315244    258.66923  0.032269116  0.032989197            6 
  669000   0.99280749   -6.3056145     258.9946   0.03226141  0.032968659            5 
  670000   0.97161731   -6.3088774    259.38296  0.032261562  0.032947803           11 
  671000   0.98038239   -6.2859633    258.80319  0.032141479  0.032927051            9 
  672000   0.98419536   -6.2807104    259.88587  0.032227911  0.032906069            7 
  673000    0.9805083   -6.2748529    260.47691  0.032253209  0.032885236            6 
  674000   0.98351646   -6.2943094    260.49118  0.032207119  0.032864441            6 
  675000   0.98518458   -6.2960137    260.65292  0.032179372  0.032843328            7 
  676000   0.97631691   -6.2966461    260.68269   0.03213544  0.032822637            4 
  677000   0.98843421   -6.3252488    260.73988  0.032095012   0.03280173           12 
  678000   0.95241011   -6.2838477    260.50421  0.032018708  0.032780417           10 
  679000    1.0097958   -6.3106224    260.97451  0.032029272   0.03275908           11 
  680000   0.98664721   -6.3007785    261.97046  0.032104223   0.03273806            6 
  681000    1.0019636   -6.3426902     261.0676  0.031946599  0.032716973            7 
  682000   0.95918463   -6.3325989    261.74436  0.031982448  0.032696004            6 
  683000    1.0080234   -6.3063772    261.81881  0.031944705  0.032674601            9 
  684000   0.97907189   -6.3238237    261.77304  0.031892427  0.032653169            7 
  685000   0.96453978   -6.2956482    261.83788  0.031853756  0.032631753           12 
  686000   0.98096547   -6.3100023    261.73357  0.031794651  0.032610004            7 
  687000   0.98278423   -6.3293964     261.6721  0.031740915  0.032587986            8 
  688000   0.96785065   -6.2924143    262.19089  0.031757618  0.032565888            8 
  689000   0.98919693   -6.3251701    262.33684  0.031729177  0.032543798           11 
  690000    0.9919164   -6.3070216    262.85708  0.031746024    0.0325219            6 
  691000   0.99430339   -6.2838334    263.97679  0.031835117  0.032500646            4 
  692000   0.96461653   -6.2909504     263.7699  0.031764198  0.032479323            6 
  693000    1.0036777   -6.3516587    263.75649   0.03171675  0.032457821           10 
  694000   0.97688187   -6.3078695    263.54788  0.031645999  0.032436424           10 
  695000   0.98665828    -6.294995    264.85246  0.031756889  0.032415085            7 
  696000   0.98459584   -6.3306494    264.46623  0.031665018  0.032393648            8 
  697000   0.97097643   -6.3415849    264.39062  0.031610548  0.032372599           25 
  698000   0.97552685    -6.284456    265.35972   0.03168096  0.032351464            7 
  699000   0.95720444   -6.3235172    265.71229  0.031677669  0.032330302            7 
  700000   0.96953878   -6.3127147    265.71934  0.031633255  0.032309078            4 
  701000   0.95859381   -6.3471339    265.68101  0.031583572  0.032287936            5 
  702000   0.98068956   -6.2874427    265.89042   0.03156344  0.032266479            6 
  703000    0.9832781   -6.3285635    265.74969   0.03150186   0.03224525            7 
  704000    0.9779733   -6.3333817     266.2835  0.031520301  0.032224144           12 
  705000   0.95558161   -6.3471453    266.77173  0.031533302  0.032202632            5 
  706000   0.96054713   -6.3004853    267.05637  0.031522234  0.032181519            5 
  707000   0.97243237   -6.3440506    266.82467  0.031450338  0.032160662            8 
  708000   0.94161586   -6.3103648    268.09687  0.031555658  0.032140116            9 
  709000   0.97206545   -6.3218306     268.0334  0.031503691  0.032119604            7 
  710000   0.95613898   -6.3390664      267.968  0.031451643  0.032099055           11 
  711000    0.9688999   -6.3402317    267.24608  0.031322794  0.032078143            8 
  712000   0.99598715    -6.344235    268.26963  0.031398599  0.032057112            5 
  713000   0.97164401   -6.3389449    269.05463   0.03144631  0.032036201           15 
  714000   0.97543381   -6.3317647     269.0034  0.031396289  0.032015195            5 
  715000   0.96869776   -6.3190658    269.18573  0.031373628  0.031994328           13 
  716000   0.97948626   -6.3563685    269.44986  0.031360551  0.031973487            8 
  717000   0.96953521   -6.3098995    269.40191   0.03131124  0.031952433            4 
  718000   0.95454306   -6.3456528    268.45864  0.031158152  0.031931162            4 
  719000   0.98298848   -6.3346673    269.90981   0.03128301   0.03190987            4 
  720000   0.99091427   -6.3610024    270.01272  0.031251473    0.0318886            4 
  721000    0.9735901   -6.3537974    269.62284  0.031163065  0.031867138            6 
  722000   0.98188569   -6.3182138    270.52611  0.031224158  0.031845841            4 
  723000   0.94602019   -6.3341452    270.10637  0.031132592  0.031824449            9 
  724000   0.96742306    -6.296436    271.22009  0.031217782  0.031803378            5 
  725000   0.98374148   -6.3345576     270.2221  0.031060011  0.031782276            9 
  726000   0.96162589   -6.3438822     270.6891  0.031070834  0.031760881           12 
  727000   0.96512282   -6.3358219    271.41995   0.03111187  0.031739526           11 
  728000   0.95550667    -6.349941    271.39723  0.031066533  0.031718357            8 
  729000   0.96430715   -6.3608748    271.79234  0.031069083  0.031697223            7 
  730000   0.95940591   -6.3186323    272.54526  0.031112473  0.031676165            8 
  731000   0.98900142   -6.3136307    272.15078  0.031024941  0.031655154           10 
  732000    0.9593241   -6.3580731    272.05203  0.030971315  0.031634117            8 
  733000   0.96574684   -6.3468533    272.65628  0.030997758   0.03161333            7 
  734000   0.96106862   -6.3255985    273.65505   0.03106892  0.031593016            6 
  735000   0.96287951   -6.3271636     273.1644   0.03097102  0.031572398            4 
  736000   0.95619965   -6.3389544    273.42997  0.030959009  0.031551927            6 
  737000   0.94917175   -6.3302726    274.60286  0.031049623  0.031531381           12 
  738000   0.96241744    -6.335879    273.81432  0.030918509  0.031510748            6 
  739000   0.94488466   -6.3708979    274.03188  0.030901204  0.031490135            9 
  740000   0.94887328   -6.3305786    274.30285  0.030889961  0.031469629            6 
  741000   0.96169029   -6.3434982    274.97516  0.030923883   0.03144911           17 
  742000   0.94585888   -6.3276756    274.78521  0.030860872  0.031428411            9 
  743000   0.99193278   -6.3395537    274.77341  0.030818014  0.031407516            4 
  744000   0.95667799   -6.3475091    274.25625  0.030718666  0.031386639           14 
  745000   0.95126049   -6.3651222    275.30753  0.030795025  0.031365582           21 
  746000   0.97180119    -6.344947    275.48655  0.030773744  0.031344538            8 
  747000   0.94304326   -6.3519324    274.77111  0.030652735   0.03132355            7 
  748000   0.98925832   -6.3697892    274.88177  0.030624083  0.031302211           17 
  749000   0.95545828   -6.3477417    275.46368  0.030647939  0.031280751            8 
  750000   0.95914239   -6.3671776    275.28741   0.03058749  0.031259292           25 
  751000   0.96901449   -6.4057284    274.91431  0.030505361  0.031237503           13 
  752000   0.95675157   -6.3558626    275.20763  0.030497299  0.031215694           12 
  753000    0.9502249   -6.3594528     276.1277  0.030558621  0.031194083           13 
  754000   0.94966143   -6.3667435    276.05165  0.030509688  0.031172347            6 
  755000   0.95263231   -6.3543851    276.25346  0.030491552  0.031150679            9 
  756000    0.9398245   -6.3509526    275.88134    0.0304102  0.031128739            8 
  757000   0.95011839   -6.3882252    276.16677   0.03040145  0.031106986           20 
  758000   0.94007714   -6.3565638    275.91867  0.030334067  0.031084931            8 
  759000   0.95235596   -6.3782266    275.42161  0.030239527  0.031062725            7 
  760000   0.92211384    -6.308495    276.85744  0.030357175  0.031040857            8 
  761000   0.96912819   -6.3480931     277.3864  0.030375208  0.031019064            8 
  762000   0.97843854   -6.3770509    276.45718  0.030233725  0.030997153           10 
  763000   0.94981547   -6.3693398    276.65511  0.030215717  0.030975223           11 
  764000   0.95095354   -6.3784091    276.44487  0.030153236  0.030953074            7 
  765000   0.94064186   -6.3593672    277.39515  0.030217337   0.03093131            9 
  766000   0.94891696    -6.342582    277.58369    0.0301984  0.030909434            4 
  767000     0.946681   -6.3748519    278.26652  0.030233216  0.030887851            7 
  768000   0.94005275   -6.3689943    278.22994  0.030189881  0.030865875           13 
  769000   0.94920547   -6.3461248    278.75565  0.030207591  0.030844104            4 
  770000   0.95414546   -6.3460625    278.38605  0.030128361  0.030822234            6 
  771000   0.93460856    -6.361404    278.43194  0.030094243  0.030800131            6 
  772000   0.95363374    -6.344911     278.4417  0.030056315  0.030778019            7 
  773000   0.95167488   -6.3649209     277.8393   0.02995249  0.030755881            5 
  774000   0.95208494   -6.3491834    278.66571  0.030002768  0.030733572           13 
  775000   0.94820209   -6.3690437    278.83294  0.029982037  0.030711344            8 
  776000   0.94945787   -6.3942879    278.91964  0.029952711  0.030689255           10 
  777000   0.92723234   -6.3571593    279.58696  0.029985731  0.030667402            8 
  778000   0.93443227   -6.3542001    280.20137     0.030013  0.030645534            5 
  779000   0.95416576   -6.3663746    279.15939  0.029863007  0.030623787            9 
  780000   0.95667537   -6.3798843    280.47301  0.029965065  0.030602129            6 
  781000   0.92043487   -6.3931583    280.11429  0.029888422  0.030580327            8 
  782000    0.9448819   -6.3943359    280.71365  0.029914072  0.030558153           15 
  783000   0.92877143   -6.4122202     279.9343  0.029792923  0.030536147            6 
  784000   0.94646665   -6.3982107    280.28057  0.029791728  0.030513949           10 
  785000   0.93578978   -6.3803617    280.51712  0.029778888  0.030491832            8 
  786000   0.93455716   -6.3679369    280.68762  0.029759077  0.030469795            7 
  787000   0.92174057    -6.370155    281.11076   0.02976607  0.030448008            4 
  788000   0.92907692   -6.3999091    282.11429  0.029834421  0.030426258           10 
  789000   0.93874814   -6.3695284    282.74101  0.029862802  0.030404567           11 
  790000    0.9332769   -6.3931382    282.29886   0.02977836  0.030382996            9 
  791000   0.93205097   -6.3880628     282.9328  0.029807501   0.03036131           16 
  792000   0.94011193   -6.3622069     282.0818  0.029680324   0.03033962           12 
  793000   0.93379431   -6.3613729    282.52293  0.029689253  0.030318193           14 
  794000   0.93850056    -6.426998    282.70398  0.029670863  0.030296778           12 
  795000   0.92534517   -6.4141691    282.96094  0.029660476   0.03027538            7 
  796000   0.94643831   -6.4208465    284.22236  0.029755272  0.030254383            6 
  797000   0.92015823   -6.3732349     284.0054  0.029695253  0.030233407           12 
  798000   0.92603742   -6.3633131    284.30585  0.029689417  0.030212511            9 
  799000   0.93270833   -6.3953383     284.2366  0.029645035  0.030191413            4 
  800000   0.93378917   -6.4180408    284.52691   0.02963822  0.030170374            8 
  801000   0.94681411   -6.4069796    284.31284  0.029578947  0.030149461            7 
  802000   0.92596983   -6.4079528     284.4148   0.02955266   0.03012832           13 
  803000   0.94459609    -6.394153    284.97424  0.029573915  0.030107368            7 
  804000   0.94933891   -6.4122262    285.34263  0.029575314  0.030086638           14 
  805000   0.92768487   -6.4050253    285.61002  0.029566254   0.03006593            7 
  806000   0.91520976   -6.4295737    286.49353  0.029620919  0.030045355            6 
  807000   0.94077967   -6.3939806    285.93127  0.029526153  0.030024871            5 
  808000   0.93903588    -6.386998    286.10246  0.029507266  0.030004562           14 
  809000   0.92213398   -6.3980252    286.12921  0.029473549  0.029984048            6 
  810000    0.9366849    -6.400253    286.69355  0.029495222  0.029963727           12 
  811000   0.92450911   -6.3863346     287.4321  0.029534741  0.029943602           11 
  812000   0.92555061   -6.4119676    287.51554  0.029506931   0.02992344            6 
  813000   0.93068791   -6.3888932    287.00364  0.029418168  0.029902968            4 
  814000   0.93785687   -6.4110943    286.90506  0.029371935  0.029882504            9 
  815000   0.91387493   -6.4042736    286.99861  0.029345461  0.029862015            8 
  816000   0.93790579    -6.390457    287.49554  0.029360247  0.029841772           10 
  817000   0.92501827   -6.4364593    287.63595  0.029338632  0.029821446            5 
  818000   0.92090147   -6.4253112    287.68795  0.029308063  0.029800964           10 
  819000   0.92520466   -6.4151377     288.0272  0.029306797   0.02978033            8 
  820000   0.92218272   -6.3941263    288.12759  0.029281259  0.029759723           28 
  821000   0.91807993   -6.3863555    288.47894  0.029281257  0.029739257           16 
  822000    0.9331066   -6.4051883    288.70522  0.029268574  0.029719028            9 
  823000   0.92848307   -6.3892801     288.6046  0.029222823  0.029698793            9 
  824000   0.93056591    -6.399836    288.68087  0.029195072    0.0296783           18 
  825000   0.92651676   -6.4229131    288.58758  0.029150261   0.02965794            8 
  826000   0.91771838   -6.4372154    289.82199  0.029239507  0.029637666            6 
  827000   0.94790791    -6.381875    290.70964  0.029293596  0.029617876            7 
  828000   0.90603047    -6.379196    290.28966  0.029215948  0.029598137            8 
  829000   0.93323857   -6.4178074    290.16697  0.029168372  0.029578135            4 
  830000   0.93408397   -6.4116428    290.55536  0.029172225  0.029558088            7 
  831000   0.91993518   -6.4197947    290.83577   0.02916524  0.029538314           10 
  832000   0.89796247   -6.4271362    290.81318  0.029127923  0.029518384           17 
  833000   0.93499182   -6.4126397    291.29311  0.029140967  0.029498456           14 
  834000   0.90893196   -6.3999665    291.14702  0.029091429   0.02947843           10 
  835000   0.94739512   -6.4100034    291.16487  0.029058371  0.029458183           17 
  836000   0.92588425   -6.4266531      291.207  0.029027811  0.029437941            5 
  837000   0.93159626   -6.4380678    291.31557  0.029003939  0.029417634           12 
  838000   0.92596457   -6.4408882    290.37768  0.028876062  0.029397217           11 
  839000   0.91829076   -6.4481592    291.77115   0.02898005  0.029376835            8 
  840000   0.92810263    -6.415424    291.42967  0.028911674  0.029356526            6 
  841000   0.95160592    -6.383938    292.08093  0.028941829  0.029336453            5 
  842000   0.93295967   -6.4154778    291.68732  0.028868499  0.029316329           18 
  843000   0.91756914     -6.40189    292.50034  0.028914624  0.029296258            8 
  844000   0.92144747   -6.4126944    292.60981  0.028891174  0.029276447            8 
  845000   0.91820251   -6.4534906    292.92852  0.028888414  0.029256365            7 
  846000    0.9175241   -6.4469834    293.10537  0.028871688  0.029236424            6 
  847000   0.90627643   -6.3999601    293.21453   0.02884834  0.029216468            6 
  848000   0.92177088   -6.4280707    292.99465  0.028792713  0.029196564            6 
  849000   0.91883862   -6.4397503    292.67335  0.028727263  0.029176443           13 
  850000   0.91007559   -6.4393085    293.44523  0.028769141  0.029156372            7 
  851000   0.92325567    -6.430223       293.96  0.028785743  0.029136379            8 
  852000   0.93349022    -6.447929    293.78263  0.028734608  0.029116258           13 
  853000   0.91442427   -6.4016767    294.17164  0.028738925  0.029096158           18 
  854000   0.90257077   -6.4467576    293.33054  0.028623199  0.029076056            5 
  855000   0.89427226   -6.4152139    293.02143  0.028559594  0.029055549            8 
  856000   0.90525999   -6.4436254    294.35469  0.028656025  0.029035157           28 
  857000   0.92107809   -6.4307503    294.71611  0.028657731  0.029014889           13 
  858000   0.91536131   -6.4274095    294.53324   0.02860657  0.028994988            8 
  859000   0.92989943    -6.429897    295.26936   0.02864468  0.028975181           10 
  860000   0.90883696   -6.4344677    295.43419  0.028627344  0.028955348           13 
  861000   0.90565526   -6.4306883    295.92001  0.028641116  0.028935611            8 
  862000   0.89444181   -6.4564339    295.84475  0.028600614  0.028915847           11 
  863000   0.88974596   -6.4471906    295.78426  0.028561632  0.028896056           17 
  864000   0.91934889   -6.4351347    296.56785  0.028604152  0.028876253           18 
  865000   0.92128005   -6.4606557    295.98435   0.02851487  0.028856254           14 
  866000   0.90190802   -6.4438068     295.7253  0.028457015  0.028836349            9 
  867000   0.91741505   -6.4552665    295.98709  0.028449355  0.028816358           12 
  868000   0.88831937   -6.4558666    296.41403  0.028457568  0.028796422           15 
  869000   0.93067205   -6.4092176    296.98714  0.028479779  0.028776629            7 
  870000   0.89920007   -6.4613663    296.90541  0.028439216  0.028756923            7 
  871000   0.91918598   -6.4546456    296.96057  0.028411841  0.028737228            6 
  872000   0.90509733   -6.4525153    297.00185  0.028383205   0.02871762           12 
  873000   0.91122178   -6.4085525    297.16264   0.02836604  0.028697942           25 
  874000   0.90478031   -6.4451521    297.47546  0.028363412  0.028678089           11 
  875000     0.882227   -6.4570662    297.65661  0.028348248  0.028658335           11 
  876000   0.88518054   -6.4465967    297.80738   0.02833023  0.028638571           11 
  877000   0.92540468   -6.4613852    298.64015  0.028377057  0.028618855            6 
  878000   0.91276545    -6.469349    297.90387  0.028274855  0.028599013            7 
  879000   0.87814244   -6.4400032    298.80555  0.028328171  0.028579327           17 
  880000   0.89396711   -6.4348696    298.19643  0.028238298  0.028559608            7 
  881000    0.9113983   -6.4588532    298.37276  0.028222925  0.028540073           11 
  882000   0.91434011   -6.4757521    299.26776  0.028275488  0.028520426            8 
  883000   0.89851767   -6.4583117    299.55798  0.028270855  0.028500897            5 
  884000   0.89096445   -6.4735316    299.15482  0.028200869  0.028481335           13 
  885000   0.89337537   -6.4610168    298.35712  0.028093891  0.028461704            9 
  886000   0.92129681   -6.4267984    299.61575  0.028180563  0.028442174            9 
  887000   0.91144563   -6.4409587    299.90514  0.028175981  0.028422849           10 
  888000   0.89546542   -6.4557925     299.4812  0.028104467  0.028403385           16 
  889000   0.92299621   -6.4115406    299.76919   0.02809985  0.028383988            5 
  890000   0.90196716   -6.4401283    300.35525  0.028123151  0.028364525            9 
  891000   0.89063674   -6.4307229    300.01418  0.028059688  0.028345034           14 
  892000    0.8942351   -6.4303109    299.77102  0.028005513  0.028325441            8 
  893000   0.88104495   -6.4481054    299.98964  0.027994554  0.028305827            6 
  894000   0.91443223   -6.4481402    301.14076   0.02807054  0.028286161            8 
  895000   0.90355738   -6.4550305    299.44446  0.027881235  0.028266527           16 
  896000   0.88910946   -6.4912263    300.10391   0.02791145  0.028246998           16 
  897000   0.90676669   -6.4750513    301.00875  0.027964395  0.028227517           10 
  898000   0.88185923   -6.4852608    300.45331   0.02788171  0.028207949           12 
  899000   0.89929497   -6.4589087    300.75431  0.027878597  0.028188283           19 
  900000   0.91704527   -6.4606526    302.06565  0.027969042   0.02816871           11 
  901000    0.8964679   -6.4821522    300.97575  0.027837195   0.02814922            9 
  902000   0.90571529   -6.4667085    300.57361  0.027769181  0.028129351            6 
  903000    0.8752447    -6.442912    301.29892  0.027805364   0.02810957           10 
  904000   0.89940435   -6.4796137    300.95324   0.02774274  0.028089665            8 
  905000   0.89901503   -6.4655816    301.13516  0.027728836  0.028069467            8 
  906000   0.90224816   -6.4649502    301.05976  0.027691295  0.028049452            8 
  907000   0.88338551   -6.4511626    301.63263  0.027713398  0.028029495            7 
  908000   0.88920092   -6.4668186    301.40562  0.027662043  0.028009563            9 
  909000   0.90845967   -6.4664634    302.39834   0.02772262  0.027989492            7 
  910000   0.89068881   -6.4866863    301.40507  0.027601197  0.027969559            4 
  911000   0.89182176   -6.4863124    302.31848  0.027654453  0.027949616            5 
  912000   0.89814922   -6.4539046    302.61777  0.027651477  0.027929847           17 
  913000   0.89594051    -6.496215    302.12795  0.027576483  0.027910069            5 
  914000   0.89575608   -6.4946081    302.26899  0.027559171  0.027890301            8 
  915000   0.88866133   -6.4838754    302.68867  0.027567274   0.02787065            6 
  916000   0.88668674   -6.4391371    303.50424  0.027611376  0.027851057           14 
  917000    0.8832171   -6.4931181    303.41192  0.027572875  0.027831327            8 
  918000   0.88511956   -6.4703399    302.99376   0.02750488  0.027811464            6 
  919000   0.87011844     -6.51112    303.81534  0.027549451   0.02779152           10 
  920000   0.89069203   -6.4928927     303.7728  0.027515652   0.02777187           15 
  921000   0.87615648   -6.4939543     303.1157  0.027426321  0.027752071           11 
  922000   0.88066549   -6.4752991    304.06076  0.027481992  0.027732367            6 
  923000   0.86934497   -6.4577062    303.47518  0.027399348  0.027712609           13 
  924000   0.88243331   -6.4736042    304.04558  0.027421138  0.027692961           11 
  925000   0.89588022   -6.4657394    304.74873   0.02745484  0.027673423           17 
  926000   0.89700949   -6.5207194    303.97413  0.027355484  0.027653932           20 
  927000   0.89887422   -6.4737758    304.41468  0.027365577  0.027634466            7 
  928000   0.87170109   -6.4565268    305.07073  0.027395001  0.027615151            8 
  929000   0.89522332   -6.5007782    304.98043  0.027357412  0.027595744           10 
  930000   0.86800819    -6.489859     304.3447  0.027271031  0.027576418            9 
  931000   0.88691387   -6.4657856    305.22092  0.027320168  0.027557008           13 
  932000   0.87244272   -6.4806626    305.78424  0.027341223  0.027537662           13 
  933000    0.8798224   -6.4787491    306.35186  0.027362617  0.027518307            9 
  934000   0.87952233   -6.4733699    305.25783  0.027235709   0.02749902            9 
  935000    0.8895635   -6.5067507    305.38275  0.027217713  0.027479661           21 
  936000   0.89111864   -6.4928426    306.34245  0.027274078  0.027460446           10 
  937000   0.88472115   -6.4898065    306.30787  0.027241895  0.027441245           10 
  938000   0.90775449   -6.4679271    307.27313  0.027298608  0.027422325           20 
  939000   0.87520435   -6.5140457    306.58498  0.027208465  0.027403328           18 
  940000   0.88675846   -6.5161901    307.14148  0.027228854  0.027384354           17 
  941000   0.88754373   -6.4667606    307.20049  0.027205145  0.027365557           11 
  942000    0.8558411   -6.4993325    306.78905  0.027139866  0.027346588            8 
  943000   0.87112725   -6.4938416     307.3194  0.027157953    0.0273276            9 
  944000   0.88974737   -6.4801026    307.11127  0.027110811  0.027308695           12 
  945000   0.88141855   -6.5063461    307.05597  0.027077246  0.027289472           21 
  946000   0.89138081   -6.5080086    306.68544  0.027015983  0.027270219           14 
  947000    0.8935071   -6.5019317    307.20587  0.027033251  0.027250979            8 
  948000   0.90400528   -6.4931333     307.9416  0.027069409  0.027231796            9 
  949000   0.87368327   -6.5033462    307.94779  0.027041429  0.027212608           14 
  950000   0.87159728   -6.5128052    308.69366  0.027078391  0.027193416           14 
  951000   0.87168031   -6.5125266    308.20322  0.027006941  0.027174284           13 
  952000    0.8721626   -6.5056833    308.16681  0.026975386  0.027155363           17 
  953000   0.85698068   -6.4781889    308.84815  0.027006659  0.027136401           16 
  954000   0.87004657   -6.4727737    308.33426  0.026933461  0.027117226           17 
  955000   0.86334894   -6.5177373    308.05661   0.02688103  0.027097874            6 
  956000   0.83609257   -6.4969356    308.07312  0.026854351  0.027078627           13 
  957000   0.84683994   -6.5087548    308.89595   0.02689794  0.027059573           14 
  958000   0.87473016    -6.508724    308.74423  0.026856666  0.027040495           12 
  959000   0.87065943   -6.5183816    308.00981  0.026764843  0.027021348           16 
  960000   0.87252914   -6.5299307    308.94268  0.026817941  0.027002064            5 
  961000   0.87522387   -6.5076407    308.86199  0.026783037  0.026982746           14 
  962000    0.8474654     -6.51306    308.28668  0.026705361  0.026963344           12 
  963000   0.87083399   -6.5205453    309.41023  0.026774855  0.026943983           10 
  964000   0.87023218   -6.5529867    308.74634  0.026689691  0.026924531           15 
  965000   0.88575678   -6.5552023    308.30475  0.026623899  0.026904995           12 
  966000   0.88657041   -6.5096954    308.89897  0.026647599  0.026885371           10 
  967000   0.86505886   -6.5435572    309.22606   0.02664823  0.026865882           12 
  968000   0.86684318   -6.5197088    309.65665  0.026657769  0.026846386            7 
  969000   0.88411232   -6.5002067      309.457  0.026613089  0.026826984            9 
  970000   0.87127949   -6.5262637     308.6337  0.026514922  0.026807626           14 
  971000   0.84620813   -6.5315183    309.02201  0.026520942  0.026788255           11 
  972000   0.86982129   -6.5401749    310.33047  0.026605836   0.02676901           10 
  973000   0.86600833   -6.4924725    310.62439  0.026603664  0.026749958            6 
  974000   0.85128817   -6.5117767    310.64213  0.026577869   0.02673095            9 
  975000   0.88074113   -6.5358754    311.55974  0.026629038  0.026712099           11 
  976000   0.86842611   -6.5489407    310.54974  0.026515517  0.026693092           10 
  977000   0.86959806   -6.5157063    311.23139  0.026546519  0.026674084           15 
  978000   0.86655622   -6.5269172    311.15938   0.02651324  0.026655195            7 
  979000   0.86140774   -6.5055665    311.28334   0.02649671  0.026636227            5 
  980000    0.8695414   -6.5181254    312.06925  0.026536501  0.026617491            8 
  981000   0.86825881    -6.551815    312.44573  0.026541431  0.026598771           10 
  982000   0.85883265   -6.5188052    311.83857  0.026462879  0.026579896           20 
  983000   0.87512268   -6.5341542    311.96206  0.026446427  0.026561193           17 
  984000   0.87797774   -6.5514318    312.54877  0.026469239  0.026542524           23 
  985000   0.87437359   -6.5393762    312.10272  0.026404629  0.026523852           13 
  986000   0.87059095   -6.5313371    312.12999  0.026380155  0.026505143            9 
  987000   0.86448689   -6.5558198    311.83556  0.026328568  0.026486405            8 
  988000    0.8834256   -6.5199344    311.83142   0.02630157  0.026467606           11 
  989000   0.86667624   -6.5018344    312.90798  0.026365688   0.02644885           10 
  990000   0.87338259   -6.5265817    312.57592  0.026311104  0.026430067           15 
  991000   0.85735486    -6.530019    312.63762  0.026289743  0.026411147           11 
  992000   0.86370727   -6.5592093    312.84978  0.026281063  0.026392333           13 
  993000   0.84890704   -6.5664574    312.93089  0.026261404  0.026373442           12 
  994000   0.86206934   -6.5279033    313.69915  0.026299392  0.026354667           12 
  995000   0.85343481   -6.5709149    313.30995  0.026240364  0.026335917           11 
  996000   0.84485736   -6.5607985    313.14994  0.026200631  0.026317014           13 
  997000   0.85545649   -6.5182857    313.78311  0.026227274  0.026298174           18 
  998000   0.85340151    -6.526588    312.69148  0.026109843  0.026279405            6 
  999000   0.85314903   -6.5517289    313.54883  0.026155225  0.026260676           12 
 1000000   0.85076228     -6.56519    313.88529  0.026157107  0.026241807           14 
 1001000   0.87538637    -6.573063    313.75157  0.026119844  0.026222893           11 
 1002000   0.86266585    -6.555935    313.58755  0.026080136  0.026204025           13 
 1003000   0.85548472   -6.5529553    313.24279  0.026025489  0.026185105            6 
 1004000   0.84951355   -6.5159774    313.80775   0.02604646  0.026166285           12 
 1005000   0.82949447   -6.5430044    314.21264  0.026054116  0.026147563           19 
 1006000   0.86609503   -6.5611026    314.34963  0.026039565  0.026128806           23 
 1007000   0.86047909   -6.5545455    314.99332  0.026066974  0.026110035           16 
 1008000   0.86806614   -6.5496291    315.24212  0.026061683  0.026091517           22 
 1009000   0.84768844    -6.566782    314.35973  0.025962977  0.026072846           37 
 1010000    0.8582527   -6.5650287    314.67771  0.025963507  0.026054268           19 
 1011000    0.8416858   -6.5629445    314.69367  0.025939142  0.026035527           13 
 1012000   0.85880358   -6.5566695    313.88186  0.025846662  0.026016847           15 
 1013000   0.83857295   -6.5650116    315.00058  0.025913177  0.025998204           43 
 1014000   0.86249957   -6.5581799    315.06052  0.025892548  0.025979571           19 
 1015000    0.8403451   -6.5247826    315.60094  0.025911407  0.025961089            8 
 1016000   0.85092507   -6.5058204    316.12202  0.025928643  0.025942685           13 
 1017000   0.86749684   -6.5408753    316.22622  0.025911687  0.025924344            8 
 1018000   0.87654336   -6.5470259    316.39771  0.025900271  0.025905925            9 
 1019000    0.8405022   -6.5881196    316.32326  0.025868765  0.025887528           21 
 1020000    0.8559878   -6.5488999    316.20123  0.025833434  0.025869153           48 
 1021000   0.85213644   -6.5598781    316.54366  0.025836081  0.025850886           48 
 1022000   0.85628963   -6.5898567     316.1323  0.025777258   0.02583252           21 
 1023000   0.84798605   -6.5597243    316.22187  0.025759357  0.025814081           23 
 1024000   0.83581434   -6.5847627    315.88551  0.025706828   0.02579556           16 
 1025000   0.84573711   -6.5659407    316.76072  0.025752904  0.025777153           12 
 1026000   0.82594102    -6.588454     315.6901  0.025640846  0.025758564           20 
 1027000   0.85712201    -6.564705    316.73689  0.025700819   0.02573985           20 
 1028000   0.84495813   -6.5716308    316.02405  0.025618033  0.025721206           20 
 1029000   0.83988538   -6.5478866    315.68937  0.025566033  0.025702529           13 
 1030000    0.8395904   -6.5465153    316.17895  0.025580821  0.025683887           25 
 1031000   0.84297115   -6.5588488    315.96445  0.025538672  0.025665316           10 
 1032000   0.84889751   -6.5558195    316.61171  0.025566191  0.025646577           17 
 1033000    0.8228624   -6.5919902    317.01273  0.025573793  0.025627986            6 
 1034000   0.84530138   -6.5691486    316.89439  0.025539522  0.025609369            7 
 1035000   0.84149139   -6.5641268      316.913  0.025516345  0.025590939           12 
 1036000   0.83870481   -6.5490808    316.87145  0.025488373  0.025572452           18 
 1037000   0.82457233   -6.5288111    317.79277  0.025537831  0.025554081            8 
 1038000   0.85449045   -6.5364503    318.20388  0.025546233  0.025535845           17 
 1039000   0.83127455   -6.5434517    316.98217  0.025423658  0.025517583           14 
 1040000   0.84450008   -6.5627198    317.56826  0.025446174  0.025499279           14 
 1041000   0.84126443   -6.5750952    317.41372   0.02540936  0.025480996           18 
 1042000   0.84593055    -6.569743    318.57957  0.025478212  0.025462637            8 
 1043000   0.83709893    -6.584609    317.87238  0.025397282  0.025444341           15 
 1044000   0.85092422   -6.5911776    318.07096  0.025388806  0.025426197           15 
 1045000    0.8417179   -6.5606527    319.38543  0.025469333  0.025408116           11 
 1046000   0.81526151   -6.6015207    318.90672  0.025406845  0.025390013           22 
 1047000   0.83418973   -6.6024552     319.4146  0.025423002  0.025372029           13 
 1048000   0.82425807   -6.5832238    318.75441  0.025346248  0.025354112            7 
 1049000   0.83752065   -6.5857086     319.6782  0.025395472  0.025336312           22 
 1050000   0.83041704   -6.5791965    320.49895  0.025436424  0.025318592           25 
 1051000   0.82925708   -6.5841326    319.40998  0.025325878  0.025300808           23 
 1052000   0.82731074   -6.6049477    320.09124   0.02535577   0.02528303           11 
 1053000   0.82939231   -6.6020127    320.23295  0.025342905  0.025265163           22 
 1054000   0.82981356   -6.5753774    320.75002  0.025359742  0.025247303           18 
 1055000   0.81208275   -6.5681637    319.71912  0.025254275   0.02522958           14 
 1056000   0.82455535   -6.5866116    319.70053  0.025228893  0.025211658           31 
 1057000   0.82377772   -6.5544325       320.75  0.025287764  0.025193839           22 
 1058000   0.82255345   -6.5517813    320.62018  0.025253637  0.025176098           10 
 1059000   0.82577831    -6.598723    320.72543  0.025238073  0.025158387           10 
 1060000    0.8532857   -6.5938953    320.52408  0.025198434  0.025140403           13 
 1061000    0.8270244   -6.5914625    320.62439  0.025182562  0.025122548            9 
 1062000   0.82045252   -6.5840591    320.85975  0.025177318  0.025104879           11 
 1063000   0.82855747   -6.5771457    321.37273  0.025193848  0.025087324            5 
 1064000   0.84134344   -6.5868131     322.2579  0.025239497  0.025069831           25 
 1065000    0.8076269   -6.5837045    321.00918   0.02511809  0.025052418           19 
 1066000   0.83662624   -6.5841713    321.12395  0.025103498   0.02503488           11 
 1067000   0.82125513   -6.5749226    321.29193   0.02509309  0.025017332           17 
 1068000   0.81314986   -6.6115312    322.05277  0.025128962  0.024999682           34 
 1069000   0.81472982   -6.6125496    322.24757   0.02512064  0.024982101           23 
 1070000   0.82655381   -6.5822868    321.45206  0.025035207  0.024964563           28 
 1071000   0.83264465    -6.574116    322.75193  0.025112973    0.0249471           29 
 1072000   0.82521517   -6.5783265     322.1266  0.025040936  0.024929581           12 
 1073000   0.80642504   -6.5977538    322.27362  0.025029017   0.02491206            8 
 1074000    0.8323976   -6.5917332    322.26581  0.025005107  0.024894489           16 
 1075000   0.80302143   -6.5675522    322.58834  0.025006848  0.024877001           15 
 1076000   0.82624679   -6.5843558    322.36502  0.024966312   0.02485953           23 
 1077000    0.8438371   -6.6235812    321.71744  0.024893024  0.024841847           14 
 1078000   0.81386784   -6.5825458    322.25998  0.024911872  0.024824094           23 
 1079000   0.81420298   -6.5832371    321.46791  0.024827611  0.024806175            5 
 1080000   0.82226624   -6.5774452    322.05815  0.024850166  0.024788479           12 
 1081000   0.82406249   -6.6257597     322.4335  0.024856113  0.024770789           13 
 1082000   0.81985946   -6.5749209    323.12491  0.024886392  0.024753181           12 
 1083000   0.81794635   -6.6135202    322.98487  0.024852637  0.024735627           11 
 1084000   0.82486287   -6.5740537    323.00303  0.024831106  0.024718037           14 
 1085000    0.8342811   -6.5994046    322.94517  0.024803776  0.024700388           16 
 1086000   0.80304515   -6.6019775    323.16551  0.024797845  0.024682734           33 
 1087000   0.82372346   -6.5996307    323.65362  0.024812452  0.024665135           22 
 1088000   0.82101234   -6.6025618    323.00884  0.024740261  0.024647657           17 
 1089000   0.82388256   -6.6318734    323.26846  0.024737409  0.024630094           41 
 1090000   0.82509004   -6.6052645    323.29661  0.024716866  0.024612492           22 
 1091000   0.83413641   -6.6062335    322.98705  0.024670566  0.024594951           44 
 1092000   0.81758872   -6.6125233    323.76965  0.024707696  0.024577535            5 
 1093000   0.81728358   -6.6361903    323.10821  0.024634661  0.024560091            7 
 1094000   0.83017907    -6.636441    323.83289  0.024667344  0.024542666           21 
 1095000   0.81416536   -6.6107472    324.99625  0.024733353  0.024525309            7 
 1096000   0.82443714   -6.6111202    323.79543  0.024619483  0.024507868           10 
 1097000   0.81094443    -6.578266    324.01136  0.024613442  0.024490399           20 
 1098000   0.79737653   -6.6063688    324.79018  0.024650135  0.024473003           49 
 1099000   0.82038851   -6.6393924    324.26329  0.024587753  0.024455526           21 
 1100000    0.8169089   -6.6185917    324.80322  0.024606305  0.024438052           15 
 1101000   0.82649546   -6.5800995    325.17456  0.024612062  0.024420624           17 
 1102000   0.82443829   -6.5825557    324.65542  0.024550471  0.024403269           16 
 1103000   0.81713604   -6.6222919    324.73586   0.02453429  0.024385937           20 
 1104000    0.8252196   -6.6263702    324.99387  0.024531542  0.024368491           27 
 1105000   0.80709871   -6.6073569    325.20276  0.024525095  0.024351083           18 
 1106000   0.80674361   -6.6112679    324.65175  0.024461404  0.024333766           28 
 1107000   0.81390474   -6.6284152    325.41091  0.024496455   0.02431638           13 
 1108000   0.83203951   -6.6534154    325.84424  0.024506937   0.02429905           37 
 1109000   0.80191002   -6.6149557    325.61384  0.024467526  0.024281753           13 
 1110000   0.81466739   -6.6083416    325.59297  0.024443916  0.024264597           24 
 1111000   0.80227868   -6.6320425    325.26087  0.024397005  0.024247461           46 
 1112000   0.82908677   -6.5884016    325.31539  0.024379151  0.024230414           36 
 1113000     0.816019   -6.6331195    327.17483  0.024496468  0.024213345           12 
 1114000   0.80850448   -6.6324556    326.24849  0.024405183  0.024196296           20 
 1115000   0.80505206   -6.6345305    325.85466  0.024353861  0.024179222           38 
 1116000   0.80361821   -6.6227799    326.15255  0.024354282  0.024162229            9 
 1117000    0.8093429   -6.5964305    326.85858  0.024385152  0.024145245           27 
 1118000   0.80701571    -6.629348    327.45018  0.024407438  0.024128277           11 
 1119000   0.80321065   -6.6586032    326.50328  0.024315109  0.024111187           11 
 1120000   0.82738597   -6.6515453    326.26303  0.024275523   0.02409413           17 
 1121000    0.8136729   -6.6440763    327.20434  0.024323843  0.024077101           33 
 1122000   0.80832589   -6.6349252    326.53137  0.024252182  0.024060121           10 
 1123000   0.82540258   -6.6448553    326.42832  0.024222938  0.024043142           13 
 1124000   0.81399518   -6.6433101    327.12329  0.024252913  0.024026059           11 
 1125000   0.77732376   -6.6307394    327.04579  0.024225614   0.02400892            9 
 1126000   0.79559647   -6.6242693    327.31256  0.024223842  0.023991847           13 
 1127000   0.79811405   -6.6716062    326.52289  0.024143958  0.023974714           29 
 1128000    0.8084122   -6.6149836    327.15032  0.024168906  0.023957527           43 
 1129000    0.8133296   -6.6444702    326.36219  0.024089326  0.023940459           41 
 1130000   0.81344827   -6.6763558    326.76528  0.024097735  0.023923247           46 
 1131000   0.81400076   -6.6672587    327.57955  0.024136424  0.023906053           27 
 1132000   0.80060345    -6.655731    327.24225  0.024090271  0.023888808           20 
 1133000   0.79743098    -6.637341    327.48178  0.024086627  0.023871696           12 
 1134000   0.78707464   -6.6589757    327.28369  0.024050829  0.023854424           16 
 1135000   0.80345112   -6.6256458    327.35131  0.024034605  0.023837168            8 
 1136000   0.80373165   -6.6372387    327.93423  0.024056209  0.023819965           14 
 1137000   0.79265736   -6.6211572    327.37891   0.02399435  0.023802767           18 
 1138000    0.8083727   -6.6504007    326.64322  0.023919392  0.023785491           12 
 1139000   0.79713077   -6.6262017    327.07965  0.023930323  0.023768306           16 
 1140000   0.79928645   -6.6499284      327.668  0.023952339  0.023751108           19 
 1141000   0.77752311    -6.656813    327.56621  0.023923913  0.023734013           10 
 1142000   0.79489284   -6.6496231    327.31655  0.023884746  0.023716829           21 
 1143000   0.80160447   -6.6455465     327.5694  0.023882283  0.023699672           29 
 1144000   0.81306586   -6.6540906    327.28167  0.023840448  0.023682361           76 
 1145000   0.78899282   -6.6568087    326.77923  0.023783059  0.023664981           50 
 1146000   0.80178439   -6.6447139    327.44238  0.023810528  0.023647637           17 
 1147000   0.82195679   -6.6368171    326.99215  0.023757059  0.023630319           11 
 1148000   0.78234721   -6.6375725    327.33647  0.023761358  0.023613009           18 
 1149000    0.7998554   -6.6425182    327.95622  0.023785627  0.023595645            6 
 1150000   0.78516395    -6.676338    326.66799  0.023671594  0.023578433           51 
 1151000   0.78724019   -6.6648014    328.52913  0.023785775  0.023561276           55 
 1152000   0.79195677    -6.674968    328.38533  0.023754726  0.023544114           44 
 1153000   0.79487804   -6.6516361    327.41582  0.023664052  0.023526943           30 
 1154000   0.79335443   -6.6561142    327.96839  0.023683448  0.023509784           17 
 1155000   0.78316479   -6.6657519    328.61773  0.023709793  0.023492721           24 
 1156000   0.78131118   -6.6668754     328.2201  0.023660618  0.023475674           16 
 1157000   0.79677866   -6.6828152    328.86929  0.023686927  0.023458577           27 
 1158000   0.80199664   -6.6812217    328.08329  0.023609909  0.023441402           30 
 1159000   0.79119811   -6.6688489    328.57243  0.023624707  0.023424304           28 
 1160000   0.81223921   -6.6669521    328.08697  0.023569466  0.023407368           16 
 1161000   0.80083895   -6.6704247    328.74888  0.023596676  0.023390336           16 
 1162000   0.77869179   -6.6802456    329.37101  0.023620984  0.023373264           19 
 1163000   0.79336509   -6.6974884    328.89778  0.023566766  0.023356212           29 
 1164000   0.79990841   -6.6804943    328.95157   0.02355037  0.023339145           24 
 1165000   0.78600193   -6.6853953     328.7881  0.023518462  0.023322048           22 
 1166000   0.79821529   -6.6796807    328.61173  0.023485687   0.02330498           30 
 1167000    0.7824108   -6.6916547    329.01139  0.023494101  0.023287844           42 
 1168000   0.79893298   -6.6969712    328.75983  0.023456038  0.023270667           42 
 1169000   0.77841596   -6.7187031    328.96843  0.023450843  0.023253541           21 
 1170000   0.81166682   -6.6554188    329.34573  0.023457673  0.023236385           16 
 1171000   0.80278896    -6.684812    329.26091  0.023431605  0.023219285           11 
 1172000   0.78088229   -6.6996729    329.52113  0.023430114  0.023202225           22 
 1173000   0.76625015    -6.671545    329.46803  0.023406368  0.023185339           10 
 1174000   0.79180837   -6.6747002    329.12851   0.02336233  0.023168492           19 
 1175000   0.79399997   -6.6849861    329.72077  0.023384452  0.023151603           46 
 1176000   0.77960481   -6.6853783    328.89443  0.023306011  0.023134672           64 
 1177000   0.79445732    -6.694836     330.5039  0.023400163  0.023117786           34 
 1178000   0.77583394   -6.6722125    329.71597  0.023324559  0.023100978           17 
 1179000   0.78165848   -6.6925007    329.32066  0.023276835  0.023084091           38 
 1180000   0.79066576   -6.6783518    330.78238  0.023360338  0.023067268           18 
 1181000   0.76408624   -6.6796632    330.83777  0.023344466  0.023050625           22 
 1182000   0.78989693   -6.6757464    331.03468  0.023338598  0.023033954           13 
 1183000   0.78861313    -6.670822    330.90921  0.023310031  0.023017302           20 
 1184000   0.78859381   -6.6952327    330.37669  0.023252864  0.023000563           27 
 1185000   0.77640843   -6.6786058    330.36249  0.023232242   0.02298386           58 
 1186000    0.7715677    -6.677652    330.78068  0.023242037  0.022967094           41 
 1187000   0.77835443   -6.6930356    331.68146  0.023285696  0.022950387           63 
 1188000   0.79773743   -6.6759807    330.94581  0.023214493  0.022933715           52 
 1189000   0.77432523   -6.6693077    330.23861  0.023145403  0.022917002           52 
 1190000   0.77280443   -6.6932564    330.39494  0.023136901  0.022900239          105 
 1191000   0.79052121   -6.6845801    331.22836  0.023175788  0.022883489          133 
 1192000   0.77461683   -6.7078456    331.79826  0.023196187  0.022866719           36 
 1193000    0.7720134   -6.7113085    330.73538  0.023102499   0.02285002           35 
 1194000   0.78193837   -6.7315584     330.7173  0.023081888  0.022833234           52 
 1195000   0.78597026   -6.7014402    330.67105  0.023059348  0.022816548           56 
 1196000   0.76724441   -6.6781496    331.40945  0.023091517  0.022799844           91 
 1197000   0.76836549   -6.6947017    331.86761  0.023104122  0.022783211           35 
 1198000   0.76438318   -6.6988538     331.6967  0.023072948  0.022766571           41 
 1199000   0.77234198   -6.7035847    331.47538  0.023038322  0.022749887           83 
 1200000   0.75766489   -6.6934467    331.19739  0.022999818  0.022733221           70 
 1201000   0.75727572     -6.69316    331.09365   0.02297347  0.022716511          139 
 1202000   0.78273712   -6.7099692    331.34334  0.022971668  0.022699885           55 
 1203000   0.79294203   -6.7038099    331.07464   0.02293396  0.022683205           49 
 1204000   0.77028713   -6.7148595    331.36631  0.022935099  0.022666503           15 
 1205000   0.76574887   -6.6961311    332.02411  0.022961557  0.022649863           22 
 1206000   0.78321701   -6.7197198    331.92723  0.022935823  0.022633309           15 
 1207000   0.77661748   -6.7290174    331.96578  0.022919482  0.022616775           25 
 1208000   0.78213927   -6.7392818    332.11077  0.022910511  0.022600181           22 
 1209000   0.78310748   -6.7000151    332.11992  0.022892192  0.022583641           14 
 1210000   0.77469538    -6.693802    332.40548  0.022892939  0.022567216           28 
 1211000   0.77281496   -6.7066326    332.81772  0.022902403   0.02255085           26 
 1212000   0.76758205   -6.6965619    333.20374  0.022910048  0.022534471           96 
 1213000   0.76895904    -6.707413    333.24466  0.022893972  0.022518121           36 
 1214000   0.75111139   -6.7155255    332.55654  0.022827879  0.022501766           37 
 1215000   0.76881839   -6.7361596      332.359  0.022795542  0.022485305           55 
 1216000   0.77021969   -6.7282612     332.6419  0.022796183  0.022468805           50 
 1217000   0.76204867   -6.6954753    332.91762  0.022796331  0.022452405           26 
 1218000   0.77148968   -6.7111013    332.91204  0.022777233  0.022435974           30 
 1219000   0.77421644   -6.7186199    333.16781  0.022776033  0.022419549           23 
 1220000   0.78480417   -6.7155152    332.50297  0.022711951  0.022403194           28 
 1221000    0.7469635   -6.7360576    332.84061  0.022716394  0.022386876           22 
 1222000   0.77068166   -6.7156754    333.20664  0.022722766  0.022370597           20 
 1223000   0.76416225   -6.7412994    332.82712  0.022678327  0.022354309           21 
 1224000   0.76347434   -6.7070825    333.93203  0.022735024  0.022338096           42 
 1225000   0.77050194   -6.7274599    333.74025  0.022703419  0.022321895           14 
 1226000    0.7460642   -6.7435271    334.19805  0.022716017  0.022305651           30 
 1227000   0.74576277   -6.7371769    333.53312  0.022652344  0.022289424           26 
 1228000   0.76523302   -6.6945767     333.5827  0.022637263  0.022273161          116 
 1229000   0.75902082   -6.7301199    333.26415  0.022597244  0.022256955           54 
 1230000   0.76459748    -6.735011    334.15646  0.022639327  0.022240734           47 
 1231000   0.76523177    -6.726662    333.67425  0.022588292  0.022224498           38 
 1232000   0.76966784   -6.7617779    333.76874  0.022576349  0.022208271           66 
 1233000   0.76007317   -6.7312221    333.61726  0.022547801  0.022192007           59 
 1234000   0.76343391   -6.7351079     334.4431  0.022585299  0.022175826           53 
 1235000    0.7687975   -6.7371804     333.1838  0.022482038  0.022159655           54 
 1236000   0.77481663   -6.7320325     333.7895  0.022504686  0.022143464           36 
 1237000   0.76082511   -6.7751121    333.60186  0.022473852  0.022127176           43 
 1238000   0.76280824   -6.7573494    333.88792  0.022474954  0.022110861           51 
 1239000   0.74186914   -6.7359496    334.38684  0.022490371  0.022094611          143 
 1240000   0.74303483   -6.7496863    333.57117  0.022417417  0.022078349          144 
 1241000   0.75181848   -6.7303987    333.24244  0.022377279  0.022062073           55 
 1242000    0.7598942   -6.7169112    333.95724  0.022407222  0.022045752           60 
 1243000   0.75307747   -6.7687534     333.8673  0.022383165  0.022029545           25 
 1244000    0.7589037   -6.7489842    334.15766  0.022384623  0.022013324           52 
 1245000   0.74499439   -6.7443436     334.4375  0.022385375  0.021997169           78 
 1246000   0.76381809   -6.7366364    335.07301  0.022409912  0.021981034           68 
 1247000   0.75417401   -6.7164806    334.92493  0.022382045   0.02196496           85 
 1248000   0.74653453   -6.7460126    334.69137  0.022348516  0.021948852           93 
 1249000     0.768226   -6.7439868    334.30847  0.022305075  0.021932776           61 
 1250000   0.76982204   -6.7202446     335.0668  0.022337787  0.021916808           55 
 1251000   0.76260321   -6.7364399    335.07902  0.022320745   0.02190091           53 
 1252000   0.75804456   -6.7673406    335.63449  0.022339889  0.021884924           96 
 1253000   0.74519507   -6.7718761    334.26652   0.02223108  0.021868955          169 
 1254000   0.75088335   -6.7368925     335.0892  0.022268022  0.021852959          197 
 1255000    0.7515901   -6.7502922    335.82764  0.022299312  0.021836996          242 
 1256000   0.74528395   -6.7538838    334.43605  0.022189229  0.021821026          174 
 1257000   0.75436522    -6.763116    334.82697  0.022197492   0.02180505          179 
 1258000   0.76011995   -6.7614928    334.00764  0.022125572  0.021788983          263 
 1259000   0.73900244   -6.7593561    334.88168  0.022165851  0.021772989          189 
 1260000   0.75545876   -6.7746048    334.79386  0.022142451  0.021757007          214 
 1261000   0.74164904    -6.766673    335.89609  0.022197733  0.021741078          160 
 1262000   0.75969563   -6.7681882    335.16566  0.022131911  0.021725179          155 
 1263000    0.7561414   -6.7574531    335.44512  0.022132827  0.021709319          272 
 1264000   0.73642105   -6.7845909    335.83608  0.022141092   0.02169348          300 
 1265000   0.74080382   -6.7983585    335.56554  0.022105767  0.021677591          360 
 1266000    0.7464352   -6.7833913    336.28493  0.022135659  0.021661775          141 
 1267000   0.72786441   -6.7802272    336.60328  0.022139127  0.021646037          137 
 1268000   0.74249863   -6.7834679    336.34805  0.022104893  0.021630316          228 
 1269000    0.7440358   -6.7894422    336.35514   0.02208794  0.021614501          141 
 1270000   0.75272181   -6.7996129    335.25326  0.021998246   0.02159867          225 
 1271000   0.73064648   -6.7559285    336.48772  0.022061875  0.021582833          124 
 1272000   0.74577209   -6.7807534    336.79134  0.022064422  0.021567099          155 
 1273000   0.75227002   -6.7984418      336.025  0.021996924  0.021551289          177 
 1274000   0.73482527   -6.8183252    335.97411  0.021976329  0.021535452          273 
 1275000   0.73900286   -6.7765994     335.3909  0.021920974  0.021519618          264 
 1276000    0.7446856    -6.806547     336.0365  0.021945958  0.021503809          163 
 1277000    0.7578517   -6.7937244    336.81757  0.021979742   0.02148806          119 
 1278000   0.74232087   -6.7835691    336.93342  0.021970098  0.021472293          147 
 1279000   0.75036521   -6.7960998    336.13036  0.021900597  0.021456427          176 
 1280000    0.7513626   -6.7579832    336.10298  0.021881705  0.021440552          164 
 1281000   0.75352966   -6.7659123    335.82951  0.021846833  0.021424729          198 
 1282000    0.7347141   -6.7810325    336.41817  0.021868056  0.021408933          190 
 1283000   0.74512381   -6.7752289    336.35973  0.021847215  0.021393088          120 
 1284000   0.72920075   -6.7889862    336.07069  0.021811442  0.021377252          145 
 1285000   0.73518012   -6.7973401    336.68893  0.021834561  0.021361339          236 
 1286000   0.73225832   -6.8052201    335.25505  0.021724666  0.021345411          288 
 1287000   0.73863371   -6.7789453    336.46241  0.021785963  0.021329429          265 
 1288000   0.73689377   -6.8112477    335.34215  0.021696567  0.021313487          276 
 1289000    0.7310677    -6.778111    336.48594  0.021753681  0.021297619          248 
 1290000   0.74163382   -6.7778001    336.69428  0.021750276  0.021281855          371 
 1291000   0.73442886   -6.7772399    336.30016  0.021707989  0.021266098          270 
 1292000   0.72733476   -6.7845966    335.72668  0.021654198  0.021250269          315 
 1293000   0.73818528   -6.8089961    336.02154  0.021656454  0.021234494          393 
 1294000   0.73948451   -6.8224835    335.57207  0.021610772  0.021218633          403 
 1295000   0.74429581   -6.8378329    336.22359  0.021636009  0.021202795          440 
 1296000   0.74639522   -6.8064692    337.38052  0.021693706  0.021186968          446 
 1297000   0.72937779    -6.805124    336.78215  0.021638534  0.021171191          614 
 1298000   0.74654129   -6.8081942    336.62925  0.021612048  0.021155424          558 
 1299000   0.73475554   -6.8148065    336.63151  0.021595555  0.021139657          720 
 1300000   0.73673442   -6.8280823    336.19891  0.021551212  0.021123864          711 
 1301000   0.72379769   -6.8316424    336.84184  0.021575829  0.021108059          742 
 1302000   0.73977182   -6.8498153    335.92208  0.021500389   0.02109225          741 
 1303000   0.73563302   -6.8304069    336.47245  0.021519087  0.021076394          800 
 1304000   0.73459401   -6.8259528    336.32143  0.021492934  0.021060435          869 
 1305000    0.7265987   -6.8729807    335.46433  0.021421733   0.02104445          937 
 1306000   0.73497201   -6.8628729    336.34487  0.021461515  0.021028475         1054 
 1307000   0.72642152   -6.8704301    335.86009  0.021414186  0.021012565         1097 
 1308000    0.7557925   -6.8759682    335.77984  0.021392701  0.020996624         1104 
 1309000   0.72435678    -6.886826    335.45285  0.021355542  0.020980606         1226 
 1310000   0.72554198    -6.893757    335.23786  0.021325563   0.02096455         1268 
 1311000   0.73117989   -6.9079587    335.02001  0.021295449    0.0209484         1279 
 1312000   0.71985947    -6.881648    334.48898  0.021245489   0.02093219         1366 
 1313000   0.73353036   -6.9150195    335.06871  0.021266102  0.020916007         1343 
 1314000   0.73160511   -6.9389918    334.71047  0.021227199  0.020899748         1584 
 1315000   0.71818929   -6.9275007    334.52854  0.021199527   0.02088343         1661 
 1316000   0.74456455    -6.951722    334.36162  0.021172848  0.020867107         1677 
 1317000   0.72766804   -6.9332075    334.43146  0.021161191  0.020850695         1632 
 1318000   0.72897759     -6.98362    334.19673  0.021130294  0.020834208         1770 
 1319000   0.72521482   -6.9939944    333.57164  0.021074782  0.020817714         1875 
 1320000   0.72619965   -6.9759367    333.59622  0.021060367  0.020801162         1896 
 1321000   0.72494532   -6.9868293    333.28052  0.021024509  0.020784579         1946 
 1322000   0.71393351   -6.9776654    332.81702  0.020979389  0.020767991         2008 
 1323000   0.73855533   -6.9940338    333.85569  0.021028955  0.020751452         2132 
 1324000   0.73582217   -6.9938064    333.74341  0.021006005  0.020734965         2107 
 1325000   0.72162418   -6.9964966    333.90558  0.021000351  0.020718412         2089 
 1326000   0.70983245   -7.0165242    333.65532  0.020968786  0.020701812         2206 
 1327000   0.73284689   -7.0176495    333.26734   0.02092862  0.020685187         2217 
 1328000   0.72399113   -7.0358077    333.44644  0.020924099  0.020668546         2298 
 1329000    0.7161115   -7.0271141    332.86725  0.020872037   0.02065188         2387 
 1330000   0.71558211   -7.0415427     332.7386  0.020848283  0.020635144         2301 
 1331000   0.72772959   -7.0728421    332.13381  0.020794754  0.020618296         2522 
 1332000   0.72468939    -7.076064    332.65492  0.020811744  0.020601399         2553 
 1333000   0.71535504   -7.0581844    332.19863  0.020767606  0.020584539         2550 
 1334000   0.73332565   -7.0707185     332.4063  0.020765011  0.020567623         2646 
 1335000   0.71197998   -7.1034444    332.08541  0.020729426  0.020550642         2758 
 1336000   0.72714711   -7.0979218    332.75525  0.020755692  0.020533638         2729 
 1337000     0.722743   -7.1045672    332.22555  0.020707152  0.020516615         2793 
 1338000   0.72105365   -7.1176829    331.59327  0.020652297  0.020499575         2803 
 1339000   0.73888589   -7.1363157    331.24932  0.020615467   0.02048246         2959 
 1340000   0.71111106    -7.145391    330.81434  0.020573031  0.020465292         3043 
 1341000   0.71588361   -7.1271368    331.51466  0.020601209  0.020448132         3086 
 1342000   0.71525775    -7.134987     331.7412  0.020599925   0.02043092         3095 
 1343000   0.71684577   -7.1450154    331.06217  0.020542453  0.020413749         3027 
 1344000   0.71157102   -7.1458768    330.90832  0.020517629  0.020396503         3071 
 1345000   0.70385129   -7.1553177    330.68788  0.020488716  0.020379257         3111 
 1346000   0.71034954   -7.1468436    330.35967  0.020453174  0.020361996         3134 
 1347000   0.71686875    -7.188609    331.05429  0.020480963   0.02034472         3195 
 1348000   0.72675822   -7.1801484    330.60664  0.020438096  0.020327421         3172 
 1349000   0.70775014   -7.1494059    330.07789  0.020390282  0.020310127         3261 
 1350000   0.71396085   -7.1767158     330.5731  0.020405747  0.020292791         3248 
 1351000   0.70894247   -7.2028671    330.41431  0.020380848  0.020275458         3292 
 1352000   0.73635284   -7.2030868    330.46098   0.02036865  0.020258111         3260 
 1353000   0.70631074   -7.2050323    330.12367   0.02033282  0.020240706         3372 
 1354000   0.70341062   -7.2095191     329.7239  0.020293199  0.020223277         3326 
 1355000   0.70352637   -7.2019431    329.59286  0.020270164  0.020205861         3392 
 1356000   0.71524736   -7.2542337    329.94358  0.020276769  0.020188396         3416 
 1357000    0.7014948   -7.2261515    329.25317  0.020219428  0.020170895         3454 
 1358000   0.71478408   -7.2559604    329.42103   0.02021484   0.02015333         3518 
 1359000   0.69781209   -7.2875118    328.56929  0.020147737  0.020135713         3539 
 1360000   0.71280302   -7.2805522    328.82268  0.020148448  0.020118084         3524 
 1361000   0.72298582   -7.2624342    329.30883  0.020163411  0.020100446         3513 
 1362000    0.7096872   -7.2846735    328.39999     0.020093    0.0200828         3557 
 1363000   0.71419136   -7.2923455      328.792  0.020102226  0.020065147         3476 
 1364000   0.69829995   -7.2686664    328.32602  0.020059019  0.020047526         3573 
 1365000    0.7115021   -7.2974035    328.69198  0.020066666  0.020029879         3585 
 1366000   0.71182845   -7.2914651    328.49501  0.020039959   0.02001223         3567 
 1367000    0.7139688   -7.3136517     328.4638  0.020023397  0.019994559         3600 
 1368000   0.72592769   -7.2746564    327.60651  0.019956537  0.019976868         3609 
 1369000   0.70241936   -7.3036046    327.48415  0.019934511  0.019959162         3674 
 1370000   0.69891454   -7.2954677     327.7661  0.019937111  0.019941451         3664 
 1371000   0.70499337   -7.3188076    328.04947  0.019939793  0.019923747         3639 
 1372000   0.71087033   -7.3057925    327.77987  0.019908884  0.019906021         3689 
 1373000    0.6924185   -7.3103969    327.63426  0.019885546   0.01988828         3687 
 1374000   0.70332957   -7.3270597    327.62808  0.019870698  0.019870569         3715 
 1375000   0.70774917   -7.3429096    327.68607  0.019859762  0.019852847         3739 
 1376000   0.69593285    -7.313517    327.87116  0.019856538  0.019835105         3737 
 1377000   0.69624964   -7.3403707    327.88751  0.019843108   0.01981736         3739 
 1378000   0.71017388   -7.3156829    327.94294   0.01983206  0.019799622         3750 
 1379000   0.69862706    -7.311414    327.70995  0.019803599  0.019781918         3742 
 1380000   0.69614026   -7.3384254    327.34353  0.019767121  0.019764188         3808 
 1381000   0.68958264   -7.3502774     327.5176  0.019763312  0.019746461         3770 
 1382000   0.69992567   -7.3470232    327.73674  0.019762225  0.019728736         3789 
 1383000    0.6962397   -7.3661971    327.51276   0.01973444  0.019711026         3775 
 1384000    0.6925959   -7.3447654    328.08884  0.019754867  0.019693334         3717 
 1385000   0.69259683   -7.3398126    327.63743  0.019713444  0.019675661         3751 
 1386000   0.70836022   -7.3186898    326.92295  0.019656262   0.01965799         3801 
 1387000   0.71862489    -7.336566    327.73865  0.019691099  0.019640333         3767 
 1388000   0.69454407   -7.3434194    327.72281  0.019675961  0.019622691         3786 
 1389000   0.67970597   -7.3606052    327.90171  0.019672529  0.019605054         3766 
 1390000   0.70368498   -7.3647062    327.51704  0.019635314  0.019587409         3751 
 1391000    0.6965165   -7.3405267    327.26494  0.019606095  0.019569773         3790 
 1392000    0.6836851   -7.3562657    327.05836  0.019579643   0.01955213         3785 
 1393000   0.68721827   -7.3537989    327.85863  0.019613462  0.019534518         3761 
 1394000   0.69622831   -7.3626989     327.4646  0.019575837  0.019516931         3777 
 1395000   0.69935115   -7.3657467    327.94211  0.019590329  0.019499346         3813 
 1396000   0.70525832   -7.3630238    328.04951  0.019582707  0.019481777         3780 
 1397000   0.69658242   -7.3618521    328.16968  0.019575858  0.019464222         3778 
 1398000   0.69562984   -7.3615883     327.2932  0.019509609  0.019446684         3805 
 1399000   0.68146085   -7.3504663    327.17868  0.019488842  0.019429163         3771 
 1400000   0.68463081   -7.3644159    327.88871  0.019517185   0.01941165         3782 
 1401000   0.68043812   -7.3593847    326.98026  0.019449219  0.019394146         3767 
 1402000   0.70138459   -7.3584431    326.90163  0.019430673  0.019376624         3788 
 1403000   0.70269287    -7.334498    327.03021   0.01942446  0.019359135         3784 
 1404000   0.70500047    -7.370676    327.16438  0.019418588  0.019341663         3796 
 1405000   0.68364855   -7.3630187    327.33395  0.019414825  0.019324207         3770 
 1406000   0.69846669   -7.3477947    327.61138   0.01941746  0.019306756         3747 
 1407000   0.67945553    -7.379717    326.90037  0.019361547  0.019289297         3788 
 1408000   0.68220896   -7.3496932    327.49431  0.019382949  0.019271857         3790 
 1409000   0.68607296   -7.3349938     327.5036  0.019369742  0.019254438         3786 
 1410000   0.67717253   -7.3585642    327.32229  0.019345289  0.019237038         3771 
 1411000   0.68366699   -7.3588818    326.73032  0.019296617  0.019219646         3751 
 1412000   0.68589125   -7.3583322    326.91655  0.019293942  0.019202244         3763 
 1413000   0.68919587    -7.382702    326.78721  0.019272659  0.019184861         3793 
 1414000   0.69916027   -7.3693547    326.67588  0.019252468  0.019167483         3796 
 1415000   0.69680429   -7.3852527    326.93445   0.01925409  0.019150097         3791 
 1416000   0.68456563   -7.3952196    326.52498  0.019216395  0.019132742         3825 
 1417000   0.70547381   -7.3844288    326.78494  0.019218122  0.019115394         3802 
 1418000   0.68534813   -7.3565627    327.01737  0.019218228  0.019098045         3782 
 1419000   0.69006165   -7.3743967    326.38234  0.019167391  0.019080705         3778 
 1420000   0.68694382   -7.3821835    327.09706  0.019195837  0.019063408         3795 
 1421000   0.69750392   -7.3582247    326.94088  0.019173169  0.019046128         3774 
 1422000   0.68022738   -7.3866123    327.19387  0.019174512  0.019028871         3790 
 1423000   0.68980497   -7.3871748    327.09214   0.01915508  0.019011592         3784 
 1424000   0.68400017   -7.3872393    327.02754  0.019137848  0.018994344         3763 
 1425000   0.67573003   -7.3553965    327.25961  0.019137989  0.018977116         3759 
 1426000   0.69510481   -7.4025325    326.50793  0.019080641  0.018959874         3810 
 1427000   0.69334596   -7.4052759    326.39791  0.019060845  0.018942651         3772 
 1428000   0.67775284   -7.3758786    326.70209  0.019065248  0.018925412         3730 
 1429000   0.67267038   -7.3958164    326.23315   0.01902456  0.018908206         3775 
 1430000   0.69907416   -7.4116825    326.34016  0.019017492  0.018890992         3754 
 1431000   0.67444928   -7.4017157    327.03478  0.019044653  0.018873814         3813 
 1432000   0.68404667   -7.3986497    326.34299  0.018991096  0.018856601         3816 
 1433000   0.67619813   -7.4008771    327.20084  0.019027729  0.018839442         3772 
 1434000   0.67727956   -7.4099713    326.70539  0.018985669  0.018822282         3796 
 1435000   0.68165603   -7.4079539    326.35619  0.018952159  0.018805135         3805 
 1436000   0.67972823    -7.424018     326.1513  0.018927071  0.018788022         3798 
 1437000   0.68108089   -7.4090087    326.49928   0.01893408  0.018770892         3770 
 1438000   0.66816524   -7.4106015    326.83447  0.018940338  0.018753766         3771 
 1439000   0.68462858   -7.3843839    326.57509  0.018912155  0.018736642         3795 
 1440000   0.67734266   -7.4146962    326.37274  0.018887312   0.01871953         3810 
 1441000   0.66955961   -7.3947961    326.09308  0.018858031  0.018702443         3783 
 1442000   0.67936009    -7.403938    326.40108  0.018862753  0.018685365         3785 
 1443000   0.68681203   -7.4127015    326.07397  0.018830791  0.018668302         3842 
 1444000     0.673274   -7.4048766     326.2398   0.01882732  0.018651201         3839 
 1445000    0.6818971   -7.4083791    326.39856  0.018823446  0.018634131         3823 
 1446000   0.66306478    -7.427982    325.91094  0.018782327  0.018617079         3841 
 1447000   0.67449313   -7.4054408    326.26646  0.018789821  0.018600019         3811 
 1448000   0.68013452    -7.435403    325.74108  0.018746609  0.018582985         3838 
 1449000   0.67757032   -7.4485421    325.48526  0.018718959  0.018565939         3822 
 1450000   0.65788347   -7.4343384    326.36437  0.018756573  0.018548913         3827 
 1451000   0.67382863   -7.4423222    326.36974  0.018743955  0.018531889         3805 
 1452000   0.67187938   -7.4282214    325.62088  0.018688067  0.018514909         3844 
 1453000   0.68005208   -7.4195459    326.01768  0.018697963  0.018497927         3833 
 1454000   0.66608423   -7.4338341    326.33425  0.018703247  0.018480966         3830 
 1455000   0.66472405   -7.4451977    326.05828  0.018674586  0.018464015         3839 
 1456000   0.67064386   -7.4363415    326.66463  0.018696464  0.018447092         3836 
 1457000   0.68901175   -7.4225561    326.49263  0.018673795  0.018430183         3809 
 1458000   0.67025278   -7.4160984    325.79504  0.018621116  0.018413287         3811 
 1459000   0.65587868   -7.4401823     326.4278  0.018644494  0.018396405         3827 
 1460000   0.67556674   -7.4247327    325.73621  0.018592249  0.018379529         3844 
 1461000   0.67147533   -7.4192601    326.49413  0.018622755  0.018362671         3816 
 1462000   0.66251995   -7.4328533    326.16254  0.018591116  0.018345821         3829 
 1463000   0.65918983   -7.4404941    325.92667  0.018564973  0.018328983         3857 
 1464000   0.68291579   -7.4349026    325.41147  0.018522966  0.018312156         3827 
 1465000   0.67798315   -7.4307612    325.56475  0.018519042  0.018295365         3818 
 1466000    0.6665874   -7.4387123    325.95746  0.018528732  0.018278583         3837 
 1467000    0.6887066   -7.4346511    326.37897  0.018540046  0.018261803         3847 
 1468000   0.66826981   -7.4253563    325.92503  0.018501648  0.018245062         3822 
 1469000   0.68335229   -7.4286328    325.73483  0.018478264  0.018228317         3828 
 1470000   0.66684852   -7.4505891    325.82916  0.018471041  0.018211575         3817 
 1471000   0.67112886   -7.4279071    325.47376   0.01843835  0.018194868         3815 
 1472000   0.66772864   -7.4401021    325.81392  0.018445082  0.018178176         3843 
 1473000   0.67949863   -7.4443955    325.73243  0.018427949  0.018161501         3844 
 1474000    0.6675482   -7.4245788    325.50507  0.018402593  0.018144827         3837 
 1475000   0.66066771   -7.4313929    325.84369  0.018409248  0.018128158         3803 
 1476000   0.67042715   -7.4202989    326.02608  0.018407073  0.018111524         3816 
 1477000   0.66659596   -7.4289555    326.14952  0.018401575  0.018094905         3804 
 1478000   0.66779002   -7.4454781    325.26863  0.018339458  0.018078302         3841 
 1479000    0.6727711    -7.430125    325.75162  0.018354272   0.01806171         3816 
 1480000   0.66667927   -7.4154902    325.66657  0.018337082  0.018045136         3835 
 1481000   0.66522052    -7.437896    325.62949  0.018322614  0.018028573         3821 
 1482000   0.65851157   -7.4404453    325.85726  0.018323058  0.018012016         3833 
 1483000   0.64506958   -7.4207871    325.83464  0.018309431  0.017995493         3843 
 1484000    0.6567609   -7.4325008    325.53491  0.018280262  0.017978987         3830 
 1485000   0.65785148   -7.4641737    325.83904  0.018285019  0.017962486         3833 
 1486000   0.65548798   -7.4571339    325.84275  0.018272922  0.017946005         3812 
 1487000   0.66615197   -7.4449056    325.38859  0.018235182  0.017929543         3832 
 1488000   0.65125166   -7.4322464    326.10156  0.018262856  0.017913075         3840 
 1489000   0.65263277   -7.4690429    325.85934  0.018237035  0.017896645         3825 
 1490000   0.65802162   -7.4624527     325.2866  0.018192763  0.017880216         3833 
 1491000   0.65833127    -7.435789      325.833    0.0182111  0.017863793         3826 
 1492000   0.66657336   -7.4307639     325.7429  0.018193862  0.017847375         3839 
 1493000   0.65589263   -7.4598283      325.912  0.018191114  0.017831002         3822 
 1494000   0.64941301   -7.4736057    325.64575  0.018164087   0.01781465         3836 
 1495000   0.65163523   -7.4291034    325.05502  0.018119009  0.017798281         3854 
 1496000   0.66348384   -7.4352005    325.79643  0.018148197  0.017781964         3834 
 1497000   0.65962331   -7.4436305    324.97376  0.018090278  0.017765651         3828 
 1498000    0.6522142   -7.4464005    325.74285  0.018120986  0.017749342         3827 
 1499000   0.66076378   -7.4653774    325.59258  0.018100544  0.017733069         3829 
 1500000   0.64076302   -7.4519475    325.97622   0.01810979  0.017716805         3824 
 1501000   0.65596416    -7.456071    325.56814  0.018075069  0.017700563         3815 
 1502000   0.64814045   -7.4470775    325.27758  0.018046914  0.017684339         3851 
 1503000   0.67036355   -7.4488482    325.30441  0.018036394  0.017668116         3855 
 1504000    0.6692436   -7.4502927    325.74258   0.01804868  0.017651905         3815 
 1505000   0.65488071   -7.4480224    325.79568  0.018039628  0.017635709         3811 
 1506000   0.65808568   -7.4576891    326.09095  0.018043988  0.017619519         3796 
 1507000   0.64228264   -7.4611755    325.37548  0.017992451   0.01760334         3850 
 1508000   0.65983983   -7.4627788    325.67735  0.017997201   0.01758718         3850 
 1509000   0.65917128   -7.4535415    324.90297   0.01794251  0.017571033         3804 
 1510000   0.64160065   -7.4588414    325.24809  0.017949674    0.0175549         3821 
 1511000   0.65393613   -7.4770541    325.60392  0.017957419  0.017538782         3792 
 1512000   0.64605579    -7.469787    325.15085  0.017920572  0.017522677         3814 
 1513000   0.64941363    -7.471777    325.88681  0.017949263  0.017506586         3820 
 1514000    0.6578153   -7.4799381    325.33402  0.017906981  0.017490492         3774 
 1515000   0.64789807   -7.4664902    324.57505  0.017853413  0.017474441         3814 
 1516000   0.63718378   -7.4492945    324.62691  0.017844487  0.017458394         3829 
 1517000   0.64709503   -7.4804891    325.27547  0.017868351  0.017442357         3830 
 1518000   0.65008631   -7.4784059    325.01136  0.017842082   0.01742633         3797 
 1519000   0.64712523   -7.4662403    325.03424  0.017831591  0.017410339         3802 
 1520000   0.63026273   -7.4687498    325.29893  0.017834371  0.017394337         3778 
 1521000    0.6531913   -7.4739262    325.87402  0.017854154  0.017378343         3809 
 1522000   0.64843414   -7.4585744    325.53085  0.017823634  0.017362369         3798 
 1523000   0.64284482    -7.474491    325.09267  0.017787955  0.017346402         3809 
 1524000   0.62709074    -7.479731    325.22642  0.017783597  0.017330457         3829 
 1525000   0.65893963   -7.4757699      325.588  0.017791694  0.017314513         3807 
 1526000   0.63704264   -7.4705824    325.26946   0.01776264  0.017298598         3802 
 1527000   0.64082346   -7.4968966    325.73559  0.017776445  0.017282685         3838 
 1528000   0.64644615   -7.5137709    324.71632  0.017709224  0.017266784         3822 
 1529000   0.63867208   -7.4852018    325.09867   0.01771848  0.017250889         3840 
 1530000    0.6405534   -7.4891817    324.94743  0.017698662  0.017235021         3833 
 1531000   0.64525067   -7.5012712    325.20953  0.017701368  0.017219181         3837 
 1532000   0.64271111   -7.4818046    324.98354  0.017677521  0.017203307         3837 
 1533000   0.64176995   -7.4965207    325.26277  0.017681168  0.017187473         3840 
 1534000   0.63076191   -7.5164083    324.99555  0.017655126  0.017171668         3830 
 1535000   0.64715807    -7.495777    324.94941  0.017641119  0.017155872         3843 
 1536000     0.652458   -7.5067278    324.46687  0.017603454  0.017140086         3850 
 1537000    0.6372898   -7.4882439    324.35992  0.017586202  0.017124313         3839 
 1538000   0.64611496     -7.47569    325.18783  0.017619627  0.017108557         3826 
 1539000   0.63779599   -7.4943886    324.42472  0.017566857  0.017092827         3817 
 1540000   0.62263869   -7.4727807    324.88928  0.017580589  0.017077124         3816 
 1541000    0.6383573    -7.503349    324.75332  0.017561828  0.017061419         3845 
 1542000    0.6484262   -7.4902962    325.17199  0.017573065  0.017045743         3837 
 1543000   0.63245053   -7.4981465    324.35029  0.017517298  0.017030076         3834 
 1544000   0.63353045   -7.4890822    325.58132  0.017572394  0.017014421         3813 
 1545000   0.63446811   -7.4978798    325.08101  0.017534035   0.01699878         3826 
 1546000   0.63479647    -7.523083    325.38314  0.017538979  0.016983153         3829 
 1547000   0.64078955   -7.4812383    324.68323  0.017489939  0.016967535         3819 
 1548000   0.64114304   -7.4836397    324.83555   0.01748684  0.016951941         3810 
 1549000   0.64507106   -7.4735728    324.74022  0.017470423  0.016936359         3819 
 1550000   0.63539062   -7.5012541    324.58659  0.017450892  0.016920808         3832 
 1551000   0.63385752   -7.4974843    325.09252  0.017466824  0.016905277         3842 
 1552000   0.63376256   -7.4997842    324.88151  0.017444239  0.016889756         3848 
 1553000   0.64308905   -7.4936982    324.93564  0.017435911  0.016874248         3833 
 1554000   0.64006267   -7.4735596    325.25903  0.017442033  0.016858764         3859 
 1555000   0.63029006   -7.4869124    324.53602   0.01739207  0.016843281         3843 
 1556000   0.63152557   -7.5014008    324.35931  0.017371428  0.016827819         3846 
 1557000   0.63571169   -7.5003809    324.66031  0.017376381  0.016812349         3815 
 1558000   0.64551263   -7.4681946    324.52331    0.0173579  0.016796925         3798 
 1559000   0.63035794   -7.5048686     324.9701  0.017370649  0.016781494         3820 
 1560000   0.63113524   -7.5086312    324.39627  0.017328861  0.016766069         3809 
 1561000   0.61372972   -7.4851756     324.5293  0.017324861  0.016750673         3782 
 1562000   0.63253499   -7.5105621    324.99405  0.017338564   0.01673528         3822 
 1563000   0.62768848   -7.5085579    324.67048   0.01731022   0.01671992         3800 
 1564000   0.61854826   -7.5067969    324.88042  0.017310338  0.016704598         3812 
 1565000   0.63927402   -7.5322236    324.99833  0.017305556  0.016689267         3814 
 1566000    0.6237964   -7.5195792    325.16887   0.01730358  0.016673958         3822 
 1567000   0.62995688   -7.5080897    324.34925   0.01724895  0.016658666         3831 
 1568000   0.64207603   -7.5134485     324.4534  0.017243484  0.016643381         3825 
 1569000   0.62352981   -7.5156318    324.24886  0.017221631  0.016628109         3844 
 1570000   0.62789993   -7.5455205      324.115  0.017203556  0.016612855         3827 
 1571000   0.60536858   -7.5231362     324.7274   0.01722509  0.016597595         3848 
 1572000   0.62205388   -7.5495436    324.52332  0.017203314  0.016582362         3838 
 1573000   0.63678169   -7.5181266    324.72406  0.017203012  0.016567152         3862 
 1574000   0.62834014   -7.5339736    324.58462    0.0171847  0.016551966         3803 
 1575000   0.64157873   -7.5126987    324.34848  0.017161295  0.016536773         3841 
 1576000   0.62441217   -7.5337221    324.42844  0.017154634  0.016521614         3815 
 1577000   0.60268569    -7.524839    324.74235  0.017160344   0.01650645         3834 
 1578000   0.61370606   -7.5397054    325.02884  0.017164599  0.016491323         3821 
 1579000   0.61842296   -7.5315191    324.55316  0.017128624  0.016476196         3835 
 1580000   0.61134589   -7.5411384    324.54938  0.017117584  0.016461092         3836 
 1581000   0.62394195   -7.5325736    324.74992  0.017117326  0.016446007         3826 
 1582000   0.63724346    -7.544419    324.44035    0.0170902  0.016430936         3843 
 1583000   0.61671055   -7.5123045    324.45839  0.017080353  0.016415871         3845 
 1584000   0.62306984   -7.5198531    323.93942  0.017042267  0.016400844         3845 
 1585000   0.62418274   -7.5133033    324.40297  0.017055887  0.016385823         3825 
 1586000   0.62956376   -7.5334764    324.77347    0.0170646  0.016370829         3822 
 1587000   0.60781875   -7.5308851    324.14048  0.017020609  0.016355842         3838 
 1588000   0.62032814   -7.5063402    324.14225  0.017009984  0.016340855         3839 
 1589000   0.62031749   -7.5181562    324.03284  0.016993541   0.01632589         3822 
 1590000   0.61880418   -7.5338837    324.45845   0.01700516  0.016310932         3833 
 1591000   0.61876871   -7.5318824    323.90419   0.01696544   0.01629599         3851 
 1592000   0.62827454     -7.54565    324.21194  0.016970893  0.016281077         3855 
 1593000   0.60592231    -7.527468     324.0611  0.016952349  0.016266175         3828 
 1594000   0.62264327   -7.5416479    323.78049  0.016927043  0.016251289         3831 
 1595000   0.62504288   -7.5301159     324.4625  0.016952064  0.016236411         3840 
 1596000   0.62603574   -7.5432123    323.89319  0.016911716  0.016221548         3841 
 1597000   0.62085609   -7.5460836    324.08584  0.016911179  0.016206715         3850 
 1598000    0.6263414   -7.5438819    324.01093   0.01689669  0.016191885         3836 
 1599000    0.6278856    -7.540811    324.15729  0.016893751  0.016177067         3853 
 1600000   0.62173778   -7.5440991    324.17615  0.016884174  0.016162255         3858 
 1601000   0.61423331   -7.5377354    323.82689  0.016855449  0.016147474         3860 
 1602000    0.6075069   -7.5282171    323.90123  0.016848795  0.016132705         3859 
 1603000   0.61839381   -7.5503132     323.7522  0.016830537  0.016117937         3866 
 1604000   0.60785554   -7.5266943    324.34901   0.01685105  0.016103201         3839 
 1605000   0.61775605   -7.5237626    323.70634  0.016807183  0.016088476         3840 
 1606000   0.61939939   -7.5451384    324.27718  0.016826338  0.016073772         3832 
 1607000   0.62658918   -7.5306547    324.43324   0.01682396  0.016059074         3825 
 1608000   0.60110276   -7.5436823    323.94282  0.016788082  0.016044397         3858 
 1609000   0.59733502   -7.5440564    323.96222  0.016778653  0.016029733         3863 
 1610000   0.61807811   -7.5528806    323.85944  0.016762911  0.016015103         3849 
 1611000   0.60256893   -7.5518466    324.20304  0.016770279  0.016000473         3864 
 1612000   0.61734684   -7.5483618    324.28209  0.016763962  0.015985867         3851 
 1613000   0.59615463    -7.551823     323.9551  0.016736676  0.015971266         3859 
 1614000   0.60656774   -7.5518219    323.88702  0.016722791  0.015956676         3864 
 1615000   0.61355983   -7.5398436    324.63752  0.016751162  0.015942109         3858 
 1616000   0.61345549   -7.5609645    324.35891  0.016726429  0.015927561         3874 
 1617000   0.60191146   -7.5500802    324.09883  0.016702682  0.015913015         3845 
 1618000   0.61166057   -7.5382204    324.28466  0.016701929  0.015898493         3862 
 1619000   0.58593442   -7.5383206    324.37665  0.016696348  0.015883979         3837 
 1620000   0.60958143   -7.5568276    323.95067  0.016664129  0.015869489         3855 
 1621000   0.61374211   -7.5348209    324.06985  0.016659976  0.015855002         3858 
 1622000   0.60892649   -7.5498606    323.40694  0.016615646  0.015840547         3857 
 1623000   0.60940695   -7.5469304    323.68586   0.01661973  0.015826091         3855 
 1624000   0.61181374   -7.5455011    323.83749  0.016617277  0.015811671         3868 
 1625000   0.61417642    -7.541813    324.21385  0.016626351   0.01579726         3860 
 1626000   0.60946915   -7.5556348    324.14399  0.016612546  0.015782862         3865 
 1627000   0.59154695   -7.5232617    323.53678  0.016571234  0.015768464         3853 
 1628000   0.61366936   -7.5586417    323.99785  0.016584656  0.015754092         3843 
 1629000   0.60254674   -7.5432836    323.73787  0.016561176  0.015739733         3851 
 1630000   0.60797753   -7.5587437    324.31458    0.0165805  0.015725387         3861 
 1631000   0.59803734   -7.5436219    324.44605  0.016577052  0.015711072         3864 
 1632000   0.60376135    -7.557898    323.47791  0.016517458   0.01569676         3871 
 1633000   0.59869907   -7.5479748    324.02841  0.016535436   0.01568246         3862 
 1634000   0.61301656   -7.5804975    324.07415  0.016527649  0.015668185         3861 
 1635000   0.60221975   -7.5521383    324.29069  0.016528577  0.015653925         3854 
 1636000   0.58921344   -7.5552861    323.81357  0.016494171  0.015639681         3862 
 1637000   0.59442273   -7.5379254    323.08708  0.016447113  0.015625453         3856 
 1638000    0.5897594   -7.5476851    323.58687  0.016462498  0.015611233         3851 
 1639000   0.58937078    -7.557645    323.60148  0.016453197  0.015597044         3857 
 1640000   0.58787927   -7.5570274    323.65594  0.016445932  0.015582851         3870 
 1641000   0.59615382   -7.5702994    323.56456  0.016431269  0.015568688         3854 
 1642000   0.59314018   -7.5410796    324.28177  0.016457662  0.015554532         3830 
 1643000   0.59497191    -7.543337    323.24472  0.016395046  0.015540396         3844 
 1644000   0.58934223   -7.5819783    323.67602  0.016406935  0.015526275         3844 
 1645000   0.60462406   -7.5503708    323.36829  0.016381373  0.015512156         3856 
 1646000    0.5961982   -7.5618236    323.77444  0.016391983  0.015498057         3846 
 1647000   0.60231103   -7.5631571    324.17179  0.016402135   0.01548399         3846 
 1648000   0.58546379   -7.5478983    323.42112  0.016354223  0.015469934         3873 
 1649000   0.59919921   -7.5600755    323.42527  0.016344515  0.015455885         3840 
 1650000   0.59692257   -7.5528412    323.80963  0.016354022  0.015441865         3864 
 1651000     0.592578   -7.5550967    323.71413  0.016339296  0.015427849         3845 
 1652000   0.60128473   -7.5682099    323.94312  0.016340957  0.015413848         3854 
 1653000   0.59517495   -7.5623628    323.59645  0.016313594   0.01539985         3865 
 1654000    0.5891204   -7.5669979    323.42492  0.016295089  0.015385887         3867 
 1655000   0.58809382    -7.572684    323.84185  0.016306236  0.015371918         3852 
 1656000   0.58798025   -7.5571987    324.04119  0.016306421  0.015357972         3861 
 1657000   0.59811742   -7.5636541    323.71594  0.016280222   0.01534404         3855 
 1658000   0.57880102   -7.5597244    322.74845  0.016221776  0.015330126         3863 
 1659000   0.60436261    -7.580004    323.41148  0.016245302  0.015316222         3876 
 1660000   0.58589584   -7.5724708    323.29813  0.016229826  0.015302351         3856 
 1661000    0.6041212   -7.5906739    323.94589  0.016252553  0.015288494         3860 
 1662000    0.5960556     -7.57705    323.42165  0.016216489  0.015274635         3863 
 1663000   0.60003321    -7.549451    323.54389  0.016212863  0.015260803         3849 
 1664000   0.60208809   -7.5509083    323.74714  0.016213298  0.015246989         3853 
 1665000   0.58504043   -7.5653244    323.45647  0.016189013  0.015233186         3866 
 1666000   0.58830357   -7.5754651    323.57353  0.016185151  0.015219397         3846 
 1667000   0.59656055   -7.5793768    323.09859  0.016151699  0.015205635         3844 
 1668000   0.58544171    -7.572518    323.36694  0.016155423  0.015191879         3853 
 1669000   0.59100099   -7.5817092     323.1102  0.016132924  0.015178121         3859 
 1670000   0.58854533   -7.5845048    323.76502  0.016155939  0.015164399         3846 
 1671000   0.57606505   -7.5669367    323.50404  0.016133256  0.015150684         3858 
 1672000   0.59083134   -7.5853005     323.4574  0.016121282  0.015136989         3857 
 1673000   0.59656964   -7.5785647    323.57056  0.016117283  0.015123308         3840 
 1674000   0.59027015   -7.5736561    323.08616  0.016083541  0.015109641         3877 
 1675000   0.58261203   -7.5956976    323.12053  0.016075648  0.015095984         3851 
 1676000   0.59356298   -7.5871494    323.49147  0.016084501  0.015082336         3858 
 1677000   0.58400568   -7.5811277    323.67829  0.016084193  0.015068713         3843 
 1678000   0.58848027   -7.5748401    323.58498  0.016069973  0.015055106         3838 
 1679000   0.58252101   -7.5898186    323.48298  0.016055339  0.015041502         3855 
 1680000   0.58828269    -7.582619    323.81075  0.016062041  0.015027941         3859 
 1681000   0.58339722   -7.5820555    323.74175  0.016049065   0.01501437         3867 
 1682000    0.5828159   -7.5931306    323.30341  0.016017807  0.015000818         3860 
 1683000   0.58671394   -7.5720177    323.38292  0.016012226  0.014987277         3852 
 1684000   0.57992723   -7.5883031    323.18004  0.015992678  0.014973757         3861 
 1685000   0.57963838   -7.5832376    323.36316  0.015992243  0.014960255         3841 
 1686000   0.57391944   -7.5743413    323.67863  0.015998351  0.014946757         3861 
 1687000   0.57811237   -7.5967375    323.73649  0.015991726  0.014933284         3841 
 1688000   0.57835794   -7.5986525    323.92936  0.015991773  0.014919821         3848 
 1689000   0.57319062   -7.5901619    323.75836  0.015973868  0.014906366         3847 
 1690000    0.5749643   -7.5797286    323.89083  0.015970948  0.014892932         3852 
 1691000   0.57852361    -7.592827    323.09947  0.015922505  0.014879518         3866 
 1692000   0.57295862   -7.5948893     323.5184  0.015933727  0.014866118         3835 
 1693000   0.57687765   -7.5909713    323.17928  0.015907624  0.014852728         3859 
 1694000   0.58030402   -7.5947206    323.36493  0.015907366  0.014839356         3871 
 1695000   0.58065503   -7.5911912    323.27917  0.015893764  0.014825998         3856 
 1696000   0.57921721   -7.6073219    323.59545  0.015899934  0.014812649         3862 
 1697000    0.5837367   -7.5891073    323.51371   0.01588655  0.014799317         3849 
 1698000      0.57493   -7.5871773    322.69734  0.015837129  0.014785999         3846 
 1699000   0.56341474   -7.6259691    323.42312  0.015863406  0.014772699         3859 
 1700000   0.57222914   -7.5867604    323.24617    0.0158454  0.014759414         3841 
 1701000   0.56628232   -7.6048364    323.83966  0.015865161  0.014746137         3870 
 1702000   0.57358871   -7.5991931    323.61754  0.015844964  0.014732867         3866 
 1703000   0.56088233   -7.6030907    323.43872  0.015826909  0.014719631         3862 
 1704000   0.57424921   -7.6051988    323.10995  0.015801543  0.014706402         3858 
 1705000   0.57537733   -7.5843854    323.16269  0.015794853  0.014693188         3847 
 1706000   0.56643391   -7.5956061    323.31993  0.015793275   0.01467999         3848 
 1707000   0.57070673   -7.5888484    323.61271  0.015798316  0.014666796         3867 
 1708000   0.57076291   -7.5890181    323.37603  0.015777519  0.014653624         3863 
 1709000   0.57419308   -7.6044241     322.7647  0.015738477  0.014640471         3843 
 1710000   0.58108691   -7.5903884    323.02804  0.015742107  0.014627332         3862 
 1711000   0.58169497   -7.6061721    323.04569  0.015733766  0.014614207         3872 
 1712000   0.57018965   -7.5894983    322.87983  0.015716503  0.014601093         3846 
 1713000   0.56843738   -7.5958502    322.93199  0.015709865  0.014587992         3856 
 1714000   0.55062312   -7.5957282    323.80874  0.015743327  0.014574901         3844 
 1715000   0.56146801   -7.6082543    323.69474  0.015728607  0.014561824         3836 
 1716000   0.56881789    -7.592817     323.3807  0.015704191  0.014548775         3871 
 1717000   0.57890454   -7.6093393    322.44526  0.015649644  0.014535729         3873 
 1718000    0.5689608   -7.6071969    323.57599  0.015695382  0.014522705         3855 
 1719000   0.57682511   -7.5990039    322.74316  0.015645877  0.014509691         3853 
 1720000   0.55306405   -7.5979998    322.89222  0.015644003   0.01449671         3847 
 1721000   0.55967029   -7.6093278    323.40915  0.015659943  0.014483728         3874 
 1722000   0.56521462   -7.6033134    322.94957  0.015628609   0.01447075         3866 
 1723000   0.57055709   -7.6085166     322.4716  0.015596421   0.01445778         3857 
 1724000   0.56839624   -7.6059769    322.89416    0.0156078  0.014444837         3873 
 1725000   0.55799144   -7.5866249    322.74661  0.015591624  0.014431902         3871 
 1726000   0.57321636   -7.5874591    323.06124  0.015597781  0.014418992         3851 
 1727000   0.56373918   -7.6095917    322.98827  0.015585228  0.014406092         3876 
 1728000   0.55587887    -7.599262    323.45682  0.015598805  0.014393204         3873 
 1729000   0.55772739   -7.6071222    322.90616  0.015563243  0.014380337         3876 
 1730000   0.56971243   -7.5991324    323.75515  0.015595142   0.01436748         3866 
 1731000   0.55764589   -7.6298965    322.98443  0.015549029  0.014354631         3871 
 1732000   0.55190139   -7.6216389    323.08633  0.015544954  0.014341799         3872 
 1733000   0.56952671   -7.5875063    323.22212  0.015542514  0.014328984         3867 
 1734000   0.56452072   -7.6188397     323.1851  0.015531771  0.014316185         3847 
 1735000   0.56118683   -7.5900832    323.13982  0.015520645  0.014303412         3863 
 1736000   0.56641843   -7.6149135    322.91039  0.015500691  0.014290638         3867 
 1737000   0.55923991   -7.6183589     323.5438  0.015522155  0.014277868         3856 
 1738000   0.56110445   -7.6122959    323.02432  0.015488316  0.014265124         3878 
 1739000   0.55135381   -7.6262528     322.6115  0.015459627  0.014252386         3866 
 1740000    0.5544442    -7.597041    322.94783   0.01546685  0.014239664         3875 
 1741000   0.55765984   -7.5993744     322.9625  0.015458669  0.014226956         3845 
 1742000   0.56152924   -7.6287061    322.92627  0.015448061  0.014214263         3856 
 1743000   0.56038745     -7.61114    322.40397  0.015414227  0.014201585         3849 
 1744000   0.56692861   -7.6121416    323.23093  0.015444903  0.014188915         3860 
 1745000   0.56042397   -7.6061909    323.25249  0.015437082  0.014176267         3862 
 1746000   0.55147628   -7.6252031    323.12658  0.015422231  0.014163627         3881 
 1747000   0.55456519   -7.6357115    322.84382  0.015399915     0.014151         3859 
 1748000    0.5566718   -7.6194402    322.78623  0.015388359  0.014138385         3861 
 1749000    0.5576002   -7.6211098    322.78913  0.015379699  0.014125792         3853 
 1750000   0.55002092   -7.6419021    322.61528  0.015362633    0.0141132         3850 
 1751000   0.54471158   -7.6044757    323.17951  0.015380711  0.014100636         3860 
 1752000   0.57238853   -7.6136274    322.72724   0.01535042   0.01408808         3862 
 1753000   0.55434767   -7.6120698    322.60612  0.015335906  0.014075533         3873 
 1754000   0.55538779   -7.6377185    322.42349  0.015318486  0.014063013         3866 
 1755000   0.55171493   -7.6256564    322.88312  0.015331582  0.014050505         3865 
 1756000   0.55677353   -7.6242236    322.78769  0.015318322  0.014038005         3836 
 1757000   0.55080322   -7.6096554    323.57053  0.015346734  0.014025527         3861 
 1758000   0.55723153   -7.6130744     322.9309  0.015307684  0.014013057         3880 
 1759000   0.55355376   -7.6299565    322.87543  0.015296354  0.014000604         3840 
 1760000   0.54622387   -7.6213568    322.81884  0.015284983  0.013988152         3868 
 1761000    0.5507385    -7.638102      322.392  0.015256105  0.013975713         3868 
 1762000   0.54156599   -7.6259653    322.16558  0.015236737  0.013963295         3860 
 1763000   0.54899902   -7.6342061    323.12194    0.0152733  0.013950888         3847 
 1764000   0.55084176   -7.6049208    323.19681  0.015268179  0.013938501         3865 
 1765000    0.5503089   -7.6151389    322.66961  0.015234637  0.013926124         3839 
 1766000   0.54521915   -7.6270564    322.66558   0.01522582  0.013913757         3860 
 1767000   0.54693866   -7.6346062     322.7415  0.015220784  0.013901407         3877 
 1768000   0.52951363   -7.6415215    322.49937  0.015200762  0.013889068         3856 
 1769000   0.54166887   -7.6401044    322.78646  0.015205693  0.013876736         3870 
 1770000   0.54367987   -7.6388535    322.87396  0.015201222  0.013864425         3856 
 1771000   0.54861957   -7.6384857    322.72919  0.015185827  0.013852124         3882 
 1772000   0.53717505   -7.6321101    322.66657  0.015174312  0.013839834         3858 
 1773000   0.55071044   -7.6372111    322.14856  0.015141406  0.013827562         3856 
 1774000   0.55710253   -7.6258501      323.092  0.015177189  0.013815304         3835 
 1775000   0.54827816   -7.6230912    322.49015  0.015140383  0.013803069         3867 
 1776000   0.54472374    -7.643002    322.48567  0.015131648  0.013790834         3862 
 1777000   0.54527069   -7.6286537      322.607  0.015128822  0.013778615         3849 
 1778000    0.5292684   -7.6146267    322.78372  0.015128596   0.01376641         3851 
 1779000   0.54109469   -7.6254332    322.90921   0.01512597  0.013754231         3846 
 1780000   0.54091901   -7.6338926    322.41375  0.015094277  0.013742054         3867 
 1781000   0.53762093   -7.6545914    322.29097  0.015080057  0.013729897         3878 
 1782000   0.54013222   -7.6258553     322.7706  0.015094024  0.013717741         3860 
 1783000   0.54739841   -7.6315385     322.6208  0.015078557  0.013705599         3857 
 1784000   0.53391626   -7.6393343    322.28553  0.015054443  0.013693477         3850 
 1785000    0.5259175   -7.6406086     322.5921  0.015060322  0.013681376         3868 
 1786000   0.54250169   -7.6322247    322.13223  0.015030433  0.013669284         3861 
 1787000   0.53857697   -7.6297483    322.47016   0.01503778  0.013657209         3870 
 1788000   0.53665894   -7.6564818    322.56696  0.015033881  0.013645141         3853 
 1789000   0.54208905   -7.6276587    322.35957  0.015015817  0.013633088         3867 
 1790000   0.53642222   -7.6454457    322.06942  0.014993921  0.013621048         3833 
 1791000   0.52800968   -7.6568796    322.68227  0.015014064  0.013609027         3867 
 1792000   0.53403865   -7.6431609    321.99284  0.014973625  0.013597015         3876 
 1793000   0.54228023   -7.6291111    322.13967  0.014972099  0.013585015         3864 
 1794000   0.53650305   -7.6354558    322.53326  0.014982036  0.013573028         3855 
 1795000   0.53151678   -7.6486955    323.09627  0.014999827  0.013561053         3871 
 1796000   0.53628899   -7.6447458    322.25951   0.01495265  0.013549087         3845 
 1797000   0.54202997   -7.6413168    322.28387  0.014945459  0.013537144         3858 
 1798000   0.54722685   -7.6574789    322.45357  0.014945012   0.01352521         3865 
 1799000   0.54065081   -7.6427716     323.0702  0.014965268   0.01351329         3863 
 1800000   0.53095332   -7.6414856    322.84861  0.014946695  0.013501384         3875 
 1801000   0.53917006   -7.6420142    322.36819  0.014916167  0.013489485         3872 
 1802000   0.54037793   -7.6414004    322.37563  0.014908233  0.013477606         3868 
 1803000   0.54031608   -7.6445689    322.62892  0.014911671  0.013465738         3855 
 1804000   0.54006612   -7.6464244    322.09573  0.014878776  0.013453888         3867 
 1805000   0.53401377    -7.642366    321.82441  0.014858006  0.013442053         3875 
 1806000   0.53012445   -7.6460073    322.46429  0.014879305  0.013430231         3870 
 1807000   0.52994031   -7.6462787      322.282  0.014862664  0.013418412         3833 
 1808000   0.54101662   -7.6521536    321.84883  0.014834478  0.013406603         3859 
 1809000   0.54205295    -7.642359    322.72088  0.014866449  0.013394821         3847 
 1810000   0.53375383   -7.6270839    322.60444  0.014852875   0.01338305         3854 
 1811000   0.53149521   -7.6480248     322.2636   0.01482899  0.013371296         3864 
 1812000   0.52801862   -7.6505125     322.4925  0.014831333  0.013359552         3856 
 1813000   0.52702891   -7.6586798    322.08173  0.014804272  0.013347824         3875 
 1814000   0.53056393   -7.6575251    321.89169   0.01478738  0.013336094         3863 
 1815000   0.52521346   -7.6499911    322.57624  0.014810663  0.013324377         3857 
 1816000   0.52995914   -7.6465176    322.16341  0.014783563   0.01331268         3884 
 1817000   0.53897756   -7.6658555    322.06397  0.014770866  0.013300993         3867 
 1818000   0.52855512    -7.652843    322.29023  0.014773113  0.013289328         3860 
 1819000   0.52439136   -7.6403003    321.74217  0.014739883  0.013277673         3853 
 1820000   0.52927418   -7.6543684    322.23539  0.014754368  0.013266031         3866 
 1821000   0.51899844    -7.637014    322.04184  0.014737408  0.013254394         3853 
 1822000   0.51927781   -7.6459371    321.91983  0.014723739  0.013242774         3833 
 1823000   0.52323171   -7.6683926    321.88481  0.014714062   0.01323117         3865 
 1824000   0.51772503   -7.6517338    322.50919  0.014734521  0.013219586         3851 
 1825000   0.52307288   -7.6521537    321.93162  0.014700074  0.013208001         3863 
 1826000   0.52755275   -7.6595425    321.95451  0.014693068  0.013196436         3859 
 1827000   0.52602621   -7.6665224    322.10861  0.014692055  0.013184885         3863 
 1828000   0.53092388   -7.6611767    322.18556  0.014687525  0.013173346         3863 
 1829000   0.52732884   -7.6720422    322.31456  0.014685372  0.013161817         3872 
 1830000   0.52246448   -7.6737912    322.07093  0.014666253  0.013150295         3871 
 1831000   0.52310651   -7.6601577    322.25347  0.014666552  0.013138793         3862 
 1832000   0.51557729   -7.6564216     322.0934  0.014651264  0.013127304         3862 
 1833000   0.51104678   -7.6621242    322.33175  0.014654108  0.013115821         3862 
 1834000   0.51893585   -7.6626265    322.06896  0.014634177  0.013104358         3873 
 1835000   0.52085949   -7.6612318    321.99342  0.014622771   0.01309291         3862 
 1836000   0.51181867   -7.6433451    322.07383  0.014618456  0.013081466         3844 
 1837000   0.51933606   -7.6677543    321.75858  0.014596198  0.013070032         3869 
 1838000   0.52220654   -7.6518399    321.82866  0.014591434  0.013058614         3874 
 1839000   0.53155215   -7.6451634    321.15657  0.014553044  0.013047212         3875 
 1840000   0.51477852   -7.6604553    321.80382  0.014574449   0.01303582         3847 
 1841000   0.51229221   -7.6678291    321.92023  0.014571801  0.013024446         3861 
 1842000   0.53168653   -7.6683315    322.17055  0.014575215   0.01301308         3868 
 1843000   0.50919965   -7.6676196    321.65939  0.014544194  0.013001731         3871 
 1844000    0.5181566   -7.6652039     321.7968  0.014542516  0.012990394         3854 
 1845000   0.52256148   -7.6637936    321.75822  0.014532891  0.012979072         3854 
 1846000     0.531664   -7.6737771    322.30159  0.014549548  0.012967762         3876 
 1847000   0.51777823   -7.6630652    321.88471  0.014522862  0.012956462         3867 
 1848000    0.5087209   -7.6760885    322.39595  0.014538057  0.012945175         3840 
 1849000   0.51038501   -7.6717596     321.6843  0.014498121  0.012933902         3855 
 1850000   0.50974432   -7.6728447    322.14027  0.014510823  0.012922643         3875 
 1851000   0.52125119   -7.6705381    322.02652  0.014497862  0.012911392         3858 
 1852000   0.50596635   -7.6796159     321.8054  0.014480085  0.012900151         3868 
 1853000    0.5035824   -7.6548113    321.67904  0.014466587  0.012888922         3863 
 1854000    0.5084894   -7.6728076    321.65108  0.014457528  0.012877708         3873 
 1855000   0.52483368   -7.6715285    321.64002  0.014449237  0.012866511         3875 
 1856000   0.50840045   -7.6716376    321.82415   0.01444972  0.012855317         3851 
 1857000   0.51074396   -7.6807824    321.89626  0.014445174  0.012844141         3852 
 1858000   0.50923359   -7.6724543    322.17692  0.014449987  0.012832981         3867 
 1859000   0.51292473   -7.6915538    322.08798  0.014438228  0.012821822         3852 
 1860000   0.50515457   -7.6771098    322.04089  0.014428355   0.01281068         3879 
 1861000   0.51253649   -7.6583888    321.69975  0.014405326  0.012799553         3874 
 1862000   0.50447324   -7.6483255    321.37449  0.014383033  0.012788434         3865 
 1863000   0.50621885   -7.6653532    321.81623  0.014395072  0.012777334         3869 
 1864000   0.50803228   -7.6747728    321.67711   0.01438113  0.012766232         3870 
 1865000   0.50780259   -7.6864556    321.60072  0.014370005  0.012755145         3867 
 1866000   0.52448767   -7.6820466    322.00394  0.014380312  0.012744079         3851 
 1867000   0.50233215   -7.6755119    321.63136  0.014355979  0.012733019         3874 
 1868000   0.51862535   -7.6747613    321.80511  0.014356045  0.012721974         3867 
 1869000   0.50001118   -7.6925652    321.66282   0.01434202  0.012710944         3857 
 1870000    0.5091017   -7.6877632    321.87732  0.014343909  0.012699928         3872 
 1871000   0.50723874   -7.6981493    321.26394  0.014308923  0.012688923         3880 
 1872000   0.50770392   -7.6802802    321.80279  0.014325267   0.01267793         3875 
 1873000   0.50402851   -7.6751276    321.76909  0.014316119  0.012666942         3859 
 1874000    0.4948011   -7.6905378     321.5218  0.014297483  0.012655981         3867 
 1875000   0.51204812    -7.688708    321.92428  0.014307746  0.012645024         3879 
 1876000   0.50667633   -7.6741485    321.40049  0.014276852  0.012634079         3866 
 1877000    0.5172855   -7.6843203    321.54098  0.014275483  0.012623144         3860 
 1878000   0.50330135   -7.6684521    321.81503  0.014280042  0.012612222         3868 
 1879000   0.50398017   -7.6853962    321.24402  0.014247118  0.012601321         3850 
 1880000   0.50924731    -7.679103    320.81722  0.014220622  0.012590427         3883 
 1881000   0.51059628   -7.6751258    321.05921  0.014223782  0.012579542         3867 
 1882000   0.50298069   -7.6745224    321.58227  0.014239385  0.012568674         3868 
 1883000   0.50090955   -7.6857773    322.35113  0.014265849  0.012557815         3860 
 1884000   0.50224298   -7.6799372    321.85929  0.014236522  0.012546969         3868 
 1885000   0.50506692   -7.6861957    321.22713  0.014201022  0.012536133         3853 
 1886000   0.50538369   -7.6920036    321.40438  0.014201325   0.01252531         3870 
 1887000   0.49459403   -7.6963287    321.80592  0.014211532  0.012514501         3870 
 1888000   0.49793095   -7.6891509    321.62881  0.014196187  0.012503706         3842 
 1889000   0.49091893    -7.684374    321.67716  0.014190805  0.012492921         3867 
 1890000   0.49591855   -7.6924273    321.85429  0.014191106   0.01248214         3857 
 1891000   0.49967878   -7.6799293    320.93376  0.014143035  0.012471383         3874 
 1892000   0.49461863   -7.6900865    321.53045  0.014161842  0.012460627         3861 
 1893000   0.49210722   -7.6954885    321.36612  0.014147126  0.012449888         3857 
 1894000   0.49528845   -7.6782394    321.17562  0.014131275  0.012439159         3878 
 1895000   0.50337484    -7.692896    321.30145  0.014129351  0.012428438         3883 
 1896000   0.50363539   -7.6945311    321.61129  0.014135517  0.012417731         3873 
 1897000   0.50172936   -7.7071566    321.55883  0.014125761   0.01240704         3884 
 1898000   0.49206008   -7.7022629    321.20892  0.014102956  0.012396363         3865 
 1899000   0.48617964   -7.6933202    321.65365  0.014115045  0.012385691         3865 
 1900000    0.4872488   -7.6871986    321.16035   0.01408598  0.012375031         3871 
 1901000   0.49559595   -7.6832691    321.24224   0.01408216  0.012364388         3870 
 1902000   0.48790356   -7.6977255    321.56648  0.014088963  0.012353747         3866 
 1903000   0.49034926   -7.7071348    321.72991  0.014088716  0.012343121         3881 
 1904000   0.48700277   -7.6766537    321.18388  0.014057418  0.012332511         3860 
 1905000   0.48739206   -7.7041774     321.3471  0.014057179  0.012321913         3871 
 1906000   0.49501132     -7.68596    321.15114  0.014041236  0.012311329         3842 
 1907000   0.48185962   -7.6906996    321.30598  0.014040639  0.012300745         3878 
 1908000   0.47859222   -7.6884947    321.22769  0.014029861  0.012290175         3887 
 1909000   0.49418863    -7.714967     321.7684  0.014046115  0.012279618         3868 
 1910000   0.48943009   -7.6936179    321.35545  0.014020744  0.012269067         3862 
 1911000   0.49003854   -7.7112339    320.93711  0.013995164  0.012258531         3871 
 1912000   0.48891783   -7.7027007    320.99172  0.013990225  0.012248012         3867 
 1913000    0.4815441   -7.7070477    321.52406  0.014006101  0.012237504         3883 
 1914000   0.49055369   -7.7055724    321.29131   0.01398865  0.012227014         3865 
 1915000   0.48677813   -7.7012451    321.10615  0.013973288  0.012216527         3888 
 1916000   0.48188844    -7.703532    321.48321  0.013982394  0.012206058         3879 
 1917000   0.47774839    -7.695059    321.58213    0.0139794  0.012195591         3871 
 1918000   0.47419802   -7.7042691    321.33321  0.013961297   0.01218515         3873 
 1919000   0.48498881   -7.6869004     321.1795  0.013947347   0.01217471         3858 
 1920000   0.49152812   -7.7050948    321.50647  0.013954274  0.012164286         3877 
 1921000   0.48069623   -7.7013981    321.48433  0.013946049  0.012153871         3877 
 1922000   0.47635383   -7.7011781    321.73398  0.013949618  0.012143469         3883 
 1923000   0.48755233   -7.6987704    321.30551  0.013923796  0.012133082         3873 
 1924000   0.50213919    -7.693949    320.95917  0.013901558  0.012122703         3869 
 1925000   0.48809742   -7.7046884    321.00483  0.013896313  0.012112334         3885 
 1926000   0.48622039    -7.710475      320.868  0.013883178  0.012101983         3874 
 1927000   0.48268709   -7.7132682    321.17495  0.013889247  0.012091643         3876 
 1928000   0.48779385   -7.7157236    321.03916  0.013876174  0.012081314         3882 
 1929000   0.48734756   -7.7028153    320.87693  0.013861972  0.012070989         3876 
 1930000   0.47862274   -7.7201455    321.53108  0.013883035  0.012060678         3886 
 1931000   0.48521926   -7.7156985    321.32655  0.013867018  0.012050378         3862 
 1932000   0.47770654   -7.7115128    321.63362  0.013873086  0.012040091         3894 
 1933000   0.48492263   -7.7174322    321.26711  0.013850108  0.012029813         3887 
 1934000   0.47516271   -7.6957512    320.85618   0.01382524  0.012019553         3864 
 1935000   0.46728064   -7.7204234    321.14136  0.013830377  0.012009302         3883 
 1936000   0.47552111   -7.7243173    321.13072  0.013822775  0.011999053         3869 
 1937000   0.47279608   -7.7201146    321.02626  0.013811145  0.011988815         3876 
 1938000    0.4766623   -7.7010821    320.77727  0.013793312   0.01197859         3864 
 1939000     0.479347   -7.7115269    320.77322  0.013786025   0.01196838         3856 
 1940000   0.48248737   -7.7146349    320.61741  0.013772226  0.011958185         3865 
 1941000   0.47569778   -7.7159506    320.97371  0.013780427     0.011948         3888 
 1942000   0.47507321   -7.7119698    320.99627  0.013774299  0.011937812         3874 
 1943000   0.47776759   -7.7170363    321.24439  0.013777852  0.011927644         3888 
 1944000   0.48452411    -7.701977    321.09349  0.013764296  0.011917494         3880 
 1945000   0.47404154   -7.7116016    320.91107  0.013749403   0.01190735         3870 
 1946000   0.46826893   -7.7055236    320.48894  0.013724261  0.011897219         3878 
 1947000   0.47623465   -7.7127185    320.94449   0.01373671  0.011887098         3884 
 1948000   0.47366351   -7.7326386    320.82948  0.013724738  0.011876988         3883 
 1949000   0.47878203   -7.7226952    321.06662  0.013727836   0.01186689         3872 
 1950000   0.47847061   -7.7325928    320.81641  0.013710103  0.011856795         3889 
 1951000   0.47775863   -7.7368536    321.30034  0.013723746  0.011846722         3904 
 1952000   0.47046742   -7.7220601    320.88315  0.013698905  0.011836655         3875 
 1953000   0.46795986    -7.718684    320.48106  0.013674734  0.011826604         3872 
 1954000   0.47159101   -7.7124116    321.23564  0.013699916  0.011816559         3873 
 1955000   0.47024731   -7.7238007    320.45554  0.013659656  0.011806527         3871 
 1956000   0.47883583    -7.725659    321.04288  0.013677696    0.0117965         3892 
 1957000   0.46950807   -7.7300052    321.12489  0.013674199   0.01178649         3859 
 1958000   0.47325278   -7.7251825    321.39575  0.013678743  0.011776494         3871 
 1959000   0.47515144   -7.7259749    320.66701  0.013640761  0.011766508         3876 
 1960000   0.47362368   -7.7230794    320.80707  0.013639756  0.011756532         3872 
 1961000    0.4704085   -7.7172017    320.84024  0.013634211  0.011746563         3863 
 1962000   0.46894899   -7.7279296    321.04787   0.01363608   0.01173661         3869 
 1963000    0.4691276   -7.7302899    320.88413  0.013622183  0.011726668         3880 
 1964000   0.47207046   -7.7151324    321.13715  0.013625982  0.011716736         3881 
 1965000   0.46143432   -7.7301724     320.9394  0.013610662  0.011706815         3862 
 1966000   0.46279377   -7.7199394    320.50343  0.013585259  0.011696908         3882 
 1967000   0.47065833   -7.7370597    320.80599   0.01359117  0.011687009         3875 
 1968000   0.46179365   -7.7261356    320.98469  0.013591831  0.011677119         3885 
 1969000    0.4681702   -7.7300093    321.08031  0.013588975   0.01166724         3882 
 1970000   0.45661543   -7.7214261    320.74056  0.013567706  0.011657374         3869 
 1971000   0.46908078   -7.7117568    320.43558  0.013547927  0.011647516         3881 
 1972000   0.47447108   -7.7541961    321.25695  0.013575767  0.011637678         3882 
 1973000   0.46689525   -7.7238555    320.57318  0.013540006   0.01162784         3863 
 1974000   0.46485461   -7.7483451    321.21388  0.013560194  0.011618015         3872 
 1975000   0.46487151   -7.7273424    320.62212  0.013528359  0.011608198         3882 
 1976000   0.46656208   -7.7246777    320.62738  0.013521735  0.011598397         3874 
 1977000   0.45988587   -7.7467779    320.76945  0.013520884  0.011588601         3882 
 1978000   0.46349478   -7.7190602    321.20469  0.013532385  0.011578813         3875 
 1979000   0.46267005   -7.7352395    320.68955  0.013503855  0.011569046         3887 
 1980000   0.46203201   -7.7264443    320.72485  0.013498521  0.011559284         3874 
 1981000   0.45868288    -7.734866    320.40332  0.013478181  0.011549538         3873 
 1982000   0.46032299   -7.7410745    320.75434  0.013486139  0.011539803         3869 
 1983000   0.46905115   -7.7376463    320.28336  0.013459546   0.01153007         3892 
 1984000   0.45237125   -7.7331245     320.7529  0.013472484  0.011520356         3879 
 1985000   0.46228497   -7.7285106    320.52895  0.013456295  0.011510649         3873 
 1986000   0.46218867   -7.7347649    320.26866  0.013438598  0.011500954         3877 
 1987000   0.45404404   -7.7310015     320.6104  0.013446167   0.01149127         3869 
 1988000    0.4526565   -7.7392141    320.63153  0.013440289  0.011481589         3881 
 1989000   0.44225832   -7.7466963    320.67883  0.013435513  0.011471922         3882 
 1990000    0.4578124   -7.7442381    320.69978  0.013429639  0.011462264         3885 
 1991000   0.45475664   -7.7519777    321.33945  0.013449667  0.011452625         3887 
 1992000   0.45197516   -7.7289783    320.48462  0.013407154  0.011442992         3875 
 1993000   0.46415821   -7.7498454    320.78521  0.013412996  0.011433367         3880 
 1994000   0.45665615   -7.7328262    321.13654  0.013420952  0.011423755         3868 
 1995000   0.46081593    -7.747293    320.54325  0.013389442  0.011414158         3871 
 1996000   0.45632535   -7.7392861    320.55645  0.013383285  0.011404571         3872 
 1997000   0.46002746   -7.7392005    320.32182  0.013366793  0.011394987         3874 
 1998000   0.45357338   -7.7542996    320.32888  0.013360397   0.01138542         3886 
 1999000   0.44909211   -7.7409964    320.19352  0.013348071  0.011375865         3892 
 2000000   0.46009298   -7.7571278    320.89074  0.013370447  0.011366318         3869 
 2001000   0.44668279   -7.7558542    320.22617  0.013336089   0.01135678         3884 
 2002000   0.45648261   -7.7493066    320.77632  0.013352328  0.011347253         3879 
 2003000   0.44882633   -7.7652524    320.46285   0.01333262  0.011337735         3885 
 2004000   0.45365761   -7.7386953    320.50027  0.013327523  0.011328227         3871 
 2005000   0.44830455   -7.7390529    320.55917  0.013323324  0.011318735         3876 
 2006000   0.45898055   -7.7570588    320.40939   0.01331046  0.011309248         3892 
 2007000   0.44776411   -7.7282375    320.45839  0.013305862  0.011299771         3895 
 2008000    0.4476003   -7.7545749    321.19703   0.01332989  0.011290307         3886 
 2009000   0.44768418   -7.7577189    320.44526  0.013292072  0.011280849         3868 
 2010000   0.44348301   -7.7447649    320.04951  0.013269051  0.011271401         3878 
 2011000   0.45144413   -7.7415026    320.75346  0.013291624  0.011261969         3866 
 2012000   0.45748295   -7.7495435    320.68302    0.0132821  0.011252547         3882 
Loop time of 4237.38 on 48 procs for 2000000 steps with 4000 atoms

Performance: 81559.881 tau/day, 471.990 timesteps/s
99.4% CPU use with 48 MPI tasks x no OpenMP threads

MPI task timing breakdown:
Section |  min time  |  avg time  |  max time  |%varavg| %total
---------------------------------------------------------------
Pair    | 250.96     | 268.39     | 283.63     |  37.9 |  6.33
Neigh   | 26.611     | 27.07      | 27.395     |   3.7 |  0.64
Comm    | 225.92     | 240.97     | 260.72     |  44.0 |  5.69
Output  | 4.5098     | 4.5123     | 4.5472     |   0.2 |  0.11
Modify  | 3634.4     | 3651.7     | 3667.6     |  13.4 | 86.18
Other   |            | 44.7       |            |       |  1.05

Nlocal:        83.3333 ave          90 max          79 min
Histogram: 4 5 11 5 9 8 3 1 1 1
Nghost:        1743.33 ave        1757 max        1729 min
Histogram: 3 3 5 4 4 9 9 7 2 2
Neighs:        10365.4 ave       11323 max        9737 min
Histogram: 2 5 11 7 9 6 5 2 0 1
FullNghs:      20730.9 ave       22595 max       19525 min
Histogram: 3 4 10 11 6 8 3 1 0 2

Total # of neighbors = 995084
Ave neighs/atom = 248.77100
Neighbor list builds = 108035
Dangerous builds = 0

#clear
#
#next RN
#
#jump SELF
Total wall time: 1:10:40
