
units lj                  # Use reduced LJ style units
atom_style atomic         # Uncharged point particles
atom_modify map hash      # Needed for indexing of clusters etc
                          # Used to be able to find where atoms are in relation to each other.

lattice fcc 1.0 spacing 1 1 1
Lattice spacing in x,y,z = 1.5874011 1.5874011 1.5874011
region box block 0 10 0 10 0 10 units lattice
create_box 2 box
Created orthogonal box = (0.0000000 0.0000000 0.0000000) to (15.874011 15.874011 15.874011)
  3 by 4 by 4 MPI processor grid
create_atoms 1 box
Created 4000 atoms
  using lattice units in orthogonal box = (0.0000000 0.0000000 0.0000000) to (15.874011 15.874011 15.874011)
  create_atoms CPU = 0.002 seconds
set type 1 type/fraction 2 0.23 78393
Setting atom values ...
  954 settings made for type/fraction
mass 1 1.0
mass 2 1.0
pair_style lj/cut  3.5
pair_modify tail  yes
pair_coeff 1  1  1.0  1.0   # Intearaction between 1 and 1 set with epsilon = 1 and sigma = 1
pair_coeff 1  2  1.5  0.8
pair_coeff 2  2  0.5  0.88

write_data data.0
System init for write_data ...
Neighbor list info ...
  update every 1 steps, delay 10 steps, check yes
  max neighbors/atom: 2000, page size: 100000
  master list distance cutoff = 3.8
  ghost atom cutoff = 3.8
  binsize = 1.9, bins = 9 9 9
  1 neighbor lists, perpetual/occasional/extra = 1 0 0
  (1) pair lj/cut, perpetual
      attributes: half, newton on
      pair build: half/bin/atomonly/newton
      stencil: half/bin/3d
      bin: standard
WARNING: Not all mixed pair coeffs generated from mixing. Use write_data with 'pair ij' option to store all pair coeffs. (../write_data.cpp:312)


#############################
#   M E L T   S Y S T E M   #
#############################

velocity all create 2.4 5300450 mom yes dist gaussian # Assign velocities
                                                    # Temperature 2.4, random number seed, zero linear momentum
                                                                                # Gaussian distribution

timestep 0.002   # simulation timestep
thermo 1000       # output thermodynamic data every 1000 steps bf 100

# Define a fix  in this case with index 1 applied to all
# particles in the simulation. This fix is for simulations
# in the anisotropic NPT ensemble. Note that we use the MTK
# correction.
fix 1 all npt temp 2.4 2.4 0.1 iso 5.68 5.68 0.5 mtk yes tchain 5 pchain 5 # Use NPT ensemble
                                                                         # Set temperature and pressure and damping
                                                                         # Numbers of thermostats in chain and in barostat
run 10000          # run for 10000 steps
Per MPI rank memory allocation (min/avg/max) = 3.642 | 3.644 | 3.648 Mbytes
Step Temp E_pair E_mol TotEng Press Volume 
       0          2.4   -6.8530311            0   -3.2539311   -3.7471165         4000 
    1000    2.4043695    -4.869377            0   -1.2637244    5.6370827     4391.935 
    2000    2.4238673   -4.9283612            0   -1.2934693      5.55925    4364.8533 
    3000    2.3827182   -4.8448005            0   -1.2716167    5.8056223     4389.542 
    4000    2.4126528   -4.8847956            0   -1.2667212    5.4990542    4395.4926 
    5000    2.4137145   -4.8589275            0   -1.2392608     5.627812    4392.3032 
    6000    2.4042095   -4.9302396            0   -1.3248269    5.3808578    4381.0239 
    7000     2.421187   -4.8476339            0   -1.2167614    5.9271434    4370.4957 
    8000    2.3748219    -4.911688            0   -1.3503457    5.5488741    4367.0976 
    9000    2.4166022   -4.8585476            0   -1.2345505     5.984388    4355.1668 
   10000    2.4062007   -4.9478509            0   -1.3394521    5.5411847    4359.0087 
Loop time of 2.32326 on 48 procs for 10000 steps with 4000 atoms

Performance: 743783.987 tau/day, 4304.305 timesteps/s
99.6% CPU use with 48 MPI tasks x no OpenMP threads

MPI task timing breakdown:
Section |  min time  |  avg time  |  max time  |%varavg| %total
---------------------------------------------------------------
Pair    | 0.96806    | 1.051      | 1.1956     |   3.9 | 45.24
Neigh   | 0.19823    | 0.20737    | 0.2387     |   1.3 |  8.93
Comm    | 0.68428    | 0.80631    | 0.90543    |   5.0 | 34.71
Output  | 0.00024434 | 0.00026141 | 0.00032564 |   0.0 |  0.01
Modify  | 0.18932    | 0.24377    | 0.28802    |   5.9 | 10.49
Other   |            | 0.01451    |            |       |  0.62

Nlocal:        83.3333 ave          94 max          75 min
Histogram: 2 6 7 5 7 8 10 0 2 1
Nghost:        1554.83 ave        1572 max        1533 min
Histogram: 2 4 5 3 4 8 6 6 5 5
Neighs:        8749.29 ave       10046 max        7682 min
Histogram: 4 5 6 5 8 8 5 3 0 4

Total # of neighbors = 419966
Ave neighs/atom = 104.99150
Neighbor list builds = 914
Dangerous builds = 245

# Equilibrate just above the melting temperature to avoid step fn in T

fix 1 all npt temp 1.25 1.25 0.1 iso 5.68 5.68 0.5 mtk yes tchain 5 pchain 5
run 2000
Per MPI rank memory allocation (min/avg/max) = 3.643 | 3.645 | 3.649 Mbytes
Step Temp E_pair E_mol TotEng Press Volume 
   10000    2.4062007   -4.9478509            0   -1.3394521    5.5411847    4359.0087 
   11000    1.2497319    -6.674911            0   -4.8007818    5.6100567    3547.3934 
   12000    1.2266384   -6.6423072            0   -4.8028096    5.6795886      3551.91 
Loop time of 0.523077 on 48 procs for 2000 steps with 4000 atoms

Performance: 660705.951 tau/day, 3823.530 timesteps/s
99.7% CPU use with 48 MPI tasks x no OpenMP threads

MPI task timing breakdown:
Section |  min time  |  avg time  |  max time  |%varavg| %total
---------------------------------------------------------------
Pair    | 0.22741    | 0.25042    | 0.2876     |   2.3 | 47.88
Neigh   | 0.033192   | 0.035099   | 0.040673   |   0.7 |  6.71
Comm    | 0.14999    | 0.18047    | 0.20827    |   3.1 | 34.50
Output  | 5.0197e-05 | 5.1475e-05 | 6.4892e-05 |   0.0 |  0.01
Modify  | 0.040202   | 0.052484   | 0.063374   |   3.1 | 10.03
Other   |            | 0.004551   |            |       |  0.87

Nlocal:        83.3333 ave          92 max          77 min
Histogram: 4 4 9 5 6 5 9 3 1 2
Nghost:        1776.29 ave        1805 max        1749 min
Histogram: 3 1 4 9 10 7 7 3 2 2
Neighs:        10760.0 ave       11920 max        9724 min
Histogram: 3 4 6 11 3 5 6 5 2 3

Total # of neighbors = 516479
Ave neighs/atom = 129.11975
Neighbor list builds = 144
Dangerous builds = 8

#############################
# L I N E A R  Q U E N C H  #
#############################

# Define solid atoms. This closely follows ten Wolde  Ruiz-Montero and Frenkel  Faraday Discuss  1996  104  93-110
# Compute components of the per-atom q6 vector
compute q6 all orientorder/atom degrees 1 6 components 6 nnn NULL cutoff 1.3 # compute the Q6 parameter.
                                                                             # Use all neighbours within 1.3 unit cell.

# get number of connections
compute coord_number all coord/atom orientorder q6 0.5

# An atom is solid if it has 8 or more connections (of a possible 14)
variable is_solid atom c_coord_number>=8
group solid dynamic all var is_solid    # Must be dynamic to update
dynamic group solid defined

# do clustering
compute cluster solid cluster/atom 1.3 # Create a cluster where all atoms within are solid and max 1.3 units from another member

# define chunks one chunk per cluster
compute clus_chunks solid chunk/atom c_cluster nchunk every compress yes  # Says which atoms are in which chunk

# count the size of each chunk
compute size_chunks solid property/chunk clus_chunks count


# Find the maximum entry in the vector of chunk sizes
variable max_n equal max(c_size_chunks)


# Thermo style which includes this variable
# thermo_style custom step temp pe vol v_max_n

thermo ${N}  # Print the thermo information every 100 steps
thermo 1000  

# Reset the npt fix at a lower temperature (below freezing)
fix 1  all npt temp  ${temp} ${temp}  0.1  iso  5.68  5.68  0.5  mtk yes tchain  5  pchain  5
fix 1  all npt temp  0.45 ${temp}  0.1  iso  5.68  5.68  0.5  mtk yes tchain  5  pchain  5
fix 1  all npt temp  0.45 0.45  0.1  iso  5.68  5.68  0.5  mtk yes tchain  5  pchain  5

dump dmp2 all dcd ${N} traj.dcd
dump dmp2 all dcd 1000 traj.dcd


compute msd all msd com yes
variable twopoint equal c_msd[4]/6/(step*dt+1.0e-6)
fix 9 all vector 10 c_msd[4]
variable fit equal slope(f_9)/6/(10*dt)
thermo_style custom step temp pe c_msd[4] v_twopoint v_fit v_max_n

fix 1 all npt temp 1.25 ${temp} 0.1 iso 5.68 5.68 0.5 mtk yes tchain 5 pchain 5
fix 1 all npt temp 1.25 0.45 0.1 iso 5.68 5.68 0.5 mtk yes tchain 5 pchain 5
run 5000000 # 5000000  # Run for this many steps
Neighbor list info ...
  update every 1 steps, delay 10 steps, check yes
  max neighbors/atom: 2000, page size: 100000
  master list distance cutoff = 3.8
  ghost atom cutoff = 3.8
  binsize = 1.9, bins = 9 9 9
  4 neighbor lists, perpetual/occasional/extra = 1 3 0
  (1) pair lj/cut, perpetual
      attributes: half, newton on
      pair build: half/bin/atomonly/newton
      stencil: half/bin/3d
      bin: standard
  (2) compute orientorder/atom, occasional
      attributes: full, newton on
      pair build: full/bin/atomonly
      stencil: full/bin/3d
      bin: standard
  (3) compute coord/atom, occasional
      attributes: full, newton on
      pair build: full/bin/atomonly
      stencil: full/bin/3d
      bin: standard
  (4) compute cluster/atom, occasional
      attributes: full, newton on
      pair build: full/bin/atomonly
      stencil: full/bin/3d
      bin: standard
Per MPI rank memory allocation (min/avg/max) = 9.780 | 9.787 | 9.792 Mbytes
Step Temp PotEng c_msd[4] v_twopoint v_fit v_max_n 
   12000    1.2266384   -6.6423072            0            0 8.3333333e+20            3 
   13000    1.2196217   -6.6257536   0.53119155 0.0034050739  0.043542388            2 
   14000     1.244912   -6.6748572    1.0417873 0.0062011146  0.042203101            4 
   15000    1.2610328   -6.6263276    1.6136029 0.0089644602  0.044179834            1 
   16000    1.2169367   -6.6115005    2.1382409  0.011136671  0.044181174            2 
   17000    1.2499951   -6.6556844    2.6537116   0.01300839  0.044251934            1 
   18000    1.2506295   -6.6717693    3.1767926  0.014707373  0.044190161            1 
   19000    1.2407958   -6.6276796    3.7086538  0.016266025   0.04427411            1 
   20000    1.2763492   -6.7350948    4.1409883  0.017254118  0.043873027            1 
   21000    1.2346798   -6.7000811    4.6485132  0.018446481  0.043496337            2 
   22000     1.236325   -6.6616376    5.1098307  0.019355419  0.043086301            2 
   23000    1.2540357   -6.6606713    5.6421084  0.020442421  0.042756066            2 
   24000    1.2454513   -6.6507844    6.2240468  0.021611273  0.042691369            1 
   25000    1.2504487   -6.6618431    6.7011564  0.022337187   0.04265885            1 
   26000    1.2420359   -6.6844851     7.232562  0.023181288  0.042681264            2 
   27000    1.2578646   -6.6533754    7.7734968  0.023992274  0.042763562            1 
   28000    1.2265064   -6.6408052    8.3328107  0.024800031  0.042839003            2 
   29000    1.2343432   -6.6507583    8.9725227  0.025783111   0.04303028            4 
   30000     1.237472   -6.6957264    9.4352077   0.02620891  0.043173279            2 
   31000    1.2275917   -6.6348342    10.039217  0.026987141  0.043343601            1 
   32000    1.2505666   -6.6719911    10.507757   0.02736395  0.043463285            1 
   33000    1.2623677   -6.6390987      10.9243  0.027586615  0.043498502            1 
   34000    1.2559718   -6.6631691    11.342195  0.027799497  0.043383685            1 
   35000    1.2393978   -6.6388394    11.817691  0.028137359  0.043223415            5 
   36000    1.2149097   -6.7205685    12.294144  0.028458666  0.043079505            2 
   37000    1.2416867   -6.7041853    12.722973  0.028655343  0.042927397            1 
   38000    1.2613841   -6.7267774    13.140072  0.028815946  0.042765464            1 
   39000    1.2298427   -6.6480257    13.561645  0.028977873  0.042566602            1 
   40000    1.2191283   -6.6858097    14.076963  0.029327006  0.042374762            1 
   41000    1.2650696   -6.6950676    14.449673  0.029369254  0.042188379            1 
   42000    1.2447642   -6.6587352    15.067577  0.029895986  0.042021113            1 
   43000    1.2264175    -6.684651    15.583634   0.03020084  0.041917816            1 
   44000    1.2575522   -6.6377716    16.173732  0.030632068  0.041857759            1 
   45000    1.2461802   -6.6368129    16.657223  0.030846709  0.041829347            2 
   46000    1.2181238   -6.6875625    17.197083  0.031154135  0.041795507            2 
   47000    1.2799579   -6.7272329    17.630862  0.031260393  0.041766506            2 
   48000    1.2425918   -6.6829279    18.202137  0.031600931  0.041758745            1 
   49000    1.2173236   -6.6522359    18.648252  0.031714713  0.041730163            1 
   50000    1.2391207   -6.6673792     19.16584  0.031943067  0.041716256            3 
   51000    1.2767244   -6.6866785     19.66385  0.032130473  0.041705123            1 
   52000    1.2439662   -6.6396897    20.250227  0.032452287  0.041700576            1 
   53000    1.2344819   -6.6555288    20.764446    0.0326485  0.041694694            2 
   54000    1.2458661   -6.6887072    21.149678  0.032638392   0.04168807            4 
   55000    1.2340572   -6.6937713    21.661924  0.032821097  0.041669894            3 
   56000    1.2606474    -6.660377    21.996674  0.032733146  0.041614668            1 
   57000    1.2328033   -6.7020853    22.309171  0.032615747  0.041534762            2 
   58000     1.243917   -6.6755246    22.926275   0.03294005  0.041473945            3 
   59000    1.2428859   -6.6918559    23.514743  0.033212913  0.041439616            1 
   60000      1.26033   -6.6680798    23.967352  0.033287988  0.041412388            3 
   61000    1.2391873   -6.6526494    24.595652  0.033600618  0.041401325            4 
   62000    1.2413256   -6.6873534    24.916721  0.033490216  0.041387294            1 
   63000    1.2452047   -6.6340899    25.310987  0.033480141  0.041348714            1 
   64000    1.2395319   -6.6775062    25.889582  0.033710393  0.041310566            3 
   65000     1.212167   -6.6709045    26.285833  0.033699785  0.041270933       -1e+20 
   66000    1.2110077   -6.6787653    26.928952  0.034001202  0.041242438            1 
   67000    1.2663114   -6.6695665    27.390947  0.034068341  0.041220966            3 
   68000    1.2279145   -6.6566024    27.913479  0.034207695  0.041201972            3 
   69000    1.2479533   -6.6351946    28.432862  0.034339205  0.041188498            2 
   70000    1.2090437   -6.7278572    28.724082  0.034195336  0.041165587            1 
   71000    1.2361406   -6.7094797     29.28389  0.034370762  0.041138961            1 
   72000    1.2239015   -6.6944939    29.946929  0.034660797  0.041137413            1 
   73000    1.2317961   -6.6862559    30.340218  0.034634952  0.041148521            2 
   74000    1.2481474   -6.7027726    30.839103  0.034728719  0.041143766            2 
   75000    1.2468955   -6.7150308    31.344703  0.034827448  0.041150537            3 
   76000    1.2624785   -6.6904368    31.990215   0.03507699  0.041155426            2 
   77000    1.2128124   -6.6780267    32.296803  0.034953249  0.041146153            1 
   78000    1.2014982    -6.660931    32.707007  0.034943383  0.041132955            2 
   79000    1.2620557   -6.6516916    33.597847  0.035440766  0.041133348            2 
   80000    1.2541511   -6.6824906    33.883376  0.035295183  0.041141832            2 
   81000    1.2047118   -6.6853931    34.389567  0.035380213  0.041140108            2 
   82000    1.2367139   -6.7133183    34.645028  0.035208361  0.041140519            3 
   83000     1.243181   -6.6959891    35.266853  0.035408486  0.041139606            2 
   84000    1.2635997   -6.6817997    35.809362  0.035525161   0.04113524            2 
   85000    1.2244092   -6.7388343    36.411939   0.03569798  0.041134763            1 
   86000    1.2451935    -6.709334    36.904351   0.03576003  0.041140366            2 
   87000    1.2554571   -6.6467345     37.49066  0.035910593  0.041148224            1 
   88000    1.2298252   -6.6992792    38.146872  0.036123932  0.041159366            2 
   89000    1.2559317   -6.6895015    38.410324  0.035964722   0.04116764            2 
   90000    1.2233424   -6.7261326    38.680668  0.035815433  0.041165016            2 
   91000     1.254331   -6.6954526    39.293206   0.03598279   0.04116347            2 
   92000    1.2431011   -6.7043899    39.705724  0.035965329  0.041158635            3 
   93000    1.2269624   -6.6745228    40.030128   0.03586929  0.041147722            2 
   94000    1.2148728    -6.655817     40.50171  0.035905771  0.041125477            2 
   95000     1.247678    -6.645081    41.101495  0.036053943  0.041109668            2 
   96000    1.2431864    -6.702702    41.372735  0.035913832  0.041083351            1 
   97000     1.222259   -6.6898234    41.808469  0.035917928  0.041047292            3 
   98000    1.2632369   -6.7260798    42.097918  0.035797549  0.041015087            3 
   99000    1.2557229   -6.6997438    42.664352  0.035912754  0.040975604            2 
  100000      1.26391   -6.6827831    43.327813  0.036106511  0.040943767            1 
  101000    1.2457712   -6.6987604    43.571912  0.035950422  0.040921117            4 
  102000    1.2304568   -6.7093327    44.337101  0.036223122  0.040896985            2 
  103000    1.2434659   -6.6785883    44.691916  0.036158508   0.04087704            2 
  104000    1.2524126    -6.692584    45.043993  0.036092943  0.040851922            1 
  105000    1.2155535   -6.7332614    45.501794  0.036112535  0.040827715            1 
  106000    1.2440386   -6.6701364     46.25042  0.036360393  0.040809049            2 
  107000    1.2155841   -6.7131444    46.786815  0.036438329  0.040803614            3 
  108000    1.2357595   -6.7310016    47.133517  0.036368454  0.040798916            1 
  109000    1.2408808     -6.70139    47.885685  0.036609851  0.040794448            1 
  110000    1.2138729    -6.636711    48.539605  0.036772428  0.040797244            1 
  111000    1.2428875   -6.7234771    48.604219  0.036489654  0.040799458            2 
  112000    1.2357057   -6.6938997    49.270841  0.036659852  0.040791589            3 
  113000    1.2177045    -6.707129    49.786293  0.036715555  0.040788719            2 
  114000    1.2025993   -6.6994712    50.171725  0.036675237  0.040782139            2 
  115000    1.2553789   -6.6851001    51.165009  0.037076093  0.040783093            1 
  116000    1.2443897   -6.6532026    51.367101  0.036901653  0.040787421            1 
  117000    1.2291993   -6.6928185    51.667183  0.036799987  0.040784065            1 
  118000    1.2436294   -6.7506557      52.1433  0.036824364  0.040774797            3 
  119000    1.2213229   -6.6782575    52.572994  0.036815822  0.040764856            1 
  120000    1.2629921   -6.6721338     53.04841  0.036839174  0.040754617            1 
  121000    1.2420416   -6.6700263    53.605986  0.036918723  0.040747874            2 
  122000    1.2511326   -6.6590247    53.798081  0.036747323  0.040732525            1 
  123000    1.2307783   -6.7282077    53.985152  0.036575306  0.040710864            3 
  124000    1.2515299   -6.6479304    54.816083  0.036838765  0.040692785            2 
  125000    1.2513634   -6.7242628    55.461481  0.036974321  0.040680803            3 
  126000    1.2251355   -6.7032208    55.753532  0.036874029  0.040667722            3 
  127000    1.2170531   -6.6749666    56.315807  0.036952629  0.040656943            3 
  128000    1.2577765   -6.6735729    56.917588  0.037055721  0.040643942            2 
  129000    1.2104576   -6.7101412    57.568996  0.037189274  0.040640864            1 
  130000    1.2300497   -6.6659788    58.335172  0.037394341  0.040646213            1 
  131000     1.237159   -6.6574778    58.901128  0.037468911  0.040652772            3 
  132000    1.2275486    -6.668299    58.769131  0.037101724  0.040654496            2 
  133000    1.2429928   -6.6924174    59.448051  0.037248152  0.040651719            1 
  134000    1.2181614   -6.7494492    59.789272  0.037182383  0.040650913            1 
  135000    1.2275388   -6.7024758    60.564308  0.037385375  0.040652197            2 
  136000     1.242719   -6.7066083    61.294755  0.037558061  0.040656896            1 
  137000    1.2349067   -6.6980871    61.597387  0.037467997  0.040663453            5 
  138000      1.21963   -6.7256584    62.211602  0.037567393  0.040671805            1 
  139000    1.2217206   -6.6931082    62.440384  0.037434283  0.040673836            2 
  140000    1.2284441   -6.7295002    62.796649  0.037378958  0.040669116            3 
  141000    1.2370471   -6.7107076     63.31722  0.037421524  0.040665449            1 
  142000    1.2131703   -6.7420842    63.834486  0.037461553   0.04066543            1 
  143000    1.2421739   -6.6571324    64.270713  0.037453795  0.040663009            2 
  144000    1.2436334    -6.686149    64.637605  0.037406021  0.040661866            2 
  145000    1.2319813   -6.7241641    65.212961  0.037478713  0.040653213            1 
  146000     1.232547   -6.6963754    65.727275  0.037515568  0.040647046            2 
  147000    1.1946301   -6.7186987     65.94751   0.03738521  0.040637597            3 
  148000    1.2310641   -6.6966742    66.421573  0.037399534  0.040627131            2 
  149000    1.2164132   -6.7151454    66.954042  0.037446332  0.040611757            2 
  150000    1.2455365   -6.6857404    67.164119  0.037313399  0.040598315            2 
  151000    1.2422982   -6.7114707    67.619633  0.037317678  0.040578382            1 
  152000    1.1997539   -6.6944295    68.024497  0.037294132  0.040560214            2 
  153000    1.2596625   -6.7238546    68.488981  0.037303366  0.040544573            2 
  154000     1.234784    -6.668438    69.009866  0.037343001  0.040529316            2 
  155000    1.2489455   -6.7117044    69.405407  0.037314735  0.040514285            3 
  156000    1.2275409   -6.7194309    69.978992   0.03738194  0.040499832            2 
  157000    1.2224819   -6.7326606    70.225099  0.037274469  0.040480786            2 
  158000     1.211786   -6.7066701    70.514956  0.037191432  0.040462049            3 
  159000    1.2299943   -6.7150534    70.907524  0.037163272  0.040438091            1 
  160000    1.2220683   -6.7068164    71.538201   0.03725948  0.040414819            3 
  161000    1.2148567   -6.6973086     72.06031  0.037298297  0.040394641            1 
  162000    1.1925496   -6.7123446    72.472639  0.037280164  0.040372366            1 
  163000    1.1972236   -6.6627094    73.397734  0.037524404  0.040354585            1 
  164000    1.2292195   -6.6921789    73.236109   0.03721347  0.040337546            2 
  165000    1.2360596   -6.7156125    73.801298  0.037273383  0.040318973            2 
  166000    1.2121071    -6.694713     74.61969  0.037459684  0.040302333            2 
  167000    1.2105202    -6.733618    74.947905  0.037399154  0.040288537            5 
  168000    1.2722208   -6.7277104     75.57211  0.037486166  0.040277682            3 
  169000    1.2674818    -6.722811    75.887045  0.037419647   0.04026524            4 
  170000     1.209518   -6.7105128    76.527981  0.037513716  0.040252121            2 
  171000    1.2345301   -6.7051948    76.757698  0.037406286  0.040238755            1 
  172000    1.2248706   -6.7365098    77.114692  0.037361769  0.040224765            1 
  173000    1.2054755    -6.735655    77.793302  0.037472689  0.040210687            1 
  174000    1.2205158   -6.7021521    77.964952  0.037339536  0.040196775            2 
  175000    1.2091091   -6.7225061    78.583413  0.037420673  0.040182665            1 
  176000    1.2077278   -6.6554164    79.268926  0.037532635  0.040170288            1 
  177000    1.2171331   -6.6830458    79.832168  0.037585766  0.040159393            2 
  178000     1.204084   -6.7062132    80.181136  0.037537985  0.040152334            2 
  179000    1.1997977   -6.7160062    80.535523   0.03749326  0.040139602            1 
  180000    1.2211704   -6.7478138    80.543178  0.037288508  0.040125237            3 
  181000    1.2291934   -6.6878847    81.211933  0.037390393  0.040110345            2 
  182000    1.2577267   -6.7264974    81.939062  0.037517886  0.040098103            1 
  183000    1.2116086   -6.7310071      82.0979    0.0373852  0.040085486            1 
  184000    1.2128872    -6.744793    82.729867  0.037468237  0.040071069            2 
  185000     1.219585   -6.7101624    83.278474  0.037512826  0.040057989            1 
  186000    1.2031807   -6.7250688    83.730843  0.037513818  0.040046692            5 
  187000    1.2196167   -6.7836148    84.000231  0.037433258  0.040033417            2 
  188000    1.2123536   -6.7465296    84.773889  0.037577078  0.040019317            1 
  189000    1.1993542   -6.7364794    84.818968  0.037398134  0.040005865            1 
  190000    1.2222997   -6.7243477    85.196706  0.037366976  0.039992733            2 
  191000    1.2022025   -6.7273472    85.735745   0.03740652  0.039977276            2 
  192000    1.1972636   -6.7230197    86.194021  0.037410599  0.039962211            2 
  193000     1.237836   -6.7187547    86.932821   0.03753576  0.039948995            1 
  194000    1.2470191   -6.7427761    87.336481   0.03751567  0.039936357            1 
  195000    1.2324308   -6.6996427     87.68917  0.037474004  0.039922118            2 
  196000    1.2010641   -6.7634315    88.111078  0.037462193  0.039907411            4 
  197000    1.2158552    -6.709899    88.822499  0.037572969  0.039896012            3 
  198000    1.2121657   -6.6841425    89.259545  0.037567149  0.039884269            2 
  199000    1.2258443    -6.729292    89.759921  0.037587907  0.039874361            1 
  200000    1.2153319   -6.6988765    90.286951  0.037619563  0.039866496            2 
  201000    1.2211035   -6.7018397    91.035033  0.037742551  0.039861436            1 
  202000    1.2128455   -6.7594423    91.427157  0.037717474  0.039856428            2 
  203000    1.2278113   -6.7214744    92.242105  0.037866217  0.039852024            4 
  204000    1.2202237   -6.7408092    92.669611  0.037855233  0.039849329            2 
  205000    1.2221699   -6.7491707    93.156948  0.037868678  0.039848953            4 
  206000    1.2319355   -6.7108242     94.00873  0.038029422  0.039850767            3 
  207000    1.2108362   -6.7052771    94.676493   0.03811453  0.039854932            2 
  208000    1.2062044   -6.7495705    94.948001  0.038040064  0.039860445            1 
  209000    1.1999398   -6.7466348    95.689184  0.038153582  0.039866331            2 
  210000    1.2302486   -6.6694711    96.142743  0.038151882   0.03987254            1 
  211000    1.2350365   -6.7444359    96.832221  0.038243373  0.039878388            1 
  212000    1.2148185   -6.7403462     96.85639   0.03807248  0.039882941            2 
  213000    1.2195289   -6.7302755    97.162482  0.038013491  0.039884317            1 
  214000     1.209291   -6.7520755    97.504777   0.03796915  0.039883996            4 
  215000    1.2166706   -6.7617552    97.866712  0.037932834  0.039880899            4 
  216000     1.231677   -6.7236912    98.419866  0.037970627  0.039878882            1 
  217000     1.238112   -6.7045675    98.952896  0.038000344  0.039876291            1 
  218000    1.2186523   -6.7270258    99.361086  0.037982066  0.039873953            1 
  219000    1.2236759   -6.7263701    99.610502   0.03790354   0.03987205            1 
  220000    1.2457837   -6.7137673    100.17994  0.037946946   0.03986544            3 
  221000    1.2092902   -6.7360334    100.47572  0.037886773  0.039857424            3 
  222000    1.1915582   -6.7550208    101.21003  0.037991754  0.039850818            3 
  223000     1.160747   -6.7355168    101.50543  0.037931774  0.039845518            2 
  224000    1.2187985   -6.7245245    101.72306    0.0378434   0.03984239            2 
  225000    1.2288592   -6.7075383    102.24942  0.037870154  0.039838181            3 
  226000    1.2257151   -6.7104365    102.39169   0.03775505  0.039831709            2 
  227000    1.2200743   -6.7802555    103.00966  0.037815586  0.039823903            1 
  228000    1.1792937   -6.7164003    103.41432  0.037797631   0.03981694            1 
  229000    1.2398842   -6.7056186    104.22824  0.037928764  0.039811016            2 
  230000    1.2147589   -6.7092882    104.56095  0.037884404   0.03980581            1 
  231000    1.1926959   -6.7140396    105.18512   0.03794557   0.03979914            1 
  232000    1.1781222   -6.7367592    105.51085  0.037899012  0.039794132            3 
  233000    1.1877715   -6.7024014    105.94329  0.037891018  0.039789013            2 
  234000    1.2440458   -6.7496884    106.38495   0.03788638  0.039783565            2 
  235000    1.2313346    -6.730658    106.84223  0.037887316  0.039776334            2 
  236000    1.2299515   -6.7532213    107.00868  0.037785552  0.039767336            3 
  237000    1.2154847   -6.7066149    107.78774  0.037900048  0.039759273            1 
  238000    1.2084205    -6.717368     108.4428  0.037970169  0.039753499            2 
  239000    1.2044277   -6.7388014    108.75778  0.037921123  0.039748472            1 
  240000    1.2353277   -6.7732386      109.322  0.037959028  0.039742205            3 
  241000    1.2146126   -6.6778013    109.96545  0.038024013  0.039738933            2 
  242000    1.2269251   -6.7020755    110.33874  0.037995435  0.039734091            1 
  243000    1.2096315   -6.7063717    110.24647  0.037807432  0.039728015            2 
  244000    1.2183116   -6.6893227    110.52445  0.037747422  0.039717991            1 
  245000    1.2057831   -6.7103864    111.42469  0.037899555   0.03970631            2 
  246000    1.2031147   -6.7443287    111.09721  0.037634558  0.039694733            1 
  247000    1.2079863   -6.7448539    112.26086  0.037874783  0.039683629            2 
  248000    1.1910799   -6.7227003    112.32692  0.037744259  0.039671891            1 
  249000    1.2264898   -6.6897331     112.4791  0.037643608  0.039658596            1 
  250000    1.1998399   -6.7548822    112.76913  0.037589709   0.03964386            2 
  251000    1.2302366   -6.7287625    113.16972  0.037572949  0.039629634            1 
  252000    1.1883509   -6.7649179    113.27239  0.037457801  0.039615104            1 
  253000     1.197307   -6.7277946    114.36956  0.037671132  0.039600361            2 
  254000    1.1911057    -6.731662    114.84195  0.037677805  0.039588359            3 
  255000    1.2163694   -6.7128311    115.64784  0.037793412  0.039576657            1 
  256000    1.2082974   -6.7626736    115.66444  0.037651184    0.0395628            2 
  257000    1.2014571   -6.7670302    115.56745  0.037473233  0.039548581            1 
  258000    1.1909728   -6.7407476    116.17625  0.037524629  0.039534022            1 
  259000    1.2085589   -6.7225951    116.60367  0.037517267  0.039518187            1 
  260000    1.2044388   -6.7399641    116.73309  0.037414452  0.039503197            1 
  261000    1.1816311   -6.7208126    117.89031  0.037640586  0.039488962            2 
  262000    1.2270264   -6.7625009    118.18192  0.037589668  0.039477349            1 
  263000     1.218337   -6.7135141    118.83106  0.037652427  0.039465034            4 
  264000    1.2054026   -6.7586773    119.13177  0.037604724   0.03945292            3 
  265000    1.1997978   -6.7641927    119.76496  0.037661938  0.039441058            1 
  266000    1.2175875   -6.7816072    119.83393  0.037541958  0.039429868            1 
  267000    1.2295997    -6.726483    120.60727  0.037642719  0.039418424            1 
  268000    1.2095925   -6.7231278       121.09  0.037652364  0.039407539            1 
  269000    1.2222653   -6.7210984    121.30076  0.037577682  0.039396226            1 
  270000    1.2009468   -6.7716794    121.43223  0.037479083  0.039384904            1 
  271000      1.21793   -6.7562544    122.07563  0.037538631  0.039371595            3 
  272000    1.1997691   -6.7517702    122.69007  0.037588869  0.039359317            1 
  273000    1.1881632   -6.7275127     122.9346  0.037525824  0.039348054            3 
  274000    1.2225402   -6.7119268    123.64923  0.037606212  0.039336819            2 
  275000    1.2077793   -6.7501849    123.91952  0.037551371  0.039324127            1 
  276000     1.222158   -6.7658883    124.28523  0.037525734  0.039311542            2 
  277000    1.2013815    -6.761085    124.69237  0.037512747  0.039299483            3 
  278000    1.2134708   -6.7535337    124.67264  0.037371894  0.039286988            1 
  279000    1.1715684   -6.7663195    125.54427  0.037498288  0.039273933            3 
  280000    1.2130357   -6.7778252    125.80181  0.037441014  0.039259878            2 
  281000    1.2168804   -6.7570943    126.13351  0.037406143  0.039247023            2 
  282000    1.2136808   -6.7722227    126.77458  0.037462939  0.039234552            1 
  283000    1.2013284   -6.7302467    127.74194  0.037615413  0.039223082            1 
  284000     1.226498   -6.7660597    128.12665  0.037595847  0.039211237            2 
  285000    1.2023848     -6.72633    128.81047  0.037663879  0.039200435            3 
  286000    1.2112966   -6.7673956    128.97218  0.037579305  0.039191304            1 
  287000    1.2136281   -6.7878809    129.27747  0.037537011  0.039181761            3 
  288000    1.2311512   -6.7882756    129.39308  0.037440127  0.039172725            1 
  289000    1.2019956   -6.7443834    130.83004  0.037724925  0.039164222            1 
  290000     1.184871   -6.7532589    131.63167  0.037825191  0.039157011            3 
  291000     1.203693   -6.7219106    132.31678  0.037891403  0.039150313            2 
  292000    1.1981478   -6.7616114    132.04893  0.037685196  0.039144741            2 
  293000    1.2149577   -6.7825188    132.48894  0.037681722  0.039139007            3 
  294000    1.2181944   -6.7439851    133.10949  0.037729447  0.039133525            1 
  295000    1.2469374   -6.7640695    133.40196   0.03768417  0.039127541            1 
  296000    1.2438696   -6.7401257    133.88712  0.037693447  0.039121292            1 
  297000    1.1832087   -6.7502713    134.38921   0.03770741  0.039115224            3 
  298000    1.1753481   -6.7876835    135.31595   0.03784003  0.039110537            1 
  299000    1.2003872   -6.8004249    134.93633  0.037607673  0.039106475            3 
  300000    1.2111908   -6.7493301    136.06896  0.037796933  0.039100717            1 
  301000    1.2176905   -6.7668348    136.68942   0.03784314  0.039094596            1 
  302000    1.2141334   -6.7570837    137.33065  0.037894771  0.039090385            2 
  303000    1.2178789   -6.7545827    137.59523  0.037842471  0.039088223            2 
  304000    1.2083636   -6.7666091    138.08002  0.037850883  0.039085674            1 
  305000     1.211025   -6.7516398     138.8052  0.037924918  0.039082813            1 
  306000    1.1985893   -6.7281575    139.05374  0.037868665  0.039078844            4 
  307000    1.1875898   -6.7759994    139.30777   0.03781427  0.039075095            1 
  308000    1.2046264   -6.7906486    140.16491  0.037923407  0.039071911            1 
  309000    1.2118342    -6.745912    140.55569  0.037906065  0.039068845            2 
  310000     1.187083   -6.7567853    141.33176  0.037992408  0.039066943            3 
  311000     1.193156   -6.7294722    141.31472  0.037865681  0.039063569            2 
  312000    1.2261926   -6.7249742     142.1895  0.037977963  0.039060763            4 
  313000    1.2063436   -6.7650194    142.17112  0.037851737  0.039058464            1 
  314000     1.200084   -6.7959978    142.64852  0.037857888  0.039055588            1 
  315000    1.1950304    -6.759538    143.46141  0.037952755  0.039053631            2 
  316000    1.2128851   -6.7764871    143.52982   0.03785069  0.039050068            2 
  317000    1.1859276   -6.7295456    144.53444  0.037995384    0.0390474       -1e+20 
  318000    1.1782169    -6.755966    144.03398  0.037744754  0.039044361            2 
  319000    1.1928377   -6.7673567    145.14035  0.037915452  0.039040357            2 
  320000    1.2163602   -6.7716781    145.46809  0.037882315  0.039036818            2 
  321000     1.198483   -6.7514418    145.61291  0.037801897  0.039032388            3 
  322000    1.1902532   -6.8405115    146.05509  0.037798936  0.039026948            2 
  323000    1.1993077   -6.7860145    146.11061  0.037696236  0.039022602            3 
  324000    1.1845415   -6.7446256    147.17658  0.037854058   0.03901728            3 
  325000    1.2060433   -6.7652006    146.93536  0.037675734   0.03901299            2 
  326000    1.1635741   -6.7456455    148.07208  0.037850736  0.039008767            1 
  327000      1.20551   -6.7676029    148.69437  0.037893569  0.039005431            2 
  328000    1.1953873   -6.7966155     148.9069  0.037832036  0.039003168            1 
  329000    1.2147998    -6.764898    149.58807  0.037889583    0.0390012            2 
  330000    1.1920075   -6.7493245    150.61846  0.038034965  0.038998909            1 
  331000    1.1738456   -6.7730433    150.69483  0.037939282  0.038997379            1 
  332000    1.1824664   -6.7295296     150.8072  0.037853212  0.038994677            4 
  333000    1.2091582   -6.7737902    151.01401  0.037791295  0.038991333            3 
  334000    1.2022044   -6.7685105    151.28862  0.037746662  0.038986368            2 
  335000    1.2178992   -6.7914075    151.46664  0.037678267  0.038980938            2 
  336000    1.1966897   -6.7492781    152.41112  0.037800376   0.03897504            1 
  337000    1.1869921   -6.7889415    152.52026  0.037715197  0.038969957            1 
  338000    1.1930909   -6.7769788    153.25713  0.037785288  0.038965279            1 
  339000    1.2035907   -6.7706669    153.76937  0.037799747  0.038960626            1 
  340000    1.1837407   -6.7574763    154.52209  0.037873062  0.038956558            3 
  341000    1.2151201   -6.7616501    154.88862   0.03785157  0.038952667            1 
  342000    1.1935464   -6.7731997    155.00872  0.037770157  0.038947844            1 
  343000    1.1809853   -6.7646966    156.15669  0.037938943  0.038945066            3 
  344000    1.1838233    -6.759877    156.07833  0.037809674  0.038942397            2 
  345000    1.1983612   -6.7433418     156.7288  0.037857197  0.038938035            2 
  346000     1.198376   -6.7723007    156.68441  0.037737092  0.038932158            3 
  347000     1.168929   -6.7480816     157.1861  0.037748823  0.038926472            1 
  348000    1.1894791   -6.8129043    157.40954  0.037693856  0.038921172            2 
  349000    1.1973052    -6.775223    158.76591  0.037909721  0.038915277            2 
  350000    1.1824429   -6.7776894    158.79907  0.037809303  0.038910607            5 
  351000    1.1861535   -6.7703124    158.78408  0.037698025  0.038904665            1 
  352000    1.1921185     -6.78279    159.12594   0.03767186  0.038898245            2 
  353000    1.1657331   -6.7992849    160.38529  0.037862439   0.03889253            1 
  354000    1.1903231    -6.812037    160.37602    0.0377533  0.038887226            1 
  355000    1.1774549   -6.7856958    161.13817  0.037825861  0.038882374            2 
  356000     1.175469   -6.7435018    161.62192  0.037832846  0.038877553            2 
  357000    1.2277537   -6.7711334    162.13334   0.03784625  0.038872231            1 
  358000    1.1983953    -6.756956    162.59843  0.037848796  0.038867741            2 
  359000    1.2180506   -6.7778667    163.33371  0.037914046  0.038863862            1 
  360000    1.2138994   -6.7741896    163.51063  0.037849682   0.03885943            1 
  361000    1.1886758    -6.807177    163.25473  0.037685764  0.038854943            2 
  362000    1.2118337   -6.7359614    164.23594  0.037807537  0.038849767            4 
  363000     1.186887   -6.7459005    165.00755  0.037880522  0.038844998            1 
  364000    1.1951944   -6.7533061    165.35241  0.037855405  0.038841642            3 
  365000    1.2041679   -6.7662372    165.25915    0.0377304  0.038837831            1 
  366000    1.2092402   -6.7662564    166.67776  0.037950309  0.038834761            1 
  367000    1.1533556   -6.7400282    167.42304  0.038016131  0.038833264            2 
  368000    1.1760481   -6.7808365    167.08995  0.037837397  0.038831568            1 
  369000    1.1872252   -6.7984322    167.43834  0.037813537   0.03882941            1 
  370000    1.2018809   -6.8199608    167.83615  0.037800935  0.038828136            1 
  371000    1.2050037   -6.8246209    168.78281  0.037911683  0.038826253            2 
  372000    1.1877319   -6.7811826    169.27707   0.03792049  0.038824442            2 
  373000    1.2063189   -6.7933966    169.61792  0.037894977  0.038822432            3 
  374000    1.1970953   -6.7787137     170.2976  0.037945098  0.038820604            3 
  375000    1.1920946   -6.8114029    170.71835  0.037937411  0.038819264            1 
  376000    1.1867596   -6.8164676    170.67198  0.037826237  0.038816949            4 
  377000    1.2214221   -6.7588041    171.60893  0.037933008  0.038814275            2 
  378000    1.1696913   -6.7799275    171.90348  0.037897592  0.038811182            2 
  379000     1.175995   -6.7836445     172.0061  0.037820162  0.038807173            1 
  380000     1.178646   -6.7988518    172.04111  0.037728313  0.038802772            3 
  381000    1.2169147   -6.7892004     172.2041  0.037664938  0.038797547            2 
  382000    1.2149577   -6.7802363    172.88607  0.037715111  0.038793073            1 
  383000     1.210787   -6.7793007    173.77571  0.037810206  0.038788781            2 
  384000    1.1895923   -6.7695029    174.45979  0.037860198  0.038785527            2 
  385000    1.2092604   -6.7587931    174.28611  0.037724267  0.038781509            1 
  386000    1.2021641   -6.8026224    174.67788  0.037711113  0.038776715            2 
  387000      1.18729   -6.7766629    174.34765   0.03754256  0.038770684            3 
  388000    1.2055751   -6.7993463    174.72914  0.037527737  0.038764488            1 
  389000    1.1847814   -6.7664127     175.6373  0.037625814  0.038757919            1 
  390000    1.2072759   -6.7704818    175.49447  0.037498819  0.038751298            1 
  391000    1.2067746   -6.7481516    176.25277  0.037564528  0.038743558            2 
  392000    1.1838514   -6.7783032    176.67375  0.037558194  0.038735626            3 
  393000    1.2041511   -6.7839625    176.76934  0.037482896  0.038726266            3 
  394000    1.1817491   -6.7663266    177.59673  0.037562761   0.03871717            3 
  395000    1.1733128   -6.7863387    177.89452  0.037530489  0.038707974            1 
  396000    1.1864569   -6.7968679    176.50199  0.037142675  0.038697857            4 
  397000    1.2011488   -6.7404232    178.29623  0.037425741  0.038687272            3 
  398000    1.1855926   -6.7636403    178.00091  0.037269872  0.038677216            1 
  399000    1.1864989   -6.8050247    178.97832  0.037380601  0.038665992            1 
  400000    1.1669556   -6.7907319    179.03677  0.037299326  0.038655173            3 
  401000    1.1801444   -6.7833161    179.73429  0.037351265  0.038645094            4 
  402000    1.2088477   -6.8049349    179.44727  0.037198855  0.038634572            2 
  403000    1.1831181   -6.7848276    180.48806  0.037321767  0.038624047            4 
  404000    1.1966777   -6.7789192    180.72793  0.037278864  0.038612968            1 
  405000       1.1853   -6.7902292    181.44106  0.037333552  0.038602166            2 
  406000    1.2050087   -6.8183868     180.8296  0.037116092  0.038590694            2 
  407000    1.1750143   -6.7656065    182.11657  0.037288405  0.038579607            1 
  408000    1.1799729    -6.789536    181.53354  0.037077928  0.038567269            2 
  409000    1.1669257   -6.8126865    181.84129  0.037049978  0.038554188            1 
  410000    1.1946522   -6.7821879    182.89247  0.037173265  0.038541537            2 
  411000    1.1994171   -6.7588056    183.56104  0.037218378  0.038528844            2 
  412000    1.1990151   -6.8041555    182.87633  0.036989548  0.038516032            3 
  413000    1.1682288    -6.805041    183.40142  0.037005936  0.038502439            1 
  414000    1.1720164   -6.7896382    184.40949  0.037119462  0.038489206            1 
  415000    1.1861479   -6.8036683    184.30554  0.037009144  0.038476421            1 
  416000    1.1758956   -6.7792189    185.29489  0.037118367  0.038463641            1 
  417000    1.1890903   -6.8080526    185.08481  0.036987372  0.038450627            2 
  418000     1.187905   -6.8215263    185.51955  0.036985555  0.038437964            2 
  419000    1.1784392   -6.8409004    185.93836   0.03698058  0.038425112            3 
  420000    1.2099775   -6.7833255    186.78576  0.037060667  0.038412479            3 
  421000    1.1649214   -6.7854769    186.99943  0.037014931  0.038399174            1 
  422000    1.1856046   -6.7876887    187.06664  0.036940489  0.038386534            3 
  423000    1.1786093   -6.7537863    187.72768  0.036983388  0.038374057            4 
  424000    1.2023978   -6.8104261    187.66138  0.036883132  0.038360551            2 
  425000    1.1754724   -6.7565746    188.75089  0.037009979  0.038347687            2 
  426000    1.2038074   -6.7961213    188.49086  0.036872234  0.038335721            2 
  427000    1.1875206   -6.7257218    189.33331  0.036950294  0.038322666            1 
  428000    1.1929068   -6.7891294    189.09887  0.036818315  0.038310068            1 
  429000    1.1766318   -6.7513605    189.76789   0.03686245  0.038296316            3 
  430000    1.1958747   -6.7458506    190.16919  0.036854494   0.03828335            3 
  431000    1.1778109   -6.7967625    191.35702   0.03699865  0.038271388            2 
  432000    1.1830937    -6.789775    191.76357  0.036991429  0.038259067            5 
  433000    1.1952985   -6.8021695    191.06187  0.036770952  0.038246908            1 
  434000     1.166823   -6.7880125    192.09163  0.036883953  0.038234381            2 
  435000    1.1920944     -6.75433    193.40034  0.037049873  0.038221993            2 
  436000    1.1758803   -6.7649914    193.10521  0.036908488  0.038209639            2 
  437000    1.2044227   -6.7671477     193.1091   0.03682477  0.038197189            2 
  438000    1.1934393   -6.7589748    193.98539  0.036907418  0.038184421            2 
  439000    1.1784058   -6.8274044    193.31603  0.036696284  0.038170925            2 
  440000    1.1815694   -6.7954147    193.81113  0.036706654  0.038156422            1 
  441000    1.1524346   -6.8206816    194.20879  0.036698562  0.038142751            1 
  442000    1.1907238   -6.7687693     195.2808  0.036817648  0.038128488            3 
  443000     1.188274   -6.7912804    194.39828  0.036568525  0.038113583            2 
  444000    1.2081601    -6.776899    195.02986  0.036604704  0.038098754            3 
  445000    1.1850822   -6.8257978    194.99734  0.036516355  0.038083926            1 
  446000    1.1802019   -6.7732149    196.35423   0.03668801  0.038068945            2 
  447000      1.20727   -6.8243121    196.43001  0.036620062  0.038053998            2 
  448000    1.2084786   -6.8310638    196.59249  0.036568543  0.038038833            1 
  449000    1.1841446   -6.8176771    196.81003  0.036527473  0.038024154            3 
  450000    1.1843447    -6.820396    197.01168  0.036483645  0.038008276            1 
  451000    1.1823991   -6.7982877    198.73379  0.036720951  0.037994482            1 
  452000    1.1942958   -6.7504241    199.37408  0.036757759  0.037981482            2 
  453000    1.1915238   -6.7993352    198.85961  0.036581974  0.037968582            3 
  454000    1.1529712   -6.7921713    200.79505  0.036856654  0.037955625            2 
  455000    1.1815164   -6.7928156    199.85495   0.03660347  0.037943514            3 
  456000    1.1643516   -6.7954286    200.69042   0.03667588  0.037931259            1 
  457000    1.2031829   -6.7937801    200.70773  0.036598784  0.037918537            1 
  458000    1.1929474   -6.8501844     200.7918   0.03653417  0.037905486            1 
  459000    1.1832089   -6.8144391    202.20646  0.036711412  0.037893185            2 
  460000    1.1842586   -6.7721971    202.43167  0.036672403  0.037880927            2 
  461000    1.1396379   -6.7475546    203.08025  0.036710095  0.037869328            2 
  462000     1.163114    -6.806934    203.64522  0.036732543  0.037857215            1 
  463000    1.1689814   -6.8212615    203.67827  0.036659155  0.037845379            1 
  464000    1.1859344   -6.8375059    203.30704  0.036513476  0.037833034            1 
  465000    1.1891726    -6.784237    205.21741  0.036777313  0.037821149            3 
  466000    1.1755876   -6.8094747    204.85146   0.03663295  0.037809414            1 
  467000    1.1481748   -6.7990049    205.43149  0.036658011  0.037796991            1 
  468000    1.1877519   -6.8427593    204.96099  0.036495902  0.037783725            2 
  469000    1.1841048   -6.8144179    206.03753  0.036609369   0.03777073            1 
  470000    1.1743829    -6.779694    205.82838  0.036494394  0.037757656            2 
  471000    1.1842955   -6.7850697    207.11934  0.036645319  0.037745028            1 
  472000    1.1614627   -6.7888221    207.13054  0.036569658  0.037733144            1 
  473000    1.1750531   -6.7770876    207.79448  0.036609317  0.037721289            4 
  474000    1.1992769    -6.818075    208.09049  0.036584122  0.037709024            1 
  475000    1.1723921   -6.8150456    207.84111  0.036463353  0.037696408            1 
  476000    1.1832999   -6.7784242    208.78402  0.036551824  0.037683838            1 
  477000    1.2055281   -6.7677444    209.64625   0.03662583   0.03767143            2 
  478000    1.1739402   -6.7990763    209.55348  0.036533034  0.037658634            3 
  479000    1.1669969   -6.8390095    209.69854     0.036482  0.037645789            2 
  480000    1.1747924   -6.8058027    210.22859  0.036498019  0.037633692            2 
  481000    1.1718153   -6.8055818    210.22369   0.03642129  0.037621599            1 
  482000    1.1481863   -6.7738219    211.88908  0.036633659  0.037609341            2 
  483000    1.1860085   -6.7837246    211.81133  0.036544399  0.037597867            1 
  484000    1.1846596   -6.8227125    211.66159  0.036443111  0.037585848            2 
  485000     1.160797   -6.8330184     211.4573   0.03633287  0.037573794            1 
  486000    1.1884637   -6.8132091    212.83422  0.036494208   0.03756212            3 
  487000    1.1890369   -6.7925164    213.30695  0.036500162    0.0375506            1 
  488000    1.1831826   -6.8126383    213.67668  0.036488503  0.037539497            2 
  489000    1.1498255   -6.7920467    213.94205  0.036459109  0.037527902            2 
  490000    1.1732762   -6.8133637    214.95647  0.036557223  0.037516799            4 
  491000    1.1910584   -6.8400579    214.65444  0.036431507  0.037506662            2 
  492000    1.2066072   -6.8127522    215.33967  0.036473521  0.037497109            1 
  493000    1.1880018   -6.8022925    216.44979  0.036587186  0.037487466            1 
  494000     1.169819   -6.8375613    215.99923  0.036437117  0.037477438            1 
  495000    1.1641237    -6.819671    217.02159  0.036535621  0.037467202            1 
  496000     1.177993   -6.8085441    217.77505   0.03658855  0.037457974            2 
  497000    1.1652972   -6.7800323    218.20194  0.036586509  0.037448629            2 
  498000    1.1647745   -6.7779302    219.08868  0.036661425  0.037439689            2 
  499000     1.173778   -6.8419333     218.6285  0.036511105  0.037430913            4 
  500000    1.1835165   -6.8338516    219.95708  0.036659513  0.037421665            4 
  501000    1.1991957   -6.8117125    219.82789  0.036564852  0.037412945            2 
  502000    1.1831059   -6.8432185    219.69933  0.036470672  0.037403954            1 
  503000    1.1653265   -6.8178903    221.05632  0.036622981  0.037394967            1 
  504000    1.1494086    -6.800291    221.04946  0.036549183   0.03738581            3 
  505000    1.1719755    -6.809422    221.42519   0.03653881  0.037376461            1 
  506000    1.1666004   -6.8408687    221.49424  0.036477971  0.037367863            4 
  507000    1.1715704   -6.8441064    222.60043  0.036587842  0.037358813            3 
  508000     1.194946   -6.8193061    222.70393  0.036532797  0.037350224            2 
  509000    1.1647604   -6.8120783    222.64995  0.036452186  0.037341301            2 
  510000    1.1498588   -6.8567049    222.96204  0.036431706  0.037331995            4 
  511000     1.169927   -6.8255908    223.14812  0.036390757  0.037322041            1 
  512000    1.1560343   -6.8311195    223.11578  0.036314417  0.037311406            3 
  513000    1.1744872   -6.8344425    224.15346  0.036412193  0.037301284            1 
  514000    1.1691219   -6.8659557    224.41335  0.036383487  0.037290525            2 
  515000    1.1515231    -6.841679     223.9995  0.036245874  0.037279931            3 
  516000    1.1793042   -6.8355083    224.49163  0.036255107  0.037268745            2 
  517000    1.1907335   -6.8003059    224.88926  0.036249075  0.037257782            2 
  518000    1.1824202   -6.7702367    225.65187  0.036301781   0.03724692            4 
  519000    1.1713709   -6.8584824     225.6267  0.036227794  0.037235936            1 
  520000    1.1598697     -6.83965    226.27597  0.036262175  0.037224989            2 
  521000    1.1753911   -6.8838091    225.98781  0.036146483  0.037213918            3 
  522000    1.1727989   -6.8445929    227.02714  0.036243157   0.03720268            1 
  523000    1.1647326   -6.8207994    227.96139   0.03632272   0.03719272            7 
  524000    1.1600759   -6.7773978    228.86064  0.036396412  0.037183332            3 
  525000    1.1580721   -6.8073355    229.02996  0.036353962  0.037173234            2 
  526000    1.1536265   -6.8095652    229.62471  0.036379073  0.037163264            2 
  527000    1.1761792   -6.8198079    229.68362  0.036319357  0.037153101            1 
  528000    1.1590547   -6.8648122    229.32113  0.036193361  0.037142793            2 
  529000    1.1854972   -6.8387664    229.37127   0.03613284   0.03713236            1 
  530000    1.1441071   -6.8189492    229.38097   0.03606619  0.037121462            1 
  531000    1.1549833   -6.8250098    229.89497  0.036078934   0.03711041            1 
  532000    1.1750867   -6.8415463    230.31182  0.036076413  0.037099167            4 
  533000    1.1493734   -6.8311793    230.98077  0.036113316  0.037087834            1 
  534000    1.1829536    -6.825608    231.60782  0.036143543  0.037077031            2 
  535000    1.1462926   -6.8393654    231.46492  0.036053725  0.037066562            1 
  536000    1.1722336   -6.8475332    231.76493  0.036033105  0.037055033            3 
  537000    1.1604447   -6.8035874    232.06976  0.036013308   0.03704374            2 
  538000    1.1777223   -6.8537726    232.77242  0.036055207  0.037031911            2 
  539000    1.1671213   -6.8304577    233.60935  0.036117711  0.037020038            1 
  540000    1.1712401   -6.8431384    233.89737  0.036095273  0.037008873            1 
  541000    1.1495527   -6.8556706    234.14479  0.036066664  0.036997765            2 
  542000    1.1683252   -6.8169237    234.20928  0.036010037  0.036986144            2 
  543000     1.152814   -6.8313574    234.83856  0.036040294  0.036974929            1 
  544000    1.1444056   -6.8716781    235.03037  0.036003426  0.036963087            2 
  545000    1.1681733   -6.8067614     235.8375   0.03606078  0.036951701            1 
  546000    1.1746061   -6.8140016    236.33789  0.036071106  0.036941111            3 
  547000    1.1573179    -6.823281    237.24604  0.036143517  0.036930813            2 
  548000    1.1718968   -6.8221536    237.66736   0.03614163  0.036920916            2 
  549000       1.1354   -6.8717983     236.9215  0.035962583  0.036910334            1 
  550000    1.1661124    -6.817063    237.34729   0.03596171  0.036900521            2 
  551000    1.1769392    -6.851109    237.82136  0.035968142  0.036890367            2 
  552000    1.1696067   -6.8463484      238.523  0.036008907   0.03688006            1 
  553000    1.1778638   -6.7876528    239.65199  0.036113922  0.036869968            2 
  554000    1.1513717   -6.8501078    240.51065  0.036177896  0.036859991            1 
  555000    1.1797596   -6.8058893    240.13182  0.036055829    0.0368505            2 
  556000    1.1549669   -6.8371062     240.5851  0.036058917   0.03684071            1 
  557000    1.1312452   -6.8330658    241.55738  0.036139643  0.036831573            1 
  558000    1.1500325   -6.8583654    240.31071  0.035888696  0.036822198            2 
  559000    1.1466669   -6.7957128    242.39257  0.036134849  0.036812779            6 
  560000     1.189652   -6.8345903    242.71852  0.036118827  0.036804302            1 
  561000    1.1674054   -6.7878087    243.29819  0.036140551  0.036795691            2 
  562000    1.1717496   -6.8493307    243.59006  0.036119522  0.036787393            3 
  563000     1.189721   -6.8160396    244.80947   0.03623586  0.036778594            1 
  564000    1.1613666    -6.807962    245.02888   0.03620403  0.036770283            2 
  565000    1.1598762   -6.8262348    244.58586   0.03607461  0.036762427            3 
  566000    1.1806749   -6.8441063    245.24912  0.036108528  0.036754073            5 
  567000    1.1636319   -6.8424692    244.50129  0.035934934  0.036745761            4 
  568000    1.1466956   -6.8399394    246.36183  0.036144634  0.036737135            1 
  569000     1.149786   -6.8309633    246.42252      0.03609  0.036728715            2 
  570000    1.1627553   -6.8426161     246.7519  0.036074838  0.036720765            1 
  571000     1.154208   -6.8118967    247.72328  0.036153427  0.036713272            2 
  572000    1.1587397   -6.8629496    247.83873  0.036107042  0.036705613            1 
  573000    1.1514301   -6.8139518    249.03544  0.036218068  0.036697886            3 
  574000    1.1535474    -6.784749    248.61696  0.036094216  0.036690448            1 
  575000    1.1484472   -6.8450649    248.93747  0.036077894  0.036682871            2 
  576000    1.1797676   -6.8656508    249.31182  0.036069418  0.036675479            2 
  577000    1.1497233   -6.8350325    250.08931  0.036119195  0.036667836            2 
  578000    1.1473312   -6.7978439    250.42535  0.036105155  0.036660672            1 
  579000    1.1641009   -6.8114314    252.59861  0.036355586  0.036654036            3 
  580000     1.146114   -6.8352901    252.21624  0.036237965  0.036648123            1 
  581000     1.153429    -6.868688    252.15359  0.036166608  0.036642208            4 
  582000    1.1598307   -6.8611448      252.977  0.036222365  0.036635994            2 
  583000    1.1787921   -6.8328438    253.59771  0.036248958    0.0366302            3 
  584000    1.1732306   -6.8474319    252.07119  0.035969062  0.036624025            1 
  585000    1.1659625   -6.8246594    254.07196  0.036192586  0.036617208            2 
  586000     1.174395   -6.8733003    253.43082   0.03603965  0.036610537            2 
  587000    1.1588594   -6.8387536     254.8043   0.03617324  0.036603514            1 
  588000    1.1602926   -6.8499522    254.27694  0.036036982  0.036596263            1 
  589000    1.1440863   -6.8495766    254.30826  0.035980229  0.036588965            1 
  590000    1.1770337    -6.825431    254.90464   0.03600348  0.036581537            2 
  591000    1.1494192    -6.836373     255.3436  0.036004455  0.036573953            2 
  592000    1.1757715   -6.8478295    255.72325  0.035997079  0.036566073            2 
  593000    1.1360008    -6.865939    256.44552  0.036037876  0.036558746            1 
  594000    1.1611536   -6.8400793    257.16814  0.036078583  0.036551694            1 
  595000    1.1457699    -6.807081    257.30977  0.036037783  0.036544882            1 
  596000    1.1927938   -6.8469585    257.90989  0.036061226  0.036538342            1 
  597000    1.1520163   -6.8796799    256.86254  0.035854626  0.036530977            2 
  598000    1.1678527   -6.7993964    258.24075  0.035986727  0.036523879            1 
  599000    1.1852304   -6.8771609    257.60616  0.035838364  0.036516699            2 
  600000    1.1354462   -6.7954413    260.28908  0.036151261  0.036509517            1 
  601000     1.157912   -6.8428727    259.86634  0.036032494  0.036502407            1 
  602000     1.166581   -6.8599943    260.33007  0.036036832  0.036495844            5 
  603000    1.1632372    -6.867154    260.70447  0.036028811  0.036489495            1 
  604000    1.1368275   -6.8863942    259.87417  0.035854604  0.036482714            2 
  605000    1.1679303   -6.8549844    261.79391  0.036059768  0.036476184            1 
  606000    1.1380672   -6.8725814    261.57727  0.035970471  0.036469718            3 
  607000    1.1606661   -6.8667868    261.07203  0.035841849  0.036462919            2 
  608000    1.1385352   -6.8709979    263.39149  0.036100808  0.036456462            2 
  609000    1.1499059   -6.8452453    263.18297  0.036012995  0.036450462            3 
  610000    1.1650869   -6.8252096    263.37032  0.035979551  0.036444277            1 
  611000    1.1401293   -6.8264275     263.2084  0.035898582   0.03643794            1 
  612000     1.150514   -6.8476996    263.93299  0.035938588  0.036431351            3 
  613000    1.1379806   -6.8457815    264.29483   0.03592915  0.036424278            1 
  614000    1.1548378   -6.8485277    264.61251   0.03591375   0.03641775            2 
  615000    1.1516008   -6.8714547    265.01902  0.035910436  0.036410894            3 
  616000    1.1594194   -6.8617056    265.10026   0.03586313  0.036404069            1 
  617000    1.1662847   -6.8346694    265.41235  0.035847157   0.03639725            2 
  618000    1.1834999   -6.8842921    265.50505  0.035801652   0.03638992            1 
  619000    1.1344111   -6.8730556    266.43975  0.035869649  0.036382562            2 
  620000    1.1796123    -6.849912     266.4415   0.03581203  0.036374746            1 
  621000    1.1424877   -6.8262855    266.81162  0.035804029  0.036366891            3 
  622000    1.1604815   -6.8244188    267.29464  0.035811179  0.036358988            2 
  623000    1.1350523   -6.8157103    268.39243  0.035900539  0.036351483            1 
  624000    1.1684845    -6.854971    268.06182  0.035798854  0.036344314            2 
  625000    1.1579326   -6.8580909    268.83182  0.035844243  0.036337012            2 
  626000    1.1412116   -6.8889129    269.27211  0.035845595  0.036329274            1 
  627000    1.1405531   -6.8476221    269.58354  0.035829816  0.036321437            5 
  628000    1.1597076   -6.8560163    270.18572   0.03585267  0.036313658            1 
  629000     1.154564    -6.867291    270.29127  0.035809654  0.036305738            1 
  630000    1.1617606   -6.8335591    270.62261  0.035796642  0.036298054            2 
  631000    1.1424136   -6.8847576    271.00665  0.035790631  0.036289846            1 
  632000    1.1283851    -6.829935    270.81765  0.035709078  0.036281963            2 
  633000    1.1674657    -6.847284    272.17068   0.03583079  0.036274357            2 
  634000     1.161156    -6.823212    272.04034  0.035757142  0.036266766            1 
  635000    1.1169121   -6.8893197     271.3233  0.035606732  0.036258906            1 
  636000    1.1638114    -6.848745    272.31811  0.035681094  0.036250585            3 
  637000     1.124386   -6.8639119      272.074  0.035593144  0.036241851            3 
  638000    1.1403073   -6.8684942    272.34085  0.035572211   0.03623323            2 
  639000    1.1714056   -6.8257128    272.76884  0.035572358  0.036224738            1 
  640000    1.1541204   -6.8192007    275.04699   0.03581341  0.036216282            2 
  641000    1.1505183   -6.8421402    274.21175  0.035648954  0.036207488            3 
  642000     1.148875   -6.8527182    273.69684  0.035526589   0.03619878            2 
  643000    1.1442915   -6.8964328    274.03318  0.035514928  0.036189712            1 
  644000    1.1653666    -6.852536    274.95985  0.035579691  0.036180409            3 
  645000    1.1639609   -6.8583426    274.86408  0.035512155  0.036171786            2 
  646000    1.1623925   -6.9029017    274.96372  0.035470036  0.036162996            1 
  647000    1.1316677   -6.8755027    274.99792  0.035419618  0.036154465            3 
  648000    1.1508243   -6.8820265    275.74728  0.035461327  0.036145277            3 
  649000    1.1492226   -6.8324809    276.75423  0.035535982  0.036136279            1 
  650000    1.1549785   -6.8649743    275.13569  0.035273807   0.03612717            1 
  651000    1.1430082   -6.8627489    276.61332  0.035408771   0.03611751            1 
  652000    1.1340891   -6.8555632    276.51062  0.035341337  0.036108316            1 
  653000    1.1426807   -6.8667135     277.5682  0.035422179  0.036098848            2 
  654000    1.1497004   -6.9211277    277.35122   0.03534037  0.036088681            2 
  655000    1.1545237   -6.8730436    277.35156  0.035286458  0.036078685            3 
  656000    1.1590401   -6.8492665    278.93653   0.03543401  0.036069045            3 
  657000     1.125808   -6.8658399    277.97487  0.035258101   0.03605933            2 
  658000    1.1487902   -6.8959514    278.12344  0.035223333   0.03604898            4 
  659000    1.1681008   -6.8342825    278.10872  0.035168022  0.036038808            2 
  660000    1.1581965   -6.8578411    279.10702  0.035240785  0.036028526            2 
  661000     1.140888   -6.8710498    280.01226  0.035301596  0.036018435            1 
  662000    1.1540286    -6.869991    279.48007  0.035181277   0.03600808            2 
  663000    1.1587754    -6.898674    280.06371  0.035201572  0.035997689            1 
  664000    1.1519876   -6.8680917    280.83818  0.035245755  0.035987634            2 
  665000    1.1616344   -6.8673226     280.0358  0.035092206  0.035977254            2 
  666000    1.1536158   -6.8499102     281.1628  0.035180531  0.035966707            5 
  667000    1.1321797   -6.8908237    280.88956  0.035093648  0.035955941            3 
  668000    1.1470047   -6.8852214    281.94875  0.035173248  0.035945205            2 
  669000    1.1592148   -6.8673549    282.32213  0.035167181  0.035934072            3 
  670000    1.1482611   -6.8773671    282.57604  0.035146273  0.035923228            3 
  671000     1.161466   -6.8719874    282.19192  0.035046189  0.035911585            2 
  672000    1.1162931     -6.86038    282.06641  0.034978473  0.035900401            2 
  673000    1.1351829   -6.8693678      283.164  0.035062407  0.035889325            3 
  674000    1.1257286   -6.8809378    283.21713  0.035016955  0.035878322            1 
  675000    1.1432472    -6.892911    283.81764  0.035039215  0.035867566            2 
  676000    1.1684728   -6.8790516    283.69207  0.034971902  0.035856398            2 
  677000    1.1300207   -6.8520216     284.3642  0.035002978  0.035845308            2 
  678000    1.1679364   -6.8741496    285.88156  0.035137851   0.03583432            3 
  679000    1.1508224   -6.9140053    284.52338  0.034919414  0.035823544            1 
  680000    1.1457507   -6.8414561    285.53026  0.034991453    0.0358127            1 
  681000    1.1384056   -6.8896525    286.89676  0.035107288  0.035802333            2 
  682000    1.1494356   -6.8699334     286.5066  0.035008138  0.035792271            3 
  683000    1.1561007   -6.8747737    287.24658  0.035047167  0.035782015            1 
  684000     1.137555    -6.819211    287.50785  0.035027759  0.035772432            3 
  685000    1.1447365   -6.9039514    287.58393   0.03498588  0.035762131            1 
  686000    1.1463215   -6.8590676    289.43063  0.035159212  0.035751844            2 
  687000    1.1368117   -6.9087371     287.8866  0.034920742  0.035741727            1 
  688000    1.1371739   -6.8468797    289.45863  0.035060396  0.035731862            2 
  689000    1.1476298   -6.8960835    289.86483   0.03505864  0.035722245            2 
  690000    1.1281287    -6.896683    289.02886  0.034906867  0.035712153            4 
  691000    1.1426048   -6.8643662    289.73466  0.034941469  0.035701896            2 
  692000    1.1429541   -6.8531158    290.75909  0.035014341  0.035692102            1 
  693000    1.1411271   -6.8813346    291.59838  0.035064741  0.035682213            4 
  694000    1.1454474   -6.9232962    290.53962  0.034887082  0.035672521            1 
  695000    1.1165587   -6.9170258    291.18207  0.034913917  0.035662644            1 
  696000    1.1664945   -6.8601649    292.95132  0.035075589  0.035652695            4 
  697000    1.1352956   -6.9189601    291.95144   0.03490572  0.035643243            5 
  698000    1.1150035   -6.8733081    292.97932  0.034978429  0.035633235            2 
  699000    1.1324374   -6.9060494     293.4245  0.034981461  0.035623442            2 
  700000    1.1441378   -6.9297339    293.48179  0.034938308  0.035613798            2 
  701000    1.1504354   -6.8922707    294.28679  0.034984164  0.035604274            2 
  702000    1.1372434   -6.8576745    294.26081  0.034931245  0.035594775            2 
  703000    1.1232473   -6.8936037    295.11841  0.034983216  0.035585902            3 
  704000    1.1407428   -6.9204915    296.04942  0.035043729  0.035577114            2 
  705000    1.1214505   -6.9080833    295.82166  0.034967099  0.035567992            3 
  706000    1.1201471    -6.847138    298.10419  0.035186991  0.035559509            2 
  707000    1.1387814   -6.8765933    297.64219  0.035082766  0.035550841            1 
  708000    1.1706188   -6.8488785     297.8308  0.035055414  0.035542467            1 
  709000    1.1124532   -6.8637961    298.67546  0.035105249  0.035534351            2 
  710000    1.1395736   -6.8628385    298.08994  0.034987082  0.035525757            1 
  711000    1.1787756   -6.8781483    298.28028  0.034960183  0.035516475            1 
  712000    1.1284535   -6.8734417    298.83694  0.034976233  0.035507886            2 
  713000    1.1283976   -6.8854184    298.85114  0.034928838  0.035498655            2 
  714000    1.1043637   -6.8620795    299.91863  0.035004509  0.035489582            1 
  715000    1.1270688   -6.8540299    299.97512  0.034962135  0.035480354            2 
  716000     1.130307   -6.8528186    299.87538  0.034901697   0.03547124            1 
  717000    1.1299516   -6.9113678    300.33337  0.034906249  0.035462329            2 
  718000    1.1519905   -6.8551752    300.78921   0.03491054  0.035453203            2 
  719000    1.1384969   -6.8571562    301.33817   0.03492561  0.035444243            1 
  720000    1.1186756   -6.8712947    302.23506   0.03498091  0.035435849            2 
  721000    1.1431076     -6.87981    301.34595  0.034829629  0.035426708            1 
  722000    1.1462882   -6.9049122    302.11201  0.034869807  0.035417769            3 
  723000    1.1053256   -6.8645719    302.52626  0.034869324  0.035408791            2 
  724000    1.1423162   -6.8552895    303.99988  0.034990778  0.035400713            2 
  725000     1.149045   -6.9141875    303.44099  0.034878274  0.035392785            3 
  726000     1.128267   -6.8956092    304.30141  0.034928996   0.03538437            2 
  727000    1.1265728   -6.8679395    304.54881  0.034909309  0.035376147            2 
  728000    1.1574663   -6.8634939    305.31296  0.034948828  0.035367884            2 
  729000    1.1579588   -6.8676251    304.29946  0.034785032  0.035359605            2 
  730000    1.1329382   -6.9026604    305.15866  0.034835463   0.03535115            1 
  731000    1.1477415   -6.8810592    306.28497  0.034916207  0.035342463            2 
  732000    1.1392882   -6.8931042    306.51768  0.034894999  0.035334103            2 
  733000     1.157357   -6.8753235    306.43874   0.03483842  0.035325738            2 
  734000    1.1520082   -6.9115365    306.95493   0.03484956   0.03531714            2 
  735000    1.1183118   -6.8938527    306.69133   0.03477226  0.035308522            3 
  736000    1.1475664    -6.906816    307.08357  0.034769426  0.035299835            3 
  737000    1.1362419   -6.9129993    308.06402   0.03483311  0.035291471            1 
  738000     1.124639   -6.9018593    308.45836  0.034830439  0.035282777            2 
  739000    1.1343929   -6.9152057    308.41106  0.034777973  0.035274051            2 
  740000    1.1488211   -6.8957062    309.18084  0.034817663    0.0352656            2 
  741000    1.1535715   -6.8870995    309.24062  0.034777397  0.035257368            2 
  742000    1.1646793   -6.9245344    309.19426  0.034725321  0.035249197            2 
  743000    1.1151759   -6.9044343    309.08323  0.034666131  0.035240647            2 
  744000    1.0949783   -6.8687538     310.2431  0.034749451   0.03523202            3 
  745000    1.1394654   -6.9108965    310.56887  0.034739247   0.03522354            1 
  746000    1.1288811   -6.9063257    311.56304  0.034803736  0.035215267            2 
  747000     1.092627   -6.9099261    312.16076  0.034823825  0.035207402            2 
  748000    1.1099474   -6.8836141    313.17534  0.034890301  0.035199762            6 
  749000     1.138308   -6.9022181    312.12189  0.034726511  0.035191677            3 
  750000    1.1358642   -6.9258436    312.91906  0.034768784  0.035183581            1 
  751000    1.1467818   -6.8723033    314.19584  0.034864163  0.035175547            1 
  752000    1.1391833   -6.9018617    312.71045  0.034653197   0.03516756            3 
  753000     1.121069   -6.8931174    314.46596  0.034801457  0.035159807            1 
  754000    1.1674451   -6.8722495    314.89719  0.034802961  0.035151848            1 
  755000    1.1481517     -6.91081    314.65299   0.03472991  0.035144311            3 
  756000     1.121735   -6.9265803    314.33096  0.034648475  0.035136191            2 
  757000    1.1186306   -6.8955348    314.65759  0.034638661  0.035128034            1 
  758000    1.1536895   -6.9000973    315.80249  0.034718832  0.035120175            5 
  759000    1.1512503   -6.8815735    315.77482   0.03467005  0.035112171            1 
  760000    1.1166924   -6.8571948    315.63707  0.034609328  0.035104321            2 
  761000    1.1389237   -6.8944821    317.19851  0.034734834  0.035096261            2 
  762000    1.1166846   -6.8765999    316.62644  0.034626689   0.03508815            2 
  763000    1.1441376   -6.8861316    317.73565  0.034702452  0.035079992            3 
  764000    1.1205839   -6.8747876    319.02554  0.034797724  0.035072129            3 
  765000    1.1191501   -6.9182352    318.97209  0.034746415  0.035064395            1 
  766000    1.1200947   -6.9070224    318.60143   0.03466073  0.035056446            3 
  767000    1.1331583   -6.9162024    319.70678  0.034735635  0.035048638            2 
  768000    1.1082343   -6.9067175    319.63907  0.034683059  0.035040807            3 
  769000    1.1242029   -6.9342056    319.66958  0.034641263  0.035032949            1 
  770000    1.1397597   -6.9340788    320.23008  0.034656935  0.035025299            2 
  771000    1.1427571   -6.9118263    320.74416  0.034667549  0.035017846            4 
  772000    1.1491024   -6.8958634    320.56735  0.034603557  0.035010557            4 
  773000    1.1036878   -6.8682294    321.42624  0.034651385  0.035002941            3 
  774000    1.1586495   -6.9413216     321.9438  0.034662339  0.034995321            1 
  775000    1.1212079   -6.8768947    322.28976  0.034654812  0.034987749            2 
  776000    1.1342813   -6.9119817    322.59291   0.03464271  0.034980231            2 
  777000    1.1045022   -6.8948088    324.85061  0.034840263  0.034972286            1 
  778000    1.1334963    -6.898966    322.66319  0.034561182  0.034964442            1 
  779000    1.1095012   -6.9022976     322.7285  0.034523802  0.034956371            4 
  780000    1.1474278   -6.9235568    323.18932  0.034528774  0.034948345            3 
  781000    1.1051145   -6.8941766     324.0164  0.034572813  0.034940448            5 
  782000    1.1299901   -6.9325983    323.39226  0.034462091  0.034932354            1 
  783000    1.1306886   -6.9205587    323.75359  0.034456533  0.034924203            3 
  784000    1.1339019   -6.9054146     325.8092   0.03463108  0.034916082            1 
  785000    1.1196805   -6.9083994    325.31091  0.034534067  0.034908687            1 
  786000    1.1136257   -6.9147492    326.02147  0.034565466  0.034901468            2 
  787000    1.1202018   -6.9095558    326.41965  0.034563707  0.034894399            3 
  788000    1.1329239   -6.8662598    327.64953  0.034649908  0.034887433            2 
  789000    1.1229206   -6.8916012    327.90989  0.034633491  0.034880442            1 
  790000    1.1446303   -6.8709647    327.65487   0.03456275  0.034873298            1 
  791000    1.1163712   -6.9552884    327.48347  0.034500998  0.034865926            2 
  792000    1.1487863    -6.926813    328.61121  0.034576096  0.034858276            2 
  793000     1.143921   -6.9197809    328.80995  0.034553378  0.034850698            4 
  794000    1.1570656   -6.8959193    328.08609  0.034433888  0.034843207            2 
  795000     1.111006   -6.9740261    327.84583  0.034365391  0.034835592            4 
  796000    1.1368091   -6.9150779    328.65535  0.034406967  0.034828031            1 
  797000    1.1323897   -6.8958288    330.03236  0.034507775  0.034820924            3 
  798000    1.1476203   -6.9153382    330.35148  0.034497858  0.034813462            2 
  799000    1.1146757   -6.9321214    330.50247  0.034470429  0.034806006            1 
  800000    1.1351054   -6.8901201    331.33513  0.034514076  0.034798563            2 
  801000    1.1503762    -6.896483    330.28773  0.034362019  0.034791316            2 
  802000    1.1378228   -6.9339246    330.86234   0.03437888  0.034783921       -1e+20 
  803000    1.1404909   -6.9065417    330.88503  0.034338422  0.034776018            2 
  804000    1.1200296   -6.8770654    332.39266  0.034451976  0.034768739            3 
  805000    1.1157746   -6.9110831     332.8305  0.034454503  0.034761222            1 
  806000    1.1208448   -6.9108483    332.91262  0.034420246  0.034754161            1 
  807000    1.1221746   -6.9412003    332.95753  0.034382231  0.034746861            4 
  808000    1.1289519   -6.8826861    335.05482  0.034555983  0.034740088            2 
  809000    1.1264536   -6.9229066    333.80498  0.034384527  0.034732939            2 
  810000    1.1166756   -6.9633876    334.47477  0.034410984  0.034725659            3 
  811000    1.1367671   -6.9180188    334.44565  0.034365562  0.034718589            1 
  812000    1.0988439   -6.9254936    336.10792  0.034493834  0.034711328            2 
  813000    1.1067995    -6.936838    336.18785  0.034459599  0.034704651            2 
  814000     1.089831   -6.9374574    335.76158  0.034373627  0.034697488            2 
  815000    1.1351883   -6.8944944    337.38076   0.03449701  0.034690472            1 
  816000     1.134069   -6.9126503    337.07753  0.034423768  0.034683495            1 
  817000    1.1413276   -6.9053808    338.21382  0.034497534   0.03467621            1 
  818000    1.0977928   -6.9223062    337.51148   0.03438381  0.034669121            4 
  819000    1.1020263   -6.9109107    338.33969  0.034426097  0.034661728            1 
  820000    1.1353162   -6.9204307    337.86295  0.034335665  0.034654141            2 
  821000    1.1353489   -6.9182878    336.80414  0.034186372  0.034646533            3 
  822000    1.0896905   -6.9582749    337.88245  0.034254101  0.034639018            2 
  823000    1.1326999   -6.9266464    339.53589    0.0343799  0.034631581            4 
  824000    1.1276172   -6.9240564    340.09428  0.034394648  0.034624517            2 
  825000    1.1147839   -6.8819864    341.53834  0.034498822  0.034618016            3 
  826000    1.1151574   -6.8996163    342.29859  0.034533757  0.034611538            3 
  827000    1.1167009   -6.9564423    341.11317  0.034372548  0.034605086            2 
  828000    1.1137781   -6.9178372    341.09307  0.034329013  0.034598348            1 
  829000    1.0721763   -6.9094219    342.86116  0.034465336  0.034591907            3 
  830000    1.1337355    -6.902129    342.16088  0.034353502  0.034585063            3 
  831000    1.1191254   -6.9098005    341.21947  0.034217757  0.034578157            3 
  832000    1.1379242    -6.976687    341.28806    0.0341835  0.034570812            1 
  833000    1.1146966   -6.9402995    342.42173  0.034255876  0.034563334            2 
  834000     1.121952   -6.9112449    342.97868  0.034270451  0.034555719            2 
  835000    1.1231568    -6.882059     343.5476  0.034286187  0.034548074            1 
  836000     1.102978    -6.939798    342.32547  0.034123352  0.034540444            3 
  837000    1.1112266   -6.9423773    343.22511  0.034172153  0.034532427            1 
  838000    1.1213632   -6.9327294     343.2736  0.034136198  0.034524785            2 
  839000    1.1359044   -6.9120368    344.28085  0.034195555  0.034517005            1 
  840000    1.1216928   -6.9058965    343.26427  0.034053995  0.034509042            4 
  841000    1.1052702   -6.9282843    343.74766  0.034061401  0.034500783            1 
  842000    1.1603665   -6.9353165    343.72091    0.0340183  0.034492142            1 
  843000    1.1556567   -6.9357262    343.60742  0.033966728  0.034483362            2 
  844000    1.1017268   -6.9363444    344.49564  0.034014182  0.034474984            2 
  845000    1.1056569    -6.965401    344.74874   0.03399889  0.034466329            2 
  846000    1.1284294   -6.9286996    344.32221  0.033916687  0.034457929            6 
  847000    1.1350666   -6.9759709    344.84276  0.033927859   0.03444922            1 
  848000    1.1003444   -6.9108515    345.63397  0.033965602  0.034440764            1 
  849000    1.1254063   -6.9423835    346.36111  0.033996968  0.034432441            2 
  850000     1.116772   -6.9277049    347.54965  0.034073495  0.034424077            3 
  851000    1.1258559   -6.9104107    347.13608  0.033992957  0.034415456            4 
  852000    1.1215173    -6.951561    347.29343  0.033968449  0.034406798            2 
  853000     1.109413   -6.9470113    346.42283  0.033843575  0.034397891            2 
  854000     1.118707   -6.9554783    346.85345  0.033845965  0.034388946            4 
  855000    1.1020038    -6.938254    346.20697   0.03374337  0.034379613            2 
  856000    1.1237196    -6.956859    347.01648  0.033782757  0.034370229            1 
  857000    1.1381955   -6.9326174    346.60465  0.033703292  0.034360998            2 
  858000    1.1158917   -6.9277519    347.26059  0.033727718  0.034351488            2 
  859000    1.1271053   -6.9349364    347.88683  0.033749208  0.034341744            4 
  860000     1.151017   -6.9325365    348.22382  0.033742618  0.034332321            2 
  861000    1.1023772   -6.9178124    348.84631  0.033763676  0.034322825            1 
  862000    1.1160222   -6.9555674    349.29159  0.033767555  0.034313532            1 
  863000    1.1164971   -6.9662151    349.62747  0.033760861  0.034303907            1 
  864000    1.1138378   -6.9321843    348.92688  0.033654213  0.034294454            3 
  865000    1.1225394   -6.9704111    350.06759  0.033725201  0.034285002            4 
  866000    1.1305803   -6.8938966    350.69498  0.033746631  0.034275823            2 
  867000    1.1459171   -6.9099466     352.1544  0.033847982  0.034266489            3 
  868000    1.1337385    -6.911815    350.58634  0.033658443  0.034256958            2 
  869000    1.1024159   -6.9421147    350.72206  0.033632726  0.034247224            2 
  870000    1.1026867   -6.9261936    351.21009  0.033640814  0.034237804            2 
  871000    1.1088019   -6.9500518    351.53732  0.033633498  0.034228415            1 
  872000    1.1298318   -6.8989785    352.88759  0.033723967  0.034218963            1 
  873000    1.1217739   -6.9121913    352.72951  0.033670247  0.034209576            1 
  874000    1.1332765   -6.9442843    352.89156  0.033647173  0.034200185            2 
  875000     1.118665   -6.9547824    354.46775  0.033758834  0.034190805            3 
  876000    1.0941804   -6.9237141    354.00107  0.033675901  0.034181701            2 
  877000    1.1423828   -6.9339528    354.50066  0.033684973  0.034172639            3 
  878000     1.112964   -6.9346667    353.76216  0.033576515  0.034163598            3 
  879000    1.1475735     -6.93579    355.37094  0.033690836  0.034154764            3 
  880000    1.1139814    -6.958038    355.47795  0.033662684  0.034145957            1 
  881000    1.1185346   -6.9524505    355.64274  0.033640062  0.034136959            2 
  882000    1.1071814   -6.9290424    356.04095  0.033639546  0.034127754            2 
  883000    1.0940353   -7.0003352    355.21848  0.033523827  0.034118627            2 
  884000    1.1090235   -6.9493716    357.05282  0.033658826  0.034109384            2 
  885000    1.1264842   -6.8942411    358.34157  0.033742144  0.034100689            2 
  886000    1.0910789   -6.9383456    357.83009  0.033655953  0.034092082            1 
  887000     1.079677   -6.9580668    357.65059  0.033601146  0.034083294            2 
  888000    1.0856764   -6.9305943    357.71061  0.033568939  0.034074578            1 
  889000    1.1115451   -6.9286324    359.23072   0.03367367   0.03406616            2 
  890000    1.1357053   -6.9067537    359.70257  0.033680016  0.034057557            2 
  891000    1.0971836   -6.9196915    359.96711  0.033666958  0.034049196            1 
  892000    1.1031796   -6.9356066    360.80416  0.033707414  0.034040632            3 
  893000    1.1170652   -6.9719717    360.94475  0.033682787  0.034032264            6 
  894000    1.1173134   -6.9425748    361.35503  0.033683355  0.034023742            1 
  895000    1.0805578   -6.9525326    361.34028  0.033644347  0.034015618            1 
  896000    1.1274866   -6.9466501    361.27594  0.033600813  0.034007384            2 
  897000    1.1074614   -6.9436287    362.04431  0.033634737  0.033999106            2 
  898000    1.0730317   -6.9407099    362.34602  0.033625281  0.033991105            1 
  899000     1.095247   -6.9425615    362.85426  0.033634989  0.033982738            1 
  900000    1.1133239   -6.9940641    361.56828  0.033478544  0.033974303            2 
  901000     1.101274   -6.9444806    363.38017  0.033608969  0.033965965            1 
  902000    1.0822725   -6.9467957    363.82055  0.033612394  0.033957706            1 
  903000    1.0954271   -6.9626057    363.31872  0.033528859  0.033949324            1 
  904000    1.1073193   -6.9394993    364.89468  0.033637047  0.033940871            1 
  905000    1.1432039   -6.9339123    363.95936  0.033513753  0.033932735            1 
  906000    1.1055651   -6.9747711    364.31785  0.033509736  0.033924174            1 
  907000    1.1170526   -6.8972601    365.55296   0.03358627  0.033915856            6 
  908000    1.1164153   -6.9667007    365.05778  0.033503834  0.033907584            2 
  909000    1.0854457   -6.9421658    366.51319  0.033600402  0.033899127            4 
  910000    1.0759691   -6.9561602    365.48765  0.033469565  0.033890779            3 
  911000    1.1123505   -6.9699264    367.78746    0.0336432  0.033882495            1 
  912000    1.0687931   -6.9739642    366.74622  0.033511168  0.033874011            3 
  913000     1.109568   -6.9879602    366.76424  0.033476108  0.033865258            2 
  914000    1.0998256   -6.9732941    366.70741  0.033434301  0.033856792            1 
  915000    1.0945074   -6.9842501    367.46747  0.033466983  0.033848465            2 
  916000    1.1021027   -6.9563922    367.66066  0.033448022  0.033840351            3 
  917000    1.1217746   -6.9445913    369.12209  0.033544356  0.033832452            2 
  918000     1.107723    -6.948122    368.96777  0.033493806  0.033824369            5 
  919000    1.1331888   -6.9663699    370.22661   0.03357151  0.033816401            2 
  920000     1.115901   -6.9545375    370.06604  0.033520475  0.033808567            2 
  921000    1.1005865   -6.9251755    370.87751  0.033557502  0.033801064            2 
  922000    1.1079085   -6.9425861    371.87549  0.033611306  0.033793493            2 
  923000    1.0925143   -6.9660463    371.71315  0.033560234  0.033785869            3 
  924000    1.0857329   -6.9593823    371.84538  0.033535839  0.033778355            4 
  925000    1.1048771   -6.9512008    371.44196   0.03346324  0.033770795            4 
  926000     1.097052   -6.9827789    372.44615  0.033517472  0.033763157            1 
  927000    1.1035596    -6.929063    372.83394  0.033516175  0.033755733            2 
  928000    1.0970605   -6.9379439    374.24976  0.033607198  0.033748593            1 
  929000    1.1237247   -6.9445569    374.67657  0.033609309  0.033741746            1 
  930000    1.1051284   -6.9682744    375.30296  0.033629298   0.03373507            3 
  931000    1.1026402   -6.9774874    375.27876   0.03359101  0.033728374            2 
  932000    1.0834364   -6.8951912    377.59614  0.033762173  0.033721577            3 
  933000    1.1185698   -6.9644341    376.25821  0.033606485  0.033714924            2 
  934000    1.0893935   -6.9345062    378.22718   0.03374618  0.033708041            3 
  935000    1.0907955   -6.9795221    375.59247  0.033475264  0.033700889            5 
  936000     1.089682   -6.9750649     375.9331  0.033469827  0.033693939            2 
  937000    1.1061035   -6.9469481    377.27609  0.033553548  0.033686978            2 
  938000    1.0868002    -7.000056    376.30716  0.033431695  0.033679817            4 
  939000    1.1011986   -6.9709017     377.4254  0.033495332  0.033672871            3 
  940000    1.0957589   -6.9561267    379.02498  0.033601505  0.033665932            2 
  941000    1.0977265   -6.9832454    377.51897  0.033432427  0.033659148            2 
  942000    1.1186017   -6.9220367    379.83582  0.033601895  0.033652361            1 
  943000    1.1093818   -6.9650305    379.31651   0.03352037  0.033645588            6 
  944000    1.0931335     -6.97753    379.44037  0.033495795  0.033638637            4 
  945000    1.0777304   -6.9702669     379.3751  0.033454595  0.033631933            1 
  946000    1.1093973    -6.926156    381.17638  0.033577905  0.033625039            1 
  947000    1.1319495    -6.976135     380.5737  0.033489414   0.03361822            1 
  948000    1.1131809   -6.9429444    381.05488  0.033496385  0.033611248            1 
  949000    1.1008194   -6.9227093    380.54235  0.033416082  0.033604355            2 
  950000    1.0972036    -6.946403     381.5596  0.033470141  0.033597342            1 
  951000    1.0915179   -6.9629648    380.60108  0.033350953  0.033590425            2 
  952000    1.0821054   -6.9733471    381.80072  0.033420932  0.033583455            1 
  953000    1.1140107   -6.9584607    382.54708  0.033451126  0.033576418            1 
  954000    1.1120099   -6.9768869    382.58329  0.033419225  0.033569581            4 
  955000    1.1006643   -6.9229526    384.19352   0.03352474  0.033562673            2 
  956000    1.1025055   -6.9876418    383.20952  0.033403898  0.033555831            2 
  957000    1.1075461   -6.9804958    382.76133  0.033329966  0.033548848            2 
  958000    1.0957272   -6.9568541    383.71821  0.033378411  0.033541766            1 
  959000    1.0920116   -6.9986128    383.89173  0.033358684  0.033534477            3 
  960000    1.0629258   -6.9567695    384.39454  0.033367582  0.033527344            1 
  961000    1.0881649   -6.9880018     384.4217  0.033335215  0.033520355            2 
  962000     1.099063   -6.9317125    385.86257  0.033425378  0.033513461            2 
  963000    1.1118568   -6.9434006    385.29067  0.033341179  0.033506559            4 
  964000    1.1044836   -6.9559131    385.75559  0.033346783  0.033499988       -1e+20 
  965000     1.083183   -6.9259003    386.36082  0.033364492  0.033493087            1 
  966000     1.106293   -6.9751673    386.08084    0.0333058  0.033486505            2 
  967000    1.0828429    -6.960556    387.86778  0.033425352  0.033479698            1 
  968000    1.1033497   -6.9552333    387.47284  0.033356822  0.033473105            1 
  969000    1.0722529     -6.97559    387.11497  0.033291621  0.033466259            2 
  970000    1.0888606   -6.9612073    388.01222  0.033334383   0.03345938            2 
  971000    1.0977577   -6.9712964    387.21024  0.033231226  0.033452407            3 
  972000    1.0933911   -6.9999284    388.20505  0.033282326  0.033445506            1 
  973000    1.0821051   -6.9640134    389.66722  0.033373348  0.033438581            2 
  974000    1.1092984   -6.9782235    388.94044  0.033276902  0.033431877            2 
  975000    1.1090998   -6.9856325    389.13377  0.033259296  0.033424924            2 
  976000     1.097216   -7.0059716    389.46671  0.033253647  0.033417883            3 
  977000    1.1036633    -6.993402    389.25927  0.033201917  0.033410572            1 
  978000    1.0878948   -6.9955854    390.27433  0.033254459  0.033403313            1 
  979000    1.0828139   -6.9586228    391.31916  0.033309428  0.033396277            2 
  980000      1.10637   -6.9437724    391.27453  0.033271643  0.033389424            1 
  981000    1.0858128   -6.9484479    390.77812  0.033195559  0.033382247            2 
  982000    1.1022414   -6.9680145    391.67699  0.033238034  0.033375059            3 
  983000    1.0783158   -6.9960172    391.18962  0.033162904  0.033367817            5 
  984000    1.0952283   -7.0038063     391.5612   0.03316067  0.033360393            1 
  985000    1.1021316   -7.0088383    389.90068  0.032986521  0.033352556            3 
  986000    1.0905222   -6.9532255    393.05961  0.033220048  0.033344882            3 
  987000    1.0972734   -6.9627435    393.19955  0.033198206  0.033337495            2 
  988000     1.086177   -6.9697741    392.24236   0.03308387  0.033329968            1 
  989000    1.1081571   -6.9934121     393.0056  0.033114729  0.033322425            3 
  990000    1.0983301   -7.0076357    393.72813  0.033142099  0.033315028            2 
  991000    1.0903967   -6.9915736     393.6837  0.033104919  0.033307721            3 
  992000    1.0845389   -6.9789438    395.05857  0.033187044  0.033300474            2 
  993000    1.0815092   -7.0056938    394.80215  0.033132104  0.033293098            2 
  994000     1.099141   -6.9828446    395.06148  0.033120513  0.033285636            2 
  995000    1.0947119   -7.0051086    395.15587  0.033095132   0.03327835            2 
  996000    1.0826607   -6.9866077    395.56894  0.033096465  0.033270912            3 
  997000    1.0971778   -7.0068882    395.10962  0.033024876  0.033263525            2 
  998000    1.0703436   -6.9913293    396.19171   0.03308214  0.033255923            2 
  999000    1.1116276   -6.9382452    396.42704  0.033068655   0.03324849            4 
 1000000    1.0880278   -6.9415611    395.50915  0.032959096   0.03324122            1 
 1001000    1.0748637   -6.9852548    396.83126  0.033036235  0.033233592            1 
 1002000    1.0920577   -6.9694485    398.11238  0.033109812  0.033226457            2 
 1003000    1.1115877   -7.0025575    396.95805  0.032980895  0.033219279            3 
 1004000    1.0895817     -6.93453    397.29307  0.032975852  0.033211924            2 
 1005000    1.0860506   -6.9761592    397.60014  0.032968502  0.033204685            3 
 1006000    1.0781526   -7.0320205    396.83015  0.032871947   0.03319705            1 
 1007000    1.0934929   -6.9783744    398.22822     0.032955  0.033189269            2 
 1008000    1.0897349   -7.0308553    397.54634  0.032865934  0.033181583            2 
 1009000    1.0742099    -6.990051     399.0384  0.032956591  0.033173774            3 
 1010000    1.1027134   -6.9356746    400.49828  0.033044413  0.033166189            4 
 1011000    1.0714772   -6.9623364    399.15781  0.032901237  0.033158522            3 
 1012000    1.0921731   -6.9668538    398.64045  0.032826124  0.033150651            1 
 1013000    1.0994637   -7.0003612    400.21249  0.032923042  0.033143217            2 
 1014000    1.0977034   -6.9466472    401.02126  0.032957039  0.033135606            3 
 1015000    1.0717767    -6.979113    401.44891   0.03295968  0.033127852            3 
 1016000    1.0803604   -7.0031483    400.23789  0.032827911  0.033120104            4 
 1017000    1.0905385   -6.9585802    400.21726  0.032793942  0.033112498            1 
 1018000    1.0885125   -6.9814604    401.10382  0.032834301  0.033104727            2 
 1019000    1.0917291   -7.0362936    401.34602  0.032821885  0.033096988            1 
 1020000    1.0905944   -6.9955402    402.20022  0.032859495  0.033089304            3 
 1021000    1.0841056   -6.9999297    402.16548  0.032824476  0.033081693            2 
 1022000    1.0849444   -7.0158644    402.81742  0.032845517  0.033074335            2 
 1023000    1.0714697   -7.0114067     401.7903  0.032729741   0.03306682            1 
 1024000    1.0778412   -6.9752063    402.91345  0.032789181  0.033059134            2 
 1025000    1.1098907   -6.9722349    403.83733  0.032832303  0.033051654            1 
 1026000    1.0936724    -6.992098    405.04586  0.032898462   0.03304426            1 
 1027000    1.0862265   -6.9775877    404.93842  0.032857711   0.03303671            2 
 1028000    1.0844953   -6.9935666    405.00394  0.032831059  0.033029124            2 
 1029000    1.0871223   -7.0031735      403.265  0.032658325   0.03302128            1 
 1030000    1.0664552   -6.9902535    404.64423  0.032738206  0.033013208            1 
 1031000    1.0722401   -6.9824475    404.56033  0.032699671  0.033005365            2 
 1032000    1.1041866   -7.0218526    406.01303   0.03278529  0.032997228            1 
 1033000    1.0772727   -6.9965794    404.28045  0.032613783  0.032989172            2 
 1034000    1.0924071   -7.0036544    407.01055  0.032802269  0.032981413            2 
 1035000    1.1132772   -6.9595949    407.64297  0.032821495  0.032973909            1 
 1036000    1.0787939   -7.0214618    406.07028  0.032663311  0.032966194            2 
 1037000     1.088684   -7.0146603    405.87248  0.032615918  0.032958368            3 
 1038000    1.0744981   -6.9513125    407.81534  0.032740474   0.03295052            1 
 1039000    1.0992149    -7.000275    406.47723  0.032601639  0.032942669            1 
 1040000    1.0799175   -6.9736483    407.00487   0.03261257  0.032934835            4 
 1041000    1.0755106   -7.0268599    406.36081  0.032529684  0.032926878            1 
 1042000    1.0474338   -6.9787211    407.35341  0.032577848  0.032918758            2 
 1043000    1.0866551   -7.0047892    407.67634  0.032572415  0.032910899            2 
 1044000    1.0992817   -6.9398799    409.82391  0.032712636  0.032903419            3 
 1045000    1.0792072   -6.9576899    409.25562  0.032636014  0.032895997            3 
 1046000    1.0934527    -6.967095    411.37891  0.032773973  0.032888664            1 
 1047000    1.0623054   -6.9945707    411.94165   0.03278746  0.032881533            4 
 1048000    1.0743869   -7.0536289    409.56676  0.032567331  0.032874014            3 
 1049000    1.1028601   -6.9704199    412.68201  0.032783763  0.032866859            2 
 1050000    1.0902498   -7.0099505    411.82721  0.032684699  0.032859795            2 
 1051000    1.0780311   -7.0311867    412.55793  0.032711539  0.032852325            3 
 1052000    1.0771659   -6.9925243     412.1826  0.032650713  0.032845048            2 
 1053000    1.0862726    -6.958774    413.08036  0.032690753  0.032837968            7 
 1054000    1.0761099   -6.9851245    413.09478  0.032660877   0.03283101            3 
 1055000    1.0804245   -7.0441036    413.22109  0.032639896  0.032823624            2 
 1056000    1.0967253     -7.01202    414.59069  0.032717069  0.032816472            2 
 1057000    1.0848217   -6.9794082    413.34802  0.032588144  0.032809344            1 
 1058000      1.06705   -6.9819862    413.49441  0.032568873  0.032802152            2 
 1059000    1.0905534   -7.0068714    414.67009  0.032630633  0.032794978            3 
 1060000    1.0734241   -6.9834433    415.57897  0.032671302  0.032787764            2 
 1061000     1.071869   -7.0310527    415.76128  0.032654829  0.032780627            2 
 1062000    1.0546026   -7.0104695    416.06047  0.032647557  0.032773707            2 
 1063000    1.0824126   -7.0070096    416.66613  0.032664325  0.032766585            2 
 1064000    1.0752952   -6.9959562    417.41663  0.032692406  0.032759492            5 
 1065000    1.0778216   -7.0100983    416.66042  0.032602537  0.032752274            3 
 1066000    1.0645023   -6.9913167    416.64726  0.032570924  0.032745056            4 
 1067000    1.0825514   -7.0085051    417.07916   0.03257413  0.032737858            1 
 1068000    1.0765703      -7.0409    415.92904  0.032453889  0.032730398            2 
 1069000    1.0726629   -7.0240792    416.71427  0.032484742  0.032722851            2 
 1070000    1.1016332   -7.0138982    416.06352  0.032403701  0.032715464            1 
 1071000    1.0502326   -6.9813405    418.83347  0.032588972   0.03270803            2 
 1072000    1.0883093   -6.9963587     418.7669  0.032553397    0.0327008            3 
 1073000    1.0926311   -7.0524364    417.69436  0.032439761  0.032693499            1 
 1074000     1.058797   -6.9862634     419.3298  0.032536453  0.032686256            1 
 1075000    1.0729485   -7.0231545    420.06291  0.032563017  0.032679354            2 
 1076000    1.0978037   -6.9823721    421.05502   0.03260959  0.032672556            2 
 1077000    1.0553644   -7.0028674    420.02755   0.03249981   0.03266559            2 
 1078000    1.0700792   -7.0292834    420.41131  0.032499328  0.032658497            1 
 1079000    1.0811149   -7.0225324    420.64768  0.032487464  0.032651481            2 
 1080000    1.0898378   -7.0110641    422.69554  0.032615397  0.032644357            2 
 1081000    1.0739417   -7.0393995    421.05453  0.032458721  0.032637359            2 
 1082000    1.0754941   -7.0333125    422.54346  0.032543397  0.032630297            2 
 1083000    1.0864523   -7.0299792    422.59608  0.032517396  0.032623141            1 
 1084000    1.0710197    -6.989305    422.34754  0.032468292  0.032616042            1 
 1085000    1.0917047   -7.0097627    422.36708  0.032439868   0.03260903            1 
 1086000     1.071098   -7.0340508    423.17324  0.032471857  0.032601769            2 
 1087000    1.0731135   -7.0444189     422.0249  0.032353949  0.032594559            3 
 1088000    1.0778608   -7.0196517    421.39377   0.03227587    0.0325872            1 
 1089000    1.0801997   -7.0098829    424.27388  0.032466627  0.032579716            2 
 1090000    1.1008898   -6.9918067    424.61935  0.032463253  0.032572653            1 
 1091000    1.1075864   -7.0089179    423.03727  0.032312654  0.032565272            2 
 1092000    1.0722685   -6.9987948    424.36974  0.032384748  0.032557484            4 
 1093000    1.0707302   -7.0484513    422.57502  0.032218284  0.032549645            2 
 1094000     1.088242   -7.0111147    423.11111   0.03222967  0.032542039            2 
 1095000    1.0768417   -7.0354112    424.11705  0.032276792  0.032534419            2 
 1096000    1.0520883   -6.9849323    424.36366  0.032266093  0.032526729            2 
 1097000    1.0730437   -7.0176382    425.24472   0.03230361  0.032519637            4 
 1098000     1.091015   -7.0350856    425.33889  0.032281336  0.032512166            7 
 1099000    1.0817061   -7.0409962    426.50024  0.032340024  0.032504733            2 
 1100000    1.0803182   -6.9700399    427.79891  0.032409009  0.032497423            2 
 1101000    1.0887072   -6.9793038    427.61568  0.032365704  0.032490296            2 
 1102000    1.0849479   -7.0350326    426.65848   0.03226395   0.03248337            1 
 1103000    1.0719646   -7.0236048    427.92679  0.032330522  0.032476164            1 
 1104000    1.0720366   -6.9933452    428.96685  0.032379744  0.032468932            1 
 1105000    1.0820222   -7.0054988    427.55006  0.032243595  0.032461664            3 
 1106000    1.0740582   -7.0221758    428.49527   0.03228566  0.032454245            1 
 1107000    1.0722576   -7.0144628    428.25748  0.032238594   0.03244696            2 
 1108000    1.0553616   -7.0186481    427.94846  0.032186256  0.032439357            1 
 1109000    1.0603954   -7.0087572    429.60245  0.032281518  0.032431943            2 
 1110000    1.0874986   -6.9888235    428.85965   0.03219667  0.032424607            2 
 1111000    1.0714713   -7.0182247    429.05372  0.032182247  0.032417029            1 
 1112000    1.0942378   -6.9957471    430.05532  0.032228366  0.032409469            1 
 1113000    1.0861342   -7.0289215    430.28965  0.032216955  0.032401692            4 
 1114000    1.0575324   -7.0276075    430.11919  0.032175283  0.032394039            1 
 1115000    1.0824809   -7.0139355    429.69738  0.032114902  0.032386477            2 
 1116000    1.0978648   -7.0285503    430.59748  0.032153337  0.032378762            2 
 1117000    1.0485981    -6.973339    430.48165   0.03211591  0.032371046            3 
 1118000    1.0664753   -7.0452803    429.99598  0.032050982  0.032363255            2 
 1119000     1.078016   -7.0237774    431.94006  0.032167118  0.032355221            1 
 1120000    1.0614296   -7.0348487    431.09542  0.032075552  0.032347276            1 
 1121000     1.079182   -7.0198213    431.03391  0.032042366  0.032339247            2 
 1122000    1.0799172   -7.0006552    430.97933  0.032009754  0.032331411            2 
 1123000    1.0682086   -7.0064599    431.23156  0.031999967  0.032323765            1 
 1124000    1.0505566   -7.0182185    432.07397  0.032033954  0.032316196            2 
 1125000    1.0410875   -7.0099187    432.98958  0.032073302  0.032308376            1 
 1126000    1.0854711   -6.9987131    433.84733  0.032108298  0.032300568            2 
 1127000    1.0740513    -6.995624    433.26075  0.032036436  0.032292858            2 
 1128000    1.0637523   -7.0093979    432.53998  0.031954786  0.032285175            2 
 1129000    1.0847955   -7.0483281     433.6317  0.032007064  0.032277379            1 
 1130000    1.0933998   -7.0584976    433.06366  0.031936848  0.032269734            4 
 1131000    1.0922697   -7.0389909    434.86139  0.032041069  0.032262086            1 
 1132000    1.0616527   -7.0089416    436.44453  0.032129309  0.032254304            2 
 1133000    1.0496613   -7.0064709    435.50369  0.032031751  0.032246505            3 
 1134000    1.1007989   -7.0110318     437.3593  0.032139866  0.032238808            2 
 1135000    1.0801303   -6.9827274    435.89322  0.032003908  0.032231341            1 
 1136000    1.0611259   -6.9874574    435.62181  0.031955825  0.032223807            2 
 1137000    1.0650956   -6.9855785    437.22336  0.032045101  0.032216392            2 
 1138000    1.0770394   -7.0604437    437.67682  0.032050148   0.03220885            2 
 1139000     1.069036   -7.0580689    437.88162  0.032036993  0.032201318            4 
 1140000    1.0798947   -7.0393793    438.05079  0.032021257  0.032193969            2 
 1141000    1.0656981   -7.0338053    438.65925  0.032037632  0.032186608            4 
 1142000    1.0788046   -7.0059829    438.21856  0.031977419   0.03217926            4 
 1143000     1.066184   -6.9988659    438.21987  0.031949538  0.032171941            3 
 1144000    1.0595025    -7.045003     439.5268  0.032016812  0.032164697            2 
 1145000    1.0519979   -6.9975064    439.38377   0.03197844  0.032157439            2 
 1146000    1.0508117   -6.9969867     441.2602  0.032086984  0.032150178            3 
 1147000    1.0740235   -7.0256043    440.40202  0.031996659  0.032142802            2 
 1148000    1.0663875   -7.0290481    440.00961  0.031940303  0.032135512            2 
 1149000     1.073783   -7.0014686    441.78454  0.032041234  0.032128175            1 
 1150000     1.059697   -7.0260177    442.18379  0.032042303  0.032121001            4 
 1151000    1.0914868   -7.0154318    440.85284  0.031918103  0.032113691            2 
 1152000    1.0566537   -7.0499257    441.89481   0.03196577  0.032106304            1 
 1153000    1.0671152   -7.0421164    441.50414   0.03190981  0.032098859            2 
 1154000    1.0607773   -7.0333056    441.18332  0.031858992  0.032091426            2 
 1155000     1.054074   -7.0466677    441.87806  0.031881534  0.032083916            3 
 1156000    1.0768933   -7.0521776    441.11813  0.031799173  0.032076175            1 
 1157000    1.0835938   -7.0218442     443.3568   0.03193293  0.032068594            2 
 1158000    1.0526779   -7.0398194    442.90595  0.031872909  0.032061142            4 
 1159000    1.0656528   -7.0259409    442.93703  0.031847644  0.032053659            2 
 1160000    1.0529069   -7.0498896    442.07715  0.031758416  0.032046082            4 
 1161000     1.064138    -7.029471     444.8204  0.031927964  0.032038386            5 
 1162000    1.0459948   -7.0530857    442.95463  0.031766683  0.032030843            3 
 1163000    1.0930132   -7.0652514    443.69613    0.0317925  0.032023104            1 
 1164000    1.0616195   -7.0694589    444.19544  0.031800934   0.03201555            2 
 1165000    1.0644916   -7.0720582    443.00456  0.031688452  0.032007969            3 
 1166000    1.0750513   -7.0458014    445.61617  0.031847925  0.032000475            5 
 1167000    1.0589504   -7.0430107    445.77024  0.031831637   0.03199289            3 
 1168000    1.0510688   -7.0701784    445.83856  0.031809258  0.031985172            1 
 1169000    1.0671274   -7.0228383    445.50292  0.031758121  0.031977542            2 
 1170000    1.0615972    -7.049385    446.69413  0.031815821   0.03196987            1 
 1171000    1.0714307   -7.0840712    445.87409  0.031730294   0.03196219            2 
 1172000    1.0616291   -7.0600983    446.22395  0.031728096   0.03195468            1 
 1173000    1.0696475    -7.063717    446.90224  0.031749236  0.031947139            2 
 1174000    1.0632259   -7.0501919    448.34385  0.031824521  0.031939748            2 
 1175000    1.0886972   -7.0265478    448.46994  0.031806379  0.031932351            1 
 1176000    1.0511272   -7.0413721     447.8327  0.031734177  0.031924919            1 
 1177000    1.0604657   -7.0751734    448.18554  0.031732196  0.031917306            2 
 1178000    1.0558364    -7.034227      449.311  0.031784876  0.031909895            4 
 1179000    1.0838639   -7.0055707    449.53663  0.031773864  0.031902617            2 
 1180000    1.0642786   -7.0154089    450.11946  0.031788097  0.031895254            2 
 1181000    1.0607258   -7.0558091    448.62636  0.031655825  0.031887817            1 
 1182000    1.0687237   -7.0122076     450.0139  0.031726868  0.031880258            3 
 1183000     1.058655    -7.029657    450.04626  0.031702329  0.031872875            1 
 1184000    1.0492418   -7.0510767    451.18698  0.031755841  0.031865637            2 
 1185000    1.0597537   -7.0266435    452.28576  0.031806312  0.031858565            1 
 1186000    1.0398931   -7.0435911    451.18657   0.03170226  0.031851498            4 
 1187000    1.0547536   -6.9841087    453.72315  0.031853633  0.031844561            2 
 1188000    1.0705547   -7.0812332    451.07149  0.031640817  0.031837487            2 
 1189000    1.0708282    -7.043318    453.31439  0.031771404  0.031830588            4 
 1190000    1.0901159   -7.0224095    452.98581  0.031721695  0.031823459            2 
 1191000    1.0807673   -7.0163392     452.5423  0.031664029  0.031816333            1 
 1192000    1.0599659   -7.0723399    454.38296  0.031766146   0.03180911            2 
 1193000    1.0696251   -7.0240608    453.93284  0.031708078  0.031801707            2 
 1194000    1.0604588   -7.0354005    452.86652  0.031607099  0.031794289            2 
 1195000    1.0694909   -7.0320714    453.50647  0.031625277   0.03178669            1 
 1196000    1.0738777   -7.0644445    451.34511  0.031448238  0.031778921            3 
 1197000    1.0798042   -7.0288592    453.17982  0.031549695  0.031771171            2 
 1198000    1.0463325   -7.0403218    453.82417  0.031568181  0.031763573            1 
 1199000    1.0514239   -7.0189582    453.41352  0.031513311  0.031755713            2 
 1200000    1.0675714   -7.0176886    455.32026  0.031619462  0.031747938            3 
 1201000     1.048523   -7.0533204     452.9441  0.031428261  0.031739954            2 
 1202000    1.0557132   -7.0168164    454.10514  0.031482608  0.031732095            3 
 1203000    1.0463839   -7.0381653    453.90506  0.031442579  0.031724198            2 
 1204000    1.0899882   -7.0682254    453.79124  0.031408586  0.031716204            1 
 1205000    1.0662989    -7.023434    454.16422  0.031408314  0.031708193            3 
 1206000    1.0531695    -7.043292    455.07811  0.031445419  0.031700251            2 
 1207000    1.0462131   -7.0616235    454.65429  0.031390106  0.031692309            7 
 1208000    1.0233931   -7.0402025    455.11232  0.031395718   0.03168433            3 
 1209000    1.0764821   -7.0781107    454.12477   0.03130168  0.031676404            2 
 1210000    1.0574807   -7.0680977    456.15023  0.031415305  0.031668474            3 
 1211000    1.0571967   -7.0488686    457.25351  0.031465284  0.031660515            3 
 1212000    1.0790811   -7.0618389    456.64701  0.031397622   0.03165247            2 
 1213000    1.0632793   -7.0116937    456.08983  0.031333459  0.031644445            2 
 1214000    1.0715899   -7.0426867    457.55318  0.031408098   0.03163633            2 
 1215000    1.0524641    -7.047574    456.66419  0.031321275  0.031628175            1 
 1216000     1.032253    -7.079335    457.20844  0.031332815  0.031619931            2 
 1217000    1.0743284   -7.0840072    456.73691  0.031274782  0.031611719            3 
 1218000    1.0289642   -7.0718327    457.25587  0.031284611  0.031603451            2 
 1219000    1.0553648   -7.0951691    457.34183  0.031264823  0.031595164            1 
 1220000    1.0760838   -7.0484728      458.246  0.031300956    0.0315869            3 
 1221000      1.04604   -7.0652663    458.79345  0.031312685  0.031578563            2 
 1222000    1.0650838   -7.0497866    459.10137  0.031308059  0.031570361            3 
 1223000    1.0679567   -7.0521862    458.29063  0.031227216  0.031562048            3 
 1224000    1.0395682    -7.033071    458.74618  0.031232719  0.031553853            4 
 1225000     1.079136   -7.0595044     457.7976  0.031142694  0.031545357            2 
 1226000    1.0719575   -7.0669577    459.94695  0.031263387  0.031537162            2 
 1227000    1.0594821    -7.035221    459.74004  0.031223855  0.031529099            7 
 1228000    1.0820763   -7.0631458    458.60629  0.031121491   0.03152107            5 
 1229000    1.0699896   -7.0567666    459.88229  0.031182688  0.031512958            2 
 1230000    1.0474193   -7.0744979    460.03426  0.031167633  0.031505009            2 
 1231000    1.0491525   -7.0205848    461.33405  0.031230304   0.03149685            2 
 1232000    1.0618756   -7.0717743    461.11827  0.031190359  0.031488701            2 
 1233000    1.0601215   -7.0610147    461.95852  0.031221852   0.03148049            2 
 1234000    1.0411605   -7.0205987    462.66823  0.031244478   0.03147241            1 
 1235000    1.0369341   -7.0886279    461.91591  0.031168415  0.031464234            2 
 1236000    1.0663882   -7.0885303    462.40797  0.031176374  0.031456139            3 
 1237000    1.0358206   -7.0619156    463.63962  0.031234143  0.031448144            1 
 1238000    1.0383295    -7.035271    463.79319  0.031219251   0.03144037            1 
 1239000    1.0358789   -7.0460003     463.9366  0.031203699  0.031432638            4 
 1240000    1.0536916    -7.064999    464.02728  0.031184629  0.031424728            1 
 1241000    1.0572809   -7.0456006    464.16867  0.031168995  0.031416783            2 
 1242000    1.0346944   -7.0391769    463.86693  0.031123653  0.031408751            3 
 1243000    1.0608353   -7.0526581     464.0194  0.031108836  0.031400798            2 
 1244000    1.0486585   -7.0715389    464.38289  0.031108179  0.031392807            2 
 1245000    1.0602513   -7.0976996    463.83803  0.031046722  0.031384702            3 
 1246000    1.0591888   -7.1075925    464.57779  0.031071281  0.031376678            3 
 1247000    1.0513941   -7.0473726    466.12186   0.03114955  0.031368704            2 
 1248000    1.0366211   -7.0595811    465.67056  0.031094455  0.031360747            3 
 1249000    1.0526873   -7.0845518    467.11449  0.031165899  0.031352735            1 
 1250000    1.0511463   -7.0590312    465.79426   0.03105295  0.031344839            1 
 1251000    1.0427314   -7.0481914    468.25996  0.031192377  0.031336944            3 
 1252000    1.0583701   -7.0581568     468.0304  0.031152183  0.031329235            4 
 1253000    1.0484172   -7.0649621    466.89141   0.03105157    0.0313214            2 
 1254000    1.0437349   -7.0686646    468.13062  0.031109159  0.031313793            2 
 1255000    1.0556746   -7.0836732    468.59754  0.031115374  0.031306036            3 
 1256000    1.0315522   -7.0589783    468.36866  0.031075415   0.03129829            2 
 1257000    1.0543707   -7.0299143    469.68339  0.031137854  0.031290492            2 
 1258000     1.044618   -7.0358933    468.09504  0.031007885  0.031282567            2 
 1259000    1.0696991    -7.073761    468.39377   0.03100303  0.031274624            2 
 1260000    1.0461111   -7.0671389    469.11087  0.031025851  0.031266644            2 
 1261000    1.0341518   -7.0675798    467.43904  0.030890764  0.031258491            3 
 1262000    1.0705733   -7.0573206     469.5255  0.031004061   0.03125047            2 
 1263000    1.0555564    -7.058435    468.44184  0.030908013  0.031242231            4 
 1264000    1.0619873   -7.0306174    470.82635  0.031040767  0.031234219            2 
 1265000    1.0614063   -7.0750287    470.28436  0.030980525  0.031226231            2 
 1266000     1.045802   -7.0586717    469.49971  0.030904405  0.031218225            1 
 1267000    1.0538398     -7.08658    470.57382  0.030950659  0.031210112            6 
 1268000     1.026797   -7.0921375    470.03393  0.030890768  0.031202071            3 
 1269000    1.0552788   -7.0542113     472.3568  0.031018965  0.031194006            1 
 1270000    1.0307589   -7.0545757    471.38841  0.030930998  0.031186061            7 
 1271000    1.0452403   -7.0698809    473.02211  0.031013776  0.031178266            5 
 1272000    1.0490261   -7.0781256    470.84972  0.030847073  0.031170425            2 
 1273000     1.051701   -7.0525789    472.95083  0.030960385  0.031162499            1 
 1274000    1.0442277   -7.0550289    473.42636  0.030967187   0.03115463            2 
 1275000    1.0510853   -7.0731971    473.22154  0.030929512  0.031146884            1 
 1276000    1.0390529   -7.0726576     473.8786  0.030948184  0.031139152            1 
 1277000    1.0581747   -7.0448371    474.43182  0.030960051  0.031131571            4 
 1278000    1.0431184   -7.0498646    475.29945    0.0309924  0.031123937            1 
 1279000    1.0169906     -7.04435     475.8441  0.031003655  0.031116208            1 
 1280000    1.0270446   -7.0606765    475.46197  0.030954555  0.031108635            2 
 1281000    1.0587153   -7.0712931    475.93452  0.030961132  0.031100939            3 
 1282000    1.0488689   -7.1211095    476.37892  0.030965868  0.031093279            2 
 1283000    1.0511588   -7.0962583    475.55583  0.030888271  0.031085868            2 
 1284000    1.0475898   -7.0819495    477.24859  0.030974078  0.031078628            2 
 1285000    1.0559244   -7.0491441    477.87855  0.030990827  0.031071266            2 
 1286000    1.0370204   -7.0655515    476.69158  0.030889812  0.031063964            2 
 1287000    1.0254786   -7.0818289    477.57203   0.03092282   0.03105668            3 
 1288000      1.03692   -7.0586382    479.38736  0.031016263  0.031049426            3 
 1289000    1.0433142   -7.0789035    479.34043  0.030989167  0.031042262            3 
 1290000    1.0542005   -7.0494823    479.61552  0.030982914  0.031035077            1 
 1291000    1.0273684    -7.071775    480.74281  0.031031682  0.031027841            1 
 1292000    1.0687479   -7.0547786    479.08222  0.030900556  0.031020607            6 
 1293000    1.0501774   -7.0882506    479.11833  0.030878985   0.03101317            2 
 1294000    1.0425956   -7.0515695     479.7764  0.030897502  0.031005933            2 
 1295000     1.030242   -7.0862751    478.70761  0.030804865  0.030998632            2 
 1296000    1.0485344   -7.0744234    479.34514   0.03082209  0.030991237            3 
 1297000    1.0440114   -7.0750342    481.76143  0.030953574  0.030983921            1 
 1298000    1.0676003    -7.068028     480.4289  0.030844177  0.030976552            3 
 1299000    1.0458108   -7.0899492     481.1123  0.030864274  0.030969019            1 
 1300000     1.051354   -7.0769695    480.34891  0.030791597   0.03096146            2 
 1301000    1.0359164   -7.0742177    480.57013  0.030782099  0.030954006            2 
 1302000    1.0536149   -7.0522734    482.51586  0.030882991  0.030946703            1 
 1303000    1.0596896   -7.0498223    481.99739  0.030826132  0.030939486            2 
 1304000    1.0543198    -7.075447    484.12988   0.03093877  0.030932537            2 
 1305000    1.0072321   -7.0731602    484.73969  0.030954003  0.030925498            5 
 1306000    1.0450465   -7.0141029    485.39192  0.030971919  0.030918473            2 
 1307000    1.0504582   -7.0757999    483.08958  0.030801427  0.030911476            2 
 1308000    1.0326458    -7.066302    483.81649   0.03082419  0.030904305            2 
 1309000    1.0652354   -7.1289052    483.21851  0.030762574  0.030897132            4 
 1310000    1.0498731   -7.0720517    485.52926  0.030886085   0.03088989            2 
 1311000    1.0363564   -7.0637691    486.82378  0.030944812  0.030882725            6 
 1312000    1.0488618   -7.0466307    484.97146  0.030803573  0.030875626            2 
 1313000    1.0356125    -7.100918    484.12751  0.030726549  0.030868415            2 
 1314000    1.0334498   -7.0799397    485.37257  0.030782127    0.0308612            2 
 1315000     1.074765   -7.0706606    486.23383  0.030813297  0.030854172            2 
 1316000    1.0400557   -7.0768809    486.21743  0.030788845  0.030847089            2 
 1317000    1.0251981   -7.0899731    485.10969  0.030695374  0.030839941            3 
 1318000    1.0850867   -7.0976148    486.20627  0.030741418  0.030832671            4 
 1319000    1.0154929   -7.1043798    485.47083  0.030671647  0.030825433            2 
 1320000    1.0545711   -7.0525575    487.39735  0.030770035  0.030818405            2 
 1321000    1.0204903   -7.0780296    486.30465  0.030677811  0.030811374            5 
 1322000    1.0646854   -7.1192332    486.04873  0.030638473  0.030804088            2 
 1323000    1.0453274    -7.118176    487.07603  0.030680022  0.030796615            3 
 1324000    1.0644201   -7.1232767    486.50517   0.03062092   0.03078921            2 
 1325000    1.0541465   -7.0613094    487.54882  0.030663448  0.030781908            1 
 1326000    1.0453657   -7.0673451     487.3439  0.030627445  0.030774496            3 
 1327000    1.0469502   -7.0835747    488.03939   0.03064804  0.030767162            2 
 1328000    1.0309549   -7.0616226    489.19831  0.030697685  0.030759804            4 
 1329000    1.0322972   -7.0712839    487.83696  0.030589225  0.030752523            2 
 1330000    1.0525098   -7.0710301    489.10963  0.030645967  0.030745024            3 
 1331000    1.0492163   -7.0991072     489.5755   0.03065211   0.03073778            2 
 1332000    1.0488258   -7.0668578    489.21449  0.030606512  0.030730313            4 
 1333000    1.0349827   -7.0565334    490.41771  0.030658772  0.030723073            2 
 1334000    1.0314763   -7.0953622    490.50252  0.030641087  0.030715846            1 
 1335000    1.0601587   -7.0617801    491.81505  0.030700066  0.030708576            2 
 1336000    1.0438692    -7.073596    491.52643  0.030659084  0.030701371            1 
 1337000    1.0412562   -7.0704073    491.96963  0.030663776  0.030694119            2 
 1338000    1.0386957   -7.0874011    490.19255  0.030530179  0.030686733            3 
 1339000     1.032682   -7.0731235    493.89492  0.030737797  0.030679331            1 
 1340000    1.0440995   -7.0666044    491.13645  0.030543312  0.030672166            2 
 1341000    1.0625251   -7.1378484    491.22507  0.030526042  0.030664769            4 
 1342000    1.0138065   -7.0850158    493.25281  0.030629211  0.030657566            1 
 1343000    1.0404416   -7.0905177    494.17362   0.03066354   0.03065037            2 
 1344000    1.0538319   -7.0436358    493.96862  0.030628015  0.030643185            1 
 1345000    1.0469972   -7.1046038    491.20941  0.030434288  0.030635913            5 
 1346000    1.0207044   -7.0922661    493.71515  0.030566812  0.030628797            3 
 1347000    1.0512428   -7.0834644    493.57566   0.03053549  0.030621606            1 
 1348000    1.0350807   -7.0964362    493.08584  0.030482557   0.03061441            2 
 1349000    1.0430251   -7.0948334    493.23243  0.030469016   0.03060719            3 
 1350000     1.012584   -7.1019454    493.56836  0.030467183  0.030599882            3 
 1351000    1.0420188   -7.1011205    494.08045  0.030476218  0.030592544            1 
 1352000    1.0396613    -7.115773     493.7753  0.030434868   0.03058517            2 
 1353000    1.0213491   -7.0944785    494.06687  0.030430332  0.030577899            2 
 1354000    1.0252629   -7.0880746    494.53485   0.03043666  0.030570432            3 
 1355000   0.99669844   -7.1364969    495.31309   0.03046206  0.030563132            2 
 1356000    1.0469743   -7.0990173    495.88059  0.030474471  0.030555719            5 
 1357000    1.0218194   -7.1022774    494.87612  0.030390329  0.030548336            3 
 1358000    1.0352119   -7.0746845    496.65532  0.030477131  0.030541027            2 
 1359000    1.0370007   -7.0806387    494.84868  0.030343922   0.03053379            2 
 1360000    1.0281765   -7.0903882    495.66258  0.030371482  0.030526358            1 
 1361000    1.0254884   -7.1151098    496.21843    0.0303832  0.030518736            3 
 1362000    1.0673276   -7.0866839    496.91176  0.030403314  0.030511321            1 
 1363000    1.0454796   -7.1155828    497.31513  0.030405669  0.030504061            1 
 1364000    1.0298859   -7.1105816    497.61187  0.030401507  0.030496823            4 
 1365000    1.0380446   -7.1106457    497.77284  0.030389062  0.030489474            3 
 1366000    1.0433506   -7.1214677    497.46711  0.030348165  0.030482136            5 
 1367000    1.0293902   -7.1055376     496.5844  0.030272153  0.030474748            2 
 1368000    1.0373073   -7.0901586    497.37286  0.030298054  0.030467243            2 
 1369000    1.0099508   -7.0837973    497.75125  0.030298956  0.030459716            1 
 1370000    1.0440527   -7.0849221    499.99872  0.030413548  0.030452355            4 
 1371000    1.0361907   -7.1102843    498.01662  0.030270886  0.030444745            4 
 1372000      1.04093   -7.1019066    498.86539  0.030300376  0.030437162            2 
 1373000    1.0248158   -7.0818473     500.8981  0.030401681  0.030429585            2 
 1374000    1.0236271   -7.1033456    499.09008  0.030269898  0.030422017            1 
 1375000    1.0166702   -7.1354805     498.6811  0.030223097  0.030414443            3 
 1376000    1.0594111   -7.1040793    499.42267  0.030246044  0.030406607            2 
 1377000    1.0173893   -7.0902087    499.25485  0.030213922  0.030398875            1 
 1378000     1.045381   -7.1331749    499.63594  0.030215042  0.030391099            2 
 1379000    1.0284984   -7.1072348     500.8074  0.030263923   0.03038343            5 
 1380000    1.0323465   -7.1067995    501.26901  0.030269868  0.030375744            3 
 1381000    1.0411089   -7.1017555    500.21608  0.030184412  0.030368205            1 
 1382000    1.0137132   -7.1135508     500.3685  0.030171762  0.030360533            3 
 1383000    1.0322467   -7.0991389    500.15576  0.030137127  0.030352743            3 
 1384000     1.007741   -7.0979052    502.47804   0.03025518  0.030345028            2 
 1385000    1.0205175   -7.1037981    501.95724     0.030202  0.030337323            5 
 1386000    1.0374666   -7.0896464    501.77304  0.030169134  0.030329405            1 
 1387000   0.98553416   -7.0800118     501.7054  0.030143319  0.030321604            2 
 1388000    1.0338198    -7.122496    502.42169  0.030164607  0.030313889            2 
 1389000    1.0248868   -7.1251087    503.20842   0.03019009  0.030306277            5 
 1390000    1.0352424   -7.0612225     503.2906  0.030173297  0.030298716            1 
 1391000    1.0217193   -7.0845427    503.44039  0.030160579  0.030291159            2 
 1392000    1.0062988   -7.1204678    503.85271  0.030163596  0.030283596            2 
 1393000    1.0250069   -7.1351375    502.75439  0.030076238  0.030276098            2 
 1394000    1.0149764   -7.0805832    503.29104  0.030086743  0.030268655            3 
 1395000    1.0251332    -7.074573    503.89833  0.030101453  0.030261077            1 
 1396000    1.0118261   -7.1236832    503.31941  0.030045332   0.03025356            2 
 1397000    1.0220064    -7.121511    504.28749  0.030081573  0.030245925            3 
 1398000    1.0133009   -7.1275402    503.35937  0.030004731  0.030238151            6 
 1399000    1.0358627   -7.1240119    503.82413  0.030010968  0.030230249            3 
 1400000    1.0186989   -7.1175127    505.02625  0.030061086  0.030222298            3 
 1401000     1.019866   -7.1139529    504.95646  0.030035478  0.030214345            2 
 1402000    1.0340699   -7.1107549     504.9144  0.030011555  0.030206422            3 
 1403000    1.0181688   -7.1006844     506.4253  0.030079906  0.030198609            2 
 1404000    1.0376031   -7.0629371    506.34093  0.030053474  0.030190827            2 
 1405000    1.0155603   -7.1244344    504.23396  0.029907115  0.030182973            4 
 1406000    1.0496423   -7.1382856    503.71946   0.02985535   0.03017502            1 
 1407000    1.0330603   -7.1312413    504.33138  0.029870373  0.030166994            3 
 1408000    1.0133722   -7.0913457    506.36713  0.029969646  0.030158989            2 
 1409000    1.0073053    -7.081933    505.24648  0.029882096  0.030150908            2 
 1410000    1.0465848   -7.1283796    504.60723  0.029823123  0.030142852            3 
 1411000    1.0105595   -7.1320176    506.17163  0.029894379  0.030134742            2 
 1412000    1.0270702   -7.0884234     507.3307  0.029941614  0.030126672            2 
 1413000    1.0526844    -7.157238    505.59915  0.029818303  0.030118424            2 
 1414000    1.0491223   -7.1261114    506.24469   0.02983526  0.030110206            2 
 1415000    1.0096535   -7.1465209    506.18709  0.029810783   0.03010207            3 
 1416000    1.0233446   -7.1114198    506.29708  0.029796203  0.030093712            2 
 1417000    1.0040501   -7.1078637    505.65214  0.029737246  0.030085344            2 
 1418000     1.002554   -7.1176795    505.76096   0.02972267  0.030077018            1 
 1419000    1.0255849   -7.1391649    507.18055  0.029785092  0.030068684            1 
 1420000    1.0253215   -7.1069423    506.20223  0.029706704  0.030060319            5 
 1421000    1.0284298    -7.099606    509.50098  0.029879251  0.030052125            2 
 1422000    1.0391455   -7.1514847     507.8971  0.029764246  0.030043873            3 
 1423000    1.0429645   -7.1510053    508.21801  0.029762123  0.030035571            2 
 1424000   0.99368156   -7.1417401    507.05146  0.029672955  0.030027251            2 
 1425000    1.0204624    -7.101439    507.74616  0.029692758  0.030018986            1 
 1426000    1.0021498   -7.1185701    507.58157  0.029662317  0.030010638            2 
 1427000    1.0172427   -7.0946831    509.30259  0.029742034  0.030002437            7 
 1428000    1.0398752   -7.1160924    508.67616   0.02968465  0.029994113            2 
 1429000     1.012004   -7.1689496    507.09575  0.029571714  0.029985637            2 
 1430000    1.0073478   -7.1687644    507.60041  0.029580443   0.02997722            5 
 1431000    1.0217413   -7.1264682    508.83462  0.029631645  0.029968794            2 
 1432000    1.0176672   -7.1248208    510.07617  0.029683204  0.029960462            3 
 1433000    1.0028877    -7.108652    509.24462  0.029614132  0.029952078            1 
 1434000    1.0084428   -7.1213043     508.4802  0.029549059  0.029943665            2 
 1435000    1.0238828    -7.137135    511.31403  0.029693033  0.029935208            1 
 1436000    1.0340603   -7.1090732    509.46748  0.029565197  0.029926924            2 
 1437000    1.0254692   -7.1263828    510.28871  0.029592247  0.029918472            9 
 1438000    1.0047666   -7.0832119    510.53771  0.029586098  0.029910145            1 
 1439000    1.0117076   -7.1416441     509.8729  0.029527038  0.029901807            2 
 1440000    1.0310011   -7.1417462    508.48014  0.029425934  0.029893363            4 
 1441000    1.0159033   -7.1177997    510.81294   0.02954042  0.029884908            2 
 1442000    1.0122402   -7.1438797    511.09973  0.029536508  0.029876512            5 
 1443000    1.0173588   -7.1593529    510.59489  0.029486884  0.029868164            3 
 1444000    1.0464369   -7.1555334    511.08804  0.029494924  0.029859761            2 
 1445000     1.022185   -7.0899416    512.56754  0.029559835   0.02985135            5 
 1446000    1.0051318   -7.1265027    513.19502  0.029575554  0.029843109            6 
 1447000     1.036317   -7.1382356    511.83844  0.029476989  0.029834821            3 
 1448000    1.0136058   -7.1457142    513.73194  0.029565604  0.029826554            3 
 1449000    1.0108653   -7.1275803    512.53923  0.029476606  0.029818073            5 
 1450000    1.0440443   -7.1034878    513.75198  0.029525976  0.029809841            2 
 1451000    1.0222078   -7.1574334    513.04255  0.029464883  0.029801516            1 
 1452000    1.0283369    -7.136723    513.06081  0.029445639  0.029793315            2 
 1453000    1.0292819   -7.1674031    511.86095  0.029356558  0.029784982            2 
 1454000    1.0257199   -7.1265792     514.1348  0.029466689  0.029776604            2 
 1455000    1.0270551   -7.1209009    514.90667  0.029490645  0.029768389            4 
 1456000    1.0150498   -7.1253437     515.6666  0.029513885  0.029760148            3 
 1457000    1.0263316   -7.1532379    516.69124  0.029552233  0.029751868            2 
 1458000    1.0142895   -7.1269841    514.79266  0.029423449  0.029743736            2 
 1459000   0.98783875   -7.1138096     516.4851  0.029499949  0.029735646            1 
 1460000    1.0097354   -7.1269678    516.37753  0.029473603  0.029727496            2 
 1461000    1.0080914   -7.1568359    515.82389  0.029421851  0.029719425            2 
 1462000    1.0426933   -7.1069632    517.74141  0.029511024  0.029711327            1 
 1463000    1.0411225   -7.1228514    515.51307  0.029363925  0.029703243            3 
 1464000    1.0015664   -7.1349438    516.08284    0.0293763  0.029695121            3 
 1465000    1.0149579   -7.1263966    518.26967  0.029480641  0.029686937            2 
 1466000    1.0138904   -7.1498718    516.81772  0.029377997  0.029678868            8 
 1467000    1.0333738   -7.1136178    517.52932  0.029398394  0.029670828            2 
 1468000    1.0071787   -7.0710431    518.35845  0.029425434  0.029662727            2 
 1469000    1.0250537    -7.108239    519.60218  0.029475958  0.029654688            2 
 1470000    1.0290466   -7.1477496    518.57219  0.029397516  0.029646604            1 
 1471000   0.98767401   -7.1466028    517.52511  0.029318214  0.029638456            3 
 1472000    1.0162007   -7.1341492    519.25364  0.029396153  0.029630346            3 
 1473000    1.0036535   -7.1471876    520.74212  0.029460405   0.02962244            3 
 1474000    1.0107051   -7.1238338     519.9663  0.029396557  0.029614431            2 
 1475000      1.04768   -7.1654996    519.53819   0.02935244  0.029606362            1 
 1476000     1.010187   -7.1409772    519.54334  0.029332845  0.029598235            3 
 1477000    1.0145589   -7.1470702    519.24817  0.029296331  0.029590061            3 
 1478000    1.0277379   -7.1416089    521.51274  0.029404192  0.029582008            1 
 1479000    1.0090869    -7.140486    519.93519  0.029295424  0.029574018            4 
 1480000    1.0579981   -7.1614458    520.78471  0.029323463  0.029566008            2 
 1481000    1.0039533   -7.1705996     521.6006  0.029349572  0.029557831            2 
 1482000    1.0144771   -7.1508413    520.71906  0.029280199  0.029549728            1 
 1483000    1.0220246   -7.1015114    522.03609  0.029334462  0.029541551            3 
 1484000    1.0337682   -7.1333329    523.51349  0.029397658  0.029533533            4 
 1485000    1.0260256   -7.1471106    522.69657  0.029332019  0.029525476            4 
 1486000    1.0202212   -7.1696699    522.30186  0.029290145  0.029517268            1 
 1487000     1.030721   -7.1896079    521.01164  0.029198142  0.029509009            3 
 1488000    1.0192888   -7.1040994    523.36307  0.029310208  0.029500829            1 
 1489000    1.0135896   -7.1670316    523.95141   0.02932345  0.029492857            2 
 1490000    1.0342483   -7.1193458    523.68308  0.029288763  0.029484866            2 
 1491000     1.013254   -7.1611102    523.46054  0.029256681  0.029476848            1 
 1492000    1.0298665    -7.138482    523.60139  0.029244939  0.029468969            1 
 1493000   0.99858454    -7.140555    523.93534  0.029243991  0.029460928            1 
 1494000    1.0199615   -7.1264253    525.45175     0.029309  0.029452851            5 
 1495000    1.0178553   -7.1187993    525.17947  0.029274218  0.029444902            1 
 1496000   0.98634633   -7.1611298    524.28718  0.029204945  0.029436869            2 
 1497000    1.0005769   -7.1400872    524.91955  0.029220639  0.029428796            4 
 1498000    1.0094889   -7.1449271    525.23893  0.029218899    0.0294208            1 
 1499000    1.0200994   -7.1494987    523.84227  0.029121763  0.029412897            2 
 1500000    1.0124497   -7.1731983    525.76413  0.029209118  0.029404881            1 
 1501000    1.0361238   -7.1340347    526.03648  0.029204779  0.029396826            1 
 1502000    1.0138337   -7.1350209    525.96364  0.029181294  0.029388809            2 
 1503000     1.013153   -7.1771075    525.74746  0.029149892  0.029380719            4 
 1504000    1.0127097   -7.1608125    527.28892  0.029215919  0.029372716            5 
 1505000    1.0214486   -7.1773808    524.84693  0.029061292   0.02936465            6 
 1506000     1.005945    -7.152642    525.24886  0.029064235  0.029356571            2 
 1507000   0.99938113   -7.1462555    526.64193  0.029121982  0.029348645            2 
 1508000    1.0353339   -7.1388652     528.5277   0.02920688  0.029340656            1 
 1509000    1.0182831   -7.1799138    527.03008   0.02910482  0.029332667            2 
 1510000    1.0330643    -7.191643    526.88376   0.02907747  0.029324723            3 
 1511000    1.0266472   -7.1528766    527.62686  0.029099209  0.029316836            1 
 1512000   0.99832229   -7.1442574    528.35825  0.029120274  0.029308792            6 
 1513000    1.0045417   -7.1686476    528.83571  0.029127325  0.029300902            2 
 1514000    1.0183456   -7.1349302    529.32567  0.029135054  0.029293021            3 
 1515000    1.0087305   -7.1309843    528.80107  0.029086968  0.029285084            2 
 1516000    1.0159084   -7.1407071    529.78925    0.0291221  0.029277205            2 
 1517000    1.0306951   -7.1419533    529.15871  0.029068266  0.029269239            2 
 1518000    1.0067539   -7.1633959    529.15077  0.029048681  0.029261369            2 
 1519000    1.0244946   -7.1578408    529.27117  0.029036163   0.02925351            3 
 1520000    1.0174675   -7.1672209    530.02346  0.029058304  0.029245534            2 
 1521000    0.9851453   -7.1449288    529.69642  0.029021281  0.029237725            2 
 1522000    1.0198643   -7.1338188    531.91878  0.029123893  0.029229941            1 
 1523000   0.98018436   -7.1648053    529.50273  0.028972572  0.029222158            2 
 1524000   0.99114112   -7.1708439    531.70551  0.029074011  0.029214464            1 
 1525000    1.0120715   -7.1849377    531.62536  0.029050566  0.029206756            4 
 1526000    1.0014196   -7.1603616    532.37094  0.029072245  0.029198977            2 
 1527000    1.0109182   -7.1665659    531.60728   0.02901153  0.029191109            2 
 1528000    1.0004843    -7.156123    533.00805  0.029068938    0.0291833            4 
 1529000    1.0223268   -7.1614728    532.19415  0.029005567   0.02917562            3 
 1530000    1.0295022   -7.1592012    532.37713  0.028996576   0.02916786            1 
 1531000    1.0069117   -7.1346397     533.1638  0.029020455  0.029159966            3 
 1532000    1.0114703   -7.1499123    532.91634  0.028988052  0.029152047            3 
 1533000    1.0129075   -7.1531199    533.67526  0.029010397  0.029144243            2 
 1534000    1.0076494   -7.1634817    533.93341  0.029005509  0.029136251            2 
 1535000    1.0139635   -7.1535765    531.05957  0.028830596  0.029128423            1 
 1536000   0.97693379   -7.1585176    534.71047    0.0290099  0.029120599            2 
 1537000   0.99594547   -7.1723748    533.37362  0.028918544  0.029112816            3 
 1538000     1.016576   -7.1526125    534.96717  0.028986084  0.029104971            2 
 1539000    1.0138462   -7.1579809    534.19102  0.028925223  0.029097206            3 
 1540000     1.019507   -7.1855548    536.16236  0.029013115   0.02908934            3 
 1541000    1.0070467   -7.1452072    533.97545  0.028876025  0.029081591            2 
 1542000   0.99666105    -7.179469    534.84966  0.028904543  0.029073751            2 
 1543000   0.99469164   -7.1191696    534.97141  0.028892386  0.029065955            3 
 1544000    1.0279093   -7.1622999    534.84617  0.028866913   0.02905829            2 
 1545000    1.0022759   -7.1620587    535.65885  0.028892063  0.029050483            3 
 1546000    1.0168049   -7.1601742    536.83508  0.028936777  0.029042534            2 
 1547000    1.0041159   -7.1434962    536.21712  0.028884784  0.029034662            3 
 1548000   0.98344188   -7.1956124     535.3012  0.028816818  0.029026823            4 
 1549000    1.0116515   -7.1810817    536.65586  0.028871092  0.029018999            3 
 1550000    1.0037108   -7.1574569    537.62652  0.028904652   0.02901127            2 
 1551000   0.98792056   -7.1507167    538.15256  0.028914279  0.029003564            2 
 1552000   0.98576372   -7.1777602    538.30653  0.028903916  0.028995777            2 
 1553000   0.99249081   -7.1851911     538.1103  0.028874774  0.028988021            2 
 1554000    1.0251259   -7.1815586    538.65417  0.028885359   0.02898036            2 
 1555000   0.99433886   -7.1877617    538.66128  0.028867164   0.02897275            3 
 1556000    0.9854621   -7.1712077    539.33441  0.028884662  0.028965106            1 
 1557000    1.0030037   -7.1799622    537.89886  0.028789278  0.028957491            3 
 1558000   0.99630009   -7.1342901    538.85906  0.028822158  0.028949815            2 
 1559000   0.99361502   -7.1481923    538.00039  0.028757771   0.02894215            1 
 1560000    1.0081451   -7.1846142    539.21237   0.02880408  0.028934527            1 
 1561000    1.0139745   -7.1566121    538.58759  0.028752273  0.028926832            2 
 1562000    1.0177624   -7.1497309    539.63645  0.028789824   0.02891908            5 
 1563000    0.9882783   -7.1495672    539.64942  0.028772096  0.028911356            2 
 1564000    1.0226092   -7.1781522    538.58606  0.028697041  0.028903525            4 
 1565000    1.0172414   -7.1785431    538.32531  0.028664819    0.0288957            2 
 1566000    1.0067977   -7.1741265    539.72928  0.028721226  0.028887826            2 
 1567000   0.99160449   -7.1738488    540.95548  0.028768107  0.028880053            2 
 1568000   0.99637063   -7.1714907    539.72863  0.028684557  0.028872373            4 
 1569000   0.98691151   -7.2009932     540.5163  0.028708111  0.028864637            2 
 1570000    1.0071154   -7.1187405    542.27298  0.028783067  0.028856891            3 
 1571000   0.97333367   -7.1507287    541.79444  0.028739361  0.028849099            3 
 1572000   0.99942078    -7.144583    540.52373  0.028653717  0.028841304            3 
 1573000    1.0001458   -7.1699977     540.9789  0.028659615  0.028833443            2 
 1574000    1.0044891   -7.1882874    540.62271  0.028622549  0.028825598            5 
 1575000    1.0066372   -7.1805698    541.35618  0.028643184  0.028817784            2 
 1576000   0.99057417   -7.1451018    542.80991  0.028701878  0.028809992            2 
 1577000   0.99373295   -7.1421591    541.94796   0.02863813  0.028802277            2 
 1578000    0.9939209   -7.1370494    543.77242   0.02871633  0.028794459            3 
 1579000     1.005632   -7.1795039    541.70669  0.028589122   0.02878655            5 
 1580000   0.99026581   -7.1679474    542.96726  0.028637514  0.028778645            2 
 1581000    1.0121561   -7.1677057    542.66304  0.028603365  0.028770727            4 
 1582000    1.0188906    -7.190573    542.10426   0.02855585  0.028762766            2 
 1583000   0.99689072   -7.1927541    542.44713   0.02855586  0.028754873            1 
 1584000    1.0176348   -7.1653887    542.01598  0.028515151  0.028746968            2 
 1585000   0.99357881   -7.1900461    542.05622  0.028499276  0.028739097            2 
 1586000    1.0151457   -7.1819597    543.70852  0.028568123  0.028731248            2 
 1587000   0.98913969   -7.1631297    545.07629  0.028621944  0.028723431            2 
 1588000   0.98852101   -7.1868742    543.78861  0.028536346  0.028715603            3 
 1589000    1.0091831   -7.1963702    545.49052  0.028607642   0.02870763            3 
 1590000    1.0082267   -7.1989146     544.8939   0.02855838  0.028699823            3 
 1591000    1.0001091   -7.1915982    544.78254  0.028534598  0.028692157            2 
 1592000    1.0249947   -7.1885302    545.56452  0.028557607   0.02868451            2 
 1593000     1.002291   -7.1924039    545.49153  0.028535861  0.028676776            2 
 1594000    1.0113974   -7.2223683    545.91965  0.028540341  0.028668836            2 
 1595000     0.989049   -7.2184713     545.9142  0.028522163  0.028660962            1 
 1596000   0.97838397   -7.1633872    547.61348  0.028593018  0.028653192            5 
 1597000   0.98182375   -7.1665807    545.89192  0.028485281  0.028645553            2 
 1598000     0.999584   -7.2068894    547.86535  0.028570367  0.028637895            5 
 1599000   0.97137174   -7.1974514    546.78431  0.028496159  0.028630219            4 
 1600000   0.96712984   -7.1712484    547.76554  0.028529455   0.02862252            1 
 1601000   0.98972158   -7.1926499    546.14771  0.028427426   0.02861483            1 
 1602000   0.99606578   -7.1661766    547.16213  0.028462449  0.028607056            2 
 1603000   0.97192306   -7.2164095    546.33126    0.0284015  0.028599254            1 
 1604000   0.98581408   -7.1266042    548.87274  0.028515832  0.028591528            3 
 1605000   0.98547834   -7.1660856     547.6515  0.028434657  0.028583828            4 
 1606000   0.98556974   -7.1773104     547.6893  0.028418913  0.028576101            1 
 1607000   0.98166168   -7.2202969    547.72362  0.028403009  0.028568388            2 
 1608000   0.98787784   -7.1759031     549.4531  0.028474974  0.028560664            2 
 1609000   0.99988029   -7.2095744      549.896  0.028480215  0.028553142            2 
 1610000   0.98548541    -7.217415    548.38256  0.028384191  0.028545485            2 
 1611000   0.98360629   -7.2149271    549.21657  0.028409713  0.028537789            2 
 1612000    1.0034359   -7.1826123    549.83097  0.028423851  0.028530223            3 
 1613000   0.99768432   -7.1704039     551.4081  0.028487709  0.028522695            3 
 1614000   0.98008547   -7.2297811    549.17479  0.028354749  0.028515169            4 
 1615000     1.009991     -7.20932    550.23734   0.02839202  0.028507539            1 
 1616000    1.0106376   -7.1843283    550.62487  0.028394434   0.02849998            1 
 1617000   0.98352692   -7.2096703    551.20268  0.028406652  0.028492454            2 
 1618000   0.99188918   -7.1664144     551.3503  0.028396699  0.028484919            3 
 1619000   0.99742297   -7.1670039      550.975  0.028359841  0.028477258            3 
 1620000   0.99672499   -7.1965124    552.04878  0.028397571  0.028469563            2 
 1621000   0.98617722     -7.20755    551.17866  0.028335321  0.028461937            3 
 1622000   0.97238303   -7.1702362    553.68073    0.0284464  0.028454394            2 
 1623000   0.97826048   -7.1770497    553.31204  0.028409942  0.028446985            3 
 1624000   0.99570147   -7.2117545    552.17447  0.028334076  0.028439525            1 
 1625000   0.99235243   -7.1952033    552.68321  0.028342729  0.028432085            2 
 1626000    1.0007171    -7.146572    551.79641  0.028279849  0.028424461            3 
 1627000    1.0098043   -7.1899029    551.74226  0.028259693  0.028416839            2 
 1628000    1.0080784   -7.1941832    553.43189  0.028328823  0.028409188            4 
 1629000   0.98664267   -7.1980692    552.91956  0.028285224   0.02840154            2 
 1630000    1.0121187   -7.2143096    551.10981  0.028175348  0.028393777            5 
 1631000   0.99006814    -7.174205    553.46684  0.028278502   0.02838603            1 
 1632000   0.99004015   -7.1932303    552.48436  0.028211007  0.028378181            2 
 1633000   0.98281905   -7.1702552    553.01474  0.028220797  0.028370366            3 
 1634000   0.98393657   -7.1937019    551.43462  0.028122941  0.028362456            2 
 1635000   0.97908704   -7.1843805    553.59481  0.028215842  0.028354631            3 
 1636000   0.99073593   -7.1844685    555.25149  0.028282981  0.028346999            3 
 1637000    1.0161163   -7.2047119    554.38671  0.028221682  0.028339278            3 
 1638000    1.0216374    -7.186874    555.81384  0.028277057  0.028331633            2 
 1639000    1.0003152    -7.171019    555.34916  0.028236179  0.028323992            3 
 1640000   0.97453286   -7.1720937    555.27173  0.028215027  0.028316369            2 
 1641000    1.0016421   -7.2209079    556.27903  0.028248986   0.02830872            1 
 1642000    1.0061877     -7.16892    555.41925  0.028188147  0.028300999            3 
 1643000   0.98681252   -7.1965925    555.06302  0.028152922  0.028293261            3 
 1644000    1.0133824   -7.2053485    554.75341  0.028120104    0.0282855            2 
 1645000   0.97466717   -7.1869597    554.43792  0.028087027  0.028277586            2 
 1646000   0.99681625   -7.1927309    556.45079  0.028171871   0.02826975            5 
 1647000    1.0049088   -7.1935769    555.52229  0.028107786  0.028261918            3 
 1648000   0.97109236   -7.2147135    556.35116  0.028132643  0.028254143            3 
 1649000   0.98441246    -7.185105    558.78581   0.02823862  0.028246521            4 
 1650000   0.99325903   -7.1934606    557.13247  0.028138004  0.028238918            1 
 1651000   0.99341288   -7.1793856    558.56236  0.028193133  0.028231414            2 
 1652000   0.99855186   -7.1695846    558.83775  0.028189959  0.028223929            3 
 1653000   0.98874413   -7.2326265    557.97551  0.028129437  0.028216431            2 
 1654000    1.0117287   -7.1998165    558.91486  0.028159757  0.028208885            1 
 1655000    0.9842927   -7.2329945    558.34565  0.028114081  0.028201349            2 
 1656000   0.98388883   -7.1713081    558.58588  0.028109193   0.02819377            5 
 1657000   0.98846694   -7.2420978    558.26629  0.028076156  0.028186259            2 
 1658000   0.97375815   -7.2050146    559.83992  0.028138315   0.02817881            3 
 1659000   0.98925723   -7.2365412    559.28851  0.028093656  0.028171331            1 
 1660000   0.98455457   -7.1934431    561.25754  0.028175579  0.028163786            5 
 1661000   0.99445658   -7.1959183    560.29109  0.028110129  0.028156245            3 
 1662000    1.0154796   -7.2246302    559.65722  0.028061433  0.028148679            2 
 1663000   0.97343289    -7.189264    560.59199  0.028091401  0.028141141            4 
 1664000   0.96735666   -7.2342454    559.67848   0.02802877  0.028133498            2 
 1665000   0.98117732    -7.186551    560.67638  0.028061881  0.028125979            2 
 1666000    0.9912746   -7.1989317    561.56185  0.028089328  0.028118544            4 
 1667000   0.96408285   -7.1985383    561.54839  0.028071805  0.028111003            3 
 1668000   0.97691916   -7.2021016    561.54965  0.028055039  0.028103488            2 
 1669000   0.96044009   -7.2279577    560.83657  0.028002625  0.028095982            3 
 1670000   0.97110802   -7.1906566    563.70587  0.028129036  0.028088517            2 
 1671000   0.98434721   -7.2362271    562.11416  0.028032822   0.02808112            1 
 1672000    0.9907296   -7.2115632    563.20364  0.028070357  0.028073699            1 
 1673000   0.97962892   -7.2125173    562.32216  0.028009671  0.028066242            4 
 1674000    0.9859604   -7.2175997     563.0355   0.02802845  0.028058866            3 
 1675000   0.97810007   -7.2216686    562.81236  0.028000615  0.028051554            1 
 1676000   0.97982511   -7.2350915    563.91702  0.028038834  0.028044178            2 
 1677000   0.97126953   -7.1861774    565.75027  0.028113212  0.028036902            4 
 1678000   0.95500775   -7.1747791    564.42588  0.028030685  0.028029739            4 
 1679000   0.98644713   -7.1986307    565.88701   0.02808651  0.028022514            2 
 1680000   0.98125017   -7.2173708    566.47321  0.028098869  0.028015399            1 
 1681000    0.9693802    -7.212739    565.96042  0.028056733  0.028008361            3 
 1682000    0.9797354   -7.2395939    565.69803  0.028027053  0.028001213            2 
 1683000   0.97298033   -7.1725769     567.0598  0.028077827   0.02799412            4 
 1684000   0.96403586   -7.2397881    566.07257  0.028012301  0.027987074            2 
 1685000   0.95578208   -7.2320222    566.79104  0.028031209  0.027979883            2 
 1686000   0.97342753   -7.2076126    566.60372  0.028005324  0.027972756            5 
 1687000   0.99122421    -7.221642    567.87664  0.028051602  0.027965624            3 
 1688000    1.0009297   -7.2273357    566.81031  0.027982341  0.027958432            2 
 1689000   0.98889792   -7.2034426    567.57554   0.02800353  0.027951229            3 
 1690000    0.9710349   -7.1980507    566.05017  0.027911744  0.027944053            4 
 1691000     1.003984   -7.2350144    566.97194  0.027940663  0.027936849            4 
 1692000   0.95224086   -7.2215077    566.79169  0.027915273  0.027929592            3 
 1693000   0.96881136   -7.1995136    568.74241  0.027994803  0.027922309            2 
 1694000   0.97113482   -7.2632881    566.49162  0.027867553  0.027915038            3 
 1695000   0.97237772   -7.2048244    569.58942  0.028003413  0.027907913            2 
 1696000   0.96511975    -7.192207    568.21758  0.027919496  0.027900831            2 
 1697000    1.0056044   -7.2263211    568.90107  0.027936607  0.027893671            1 
 1698000   0.98875295   -7.2261301    568.68759  0.027909677   0.02788646            3 
 1699000   0.95970341   -7.2141222     567.5627  0.027838076  0.027879237            1 
 1700000   0.99451959   -7.2361539    567.25541  0.027806638  0.027871887            1 
 1701000   0.95968777   -7.2304604    567.84907  0.027819374  0.027864633            4 
 1702000   0.97335132   -7.2076321    569.42172  0.027880029   0.02785736            2 
 1703000   0.95240658   -7.1987868    569.76488   0.02788045  0.027850201            2 
 1704000   0.99122279    -7.227361    571.22264   0.02793538  0.027843133            3 
 1705000    0.9949466   -7.2383229    570.28753  0.027873291  0.027836059            4 
 1706000   0.99818105   -7.2118196    572.43726  0.027961961  0.027828965            5 
 1707000   0.96856162   -7.2081443    570.34996  0.027843681  0.027821898            1 
 1708000   0.98059911   -7.2049688    572.06683  0.027911145  0.027814878            2 
 1709000   0.97424003   -7.2225062    570.86503  0.027836212  0.027807898            2 
 1710000   0.99788631   -7.2440269    572.37371  0.027893456  0.027800898            2 
 1711000   0.96746934   -7.2533545    571.28589  0.027824172  0.027793899            4 
 1712000   0.97976769   -7.2368944    570.62775  0.027775883  0.027786758            3 
 1713000   0.97657819   -7.2422616    571.02048  0.027778774  0.027779734            4 
 1714000   0.97898254   -7.2284023    571.81915  0.027801398   0.02777277            2 
 1715000   0.95067424   -7.2758989    573.08447   0.02784667   0.02776575            4 
 1716000   0.96776521   -7.2165646    572.91217  0.027822075  0.027758739            2 
 1717000   0.97995214   -7.2127949    574.88236  0.027901493  0.027751865            2 
 1718000   0.97570538   -7.2098209    575.98144  0.027938564    0.0277449            5 
 1719000   0.97353098   -7.2561154    574.04469  0.027828422  0.027737994            3 
 1720000   0.97719473   -7.2416369    573.63254  0.027792274  0.027731091            1 
 1721000   0.96526603   -7.2146385    575.31395  0.027857542  0.027724279            1 
 1722000   0.98309353   -7.2077305    574.68348  0.027810854  0.027717535            3 
 1723000   0.98812041   -7.2742021    575.02835  0.027811392  0.027710639            6 
 1724000   0.98256652    -7.239221    576.39442  0.027861293  0.027703828            4 
 1725000   0.97439855   -7.2345304    576.68505  0.027859181  0.027697061            3 
 1726000   0.99511537   -7.1929922    576.54753  0.027836401  0.027690376            1 
 1727000   0.98217827   -7.2144569    578.05163   0.02789286  0.027683738            2 
 1728000   0.98159538   -7.2195966    577.01407  0.027826682   0.02767706            3 
 1729000   0.97951322   -7.2272593    576.18673  0.027770712  0.027670307            7 
 1730000   0.97110421   -7.2489287    576.49191   0.02776936  0.027663445            2 
 1731000   0.94855044    -7.244055     576.0127  0.027730247  0.027656564            5 
 1732000   0.97544897   -7.2175949    576.46038  0.027735776  0.027649615            1 
 1733000   0.97722687    -7.217587    577.20733   0.02775569  0.027642788            2 
 1734000   0.96576091   -7.2114033    577.76891  0.027766672  0.027636017            2 
 1735000   0.97484876   -7.2199461    577.25774  0.027726116  0.027629198            2 
 1736000   0.98367037   -7.2253452    576.78259  0.027687336  0.027622338            2 
 1737000   0.97891338   -7.2570299    578.40258  0.027749116  0.027615546            3 
 1738000   0.96389661   -7.2204649    577.27027  0.027678858  0.027608716            5 
 1739000    0.9841885   -7.2130622    579.07808  0.027749572  0.027601937            4 
 1740000   0.98324039   -7.2628343    579.44835  0.027751358  0.027595166            3 
 1741000   0.96668419   -7.2461058    579.47693  0.027736786  0.027588422            2 
 1742000   0.96477722   -7.2468741    579.12217  0.027703892  0.027581677            3 
 1743000   0.99006607    -7.264515    579.57941  0.027709859  0.027574862            2 
 1744000   0.96403326    -7.206867     581.1263  0.027767885  0.027568219            6 
 1745000   0.96012468   -7.2241909    581.31762  0.027761109  0.027561549            5 
 1746000   0.95938698   -7.2185434    582.00453  0.027777994   0.02755488            3 
 1747000   0.95313963   -7.2124095    582.04659    0.0277641  0.027548131            3 
 1748000   0.95935976   -7.2572645    580.67558  0.027682856  0.027541419            3 
 1749000   0.97278266   -7.2568342    580.51798  0.027659519  0.027534619            2 
 1750000     0.971525   -7.2200949    583.55443  0.027788306  0.027528048            4 
 1751000   0.98147188   -7.2243327    582.14402  0.027705312  0.027521351            6 
 1752000   0.96163876   -7.2365832    581.27048  0.027647949  0.027514738            4 
 1753000   0.97552626   -7.1936167    582.34425  0.027683222   0.02750804            3 
 1754000   0.97123019   -7.2804229    582.66073  0.027682475  0.027501407            2 
 1755000   0.96636157    -7.254788    581.80275  0.027625962  0.027494716            5 
 1756000   0.96176083   -7.2576556    581.36116  0.027589273  0.027487949            4 
 1757000   0.96417356   -7.2170621    581.40224  0.027575519  0.027481197            3 
 1758000   0.97572965   -7.2590127    581.82236  0.027579748  0.027474362            2 
 1759000   0.98627435      -7.2586    581.19406  0.027534303  0.027467436            6 
 1760000   0.94692176   -7.2481031    582.00526  0.027557067    0.0274606            4 
 1761000   0.96994525   -7.2483426    584.50123  0.027659532  0.027453764            4 
 1762000   0.97192374    -7.255909    582.80593  0.027563655  0.027446846            2 
 1763000   0.96953517   -7.2631786    582.34565  0.027526264  0.027440015            2 
 1764000   0.98903625   -7.2288447    583.83217  0.027580885  0.027433185            3 
 1765000   0.96339903   -7.2331181    584.70279  0.027606364  0.027426389            2 
 1766000   0.95488525   -7.1861488    585.04187  0.027606732  0.027419739            3 
 1767000   0.96002846   -7.2310148    584.70361  0.027575156  0.027413043            4 
 1768000   0.98017131   -7.2208817    585.83658  0.027612961  0.027406276            2 
 1769000   0.96987262   -7.2279291    584.69685  0.027543662  0.027399474            1 
 1770000   0.96476457   -7.2716872    584.17688  0.027503619  0.027392525            3 
 1771000   0.97611702   -7.2617633    585.53831  0.027552151  0.027385687            1 
 1772000   0.96886815   -7.2679102    582.62501  0.027399596  0.027378747            3 
 1773000   0.95690328   -7.2613862    584.72362  0.027482779  0.027371801            3 
 1774000   0.97124926   -7.2441751    583.87304  0.027427332  0.027364834            3 
 1775000   0.95419639   -7.2580121    584.65872  0.027448766  0.027357848            4 
 1776000   0.98158441   -7.2616941    584.22077  0.027412762  0.027350716            4 
 1777000   0.95568187   -7.2331702    584.51381  0.027411077  0.027343626            2 
 1778000   0.97939489   -7.2424297    585.17097  0.027426461  0.027336495            4 
 1779000   0.94291664   -7.2405706    584.14391  0.027362934  0.027329325            1 
 1780000   0.96210793   -7.2481371      583.774  0.027330243  0.027322089            1 
 1781000   0.96479038   -7.2428799    584.49495  0.027348631  0.027314851            2 
 1782000   0.96540043   -7.2624622    584.74439  0.027344949  0.027307592            2 
 1783000    0.9739432   -7.2307917    584.28081  0.027307946  0.027300395            1 
 1784000   0.95414068   -7.2471404    584.85475  0.027319448  0.027293194            5 
 1785000   0.97118196   -7.2240423    585.95694  0.027355599  0.027286029            3 
 1786000   0.99078778   -7.2080799    584.97979   0.02729469   0.02727892            2 
 1787000   0.95789938   -7.2584933    584.24594  0.027245194  0.027271722            3 
 1788000    0.9486006   -7.2686212    584.29048  0.027232032  0.027264532            5 
 1789000   0.96751452   -7.2569604     585.8613   0.02728998  0.027257396            1 
 1790000   0.96346493   -7.2299333    586.31021  0.027295634  0.027250252            3 
 1791000   0.96057784   -7.2635424    585.78931  0.027256156  0.027243119            3 
 1792000   0.96599651   -7.2202992    584.80127  0.027194999  0.027235957            4 
 1793000   0.95046981   -7.2645289    585.99824  0.027235464  0.027228794            4 
 1794000   0.96616863   -7.2430086    585.89977  0.027215708  0.027221559            3 
 1795000   0.96248553   -7.2684384    586.31903  0.027220011  0.027214427            7 
 1796000   0.98343326   -7.2377426    587.35749  0.027253039  0.027207221            2 
 1797000   0.98446234   -7.2641054    586.52828  0.027199419  0.027200021            5 
 1798000   0.96093102   -7.2477846     588.0765  0.027256048  0.027192796            3 
 1799000   0.97507626   -7.2585926    586.11903  0.027150224  0.027185537            2 
 1800000   0.95396031   -7.2714739    586.50073  0.027152811  0.027178221            5 
 1801000   0.94019752   -7.2564529    586.59267  0.027141989  0.027170855            3 
 1802000   0.94964424   -7.2235653    587.76911  0.027181332  0.027163516            2 
 1803000   0.96844691   -7.2704045    586.22563  0.027094917  0.027156141            2 
 1804000   0.96675327   -7.2130228    586.99816  0.027115584  0.027148735            3 
 1805000   0.97988795   -7.2498498    587.30233  0.027114605  0.027141367            2 
 1806000   0.98114768   -7.2678981    587.01937  0.027086534  0.027133892            3 
 1807000   0.94666045   -7.2483475    587.14001  0.027077108  0.027126431            3 
 1808000   0.96636671   -7.2656915    587.29319  0.027069192  0.027119058            2 
 1809000   0.95113826   -7.2531132    585.84166  0.026987362  0.027111649            5 
 1810000   0.96757496   -7.2235774    588.58207  0.027098622  0.027104286            2 
 1811000   0.95046473   -7.2630352    587.98294   0.02705609   0.02709701            1 
 1812000   0.97530935   -7.2804217    587.95712  0.027039971  0.027089641            4 
 1813000   0.95618713   -7.2635843    587.66209  0.027011495  0.027082209            1 
 1814000   0.93638268   -7.2488632     590.6181  0.027132401  0.027074814            3 
 1815000   0.95048617   -7.2759544    589.77441  0.027078715  0.027067495            2 
 1816000   0.96298005   -7.2806396    589.05702  0.027030884  0.027060294            1 
 1817000   0.93338009   -7.2718525    589.70705   0.02704582  0.027053049            2 
 1818000    0.9566469   -7.2634532    590.37158  0.027061403  0.027045782            3 
 1819000   0.98743054   -7.2682274    590.45663  0.027050423    0.0270386            4 
 1820000   0.97107349   -7.2398703    590.98054  0.027059548  0.027031376            1 
 1821000   0.94432667   -7.2480839    591.66408  0.027075969  0.027024149            5 
 1822000   0.95541919   -7.2737875    590.32963  0.027000075  0.027016934            4 
 1823000   0.96851282   -7.2531861    591.14931  0.027022733  0.027009685            2 
 1824000   0.95423674   -7.2747254    589.96532  0.026953825  0.027002384            2 
 1825000   0.95810352   -7.2918152    589.66282  0.026925243   0.02699501            1 
 1826000   0.96744888   -7.2750262    591.33184  0.026986666  0.026987656            2 
 1827000   0.93407342   -7.2645483     591.2932  0.026970133  0.026980329            3 
 1828000    0.9442289   -7.2435425    591.88914  0.026982547  0.026973011            3 
 1829000    0.9750538   -7.2789254    591.08178  0.026931009  0.026965729            2 
 1830000   0.96472285   -7.2744601    592.57467  0.026984274  0.026958513            2 
 1831000   0.93652818   -7.2817885    591.98029  0.026942486  0.026951252            2 
 1832000    0.9596652   -7.2508212    592.80441  0.026965266  0.026944086            3 
 1833000   0.95805542   -7.2680077    594.33722  0.027020241  0.026936811            2 
 1834000   0.96364031   -7.2499942     591.4036   0.02687221  0.026929543            2 
 1835000   0.97549723    -7.253472    592.71205  0.026916987  0.026922342            3 
 1836000    0.9544596   -7.2683803    593.83575  0.026953329  0.026915092            2 
 1837000    0.9643351   -7.2802618     592.7913  0.026891276  0.026907841            3 
 1838000   0.95342108   -7.2722718    593.39536  0.026904033  0.026900617            1 
 1839000    0.9566533   -7.2603981    595.24958  0.026973427  0.026893504            2 
 1840000    0.9594893   -7.2891681    594.23118  0.026912644  0.026886268            1 
 1841000   0.95811428   -7.2989681    593.13834  0.026848558  0.026879049            2 
 1842000   0.94842404   -7.2854714    593.66283   0.02685771  0.026871782            2 
 1843000   0.99229004   -7.2802165    593.63382  0.026841826  0.026864475            2 
 1844000   0.98543205   -7.2584152    595.96294  0.026932526  0.026857308            8 
 1845000   0.95647569   -7.2860963    594.62219  0.026857371   0.02685019            3 
 1846000   0.95909383   -7.2544597    596.48957   0.02692712  0.026843033            3 
 1847000   0.96274634   -7.2656202    594.46641   0.02682126   0.02683593            1 
 1848000   0.96276855   -7.2290305    595.93083  0.026872783  0.026828786            1 
 1849000   0.94901167   -7.2621368    595.57925  0.026842404  0.026821702            5 
 1850000   0.96312076   -7.2520673    598.73779  0.026970171  0.026814689            2 
 1851000   0.94151986   -7.2324722    597.68672   0.02690828  0.026807675            1 
 1852000    0.9590086    -7.280017    595.79458  0.026808612  0.026800615            3 
 1853000   0.95003256   -7.2811205    597.18518  0.026856682  0.026793602            2 
 1854000   0.95706252   -7.2641947    597.39019  0.026851411   0.02678648            1 
 1855000   0.95156107   -7.2726774    598.71712  0.026896546  0.026779444            3 
 1856000   0.93937943   -7.2822182    597.83779  0.026842573  0.026772432            2 
 1857000   0.95138802   -7.2592971    598.31552  0.026849556  0.026765436            2 
 1858000   0.96411162    -7.263419    598.64978  0.026850098  0.026758475            5 
 1859000   0.97173857   -7.2633459    598.31464  0.026820631   0.02675144            2 
 1860000   0.97356302     -7.27973    599.20902  0.026846282  0.026744313            1 
 1861000   0.94723467   -7.2737461    599.70773  0.026854188  0.026737225            2 
 1862000   0.94780048   -7.2576611    597.91855  0.026759692  0.026730227            3 
 1863000   0.95213725   -7.2581336     599.0043  0.026793894  0.026723238            1 
 1864000   0.95254203   -7.2859934    598.74965  0.026768135  0.026716179            3 
 1865000   0.97144337   -7.2712962     597.9854  0.026719634  0.026709034            2 
 1866000   0.93985792   -7.2945714    599.02535  0.026751757  0.026701963            2 
 1867000   0.97212138   -7.2607764    599.36297  0.026752498  0.026694878            1 
 1868000   0.94980971   -7.2658737    598.21212  0.026686836  0.026687841            3 
 1869000   0.97650465   -7.2385099    600.39119  0.026769716  0.026680712            3 
 1870000    0.9760912   -7.2670293    598.75054  0.026682288  0.026673626            3 
 1871000     0.941532   -7.2756946    600.11821  0.026728942  0.026666519            5 
 1872000   0.94748086   -7.2421727    600.26879  0.026721367  0.026659425            4 
 1873000    0.9431282   -7.2782222    600.64734  0.026723943  0.026652278            3 
 1874000   0.95149181   -7.2568779     600.5597  0.026705785   0.02664521            2 
 1875000   0.97062941    -7.280334    600.52988  0.026690217  0.026638121            2 
 1876000   0.93910641   -7.2950375    600.35299  0.026668132  0.026631011            8 
 1877000   0.94402875    -7.284594     599.8471  0.026631464  0.026623927            3 
 1878000    0.9649607   -7.2842321    601.17961  0.026676411  0.026616807            4 
 1879000   0.95055372   -7.2847946    602.65089  0.026727465  0.026609756            6 
 1880000   0.93766266   -7.2402309    602.07367  0.026687663  0.026602735            3 
 1881000   0.94845033   -7.2905862    601.21853   0.02663559   0.02659564            4 
 1882000   0.95401856   -7.2840431    601.06609  0.026614687  0.026588486            3 
 1883000   0.96586995   -7.2874459    600.68464  0.026583672  0.026581316            1 
 1884000   0.97206293   -7.3184476    601.25296  0.026594699  0.026574168            3 
 1885000   0.94047631   -7.2804425    603.19814  0.026666585  0.026567097            2 
 1886000   0.95305671   -7.3035171    602.38262  0.026616411  0.026559921            1 
 1887000    0.9246514   -7.2563393     602.8607  0.026623419  0.026552778            4 
 1888000   0.95010815   -7.2703038     602.0104  0.026571787  0.026545738            2 
 1889000   0.96941081   -7.2779305    603.18155  0.026609385  0.026538604            1 
 1890000   0.95268813   -7.2657943     601.4785  0.026520216   0.02653148            3 
 1891000   0.95793413   -7.2945752    600.69281  0.026471567  0.026524277            2 
 1892000   0.96498015   -7.2971872    601.64631  0.026499573  0.026516988            3 
 1893000   0.95825567   -7.2934618    601.37266  0.026473528  0.026509776            2 
 1894000   0.96071399   -7.2976827    603.58253  0.026556781  0.026502484            2 
 1895000   0.96163809   -7.2831645    603.83974  0.026554078  0.026495273            4 
 1896000   0.92989758   -7.2884544    603.50941  0.026525554  0.026488017            3 
 1897000   0.94148212   -7.2969875    602.81601  0.026481111   0.02648082            3 
 1898000   0.96748161   -7.2640829    601.77145  0.026421297  0.026473678            1 
 1899000   0.96071972   -7.2600116    605.20339  0.026557986  0.026466596            3 
 1900000    0.9602113   -7.3303462    602.65852  0.026432391  0.026459507            1 
 1901000   0.95040789   -7.2873285    604.64976  0.026505776  0.026452373            2 
 1902000   0.93975819   -7.2933643    604.80917  0.026498824  0.026445305            5 
 1903000   0.94906815   -7.2716251    605.64275  0.026521403  0.026438272            2 
 1904000    0.9527393   -7.2564495    605.53911  0.026502937  0.026431181            2 
 1905000   0.93529128   -7.2556837    608.17303  0.026604245  0.026424259            3 
 1906000   0.93473648   -7.3196466    608.32965  0.026597134  0.026417317            3 
 1907000   0.95770909   -7.2573404    605.74159  0.026470092  0.026410356            2 
 1908000   0.92576682   -7.2699639    606.83166  0.026503828  0.026403383            4 
 1909000   0.96333006   -7.3107475    606.32664  0.026467899  0.026396489            2 
 1910000   0.96161557   -7.2887859    607.11754  0.026488549  0.026389543            2 
 1911000   0.94561764   -7.2847191    606.95729    0.0264677   0.02638255            5 
 1912000    0.9417453    -7.297687    608.07851  0.026502724  0.026375516            2 
 1913000     0.948427   -7.2803371    608.74453  0.026517883  0.026368531            1 
 1914000   0.96435868   -7.2838965    608.03727  0.026473236  0.026361612            1 
 1915000   0.94721514   -7.2745149    607.84134  0.026450885  0.026354636            2 
 1916000    0.9523746   -7.3015559    607.80979  0.026435708  0.026347608            1 
 1917000   0.95280264    -7.313987     606.6417   0.02637114   0.02634055            5 
 1918000   0.93246801   -7.2908453    607.25802  0.026384168  0.026333505            4 
 1919000   0.94694927   -7.3021433    606.40763  0.026333491  0.026326476            3 
 1920000   0.95724205   -7.2981381    608.92291  0.026428946  0.026319429            2 
 1921000   0.94992744   -7.2954231    607.86784  0.026369419  0.026312387            8 
 1922000   0.93714042   -7.2850907    607.24175  0.026328553  0.026305345            2 
 1923000   0.94168987   -7.2386512    611.73941  0.026509768  0.026298414            2 
 1924000   0.95995544    -7.275467    609.35185  0.026392578  0.026291488            3 
 1925000   0.95225098   -7.2680102    609.57375  0.026388474  0.026284546            2 
 1926000     0.939006   -7.2766072    610.80299  0.026427959  0.026277555            3 
 1927000       0.9563   -7.2883694    609.89394  0.026374932  0.026270645            3 
 1928000   0.93313379   -7.3016191    609.21483    0.0263319  0.026263605            3 
 1929000   0.96769338   -7.2881078    608.91426  0.026305265  0.026256546            1 
 1930000   0.93881986    -7.294322    610.42253  0.026356758  0.026249533            2 
 1931000    0.9229164   -7.3160513    608.03213   0.02623995  0.026242469            4 
 1932000   0.94402246   -7.3168804    607.61863  0.026208533  0.026235283            2 
 1933000   0.96310643   -7.2848172    610.22284  0.026307244   0.02622818            3 
 1934000   0.90987731   -7.3342755    608.09689  0.026202038  0.026221014            1 
 1935000    0.9424464   -7.2666275    611.17938  0.026321248  0.026213864            3 
 1936000   0.95277198   -7.2866665    609.67223  0.026242779  0.026206743            2 
 1937000   0.94660676   -7.2804764    610.92466  0.026283112  0.026199693            2 
 1938000   0.93634993   -7.2867176    612.22204  0.026325337  0.026192631            3 
 1939000   0.94117115   -7.3134762    609.84795  0.026209728   0.02618546            3 
 1940000   0.93110828   -7.2910005    611.95108  0.026286558  0.026178457            1 
 1941000   0.92604919   -7.2817104    610.52594   0.02621183  0.026171305            3 
 1942000   0.93783589   -7.3233509    611.11576  0.026223642  0.026164124            2 
 1943000   0.95166728   -7.2949582    610.09463  0.026166351  0.026156998            4 
 1944000   0.90461387   -7.3003076    610.51671  0.026170984  0.026149858            1 
 1945000   0.95793041   -7.3408344    611.63455  0.026205422  0.026142727            3 
 1946000   0.93648489   -7.2900659    612.48378  0.026228322  0.026135653            1 
 1947000   0.96137723   -7.2802784    610.60351  0.026134374  0.026128556            2 
 1948000   0.91028505   -7.2871312    611.82539  0.026173229  0.026121377            4 
 1949000   0.93666105   -7.2545773    610.62611  0.026108522  0.026114252            4 
 1950000   0.94789612   -7.3083718    612.37728  0.026169969  0.026107106            3 
 1951000    0.9265348    -7.286405    611.51233  0.026119611  0.026099875            3 
 1952000   0.92500469   -7.3002509    612.20132  0.026135644  0.026092723            6 
 1953000   0.94852892   -7.2919218    611.54758  0.026094367  0.026085493            4 
 1954000   0.93697264   -7.3138692    612.34696  0.026115104  0.026078275            2 
 1955000   0.93720306   -7.2886135    612.32947     0.026101  0.026071109            5 
 1956000   0.92961762   -7.3138731    611.45928  0.026050583  0.026063898            2 
 1957000   0.92871173   -7.2824187    613.46799  0.026122806  0.026056726            3 
 1958000   0.94320756   -7.2741403     614.4912  0.026153013  0.026049668            2 
 1959000   0.92988629    -7.303117    613.75113  0.026108181  0.026042561            2 
 1960000   0.94162856   -7.3202252    612.35469  0.026035489  0.026035455            2 
 1961000   0.93934369   -7.3192776    612.19527  0.026015437  0.026028258            2 
 1962000   0.93624788   -7.3224498    613.50625   0.02605786  0.026021077            2 
 1963000   0.93073503   -7.3335441    612.85286  0.026016847  0.026013852            4 
 1964000   0.93338212   -7.2952691    613.16449  0.026016823  0.026006632            3 
 1965000   0.93675928   -7.3046563    613.09323  0.026000561  0.025999398            4 
 1966000   0.92621143   -7.3489292    612.73267  0.025972053  0.025992201            4 
 1967000   0.93636108     -7.36464    612.73883   0.02595911   0.02598494            4 
 1968000   0.92078728   -7.3532234     612.3434  0.025929175  0.025977692            2 
 1969000   0.93587464   -7.3116782    613.12241  0.025948976  0.025970414            2 
 1970000   0.92617968   -7.3130279    612.99843   0.02593056  0.025963181            2 
 1971000   0.93044824   -7.3062445    614.37999  0.025975816  0.025955901            2 
 1972000    0.9304169   -7.3082886    613.56094  0.025928032  0.025948686            3 
 1973000   0.91979355    -7.307728    614.96102  0.025974025  0.025941441            2 
 1974000   0.95175774   -7.3014053    614.04407  0.025922158  0.025934162            2 
 1975000   0.92936535   -7.2876034     614.3675  0.025922679  0.025926917            2 
 1976000    0.9333264   -7.3330987    614.74078  0.025925303  0.025919661            2 
 1977000   0.94515155   -7.2987541    615.88695  0.025960502  0.025912458            2 
 1978000   0.93516964    -7.305876    616.24196  0.025962334  0.025905249            4 
 1979000   0.93600187   -7.2949142    618.61145  0.026048992  0.025898056            2 
 1980000    0.9120805   -7.2955686    616.65402  0.025953452  0.025890927            4 
 1981000    0.9324443   -7.3268664    614.49714  0.025849619  0.025883666            6 
 1982000   0.92576069   -7.3263802    613.44868  0.025792494  0.025876259            2 
 1983000   0.93044791   -7.3170485    614.54698  0.025825642  0.025868975            1 
 1984000   0.95056266   -7.2994245    615.41661  0.025849152  0.025861696            2 
 1985000   0.95467331   -7.3022001     614.7043  0.025806226   0.02585439            6 
 1986000   0.93175903    -7.287746    615.93065   0.02584469  0.025847044            3 
 1987000   0.93616251   -7.2998658     617.6559  0.025904039  0.025839802            3 
 1988000   0.92519228    -7.307544    615.73622  0.025810539  0.025832574            2 
 1989000   0.93473588   -7.3279025    615.58803  0.025791354  0.025825348            2 
 1990000   0.94715986   -7.3236745    616.66693  0.025823573  0.025818012            3 
 1991000   0.92453484   -7.3233618    616.01906  0.025783486  0.025810716            1 
 1992000   0.93935393   -7.3626855    615.67704  0.025756235  0.025803378            3 
 1993000   0.94488461   -7.3655904    615.64305   0.02574189  0.025796047            3 
 1994000   0.92950722   -7.3387132    616.52847  0.025765984  0.025788664            4 
 1995000   0.92040745    -7.330925    616.68744  0.025759709  0.025781305            2 
 1996000   0.91971912   -7.3241419    615.62807  0.025702575  0.025773968            1 
 1997000   0.94812609   -7.3180848    616.63229   0.02573161  0.025766587            3 
 1998000   0.93028372   -7.3346345    617.80504  0.025767644  0.025759229            2 
 1999000   0.94719996   -7.3162774    616.57073  0.025703299  0.025751861            1 
 2000000   0.93709286   -7.3610556    616.04117  0.025668382  0.025744513            3 
 2001000   0.94189273   -7.3556067    617.42229  0.025713072  0.025737083            2 
 2002000   0.93348657   -7.3518703    615.63438  0.025625807  0.025729686            3 
 2003000   0.92860756   -7.3081633    618.26516  0.025722464  0.025722318            2 
 2004000   0.94051813   -7.3611875    617.80674  0.025690566  0.025714863            4 
 2005000     0.907533   -7.3284082    617.83514  0.025678933  0.025707419            2 
 2006000    0.9307339   -7.3271563    617.46537  0.025650771  0.025700014            3 
 2007000   0.92057558   -7.3367793    619.63616  0.025728125  0.025692628            3 
 2008000   0.89916044   -7.3265008     617.0298  0.025607146  0.025685337            2 
 2009000   0.94645485   -7.3314347     617.4967  0.025613767  0.025678027            2 
 2010000   0.92744365   -7.3187475    618.39021  0.025638068  0.025670611            2 
 2011000   0.93447182    -7.347874    617.96511  0.025607704   0.02566321            4 
 2012000   0.93234312   -7.3438028    618.60634  0.025621535  0.025655822            3 
 2013000   0.91849798   -7.3351786     619.6193  0.025650741  0.025648429            5 
 2014000   0.92961212   -7.3437166    618.66566  0.025598546   0.02564102            1 
 2015000   0.90648807   -7.3264133    619.17214  0.025606788  0.025633632            2 
 2016000   0.93224462   -7.3308744    619.10698  0.025591393  0.025626237            3 
 2017000   0.92019332   -7.3517407    618.62124  0.025558637  0.025618874            2 
 2018000   0.93016814   -7.3067874    620.73205  0.025633137  0.025611532            3 
 2019000   0.91388755   -7.3354812    619.35302  0.025563522  0.025604226            2 
 2020000   0.90836419   -7.2953491    621.72434  0.025648694  0.025596956            1 
 2021000   0.93036134   -7.3421033    619.58243  0.025547684  0.025589631            2 
 2022000   0.91850087   -7.3090101    621.50667  0.025614353  0.025582301            4 
 2023000   0.89743696   -7.3364686    620.60413  0.025564513  0.025574919            4 
 2024000   0.91543526   -7.3324342    620.66794   0.02555451  0.025567505            2 
 2025000   0.94281351   -7.3148031    621.16063  0.025562166  0.025560198            1 
 2026000   0.92098373   -7.3138238    623.07536  0.025628305  0.025552943            2 
 2027000   0.92147128   -7.2973887     620.9027   0.02552634  0.025545647            3 
 2028000   0.93199829   -7.3304822    619.75354  0.025466533  0.025538333            2 
 2029000   0.92816479   -7.3202046    620.79098   0.02549659  0.025530968            2 
 2030000   0.93735494   -7.3431624    621.44588  0.025510914  0.025523683            2 
 2031000   0.90948203   -7.3285714    622.46402  0.025540129  0.025516387            2 
 2032000   0.95117341    -7.304712    623.68371   0.02557758   0.02550918            4 
 2033000   0.93130086   -7.3373152    622.94556  0.025534742  0.025501988            3 
 2034000   0.93186814   -7.3122622    624.63659   0.02559147  0.025494818            3 
 2035000   0.92896661   -7.3264464    622.54403  0.025493203  0.025487624            2 
 2036000   0.90853692   -7.3125428     624.4007  0.025556676  0.025480505            2 
 2037000   0.92701549   -7.3256431    624.24023  0.025537565  0.025473323            4 
 2038000    0.9293101   -7.3518246    622.27982  0.025444873  0.025466085            5 
 2039000   0.91449244   -7.3424482     623.1037  0.025466066  0.025458827            3 
 2040000   0.93794807   -7.3202095    623.26749  0.025460273   0.02545164            2 
 2041000   0.93808615   -7.3379846    623.89206    0.0254733  0.025444538            3 
 2042000   0.91794949   -7.3564005     624.7187   0.02549456  0.025437315            3 
 2043000   0.90765684   -7.3687776      623.139  0.025417646  0.025430106            2 
 2044000   0.92794978   -7.3104094    623.31677  0.025412458  0.025422845            5 
 2045000   0.94405936   -7.2790102    625.16417  0.025475313  0.025415627            4 
 2046000   0.93717867   -7.3466848    624.03022  0.025416676  0.025408519            3 
 2047000   0.93089217   -7.3154977    623.57335   0.02538566  0.025401376            1 
 2048000   0.91200361   -7.3342171     625.4578  0.025449943  0.025394194            1 
 2049000   0.93757234   -7.3394098    625.11969  0.025423771   0.02538699            4 
 2050000   0.91891688   -7.3491111    625.84465  0.025440839  0.025379781            3 
 2051000   0.91755505   -7.3593703    626.97942  0.025474542  0.025372665            2 
 2052000    0.9249899   -7.3427652    625.48125  0.025401285  0.025365586            2 
 2053000   0.92551682   -7.3289793    627.63579  0.025476367  0.025358606            1 
 2054000   0.92778726   -7.3386164    626.97156  0.025437016  0.025351637            1 
 2055000   0.91405205   -7.3559946    626.91178  0.025422213  0.025344654            5 
 2056000   0.92015979   -7.3553986    626.50749  0.025393462  0.025337625            2 
 2057000   0.92772789   -7.3650633    627.23814  0.025410717  0.025330538            2 
 2058000   0.90762663   -7.3083812    627.15255  0.025394904  0.025323479            2 
 2059000   0.91565483   -7.3080831    629.54499  0.025479399  0.025316564            3 
 2060000   0.93029632   -7.3472218    627.32264  0.025377129  0.025309581            2 
 2061000   0.91652599   -7.3240513    626.79092  0.025343317  0.025302636            2 
 2062000   0.90803019   -7.3559904    627.28567  0.025351021  0.025295643            4 
 2063000   0.92169977   -7.3494749    629.70965  0.025436648  0.025288718            1 
 2064000   0.90576479   -7.3174967    629.14113   0.02540137  0.025281774            3 
 2065000   0.92191117   -7.3673407    628.79811  0.025375227  0.025274874            2 
 2066000   0.91482236   -7.3397771    628.34301  0.025344587   0.02526793            2 
 2067000   0.93623583   -7.3613635    629.55802   0.02538131  0.025261006            3 
 2068000   0.93030753   -7.3429643    630.09098  0.025390513  0.025253982            2 
 2069000   0.93660404   -7.3438957    631.46282  0.025433495  0.025247101            6 
 2070000   0.92072319   -7.3515406    628.81113  0.025314458  0.025240183            4 
 2071000   0.90549843    -7.364295    629.79644  0.025341881  0.025233269            1 
 2072000   0.91276083   -7.3181762    630.90829  0.025374368  0.025226395            6 
 2073000   0.90054572   -7.3453285    629.63802  0.025311064  0.025219583            2 
 2074000   0.92667691   -7.3558893    630.90867  0.025349915  0.025212735            4 
 2075000   0.93167916   -7.3680809    631.62962  0.025366652   0.02520582            3 
 2076000   0.90475595   -7.3428708    632.75326  0.025399537  0.025199008            5 
 2077000   0.94501468   -7.3336061    633.38147  0.025412513  0.025192213            3 
 2078000   0.91652488   -7.3511571     632.1096  0.025349278   0.02518541            2 
 2079000   0.90425787   -7.3291741    632.25246  0.025342811  0.025178545            2 
 2080000   0.90529464   -7.3262557     631.2978   0.02529238  0.025171758            3 
 2081000    0.9339914   -7.2979858    633.40476  0.025364599  0.025165054            5 
 2082000   0.92499381   -7.3373572    632.87182  0.025331085  0.025158297            2 
 2083000   0.90948121   -7.3860607    630.98732  0.025243532  0.025151447            1 
 2084000   0.91656237   -7.3602165    631.66782   0.02525863  0.025144605            2 
 2085000   0.92064468   -7.3644635    632.40176   0.02527585  0.025137751            6 
 2086000   0.91080466   -7.3510206    632.44961  0.025265644  0.025130906            5 
 2087000   0.92812778   -7.3279973    632.47096  0.025254391  0.025124128            2 
 2088000   0.92042997    -7.368621    631.61986  0.025208328  0.025117314            2 
 2089000   0.91835794   -7.3440205    633.17664  0.025258363   0.02511054            3 
 2090000   0.92051774   -7.3623153    632.76182  0.025229738   0.02510379            2 
 2091000   0.91897774   -7.3314496    633.30789  0.025239434  0.025097052            2 
 2092000   0.91493605   -7.3574449    634.22684  0.025263976  0.025090245            1 
 2093000   0.89822629   -7.3504204    633.89546  0.025238711  0.025083435            2 
 2094000   0.89599952   -7.3182881    636.52963  0.025331488  0.025076762            1 
 2095000   0.92381523   -7.3479081    635.73653  0.025287849  0.025070133            1 
 2096000   0.89848214   -7.3651735    634.04684  0.025208605  0.025063457            1 
 2097000   0.89877417   -7.3468136    635.24265  0.025244105  0.025056783            1 
 2098000   0.91811405   -7.3522856    634.65821  0.025208858  0.025050091            3 
 2099000   0.90895909   -7.3280465    635.26267  0.025220846  0.025043389            2 
 2100000   0.90281356   -7.3013012    638.48018  0.025336515  0.025036761            2 
 2101000   0.91643797   -7.3246704    636.77611  0.025256866  0.025030199            5 
 2102000   0.92810208   -7.3682486    637.19752  0.025261557  0.025023578            1 
 2103000   0.90844747   -7.3590316    636.81163  0.025234254  0.025016962            3 
 2104000   0.92690487   -7.3707273    635.85845  0.025184508  0.025010357            1 
 2105000     0.905147   -7.3547972    637.62584  0.025242512  0.025003695            3 
 2106000   0.91526982    -7.406181     636.3383  0.025179578  0.024997048            1 
 2107000    0.9052582   -7.3480996    637.15605   0.02519997  0.024990412            2 
 2108000   0.89800938   -7.3797288    638.41503  0.025237786  0.024983793            2 
 2109000   0.90583201   -7.3674391    636.40314  0.025146323  0.024977091            2 
 2110000   0.91200854   -7.3523779    636.59088   0.02514182   0.02497042            4 
 2111000   0.90596991    -7.358242    638.59348  0.025208964  0.024963822            2 
 2112000   0.91849752    -7.343267    639.23246  0.025222241  0.024957226            2 
 2113000   0.92467611   -7.3393043    639.11739  0.025205765  0.024950624            2 
 2114000   0.93964512   -7.3446887    639.04096  0.025190829   0.02494401            1 
 2115000   0.92561412   -7.3197889    639.18767  0.025184699  0.024937399            2 
 2116000   0.91617588   -7.3706093    638.26112  0.025136308  0.024930752            5 
 2117000   0.90408788   -7.3542045    637.30494  0.025086795  0.024924059            3 
 2118000   0.90950214   -7.3855729    638.45615  0.025120245  0.024917387            2 
 2119000   0.89601455   -7.3800782    639.50902  0.025149796  0.024910653            6 
 2120000   0.90593866   -7.3526923    638.88996  0.025113599  0.024904073            2 
 2121000   0.90618146   -7.3609052    638.09734  0.025070617  0.024897366            2 
 2122000   0.90239904   -7.3469766    638.88132   0.02508959  0.024890739            3 
 2123000   0.89329411   -7.3633326    640.15606  0.025127809  0.024884083            2 
 2124000   0.94366725   -7.3518899    639.73125  0.025099311  0.024877432            4 
 2125000   0.91765094    -7.361252    641.35599  0.025151215  0.024870868            3 
 2126000   0.91758673   -7.3541912    640.91762  0.025122202  0.024864295            1 
 2127000   0.91870175    -7.364754    640.02004  0.025075225  0.024857659            3 
 2128000   0.91523917   -7.3526205    639.44624  0.025040971  0.024851028            4 
 2129000   0.91690944   -7.3531222    641.55992  0.025111943  0.024844453            2 
 2130000    0.9236464   -7.3818569     640.3958  0.025054609  0.024837855            2 
 2131000   0.93646339   -7.3453398    640.11517  0.025031877  0.024831279            2 
 2132000   0.92811484   -7.3491077    640.23005  0.025024627   0.02482471            4 
 2133000   0.92762057    -7.382814    640.50408    0.0250236  0.024818071            2 
 2134000   0.91686541   -7.3764767    641.67278  0.025057512  0.024811426            4 
 2135000    0.9021608   -7.3606456    641.36958  0.025033941  0.024804839            2 
 2136000   0.90507613   -7.3392006    642.33253   0.02505979  0.024798346            3 
 2137000   0.89972597   -7.3783894     641.6669  0.025022106  0.024791795            3 
 2138000   0.92534961   -7.3550442     642.6065  0.025047026  0.024785267            2 
 2139000   0.92496051   -7.3875073    642.63723  0.025036514  0.024778701            2 
 2140000   0.90970005   -7.3641006    641.55141  0.024982531  0.024772157            1 
 2141000   0.89954394   -7.3684752    642.28451  0.024999397  0.024765607            2 
 2142000   0.91340216   -7.3583693    642.05235  0.024978694  0.024759085            6 
 2143000   0.90418984   -7.3974517    642.15891  0.024971182  0.024752597            3 
 2144000   0.91075251   -7.3566374    643.14378  0.024997815  0.024746134            2 
 2145000   0.89185175   -7.3843729    642.63203  0.024966279  0.024739593            3 
 2146000   0.91040174   -7.3481773    643.79741  0.024999899  0.024733031            4 
 2147000   0.92053885   -7.3657737    643.35461  0.024971069  0.024726471            5 
 2148000   0.91370689   -7.3727709    644.49849  0.025003821  0.024719967            2 
 2149000   0.91380394    -7.410435    643.38355  0.024948951   0.02471333            3 
 2150000    0.8924725    -7.362936    644.41656  0.024977386   0.02470675            2 
 2151000   0.90977875   -7.3643907    643.91927  0.024946508  0.024700214            3 
 2152000   0.90780821   -7.3713179    643.31629  0.024911567  0.024693706            4 
 2153000   0.91190493   -7.3798763    642.96479  0.024886391  0.024687142            5 
 2154000   0.89629895   -7.3804478    643.80821  0.024907467  0.024680562            2 
 2155000   0.91428513   -7.4026184    642.91568  0.024861395  0.024673937            5 
 2156000   0.92814528   -7.3941734    642.63002  0.024838823  0.024667235            4 
 2157000   0.90083026   -7.3891144    644.40217  0.024895772  0.024660561            4 
 2158000   0.90918553   -7.3663558    643.25713  0.024840019  0.024653888            3 
 2159000   0.90967478   -7.3836744    642.39136  0.024795096  0.024647179            2 
 2160000   0.93117849   -7.3526174    644.09182  0.024849222  0.024640565            2 
 2161000   0.91897757   -7.3494367    644.43476  0.024850947  0.024633946            2 
 2162000   0.91556701   -7.4034835    642.41471  0.024761591  0.024627202            3 
 2163000   0.91786286    -7.376709    642.77307  0.024763949  0.024620422            3 
 2164000   0.90124625   -7.4137259    642.71071  0.024750104  0.024613658            7 
 2165000   0.90717184   -7.3929746    642.25812  0.024721252  0.024606904            1 
 2166000   0.90385661    -7.372666    642.80495  0.024730877  0.024600122            2 
 2167000   0.91595072    -7.386665    645.09405  0.024807493  0.024593403            4 
 2168000   0.90708614   -7.3758384    645.47375  0.024810645  0.024586685            2 
 2169000    0.8873536   -7.3747732    643.80705  0.024735172  0.024579907            2 
 2170000   0.89952596   -7.4159753    644.08106  0.024734296  0.024573034            4 
 2171000    0.8961302   -7.3967955    644.23345  0.024728752  0.024566189            2 
 2172000   0.91314943   -7.4006983    643.38651  0.024684872  0.024559241            2 
 2173000   0.90951384   -7.4037453    642.31036  0.024632243  0.024552357            3 
 2174000   0.92559886   -7.4027459    642.50593  0.024628409  0.024545494            1 
 2175000   0.93204287   -7.3716466    643.80696  0.024666933  0.024538632            3 
 2176000   0.90810746   -7.3799785    642.31625  0.024598508    0.0245317            2 
 2177000   0.89287706   -7.3907167    642.26924   0.02458541  0.024524732            2 
 2178000   0.91547131   -7.4002182    643.95781  0.024638729  0.024517818            2 
 2179000   0.90393679   -7.3970882    643.02795   0.02459186   0.02451088            3 
 2180000    0.8907854   -7.3805861     643.6143  0.024602993  0.024504006            5 
 2181000   0.88283778   -7.3670604    643.50868  0.024587677   0.02449711            3 
 2182000   0.89090148   -7.4067449    644.56222  0.024616645   0.02449015            2 
 2183000    0.8840469   -7.3831511    644.59428  0.024606592  0.024483277            4 
 2184000   0.90629361   -7.3640674    644.06711   0.02457521  0.024476441            2 
 2185000   0.88605354   -7.3771226    645.41276  0.024615285  0.024469593            2 
 2186000   0.89357264   -7.4094479    642.99956  0.024512029  0.024462712            3 
 2187000   0.89845611   -7.4074462    644.20437   0.02454673  0.024455794            2 
 2188000   0.90341158   -7.4066743    645.36977  0.024579897  0.024448863            1 
 2189000   0.92024084   -7.3908358     643.7476  0.024506913  0.024441975            2 
 2190000    0.9032102   -7.3752408    644.55141   0.02452631  0.024435109            2 
 2191000   0.90459747   -7.3717667     645.5805  0.024554256  0.024428233            4 
 2192000   0.90120326   -7.3754999    645.21832  0.024529285  0.024421317            3 
 2193000   0.90913682   -7.3808219     646.7615   0.02457674  0.024414448            1 
 2194000   0.89109743   -7.4133501    646.88295  0.024570152  0.024407593            5 
 2195000   0.89848737   -7.3915867    645.77963   0.02451707  0.024400709            3 
 2196000   0.87895898    -7.425669    643.78268  0.024430126  0.024393822            5 
 2197000    0.8928884   -7.4396596    644.85284  0.024459598  0.024386925            1 
 2198000   0.87787426   -7.3819517    645.98027  0.024491215  0.024379955            2 
 2199000   0.88568519   -7.3880954    645.58727  0.024465184  0.024373079            5 
 2200000   0.90117109   -7.3904762    647.88888  0.024541246  0.024366219            6 
 2201000     0.890297   -7.4428579    646.30111   0.02446998  0.024359322            3 
 2202000   0.92883512   -7.4204904    645.44873   0.02442661  0.024352353            1 
 2203000    0.8853628   -7.3800768    648.34797  0.024525192  0.024345397            1 
 2204000   0.89737721    -7.407246    646.69999  0.024451754    0.0243385            2 
 2205000   0.90963658   -7.4184901    647.15881  0.024458005  0.024331554            2 
 2206000   0.90417401   -7.3743142    648.71059  0.024505537  0.024324683            3 
 2207000   0.89419216   -7.3637189    648.47875   0.02448568  0.024317858            6 
 2208000   0.88451481   -7.4345032    645.69974  0.024369707  0.024311028            2 
 2209000   0.89667515    -7.407318    647.86241   0.02444026  0.024304163            4 
 2210000    0.8903683   -7.4099789    647.12952  0.024401566  0.024297304            2 
 2211000   0.88842241     -7.39118    648.85779  0.024455668  0.024290466            1 
 2212000   0.86111852   -7.3991014    646.61807  0.024360235   0.02428363            2 
 2213000   0.88923342   -7.3817508    648.70514  0.024427818  0.024276818            2 
 2214000   0.89776217   -7.4108452    647.10148  0.024356424  0.024269987            2 
 2215000   0.90391364   -7.3924112    648.46275  0.024396642  0.024263213            2 
 2216000    0.9024597   -7.4235599    647.86365  0.024363103  0.024256357            2 
 2217000   0.88975255   -7.3828776    647.38296  0.024334046  0.024249519            3 
 2218000   0.89754923   -7.3969758    651.10028   0.02446274  0.024242695            3 
 2219000   0.89621138   -7.4001165    649.49526   0.02439144  0.024235872            5 
 2220000   0.92039655   -7.3800554    649.12722  0.024366637  0.024228984            4 
 2221000   0.88691753   -7.3825825    649.39901  0.024365864  0.024222161            3 
 2222000   0.91659976   -7.4116479    646.87314  0.024260169  0.024215265            2 
 2223000   0.90270089   -7.4278199     648.2197  0.024299734  0.024208298            3 
 2224000   0.90838858   -7.4135055    648.11572  0.024284912   0.02420134            1 
 2225000   0.86104335   -7.4057237    650.79548  0.024374362   0.02419447            2 
 2226000   0.88545768   -7.4088509    648.24275  0.024267848  0.024187568            3 
 2227000   0.91916001   -7.3963751    649.27943  0.024295743   0.02418065            2 
 2228000   0.90089716   -7.4174056    648.80184  0.024266975  0.024173798            3 
 2229000   0.87179942   -7.3619833    651.93229  0.024373123  0.024166997            3 
 2230000   0.90208701    -7.405284    651.51089  0.024346446  0.024160207            2 
 2231000   0.89516945   -7.3997728    649.36229  0.024255277  0.024153355            2 
 2232000   0.89561659   -7.4115821    649.50859  0.024249873  0.024146529            8 
 2233000   0.89603643   -7.3917137    651.80387  0.024324671  0.024139724            3 
 2234000   0.87826402   -7.3843803    653.54188  0.024378614  0.024132969            3 
 2235000   0.90146286    -7.436883    651.52493  0.024292503  0.024126174            4 
 2236000   0.88440912   -7.4379542    650.88233   0.02425769  0.024119351            2 
 2237000   0.91080605   -7.4237699    650.86841  0.024246327  0.024112496            2 
 2238000   0.87197442   -7.4250519     651.2638  0.024250216   0.02410572            3 
 2239000   0.89004336   -7.4185368    651.06436  0.024231962  0.024098915            2 
 2240000   0.89106108   -7.4138891    652.23667  0.024264757  0.024092148            5 
 2241000   0.87053169   -7.3667564    654.09607  0.024323073  0.024085443            3 
 2242000   0.91252182   -7.3788634    653.11824  0.024275879  0.024078685            4 
 2243000   0.89767248   -7.4054411    650.93741  0.024184032  0.024071908            3 
 2244000   0.86875278   -7.4056145    651.11911  0.024180002  0.024065108            3 
 2245000   0.91602568   -7.4382094    650.86863  0.024159934   0.02405829            4 
 2246000   0.89135639   -7.4293614     653.1361  0.024233307  0.024051409            4 
 2247000   0.89369071   -7.4198266    654.02723  0.024255571  0.024044648            3 
 2248000   0.88205017    -7.412317    651.97918  0.024168861  0.024037906            2 
 2249000   0.90966526   -7.3974189    653.40905  0.024211096  0.024031188            3 
 2250000   0.89061167    -7.387097    652.83306  0.024179002  0.024024479            3 
 2251000   0.90646581   -7.4357677    651.23424  0.024109072    0.0240177            5 
 2252000   0.90572593   -7.4103996    653.09386  0.024167179  0.024010834            2 
 2253000   0.89805929   -7.4187151    653.04792  0.024154754  0.024004053            3 
 2254000   0.88384113   -7.4351912    653.99837  0.024179177  0.023997231            3 
 2255000   0.88960044   -7.4266989    652.99682  0.024131442  0.023990465            8 
 2256000   0.89793898   -7.4075794    654.43887  0.024174013  0.023983733            3 
 2257000   0.90754399   -7.4100943    654.01892  0.024147796  0.023977041            2 
 2258000   0.89529906    -7.426555    653.27598  0.024109683  0.023970249            4 
 2259000    0.8720491   -7.4127253    654.36123  0.024139045  0.023963494            9 
 2260000   0.88644531   -7.4217755    654.56803  0.024135989  0.023956724            1 
 2261000   0.90388749    -7.419775    653.81742  0.024097649  0.023949953            5 
 2262000    0.8941141   -7.4284906    653.64733   0.02408073   0.02394319            2 
 2263000   0.90221956   -7.4340736    654.52398  0.024102371   0.02393635            3 
 2264000   0.89268334    -7.393481    654.29374   0.02408325  0.023929618            7 
 2265000   0.88026903   -7.4140528    654.47472  0.024079276  0.023922824            2 
 2266000    0.8981518   -7.3963134    655.30035  0.024099013  0.023916077            4 
 2267000   0.85583055   -7.4387943    654.58353  0.024062032  0.023909335            2 
 2268000   0.88960276   -7.4483305    655.27478  0.024076822    0.0239026            2 
 2269000    0.8730996   -7.4453368    655.17689  0.024062615  0.023895868            5 
 2270000   0.87912292   -7.4088829    654.60405  0.024030986  0.023889168            3 
 2271000    0.8898458   -7.4320906    655.73765  0.024062001  0.023882475            2 
 2272000   0.90289414   -7.4185503    656.26033  0.024070581  0.023875833            2 
 2273000   0.88529872   -7.3919154    656.66732  0.024074913  0.023869167            3 
 2274000   0.87424289   -7.4348203    656.49724  0.024058093  0.023862415            3 
 2275000   0.87737782   -7.3858593    657.36183  0.024079188  0.023855733            4 
 2276000   0.88627911   -7.4340646    656.47747  0.024036228  0.023849019            2 
 2277000   0.88323935    -7.439764    657.96739    0.0240802  0.023842319            1 
 2278000   0.90496171   -7.3931012    657.19892  0.024041518  0.023835575            2 
 2279000   0.91467871   -7.4071482     658.6851  0.024085312  0.023828936            3 
 2280000   0.89537695    -7.405777    657.42113   0.02402855  0.023822317            2 
 2281000   0.88737186   -7.4117845    656.55656   0.02398643  0.023815692            2 
 2282000   0.87702218   -7.4474838    657.29737  0.024002971  0.023809026            2 
 2283000   0.89515594   -7.4115899    658.55339  0.024038305  0.023802298            2 
 2284000    0.8989691   -7.4327552    657.81063   0.02400068  0.023795599            2 
 2285000   0.88775656   -7.4550647    657.23985   0.02396936  0.023788935            2 
 2286000   0.89241663   -7.4363016    657.83126  0.023980434  0.023782244            2 
 2287000   0.90383289    -7.469056    657.85645  0.023970866  0.023775542            5 
 2288000      0.88871   -7.4085252    657.98795  0.023965179  0.023768872            2 
 2289000   0.90080926   -7.3932336    658.11718  0.023959414  0.023762214            3 
 2290000   0.87144433   -7.4138714    658.80125  0.023973844  0.023755539            4 
 2291000   0.88708479    -7.418225      659.473  0.023987815  0.023748821            4 
 2292000   0.88633458   -7.4210413    659.16721  0.023966231  0.023742053            2 
 2293000   0.88005854   -7.4261493    657.78384  0.023905504  0.023735339            4 
 2294000   0.87556909   -7.4232706    658.53836  0.023922492  0.023728608            2 
 2295000   0.87746291   -7.4489597    656.65964   0.02384385  0.023721858           10 
 2296000   0.88639257   -7.4313455     657.6764  0.023870369  0.023715087            4 
 2297000    0.8828179   -7.4154586    658.08365  0.023874752  0.023708351            2 
 2298000   0.87831625   -7.3973631    660.03988  0.023935302  0.023701603            1 
 2299000   0.87619706   -7.4235371    659.26992  0.023896981  0.023694913            3 
 2300000   0.88227846   -7.4099238    659.17471  0.023883142  0.023688213            1 
 2301000    0.8745637    -7.377679    659.86506  0.023897764   0.02368153            2 
 2302000   0.89886361   -7.3865227    659.27634  0.023866071  0.023674891            3 
 2303000   0.88457001   -7.4449785    660.14528   0.02388715   0.02366821            1 
 2304000   0.88382464   -7.4563874    658.89632  0.023831609  0.023661476            2 
 2305000   0.89351976   -7.4495715    658.20433  0.023796252  0.023654754            3 
 2306000   0.87302629   -7.4539406    660.04847  0.023852576  0.023648032            2 
 2307000   0.87841675   -7.4516368    660.79223  0.023869103  0.023641297            1 
 2308000   0.88327045   -7.4414923    659.92055  0.023827287  0.023634632            3 
 2309000   0.85854997   -7.3890918    660.19336  0.023826814  0.023627967            2 
 2310000     0.870372   -7.4271867    662.04416  0.023883267  0.023621293            4 
 2311000   0.87900542   -7.4863547    660.36319  0.023812317  0.023614632            1 
 2312000   0.90846675   -7.4329649    659.37985  0.023766575  0.023607938            4 
 2313000   0.88098274   -7.4113257    661.40471  0.023829252  0.023601266            2 
 2314000   0.87090835    -7.452199    660.14557  0.023773609   0.02359457            3 
 2315000   0.90089761   -7.4560819    659.22316  0.023730135  0.023587874            3 
 2316000   0.89350594   -7.4255849    661.08465  0.023786868   0.02358121            3 
 2317000   0.87230362   -7.4222158    660.57177  0.023758156  0.023574616            3 
 2318000    0.8837544    -7.403653    663.02699  0.023836173  0.023568033            2 
 2319000   0.89047893   -7.4864128    660.36533  0.023730248  0.023561432            3 
 2320000   0.87894426   -7.4068001    663.55848  0.023834716  0.023554762            3 
 2321000   0.90652105   -7.4534585    662.06778  0.023770924  0.023548137            2 
 2322000   0.86865832   -7.4398457    661.59965  0.023743886  0.023541502            2 
 2323000   0.88762639   -7.4613774    660.40001   0.02369063  0.023534829            3 
 2324000   0.88546151   -7.4745297    660.87676  0.023697531  0.023528141            3 
 2325000   0.88526537   -7.4357399     662.6257  0.023750025  0.023521433            2 
 2326000   0.87279955   -7.4466447    660.48576  0.023663147  0.023514721            3 
 2327000   0.86856558   -7.4344689    661.47542  0.023688419  0.023508009            2 
 2328000   0.89091329   -7.4560449    661.40735  0.023675807  0.023501305            3 
 2329000   0.87795751    -7.449592    662.18963  0.023693632  0.023494587            4 
 2330000   0.87395808   -7.4159009    661.45202  0.023657082  0.023487913            4 
 2331000   0.87949506   -7.4636668    663.13724   0.02370718  0.023481308            7 
 2332000   0.88707242   -7.4335926    664.71876  0.023753529  0.023474666            2 
 2333000   0.89344283   -7.4158234    664.98579  0.023752886  0.023468116            2 
 2334000   0.88314353   -7.4626017    662.77721  0.023663854  0.023461569            2 
 2335000   0.87061185   -7.4635085    664.36549  0.023710403  0.023455024            5 
 2336000   0.86550736   -7.4712338    661.94195  0.023613797  0.023448467            4 
 2337000   0.87258939   -7.4252999    663.31457  0.023652638  0.023441888            3 
 2338000   0.86218812   -7.4094961    664.08965  0.023670147  0.023435306            4 
 2339000   0.88385746   -7.4450639    662.00423  0.023585728  0.023428696            3 
 2340000   0.88643372   -7.4284747    665.19048   0.02368912  0.023422102            2 
 2341000   0.86712577     -7.42471    663.36558  0.023614039   0.02341556            1 
 2342000   0.87097308   -7.4152028    664.16178  0.023632287  0.023408999            2 
 2343000   0.84266224    -7.440998     663.6794  0.023605044  0.023402388            4 
 2344000   0.88379721   -7.4031313     665.8592  0.023672469  0.023395809            3 
 2345000   0.88024287   -7.4383923    664.23674  0.023604717  0.023389246            3 
 2346000   0.87937654   -7.4620877    663.25916   0.02355993  0.023382602            4 
 2347000   0.85993825   -7.4141772    665.47557  0.023628589  0.023375994            4 
 2348000   0.87871992   -7.4404137    663.90752  0.023562873   0.02336938            1 
 2349000   0.88383734   -7.4529129    664.72372  0.023581798  0.023362751            4 
 2350000    0.8622604   -7.4564768    662.40932  0.023489692  0.023356132            5 
 2351000    0.8794654   -7.4669715    664.33166   0.02354784  0.023349515            2 
 2352000   0.88582859   -7.4829877    664.58557  0.023546824  0.023342942            4 
 2353000   0.84903008   -7.4477999    666.05131  0.023588728   0.02333638            4 
 2354000   0.88729957   -7.4446373    666.86219  0.023607412  0.023329783            2 
 2355000   0.86588377   -7.4291834     665.4281  0.023546642  0.023323281            2 
 2356000   0.87789351   -7.4808747    664.79141  0.023514127  0.023316727            1 
 2357000   0.88505126   -7.4518947     667.4637  0.023598632  0.023310159            3 
 2358000   0.87757882   -7.4353574    665.60921  0.023523085  0.023303614            1 
 2359000   0.87430053   -7.4736875    666.09045  0.023530113  0.023297137            8 
 2360000   0.87809841    -7.448708    666.82293  0.023546007  0.023290636            4 
 2361000   0.87716787   -7.4458505    667.28498  0.023552343  0.023284072            2 
 2362000    0.8564248    -7.470992    665.32933  0.023473375  0.023277538            4 
 2363000   0.87653275   -7.4623981    667.62806  0.023544508  0.023271015            3 
 2364000   0.87419919   -7.4583979    665.69825   0.02346652  0.023264438            4 
 2365000   0.87824914   -7.4479958    666.21597   0.02347484   0.02325788            3 
 2366000   0.88375314   -7.4539052    667.37761  0.023505833  0.023251361            3 
 2367000    0.8760975    -7.454093    667.81731  0.023511382  0.023244841            3 
 2368000   0.86592119   -7.4371012    666.61622  0.023459186  0.023238303            2 
 2369000   0.87114672   -7.4580176    666.72477  0.023453102  0.023231771            1 
 2370000   0.87691401   -7.4569136    667.21229  0.023460348  0.023225189            5 
 2371000   0.86307483   -7.4758904    667.12363  0.023447337  0.023218673            3 
 2372000   0.88171005   -7.4623507    667.49471  0.023450489  0.023212145            4 
 2373000   0.87035525   -7.4617434    668.10575  0.023462065   0.02320563            3 
 2374000   0.87689634   -7.4969252     665.8084  0.023371539   0.02319903            3 
 2375000   0.87873808   -7.4725226    667.83519  0.023432814  0.023192434            2 
 2376000    0.8812315   -7.4680228    665.15305  0.023328881  0.023185811            5 
 2377000   0.86788851    -7.461191     666.7727  0.023375848  0.023179191            2 
 2378000    0.8675041   -7.4594072    668.73913  0.023434929  0.023172612            3 
 2379000   0.86779167   -7.4700026    667.39974  0.023378161  0.023166067            3 
 2380000   0.87317794   -7.4433842    667.89266  0.023385597  0.023159512            3 
 2381000   0.87140702   -7.4545124    669.43795   0.02342986  0.023152942            2 
 2382000   0.87347224   -7.4462685    668.87903   0.02340047   0.02314643            2 
 2383000   0.87831664   -7.4812646    667.61871  0.023346577   0.02313992            4 
 2384000   0.87993371   -7.4705387    668.42449   0.02336495  0.023133436            2 
 2385000   0.86709723     -7.49277    668.17103  0.023346297  0.023126913            4 
 2386000    0.8647107     -7.47242    667.78604  0.023323067   0.02312038            4 
 2387000   0.86799389   -7.4479336    669.20592  0.023362866   0.02311384            5 
 2388000   0.84522437   -7.4456939    669.57593  0.023365994   0.02310733            2 
 2389000    0.8527511   -7.4706917    669.00744  0.023336383  0.023100803           13 
 2390000   0.87207155   -7.4654383    668.54466  0.023310483   0.02309432            3 
 2391000   0.87963858    -7.457181     671.2352  0.023394507  0.023087871            1 
 2392000   0.85686076   -7.4646212    671.44409  0.023392004  0.023081428            2 
 2393000   0.87453361   -7.4413455    670.20273     0.023339  0.023074889            2 
 2394000   0.86139526   -7.4792009    669.57101  0.023307262  0.023068353            3 
 2395000   0.87519492   -7.4438117    670.66012  0.023335425  0.023061785            3 
 2396000   0.87432811   -7.4726326    670.60301  0.023323699  0.023055272            2 
 2397000   0.87184274    -7.475529    670.26461  0.023302205  0.023048769            3 
 2398000   0.86904159   -7.4768094     668.9662  0.023247366    0.0230423            3 
 2399000   0.88837969   -7.4610143    671.09092  0.023311481  0.023035794            3 
 2400000   0.86481408   -7.4596779    669.82101  0.023257674  0.023029329            2 
 2401000   0.88398701   -7.4614287    670.00084  0.023254229   0.02302286            4 
 2402000   0.88575644   -7.4531497    669.86064  0.023239684   0.02301638            3 
 2403000   0.84459455   -7.4807387    671.31427  0.023280423  0.023009882            4 
 2404000   0.88469523   -7.4847764    670.82827  0.023253892  0.023003353            4 
 2405000   0.86955971   -7.4806076    671.71347  0.023274895  0.022996856            2 
 2406000   0.84845874   -7.4821651    671.79224  0.023267949  0.022990292            3 
 2407000   0.87883551   -7.4798413    671.23528     0.023239  0.022983719            6 
 2408000   0.85106604   -7.4710178    671.50397  0.023238648  0.022977201            3 
 2409000    0.8724048   -7.4806029    670.77416  0.023203755  0.022970715            3 
 2410000   0.86776363   -7.4421028    673.75888  0.023297333  0.022964268            4 
 2411000     0.861873   -7.4441856    673.19868  0.023268308  0.022957815            4 
 2412000   0.87426938   -7.4644858    672.13266  0.023221831   0.02295138            2 
 2413000   0.87848419   -7.4493392    672.65615  0.023230286  0.022944928            2 
 2414000    0.8762804   -7.4658492    672.32063   0.02320908   0.02293842            6 
 2415000   0.85345994   -7.4768354    672.26964   0.02319771  0.022931921            6 
 2416000   0.86038461   -7.4561186    671.07642  0.023146952  0.022925421            4 
 2417000   0.84749975   -7.4708623    672.90676  0.023200481  0.022918956            4 
 2418000   0.87012125   -7.5013163    674.12314  0.023232807  0.022912497            2 
 2419000   0.85085838   -7.4634211    672.89641  0.023180943  0.022906034            6 
 2420000    0.8724045   -7.4280241    672.39274   0.02315402  0.022899566            2 
 2421000    0.8767347    -7.443561    672.08333  0.023133806  0.022893077            3 
 2422000   0.88423211   -7.4813916    672.96685  0.023154654   0.02288658            2 
 2423000   0.85045226   -7.4732047    673.21883  0.023153764  0.022880075           10 
 2424000   0.85933066   -7.4716639    673.04745   0.02313832  0.022873592            1 
 2425000   0.85868501   -7.4785814    671.92888  0.023090339  0.022867088            2 
 2426000   0.85543599   -7.4639604    673.81805  0.023145715  0.022860559            2 
 2427000   0.86531851   -7.4933856    673.48608   0.02312478  0.022854027            3 
 2428000   0.85242483   -7.4407157    673.07257  0.023101063  0.022847508            2 
 2429000    0.8598135   -7.4519543    673.88383  0.023119385  0.022840994            4 
 2430000   0.85075433   -7.4379801     674.5916  0.023134143  0.022834479            2 
 2431000   0.87132948   -7.4564193     672.7339  0.023060945  0.022827993            3 
 2432000   0.87190533   -7.5021221    673.32129   0.02307159  0.022821444            3 
 2433000   0.86807221   -7.5009743     671.2519  0.022991228   0.02281486            2 
 2434000   0.86150341   -7.4800445    673.03775  0.023042925  0.022808302            2 
 2435000   0.84698749   -7.4710687    673.59179  0.023052423  0.022801842            3 
 2436000   0.86597822   -7.4972915    673.20684  0.023029791  0.022795373            3 
 2437000   0.84431857    -7.464046    673.01726  0.023013858  0.022788875            3 
 2438000   0.86695543    -7.505071    673.77088  0.023030178   0.02278241            3 
 2439000   0.86526026   -7.4797157    674.14782  0.023033614  0.022775954            3 
 2440000   0.85747865   -7.4933142    674.48504  0.023035691  0.022769534            6 
 2441000   0.85805635   -7.4703007    674.66303  0.023032331    0.0227631            2 
 2442000   0.87114096   -7.4643016    675.43369  0.023049198  0.022756654            5 
 2443000   0.86648008   -7.4837504    674.28042  0.023000424  0.022750208            4 
 2444000    0.8676383   -7.4756658    675.42407  0.023030008  0.022743798            5 
 2445000   0.87168627   -7.4487454     676.9814  0.023073667  0.022737403            9 
 2446000   0.87684475    -7.492702    674.44207  0.022977721  0.022731008            4 
 2447000   0.87169742   -7.4821816    675.72523  0.023012029  0.022724548            5 
 2448000   0.85293187   -7.4853803    677.12442  0.023050259   0.02271811            4 
 2449000   0.85860902   -7.5041845    674.60694  0.022955184  0.022711683            3 
 2450000   0.86219601   -7.5093767    675.38808  0.022972384  0.022705251            2 
 2451000   0.84814758   -7.5382364    674.09869  0.022919172  0.022698815            3 
 2452000   0.84012934      -7.5145    675.15972  0.022945885  0.022692361            4 
 2453000   0.84736225   -7.5147681    676.84409  0.022993752  0.022685892            1 
 2454000   0.85395397   -7.4682717    678.10742  0.023027283  0.022679456            2 
 2455000   0.86765338    -7.466452    677.13851  0.022985014  0.022673066            5 
 2456000   0.85369103     -7.47716    674.93147  0.022900769  0.022666678            3 
 2457000   0.84955314   -7.4934418    676.83686  0.022956073  0.022660256            6 
 2458000   0.85528851   -7.4910667    675.41931  0.022898675   0.02265382            4 
 2459000   0.84354121   -7.4933895    676.79683  0.022936045  0.022647404            5 
 2460000   0.85263517   -7.4895186    676.38261   0.02291269  0.022641021            7 
 2461000   0.85381264   -7.4902781    678.06917  0.022960489  0.022634676            2 
 2462000   0.85693626   -7.4937407    677.93802  0.022946724   0.02262837            3 
 2463000   0.86087242    -7.501602    678.85207  0.022968334  0.022622085            7 
 2464000   0.84877415   -7.4809324    680.56588  0.023016974  0.022615801            3 
 2465000   0.85191234   -7.4673976    679.44178  0.022969634  0.022609529            3 
 2466000   0.87172862   -7.4998304    678.35081  0.022923453  0.022603222            4 
 2467000   0.83666763   -7.5059562    678.87582  0.022931895  0.022596899            2 
 2468000   0.85093602   -7.5143148    679.30447  0.022937077  0.022590599            3 
 2469000   0.85462165   -7.5117441    679.60016  0.022937767  0.022584309            2 
 2470000   0.83394737   -7.5100311    678.09878  0.022877827  0.022578006            5 
 2471000   0.87291809   -7.4988699    679.94395  0.022930796  0.022571742            2 
 2472000   0.84989749   -7.4661258     678.8491  0.022884611  0.022565476            1 
 2473000    0.8407191   -7.4757904    679.76921  0.022906362   0.02255923            3 
 2474000   0.87655723   -7.5185057    678.30772  0.022847875  0.022552982            3 
 2475000   0.84839843    -7.499285    679.04515  0.022863473  0.022546708            3 
 2476000   0.84617392   -7.4838772    680.59539  0.022906415  0.022540446            3 
 2477000   0.85673012   -7.5079537    678.79279  0.022836522  0.022534153            2 
 2478000   0.85601682   -7.5144295    678.60086  0.022820852  0.022527839            2 
 2479000   0.85168173   -7.5021859    680.00433  0.022858825  0.022521584            3 
 2480000     0.849032   -7.4859679    680.61861  0.022870249  0.022515313            3 
 2481000   0.86492764   -7.4985022    682.10499  0.022910956  0.022509054            3 
 2482000   0.84519344   -7.4860571     680.0679   0.02283333   0.02250281            5 
 2483000   0.85480028   -7.5123416    680.96883  0.022854371  0.022496568            1 
 2484000   0.85265495   -7.5163916    679.52848  0.022796849   0.02249031            2 
 2485000   0.86154024   -7.4897205    681.96821  0.022869491   0.02248405            2 
 2486000   0.83478482   -7.4923831    681.15633  0.022833076  0.022477793            4 
 2487000    0.8394114   -7.4868773    680.99458  0.022818475  0.022471552            2 
 2488000   0.86691411    -7.512876    680.44222  0.022790803  0.022465313            3 
 2489000   0.85414645   -7.5044047    678.74682  0.022724884  0.022459058            1 
 2490000   0.86235864   -7.4892632    682.11091  0.022828344  0.022452799            4 
 2491000   0.85113036   -7.4842868    682.01464  0.022815959   0.02244656            3 
 2492000   0.87188111   -7.5118561    680.28656  0.022749015  0.022440319            4 
 2493000   0.85745585   -7.5494928    679.51696  0.022714165  0.022434076            4 
 2494000   0.87108365   -7.4821865    682.37484  0.022800549  0.022427846            6 
 2495000   0.85770851   -7.4942363     682.6373  0.022800177  0.022421613            3 
 2496000   0.84023971   -7.4994689    682.66191  0.022791864  0.022415386            2 
 2497000   0.84986637   -7.5197087    683.27637  0.022803243  0.022409149            3 
 2498000   0.85096925    -7.533799    681.88912  0.022747836  0.022402885            1 
 2499000   0.85228108   -7.4838018    681.99855  0.022742382   0.02239661            2 
 2500000   0.86600227   -7.5304844    682.96345  0.022765448  0.022390374            3 
 2501000   0.84387555   -7.5327539    683.01035  0.022757908  0.022384109            3 
 2502000   0.83780082   -7.5288618    681.18213  0.022687921  0.022377837            2 
 2503000    0.8466441   -7.5179821    683.17444  0.022745187  0.022371553            4 
 2504000   0.84936207    -7.474841    684.78803  0.022789804  0.022365346            4 
 2505000   0.84768828   -7.5112767     682.1679  0.022693543  0.022359132            4 
 2506000   0.85850799   -7.5220002    682.64084  0.022700214  0.022352864            1 
 2507000   0.83733884    -7.492967     682.8322   0.02269752  0.022346645            3 
 2508000   0.85738558   -7.5266178    682.12336  0.022664917  0.022340411            2 
 2509000   0.83602898   -7.5030313    682.46278  0.022667158  0.022334141            4 
 2510000     0.853012   -7.4783818    682.60415   0.02266282  0.022327947            2 
 2511000   0.84677479   -7.4797017    684.56047   0.02271872  0.022321752            7 
 2512000   0.84356087   -7.4835946    684.21822  0.022698322  0.022315623            2 
 2513000   0.84091707   -7.5055749    684.92524  0.022712735  0.022309458            2 
 2514000   0.87690771   -7.5183596    683.27428  0.022648975  0.022303238            2 
 2515000   0.83908948   -7.5158337    684.76859  0.022689483   0.02229706            2 
 2516000   0.83900555   -7.5022228    683.01797  0.022622482  0.022290874            3 
 2517000   0.83258314   -7.5310601    683.10889  0.022616504  0.022284625            2 
 2518000   0.85680081   -7.5347986    684.65289  0.022658621  0.022278371            2 
 2519000   0.85296224   -7.5167719     683.2043  0.022601704  0.022272143            5 
 2520000   0.85900788   -7.5011108    683.35737  0.022597797  0.022265903            5 
 2521000    0.8523876   -7.4729866    685.96823  0.022675136  0.022259687            3 
 2522000    0.8417361    -7.537157    683.53932  0.022585888  0.022253439            3 
 2523000   0.84165976   -7.5146139    684.12539  0.022596294  0.022247166            4 
 2524000   0.84880787   -7.5293535    682.50979     0.022534  0.022240917            3 
 2525000   0.82876687    -7.534128    683.74044  0.022565691  0.022234647            5 
 2526000   0.84961864   -7.5133063    684.52308  0.022582577  0.022228388            5 
 2527000   0.84911005   -7.5070859    686.61949  0.022642774    0.0222222            2 
 2528000   0.85125842   -7.5230668    685.64213    0.0226016  0.022215989            3 
 2529000   0.85221588   -7.5188258    684.73329  0.022562715  0.022209775            3 
 2530000   0.84495006   -7.5083283    684.96419  0.022561403  0.022203569            2 
 2531000   0.84603838    -7.503683    685.26047  0.022562244  0.022197349            6 
 2532000   0.86751345   -7.5011795    685.12592  0.022548905  0.022191161            6 
 2533000   0.85398957   -7.5012898    684.32301  0.022513587  0.022184918            3 
 2534000   0.84242884   -7.5221928    684.51055  0.022510871  0.022178686            7 
 2535000   0.83848981   -7.5165612    685.84576  0.022545883  0.022172447            3 
 2536000   0.84459473   -7.5146126     685.6021  0.022528986  0.022166215            5 
 2537000   0.83703392   -7.4807487    686.73508  0.022557321  0.022160001            4 
 2538000   0.83683559   -7.5156672    684.70228  0.022481688  0.022153782            6 
 2539000   0.85414136   -7.4733806    686.48609   0.02253138  0.022147569            4 
 2540000   0.83808166   -7.5060256    686.49695  0.022522866    0.0221414            3 
 2541000   0.84212114   -7.5165346    685.94552  0.022495918  0.022135162            3 
 2542000   0.85129997   -7.5146745    685.97376  0.022487994  0.022128934            4 
 2543000   0.84087947   -7.5029346    685.78048  0.022472817  0.022122706            4 
 2544000   0.85255013   -7.5028353    684.38186  0.022418169  0.022116438            4 
 2545000   0.84470011   -7.5099452    685.61272  0.022449663  0.022110185            4 
 2546000   0.86515287   -7.5227577    684.19397  0.022394409  0.022103919            5 
 2547000   0.83722172   -7.4846134    686.67685  0.022466851   0.02209765            5 
 2548000   0.86182285   -7.5015156    685.50579  0.022419734  0.022091421            1 
 2549000   0.84779299   -7.5217762    685.18462  0.022400439   0.02208518            2 
 2550000   0.84708542   -7.5134885    686.40179  0.022431431  0.022078956            2 
 2551000   0.85512618   -7.5378895    686.68757  0.022431973  0.022072776            2 
 2552000   0.84465351   -7.5389241    685.17993  0.022373953   0.02206653            5 
 2553000   0.83595125   -7.5206608    685.05663  0.022361164  0.022060255            3 
 2554000   0.85028536   -7.5225962    686.37986  0.022395584  0.022054014            3 
 2555000   0.86506827   -7.5378575    685.56523  0.022360249  0.022047782            3 
 2556000   0.82551993   -7.5199377    685.23672   0.02234079  0.022041509            2 
 2557000   0.84058759   -7.5468944    685.11325  0.022328029  0.022035247            2 
 2558000   0.83817014   -7.5320254    685.68338  0.022337874  0.022028968            3 
 2559000   0.84350806   -7.5175958    686.29828  0.022349169  0.022022735            3 
 2560000   0.82959568   -7.5249232    686.33303   0.02234157  0.022016514            3 
 2561000   0.82387265    -7.519728    685.33467   0.02230036  0.022010281            2 
 2562000   0.84014987   -7.5515032    687.23004  0.022353306     0.022004            2 
 2563000   0.85590179   -7.5498844    687.78972  0.022362782  0.021997736            2 
 2564000   0.83394418   -7.5193083    687.40884  0.022341681  0.021991501            1 
 2565000   0.83575072   -7.5271559    687.32758  0.022330331  0.021985277            3 
 2566000   0.83969598   -7.5342205    687.18701  0.022317063  0.021979037            1 
 2567000   0.84647337   -7.5488176    687.13803  0.022306779  0.021972752            5 
 2568000   0.83480303   -7.5378131    687.81605  0.022320095   0.02196652            3 
 2569000   0.85686034   -7.5312442     687.6176  0.022304969  0.021960264            3 
 2570000   0.85347445   -7.5398188    686.84631  0.022271281  0.021954001            2 
 2571000   0.82872874   -7.5134138    687.18823  0.022273701  0.021947745            3 
 2572000   0.85537226   -7.5314055    686.30281  0.022236354  0.021941498            5 
 2573000   0.84417105   -7.5419239    687.59381  0.022269524  0.021935204            4 
 2574000   0.82085587   -7.5205953     689.5647  0.022324679  0.021928961            7 
 2575000    0.8518275   -7.5314692    687.06381  0.022235075  0.021922723            2 
 2576000   0.85142547   -7.5361221     689.3268  0.022299651  0.021916483            3 
 2577000   0.85086756   -7.5294304    686.77364  0.022208435  0.021910227            2 
 2578000   0.82787937   -7.5081864    688.57003  0.022257888  0.021903969            1 
 2579000   0.84607525   -7.5352777    689.78865  0.022288634  0.021897743            1 
 2580000   0.83067027   -7.5150322    688.96991   0.02225355  0.021891535            2 
 2581000   0.83498659   -7.5650786     687.7968  0.022207052  0.021885324            2 
 2582000   0.83997822   -7.5493771    689.11455  0.022240981   0.02187909            7 
 2583000   0.83201938   -7.5428497    688.73014  0.022219968  0.021872838            1 
 2584000   0.83349835   -7.5268031    689.35782  0.022231612  0.021866649            1 
 2585000   0.84920666    -7.555552    688.80721  0.022205262  0.021860449            3 
 2586000   0.83319582   -7.5280242    687.06563  0.022140553  0.021854167            3 
 2587000   0.81805774   -7.5158183    688.46054  0.022176928  0.021847939            2 
 2588000   0.84202622   -7.5409944    686.77865  0.022114202  0.021841691            3 
 2589000   0.83716228   -7.5430114    688.40142  0.022157893  0.021835441            2 
 2590000   0.84497601   -7.4981102    690.09809  0.022203928   0.02182919            2 
 2591000   0.82506117   -7.5199764     688.6964  0.022150277  0.021822915            3 
 2592000   0.82901114   -7.5332678    689.72538  0.022174813  0.021816647            3 
 2593000   0.84785183   -7.5629806    691.02514  0.022208032  0.021810399            3 
 2594000   0.84956019   -7.5506734     689.2238  0.022141602  0.021804143            4 
 2595000   0.81131087   -7.5439429    689.39384  0.022138531  0.021797923            5 
 2596000   0.83261937   -7.5021975    690.66326  0.022170752  0.021791714            4 
 2597000   0.83204965    -7.532052    690.14295  0.022145519  0.021785563            8 
 2598000   0.85168389   -7.5239156    690.70165  0.022154916  0.021779386            2 
 2599000   0.85160727   -7.5753316    689.22099  0.022098916  0.021773196            3 
 2600000   0.85282823   -7.5582474    688.95225  0.022081803  0.021766984            3 
 2601000    0.8310038   -7.5266038    691.76538  0.022163443  0.021760745            4 
 2602000   0.83828475    -7.534455    690.92312   0.02212795  0.021754551            4 
 2603000   0.82509363   -7.5488394    691.30206  0.022131581  0.021748382           10 
 2604000   0.83198884    -7.532711    691.75588  0.022137605  0.021742243            3 
 2605000   0.84889107   -7.5650078    690.59755  0.022092052  0.021736018            5 
 2606000   0.84652449   -7.5073117    689.98957  0.022064133  0.021729847            4 
 2607000   0.84572931   -7.5355692    690.88947  0.022084435  0.021723692            3 
 2608000   0.83053088   -7.5513334    690.98909   0.02207915  0.021717507            5 
 2609000   0.83230947   -7.5666318    690.81402  0.022065096  0.021711345            6 
 2610000   0.84244658   -7.5654195     691.4458  0.022076814  0.021705143            3 
 2611000    0.8390235   -7.5391396    689.36404  0.022001916  0.021698973            3 
 2612000   0.82296878   -7.5257884    691.03567  0.022046825  0.021692818            2 
 2613000   0.84072509   -7.5462193    690.61611  0.022025007  0.021686648            3 
 2614000   0.85281564   -7.5376013    693.59987  0.022111702  0.021680535            5 
 2615000   0.84512296   -7.5312165    691.10881  0.022023863  0.021674411            3 
 2616000     0.842794   -7.5350401    690.61623  0.021999753  0.021668233            5 
 2617000   0.83345297   -7.5372582    691.73235  0.022026887  0.021662043            3 
 2618000   0.82549956   -7.5666663    690.60029  0.021982439  0.021655859            5 
 2619000    0.8369838   -7.5363346    693.00816  0.022050661  0.021649723            2 
 2620000   0.82607131   -7.5298204     692.3814  0.022022309  0.021643488            6 
 2621000   0.82701663   -7.5668595    692.23755  0.022009333  0.021637254            4 
 2622000   0.83716697   -7.5796327    691.52219  0.021978203  0.021631054            3 
 2623000   0.83018174   -7.5717738      693.256  0.022024908   0.02162492            2 
 2624000   0.84200983   -7.5575269    692.42094  0.021989994   0.02161879            2 
 2625000   0.80821587   -7.5574275    691.83473  0.021963007  0.021612658            3 
 2626000    0.8278846    -7.565716    694.05443  0.022025083  0.021606507            4 
 2627000   0.82287952   -7.5484582    692.92505  0.021980873  0.021600387            3 
 2628000   0.84790619   -7.5577899    692.14432  0.021947753  0.021594256            2 
 2629000   0.83636635   -7.5033982    693.28804  0.021975658  0.021588103            2 
 2630000   0.82966028   -7.5526415    692.80267  0.021951922  0.021581978            5 
 2631000   0.81933635   -7.5779457    693.33667  0.021960492   0.02157582            5 
 2632000   0.81767814   -7.5357056    694.79712  0.021998389  0.021569638            4 
 2633000   0.83561999   -7.5698997    693.44352  0.021947193  0.021563482            3 
 2634000   0.82410676   -7.5370373    693.25304  0.021932835  0.021557333            2 
 2635000   0.81719524   -7.5385227    694.11495  0.021951769  0.021551203            2 
 2636000   0.84235917   -7.5432283    694.39549  0.021952311  0.021545085            3 
 2637000   0.84498082   -7.5383267    695.77222  0.021987493  0.021538996            1 
 2638000   0.84225427    -7.542805    694.26972  0.021931695  0.021532877            3 
 2639000   0.82790131   -7.5296645    696.39462  0.021990483  0.021526775            1 
 2640000   0.82529786   -7.5855153    693.01437  0.021875454  0.021520691            2 
 2641000   0.82827233   -7.5566572     694.8641  0.021925536  0.021514571            3 
 2642000   0.82717851   -7.5495098    695.42407    0.0219349    0.0215085            3 
 2643000   0.84555116   -7.5551093     694.8055  0.021907097  0.021502438            2 
 2644000   0.82421956   -7.5688895    695.35514  0.021916135  0.021496388            3 
 2645000   0.81916869   -7.5469614    695.80288  0.021921956  0.021490357            2 
 2646000   0.82551411   -7.5425832    695.55159  0.021905757  0.021484331            3 
 2647000   0.83135814   -7.5029555    693.91514  0.021845962  0.021478261            5 
 2648000   0.83396461   -7.5631165    695.40865  0.021884713  0.021472204            4 
 2649000   0.81989101   -7.5486929    695.36126  0.021874961  0.021466154            3 
 2650000   0.82272303   -7.5505489    696.34775  0.021897728    0.0214601            4 
 2651000    0.8308297   -7.5559413    695.51576  0.021863315  0.021454047            2 
 2652000   0.82082997   -7.5255799    696.12417  0.021874188  0.021447994            4 
 2653000   0.84152766   -7.5453436    696.84296  0.021888521  0.021441987            1 
 2654000    0.8064165   -7.5167783    698.72455  0.021939354   0.02143599            2 
 2655000   0.82746988   -7.5509094    697.98376  0.021907839  0.021430019            2 
 2656000   0.82418469   -7.5514353    694.38795  0.021786771  0.021424036            3 
 2657000   0.82912959   -7.5599315    695.79825  0.021822803  0.021418025            2 
 2658000   0.81769675   -7.5620212    697.83888   0.02187857  0.021412011            4 
 2659000   0.81233951   -7.5710253    695.84201   0.02180776  0.021405971            5 
 2660000   0.81256276   -7.5475714    696.68438  0.021825952  0.021399956            3 
 2661000   0.81836467    -7.548167    695.82493  0.021790835  0.021393938            4 
 2662000   0.80781166   -7.5706309    696.30034  0.021797531   0.02138793            6 
 2663000   0.81920406   -7.5566414    695.77335  0.021772855  0.021381881            5 
 2664000   0.83434833   -7.5754275    696.89607  0.021799802  0.021375855            2 
 2665000    0.7984384   -7.5882562    697.55021  0.021812077   0.02136982            2 
 2666000   0.80763041   -7.5457967    697.06363  0.021788686   0.02136378            5 
 2667000   0.83392365   -7.5772208    696.30455  0.021756798  0.021357715            4 
 2668000   0.83109092   -7.5667424    696.31026  0.021748821  0.021351612            3 
 2669000   0.82345303   -7.5679606       696.24  0.021738479  0.021345543            4 
 2670000   0.82021325   -7.5379413     698.4181  0.021798318  0.021339477            5 
 2671000   0.83423439   -7.5654318    695.77734  0.021707767  0.021333398            2 
 2672000   0.82503145   -7.5890836    695.76034  0.021699113  0.021327288            3 
 2673000   0.81696672   -7.5691947    697.32235  0.021739692  0.021321142            4 
 2674000   0.82894162   -7.6038087    697.33285  0.021731889  0.021314992            3 
 2675000   0.82312973    -7.613868     696.1772  0.021687763  0.021308848            3 
 2676000    0.8203937   -7.5890521    698.76584  0.021760272  0.021302739            5 
 2677000   0.80965809   -7.5849674    697.11849  0.021700862  0.021296686            4 
 2678000   0.81670514   -7.5758252    696.99639  0.021688959  0.021290628            6 
 2679000   0.81006423   -7.5545006    698.19615  0.021718183  0.021284553            3 
 2680000   0.80880651    -7.611298    696.18058  0.021647406  0.021278477            2 
 2681000   0.81464824   -7.5691879    697.13919  0.021669128  0.021272379            2 
 2682000   0.81651537   -7.5221043    698.12902  0.021691804  0.021266327            2 
 2683000   0.83328289   -7.5820915     698.2381  0.021687107  0.021260282            3 
 2684000   0.83519203   -7.5426773    698.42896  0.021684953  0.021254224            2 
 2685000   0.83207641   -7.5652478    697.49534    0.0216479  0.021248139            5 
 2686000   0.81590191   -7.5694773    697.18511  0.021630216  0.021242076            4 
 2687000    0.8149305   -7.6042258     696.9504  0.021614887  0.021235992            4 
 2688000   0.83191019   -7.5832762     697.4092  0.021621069  0.021229898            3 
 2689000   0.81938992   -7.5657344     696.8559  0.021595881  0.021223772            4 
 2690000   0.81856841   -7.5760266    698.47783  0.021638099  0.021217635            3 
 2691000   0.82658324   -7.6102563     698.1712  0.021620562  0.021211526            2 
 2692000   0.83213923   -7.5730142    698.57013   0.02162488   0.02120542            2 
 2693000   0.80967803   -7.5753537    697.07057  0.021570447  0.021199311            2 
 2694000   0.83003559   -7.5603467    697.87473  0.021587315   0.02119321            4 
 2695000   0.82533656   -7.5807036    699.36205  0.021625295  0.021187106            6 
 2696000   0.79707196   -7.5406892    698.37004  0.021586611  0.021181021            5 
 2697000   0.82408757   -7.5883213    697.38998  0.021548325  0.021174977            4 
 2698000   0.82160283   -7.5996085    697.24066  0.021535726   0.02116888            3 
 2699000    0.8229843    -7.595769    698.21585  0.021557856  0.021162767            5 
 2700000   0.82111643   -7.5510847    699.53363  0.021590544   0.02115669            2 
 2701000   0.82146979   -7.6268213    697.28082  0.021513045  0.021150577            3 
 2702000   0.82306291   -7.5933931    698.74325  0.021550187  0.021144452            2 
 2703000   0.82199134   -7.5826692    696.15005  0.021462266  0.021138339            2 
 2704000    0.8239983   -7.6017586     698.3734  0.021522849  0.021132207            2 
 2705000   0.81524875   -7.5719254    698.94541  0.021532514  0.021126071            3 
 2706000   0.81249743   -7.5888049    698.25158   0.02150319  0.021119966            2 
 2707000   0.79785789   -7.6070692    698.73381  0.021510091  0.021113855            2 
 2708000    0.8128938   -7.6082258    698.64578  0.021499439  0.021107744            1 
 2709000   0.83002159   -7.5871347    699.18696  0.021508151  0.021101637            4 
 2710000   0.82853026   -7.5845004    698.35268   0.02147456  0.021095525            2 
 2711000   0.81953366   -7.5903656    698.44124  0.021469361  0.021089419            3 
 2712000   0.79800168   -7.6042821    699.01029   0.02147893  0.021083288            2 
 2713000   0.82203546   -7.5822445    699.37277  0.021482147  0.021077145            4 
 2714000   0.80033215   -7.5581628    698.33984  0.021442515  0.021071003            7 
 2715000   0.81390414   -7.5875988    698.77253  0.021447898  0.021064877            5 
 2716000   0.81573953   -7.5963849    696.52372  0.021371003  0.021058726            5 
 2717000   0.81522455   -7.5816357    698.24341  0.021415882  0.021052593            4 
 2718000   0.82152057   -7.5768065    699.45648  0.021445195  0.021046476            3 
 2719000   0.80472028   -7.5377321    700.15579  0.021458741  0.021040346            3 
 2720000    0.8086317   -7.5540867    701.03773  0.021477872  0.021034282            2 
 2721000   0.81623354   -7.5901799    698.68586   0.02139795  0.021028207            1 
 2722000   0.80512515   -7.6095416    700.55787    0.0214474  0.021022158            3 
 2723000   0.83650972   -7.5754757    700.05378  0.021424097  0.021016092            3 
 2724000   0.81437981   -7.5999946    699.24573  0.021391512  0.021010056            3 
 2725000   0.82195288   -7.5912781    701.41016  0.021449852  0.021003982            3 
 2726000   0.82079759   -7.5959086    699.04639  0.021369723  0.020997852            6 
 2727000   0.82340075   -7.5993158    698.17879  0.021335374  0.020991709            2 
 2728000   0.80967155   -7.5908715    699.16892  0.021357799  0.020985567            1 
 2729000   0.80782524   -7.5974701    699.31617  0.021354469  0.020979423            4 
 2730000   0.83407866    -7.584317     701.7456  0.021420806  0.020973291            2 
 2731000   0.80348174   -7.5661563    700.24405  0.021367144  0.020967223            3 
 2732000   0.81857691   -7.5847714    698.90714  0.021318544  0.020961184            5 
 2733000   0.79766907   -7.5959932    700.10188  0.021347173  0.020955051            4 
 2734000   0.81143178   -7.5884343    699.70146   0.02132716  0.020948932            7 
 2735000   0.80563726   -7.5985913    698.22047  0.021274237  0.020942801            4 
 2736000   0.81243849   -7.5936709     701.4153   0.02136377  0.020936684            3 
 2737000   0.81308848   -7.6100751    699.20266  0.021288596  0.020930589            7 
 2738000   0.81941715    -7.590739    701.77667  0.021359163  0.020924505            4 
 2739000   0.78901589   -7.5886612    700.88813  0.021324331  0.020918427            6 
 2740000   0.81829219   -7.6129881    699.88883  0.021286157  0.020912313            2 
 2741000   0.80662787   -7.6040117       699.64  0.021270826  0.020906198            2 
 2742000   0.79415966   -7.5697111    699.75269  0.021266493  0.020900092            2 
 2743000   0.80362388   -7.5900233    700.45905    0.0212802     0.020894            2 
 2744000   0.83278559   -7.5766617    702.22785  0.021326162  0.020887941            1 
 2745000   0.79053786   -7.6052263    701.38884  0.021292922  0.020881877            4 
 2746000     0.815916   -7.5622191    702.43405  0.021316887  0.020875814            2 
 2747000   0.80079393   -7.5877043    701.27051  0.021273829  0.020869768            1 
 2748000   0.78877482   -7.5778501    700.57179  0.021244899  0.020863707            3 
 2749000   0.80444435   -7.5779261     699.3239  0.021199342  0.020857616            5 
 2750000   0.80787962   -7.5866994    703.01837  0.021303587  0.020851539            3 
 2751000   0.80652569    -7.616236    700.22377  0.021211189  0.020845481            4 
 2752000    0.8172064   -7.5913015    700.71263  0.021218285  0.020839395            6 
 2753000   0.81299896   -7.6188982    700.64385  0.021208495  0.020833304            2 
 2754000   0.80316388   -7.6244502    701.25604  0.021219319  0.020827168            3 
 2755000    0.8239162    -7.584101    702.23181  0.021241132  0.020821075            3 
 2756000   0.80920759   -7.5962378     701.8441  0.021221701  0.020814983            3 
 2757000   0.81806723   -7.5874348    701.70848  0.021209905  0.020808896            3 
 2758000   0.80082209   -7.6039146    701.27231  0.021189035  0.020802812            3 
 2759000   0.79347587   -7.6085194    701.05117  0.021174676  0.020796725            6 
 2760000   0.79791057   -7.5681158     703.2147  0.021232328  0.020790655            2 
 2761000   0.82238172   -7.6143251    702.04034  0.021189193  0.020784571            3 
 2762000   0.81181747   -7.5852581    702.50189  0.021195447  0.020778494            2 
 2763000   0.81683987   -7.5949454    701.59378  0.021160387  0.020772396            4 
 2764000   0.81963781   -7.6066489    703.07947  0.021197524  0.020766362            4 
 2765000   0.81196013   -7.5809179    701.59748  0.021145192  0.020760338            3 
 2766000   0.79509427   -7.5887916    702.47575  0.021164008  0.020754299            2 
 2767000   0.81569145   -7.5883145      702.779  0.021165492   0.02074825            2 
 2768000   0.80572909   -7.5800399    702.79644  0.021158371  0.020742223            1 
 2769000   0.80361499   -7.5759075    702.94637  0.021155242  0.020736212            3 
 2770000    0.7958234    -7.608946    701.68611   0.02110969  0.020730209            2 
 2771000   0.80542174   -7.5700116    702.41228  0.021123911   0.02072419            2 
 2772000   0.80921116   -7.6199138    702.43544  0.021116987  0.020718159            1 
 2773000   0.81580165   -7.5996859    702.75029  0.021118833  0.020712137            3 
 2774000   0.80350581    -7.595609    703.47769  0.021133072  0.020706075            4 
 2775000   0.81155396   -7.5908291    701.42663  0.021063863  0.020700028            3 
 2776000   0.82053871   -7.6017405    702.64942  0.021092982  0.020694012            2 
 2777000   0.82070713   -7.6002316    701.92953  0.021063784  0.020688009            3 
 2778000   0.80113108    -7.592459    704.19838  0.021124261  0.020681989            4 
 2779000   0.82107813   -7.6011853    703.20845  0.021086975  0.020676017            7 
 2780000   0.79511813   -7.5867318    705.05855  0.021134849  0.020670041            4 
 2781000   0.80745621   -7.5977503    703.51029  0.021080855  0.020664037            3 
 2782000    0.8046213   -7.5827195    704.56689  0.021104927  0.020658063            4 
 2783000   0.80864323   -7.6013391    704.26285   0.02108824  0.020652101            4 
 2784000   0.79735968   -7.6015789    704.94827  0.021101182  0.020646132            1 
 2785000   0.79552879   -7.6356335    704.41736  0.021077719  0.020640131            2 
 2786000   0.80397322   -7.6088491    703.93466  0.021055715  0.020634124            2 
 2787000   0.80572047   -7.6184219    704.42327   0.02106277  0.020628116            3 
 2788000   0.78823121   -7.5955998    703.90924  0.021039851  0.020622142            2 
 2789000   0.80338994   -7.6045896    704.68195  0.021055395  0.020616191            5 
 2790000   0.80600588   -7.6033782    705.00886  0.021057612  0.020610243            4 
 2791000   0.81929967   -7.6111437    704.33554  0.021029964  0.020604321            3 
 2792000   0.78029258    -7.621817    705.75738  0.021064869  0.020598348            1 
 2793000   0.78642511   -7.6323884    705.01537  0.021035188  0.020592373            6 
 2794000   0.79428937   -7.6338477     704.9242   0.02102494  0.020586409            6 
 2795000   0.81729594   -7.6008081    705.26327  0.021027528  0.020580434            4 
 2796000   0.82948331   -7.5986002    706.58331   0.02105935  0.020574506            3 
 2797000   0.82436661   -7.6001798    704.83407  0.020999704  0.020568587            3 
 2798000   0.80960428   -7.6199941    705.99151  0.021026671  0.020562582            3 
 2799000   0.80315605   -7.6006602     706.0448  0.021020745  0.020556653            3 
 2800000   0.80527345   -7.5963301    704.99699  0.020982053  0.020550698            1 
 2801000   0.79066971   -7.5977579    708.19563  0.021069726  0.020544742            3 
 2802000   0.78616093   -7.5763008    707.41654  0.021039036  0.020538836            4 
 2803000    0.8080555      -7.5547    707.82375  0.021043636  0.020532967            3 
 2804000   0.81090322   -7.5950967    705.39324  0.020963898  0.020527048            2 
 2805000   0.79539317    -7.635692    704.43045  0.020927821  0.020521095            3 
 2806000   0.80293898   -7.6307695    706.25426  0.020974527  0.020515119            2 
 2807000     0.819546   -7.6203432    705.90759  0.020956762  0.020509166            4 
 2808000   0.81527022   -7.6312694    705.75422  0.020944748  0.020503242            2 
 2809000   0.80235829   -7.5936681    706.85234  0.020969869  0.020497314            3 
 2810000   0.79770427   -7.6374812    705.15208  0.020911983  0.020491368            5 
 2811000   0.80430813   -7.6448857    704.62514  0.020888923  0.020485396            3 
 2812000   0.82169474   -7.6396903    706.03075  0.020923149  0.020479439            4 
 2813000   0.80707695   -7.6027755    707.11383  0.020947797   0.02047346            2 
 2814000   0.79211688    -7.634606    705.30858  0.020886892  0.020467537            2 
 2815000   0.81739776   -7.6288538    706.40919  0.020912054  0.020461548            5 
 2816000   0.79101569   -7.6502682    706.30763  0.020901623  0.020455552            6 
 2817000   0.78914651   -7.6305739    707.12175  0.020918286   0.02044955            5 
 2818000   0.80525198   -7.6283137    706.37179  0.020888686  0.020443564            3 
 2819000   0.79841378   -7.6254201    705.72245   0.02086208  0.020437569            2 
 2820000   0.81884862   -7.6584678    705.78579  0.020856554  0.020431594            3 
 2821000   0.80584575   -7.6262711    704.94039  0.020824187  0.020425639            3 
 2822000   0.79092162   -7.6458905    707.90061  0.020904223  0.020419681            4 
 2823000   0.79611211   -7.6223494    704.37433  0.020792724  0.020413723            4 
 2824000   0.78242618   -7.6314661    706.84181  0.020858174  0.020407789            6 
 2825000   0.81140304    -7.634296    707.94424  0.020883311  0.020401827            1 
 2826000   0.80638241    -7.640415    706.49579  0.020833209  0.020395829            4 
 2827000    0.8355106   -7.6326785     705.4124  0.020793904  0.020389863            2 
 2828000   0.79944666   -7.6660223    705.15451  0.020778952  0.020383872            4 
 2829000   0.79355311   -7.6435051    707.06605  0.020827915   0.02037793            6 
 2830000   0.80516375    -7.604138     706.4295  0.020801811  0.020372004            2 
 2831000   0.79804907   -7.6475838    705.97685  0.020781139   0.02036606            4 
 2832000   0.80228233   -7.6251229    707.85578  0.020829089  0.020360128            3 
 2833000   0.82004079   -7.6210503    707.20899  0.020802712  0.020354204            5 
 2834000   0.81715711   -7.6077391    707.13869  0.020793304  0.020348297            3 
 2835000   0.78705634   -7.5862689    706.89097  0.020778688  0.020342365            2 
 2836000   0.79647762    -7.625597    709.02014  0.020833925  0.020336448            6 
 2837000   0.79664693   -7.5929038    708.79874  0.020820078  0.020330531            2 
 2838000   0.80578829   -7.6528552    708.66526  0.020808822  0.020324607            7 
 2839000   0.80395582   -7.6349623    706.10954  0.020726475  0.020318683            5 
 2840000   0.80486509    -7.614705    708.16278  0.020779424  0.020312756            1 
 2841000   0.79754764   -7.6335048    707.12849  0.020741772  0.020306831            6 
 2842000   0.79299053   -7.6268457     706.9669  0.020729736  0.020300899            2 
 2843000    0.7835207   -7.6119475    709.50637   0.02079688  0.020294984            1 
 2844000    0.7860288   -7.6172884    707.74932  0.020738084  0.020289062            5 
 2845000   0.80787363   -7.6167682    707.24585  0.020716047  0.020283139            5 
 2846000   0.80336002   -7.6136988     708.9766  0.020759446  0.020277201            4 
 2847000   0.80356778   -7.6483456    706.65568   0.02068422  0.020271265            8 
 2848000   0.81882953   -7.6293394    707.46068  0.020700512  0.020265321            5 
 2849000    0.7848008   -7.6281871    708.06171  0.020710826  0.020259331            2 
 2850000   0.79069278   -7.6201884    709.71819  0.020751994  0.020253377            2 
 2851000   0.79796725   -7.6069403    709.34024  0.020733668  0.020247462            2 
 2852000   0.80959946   -7.6210145    706.97803  0.020657376  0.020241521            2 
 2853000   0.79769468   -7.6502779    707.92497  0.020677794  0.020235567            2 
 2854000   0.80874105   -7.6335708    707.75053  0.020665456  0.020229623            5 
 2855000   0.78487177   -7.6571565    707.31808  0.020645595  0.020223685            4 
 2856000   0.79684849   -7.6421491    709.08609  0.020689954  0.020217771            2 
 2857000    0.7957529   -7.6243916    708.83064  0.020675261  0.020211841            1 
 2858000   0.80765028   -7.6275325    707.75426  0.020636641  0.020205894            2 
 2859000   0.77443626   -7.6649711    708.55622  0.020652799  0.020199969            3 
 2860000   0.77766606   -7.6701594    707.99408  0.020629198  0.020193996            3 
 2861000   0.80942647    -7.655857    707.96395   0.02062111  0.020188029            3 
 2862000   0.80818399   -7.6633546    707.00746  0.020586055  0.020182078            4 
 2863000   0.79576898   -7.6391084    707.30741  0.020587595  0.020176155            4 
 2864000   0.78698946   -7.6673305    708.41459  0.020612622  0.020170227            3 
 2865000   0.79635095   -7.6377014    708.26759  0.020601152  0.020164275            6 
 2866000   0.79305657   -7.6611015     706.7058  0.020548552  0.020158322            5 
 2867000   0.79273903   -7.6531032    708.26247  0.020586632  0.020152368            3 
 2868000   0.79444351    -7.645125    709.00647  0.020601071  0.020146426            2 
 2869000   0.79898842   -7.6429986    708.77549  0.020587182  0.020140461            8 
 2870000   0.79197623   -7.6304604    709.30671  0.020595433  0.020134511            6 
 2871000   0.79615524    -7.628505    709.66272  0.020598593  0.020128605            3 
 2872000   0.79498318   -7.6594816    708.66752  0.020562544  0.020122689            5 
 2873000   0.80726706   -7.6603343     710.6908  0.020614073  0.020116776            3 
 2874000   0.78183096   -7.6396855    708.59116  0.020546021  0.020110872            3 
 2875000   0.78571577   -7.6410877    709.06037  0.020552474  0.020104958            3 
 2876000    0.7997325   -7.6552192    710.35244  0.020582767  0.020099071            3 
 2877000   0.80433849   -7.6823272    709.56405  0.020552776  0.020093171            4 
 2878000   0.79993589   -7.6731722    709.91714  0.020555859  0.020087273            1 
 2879000   0.79911173   -7.6447858    709.82864  0.020546157  0.020081389            5 
 2880000   0.81589256   -7.6149907    711.24293  0.020579946   0.02007551            2 
 2881000   0.77630897   -7.6550029    709.63175  0.020526199  0.020069646            4 
 2882000   0.77560182    -7.659397    709.01724  0.020501308  0.020063741            5 
 2883000   0.78590575   -7.6527929    710.81837  0.020546259  0.020057832            3 
 2884000   0.78289416   -7.6461207    710.37497  0.020526323  0.020051928            2 
 2885000   0.79846873   -7.6601466    709.85096  0.020504072  0.020046029            2 
 2886000   0.77672512   -7.6359117    712.19309  0.020564596  0.020040163            5 
 2887000   0.77422124   -7.6209392    712.43833  0.020564552  0.020034284            2 
 2888000   0.79269229   -7.6375935    711.46174  0.020529252  0.020028425            5 
 2889000   0.80421493   -7.6243497    708.84408  0.020446639  0.020022542            7 
 2890000   0.80880839   -7.6254265    712.29576  0.020539093  0.020016692            2 
 2891000   0.78238616   -7.6346433     711.2737  0.020502528  0.020010863            4 
 2892000    0.7997058   -7.6311405    710.20761  0.020464719  0.020005014            2 
 2893000   0.77607169   -7.6664549    711.20233  0.020486298  0.019999159            4 
 2894000   0.77840754   -7.6541631    711.08459  0.020475829  0.019993286            5 
 2895000   0.79855176   -7.6858953    710.08039   0.02043985  0.019987403            3 
 2896000     0.788874   -7.6645581    709.09787   0.02040452  0.019981511            3 
 2897000   0.78726127   -7.6752157    709.76738  0.020416735  0.019975587            3 
 2898000   0.79748929   -7.6787818     711.0782  0.020447383  0.019969687            4 
 2899000   0.80041709   -7.6595082    711.97594  0.020466136  0.019963824            1 
 2900000    0.7744248   -7.6349783    711.12941  0.020434753  0.019957936            3 
 2901000   0.77555425   -7.6497477    710.62565  0.020413238   0.01995201            4 
 2902000   0.78999454   -7.6645371    710.79159  0.020410969  0.019946093            3 
 2903000   0.77796788   -7.6622915    711.98742  0.020438266  0.019940163            7 
 2904000   0.76791464   -7.6483517     710.6184  0.020391942    0.0199343            2 
 2905000   0.77909234     -7.68529    710.75891  0.020388953  0.019928428            2 
 2906000   0.79199198   -7.6502919    710.52238  0.020375154  0.019922551            2 
 2907000   0.79303863   -7.6703626    710.07945  0.020355448  0.019916671            4 
 2908000   0.79135981   -7.6624816    710.85614  0.020370705   0.01991081            4 
 2909000   0.78990749   -7.6559165    711.61483  0.020385437  0.019904935            3 
 2910000   0.79381055   -7.6498654    712.09317   0.02039213  0.019899071            2 
 2911000   0.78653583   -7.6472511    712.01353  0.020382845  0.019893217            3 
 2912000   0.78695381   -7.7033827    709.94964  0.020316782  0.019887341            3 
 2913000   0.77912226   -7.6572715    712.40164  0.020379953  0.019881463            3 
 2914000   0.79592396   -7.6432019    710.92726  0.020330796  0.019875646            3 
 2915000   0.78750481   -7.6573505    711.80591   0.02034894   0.01986982            3 
 2916000   0.77762524   -7.6233971    712.58003  0.020364084  0.019864024            2 
 2917000   0.76178707   -7.6719542     712.2116  0.020346578  0.019858204            2 
 2918000   0.79903482   -7.6609804    712.37644  0.020344312  0.019852373            4 
 2919000   0.78241132   -7.6905056    711.20625  0.020303935  0.019846518            6 
 2920000   0.78673471   -7.6690953    712.00947  0.020319905  0.019840666            3 
 2921000   0.77825968   -7.6628983    711.03188  0.020285059  0.019834828            3 
 2922000   0.80158267   -7.6486699    713.24929  0.020341355   0.01982899            6 
 2923000   0.80878147   -7.6882666    711.22945  0.020276812  0.019823151            2 
 2924000   0.78745231   -7.6420693    711.71746  0.020283785  0.019817327            3 
 2925000   0.79984948    -7.633434    713.99503  0.020341739  0.019811534            2 
 2926000   0.77531249   -7.6632109     711.2456  0.020256482  0.019805714            8 
 2927000   0.79940659   -7.6458643    713.59389  0.020316419  0.019799886           17 
 2928000   0.79702665   -7.6581727    713.06376  0.020294392  0.019794101            5 
 2929000   0.79172814   -7.6553064    712.17668  0.020262225  0.019788279            4 
 2930000   0.78264401   -7.6719067      711.471  0.020235239  0.019782437            5 
 2931000   0.77775271   -7.6689889    714.20415  0.020306043  0.019776628            2 
 2932000   0.78976256   -7.6832283    712.61547  0.020253964  0.019770796            3 
 2933000   0.78260572   -7.6760412    712.69006  0.020249178  0.019764952            3 
 2934000   0.78873511   -7.6693583    712.58624  0.020239328  0.019759101            3 
 2935000   0.76938322   -7.6875899    711.93033  0.020213808  0.019753211            1 
 2936000   0.76059907   -7.6764291    712.95288  0.020235947  0.019747312            2 
 2937000    0.7759469   -7.6747854    712.36856  0.020212478  0.019741463            2 
 2938000   0.77914057     -7.67896    712.95535  0.020222242  0.019735639            3 
 2939000   0.77626716    -7.651981    712.75296  0.020209622   0.01972983            5 
 2940000   0.78259378   -7.6654884    712.86953  0.020206052  0.019724008            2 
 2941000   0.78787291   -7.6702027    711.31783  0.020155215  0.019718178            3 
 2942000   0.77999003   -7.6331854    712.53411  0.020182815  0.019712348            2 
 2943000    0.7667519   -7.6444684    712.00057   0.02016085  0.019706523            3 
 2944000   0.77248461   -7.6609281    712.32449  0.020163171  0.019700679            2 
 2945000   0.77862523    -7.666113    713.63501  0.020193407   0.01969481            3 
 2946000   0.77009464   -7.6695525    712.53705  0.020155495  0.019688964            3 
 2947000   0.77176641   -7.6463041    713.81133  0.020184689  0.019683138            6 
 2948000   0.77804752   -7.6692628     712.2016  0.020132338  0.019677284            5 
 2949000    0.7670654   -7.6798691    712.52519  0.020134655  0.019671439            5 
 2950000   0.77444487   -7.6795508    714.13616  0.020173338   0.01966559            5 
 2951000   0.78915849   -7.6869103    711.86922  0.020102486  0.019659748            3 
 2952000   0.77005015   -7.6688629     714.4973  0.020169865  0.019653947            2 
 2953000   0.78357193   -7.6797893     714.3959  0.020160173  0.019648151            3 
 2954000   0.78636671   -7.6686971    713.13251  0.020117708  0.019642314            3 
 2955000    0.7980229   -7.6810518     714.0901  0.020137905  0.019636477            5 
 2956000   0.78890962   -7.6805252    714.35121  0.020138453  0.019630619            2 
 2957000   0.77005753   -7.6557449    714.11788  0.020125067  0.019624763            3 
 2958000   0.76486865   -7.6796856    713.25962  0.020094085  0.019618935            2 
 2959000   0.77987213   -7.6880671    712.02883  0.020052631  0.019613088            2 
 2960000   0.77401937   -7.7085637    713.41311  0.020084829  0.019607244            4 
 2961000   0.77707561   -7.7099863     713.6241  0.020083983  0.019601382            6 
 2962000   0.76112743   -7.6782943    715.40286  0.020127247  0.019595552            5 
 2963000   0.77356882   -7.6904718    713.62491   0.02007045  0.019589691           10 
 2964000   0.77551625   -7.6946734    713.09898  0.020048892  0.019583829            3 
 2965000   0.76642056   -7.6517954    712.67935  0.020030336  0.019577982            3 
 2966000   0.78176147   -7.6818419    712.89136  0.020029539  0.019572164            2 
 2967000   0.78912343   -7.6649286    713.59861  0.020042653  0.019566342            5 
 2968000   0.78716601   -7.6668064    714.15111  0.020051413  0.019560495            2 
 2969000   0.76806043   -7.6750932    712.46146  0.019997234  0.019554634            4 
 2970000   0.77610648   -7.6767679    713.57466  0.020021736  0.019548787            2 
 2971000   0.77972377   -7.6836499    714.23003  0.020033379  0.019542959            3 
 2972000   0.76386331   -7.6504552    715.48228  0.020061751  0.019537195            4 
 2973000   0.75822382   -7.6709113    714.21685  0.020019533  0.019531412            3 
 2974000   0.77367081   -7.6882417    715.06105  0.020036456   0.01952562            3 
 2975000   0.75817218   -7.6967612    716.22358  0.020062285   0.01951981            7 
 2976000   0.77500132   -7.6719454    714.70368  0.020012984  0.019513986            3 
 2977000   0.76966308   -7.6388567    713.87737  0.019983131  0.019508185            2 
 2978000   0.76273357   -7.6726567    713.63267  0.019969573   0.01950236            8 
 2979000   0.77550147    -7.692415    712.52487  0.019931881  0.019496501            2 
 2980000   0.77710933   -7.6615322    714.97478  0.019993702  0.019490641            2 
 2981000   0.78205916   -7.6839338    713.82278  0.019954791  0.019484787            3 
 2982000   0.77481222   -7.6887104    715.76226  0.020002299  0.019478959            4 
 2983000   0.78561476   -7.6915547    712.78799  0.019912504    0.0194731            2 
 2984000    0.7925154   -7.7135638     714.8378  0.019963075  0.019467214            4 
 2985000   0.75787028   -7.6969846     712.9114  0.019902607  0.019461306            6 
 2986000   0.76455835     -7.68029    714.06366    0.0199281  0.019455448            3 
 2987000   0.76011703   -7.6758536    715.21031  0.019953418  0.019449625            2 
 2988000   0.76593583   -7.6727228     714.9085  0.019938323  0.019443825            3 
 2989000   0.75570644   -7.6794865    714.77634  0.019927968  0.019438015            1 
 2990000   0.76850162   -7.6857479    714.67549  0.019918492  0.019432206            8 
 2991000   0.78520818   -7.6790701    714.59336  0.019909544  0.019426384            3 
 2992000    0.7773479   -7.6817665    714.61784  0.019903572  0.019420562            3 
 2993000   0.76886465   -7.6860367    714.04023  0.019880839  0.019414732            3 
 2994000   0.79273144    -7.688631    714.25157  0.019880081  0.019408913            1 
 2995000   0.78275339   -7.6948538    714.96888  0.019893402  0.019403101            2 
 2996000   0.78398962   -7.6628341    714.36571  0.019869985  0.019397302            3 
 2997000   0.76779881   -7.6794978    713.50944  0.019839546  0.019391525            4 
 2998000   0.76077606   -7.6732028    713.35483  0.019828631  0.019385719            2 
 2999000   0.78430628   -7.6726576    716.85353  0.019919238  0.019379944            5 
 3000000   0.77875096    -7.682327     716.4568  0.019901578  0.019374141            5 
 3001000   0.77433706   -7.7029814    715.17856  0.019859451  0.019368344            2 
 3002000   0.76392226    -7.673719    714.95202  0.019846547  0.019362543            4 
 3003000   0.77253842   -7.6936215    714.33348  0.019822774  0.019356732            9 
 3004000   0.76318294   -7.6915641    715.55335  0.019850015  0.019350932            6 
 3005000   0.78187953   -7.6986891    716.19032  0.019861074  0.019345129            4 
 3006000   0.78632409   -7.7045383    716.94201  0.019875305   0.01933933            3 
 3007000   0.76266034   -7.6698839    716.57409  0.019858499  0.019333527            3 
 3008000   0.77192763   -7.6818972     714.5119  0.019794767  0.019327734            3 
 3009000   0.77973365   -7.6824384    714.79073   0.01979591  0.019321928            3 
 3010000   0.77755668   -7.7085021    716.54734  0.019837966  0.019316106            1 
 3011000   0.77123837   -7.7231227    715.61327  0.019805526  0.019310278            3 
 3012000   0.76984485   -7.6882904    714.95836  0.019780831  0.019304453            2 
 3013000    0.7737453   -7.7170249    714.37594  0.019758157  0.019298624            3 
 3014000   0.77804732   -7.6995282    715.52722  0.019783434  0.019292805            1 
 3015000   0.77145528   -7.6996106    714.36822  0.019744837  0.019287006            4 
 3016000    0.7738055   -7.6608851    714.77689  0.019749582  0.019281218            3 
 3017000   0.78250818   -7.6766065    715.15181  0.019753392  0.019275444            2 
 3018000   0.76631668   -7.6930321    714.46787  0.019727962  0.019269657            4 
 3019000   0.76013025   -7.6922077    714.56897  0.019724218  0.019263845            3 
 3020000   0.78221253   -7.6887982    715.59742  0.019746066  0.019258059            6 
 3021000   0.76695281   -7.7003083    714.67457  0.019714073  0.019252223            2 
 3022000   0.75755494   -7.7234575    713.82038  0.019683995  0.019246396            4 
 3023000   0.76352317   -7.6999642    716.23168  0.019743954  0.019240558            5 
 3024000    0.7630072   -7.7113842    714.36764  0.019686057  0.019234723            3 
 3025000   0.75600133    -7.705169    715.66114  0.019715183  0.019228884            4 
 3026000   0.74218088   -7.6972628    715.05676  0.019692024  0.019223064            3 
 3027000   0.77981121   -7.6961213    716.39086  0.019722246  0.019217242            3 
 3028000   0.76324863   -7.6764165    714.78646  0.019671578   0.01921142            4 
 3029000   0.75647515   -7.7159156    715.92854  0.019696504    0.0192056            4 
 3030000   0.76182157   -7.6870525    713.64493  0.019627198  0.019199791            5 
 3031000   0.75544099   -7.7298659    714.15588  0.019634771  0.019193973            8 
 3032000   0.78077322   -7.7077427    716.12928  0.019682533  0.019188149            3 
 3033000   0.75841506   -7.7128394    715.10473  0.019647893  0.019182323            1 
 3034000    0.7688762   -7.6808905    716.34916  0.019675598  0.019176511            4 
 3035000   0.77945171   -7.6897849    716.41184  0.019670836  0.019170718            3 
 3036000   0.77254458   -7.7322377    714.65628  0.019616169  0.019164885            2 
 3037000   0.77181049   -7.7231745    715.27656   0.01962673  0.019159041            1 
 3038000   0.75302395   -7.6811591    716.27595  0.019647683  0.019153213            3 
 3039000   0.76742825   -7.7168597    714.54638  0.019593791   0.01914738            2 
 3040000   0.78962933   -7.7237354     715.6473  0.019617525  0.019141566            7 
 3041000   0.77348373   -7.7085075    715.40286  0.019604375  0.019135744            7 
 3042000   0.75461802   -7.7074918    715.93588  0.019612532   0.01912993            6 
 3043000   0.75925061   -7.7087032    716.38959  0.019618512  0.019124114            6 
 3044000   0.75502016   -7.7060211    715.36172  0.019583928  0.019118283            5 
 3045000   0.76051632   -7.7037558    715.85661   0.01959104  0.019112457            2 
 3046000   0.77197912   -7.6879812    718.47401  0.019656216  0.019106658            2 
 3047000   0.77304101   -7.7296366    716.18251  0.019587094  0.019100839            5 
 3048000   0.77272559   -7.7078668    716.11974  0.019578952  0.019095022            4 
 3049000   0.75156692   -7.7088774    716.37436   0.01957949  0.019089219            7 
 3050000   0.76488176   -7.7055241     716.3589  0.019572648  0.019083407            3 
 3051000   0.75121029   -7.7177515    714.80455  0.019523778  0.019077578            3 
 3052000   0.76242482   -7.7344899    714.06607  0.019497217  0.019071733            2 
 3053000   0.75982781   -7.7203074    714.47788  0.019502071  0.019065874            3 
 3054000   0.76563453   -7.7056293    714.65009  0.019500384  0.019060012            2 
 3055000   0.76102783   -7.7226924    713.99166  0.019476041  0.019054197            8 
 3056000   0.75929418   -7.7098857    714.98547  0.019496768  0.019048374            4 
 3057000   0.77352381   -7.7269636    716.10505   0.01952091  0.019042526            4 
 3058000   0.76056465   -7.7158928    716.89174  0.019535964  0.019036704            4 
 3059000   0.76196075   -7.7070111     716.9976  0.019532462   0.01903087            4 
 3060000   0.76383597   -7.7372681    716.03054  0.019499742  0.019025068            7 
 3061000   0.76081919    -7.742013    715.35378  0.019474948  0.019019224            4 
 3062000   0.76360206   -7.7368193    716.16943  0.019490786  0.019013404            4 
 3063000   0.76808638    -7.744935    716.12903  0.019483323  0.019007567            3 
 3064000    0.7508954   -7.6889896    717.43032  0.019512356  0.019001724            3 
 3065000   0.78672111   -7.7134059    716.48351  0.019480248   0.01899589            4 
 3066000   0.76202987   -7.6996452     715.3169  0.019442186  0.018990046            5 
 3067000   0.77435202   -7.7528801    716.94847  0.019480178  0.018984214            2 
 3068000   0.75358474   -7.6990989     716.5872  0.019464016  0.018978401            7 
 3069000   0.74938721   -7.7263807    716.38275  0.019452122  0.018972591            4 
 3070000   0.76170781   -7.7173844    717.39061  0.019473144  0.018966764            3 
 3071000   0.76619444   -7.7247017    716.99231  0.019455995  0.018960975            2 
 3072000   0.75473068   -7.7052902    716.85808   0.01944602  0.018955187            2 
 3073000   0.77501717   -7.7222993     716.1191  0.019419652  0.018949372            3 
 3074000   0.76146194   -7.7375079    716.56793  0.019425502  0.018943558            5 
 3075000   0.75405515   -7.7150363    717.23269    0.0194372  0.018937769            5 
 3076000    0.7386596   -7.7195456    715.72605  0.019390064  0.018931954            5 
 3077000   0.75986134   -7.7113242    718.14193  0.019449191  0.018926148            3 
 3078000   0.76408701    -7.684963     716.4775   0.01939781  0.018920388            1 
 3079000   0.73829887   -7.7020003    716.76336  0.019399246  0.018914619            2 
 3080000   0.77568254   -7.7296741    716.80974  0.019394203  0.018908848            3 
 3081000   0.75259138   -7.6900495    717.49156   0.01940635  0.018903089            4 
 3082000   0.76176222   -7.6967028    717.22202  0.019392765  0.018897314            4 
 3083000   0.75172042   -7.7372039    717.91467  0.019405197  0.018891555            4 
 3084000   0.76235094   -7.7397455    716.56253  0.019362368  0.018885762            1 
 3085000   0.73756368   -7.7459739    718.27998  0.019402484  0.018879953            2 
 3086000    0.7725867   -7.7124991    717.02866  0.019362407  0.018874151            2 
 3087000   0.75362605   -7.7260733    716.97685  0.019354736  0.018868355            3 
 3088000   0.75013347   -7.7151315    716.67816  0.019340408  0.018862601            4 
 3089000   0.75984852   -7.7136889    717.02961  0.019343628  0.018856804            4 
 3090000   0.75459709    -7.739989    715.95841  0.019308479  0.018850984            5 
 3091000   0.75711737   -7.7131884    716.31026  0.019311718   0.01884515            4 
 3092000   0.75056981   -7.7665524    715.52485  0.019284305  0.018839282            2 
 3093000   0.76620294   -7.7466456    716.25543  0.019297754  0.018833401           10 
 3094000   0.74668322   -7.7180283     716.8722  0.019308129  0.018827579            3 
 3095000   0.75318876   -7.7295522    717.47512  0.019318124  0.018821763            3 
 3096000   0.76198268   -7.7305505    716.62733  0.019289065  0.018815953            2 
 3097000   0.77887019   -7.7131062    717.18716    0.0192979  0.018810164            1 
 3098000   0.75781764    -7.697725    717.47368  0.019299378   0.01880436            3 
 3099000   0.76924128   -7.7230545    716.62999  0.019270463  0.018798555            3 
 3100000   0.76874029   -7.7324156    714.13104  0.019197071  0.018792749            8 
 3101000   0.76433872   -7.7288389    716.49859  0.019254504  0.018786915            6 
 3102000   0.75547195   -7.7304479    716.26501  0.019242022  0.018781055            4 
 3103000   0.75837901   -7.7657836    716.54099  0.019243232  0.018775158            5 
 3104000   0.73632566   -7.7434929    716.65681  0.019240142    0.0187693            2 
 3105000    0.7724069     -7.74794    715.07483  0.019191488  0.018763465            6 
 3106000   0.75009923   -7.7374302    715.03398  0.019184213  0.018757631            3 
 3107000   0.74848857   -7.7377584    716.23829  0.019210339  0.018751812            3 
 3108000   0.76557532   -7.7479498    715.46249  0.019183357  0.018745983            3 
 3109000   0.76565452   -7.7522522    716.08971  0.019193999  0.018740143            4 
 3110000   0.75454129   -7.7292303    715.61545  0.019175119  0.018734303            5 
 3111000   0.75246014   -7.7243925    716.46124  0.019191611  0.018728448            4 
 3112000   0.75958088   -7.7276478    716.63846   0.01919019  0.018722613            4 
 3113000   0.76243445   -7.7329297    715.38049   0.01915035  0.018716794            1 
 3114000   0.75678906   -7.7423767    716.76661  0.019181294   0.01871094            2 
 3115000   0.73481304   -7.7329348    716.82546  0.019176711    0.0187051            7 
 3116000   0.76848358   -7.7367067    717.01386  0.019175595  0.018699254            8 
 3117000   0.74635391   -7.7304834    715.49992  0.019128968  0.018693421            6 
 3118000   0.74200257   -7.7496563    716.01079  0.019136487  0.018687574            2 
 3119000   0.75989115    -7.749217    715.39823  0.019113985  0.018681728            4 
 3120000   0.74238117   -7.7486786    717.94174  0.019175794  0.018675896            1 
 3121000   0.74892398    -7.734408    715.16775  0.019095582  0.018670034            3 
 3122000   0.74741969   -7.7588343    715.36253  0.019094665  0.018664177            4 
 3123000   0.75735265   -7.7348252     717.6752  0.019150262  0.018658344            4 
 3124000   0.73707988   -7.7569995    715.91109  0.019097073  0.018652525            4 
 3125000    0.7578295   -7.7398906    717.02654  0.019120708  0.018646718            6 
 3126000   0.75428888   -7.7230415    716.35954   0.01909681  0.018640924            3 
 3127000   0.76679391   -7.7471584    716.16413  0.019085495  0.018635127            8 
 3128000   0.74372523   -7.7505212     715.7992  0.019069672  0.018629288            4 
 3129000   0.74205283   -7.7244011    718.10439   0.01912497  0.018623455            2 
 3130000   0.74399001   -7.7456109    717.14206  0.019093239  0.018617616            3 
 3131000   0.73342926   -7.7441647    717.90742  0.019107511    0.0186118            3 
 3132000   0.73650976   -7.7518142    715.63627  0.019040982  0.018605945            3 
 3133000   0.75538002   -7.7658645    717.47781  0.019083887   0.01860012            5 
 3134000   0.74607625    -7.739945    717.45628  0.019077225  0.018594288            8 
 3135000   0.74953934   -7.7634076    716.00137  0.019032466  0.018588447            3 
 3136000   0.77296785   -7.7591887    716.73674  0.019045938  0.018582598            3 
 3137000   0.76210969   -7.7222173    715.69359  0.019012156  0.018576758            3 
 3138000     0.766824   -7.7520776    715.27663  0.018995024  0.018570895            6 
 3139000   0.75108811   -7.7788836    714.52199  0.018968939  0.018565057            4 
 3140000   0.73736602   -7.7744105    717.03784  0.019029667  0.018559195            4 
 3141000   0.75697095   -7.7599073    716.17472  0.019000709   0.01855335            4 
 3142000   0.74693549   -7.7684973     715.3004  0.018971473  0.018547523            2 
 3143000   0.74026418   -7.7560257    716.77395  0.019004506  0.018541681            4 
 3144000   0.73476311   -7.7551703    716.81153  0.018999458  0.018535885            4 
 3145000   0.76404185   -7.7138433    717.26947   0.01900555  0.018530117            2 
 3146000   0.75332369   -7.7300551    719.10672  0.019048175  0.018524334            5 
 3147000   0.73703013   -7.7492465    715.85985  0.018956145  0.018518547            2 
 3148000   0.75404259   -7.7269153    716.65003  0.018971041  0.018512731            4 
 3149000   0.75446616     -7.76565    716.52472    0.0189617   0.01850694            4 
 3150000   0.75689297   -7.7551458    717.20935  0.018973792  0.018501146            5 
 3151000    0.7419832   -7.7539022    716.64433  0.018952828  0.018495341            2 
 3152000   0.76659728   -7.7563344    716.89067  0.018953328  0.018489547            2 
 3153000   0.76450632   -7.7508656    718.11052  0.018979557  0.018483756            2 
 3154000   0.74832738   -7.7379301    718.46062   0.01898279  0.018477969            3 
 3155000   0.74379883   -7.7427584    716.01492  0.018912174  0.018472169            2 
 3156000   0.74501857   -7.7361755     716.4852    0.0189186  0.018466372            4 
 3157000   0.75492979   -7.7457625    717.67395  0.018943986  0.018460588            6 
 3158000   0.74884665   -7.7329098    718.35984  0.018956086  0.018454825            4 
 3159000   0.72647767   -7.7443837      717.016  0.018914635   0.01844905            3 
 3160000   0.74072895   -7.7531704    717.58654  0.018923696  0.018443276            4 
 3161000   0.74911778   -7.7776423    716.00606  0.018876043  0.018437488            4 
 3162000   0.75344335   -7.7646055    716.05367  0.018871328  0.018431667            6 
 3163000   0.75038272     -7.72693    716.62309  0.018880364  0.018425877            3 
 3164000   0.73990828   -7.7362442    719.62624  0.018953494  0.018420088            3 
 3165000    0.7484366   -7.7341396    717.03554  0.018879293  0.018414283            2 
 3166000   0.74468677   -7.7626176    716.66247   0.01886351  0.018408473            2 
 3167000    0.7369104   -7.7629861    716.38388  0.018850223  0.018402638            2 
 3168000   0.77389458   -7.7517041    716.33847  0.018843078   0.01839683            6 
 3169000   0.74722242   -7.7789476    716.48176    0.0188409  0.018391012            2 
 3170000   0.75792365   -7.7439358    719.14688  0.018905018  0.018385206            5 
 3171000   0.72925548   -7.7481156    717.87524  0.018865637  0.018379409            4 
 3172000   0.74110427   -7.7708351    717.58342  0.018852023  0.018373611            3 
 3173000   0.75383707   -7.7461994    717.68486  0.018848746  0.018367824            5 
 3174000   0.74502146   -7.7388288    719.85482   0.01889978   0.01836204            3 
 3175000   0.75467297   -7.7528741    718.16265  0.018849413  0.018356259            3 
 3176000     0.734348   -7.7720227    717.69096  0.018831102   0.01835047            5 
 3177000   0.74287652   -7.7670983    717.70119  0.018825443  0.018344689            3 
 3178000   0.74801664   -7.7365205    717.25638  0.018807856  0.018338914            6 
 3179000   0.73771554   -7.7734319    717.03443  0.018796121  0.018333118            4 
 3180000   0.73518106    -7.782283    718.71379  0.018834219  0.018327317            8 
 3181000   0.74590244    -7.756584    717.60417  0.018799229  0.018321548            6 
 3182000    0.7336911   -7.7667595    716.79529  0.018772137  0.018315768            2 
 3183000   0.74959495   -7.7531899    718.69034  0.018815853  0.018310001            3 
 3184000   0.72448658   -7.7653627    717.53877  0.018779805  0.018304215            4 
 3185000   0.75525405   -7.7534558    717.47045  0.018772121  0.018298403            3 
 3186000   0.75198418   -7.7589057    716.64516  0.018744642  0.018292611            2 
 3187000   0.75980082   -7.7573479    717.64394  0.018764877  0.018286806            5 
 3188000   0.76429529   -7.7612583    717.54879  0.018756503  0.018281032            8 
 3189000    0.7459545   -7.7431104    717.26686  0.018743254  0.018275273            6 
 3190000   0.74333018   -7.7370774    718.35037  0.018765684  0.018269548            4 
 3191000   0.71698373   -7.7503165    717.85449  0.018746853    0.0182638            5 
 3192000    0.7377911   -7.7289089    718.67616  0.018762431  0.018258064            4 
 3193000   0.75034987   -7.7603303    718.74663  0.018758394  0.018252322            2 
 3194000   0.74030313   -7.7534535    718.26988  0.018740083  0.018246576            3 
 3195000   0.73851675   -7.7723521    717.27995  0.018708397  0.018240822            4 
 3196000   0.72666748   -7.7749775    717.98694  0.018720978  0.018235066            5 
 3197000   0.74194764    -7.767945    717.76479  0.018709331  0.018229309            2 
 3198000     0.738705   -7.7647406    717.79758  0.018704335  0.018223552            3 
 3199000   0.72711677   -7.7638916    716.95876  0.018676637  0.018217757            3 
 3200000   0.73614733   -7.7798063     718.4181  0.018708805     0.018212            3 
 3201000   0.74820684   -7.7537224    719.49812  0.018731077   0.01820623            5 
 3202000   0.74254087   -7.7928605    716.74221  0.018653503  0.018200462            4 
 3203000   0.74538438   -7.7813555    718.74283   0.01869973  0.018194669            4 
 3204000    0.7424859   -7.7750525     717.0236  0.018649178  0.018188881            2 
 3205000   0.74695167   -7.7816831    718.21246  0.018674271  0.018183082            5 
 3206000   0.73563358   -7.7693425    717.82887  0.018658475  0.018177307            4 
 3207000    0.7292062   -7.7733336    717.32391  0.018639536  0.018171546            3 
 3208000    0.7517279   -7.7850228    718.50092  0.018664301  0.018165782            4 
 3209000    0.7202148   -7.7594416    718.64183  0.018662144  0.018159993            3 
 3210000   0.73047015   -7.7755096    718.10425  0.018642374  0.018154217            3 
 3211000    0.7512192    -7.767473      718.164  0.018638119  0.018148472            3 
 3212000    0.7521191   -7.7720039    717.32823  0.018610633  0.018142713            5 
 3213000   0.71977782   -7.7965928     717.3734  0.018606012   0.01813693            6 
 3214000   0.72919596   -7.7979496    718.27389  0.018623571   0.01813116            4 
 3215000   0.73760498   -7.7848433    717.09154  0.018587132  0.018125381            6 
 3216000   0.74582544   -7.7720693      718.202  0.018610126  0.018119625            3 
 3217000   0.71935167   -7.7766199     719.9349  0.018649231  0.018113882            3 
 3218000   0.73604915   -7.7772634    718.41465  0.018604067  0.018108152            3 
 3219000   0.73964529   -7.7502105     719.5728   0.01862827  0.018102435            6 
 3220000   0.74714481   -7.7405081    719.37334  0.018617322  0.018096712            2 
 3221000   0.74441718   -7.7551685    718.88074  0.018598798  0.018091005            6 
 3222000   0.73719527   -7.7665305    718.81776  0.018591397  0.018085301            4 
 3223000   0.74879477   -7.7321196    719.00447  0.018590456  0.018079601            2 
 3224000   0.72151559   -7.7454973    718.82201  0.018579973  0.018073891            3 
 3225000   0.73559576   -7.7557203    718.69146  0.018570839   0.01806815            2 
 3226000   0.74383131   -7.7948471    718.79248  0.018567692  0.018062419            3 
 3227000   0.73605233   -7.7654795    718.76309  0.018561179  0.018056676            6 
 3228000   0.72977835   -7.7662128    719.27529  0.018568652   0.01805093            4 
 3229000   0.72901842   -7.7510375    717.93972  0.018528433  0.018045193            3 
 3230000   0.70471645   -7.7996461    716.71839  0.018491186  0.018039451            3 
 3231000   0.72508594   -7.7941013    716.48863  0.018479538  0.018033674            2 
 3232000   0.74026266    -7.778685    717.74136   0.01850612  0.018027912            3 
 3233000   0.72558289   -7.7845978    716.84872  0.018477387  0.018022148            3 
 3234000   0.75400495   -7.7658424    719.79381  0.018547563  0.018016422            3 
 3235000   0.74019352   -7.7642245    718.07478  0.018497547  0.018010675            4 
 3236000      0.71407   -7.8076176    717.49874  0.018476997  0.018004931            4 
 3237000   0.72493138   -7.7849533    718.32429  0.018492542  0.017999187            3 
 3238000   0.72163015   -7.8030022    718.39626  0.018488683  0.017993458            6 
 3239000   0.75704671   -7.8045255    718.67257  0.018490084  0.017987718            4 
 3240000   0.71720234   -7.7838783    719.34034  0.018501552  0.017981976            4 
 3241000   0.74074741   -7.8238233    718.08921  0.018463674   0.01797624            3 
 3242000   0.73396058   -7.8166444    717.76723  0.018449703  0.017970482            4 
 3243000   0.74777752    -7.779994    718.11144  0.018452859  0.017964731            4 
 3244000   0.73956007    -7.819531    717.82611  0.018439841  0.017958991            2 
 3245000    0.7449279   -7.8069176    716.16848  0.018391589  0.017953266            2 
 3246000   0.71408297   -7.7936075    718.64795  0.018449578  0.017947542            4 
 3247000   0.74808948   -7.7707619    719.70925  0.018471134  0.017941848            2 
 3248000   0.71007591   -7.7800882     719.3612  0.018456517  0.017936126            2 
 3249000   0.74932551   -7.7745506    718.46256  0.018427787  0.017930419            4 
 3250000    0.7307952   -7.7633619    719.69471   0.01845371  0.017924721            5 
 3251000   0.72099223   -7.7809592    719.56941  0.018444822  0.017919048            3 
 3252000   0.72581799   -7.7630808    720.27775  0.018457302  0.017913374            4 
 3253000   0.72846797   -7.7851479    720.20621  0.018449795  0.017907725            4 
 3254000   0.71939139   -7.7840368    720.00939  0.018439085  0.017902078            4 
 3255000    0.7520656   -7.7748984    720.25664   0.01843975  0.017896442            3 
 3256000   0.72781997   -7.7822316    718.82253  0.018397383   0.01789081            3 
 3257000   0.72322325   -7.7828793    721.41507  0.018458066  0.017885172            2 
 3258000   0.73151114   -7.7765419    720.24742  0.018422535  0.017879529            4 
 3259000    0.7380653   -7.8000931    718.42656  0.018370322  0.017873848            3 
 3260000   0.72654052   -7.7747664    720.50585  0.018417839  0.017868204            5 
 3261000   0.72191751   -7.7761578     721.2165  0.018430351  0.017862565            2 
 3262000   0.73714848   -7.8111949    719.32103  0.018376278  0.017856928            3 
 3263000   0.71926227   -7.7750569    719.53004  0.018375984  0.017851297            3 
 3264000   0.72367089   -7.8017788    719.84285  0.018378341  0.017845658            4 
 3265000   0.72230977   -7.7828347    718.58365  0.018340573  0.017839998            2 
 3266000   0.73487254    -7.786946    719.78285  0.018365555  0.017834345            6 
 3267000   0.72904894   -7.7678779    719.99816  0.018365426   0.01782869            2 
 3268000   0.73787239   -7.7969068     721.0459  0.018386523  0.017823056            2 
 3269000   0.73487731   -7.7992453    720.29337  0.018361715  0.017817407            4 
 3270000   0.71818655   -7.8110254    721.43087  0.018385088  0.017811753            7 
 3271000   0.71734264    -7.792352    719.68192  0.018334911  0.017806113            8 
 3272000   0.73024107   -7.8132696    719.54796  0.018325896  0.017800451            4 
 3273000   0.72326889   -7.8183337    719.51447  0.018319444  0.017794776            4 
 3274000   0.73624649   -7.8111473     719.7909  0.018320884  0.017789073            7 
 3275000   0.72133414   -7.7926523    719.26537  0.018301918  0.017783391            3 
 3276000    0.7364111   -7.8037709     718.9109  0.018287314  0.017777725            4 
 3277000   0.72190845   -7.8172896    718.98276  0.018283561   0.01777204            4 
 3278000   0.73125762   -7.7999126    720.02701   0.01830453   0.01776636            3 
 3279000   0.72221301   -7.8137656    719.82721   0.01829387  0.017760693            2 
 3280000    0.7176292   -7.8270013    718.31385  0.018249844  0.017755023            2 
 3281000   0.71676862   -7.8082176    719.46419  0.018273499   0.01774936            3 
 3282000   0.72977687   -7.8125973    719.90963  0.018279241  0.017743727            3 
 3283000   0.73030185   -7.7894602    720.86725  0.018297981   0.01773809            2 
 3284000    0.7224798   -7.8054589    719.72429  0.018263406  0.017732467            6 
 3285000   0.71848294   -7.7787621    720.05682  0.018266282  0.017726837            4 
 3286000   0.71936278   -7.7905303    718.46796  0.018220429  0.017721205            5 
 3287000   0.71378858   -7.7863897    720.47302  0.018265719  0.017715588            4 
 3288000   0.73236128   -7.8074429    720.29473  0.018255645  0.017709969            3 
 3289000   0.73036841   -7.7994668    719.98945   0.01824236   0.01770435            5 
 3290000   0.72369375    -7.794756     721.2599  0.018268994  0.017698743            2 
 3291000   0.72890756   -7.8302464    720.20756  0.018236796  0.017693121            3 
 3292000   0.72814882   -7.8159499    720.89914  0.018248763  0.017687524            4 
 3293000   0.71779275    -7.788936    721.25831  0.018252311  0.017681912            2 
 3294000    0.7443315    -7.811602    721.34202  0.018248887  0.017676297            3 
 3295000   0.72238199   -7.8045334    719.94236   0.01820795  0.017670671            3 
 3296000   0.73481603   -7.8055343    720.34099  0.018212505  0.017665076            3 
 3297000    0.7294403   -7.7976721    720.17918  0.018202891  0.017659466            4 
 3298000   0.72949519   -7.8156506    721.02402  0.018218719  0.017653867            3 
 3299000    0.7251941   -7.8059314    719.38311  0.018171747  0.017648253            4 
 3300000   0.74186747   -7.8088034    719.47353  0.018168523  0.017642673            3 
 3301000   0.72155288   -7.8123657    719.50907  0.018163917  0.017637078            5 
 3302000   0.72844857   -7.8016682    721.09314  0.018198393  0.017631501            3 
 3303000   0.72162794   -7.8016741    722.10628  0.018218445   0.01762591            3 
 3304000    0.7246286   -7.7890643    720.43452  0.018170766  0.017620326            2 
 3305000   0.72931924   -7.7881035    721.64676  0.018195834  0.017614723            2 
 3306000   0.72969925   -7.8003597    720.53631  0.018162339  0.017609142            2 
 3307000   0.72044468    -7.810305    720.71794  0.018161424   0.01760356            4 
 3308000   0.72372519   -7.7881427    722.24153  0.018194315   0.01759796            3 
 3309000   0.73813172   -7.8107487    721.65282  0.018173991  0.017592361            5 
 3310000   0.70873706   -7.8125828    720.81033  0.018147289  0.017586769            3 
 3311000    0.7315035   -7.8155789    720.53044  0.018134764  0.017581152            5 
 3312000   0.72884001   -7.8204764    719.88772  0.018113117  0.017575542            4 
 3313000   0.72016256   -7.8219637    720.17158   0.01811479  0.017569939            2 
 3314000    0.7186349   -7.8233035    719.70669  0.018097634  0.017564332            8 
 3315000   0.73295889   -7.8181868    721.60476  0.018139889  0.017558731            5 
 3316000   0.73420275   -7.8310962    719.79312   0.01808889  0.017553142            7 
 3317000   0.71597284   -7.8278811    721.54841  0.018127535  0.017547556            3 
 3318000   0.71485757   -7.8133125    719.59504  0.018073012  0.017541947            3 
 3319000   0.73266167   -7.8195595    719.91576  0.018075619  0.017536321            2 
 3320000   0.72335982   -7.8361574    721.54823   0.01811115  0.017530714            2 
 3321000   0.71518293   -7.8257777    720.55892  0.018080872    0.0175251            1 
 3322000   0.72243442   -7.8564334    720.38883  0.018071163  0.017519485            4 
 3323000   0.70427081   -7.8545753    719.89982  0.018053461  0.017513862            4 
 3324000   0.72159853   -7.8191978    720.45694  0.018061997  0.017508258            3 
 3325000   0.72548386    -7.820137    721.54308  0.018083786  0.017502662           10 
 3326000   0.71862656   -7.8150161    721.75132  0.018083567  0.017497076            2 
 3327000   0.72618168   -7.8273769    719.55573  0.018023137  0.017491496            3 
 3328000   0.71724689   -7.8124731    721.94597  0.018077573  0.017485909            3 
 3329000    0.7156446   -7.8134708    720.09366  0.018025775  0.017480314            2 
 3330000   0.71123126   -7.8189046    721.05219  0.018044349  0.017474702            9 
 3331000   0.70842043   -7.8360076    720.06483  0.018014231  0.017469092            5 
 3332000   0.71545823   -7.8186891    720.77775  0.018026654  0.017463485            4 
 3333000   0.71860026   -7.8562194    719.87374  0.017998643   0.01745788            3 
 3334000   0.71616019    -7.836543    720.63677  0.018012317  0.017452271            5 
 3335000   0.70768459   -7.8210512    721.01179  0.018016287  0.017446688            6 
 3336000   0.70969767    -7.813635    721.44441  0.018021693  0.017441112            3 
 3337000   0.71419659   -7.8330751    720.48633  0.017992367  0.017435535            4 
 3338000   0.72152935   -7.8259976    719.56394  0.017963949  0.017429936            3 
 3339000   0.71518629   -7.8480071    720.54914  0.017983157  0.017424341            2 
 3340000   0.72562888   -7.8529982    720.39068  0.017973819  0.017418771            4 
 3341000   0.71878941   -7.8228762    721.76869  0.018002811  0.017413195            2 
 3342000   0.71525959   -7.7946411    720.84203  0.017974317  0.017407619            5 
 3343000   0.72569578   -7.8263871    719.63845  0.017938938  0.017402064            3 
 3344000   0.72245587   -7.8329784    720.69175  0.017959822  0.017396487            4 
 3345000   0.71647049   -7.8068777    721.73098  0.017980343  0.017390917            5 
 3346000   0.72382509   -7.8126537    721.44682  0.017967892  0.017385338            2 
 3347000    0.7013877   -7.8187305    720.71581  0.017944323  0.017379771            7 
 3348000   0.70910762   -7.8401097    721.15339  0.017949855   0.01737418            3 
 3349000   0.71112959   -7.8384344    720.41066  0.017926014   0.01736859            5 
 3350000   0.72781562   -7.8123941    721.77368  0.017954569  0.017363016            2 
 3351000   0.71191223   -7.8076481    722.31308  0.017962625  0.017357464            3 
 3352000   0.72153225   -7.8147399    721.17108  0.017928875  0.017351908            3 
 3353000   0.74258989   -7.8321692    722.05213  0.017945425  0.017346355            2 
 3354000   0.72681341   -7.8073737    721.08169  0.017915963  0.017340808            2 
 3355000   0.72547971   -7.8432909    720.70071   0.01790116  0.017335265            3 
 3356000   0.70516016   -7.8221582    722.21631   0.01793346  0.017329698            5 
 3357000   0.70812036   -7.8283144    721.71732  0.017915731  0.017324143            7 
 3358000   0.71649084   -7.8249561     721.3945  0.017902385  0.017318573            5 
 3359000   0.72061262   -7.8229858    721.87568  0.017908993  0.017313005            5 
 3360000   0.72205789   -7.8134231    720.90469  0.017879581   0.01730744            4 
 3361000    0.7235226   -7.8339354    720.70206  0.017869237    0.0173019            3 
 3362000   0.70285031   -7.8369046    721.00004  0.017871308  0.017296337            5 
 3363000   0.71956891   -7.8452969    721.48163  0.017877927  0.017290764            3 
 3364000   0.70966937   -7.8501019    720.97278  0.017860007  0.017285191            3 
 3365000   0.70676888   -7.8462713    722.06822  0.017881828  0.017279618            2 
 3366000   0.71799953   -7.8290109    721.64066   0.01786593  0.017274054            3 
 3367000   0.72229352    -7.808496    720.87202    0.0178416  0.017268497            5 
 3368000   0.70799524   -7.8287446    720.98581  0.017839118  0.017262924            3 
 3369000    0.7195098   -7.8296532     720.8966  0.017831617  0.017257357            7 
 3370000   0.68846131   -7.8423807    719.27306  0.017786179   0.01725179            8 
 3371000   0.70113168    -7.813312    719.60334  0.017789067  0.017246205            2 
 3372000   0.71095052   -7.8597844    720.39786  0.017803427  0.017240633            2 
 3373000   0.70860961   -7.8313989    721.58488  0.017827475  0.017235072            4 
 3374000    0.7243141   -7.8370028    722.31562   0.01784024  0.017229531            3 
 3375000   0.71442238   -7.8524036    719.34427  0.017761587  0.017223971            3 
 3376000   0.71467972    -7.849492    720.99305  0.017797024  0.017218431            4 
 3377000   0.71406885   -7.8434996    722.09236  0.017818882  0.017212885            3 
 3378000   0.71416553   -7.8380301    720.88293  0.017783771  0.017207344            4 
 3379000   0.70057396   -7.8535293    721.35567  0.017790167  0.017201815            3 
 3380000   0.69523786   -7.8430001    721.07033  0.017777868   0.01719629            2 
 3381000   0.71325966    -7.844851    720.71512  0.017763855  0.017190746            2 
 3382000   0.71274327   -7.8380936    721.71701  0.017783289  0.017185205            5 
 3383000   0.72490081   -7.8145638    721.98808   0.01778471  0.017179676            2 
 3384000   0.70552541   -7.8346696    721.71738  0.017772788  0.017174136            2 
 3385000   0.70679148   -7.8420064    720.36367  0.017734211  0.017168604            2 
 3386000   0.71363498   -7.8322896    722.62421  0.017784609  0.017163078            8 
 3387000   0.70201759   -7.8479265    720.75701  0.017733417  0.017157552            2 
 3388000   0.72244594   -7.8729291    720.07613  0.017711436  0.017152015            8 
 3389000    0.7053419    -7.838147    721.92007  0.017751551  0.017146475            4 
 3390000   0.71117932   -7.8595759    719.97949  0.017698611  0.017140941            2 
 3391000   0.69922196   -7.8223979    720.46207  0.017705251  0.017135417            2 
 3392000   0.70869921   -7.8507482     720.8695  0.017710041  0.017129889            2 
 3393000   0.71092211   -7.8506024    722.38362  0.017742009  0.017124356            2 
 3394000   0.69290492   -7.8409406    720.40249  0.017688138  0.017118837            7 
 3395000   0.70727027   -7.8438335    721.08252   0.01769962  0.017113337            2 
 3396000   0.71879954     -7.85373     721.5305  0.017705401  0.017107845            6 
 3397000   0.72500985   -7.8474059    720.25456  0.017668888  0.017102344            6 
 3398000   0.71725957   -7.8783713    719.84144  0.017653557  0.017096834            1 
 3399000   0.71804345   -7.8353901    722.22342  0.017706762  0.017091327            2 
 3400000   0.69364025   -7.8489477    720.37009   0.01765613  0.017085834            3 
 3401000    0.6947945   -7.8414681    721.82138  0.017686499  0.017080348            3 
 3402000    0.7166436    -7.856627    721.23624  0.017666967  0.017074848            5 
 3403000   0.69738938   -7.8518523    721.33067  0.017664087  0.017069356            5 
 3404000   0.70569267    -7.834878    721.30975  0.017658386  0.017063861            5 
 3405000   0.71442256   -7.8507343    723.13072  0.017697766  0.017058377            5 
 3406000   0.72141703   -7.8481096    722.50795  0.017677333  0.017052893            8 
 3407000   0.71136578   -7.8444616    721.50139  0.017647524  0.017047434            5 
 3408000   0.71091796   -7.8481204    721.55482  0.017643653  0.017041946            9 
 3409000   0.70609439   -7.8387778    721.71642  0.017642427  0.017036466            3 
 3410000   0.72341002   -7.8384232    723.62709  0.017683946  0.017031008            5 
 3411000   0.70679789   -7.8526003     721.8193  0.017634596  0.017025548            3 
 3412000    0.7043494   -7.8209659    724.24698  0.017688721  0.017020102            4 
 3413000   0.70147127   -7.8151304     722.2502  0.017634784  0.017014664            5 
 3414000   0.70895601   -7.8525082    723.15197   0.01765163  0.017009217            4 
 3415000   0.69152867   -7.8613913    723.30348  0.017650158  0.017003763            3 
 3416000   0.71513632   -7.8404949    721.59544  0.017603324  0.016998322            3 
 3417000   0.70403641   -7.8646107    721.08605  0.017585749  0.016992868            2 
 3418000   0.69298677   -7.8518844    722.62891   0.01761822   0.01698741            3 
 3419000   0.70022099   -7.8829417    721.64615  0.017589114  0.016981926           11 
 3420000     0.700478   -7.8693067    720.50725   0.01755622   0.01697644            6 
 3421000   0.69459156   -7.8467918    721.19458  0.017567831  0.016970965            9 
 3422000   0.70852365    -7.852598     723.7047  0.017623824  0.016965527            6 
 3423000   0.68006809   -7.8472634    721.20915  0.017557921  0.016960093            3 
 3424000   0.70870354   -7.8587125    721.51668  0.017560278  0.016954631           12 
 3425000    0.7065909   -7.8736359    722.13195   0.01757012  0.016949168            5 
 3426000   0.70031828   -7.8723427    721.23043  0.017543064   0.01694369            3 
 3427000   0.68504013    -7.866215    719.51125   0.01749614   0.01693822            3 
 3428000   0.71465076   -7.8812964    721.19959  0.017532079  0.016932748            5 
 3429000   0.69973981   -7.8566024    721.71701  0.017539541  0.016927267            5 
 3430000   0.70138209   -7.8546452    723.28037  0.017572409  0.016921802            6 
 3431000   0.68853488   -7.8418865    722.55463  0.017549661  0.016916358            8 
 3432000   0.68704231   -7.8582323    722.45697  0.017542176  0.016910918            5 
 3433000   0.69005737   -7.8814374    722.71504   0.01754333  0.016905457            3 
 3434000   0.70581561   -7.8729894    721.88788  0.017518149  0.016899989            5 
 3435000   0.70260783   -7.8713282     721.8321  0.017511696  0.016894517            3 
 3436000   0.69474702   -7.8687728    722.06976  0.017512363  0.016889061            5 
 3437000   0.71390429   -7.8579839    721.66858  0.017497541  0.016883618            3 
 3438000   0.69808704   -7.8464486    721.98942  0.017500228  0.016878168            4 
 3439000   0.69512653   -7.8601178    721.64605  0.017486819  0.016872717            5 
 3440000   0.70021911   -7.8693622    721.91492  0.017488249   0.01686727            3 
 3441000   0.69608156   -7.8521012    720.74575  0.017454852  0.016861835            4 
 3442000   0.71259247   -7.8542952    721.70842  0.017473088  0.016856384           10 
 3443000   0.69811337   -7.8496977    722.71945  0.017492484  0.016850939            4 
 3444000   0.70060589    -7.856589    721.81031  0.017465406  0.016845489            9 
 3445000   0.71109261   -7.8717529    721.32823  0.017448675  0.016840027            2 
 3446000   0.67965787   -7.8682631    722.25015  0.017465906    0.0168346            4 
 3447000   0.68205222   -7.8730192    722.08501  0.017456847  0.016829169            3 
 3448000   0.68935622   -7.8703381     720.8475  0.017421875  0.016823725            6 
 3449000   0.70125548    -7.872257    721.63577   0.01743587  0.016818275            2 
 3450000   0.70269612    -7.832119    722.72142  0.017457039  0.016812829            8 
 3451000   0.68862844   -7.8600525    722.80314  0.017453954  0.016807394            3 
 3452000   0.68103307   -7.8704654    722.64112  0.017444986  0.016801951            2 
 3453000   0.69439227   -7.8833889    722.56444  0.017438084  0.016796517            2 
 3454000   0.69904707   -7.8804185    720.19486  0.017375865  0.016791078            2 
 3455000   0.70367999   -7.8528531    721.70259  0.017407202  0.016785637            4 
 3456000   0.70051483   -7.8541723    722.52733  0.017422052  0.016780201            5 
 3457000   0.67314289   -7.8774748    722.47637  0.017415784  0.016774762            4 
 3458000   0.70848239   -7.8678273    723.01477  0.017423722  0.016769325            4 
 3459000   0.70523556   -7.8851025    721.74486   0.01738809  0.016763891            3 
 3460000   0.69508706   -7.8912252    720.85284  0.017361581  0.016758455            2 
 3461000   0.68030283   -7.8823904    722.86341  0.017404975  0.016753016            2 
 3462000   0.70738455    -7.871999    721.79132  0.017374141  0.016747579            6 
 3463000    0.6940956   -7.8718187    722.92887  0.017396498  0.016742149            2 
 3464000   0.69865064   -7.8879577    721.18925  0.017349626  0.016736728            5 
 3465000   0.70871312   -7.8501165    722.65906  0.017379968   0.01673133            3 
 3466000   0.69123515   -7.8680927    723.11345  0.017385878   0.01672593            3 
 3467000   0.71095086   -7.8760936    722.18633  0.017358579  0.016720524            5 
 3468000   0.68675293   -7.8798647    721.22178  0.017330397  0.016715103            4 
 3469000   0.69166057   -7.8587518    722.79893  0.017363287  0.016709681            4 
 3470000   0.68917311    -7.883952    722.04058  0.017340072  0.016704278            4 
 3471000   0.69856661   -7.8765596    721.31874  0.017317746   0.01669888            5 
 3472000   0.70957372    -7.874215    723.17545  0.017357322  0.016693495            5 
 3473000   0.68508471   -7.8659339    724.03223  0.017372882  0.016688105            2 
 3474000   0.69055023   -7.8612906    724.17798  0.017371377   0.01668273            3 
 3475000   0.70433992   -7.8723963    723.64834  0.017353677  0.016677348            5 
 3476000   0.68813482   -7.8690146    723.30065  0.017340349  0.016671961            3 
 3477000   0.70619412   -7.8922911    722.00492  0.017304307  0.016666578            6 
 3478000   0.70495848   -7.8836816    722.93657  0.017321655  0.016661194            5 
 3479000   0.68804123   -7.8958595    724.14011  0.017345504  0.016655825            6 
 3480000   0.68126451   -7.8747423     722.2473  0.017295194  0.016650442            5 
 3481000   0.69254265   -7.8741127    723.04954  0.017309431  0.016645063            2 
 3482000   0.69878529   -7.8773872    722.70249  0.017296154  0.016639678            5 
 3483000   0.68672028   -7.8799917    721.21347  0.017255562  0.016634297            1 
 3484000   0.70293521   -7.8841062    722.67144  0.017285482  0.016628922            2 
 3485000    0.6875574   -7.8997477    722.98059  0.017287915  0.016623559            2 
 3486000   0.68937107    -7.883901    723.41977  0.017293454  0.016618212            5 
 3487000   0.68299009   -7.9034736    724.23854  0.017308062  0.016612851            3 
 3488000   0.67595044   -7.8788737    722.59028   0.01726372  0.016607498            3 
 3489000   0.68919255   -7.8856248     722.9217  0.017266688  0.016602142            5 
 3490000   0.68578012   -7.8953809     723.1584  0.017267393  0.016596777            4 
 3491000   0.69094986   -7.8505274    723.87253  0.017279493  0.016591418            8 
 3492000   0.68326871   -7.8897158    721.20548  0.017210898   0.01658606            3 
 3493000   0.69503223   -7.8910097    724.77607  0.017291156  0.016580707            7 
 3494000   0.68683382   -7.8891404    722.71568  0.017237065  0.016575356            4 
 3495000   0.70232637   -7.8916518    724.39361  0.017272141  0.016570013            6 
 3496000   0.70259304   -7.9046079    723.76445  0.017252204  0.016564675            3 
 3497000   0.69271265   -7.8906646    724.20441  0.017257754  0.016559326            6 
 3498000   0.70825894   -7.8913778    725.43966  0.017282248  0.016553998            4 
 3499000   0.70280707   -7.8887806     723.8848  0.017240278  0.016548671            9 
 3500000    0.6964145   -7.9006505    723.43544  0.017224653  0.016543343            6 
 3501000   0.69126717   -7.8739091    724.75612  0.017251169  0.016538023            5 
 3502000   0.69216292   -7.9039895    723.50722  0.017216524  0.016532715            4 
 3503000   0.67898772   -7.8552172    723.80718  0.017218745  0.016527393            5 
 3504000    0.6861082   -7.8942496    723.58487  0.017208544  0.016522069            5 
 3505000   0.70385759   -7.8605611    724.32136  0.017221145  0.016516766            4 
 3506000   0.69951418   -7.8862658    724.18835  0.017213072  0.016511464            5 
 3507000   0.69366202   -7.8694843    723.90369  0.017201399  0.016506171            3 
 3508000   0.68867304   -7.8787307    724.14813  0.017202303  0.016500894            6 
 3509000   0.70030611   -7.8652586    724.07366  0.017195632  0.016495611            3 
 3510000   0.69186831   -7.8822423    723.89098  0.017186395    0.0164903            6 
 3511000   0.69182295   -7.8802796    722.72581  0.017153845  0.016485019            3 
 3512000   0.69608525   -7.8676476    723.68778  0.017171787  0.016479736            3 
 3513000   0.68898071   -7.8803866    724.66256  0.017190022  0.016474459            4 
 3514000   0.67647173   -7.9043971    723.82451  0.017165256  0.016469177            4 
 3515000   0.70524285   -7.8650611    724.85737  0.017184859  0.016463895            4 
 3516000   0.68000129   -7.8730462    723.51334  0.017148117  0.016458623            2 
 3517000   0.68593954   -7.8932473    725.03698  0.017179343  0.016453349            5 
 3518000    0.6842055   -7.8905659     723.2049  0.017131062  0.016448078            3 
 3519000   0.67963069   -7.8827174    724.35038   0.01715332  0.016442802            6 
 3520000      0.69634   -7.8925896    724.56138  0.017153442  0.016437532            3 
 3521000   0.70602677   -7.8793059    725.87785  0.017179728  0.016432274            4 
 3522000   0.66583431    -7.878762    725.57141  0.017167599   0.01642703            3 
 3523000    0.7001659   -7.8602745    725.61751  0.017163817  0.016421782            5 
 3524000   0.68641591   -7.8949295    726.54592    0.0171809  0.016416533            2 
 3525000   0.68863327   -7.8913825    724.54832  0.017128802  0.016411273            5 
 3526000    0.6721212   -7.9064795    722.96832  0.017086602  0.016405999            6 
 3527000   0.68192839   -7.9053025     723.8998  0.017103766  0.016400733            6 
 3528000   0.67704875   -7.8904301    722.42601  0.017064106   0.01639547            3 
 3529000   0.68560636    -7.882687    725.08659  0.017122098  0.016390209            3 
 3530000   0.68127471   -7.8802806      723.698  0.017084467  0.016384959            3 
 3531000   0.69178088   -7.8829049    724.88268  0.017107587  0.016379708            4 
 3532000   0.68565789   -7.8794739    725.04937  0.017106676  0.016374468            3 
 3533000   0.68136951   -7.8887573    724.71434  0.017093932  0.016369232            5 
 3534000   0.68866391   -7.8972365    724.29254  0.017079149  0.016363996            4 
 3535000   0.68066142   -7.9074884    725.35481  0.017099359  0.016358753            5 
 3536000   0.67299459    -7.887069    726.08232  0.017111669  0.016353509            5 
 3537000   0.68861187   -7.9109741    723.96266  0.017056891  0.016348265            5 
 3538000   0.68246346   -7.9039893    724.07375  0.017054686  0.016343012            2 
 3539000   0.68432078   -7.9079107    723.86662   0.01704499  0.016337769            3 
 3540000   0.69283113   -7.8937286    725.38378  0.017075889  0.016332518            3 
 3541000   0.67159891   -7.9136839    724.22221  0.017043731  0.016327265            6 
 3542000   0.69565655   -7.9152321    723.89635  0.017031252  0.016322006            3 
 3543000   0.68577507   -7.9166999    723.92516  0.017027123  0.016316754            4 
 3544000   0.69229192   -7.9312794    725.75472  0.017065339  0.016311517            3 
 3545000   0.68701446   -7.9105429    724.25593  0.017025292  0.016306277            7 
 3546000   0.67615401   -7.9093314    725.15288   0.01704157  0.016301049            4 
 3547000    0.6846569   -7.9187081    724.09364   0.01701188  0.016295811           10 
 3548000   0.67765763   -7.8981453    724.97778  0.017027851  0.016290591            3 
 3549000   0.67766709   -7.9196927    725.14481  0.017026975  0.016285364            5 
 3550000   0.67418654   -7.9059234    724.32318  0.017002892   0.01628014            8 
 3551000   0.68265923   -7.9178428    724.30134  0.016997591  0.016274926            3 
 3552000   0.67476147   -7.9111761    724.94769  0.017007969  0.016269722            2 
 3553000   0.69288019   -7.9276164    724.19997  0.016985645  0.016264507            2 
 3554000   0.67878616    -7.911071    723.94879  0.016974976  0.016259281            3 
 3555000   0.68635707   -7.9300211    725.05387  0.016996106  0.016254075            5 
 3556000    0.6829729   -7.9084328    724.62402  0.016981253  0.016248868            6 
 3557000   0.67718107   -7.9347551     723.8951  0.016959402  0.016243658            6 
 3558000   0.67083522   -7.9162197    724.78645  0.016975512  0.016238441            4 
 3559000   0.69219756   -7.9238098    724.03229  0.016953083  0.016233225            3 
 3560000   0.69073901   -7.9153179    724.85924  0.016967679   0.01622802            3 
 3561000   0.67423694   -7.9057531    725.08157  0.016968117  0.016222809            2 
 3562000    0.6814062   -7.9071929    725.96745  0.016984079  0.016217621            2 
 3563000    0.6890227   -7.8945487    726.25938  0.016986139  0.016212449            4 
 3564000   0.67312811   -7.9250111    724.72156  0.016945416  0.016207256            3 
 3565000   0.67808602   -7.9006696    726.11927  0.016973335  0.016202061            2 
 3566000   0.68502268   -7.9154086    724.46499  0.016929916  0.016196881            2 
 3567000   0.68540861   -7.9321436    725.89658  0.016958616  0.016191696            2 
 3568000   0.68870701   -7.9178938    725.04716  0.016934024  0.016186515            4 
 3569000   0.69290882   -7.9136049    725.14488  0.016931561  0.016181346            3 
 3570000   0.67472583   -7.8931737    725.60443  0.016937545  0.016176167            2 
 3571000   0.68326595   -7.8903528     725.4254  0.016928624  0.016171003            4 
 3572000   0.69457526   -7.9283733    724.69152  0.016906764  0.016165834            2 
 3573000   0.68116888   -7.9298906    725.17561  0.016913322  0.016160672            3 
 3574000   0.66994122   -7.9270508    725.29676  0.016911415  0.016155497            3 
 3575000   0.67604912   -7.9284656    725.53985  0.016912351  0.016150324            3 
 3576000   0.67604317   -7.8876255    725.80565  0.016913815   0.01614516            6 
 3577000   0.68687412   -7.9071302    725.82169  0.016909461  0.016139994            5 
 3578000   0.68555728   -7.9025482    725.94993  0.016907721  0.016134836            1 
 3579000   0.67214006   -7.9003453    726.73265  0.016921222  0.016129681            1 
 3580000   0.67391213   -7.9197466    725.92532  0.016897703  0.016124527            5 
 3581000   0.69126768   -7.9126316    724.56343  0.016861292  0.016119392            7 
 3582000   0.69630844   -7.8744721    727.75922  0.016930933  0.016114267            3 
 3583000   0.68818408   -7.9093083    725.54582  0.016874728  0.016109126            3 
 3584000    0.6651126   -7.9265083     726.1012  0.016882933   0.01610398            4 
 3585000     0.682654   -7.9061836    726.74816  0.016893263  0.016098837            4 
 3586000   0.66576768    -7.920693    725.89229  0.016868663  0.016093686            3 
 3587000   0.66714898   -7.9118875     726.1466  0.016869868  0.016088532            3 
 3588000   0.67544751   -7.9197931     725.2947   0.01684538  0.016083377            2 
 3589000   0.68527084   -7.9235318    724.68228  0.016826467  0.016078221            8 
 3590000   0.68315459    -7.903589    726.23554  0.016857835  0.016073076            5 
 3591000   0.68033438   -7.9194073    727.72204  0.016887637  0.016067934            3 
 3592000   0.68453593   -7.9136809    725.74176  0.016836993    0.0160628            3 
 3593000   0.67371182   -7.9203354    725.98729  0.016838002  0.016057669            4 
 3594000   0.67686476   -7.9163493    726.15546  0.016837216  0.016052536            2 
 3595000   0.67201574   -7.8730618    726.97838  0.016851608   0.01604741            3 
 3596000   0.66099173   -7.9061019    725.42469  0.016810917  0.016042279            6 
 3597000   0.66912647   -7.9010544    724.51424  0.016785151  0.016037147            6 
 3598000   0.68242582   -7.9259549    725.20438   0.01679647  0.016032007            5 
 3599000   0.66963577   -7.9271404    724.47111  0.016774824  0.016026861            4 
 3600000   0.68744395   -7.9006549    725.33756  0.016790221  0.016021707            6 
 3601000   0.68251087   -7.9249804    724.95419  0.016776687  0.016016553            6 
 3602000   0.66254236   -7.9212687    724.15099  0.016753447  0.016011402            4 
 3603000   0.67881821   -7.9178815    724.38275  0.016754157  0.016006256            3 
 3604000   0.66954586   -7.9256927    724.91379  0.016761788  0.016001116            7 
 3605000   0.68226644   -7.9391192    724.37304  0.016744638  0.015995964            4 
 3606000   0.67432233   -7.9067673    723.68237  0.016724033  0.015990815            4 
 3607000    0.6795848   -7.9358922    724.71246  0.016743195  0.015985667            7 
 3608000   0.66757256   -7.9176987    725.06305  0.016746652  0.015980515            5 
 3609000   0.67580157   -7.9315573    724.65161  0.016732511  0.015975366            4 
 3610000   0.68033558   -7.9372323    725.01524  0.016736271  0.015970226            3 
 3611000   0.67833788   -7.9368197    723.66908  0.016700569  0.015965088            4 
 3612000   0.67302927   -7.9300607    725.02544  0.016727239  0.015959953            2 
 3613000   0.67332505   -7.9344337    723.88628  0.016696334  0.015954809            3 
 3614000   0.67773054   -7.9321773    724.54499  0.016706903  0.015949688            2 
 3615000   0.66054773   -7.9510623    724.97638  0.016712226  0.015944558            5 
 3616000   0.67008677   -7.9343769    725.41902  0.016717806  0.015939427            6 
 3617000   0.69214131   -7.9414064    725.51832  0.016715471  0.015934295            6 
 3618000   0.68116124   -7.9394554    723.24752  0.016658548  0.015929153            5 
 3619000   0.67706527   -7.9606721    723.83949  0.016667576  0.015924005            3 
 3620000   0.67887791   -7.9256734    725.13682  0.016692837  0.015918866            4 
 3621000   0.65517844   -7.9532593     724.1526  0.016665576  0.015913717            2 
 3622000   0.67278324   -7.9382299    725.26485  0.016686565  0.015908579            4 
 3623000   0.67990178   -7.9671618    724.83393  0.016672047  0.015903441            5 
 3624000   0.64693699   -7.9422786    725.37149  0.016679808  0.015898305            2 
 3625000   0.68244876   -7.9294283    726.83778  0.016708914  0.015893167            3 
 3626000   0.67753473    -7.929549    725.15979  0.016665743  0.015888028            3 
 3627000   0.68685567   -7.9560663    724.60947  0.016648504  0.015882899            9 
 3628000   0.67404504   -7.9479332    724.79286  0.016648127  0.015877771            3 
 3629000   0.67070021   -7.9148757    725.52795   0.01666042  0.015872662            6 
 3630000   0.68421291   -7.9382596    725.66596  0.016658998  0.015867559            5 
 3631000   0.67255485   -7.9344232    724.90446  0.016636933  0.015862458            1 
 3632000   0.65750005     -7.92903    725.19417     0.016639  0.015857358            9 
 3633000   0.66251024   -7.9227462    725.59976  0.016643723  0.015852246            5 
 3634000   0.66589171   -7.9285925    725.01242  0.016625675  0.015847134            6 
 3635000   0.66813812   -7.9442766     724.7224  0.016614452  0.015842027            3 
 3636000   0.67382691   -7.9339595    726.30013  0.016646043   0.01583692            5 
 3637000   0.68184064   -7.9272499    726.82172  0.016653417  0.015831818            2 
 3638000   0.66549675   -7.9312446    725.31341  0.016614289  0.015826718            5 
 3639000   0.67049193   -7.9477457    725.70528  0.016618697  0.015821627            4 
 3640000   0.67158909   -7.9270398    725.99601  0.016620788  0.015816531            2 
 3641000   0.67228036   -7.9506293    725.21504  0.016598348  0.015811433            2 
 3642000   0.68235644   -7.9567899    724.68945  0.016581765  0.015806327            3 
 3643000   0.65895554   -7.9547536    726.94438  0.016628794  0.015801234            4 
 3644000   0.65604588   -7.9628905    724.59354  0.016570471  0.015796138            2 
 3645000   0.66677034   -7.9459995    725.02578  0.016575806  0.015791053            3 
 3646000   0.68079144   -7.9416863    725.40874  0.016580013  0.015785978            6 
 3647000   0.66384923   -7.9498491    726.42759  0.016598748  0.015780891            8 
 3648000   0.66428904   -7.9432706    725.64658  0.016576357  0.015775816            6 
 3649000   0.66338088   -7.9621605    725.76201   0.01657445  0.015770731            8 
 3650000   0.66166782   -7.9719459    725.54511  0.016564957  0.015765647            4 
 3651000   0.65098699   -7.9572439    724.33378  0.016532771  0.015760561            2 
 3652000   0.67854542   -7.9727574    726.27812  0.016572611  0.015755469            8 
 3653000   0.69577043   -7.9753499    724.94224    0.0165376  0.015750367            5 
 3654000   0.65514119   -7.9280194    726.28016  0.016563587  0.015745279            5 
 3655000   0.68114956   -7.9357926     725.9117  0.016550654  0.015740212            3 
 3656000   0.66934784    -7.969804    724.68183  0.016518094  0.015735137            3 
 3657000    0.6709475   -7.9535425    725.40047  0.016529953  0.015730062            5 
 3658000   0.68170083   -7.9614197    725.85941  0.016535889  0.015724982            5 
 3659000   0.67584641   -7.9668049    725.57712  0.016524941  0.015719916            5 
 3660000   0.67965007   -7.9599346    724.95909  0.016506354   0.01571484            6 
 3661000   0.67643882   -7.9476323    725.55983   0.01651552  0.015709757            3 
 3662000    0.6608173   -7.9674464    725.53814  0.016510517  0.015704688            4 
 3663000   0.66874186   -7.9303141     725.7283  0.016510335  0.015699618            6 
 3664000   0.66545517    -7.958714    726.05909  0.016513353  0.015694557            6 
 3665000   0.66979587   -7.9734528    724.88312  0.016482108  0.015689498            2 
 3666000   0.66020177   -7.9577665    725.55735  0.016492939  0.015684434            7 
 3667000   0.66836009   -7.9458221    724.03397  0.016453822  0.015679374            5 
 3668000   0.67811062   -7.9521189     725.9363  0.016492555  0.015674313            4 
 3669000   0.67521327   -7.9655205    725.24815   0.01647243  0.015669275            9 
 3670000   0.66183231   -7.9654567    726.68577  0.016500585  0.015664233           10 
 3671000   0.65274087   -7.9362402    725.80565  0.016476111  0.015659189            7 
 3672000   0.66266305    -7.957373    724.10026  0.016432922  0.015654145            3 
 3673000   0.65930218   -7.9645502    725.49414  0.016460072  0.015649108            3 
 3674000    0.6650908   -7.9380997    727.73514  0.016506422  0.015644076            1 
 3675000   0.68085705   -7.9441075    725.66373   0.01645496   0.01563905            5 
 3676000   0.67221504   -7.9337887    728.56846  0.016516332  0.015634019            3 
 3677000    0.6668626   -7.9582779    725.86193  0.016450502  0.015628987            2 
 3678000   0.66049737   -7.9837947     725.4675  0.016437092  0.015623949            8 
 3679000   0.65841033   -7.9731607    726.46461   0.01645521  0.015618908            4 
 3680000   0.65177878   -7.9360466    724.94933  0.016416425   0.01561388            6 
 3681000   0.66613383   -7.9898068    725.23526  0.016418438  0.015608844            5 
 3682000   0.66840568   -7.9639463    724.93221   0.01640712  0.015603803            5 
 3683000    0.6564124   -7.9515965    725.11455  0.016406791  0.015598769            8 
 3684000   0.66449678   -7.9781164    726.23984  0.016427792  0.015593736            7 
 3685000   0.64864915   -7.9597167    725.51565  0.016406957  0.015588715            4 
 3686000   0.65317599    -7.964771    725.94413  0.016412193  0.015583684            8 
 3687000   0.65973997    -7.951238    726.42563  0.016418625  0.015578655            4 
 3688000   0.65077364   -7.9447458    726.28338  0.016410959  0.015573635            6 
 3689000   0.66088357   -7.9680079    725.89386  0.016397711  0.015568615            4 
 3690000   0.63800471   -7.9552244    726.27085  0.016401781  0.015563599            2 
 3691000   0.66121952   -7.9838447     725.5788  0.016381712  0.015558584            5 
 3692000   0.65386858   -7.9685701    726.01255  0.016387065  0.015553558            6 
 3693000   0.65127533    -7.959318    727.00536  0.016405031  0.015548538           11 
 3694000   0.65819818   -7.9604977    725.91541  0.016376002  0.015543524            7 
 3695000   0.65204033   -7.9967827    726.01851  0.016373895  0.015538502           10 
 3696000   0.66141322   -7.9661299    726.43087  0.016378762  0.015533479           11 
 3697000   0.66263594   -7.9763739    726.05687  0.016365902  0.015528449            7 
 3698000   0.65864341   -7.9664609    725.03148  0.016338369  0.015523429            9 
 3699000   0.67376425   -7.9949916    724.49549  0.016321877  0.015518402            9 
 3700000   0.66621842   -7.9609647     725.4855  0.016339764   0.01551337           10 
 3701000   0.65727507   -7.9702023    725.24863  0.016330015  0.015508348            8 
 3702000   0.67366155   -7.9616184    726.18331  0.016346644  0.015503335           14 
 3703000   0.66962917   -7.9673767    724.19547  0.016297495  0.015498314            7 
 3704000   0.65914645   -7.9700829    726.26229  0.016339594  0.015493315            3 
 3705000   0.65920299   -7.9624757    724.93246  0.016305274  0.015488312            7 
 3706000    0.6633672   -7.9448794    724.47024   0.01629048  0.015483308            3 
 3707000   0.66048494   -7.9846086    724.26229  0.016281411  0.015478299            5 
 3708000   0.66043132   -7.9671916     726.8201  0.016334504  0.015473289            3 
 3709000   0.66819208   -7.9556547    726.85123    0.0163308  0.015468285            5 
 3710000   0.67234638   -7.9667761    725.38564  0.016293478  0.015463283            5 
 3711000   0.65924044   -7.9638501    725.31339  0.016287465  0.015458278            4 
 3712000   0.65131117   -7.9566025    725.96997  0.016297817   0.01545329            3 
 3713000   0.66307534   -7.9721994    727.70062   0.01633227  0.015448314            2 
 3714000   0.67245873   -7.9646163     726.5626  0.016302338  0.015443347            2 
 3715000   0.65258563   -7.9640635    725.36737  0.016271139  0.015438385            7 
 3716000   0.66221615   -7.9498006    724.71055  0.016252031  0.015433409            4 
 3717000   0.66643968    -7.957483    727.30464  0.016305817  0.015428454            5 
 3718000   0.65337277   -7.9418518    725.90507  0.016270062  0.015423491            5 
 3719000    0.6565896   -7.9506327    726.81474   0.01628607   0.01541853            3 
 3720000   0.66161872   -7.9772785    727.21981  0.016290766  0.015413561            5 
 3721000   0.65798804   -7.9586545    725.91105  0.016257078  0.015408608            2 
 3722000   0.67050406   -7.9556963    726.32912  0.016262071  0.015403656            3 
 3723000   0.66054201   -7.9898288    726.26188  0.016256198  0.015398699            2 
 3724000   0.65626979   -7.9434797    726.51221  0.016257434  0.015393741            4 
 3725000   0.64331672   -7.9581171    727.69731  0.016279582  0.015388801            6 
 3726000   0.65277818   -7.9620132    726.10355  0.016239568  0.015383843            4 
 3727000   0.65397755   -7.9698509    726.01278  0.016233181  0.015378883            3 
 3728000   0.66082494   -7.9709363    725.25239  0.016211829  0.015373929            3 
 3729000   0.65587602   -7.9941921    724.92897  0.016200254  0.015368966            3 
 3730000   0.65017891   -7.9545942    726.43044  0.016229456  0.015363994            3 
 3731000   0.65883421   -7.9591388    725.10639  0.016195533  0.015359024            3 
 3732000   0.65057786   -7.9487216    726.03124  0.016211845   0.01535406            4 
 3733000   0.66441715   -7.9823512    725.33322  0.016191919   0.01534909            6 
 3734000   0.66875155   -8.0081068    726.54567  0.016214642  0.015344122            6 
 3735000   0.64997564   -8.0009674    725.86779  0.016195176  0.015339147            5 
 3736000   0.67289589   -7.9934549     725.6329  0.016185602  0.015334178            3 
 3737000   0.65794785   -7.9789584    725.52285  0.016178817  0.015329204            4 
 3738000   0.64931171    -8.010042    726.59414  0.016198371   0.01532422            4 
 3739000   0.64296641   -7.9821557    726.13438  0.016183792  0.015319245            3 
 3740000   0.63543426   -8.0190069    724.08853   0.01613388  0.015314269            4 
 3741000   0.65704032   -8.0047267    726.35755  0.016180111  0.015309297            4 
 3742000   0.65214327   -7.9710266    726.66561  0.016182648  0.015304321            4 
 3743000    0.6486936    -8.004677    725.54527  0.016153381   0.01529936            5 
 3744000    0.6560711   -7.9870987    726.07986  0.016160966  0.015294393            8 
 3745000   0.67041907   -7.9905197    725.59266  0.016145809  0.015289427            4 
 3746000   0.66158982   -8.0108397     723.6857  0.016099077  0.015284465            5 
 3747000   0.65973984   -7.9935158    725.86695  0.016143291  0.015279506            6 
 3748000   0.64669762   -7.9608508    725.97861  0.016141467  0.015274542            4 
 3749000    0.6496948   -7.9950514    725.39186  0.016124119  0.015269581            5 
 3750000   0.65048068   -7.9710826    725.16079  0.016114684  0.015264638            3 
 3751000   0.65724585   -8.0044245    725.60209  0.016120192  0.015259682            3 
 3752000   0.64382693   -7.9791431     726.3645  0.016132829   0.01525473            4 
 3753000   0.64618824   -7.9767802    727.56011  0.016155078  0.015249789           10 
 3754000   0.65436802   -7.9778528    725.62683  0.016107859   0.01524486            2 
 3755000   0.64343148   -7.9882737    725.48856  0.016100501  0.015239933            5 
 3756000   0.65862006   -7.9502494    726.94945  0.016128626  0.015234999            4 
 3757000   0.65633769   -7.9969973     726.5013  0.016114393  0.015230066            5 
 3758000   0.67163362   -7.9762478    724.46845  0.016065027  0.015225136            2 
 3759000   0.64076249   -7.9778004    725.49544   0.01608352  0.015220212            7 
 3760000   0.65631113   -8.0109208    725.31749  0.016075299  0.015215293            7 
 3761000    0.6479248   -7.9886302    726.62469  0.016099989  0.015210375            7 
 3762000   0.66795461   -8.0088714    726.14349   0.01608505  0.015205446            4 
 3763000   0.64267472   -7.9946162    725.55962  0.016067845  0.015200532            5 
 3764000   0.64743638   -7.9623382    726.27675  0.016079453  0.015195602            9 
 3765000    0.6406345   -7.9783646    726.12803  0.016071891  0.015190685            3 
 3766000   0.64571633   -7.9936787    725.81037  0.016060594  0.015185782            4 
 3767000   0.64114725   -7.9881501    725.74061  0.016054787  0.015180877            6 
 3768000   0.65010617   -7.9747139     726.4579   0.01606639  0.015175969            9 
 3769000   0.64184598   -7.9865235    726.68858  0.016067228  0.015171087            4 
 3770000   0.65589496   -7.9731899    727.34163  0.016077401  0.015166198            5 
 3771000   0.65966102   -7.9761123    725.55168  0.016033583  0.015161306            5 
 3772000   0.65160277   -7.9964862    726.20514  0.016043769  0.015156411            3 
 3773000   0.64591766   -7.9931291    727.35984   0.01606502  0.015151508            4 
 3774000   0.65297302   -7.9740441    726.30847  0.016037548  0.015146619            2 
 3775000   0.64663331   -7.9827337    726.19979    0.0160309  0.015141734            3 
 3776000   0.64310434    -7.980784    727.04134  0.016045227  0.015136845            2 
 3777000   0.64785335   -7.9852649    726.01119  0.016018251  0.015131953            3 
 3778000   0.65289713   -7.9896483    726.44775   0.01602364  0.015127066            3 
 3779000   0.64688682    -8.005216    724.71843  0.015981265  0.015122175            2 
 3780000   0.64071007   -7.9991478    726.00498  0.016005401  0.015117281            5 
 3781000   0.64044744   -7.9742282    725.90394  0.015998941   0.01511238            5 
 3782000   0.66361215   -8.0045592    725.59419  0.015987885  0.015107485            4 
 3783000   0.64936426     -8.00381    726.11399  0.015995109  0.015102588            3 
 3784000   0.64181353   -7.9783205    726.29071  0.015994774  0.015097683            4 
 3785000   0.64147131   -7.9690177    726.39132  0.015992764  0.015092786            3 
 3786000   0.64459636   -7.9929214    726.23885  0.015985183  0.015087893            3 
 3787000   0.65850018   -8.0118372    724.77605  0.015948773  0.015082998            4 
 3788000   0.65577744   -8.0025907    724.37509  0.015935742  0.015078091            2 
 3789000   0.63867572   -8.0060342    725.30617  0.015952014  0.015073199            2 
 3790000   0.63894648   -7.9848011    726.95241  0.015984002  0.015068306            7 
 3791000   0.65724518   -8.0010541    726.41931  0.015968067  0.015063412           12 
 3792000   0.65837381   -8.0148777    725.45447  0.015942653  0.015058515            2 
 3793000   0.64787223   -8.0054497    725.22248  0.015933353  0.015053614            6 
 3794000   0.63304672   -7.9906086    725.16011  0.015927783  0.015048724            5 
 3795000   0.64593185   -8.0099089    724.62556  0.015911848  0.015043833            1 
 3796000   0.65004722   -8.0118361    725.62038  0.015929496  0.015038931            5 
 3797000   0.63894853   -8.0302627    724.54287  0.015901652  0.015034031            4 
 3798000   0.64535902   -7.9907854    724.64214  0.015899643  0.015029137            4 
 3799000    0.6291573   -7.9931643    726.06684   0.01592671  0.015024245            7 
 3800000   0.63675546   -8.0053144    725.68813  0.015914213  0.015019352            1 
 3801000   0.62056804   -7.9828781    724.91657  0.015893111  0.015014467            2 
 3802000   0.64700042   -8.0340192       724.29  0.015875197  0.015009586            3 
 3803000   0.63308051   -7.9992412    726.25086   0.01591399  0.015004708            3 
 3804000   0.65043368   -7.9983539    726.00355  0.015904389  0.014999821            4 
 3805000   0.64257201    -8.010587    725.35696  0.015886048  0.014994936            5 
 3806000   0.63973054   -7.9950034    726.37944  0.015904262  0.014990061            2 
 3807000   0.65569101    -8.001555    725.43363  0.015879381  0.014985188            2 
 3808000   0.64398681   -8.0179364    726.13532  0.015890566  0.014980306            3 
 3809000   0.64232835   -7.9936671     725.0087  0.015861746  0.014975432            2 
 3810000   0.63960102   -7.9976347     725.8112  0.015875136  0.014970566            5 
 3811000   0.63960514   -7.9839213    726.29947  0.015881647  0.014965706            3 
 3812000   0.63952194   -8.0131218    726.81192  0.015888683  0.014960835            3 
 3813000   0.64593007   -7.9944789    725.08296   0.01584673  0.014955953            2 
 3814000   0.63777678   -8.0202742    724.75395  0.015835386  0.014951072            3 
 3815000   0.64823633   -8.0286001     724.3277  0.015821924  0.014946198            3 
 3816000   0.65694596   -8.0037379    724.73279  0.015826625  0.014941318            5 
 3817000   0.64869425    -8.010987    724.24412   0.01581181  0.014936437            3 
 3818000   0.63002967   -8.0270013    725.95026  0.015844907  0.014931569            3 
 3819000   0.64022316   -8.0051731    724.27505  0.015804204    0.0149267            5 
 3820000   0.64688633   -8.0071435    726.06849   0.01583919  0.014921835            3 
 3821000   0.65424007   -8.0087045    725.90854  0.015831557  0.014916963            6 
 3822000   0.63929471   -8.0319598    724.62579  0.015799446  0.014912088            5 
 3823000   0.64158599   -8.0146794    725.29349  0.015809868  0.014907224            3 
 3824000   0.63865259   -8.0146908    724.01803  0.015777938  0.014902363            4 
 3825000      0.63973   -8.0132877    725.40694  0.015804073  0.014897502            5 
 3826000   0.63265414   -8.0235476    725.14353  0.015794205  0.014892633            5 
 3827000   0.62655465   -8.0346639    725.67515  0.015801654  0.014887763           11 
 3828000   0.63338715   -7.9948966    726.10764  0.015806941  0.014882904            4 
 3829000   0.64871888    -8.026861    726.22716  0.015805414  0.014878052            3 
 3830000   0.65569893   -8.0209808    724.32133   0.01575982  0.014873198            4 
 3831000   0.63008504   -8.0124393    725.15853  0.015773917  0.014868346            2 
 3832000   0.64445346   -8.0219368    724.57614  0.015757136  0.014863487            4 
 3833000   0.64567235   -8.0004565    724.17819  0.015744373  0.014858633            5 
 3834000   0.64484852   -8.0098203    724.28723  0.015742637  0.014853785           11 
 3835000   0.62925637   -8.0008521    724.57712  0.015744831   0.01484893            7 
 3836000   0.63434707   -8.0273584    725.06625  0.015751352  0.014844091            4 
 3837000   0.63444958   -8.0497176    725.25587  0.015751365  0.014839235            5 
 3838000   0.63752961   -8.0312166    724.90693  0.015739685  0.014834385            3 
 3839000   0.63249932   -8.0281225    724.82516   0.01573381  0.014829529            2 
 3840000   0.63648805   -8.0170488    723.71177  0.015705551  0.014824681            3 
 3841000   0.63593098   -8.0299063    725.28744  0.015735647  0.014819834            4 
 3842000   0.62750018    -8.058731    724.82033   0.01572142   0.01481498            3 
 3843000   0.63970488   -8.0309202    725.41463  0.015730216  0.014810131            2 
 3844000    0.6395188   -8.0595946    724.75086  0.015711734  0.014805286            5 
 3845000   0.63501225    -8.031836    726.05683  0.015735952  0.014800452            3 
 3846000   0.63389679   -8.0423936    725.64095  0.015722849  0.014795623            7 
 3847000   0.62898842    -8.017098    726.27067  0.015732403  0.014790801            8 
 3848000   0.63406125   -8.0309926    726.42667  0.015731693  0.014785976            3 
 3849000     0.636537   -8.0442753    724.23523   0.01568016  0.014781153            4 
 3850000   0.62519315   -8.0365994    724.95453  0.015691656  0.014776326            6 
 3851000   0.63155528   -8.0300534    724.41991  0.015676013  0.014771502            3 
 3852000   0.63898675    -8.031692    723.90857  0.015660881  0.014766672            3 
 3853000   0.63794715   -8.0144644    724.67822  0.015673463  0.014761849            4 
 3854000   0.63175617   -8.0183555    725.06351  0.015677727  0.014757025            3 
 3855000   0.62980088   -8.0486306    725.19312  0.015676462  0.014752192            3 
 3856000   0.64021748   -8.0457163    723.92842  0.015645064  0.014747363            4 
 3857000    0.6559655   -8.0386751    725.79981  0.015681441  0.014742541            4 
 3858000   0.62517944   -8.0390774    723.98483  0.015638173  0.014737717            3 
 3859000   0.62530198   -8.0356568    723.42929  0.015622123  0.014732901            5 
 3860000   0.64698673   -8.0302657    725.73753  0.015667909  0.014728086            2 
 3861000   0.63297237   -8.0321038    725.53871   0.01565956   0.01472327            4 
 3862000   0.64156961   -8.0527655    724.65946  0.015636532  0.014718452            4 
 3863000   0.63573501    -8.046932    725.29494  0.015646193   0.01471364            4 
 3864000   0.64098008   -8.0285882    723.44906  0.015602335  0.014708825            2 
 3865000   0.64173615   -8.0525576    724.72008  0.015625703  0.014704012            4 
 3866000    0.6240462   -8.0542053     723.9115  0.015604231  0.014699191            3 
 3867000    0.6305764   -8.0398039     724.1971  0.015606351   0.01469438            4 
 3868000    0.6294437   -8.0219517    725.87702  0.015638509  0.014689579            4 
 3869000   0.62432784   -8.0439271    725.23151  0.015620563  0.014684778            3 
 3870000   0.64373566   -8.0279637    725.12901   0.01561432  0.014679987            3 
 3871000   0.64646807   -8.0499414    725.90286  0.015626945  0.014675197            4 
 3872000   0.63913427   -8.0429593    723.30949  0.015567095    0.0146704            5 
 3873000    0.6383085   -8.0449417    724.67107  0.015592372  0.014665596            2 
 3874000   0.62346325   -8.0366209    724.29896  0.015580342  0.014660798            4 
 3875000   0.61776164   -8.0368401    724.99964   0.01559139  0.014656004            3 
 3876000   0.62460459   -8.0457312    724.98155  0.015586979    0.0146512            3 
 3877000   0.64403678   -8.0379987    724.66397  0.015576132  0.014646401            4 
 3878000   0.62915162   -8.0426757    723.68683  0.015551118  0.014641596            5 
 3879000   0.62898458    -8.040823    724.98582  0.015575016  0.014636804            6 
 3880000   0.62288521   -8.0340825    724.10264  0.015552033  0.014632015            8 
 3881000   0.61890403   -8.0446274    724.23347  0.015550835  0.014627216            3 
 3882000   0.63220326   -8.0615244    723.63806  0.015534047  0.014622419            5 
 3883000    0.6363989   -8.0410103    725.36887  0.015567192  0.014617635            2 
 3884000   0.63535125    -8.042281    724.75546  0.015550023  0.014612857            3 
 3885000    0.6362837   -8.0290409    723.37364   0.01551638  0.014608083            4 
 3886000   0.63318378   -8.0440351    724.99187  0.015547089  0.014603321            4 
 3887000   0.63146949   -8.0381514    724.10474   0.01552407  0.014598549            4 
 3888000    0.6213727    -8.021588    725.32109  0.015546148  0.014593787            2 
 3889000   0.63215435   -8.0612809    725.12363   0.01553792  0.014589025            4 
 3890000   0.62938785   -8.0354893    724.64415  0.015523654  0.014584257            6 
 3891000    0.6208676    -8.041011    724.25479  0.015511325  0.014579491            5 
 3892000    0.6337925   -8.0152076    724.55906  0.015513854  0.014574728            7 
 3893000   0.63195303   -8.0243436    725.87517  0.015538042  0.014569973           12 
 3894000   0.61570211   -8.0430574    724.65578  0.015507956  0.014565217            5 
 3895000   0.63065811   -8.0270902    726.15893  0.015536135   0.01456047            7 
 3896000   0.63727964   -8.0255688    725.38905   0.01551568  0.014555725            3 
 3897000   0.62219091    -8.032706    724.80922  0.015499299  0.014550982            9 
 3898000   0.63413948   -8.0176213    725.57002  0.015511588  0.014546236            4 
 3899000   0.63295237   -8.0519772    726.94307  0.015536955  0.014541495            4 
 3900000    0.6274399   -8.0475981    725.37087  0.015499377  0.014536753            4 
 3901000    0.6332241   -8.0237965    725.14708  0.015490624  0.014532014            3 
 3902000   0.62767617   -8.0343687    725.51586   0.01549453  0.014527287            4 
 3903000   0.63693264   -8.0208168    724.74357  0.015474071  0.014522554            5 
 3904000   0.62726213   -8.0333277    725.27666  0.015481486  0.014517835            3 
 3905000   0.63223178   -8.0186625    725.49809  0.015482247  0.014513119            5 
 3906000   0.61581014   -8.0405231    725.01475  0.015467971  0.014508395            5 
 3907000   0.60772434   -8.0271632    724.69381  0.015457167  0.014503678            3 
 3908000   0.61716317   -8.0394601    725.29108  0.015465948  0.014498955            4 
 3909000    0.6398272   -8.0532988    726.84076  0.015495028  0.014494237            5 
 3910000    0.6275633   -8.0255455    726.94753   0.01549334  0.014489523            4 
 3911000   0.62704282   -8.0250879    725.54701  0.015459537  0.014484822            3 
 3912000   0.62100727   -8.0346314    725.07843  0.015445604  0.014480118            4 
 3913000   0.61581739   -8.0320577    726.37151  0.015469195  0.014475401            3 
 3914000   0.62704176   -8.0479024    724.43923  0.015424102  0.014470692            5 
 3915000   0.62162352   -8.0422001     724.2312  0.015415734  0.014465982            3 
 3916000   0.61196222   -8.0320257    725.66585  0.015442327  0.014461274            4 
 3917000   0.62746861   -8.0470122    723.77902  0.015398243  0.014456572            6 
 3918000   0.62206821   -8.0392731    724.14645  0.015402128  0.014451866            3 
 3919000   0.60901868   -8.0386083    726.56602  0.015449647  0.014447173            6 
 3920000   0.62975163   -8.0383201    724.64309  0.015404828   0.01444247            2 
 3921000    0.6324262   -8.0638179    725.12672  0.015411177   0.01443777            4 
 3922000   0.62032123   -8.0618337    724.62535  0.015396595  0.014433073            6 
 3923000   0.60804037   -8.0314036    724.21264  0.015383903  0.014428366            6 
 3924000   0.62250099   -8.0356684    726.24085  0.015423056  0.014423659            3 
 3925000   0.62451841   -8.0505075    725.23885  0.015397853  0.014418952            3 
 3926000   0.61303228   -8.0614516    724.96547  0.015388128   0.01441424            5 
 3927000    0.6159848   -8.0358562    725.12195   0.01538753  0.014409529            6 
 3928000   0.63220026    -8.054533    725.78553   0.01539769  0.014404821            2 
 3929000   0.62742135    -8.061278    726.37934  0.015406366  0.014400117            2 
 3930000   0.61566155   -8.0217144    725.70918  0.015388235  0.014395412            2 
 3931000    0.6121764   -8.0720266    725.64632  0.015382988  0.014390711            3 
 3932000   0.60957119   -8.0746239    724.99863  0.015365349  0.014386003            3 
 3933000   0.60679044   -8.0612127    725.43622  0.015370714    0.0143813            3 
 3934000    0.6237844   -8.0443406    723.68188  0.015329645  0.014376602            4 
 3935000   0.63895405   -8.0812451     724.3819  0.015340574  0.014371895            4 
 3936000   0.63492147   -8.0608062    724.80579  0.015345651  0.014367194            2 
 3937000   0.61390494   -8.0558492    723.95868  0.015323823  0.014362495            4 
 3938000   0.62809296    -8.068652    724.86695  0.015339152  0.014357802            4 
 3939000   0.61903551   -8.0611913    725.25358  0.015343437   0.01435311            3 
 3940000   0.63359611   -8.0384955    724.86883  0.015331405  0.014348425            9 
 3941000   0.62156953   -8.0322778    725.28124  0.015336235  0.014343738            5 
 3942000    0.6228308   -8.0364667    724.28691  0.015311325  0.014339052            4 
 3943000   0.61758191   -8.0251166    725.41438   0.01533127   0.01433437            6 
 3944000    0.6151769   -8.0692734    724.47607  0.015307557  0.014329691            3 
 3945000   0.61267828    -8.040471    725.40256  0.015323248  0.014325013            4 
 3946000   0.61572703   -8.0550242    723.23183  0.015273522  0.014320333            5 
 3947000   0.62710396   -8.0823825    724.69461  0.015300537  0.014315652            4 
 3948000   0.61506514   -8.0703425     723.8941  0.015279764  0.014310963            5 
 3949000    0.6199807   -8.0731034    724.40665  0.015286711  0.014306277            4 
 3950000   0.61849728   -8.0453427    724.63988  0.015287761  0.014301596            3 
 3951000    0.6058958   -8.0682501    725.01541  0.015291812  0.014296913            4 
 3952000   0.62653914   -8.0651272    724.53352  0.015277782  0.014292232            2 
 3953000    0.6066259   -8.0816947    724.11559  0.015265107  0.014287549            3 
 3954000   0.61300819   -8.0759602    724.26169  0.015264325  0.014282866            7 
 3955000   0.62102836   -8.0688577     725.1872  0.015279966  0.014278192            5 
 3956000   0.61232222   -8.0680841    726.05045  0.015294288  0.014273526            9 
 3957000   0.63125053   -8.0921161    725.28332  0.015274268  0.014268857            5 
 3958000   0.62125096    -8.067076    724.70505  0.015258233  0.014264192            4 
 3959000   0.61235706   -8.0850597    723.67563  0.015232711  0.014259522            2 
 3960000    0.6207369   -8.0623196    723.72354  0.015229872  0.014254845            3 
 3961000   0.61229532   -8.0763833    725.66297   0.01526683  0.014250174            4 
 3962000   0.60946619   -8.0874249    724.16939  0.015231562  0.014245505            4 
 3963000   0.60934086    -8.076093    724.16648  0.015227657  0.014240834            4 
 3964000   0.60842356   -8.0746152    724.89198  0.015239068  0.014236159            5 
 3965000   0.61479789   -8.0534735    724.38282  0.015224523  0.014231492            3 
 3966000   0.60276443   -8.0846638    723.15772  0.015194943  0.014226819            3 
 3967000   0.61825609   -8.0719843    724.48197  0.015218931  0.014222144            4 
 3968000   0.61198933   -8.0696018     724.4174  0.015213739  0.014217478            3 
 3969000   0.61115938   -8.0977069     723.2021  0.015184389  0.014212817            3 
 3970000   0.62684957   -8.0677184    723.86367  0.015194451  0.014208147            7 
 3971000   0.61435771   -8.0674975    725.23085  0.015219316  0.014203481            6 
 3972000   0.60804727   -8.0681315      724.683  0.015203991  0.014198828            8 
 3973000   0.61569435    -8.071866    723.93995  0.015184578  0.014194177            3 
 3974000    0.6189448   -8.0861349    724.40453  0.015190499  0.014189522            7 
 3975000   0.63365188   -8.0844435    724.72751  0.015193449  0.014184866            3 
 3976000   0.61396269   -8.0767994    724.93488  0.015193974  0.014180215            4 
 3977000   0.63232847   -8.0595732    723.33823  0.015156697  0.014175561            3 
 3978000   0.61713946   -8.0751963    724.26627  0.015172328  0.014170914            2 
 3979000   0.62937175   -8.0845298    724.33485  0.015169952  0.014166265            5 
 3980000   0.60871937   -8.0803778    725.55863  0.015191764   0.01416162            3 
 3981000   0.61200129   -8.0607655    724.40242  0.015163745  0.014156981            3 
 3982000   0.61306471   -8.0624361    724.00398  0.015151599  0.014152342            5 
 3983000   0.60945685   -8.0654743     724.5284  0.015158766  0.014147709            4 
 3984000   0.62984132   -8.1110786    723.39884  0.015131335  0.014143065            5 
 3985000   0.62936017   -8.0669972    723.77815  0.015135469  0.014138423            3 
 3986000   0.61648568   -8.0781129    723.09357   0.01511736  0.014133777            6 
 3987000   0.61665211   -8.0822511    725.12263  0.015155978   0.01412914            2 
 3988000   0.60866501   -8.0655328    723.88449  0.015126306  0.014124504            3 
 3989000   0.62118462   -8.0973184    723.06755  0.015105447  0.014119861            8 
 3990000   0.61389102   -8.0860145    723.58029   0.01511237  0.014115225            2 
 3991000    0.6083295   -8.0931864    724.16719  0.015120838   0.01411059            5 
 3992000    0.6174844   -8.0966072    723.12559  0.015095307  0.014105946            4 
 3993000   0.61040742   -8.0748004    723.54931   0.01510037  0.014101303            6 
 3994000   0.61973224   -8.0636859    722.59817  0.015076744  0.014096661            3 
 3995000   0.61915841   -8.1013015    723.48871  0.015091546  0.014092019            7 
 3996000   0.62642965   -8.1139696    724.29959   0.01510468  0.014087386            3 
 3997000   0.61472973   -8.0671222    722.20262  0.015057181  0.014082759            4 
 3998000   0.60793056   -8.0987599    723.02424   0.01507054  0.014078127            4 
 3999000    0.6149796   -8.0613975    724.00179  0.015087142  0.014073501            5 
 4000000   0.61335183   -8.0699079    723.76494  0.015078436  0.014068879            6 
 4001000   0.62310001   -8.0780929    723.12086  0.015061253  0.014064252            4 
 4002000   0.61270079   -8.0834992     723.3336  0.015061919  0.014059629            3 
 4003000   0.62315385   -8.0848267    723.38026  0.015059128  0.014055012            3 
 4004000   0.61243461   -8.0800921    723.28153  0.015053312  0.014050399            6 
 4005000   0.61253308   -8.1060803    723.17886  0.015047417  0.014045772            6 
 4006000   0.60801589   -8.0816656    722.75474  0.015034838   0.01404115            4 
 4007000   0.60703587   -8.0609211    723.98179  0.015056605  0.014036534            7 
 4008000   0.60350593   -8.0830158    723.63871  0.015045715  0.014031926            1 
 4009000   0.60071851   -8.1086242    723.67022  0.015042617  0.014027311            5 
 4010000   0.60677917   -8.0870153    722.68589   0.01501841  0.014022684            4 
 4011000   0.61882005   -8.0922708    724.32552  0.015048731  0.014018074            2 
 4012000   0.61583677   -8.0997242    722.82911  0.015013898  0.014013462            4 
 4013000   0.62787672   -8.0725806    724.38235  0.015042411  0.014008852            5 
 4014000   0.61937936   -8.1047252    722.77746  0.015005345  0.014004239            4 
 4015000   0.60508261   -8.0901521    723.06704  0.015007618  0.013999627            3 
 4016000   0.60608659   -8.1029714    723.38379  0.015010454  0.013995018            3 
 4017000   0.61294804   -8.0910409    721.68878  0.014971554  0.013990401            4 
 4018000   0.59042376   -8.1066799    721.73199  0.014968724  0.013985789            4 
 4019000   0.60232793   -8.0994007    722.96685  0.014990604  0.013981178            4 
 4020000    0.6196023   -8.0937169    723.54742   0.01499891  0.013976566            8 
 4021000   0.60841879   -8.0933592    723.91534  0.015002805  0.013971959            4 
 4022000    0.6272805   -8.0889948    724.83413  0.015018111  0.013967363            4 
 4023000   0.61043374   -8.0680434    724.53733   0.01500823  0.013962768            4 
 4024000   0.61149177   -8.0791282    723.39504  0.014980845  0.013958168            9 
 4025000   0.61291427   -8.0776737    724.11102  0.014991947  0.013953576            4 
 4026000     0.609301   -8.1012455    724.03422  0.014986633  0.013948985            6 
 4027000   0.62032625   -8.0979159    722.79689  0.014957307  0.013944407            4 
 4028000   0.61225842   -8.0912888    723.95663  0.014977587  0.013939829            3 
 4029000   0.61308774   -8.0849874    723.90672  0.014972837  0.013935245            3 
 4030000   0.59402908   -8.0624609    723.59573  0.014962691  0.013930671            2 
 4031000   0.60656267   -8.0844544     724.0397  0.014968157  0.013926097            7 
 4032000   0.60742677   -8.1015381    724.24643  0.014968717  0.013921518            6 
 4033000   0.60306131    -8.099138    723.47239  0.014949012  0.013916938            6 
 4034000   0.61158926   -8.0889091    724.51797  0.014966906  0.013912363            8 
 4035000   0.61488151   -8.0788638    725.12644  0.014975763  0.013907802            6 
 4036000   0.59907508   -8.0815575    723.87878  0.014946291  0.013903246            2 
 4037000   0.60758276   -8.0734187    723.63712  0.014937601  0.013898683            2 
 4038000   0.61630854   -8.0812159    723.95819  0.014940527  0.013894125            4 
 4039000   0.59981387   -8.0898356    724.28091  0.014943487  0.013889566            4 
 4040000   0.61052744   -8.0842869    724.08528  0.014935752  0.013884998            2 
 4041000   0.59412145   -8.0861239    723.74479  0.014925035  0.013880433            6 
 4042000   0.60747118   -8.0961323    722.43442  0.014894327  0.013875875            3 
 4043000   0.60744279   -8.0934933    724.43061  0.014931788  0.013871315            4 
 4044000   0.60333537   -8.0932724    722.54675  0.014889275   0.01386676            9 
 4045000   0.62553754   -8.1031085    724.23679  0.014920412  0.013862206            5 
 4046000   0.61193656   -8.0661864    723.11188  0.014893555  0.013857659            4 
 4047000   0.60186306   -8.1054946    723.61816    0.0149003  0.013853106            6 
 4048000    0.5975115     -8.10107    723.25171  0.014889075  0.013848554            4 
 4049000   0.61569458   -8.1072407     723.9257  0.014899269  0.013843996            7 
 4050000   0.61015848   -8.1113891    724.29147  0.014903117  0.013839438            4 
 4051000   0.59193815   -8.1073201    722.37049  0.014859921  0.013834884            5 
 4052000   0.60655236   -8.0818835    723.16283  0.014872549  0.013830334            4 
 4053000   0.60312274   -8.0972554    723.66674  0.014879241  0.013825787            5 
 4054000   0.60079509   -8.0786025    723.53039  0.014872767  0.013821243            5 
 4055000   0.60130892   -8.1075492    722.05281  0.014838734  0.013816691            4 
 4056000   0.61490522   -8.0854358    723.33883  0.014861498  0.013812139            5 
 4057000   0.59700522    -8.099072     723.4511  0.014860141  0.013807595            3 
 4058000   0.59794495   -8.0923757     722.9599  0.014846392  0.013803039            5 
 4059000   0.60757225   -8.0970706     723.5937  0.014855746  0.013798497            6 
 4060000   0.59272131   -8.0940725    722.86432  0.014837117   0.01379395            4 
 4061000   0.59659514   -8.0957319    724.32509  0.014863439  0.013789408            4 
 4062000   0.60086244   -8.1042339    723.42479  0.014841309  0.013784865            4 
 4063000   0.61330251   -8.1138212    722.85665  0.014826004  0.013780322            5 
 4064000    0.5973244    -8.103199    723.67689  0.014839175  0.013775776            9 
 4065000    0.5988754   -8.1243506    722.48801  0.014811152   0.01377124            5 
 4066000   0.60668446   -8.1216448    722.67645  0.014811372  0.013766708            5 
 4067000     0.610679   -8.0864956    722.78577   0.01480997  0.013762177           13 
 4068000   0.60086226   -8.1052086    722.74174  0.014805427  0.013757646            6 
 4069000   0.58518905    -8.124773    723.16504  0.014810458  0.013753114            3 
 4070000   0.59326007   -8.1196655    723.02295   0.01480391  0.013748582            8 
 4071000   0.59878933   -8.1108633    723.70822  0.014814301  0.013744053            5 
 4072000   0.60352714   -8.1215125    723.22864  0.014800848  0.013739528            4 
 4073000     0.597947   -8.1151011     721.6279  0.014764463  0.013734994            4 
 4074000   0.59128715   -8.1157966    722.63911  0.014781523  0.013730473            6 
 4075000   0.60667125   -8.1034142    722.92008  0.014783642   0.01372595            5 
 4076000   0.61818076   -8.0901121    723.41424  0.014790118  0.013721429            6 
 4077000   0.59313854   -8.1269273    723.74127  0.014793174  0.013716913            8 
 4078000   0.59212674   -8.1180869    722.75676  0.014769429  0.013712391            4 
 4079000   0.60648726   -8.1132753    723.94283  0.014790039  0.013707867            4 
 4080000   0.60592281   -8.1203546    722.82022  0.014763485  0.013703349            4 
 4081000   0.58922963   -8.1060758    721.68291  0.014736644  0.013698834            5 
 4082000   0.59840127   -8.0984486    723.28237  0.014765686   0.01369432            4 
 4083000   0.60557619   -8.1064319    724.48912  0.014786699  0.013689814            5 
 4084000   0.61942629   -8.1051761    722.35677  0.014739568  0.013685306            6 
 4085000    0.5966431   -8.1087915    723.31397  0.014755487   0.01368079            7 
 4086000   0.60692735    -8.117282    722.88338  0.014743094  0.013676284            7 
 4087000   0.58661525   -8.1019325    723.41607  0.014750348  0.013671778            9 
 4088000   0.58811177   -8.0957803    723.42366  0.014746895  0.013667279            9 
 4089000   0.57666805   -8.1087846    723.78645  0.014750682   0.01366278            6 
 4090000   0.60607933   -8.1235063    723.49339  0.014741104   0.01365828            3 
 4091000   0.59044014   -8.1285483    722.39916  0.014715211  0.013653784            7 
 4092000   0.59503364   -8.0862427    722.14909  0.014706523  0.013649287            5 
 4093000    0.5970421   -8.0926373    723.66004  0.014733693  0.013644796            4 
 4094000   0.57857141   -8.1035172    721.74009  0.014691013  0.013640307            4 
 4095000   0.60018838   -8.1227314    723.17017  0.014716528  0.013635825            5 
 4096000   0.58843392   -8.1227359    723.02254  0.014709931  0.013631331            3 
 4097000   0.58378003   -8.1028672    724.01072  0.014726441  0.013626837            5 
 4098000    0.5899708   -8.1331345    723.07772  0.014703874  0.013622347            6 
 4099000   0.59572166   -8.1048247    723.15846  0.014701929  0.013617852            3 
 4100000   0.58857765   -8.1203777    723.58737   0.01470706  0.013613359            5 
 4101000   0.59442581   -8.1119207    723.06567  0.014692873  0.013608869            2 
 4102000   0.59461117   -8.1418784    722.22693  0.014672252  0.013604372            4 
 4103000   0.58825282   -8.1110442    723.23811  0.014689213  0.013599891            6 
 4104000   0.60149777    -8.111112    723.29568  0.014686803  0.013595411            2 
 4105000   0.59613941   -8.1281798    722.69919  0.014671116  0.013590932            5 
 4106000   0.59156084   -8.1206643     724.3543  0.014701135  0.013586458            2 
 4107000   0.59652059   -8.1106791    722.44283   0.01465877  0.013581986            3 
 4108000   0.59209479   -8.1074847    722.84811  0.014663423  0.013577514            4 
 4109000   0.60409747   -8.1409076    722.51561  0.014653111  0.013573039            4 
 4110000   0.59989721   -8.1186419    722.11495  0.014641422  0.013568566            4 
 4111000   0.58814959   -8.1205554    722.49876  0.014645641  0.013564097            3 
 4112000   0.59064698   -8.1121908     723.1524  0.014655326  0.013559633            4 
 4113000   0.60162878   -8.0983333    723.12539  0.014651215  0.013555166            3 
 4114000   0.61331786    -8.099411    722.01069  0.014625075  0.013550705            1 
 4115000   0.60227021   -8.1062159    723.70844  0.014655902  0.013546243            7 
 4116000   0.58632058   -8.1225122    721.67694  0.014611211  0.013541781            4 
 4117000   0.59881043   -8.1265872    722.57569  0.014625854  0.013537316            4 
 4118000    0.6081466   -8.1333012    722.68544  0.014624523  0.013532846            6 
 4119000   0.59946786   -8.1038786    722.25414  0.014612247  0.013528386            6 
 4120000   0.58655329   -8.1263403    721.73452   0.01459819  0.013523919            3 
 4121000   0.59086844      -8.1255    723.94592  0.014639366  0.013519454            3 
 4122000    0.5856959   -8.1303245    721.96851  0.014595838  0.013514987            6 
 4123000   0.58926912   -8.1107141    722.08908  0.014594734  0.013510524            3 
 4124000   0.60222622   -8.1344281    721.82372  0.014585833  0.013506064            4 
 4125000   0.60077553   -8.1391921    723.40137  0.014614169  0.013501616            8 
 4126000   0.59769339   -8.1246834    721.52423  0.014572714   0.01349716            4 
 4127000    0.5930969   -8.1063514     722.6635  0.014592188  0.013492704            3 
 4128000   0.58716498   -8.1279348    723.10274   0.01459752   0.01348825            3 
 4129000   0.57343505   -8.1495265    722.28478  0.014577476  0.013483794            6 
 4130000   0.58553602   -8.1254456    721.87456  0.014565669   0.01347934            7 
 4131000   0.60480619   -8.1192308    721.28406  0.014550231  0.013474884            6 
 4132000   0.57922463   -8.1225675    721.61939  0.014553473  0.013470435            4 
 4133000   0.58209491    -8.130606    722.47623  0.014567228  0.013465983            5 
 4134000   0.59515057   -8.1345512    721.48655  0.014543754  0.013461529            4 
 4135000   0.60356179   -8.1442722    720.70201  0.014524426  0.013457076            3 
 4136000   0.59412806   -8.1272958    721.05234  0.014527973  0.013452631            4 
 4137000    0.5843231   -8.1255758    722.07794   0.01454512   0.01344818            9 
 4138000   0.58319794   -8.1345554     721.4942  0.014529849  0.013443733            5 
 4139000   0.59405811   -8.1367375    721.79246  0.014532344  0.013439294            5 
 4140000   0.59263058   -8.1217195    721.59477  0.014524854  0.013434852            3 
 4141000   0.59056186   -8.1485622    721.99124  0.014529326  0.013430411            9 
 4142000   0.58868042   -8.1403659    721.50493  0.014516034  0.013425966            8 
 4143000   0.57208943   -8.1219141    722.05192  0.014523532  0.013421528            5 
 4144000   0.59678777   -8.1272206    722.26659  0.014524344  0.013417093            4 
 4145000   0.58873314   -8.1195376    721.79029  0.014511264  0.013412662            6 
 4146000   0.57310407   -8.1092709    722.83303  0.014528723  0.013408245            6 
 4147000   0.58546367   -8.1214626    723.18508  0.014532294  0.013403824            6 
 4148000   0.58630577   -8.1221366    722.96881  0.014524446  0.013399403            3 
 4149000   0.58959484   -8.1316995     723.2516  0.014526625  0.013394986            4 
 4150000   0.59059845   -8.1300728    722.56352  0.014509308   0.01339057            4 
 4151000    0.5730557   -8.1219446     722.4298  0.014503128  0.013386156            4 
 4152000   0.58742685   -8.1105387    722.89027  0.014508877  0.013381741            4 
 4153000   0.58040547   -8.1174619    722.33669  0.014494275  0.013377334            7 
 4154000   0.57558635   -8.1217109    723.25527  0.014509213  0.013372921            3 
 4155000    0.5785169   -8.1534642    721.00984  0.014460687  0.013368506            6 
 4156000   0.59314777   -8.1434992    721.65734   0.01447019  0.013364094            8 
 4157000   0.58607216    -8.138415    720.90146  0.014451557  0.013359677            5 
 4158000   0.60063987   -8.1254692    721.52249  0.014460528  0.013355263            4 
 4159000   0.58945839    -8.125879    721.95197  0.014465656  0.013350853            3 
 4160000   0.59313189   -8.1567258    722.58056  0.014474771  0.013346446            4 
 4161000   0.58364582   -8.1422759    721.77792  0.014455218  0.013342036            5 
 4162000   0.57701416   -8.1316558    722.16886  0.014459572  0.013337634            5 
 4163000   0.58871621   -8.1375895    722.10293  0.014454779  0.013333233            5 
 4164000   0.59135923   -8.1338695    721.98067  0.014448861  0.013328837            3 
 4165000   0.59857621   -8.1432615    722.31556  0.014452092  0.013324438            8 
 4166000   0.58102753   -8.1422268    721.02951  0.014422898  0.013320043            6 
 4167000   0.58429088   -8.1446136    722.54498  0.014449744  0.013315646            2 
 4168000   0.58022859   -8.1385124    721.43193  0.014424023  0.013311254            4 
 4169000   0.58944671   -8.1444346    721.27693  0.014417465  0.013306865            6 
 4170000   0.59688527   -8.1312444    721.64459  0.014421355  0.013302478            5 
 4171000   0.59036901   -8.1577688    722.85072  0.014441995  0.013298088            5 
 4172000   0.58959663     -8.13998    723.41504  0.014449805  0.013293707            3 
 4173000   0.58422818   -8.1264946    722.71311  0.014432325  0.013289325            6 
 4174000   0.59321097   -8.1428064    722.07234  0.014416075  0.013284945            5 
 4175000   0.58735856   -8.1436146    721.63031  0.014403799  0.013280564            4 
 4176000    0.5922878   -8.1342394    722.73589  0.014422412  0.013276198            4 
 4177000    0.5760645   -8.1203644     722.4667  0.014413588  0.013271822            4 
 4178000   0.58309265   -8.1464995    722.78421  0.014416471   0.01326745            4 
 4179000   0.58697128   -8.1291828    722.22583  0.014401887  0.013263078            5 
 4180000   0.57963717   -8.1383702     721.3647  0.014381274  0.013258704            4 
 4181000   0.57162709     -8.13181    721.81946  0.014386898  0.013254336            2 
 4182000   0.59449135   -8.1448358    722.75562  0.014402113  0.013249965            7 
 4183000   0.58633579   -8.1311293    722.18815  0.014387365  0.013245599            4 
 4184000   0.58200523   -8.1449327    722.89769  0.014398058  0.013241233            4 
 4185000   0.57244906   -8.1489806    721.43333  0.014365458   0.01323686            4 
 4186000   0.58325552   -8.1472848    723.23603  0.014397914  0.013232489            5 
 4187000   0.58619933   -8.1463994    722.31959  0.014376236  0.013228122            4 
 4188000   0.57768573   -8.1353347    721.90449  0.014364543  0.013223758            3 
 4189000    0.5819977   -8.1446558    722.22865  0.014367563  0.013219394            3 
 4190000   0.59806154   -8.1492395    721.01469   0.01433999  0.013215035            4 
 4191000   0.58264509   -8.1695915    722.06246  0.014357402  0.013210672            5 
 4192000   0.58583169   -8.1458221    721.71175  0.014347005   0.01320631            3 
 4193000   0.58757333   -8.1295295    722.30502  0.014355374  0.013201955            2 
 4194000    0.5883232   -8.1442125    721.98087  0.014345511    0.0131976            2 
 4195000   0.58061185    -8.155889    721.18266  0.014326235  0.013193245            6 
 4196000   0.57594326   -8.1490913    722.21701  0.014343363  0.013188891            4 
 4197000    0.5767792    -8.144084    720.56249  0.014307094  0.013184535            8 
 4198000   0.58146939   -8.1453064      720.787  0.014308143  0.013180184            4 
 4199000   0.57308189   -8.1558762    721.94556  0.014327728  0.013175838            4 
 4200000   0.58807894   -8.1370483    721.29369  0.014311383  0.013171492            4 
 4201000   0.57110196    -8.162382    721.84961  0.014319004  0.013167152            3 
 4202000   0.58320575   -8.1577422    722.68716  0.014332206   0.01316281            3 
 4203000   0.57051066    -8.152521    720.69822  0.014289361  0.013158464            4 
 4204000   0.56970562   -8.1595474    722.36883  0.014319078  0.013154121            4 
 4205000   0.58265964    -8.160621    721.15204  0.014291559   0.01314978            3 
 4206000   0.57174877   -8.1451345    722.11036  0.014307148  0.013145437            3 
 4207000   0.58706601   -8.1468026    722.82986  0.014317999  0.013141104            3 
 4208000   0.56908297    -8.149336    720.06105  0.014259764  0.013136767            3 
 4209000   0.57228282   -8.1336976     721.8918  0.014292623  0.013132436            8 
 4210000   0.57995835   -8.1589642    721.71539  0.014285736  0.013128112            5 
 4211000   0.59542433   -8.1262005    721.85122  0.014285032  0.013123779            3 
 4212000   0.58236746   -8.1480196    722.44347  0.014293358  0.013119449            3 
 4213000   0.57252415   -8.1699726     722.3575  0.014288264  0.013115125            3 
 4214000   0.58723356   -8.1390821    721.47718  0.014267465  0.013110799            3 
 4215000   0.56909113   -8.1524693    722.61841  0.014286643  0.013106477            2 
 4216000   0.56412436   -8.1481044    721.07239  0.014252696  0.013102149            2 
 4217000   0.56814246   -8.1652023    721.38597  0.014255513  0.013097824            2 
 4218000   0.57861766   -8.1443047    721.27621  0.014249965  0.013093498            1 
 4219000    0.5704008   -8.1697328    720.72741  0.014235747  0.013089177            3 
 4220000    0.5702561   -8.1534541    721.07728  0.014239283  0.013084855            3 
 4221000   0.56995126   -8.1579409    721.74293  0.014249051   0.01308053            3 
 4222000   0.59186283   -8.1800825    722.06449  0.014252023  0.013076206            3 
 4223000   0.56863914   -8.1713114    721.88064   0.01424502  0.013071893            5 
 4224000    0.5846693   -8.1651339    721.98513  0.014243709  0.013067583            3 
 4225000   0.57901895   -8.1836293    721.49276  0.014230626  0.013063269            4 
 4226000   0.57222026   -8.1654873    721.25283  0.014222528  0.013058957            9 
 4227000   0.57814985   -8.1657533    722.00536  0.014233999  0.013054652            7 
 4228000   0.57811994   -8.1599432    721.71704   0.01422495  0.013050347            9 
 4229000   0.57754371   -8.1706964     720.0125  0.014187998  0.013046039            4 
 4230000   0.58384668   -8.1541671    721.12768  0.014206613  0.013041735            6 
 4231000   0.57475622   -8.1640684    721.08936  0.014202501  0.013037438            2 
 4232000   0.57579408   -8.1699901    720.67824  0.014191049  0.013033137            6 
 4233000   0.59176789   -8.1744462    721.39589  0.014201825  0.013028839            6 
 4234000   0.57437224   -8.1582375    721.47453  0.014200018  0.013024538            2 
 4235000   0.56206045   -8.1607222    722.48352   0.01421652  0.013020237            3 
 4236000   0.57612644   -8.1691336    720.42831  0.014172732  0.013015943            3 
 4237000    0.5606569   -8.1702071    722.32106  0.014206613  0.013011648            4 
 4238000   0.56784356   -8.1688153    720.88084  0.014174942  0.013007358            4 
 4239000   0.56918569    -8.147857    721.41905  0.014182178  0.013003069            4 
 4240000   0.56924482   -8.1731282    721.70676  0.014184488  0.012998778            3 
 4241000   0.56729522   -8.1661316    721.72844   0.01418157  0.012994485            3 
 4242000   0.57002217   -8.1604425    720.87932  0.014161546  0.012990196            3 
 4243000   0.57863661   -8.1468397    723.53421  0.014210351  0.012985912            5 
 4244000   0.56529453   -8.1751631     720.9585  0.014156427  0.012981628            4 
 4245000   0.57753054   -8.1527294    721.16286  0.014157104  0.012977347            3 
 4246000   0.56199548   -8.1398166    721.73352  0.014164969  0.012973065            3 
 4247000    0.5835265   -8.1484606    721.59418    0.0141589  0.012968789            2 
 4248000   0.57419902    -8.151868    722.29166  0.014169249  0.012964518            2 
 4249000   0.56868625   -8.1571118    719.75293  0.014116124  0.012960241            2 
 4250000   0.56730125   -8.1485078    722.08288  0.014158488  0.012955967            3 
 4251000   0.58244165   -8.1732665    721.34485  0.014140689  0.012951693            3 
 4252000   0.56814915   -8.1656835    721.73324  0.014144976  0.012947416            2 
 4253000   0.56142804   -8.1632398    721.41087  0.014135333  0.012943144            2 
 4254000   0.57208043   -8.1699557    721.14709  0.014126843  0.012938875            5 
 4255000   0.57822184   -8.1740537    720.83444    0.0141174  0.012934605            2 
 4256000   0.57559277   -8.1818464    721.47683  0.014126661  0.012930338            5 
 4257000   0.58547624   -8.1707254    719.80583  0.014090632  0.012926074            5 
 4258000   0.56853692   -8.1643064    722.36156  0.014137341  0.012921808            3 
 4259000   0.56516477   -8.1763074     721.4645  0.014116469  0.012917542            5 
 4260000   0.57666201   -8.1767894     722.0448  0.014124507  0.012913277            2 
 4261000    0.5683994   -8.1961095    720.92969  0.014099384  0.012909012            2 
 4262000   0.56991132   -8.1910461    721.41897  0.014105642  0.012904749            3 
 4263000   0.56477339   -8.1624315     721.2103  0.014098254  0.012900482            5 
 4264000   0.57833222   -8.1675773    720.61481   0.01408331  0.012896223            3 
 4265000   0.57721506   -8.1698655    721.01694  0.014087865  0.012891965            3 
 4266000   0.56056954   -8.1855617    719.79967  0.014060784  0.012887708            3 
 4267000   0.56702618   -8.1716544    721.28304  0.014086459  0.012883449            4 
 4268000   0.58232412   -8.1643263     720.2465   0.01406292  0.012879197            3 
 4269000   0.56596319   -8.1778148    722.08504  0.014095515   0.01287495            2 
 4270000   0.57401402   -8.1664092    720.45896  0.014060479  0.012870697            4 
 4271000   0.56498278   -8.1725945    720.96823  0.014067124   0.01286645            6 
 4272000   0.55662148   -8.1733779    720.64914  0.014057606  0.012862206            4 
 4273000   0.56991177   -8.1765622    720.10641  0.014043732  0.012857967            3 
 4274000   0.56862056   -8.1833624    720.88005   0.01405553   0.01285373            4 
 4275000    0.5673069   -8.1677919    721.70684   0.01406836  0.012849497            3 
 4276000   0.55965611   -8.1933866    720.76601  0.014046734  0.012845262            2 
 4277000   0.57518231    -8.168552    720.75578   0.01404325  0.012841028            2 
 4278000   0.55913753    -8.184489    720.59304  0.014036798  0.012836798            1 
 4279000   0.55465549   -8.1588044    721.38475  0.014048936  0.012832569            2 
 4280000   0.57690078   -8.1758385    720.51083  0.014028638  0.012828339            4 
 4281000   0.56377929   -8.1834827    721.04833  0.014035824  0.012824108            3 
 4282000   0.56334347   -8.1739551    719.39477  0.014000365  0.012819879            2 
 4283000   0.57474325   -8.1609655    720.83555  0.014025129  0.012815649            3 
 4284000   0.58257961   -8.1902908    721.05436  0.014026112  0.012811426            2 
 4285000   0.56350943   -8.1776829    721.44465  0.014030429  0.012807201            3 
 4286000   0.56482945   -8.1882867    721.30614  0.014024462  0.012802976            2 
 4287000   0.55780928   -8.1732508    719.66901  0.013989367  0.012798755            3 
 4288000     0.566389   -8.1777615     720.7168  0.014006468  0.012794538            4 
 4289000   0.57703659   -8.1772115    721.26596  0.014013872  0.012790314            6 
 4290000   0.56078561   -8.1842513    720.62893  0.013998231  0.012786099            3 
 4291000   0.56404877   -8.2068703    720.62864  0.013994963  0.012781885            2 
 4292000   0.56251083   -8.1919475    721.93486  0.014017064  0.012777675            5 
 4293000   0.55528177   -8.1563993    720.27264  0.013981533  0.012773469            2 
 4294000   0.55665509    -8.164173    720.83418  0.013989174   0.01276926            2 
 4295000   0.54797091   -8.1626367    719.87299  0.013967268  0.012765055            2 
 4296000   0.57834284   -8.1915637    721.10338  0.013987884  0.012760845            2 
 4297000   0.57063502   -8.1812247    720.68241  0.013976464  0.012756634            3 
 4298000   0.54494685   -8.1865638     719.6896  0.013953963  0.012752424            5 
 4299000   0.56471502   -8.1904173     720.4897  0.013966227  0.012748218            4 
 4300000   0.55867977    -8.204962    720.51835  0.013963534  0.012744007            5 
 4301000   0.56997842   -8.1717651    721.59392  0.013981127  0.012739809            8 
 4302000   0.56931265   -8.1988355     721.4639  0.013975358  0.012735611            3 
 4303000    0.5705003    -8.185165    721.08511  0.013964775  0.012731413            3 
 4304000   0.55940974   -8.1844246    720.41309  0.013948519  0.012727217            4 
 4305000    0.5808864   -8.1752806    721.21892  0.013960877   0.01272302            3 
 4306000   0.56236784   -8.1813272    720.23888  0.013938668  0.012718821            3 
 4307000   0.56610613   -8.1803103     722.7589   0.01398419  0.012714631            2 
 4308000   0.55669189   -8.1935677    720.29398  0.013933263  0.012710435            6 
 4309000   0.55548416   -8.1762409    720.15738  0.013927388  0.012706246            3 
 4310000   0.56253355   -8.1751705    721.09418   0.01394227  0.012702061            5 
 4311000   0.57034378   -8.1760136    720.52924  0.013928115  0.012697876            2 
 4312000   0.56315726   -8.1795381    721.01528  0.013934278  0.012693695            4 
 4313000   0.56557912   -8.1748522    721.44168  0.013939286  0.012689515            2 
 4314000   0.55851813   -8.1760339    722.01107  0.013947054  0.012685337            5 
 4315000   0.56090869   -8.1894499    720.47727    0.0139142  0.012681168            7 
 4316000   0.56421738   -8.1636272    721.10338  0.013923065  0.012676999            4 
 4317000     0.555141   -8.1748111    720.17725  0.013901962  0.012672838            3 
 4318000   0.56505575   -8.1776971    721.75827  0.013929255  0.012668673            2 
 4319000   0.56915201   -8.1985573    720.52866  0.013902305  0.012664509            2 
 4320000   0.56247088   -8.2031346    720.71141  0.013902612   0.01266034            2 
 4321000   0.55221647   -8.1843272    719.98431  0.013885372  0.012656173            2 
 4322000   0.55460958   -8.1714344    720.25459  0.013887371  0.012652009            2 
 4323000   0.55442309   -8.1861925    720.40076  0.013886976  0.012647847            5 
 4324000   0.56162653   -8.1922796    721.43292  0.013903656  0.012643688            1 
 4325000   0.55810342   -8.1975285    720.85039  0.013889217  0.012639525            3 
 4326000   0.55247941   -8.1941504    720.26236  0.013874679  0.012635362            2 
 4327000   0.57284427   -8.1932878    719.92528  0.013864981  0.012631201            2 
 4328000    0.5591113   -8.1907369    720.01265   0.01386346  0.012627042            2 
 4329000   0.56372188   -8.1942475    720.07055  0.013861372  0.012622888            3 
 4330000   0.56210899   -8.1800432    721.16729  0.013879278  0.012618734            5 
 4331000   0.56858124   -8.1808439    720.78159  0.013868652  0.012614585            4 
 4332000   0.55704979   -8.1804689    720.07446  0.013851848  0.012610431            2 
 4333000   0.55523812    -8.196261    720.70251   0.01386073  0.012606281            5 
 4334000    0.5634608   -8.1827328    720.14814  0.013846872  0.012602133            4 
 4335000   0.56145081   -8.1906846    719.54466  0.013832077  0.012597981            3 
 4336000   0.54355952   -8.1998097    720.22529  0.013841968  0.012593835            4 
 4337000   0.55722367    -8.196197    720.88693   0.01385149  0.012589693            2 
 4338000    0.5610862   -8.1986361    721.10644  0.013852513  0.012585546            3 
 4339000   0.55097248   -8.2005323    720.44941  0.013836702  0.012581396            3 
 4340000   0.55073163   -8.1842201     720.7807  0.013839875  0.012577256            3 
 4341000   0.56120594   -8.1950485      719.671  0.013815384  0.012573115            3 
 4342000   0.55146652   -8.1905784    720.20993  0.013822546  0.012568976            6 
 4343000   0.55889372   -8.1973929     719.6441  0.013808506  0.012564838            3 
 4344000   0.55638754   -8.2087788    720.54808  0.013822669  0.012560704            3 
 4345000   0.55762672   -8.1956613    720.09978   0.01381089  0.012556566            2 
 4346000   0.55283148   -8.1988913    721.03226  0.013825592  0.012552431            3 
 4347000   0.55387148   -8.1988577    721.53315  0.013832013  0.012548297            4 
 4348000   0.55462189   -8.1992966    719.50482  0.013789957  0.012544164            4 
 4349000   0.54292997   -8.1989256    721.19856  0.013819241  0.012540035            2 
 4350000   0.54876688   -8.1976655    720.82971  0.013808998  0.012535905            2 
 4351000   0.55981339   -8.2032715    720.43205  0.013798208  0.012531781            2 
 4352000   0.55704706   -8.2165712    720.50563  0.013796447  0.012527659            3 
 4353000   0.56451509   -8.2031353    720.57982  0.013794698  0.012523535            5 
 4354000   0.56857695    -8.193653    720.55904  0.013791132  0.012519414            7 
 4355000   0.55139312    -8.208628    721.62989  0.013808456  0.012515293            3 
 4356000   0.55727301   -8.2009086    719.56164  0.013765719  0.012511179            4 
 4357000   0.55181444   -8.1922994     720.5996  0.013782411  0.012507066            2 
 4358000    0.5651516   -8.1838056    718.99521   0.01374857  0.012502954            6 
 4359000   0.54874968   -8.2005007    720.65191  0.013777088  0.012498842            5 
 4360000   0.55229629   -8.1918443    719.37594   0.01374954  0.012494728            5 
 4361000   0.55008042   -8.1912606    720.68713  0.013771443  0.012490617            4 
 4362000    0.5561943   -8.2018671    721.25821  0.013779196  0.012486509            3 
 4363000   0.56122614   -8.2265027    719.54532  0.013743321  0.012482402            3 
 4364000    0.5530098   -8.2114779    719.66058  0.013742373  0.012478295            4 
 4365000   0.55206096   -8.2018131    720.88687  0.013762636  0.012474188            2 
 4366000   0.55266312      -8.1832    719.78192  0.013738394  0.012470077            6 
 4367000   0.55569325   -8.2078208    720.53627  0.013749642   0.01246597            3 
 4368000    0.5609304   -8.2105785    720.72022  0.013750004  0.012461863            3 
 4369000   0.55546033   -8.2103312    719.02372  0.013714498  0.012457759            2 
 4370000   0.55187919   -8.2079748     721.0244  0.013749512  0.012453654            2 
 4371000   0.55293426   -8.1993999    719.47354  0.013716799  0.012449553            5 
 4372000   0.54211332   -8.2156006    720.68117   0.01373668  0.012445457            3 
 4373000   0.55606277   -8.2091888    719.81054  0.013716947  0.012441364            2 
 4374000   0.55076782   -8.2064892    720.27485  0.013722658  0.012437271            4 
 4375000    0.5541019    -8.206845    720.72548  0.013728104  0.012433185            2 
 4376000   0.56882055   -8.2258205    720.96125  0.013729457  0.012429098            3 
 4377000    0.5519672   -8.2049924    720.20357  0.013711895   0.01242501            3 
 4378000   0.54546505   -8.2313944    720.76195  0.013719392  0.012420929            3 
 4379000   0.55402098   -8.2060925    720.20219  0.013705606  0.012416849            6 
 4380000   0.54879707   -8.2143762    719.25314   0.01368442   0.01241277            4 
 4381000   0.53676627   -8.2042428    720.36864  0.013702515   0.01240869            5 
 4382000    0.5467395    -8.231381    719.30832  0.013679224  0.012404607            5 
 4383000   0.54993826   -8.2138068    720.10909  0.013691328  0.012400528            2 
 4384000   0.55396843   -8.2187655    720.49151  0.013695474  0.012396452            4 
 4385000   0.54796946   -8.2016404    719.45947  0.013672738  0.012392375            2 
 4386000   0.54144797   -8.2131807    720.84501  0.013695946    0.0123883            4 
 4387000   0.55793566   -8.2191362    719.51426  0.013667545  0.012384224            3 
 4388000   0.55966414     -8.21323    719.90975  0.013671941  0.012380152            5 
 4389000   0.54112125   -8.2290319    721.01141  0.013689743  0.012376078            3 
 4390000   0.54778556   -8.1989776    721.96872  0.013704797  0.012372007            4 
 4391000   0.54223902    -8.200273    720.95968  0.013682526   0.01236794            5 
 4392000   0.55705288   -8.2154932    721.26348  0.013685175  0.012363871            3 
 4393000   0.55350653   -8.2167712    721.04379  0.013677893  0.012359802            5 
 4394000   0.54446536   -8.2355841    720.21067  0.013658979  0.012355742            5 
 4395000   0.54422139   -8.2106677    720.43405  0.013660107  0.012351679            3 
 4396000   0.55139788   -8.2209765     719.7071  0.013643219  0.012347618            5 
 4397000   0.54597391   -8.2257203    719.91791  0.013644112  0.012343561            3 
 4398000   0.54947326   -8.2254341    720.00234  0.013642609  0.012339502            5 
 4399000   0.54661054   -8.2295793    719.38894  0.013627888  0.012335443            4 
 4400000   0.55721822   -8.2252502    720.64937  0.013648662  0.012331395            4 
 4401000   0.54895067   -8.2199508     720.2377  0.013637766  0.012327339            3 
 4402000   0.55092686   -8.2214754    719.42639  0.013619309  0.012323287            3 
 4403000   0.53998285   -8.2251136    719.20037  0.013611938  0.012319236            3 
 4404000   0.56365897   -8.2204182    719.71876  0.013618657  0.012315179            2 
 4405000   0.54492799   -8.2195135    718.86278  0.013599372  0.012311125            2 
 4406000   0.55623325   -8.2285695     720.0565  0.013618863  0.012307077            3 
 4407000   0.53368603   -8.2198959    718.90284  0.013593957  0.012303027            2 
 4408000   0.54754715   -8.2255439    719.18301   0.01359617  0.012298981            2 
 4409000   0.55236417   -8.2059295    720.00033  0.013608534  0.012294941            2 
 4410000    0.5308216   -8.2001701    718.75871  0.013581986  0.012290903            2 
 4411000   0.53644377   -8.1996094     720.4101  0.013610105  0.012286865            3 
 4412000   0.55083772   -8.2015324    719.55002  0.013590776  0.012282829            5 
 4413000   0.54410591    -8.210153    719.77072  0.013591863  0.012278795            3 
 4414000    0.5443409   -8.2147576     720.5076  0.013602696   0.01227476            2 
 4415000   0.55131724   -8.2171437    717.83261  0.013549124  0.012270723            2 
 4416000   0.52971237    -8.219786    719.44348  0.013576455  0.012266691            4 
 4417000   0.54840931   -8.2066277    720.07501  0.013585296  0.012262656            4 
 4418000   0.54378731   -8.2100927    719.01079  0.013562147  0.012258625            4 
 4419000   0.54026345   -8.2150397    720.28369  0.013583082    0.0122546            2 
 4420000   0.54575866   -8.2297052    720.09128  0.013576382  0.012250574            1 
 4421000   0.55488121   -8.2187974    718.90363  0.013550924  0.012246553            2 
 4422000   0.53848006    -8.233988    718.96434  0.013549004  0.012242534            3 
 4423000   0.54924807   -8.2335056    719.93876  0.013564299  0.012238515            2 
 4424000   0.55285593   -8.2146516    721.84127   0.01359707    0.0122345            4 
 4425000   0.53830237   -8.2024057     719.4576  0.013549107  0.012230488            2 
 4426000    0.5670822   -8.2010144    719.81811  0.013552834  0.012226479            3 
 4427000   0.53619122   -8.2372485    719.66989  0.013546982  0.012222467            2 
 4428000   0.54421177   -8.2080174    719.74111  0.013545263  0.012218457            4 
 4429000   0.55142172   -8.2178818    720.08951   0.01354876  0.012214443            5 
 4430000   0.53176652   -8.2264277    719.42406  0.013533184  0.012210432            3 
 4431000   0.54438328   -8.2322077    719.68358  0.013535011  0.012206427            2 
 4432000   0.54328304    -8.227765     719.8423  0.013534941  0.012202424            7 
 4433000   0.54345614   -8.2101178    718.89711   0.01351412  0.012198421            4 
 4434000   0.53502153   -8.2383608    718.24753  0.013498864  0.012194415            1 
 4435000   0.54226613   -8.2047825    720.55449  0.013539167  0.012190409            3 
 4436000   0.54055501   -8.2202387    719.91456  0.013524094  0.012186409            3 
 4437000   0.53528954   -8.2427906    718.55122   0.01349544   0.01218241            3 
 4438000   0.54718213   -8.2182268    719.86476  0.013517064  0.012178414            3 
 4439000   0.53848374   -8.2075069    719.43581  0.013505966  0.012174418            4 
 4440000   0.54396206    -8.226468    719.07253  0.013496106  0.012170421            6 
 4441000   0.53687637   -8.2361726    719.25371  0.013496467  0.012166427            4 
 4442000   0.54712392   -8.2244894     720.5648  0.013518025  0.012162434            5 
 4443000    0.5522144    -8.221213    719.35748  0.013492338  0.012158448            2 
 4444000   0.54114046   -8.2177478    719.06644  0.013483844  0.012154461            2 
 4445000   0.54556582   -8.2166269    720.18255  0.013501735  0.012150472            4 
 4446000   0.53911951   -8.2454366    719.23114  0.013480866  0.012146484            4 
 4447000    0.5405891   -8.2167984    718.10205  0.013456676  0.012142495            3 
 4448000   0.52826957   -8.2319374    718.59903  0.013462961  0.012138508            2 
 4449000   0.54106287   -8.2148668    717.96957  0.013448145  0.012134529            3 
 4450000   0.53992657   -8.2344118    719.59426  0.013475548  0.012130544            6 
 4451000   0.54373022   -8.2377315    718.31315  0.013448535  0.012126557            3 
 4452000   0.53773512   -8.2076721    718.86079  0.013455765  0.012122576            3 
 4453000   0.54031992   -8.2187133    720.73967  0.013487905  0.012118596            8 
 4454000    0.5349038   -8.2317676    719.06261  0.013453499  0.012114618            2 
 4455000   0.53994322   -8.2297623    720.37244   0.01347498  0.012110644            4 
 4456000   0.53449601   -8.2343149    719.51561  0.013455932  0.012106673            3 
 4457000   0.53040386   -8.2291966     718.1614  0.013427593  0.012102702            3 
 4458000   0.53848149   -8.2392223    719.28762  0.013445634  0.012098733            4 
 4459000   0.53674227   -8.2426541    719.85551  0.013453232  0.012094762            3 
 4460000   0.53689485   -8.2524253    720.26386  0.013457845  0.012090791            4 
 4461000   0.53830132   -8.2474664     719.3874  0.013438455   0.01208682            2 
 4462000   0.54046646   -8.2443617    718.36192  0.013416292  0.012082855            4 
 4463000   0.53456624   -8.2291569      718.157  0.013409459  0.012078887            2 
 4464000   0.54731735   -8.2392844    718.22679  0.013407758   0.01207492            3 
 4465000   0.53662667   -8.2406471    719.27119  0.013424248  0.012070954            4 
 4466000   0.54545655   -8.2597714    719.58342  0.013427068   0.01206699            7 
 4467000   0.53427285   -8.2461068    718.46182  0.013403138  0.012063024            4 
 4468000   0.54640764   -8.2338432    720.06455  0.013430031  0.012059062            6 
 4469000   0.52781979   -8.2361836    718.79962  0.013403439  0.012055103            5 
 4470000   0.53493978   -8.2222273    719.37032   0.01341108  0.012051147            3 
 4471000   0.53486148   -8.2486425    719.09339  0.013402919   0.01204719            5 
 4472000   0.53287051   -8.2333005     718.9328  0.013396929  0.012043234            3 
 4473000   0.53169412   -8.2268192    717.87009  0.013374135   0.01203928            4 
 4474000   0.53368807   -8.2326005    719.11019  0.013394244  0.012035328            5 
 4475000   0.54407937     -8.22717    719.06596  0.013390428  0.012031377            7 
 4476000   0.53214871   -8.2492318     719.2877  0.013391564  0.012027428            4 
 4477000   0.53105592   -8.2278935    719.48131  0.013392177  0.012023478            4 
 4478000   0.54558407   -8.2351006    719.50183  0.013389568  0.012019531            4 
 4479000   0.53775096   -8.2467105    718.29026  0.013364037  0.012015585            5 
 4480000   0.53692464   -8.2419105    719.74731  0.013388157  0.012011638            3 
 4481000   0.52681504   -8.2389852    718.14932  0.013355451  0.012007697            4 
 4482000   0.52621208   -8.2539422    717.91052  0.013348031  0.012003752            4 
 4483000   0.53505367   -8.2237843    716.92827  0.013326795  0.011999812            5 
 4484000   0.53229846   -8.2405311    720.17892  0.013384235  0.011995872            4 
 4485000   0.53422243   -8.2395346    718.94174  0.013358263  0.011991931            6 
 4486000    0.5310091   -8.2502826    719.42734  0.013364306  0.011987993            4 
 4487000   0.51799509   -8.2396636    718.98386  0.013353092  0.011984058            6 
 4488000   0.53113314   -8.2547808    717.58715  0.013324182  0.011980128            5 
 4489000   0.53487559   -8.2309007    719.58488    0.0133583  0.011976194           12 
 4490000   0.52814617   -8.2466395    719.49619  0.013353678  0.011972263            4 
 4491000   0.53150172   -8.2473004    720.05345  0.013361045  0.011968337            6 
 4492000   0.54092786   -8.2510567    718.98301  0.013338213  0.011964413            7 
 4493000   0.52160517   -8.2528707    718.80612  0.013331963  0.011960495            5 
 4494000   0.53562302   -8.2331421    720.62729  0.013362767  0.011956577            6 
 4495000   0.53049147   -8.2493156    718.18458  0.013314508   0.01195266            4 
 4496000    0.5217678   -8.2328361    717.94165  0.013307044  0.011948744            4 
 4497000   0.53486074   -8.2490106    718.84619  0.013320847  0.011944825            5 
 4498000   0.53112882   -8.2423184    718.75476  0.013316192   0.01194091            7 
 4499000   0.52603856   -8.2488704    718.57775  0.013309953  0.011936994            5 
 4500000   0.53111712   -8.2570905    719.91936   0.01333184  0.011933079            6 
 4501000   0.52523834   -8.2448005    719.09584  0.013313631  0.011929167            4 
 4502000   0.54394637   -8.2368682    718.22077  0.013294476  0.011925259            2 
 4503000   0.53787586   -8.2520407    719.09702   0.01330774  0.011921353            7 
 4504000   0.52584523    -8.255857     717.6111  0.013277292  0.011917446            5 
 4505000    0.5316522   -8.2528521    719.89262  0.013316549  0.011913541            6 
 4506000   0.53457059   -8.2347316    720.07751  0.013317013  0.011909638            4 
 4507000   0.51955614   -8.2465178    719.32695   0.01330018  0.011905735            7 
 4508000   0.53033549   -8.2385421    718.93807  0.013290041  0.011901835            5 
 4509000   0.52928292    -8.251104    719.39437  0.013295527  0.011897939            6 
 4510000   0.53356721   -8.2363037    720.11489  0.013305892   0.01189404            8 
 4511000   0.53365662   -8.2468843    718.75757  0.013277868  0.011890143            5 
 4512000   0.52369462   -8.2386742    718.42545  0.013268792  0.011886253            2 
 4513000   0.52296918   -8.2481191    719.56863   0.01328696  0.011882361            7 
 4514000   0.52187829   -8.2410262    718.79865  0.013269802   0.01187847            6 
 4515000   0.54463711   -8.2476254    718.65747  0.013264257  0.011874582            5 
 4516000   0.52564942   -8.2478385    718.33255  0.013255325  0.011870694            4 
 4517000   0.52984375   -8.2625338    718.27659  0.013251358  0.011866808            2 
 4518000   0.52258079   -8.2439416    717.98839  0.013243109   0.01186292            6 
 4519000   0.52525631   -8.2416667    719.24055  0.013263269  0.011859032            3 
 4520000    0.5249942    -8.247782    718.96067  0.013255175   0.01185515            7 
 4521000   0.53438486   -8.2499309    718.80751   0.01324942  0.011851271            4 
 4522000   0.51895144   -8.2395176    719.49928  0.013259238  0.011847393            9 
 4523000   0.53504447   -8.2497279    719.10554  0.013249052  0.011843518            3 
 4524000   0.52606125   -8.2648015    718.37913  0.013232743  0.011839644            5 
 4525000   0.53238545   -8.2462208    719.24284  0.013245724  0.011835768           11 
 4526000   0.52454192   -8.2240136     718.6325   0.01323156  0.011831896           10 
 4527000   0.53315844   -8.2467078    719.73399  0.013248914  0.011828026            7 
 4528000   0.52421294   -8.2421523    717.40115  0.013203054  0.011824159            7 
 4529000   0.52075283   -8.2556158    718.11088  0.013213198  0.011820292            6 
 4530000   0.51930576   -8.2514391    718.20612  0.013212033  0.011816426            5 
 4531000   0.52070151   -8.2606718     718.4842  0.013214232  0.011812561            4 
 4532000   0.53002264   -8.2616547    719.04928  0.013221706  0.011808697            6 
 4533000   0.52731768   -8.2501131    718.62829   0.01321105   0.01180484            2 
 4534000   0.52310883   -8.2589641    719.52141  0.013224552  0.011800982            7 
 4535000   0.52171352   -8.2494771    719.88576  0.013228331  0.011797126            3 
 4536000   0.51034952   -8.2601114    718.94176  0.013208072  0.011793274            5 
 4537000    0.5304867   -8.2422995    718.47028  0.013196501  0.011789417            6 
 4538000   0.53365034   -8.2467608    720.02023  0.013222055  0.011785562            5 
 4539000    0.5333628   -8.2689865    718.39597  0.013189322   0.01178171            7 
 4540000       0.5324    -8.271015    719.34489  0.013203834  0.011777859            5 
 4541000   0.52164895   -8.2488623    717.42206   0.01316564  0.011774009            7 
 4542000   0.54236016   -8.2667618    718.83369  0.013188641  0.011770161            7 
 4543000   0.51138036   -8.2621731    718.01503  0.013170721  0.011766314            6 
 4544000   0.52177965    -8.255097    718.77426  0.013181746  0.011762465            6 
 4545000   0.51979363   -8.2504482    718.81253  0.013179548  0.011758626            5 
 4546000   0.52600073   -8.2584079     718.0916  0.013163433  0.011754788            5 
 4547000   0.52274323   -8.2690489    718.95115  0.013176291   0.01175095            7 
 4548000   0.53625572   -8.2587463    719.51877  0.013183795  0.011747115            7 
 4549000   0.52233731   -8.2545838    718.06332  0.013154234   0.01174328            4 
 4550000   0.54131327   -8.2340598    719.32229  0.013174401  0.011739443            8 
 4551000   0.52505838   -8.2612562    718.95269  0.013164738  0.011735609            5 
 4552000   0.52528213    -8.247106    717.60705  0.013137212  0.011731777            2 
 4553000   0.52336882   -8.2703776    718.49626  0.013150601  0.011727941           11 
 4554000   0.52338444   -8.2558918    717.40947  0.013127827  0.011724112            5 
 4555000   0.51213085   -8.2656529    718.42255  0.013143479  0.011720283            6 
 4556000   0.52336447   -8.2488278    717.10828  0.013116555  0.011716455            3 
 4557000   0.52082621   -8.2477137    718.94139  0.013147198  0.011712631            8 
 4558000   0.52068014   -8.2482134    718.71778  0.013140226  0.011708806            6 
 4559000   0.51402699   -8.2457901    719.52924  0.013152176  0.011704982            3 
 4560000   0.52237592   -8.2501465    718.98485  0.013139343  0.011701157            4 
 4561000   0.52032483    -8.249443    718.03341  0.013119079  0.011697334            5 
 4562000   0.52262703   -8.2434852    718.31838  0.013121408  0.011693517            5 
 4563000   0.52042705   -8.2584121    718.95029  0.013130073    0.0116897            7 
 4564000   0.51964377   -8.2611433    719.72966  0.013141427  0.011685885            9 
 4565000   0.52172072   -8.2671209    717.99821  0.013106941  0.011682071            5 
 4566000   0.52602211   -8.2514544    718.81611  0.013118997  0.011678259            7 
 4567000   0.52684427   -8.2655581    719.12106  0.013121689  0.011674451            8 
 4568000   0.51831124   -8.2507094    718.46696  0.013106884  0.011670642            2 
 4569000    0.5226641   -8.2460082    717.85682  0.013092887  0.011666834            5 
 4570000   0.52703048    -8.267822    718.05414   0.01309362  0.011663026            7 
 4571000   0.54329647   -8.2685046    717.89272  0.013087813  0.011659221            5 
 4572000   0.51619898   -8.2629048    719.77507   0.01311926  0.011655417            6 
 4573000   0.51950648   -8.2618167    719.19813  0.013105877  0.011651615            8 
 4574000   0.52191283   -8.2432788    718.96159  0.013098703  0.011647813            6 
 4575000   0.52142452   -8.2704709     717.5523  0.013070169   0.01164401            8 
 4576000     0.522746    -8.259428    718.47893  0.013084188   0.01164021            4 
 4577000   0.51678417   -8.2679397    718.67639  0.013084924  0.011636413            3 
 4578000   0.52309137   -8.2604005    718.00799  0.013069899  0.011632616            5 
 4579000   0.53459101    -8.246061    719.02416  0.013085538  0.011628821            7 
 4580000   0.52548691     -8.26729    718.58671  0.013074722  0.011625024            5 
 4581000   0.50999044    -8.272475    717.74607  0.013056575  0.011621225            8 
 4582000   0.51505633   -8.2737682    717.42042  0.013047803  0.011617429            5 
 4583000   0.51519682   -8.2513751    718.21558  0.013059415  0.011613638            7 
 4584000   0.50370305   -8.2453701    717.91103   0.01305103  0.011609845            5 
 4585000   0.52561185   -8.2725361    717.30474  0.013037164  0.011606051            9 
 4586000   0.51348527   -8.2428196    718.11484  0.013049041  0.011602261            7 
 4587000   0.51943184   -8.2630558    719.51264  0.013071591  0.011598474            7 
 4588000   0.51089773   -8.2605662    717.02757  0.013023604  0.011594691            6 
 4589000   0.52050506   -8.2524775    718.49155  0.013047351  0.011590905            9 
 4590000   0.51501227   -8.2442822    718.03527  0.013036225  0.011587126            6 
 4591000   0.51480408   -8.2715407     717.9586  0.013031994  0.011583348            4 
 4592000   0.51621356   -8.2644867    719.07383  0.013049394  0.011579567            7 
 4593000   0.52067855   -8.2640887    718.98133  0.013044875  0.011575789            8 
 4594000   0.51465068   -8.2649139    719.45748  0.013050673   0.01157201            8 
 4595000   0.51119159   -8.2701359    717.96186  0.013020708  0.011568236            9 
 4596000   0.50463258   -8.2556047    717.58575  0.013011056  0.011564463            9 
 4597000   0.51599479   -8.2686109    716.97462  0.012997147  0.011560693            4 
 4598000   0.51437558   -8.2715938    717.35388  0.013001194   0.01155692            8 
 4599000   0.51376373   -8.2943119    718.10653  0.013012005  0.011553151            5 
 4600000   0.51831526    -8.267773    717.99215  0.013007104  0.011549382            7 
 4601000   0.51454182   -8.2609865     717.8087  0.013000955  0.011545613            7 
 4602000    0.5186522   -8.2895023     719.2314  0.013023892  0.011541849            3 
 4603000   0.51704234   -8.2705945    718.17752  0.013001983  0.011538083            8 
 4604000   0.51460135   -8.2544893    719.07023  0.013015317  0.011534319            5 
 4605000    0.5088627   -8.2642291    718.23771  0.012997425  0.011530556            5 
 4606000   0.52095078   -8.2720998    716.81787  0.012968915  0.011526798            6 
 4607000   0.51546816   -8.2668983    718.23903  0.012991806  0.011523044            4 
 4608000   0.51847556   -8.2510031     717.9982  0.012984632  0.011519289            9 
 4609000   0.50398581   -8.2662054      717.252  0.012968323  0.011515531           10 
 4610000   0.51297345   -8.2693855    716.56404  0.012953074  0.011511776            4 
 4611000   0.51350421   -8.2813747    718.11261  0.012978251  0.011508025           10 
 4612000   0.52700472   -8.2619521    717.76675  0.012969188  0.011504274            6 
 4613000   0.51061974   -8.2627625    717.93004  0.012969327  0.011500521            6 
 4614000   0.51866891   -8.2631928    718.73399  0.012981036   0.01149677            3 
 4615000   0.50994685    -8.261558    717.59481  0.012957653  0.011493024            5 
 4616000   0.51019241    -8.274898    717.92325  0.012960775  0.011489277            4 
 4617000   0.50900473   -8.2753194    719.06628  0.012978599  0.011485537            8 
 4618000   0.51625814   -8.2561038    718.04559   0.01295737  0.011481795            4 
 4619000   0.49499516   -8.2691613    718.69035  0.012966197  0.011478052            7 
 4620000   0.50951288    -8.267007     718.6687     0.012963  0.011474314            4 
 4621000   0.51275493   -8.2691781    717.69306    0.0129426  0.011470577            5 
 4622000   0.50931735    -8.284221    717.71154  0.012940133  0.011466843            8 
 4623000   0.51082609   -8.2630271    716.55467   0.01291648  0.011463105            7 
 4624000   0.52027156   -8.2691881    717.63352   0.01293313  0.011459373            5 
 4625000   0.51836964   -8.2735982     718.1819  0.012940214  0.011455641            5 
 4626000   0.51709171   -8.2735353    716.80458  0.012912606  0.011451911            8 
 4627000   0.51523491   -8.2825465     717.2319  0.012917511   0.01144818            7 
 4628000   0.50715067     -8.26635    717.59376  0.012921236  0.011444454            7 
 4629000   0.51923267   -8.2686889    717.32842  0.012913668  0.011440727           10 
 4630000   0.49580782   -8.2749379    717.30714  0.012910496  0.011436999            8 
 4631000   0.50917962   -8.2717592    718.02887  0.012920695  0.011433276            7 
 4632000   0.50919476   -8.2670368    718.29539  0.012922701  0.011429554            4 
 4633000   0.50711401   -8.2731537    717.85725  0.012912031  0.011425833            4 
 4634000   0.51450366   -8.2566884    717.52464  0.012903263  0.011422114            5 
 4635000    0.5112991   -8.2411777    716.60934  0.012884023  0.011418392            8 
 4636000   0.50725787   -8.2728197    718.19861  0.012909811  0.011414674            9 
 4637000   0.51197219   -8.2704789    718.60067  0.012914253  0.011410959            5 
 4638000   0.50586282   -8.2732974      717.489  0.012891494  0.011407243            6 
 4639000   0.51002878   -8.2718588    717.93755  0.012896773   0.01140353            8 
 4640000   0.51889815   -8.2898273    716.79381  0.012873452  0.011399814            6 
 4641000   0.50893646   -8.2699341    717.44902  0.012882443  0.011396099           10 
 4642000   0.51060871   -8.2798865    717.80277  0.012886018   0.01139239            5 
 4643000   0.51202305   -8.2706225    716.79145  0.012865092  0.011388682            7 
 4644000   0.51041458   -8.2781121     716.8651  0.012863643  0.011384974           10 
 4645000    0.5032204   -8.2834326    717.54754  0.012873117  0.011381266            4 
 4646000   0.49949516   -8.2737237     717.6521  0.012872222  0.011377558            7 
 4647000    0.5157807   -8.2818424    718.11266  0.012877711  0.011373856            2 
 4648000   0.51319602   -8.3043769    717.60423  0.012865825  0.011370151            8 
 4649000   0.51100263   -8.2682842     716.6024  0.012845099  0.011366446            5 
 4650000   0.52377888   -8.2692715    717.75467  0.012862987  0.011362747            5 
 4651000   0.50100098   -8.2818341     717.2722  0.012851577  0.011359046            6 
 4652000   0.50698644   -8.2698036    716.92329  0.012842564  0.011355346            3 
 4653000   0.50106738   -8.2707791     716.9139  0.012839636  0.011351646            6 
 4654000   0.50207937   -8.2637695    716.92643  0.012837101  0.011347949            5 
 4655000   0.51013497   -8.2844293    717.45075   0.01284373  0.011344255            8 
 4656000   0.48846689   -8.2970342    717.10263  0.012834741  0.011340557            5 
 4657000   0.50346063   -8.2802347    717.05104  0.012831062  0.011336866            5 
 4658000   0.51680661   -8.2881091      717.197  0.012830918  0.011333175            9 
 4659000    0.5093825    -8.280301    716.88407  0.012822567  0.011329479            6 
 4660000   0.50260011   -8.2935073    717.43443  0.012829657  0.011325788            7 
 4661000    0.5039693   -8.3100285     716.4407  0.012809138    0.0113221            6 
 4662000   0.50972668   -8.2712546    717.24206  0.012820715   0.01131841            6 
 4663000   0.51761874   -8.2676546    717.56524  0.012823741  0.011314722            8 
 4664000   0.50165208   -8.2923789    717.59795  0.012821576  0.011311041            6 
 4665000   0.51017582   -8.2869737    716.37051  0.012796901  0.011307355            4 
 4666000   0.50488189   -8.2795864    716.87998  0.012803257   0.01130367            4 
 4667000   0.50522875    -8.290792    717.27871  0.012807634  0.011299985            6 
 4668000   0.51001732   -8.3057305    715.95164  0.012781199  0.011296302            7 
 4669000   0.49152804   -8.2956609    717.70316  0.012809723  0.011292623            4 
 4670000   0.50662797    -8.294894    716.47471  0.012785059  0.011288942            8 
 4671000   0.51206726   -8.2946823    715.78906  0.012770089  0.011285266            4 
 4672000   0.51010766   -8.2971397    717.45237  0.012797024  0.011281591            7 
 4673000   0.50721863   -8.3033024    716.95465   0.01278541  0.011277917            7 
 4674000   0.49983401   -8.3040719    717.44918  0.012791492  0.011274242            4 
 4675000   0.49748026   -8.2931773    716.84315  0.012777953  0.011270573            6 
 4676000   0.50911406   -8.2905008    717.56013  0.012787998  0.011266902            6 
 4677000   0.50558237    -8.287174    717.38001  0.012782054  0.011263232            7 
 4678000   0.49973483   -8.2888426    717.14749   0.01277518  0.011259564            9 
 4679000   0.50577222   -8.2877434    718.45578   0.01279575  0.011255898            6 
 4680000   0.49345687   -8.2920236    717.47562  0.012775563  0.011252232            8 
 4681000   0.50482159   -8.2788912    716.30766  0.012752041  0.011248569            3 
 4682000    0.4935287   -8.2940709     716.4241   0.01275139  0.011244905            5 
 4683000    0.5002883   -8.2941525    717.79456  0.012773054  0.011241243            3 
 4684000   0.50708654   -8.2894854      716.541  0.012748025  0.011237582            6 
 4685000   0.50666611    -8.283294    717.04226   0.01275422  0.011233924            5 
 4686000   0.49517313   -8.3043442    716.29903  0.012738281  0.011230267            7 
 4687000   0.50179119   -8.2903005    715.34183  0.012718545  0.011226611            6 
 4688000   0.49564604   -8.2961408    715.65113   0.01272133  0.011222957            8 
 4689000   0.50580882   -8.2960222    716.17197  0.012727873  0.011219304            7 
 4690000   0.50325971   -8.3048258    716.99574  0.012739796  0.011215654            7 
 4691000   0.50812173   -8.2965052    717.42827  0.012744764  0.011212007            5 
 4692000   0.51182494   -8.2862872    716.34213  0.012722757   0.01120836            4 
 4693000   0.50941223   -8.2940596    716.44208  0.012721821  0.011204714            5 
 4694000   0.49818622   -8.2934348    716.28201  0.012716269  0.011201071            6 
 4695000   0.49974561   -8.2910299    716.08553  0.012710073  0.011197428            6 
 4696000   0.50653862    -8.323654    716.73832  0.012718951   0.01119379            5 
 4697000   0.49895285   -8.3114639    716.12356  0.012705336  0.011190145            8 
 4698000    0.5045986   -8.3018429    716.36281  0.012706876  0.011186506            6 
 4699000   0.49070857   -8.2999601    717.11874  0.012717577  0.011182871           10 
 4700000   0.49632786   -8.3043783    716.72562  0.012707901  0.011179239            7 
 4701000   0.49853725   -8.3031553    717.16736  0.012713028  0.011175605            4 
 4702000   0.49564652   -8.2816027     716.3813  0.012696393  0.011171973            4 
 4703000   0.49820094   -8.3002324    715.89593  0.012685093  0.011168338            5 
 4704000   0.50504522   -8.3030458     715.5621  0.012676483  0.011164706            6 
 4705000   0.49991501   -8.2768375    716.83849  0.012696395  0.011161077            6 
 4706000   0.49661992    -8.297874    715.36801  0.012667658   0.01115745            4 
 4707000   0.49571878   -8.3044764    717.47988  0.012702356  0.011153827            5 
 4708000   0.50737795    -8.290431    716.88462  0.012689122  0.011150199            3 
 4709000   0.49574893    -8.314711    715.12513   0.01265529   0.01114657            4 
 4710000   0.49683055   -8.3059093    716.63707  0.012679354  0.011142941            6 
 4711000   0.49948164   -8.2918549    715.43546  0.012655407  0.011139315            7 
 4712000   0.49552743     -8.32167    716.34616  0.012668827  0.011135689            5 
 4713000   0.49825359   -8.3036192    715.41068  0.012649598  0.011132068            6 
 4714000   0.48550261   -8.2983408    716.54872  0.012667033  0.011128446            4 
 4715000   0.50049269   -8.2977921    716.67698  0.012666613  0.011124827            5 
 4716000   0.50404645   -8.3059203    716.79095  0.012665941  0.011121208            5 
 4717000   0.49485524   -8.2959334    716.45233  0.012657274  0.011117592            5 
 4718000   0.51401526   -8.2957662    716.60499  0.012657288  0.011113977            6 
 4719000   0.47500405   -8.3215391    716.25588   0.01264844  0.011110361            3 
 4720000   0.50377599   -8.3019905    717.29678  0.012664138   0.01110675            6 
 4721000   0.50483367   -8.3040436    717.17108  0.012659237  0.011103141            2 
 4722000   0.50273702   -8.3124157    717.79291   0.01266753  0.011099538            5 
 4723000   0.48427982   -8.3123345    715.33887  0.012621548  0.011095931            6 
 4724000   0.49938482   -8.3128892    717.04771  0.012649021  0.011092327            3 
 4725000   0.49658711   -8.3099434      715.085  0.012611728  0.011088726            6 
 4726000     0.500525   -8.2923291    717.19076   0.01264619  0.011085129            4 
 4727000    0.4902986   -8.3032195    716.22029  0.012626407  0.011081527            4 
 4728000   0.49573157   -8.2976527    716.92328  0.012636127  0.011077928            6 
 4729000   0.49004355   -8.2866754    715.82333  0.012614071  0.011074331            4 
 4730000   0.48117393   -8.2996293    715.74577  0.012610038  0.011070737            6 
 4731000   0.49499884   -8.3016563    716.96998  0.012628936  0.011067142            4 
 4732000   0.49565347    -8.304004    715.98997  0.012609009  0.011063552            7 
 4733000   0.48224143   -8.3136344    716.15562  0.012609262  0.011059956            9 
 4734000   0.49187896   -8.3008288    716.87308  0.012619228  0.011056364            4 
 4735000   0.48369719   -8.3052428    716.18121  0.012604386  0.011052775            6 
 4736000   0.49715953    -8.309191    716.14745  0.012601131  0.011049182            6 
 4737000   0.50271113   -8.2933163    716.22948  0.012599913  0.011045596            5 
 4738000   0.49479248   -8.3058896    716.64623  0.012604584  0.011042009            6 
 4739000   0.50190152   -8.3316508    715.66176  0.012584613  0.011038418            7 
 4740000   0.49580068   -8.2893013    715.98564  0.012587652  0.011034833            5 
 4741000   0.50048637   -8.3113769     715.8502  0.012582616   0.01103125            5 
 4742000   0.50007768    -8.316217      715.575  0.012575127  0.011027666            4 
 4743000    0.5002614    -8.303995    715.40759  0.012569534  0.011024083            8 
 4744000   0.48370334    -8.302058    716.19397  0.012580698  0.011020504            5 
 4745000    0.4861207   -8.2876559    715.65647  0.012568607  0.011016924            4 
 4746000   0.48913709   -8.3199586    716.30663  0.012577374  0.011013349            6 
 4747000   0.48961473   -8.3171614    715.22147  0.012555675  0.011009772            6 
 4748000   0.49411809   -8.3191498    716.20374  0.012570271  0.011006201            2 
 4749000   0.48767867   -8.3083426    715.60876  0.012557183  0.011002633            2 
 4750000   0.49636849   -8.3183714    716.12138  0.012563533  0.010999061            5 
 4751000    0.4884201   -8.3149464    716.40286  0.012565826  0.010995494            6 
 4752000   0.49277519   -8.3125984     716.9814  0.012573327  0.010991929            8 
 4753000   0.48846605   -8.3076561    715.10966  0.012537865  0.010988362            4 
 4754000    0.4811027   -8.3111603    716.45713  0.012558847  0.010984801            4 
 4755000   0.49725232   -8.3205843    716.65281  0.012559636  0.010981236            4 
 4756000   0.48652251   -8.3227214    716.68496  0.012557558  0.010977672            7 
 4757000   0.48059945    -8.304048    715.98342  0.012542629  0.010974111            9 
 4758000   0.49093564   -8.3207328    717.42148  0.012565179  0.010970552            3 
 4759000   0.49289205   -8.3373353    716.34735   0.01254373  0.010966995            5 
 4760000   0.48282115   -8.3075283    716.94315  0.012551526  0.010963441            4 
 4761000   0.49123332   -8.3139824     715.8266  0.012529346  0.010959888            6 
 4762000   0.49153811   -8.3106698    718.14625  0.012567308  0.010956335            4 
 4763000   0.48692476   -8.3146501    716.56902  0.012537074  0.010952785            4 
 4764000    0.4920526   -8.3268556    716.84651  0.012539297  0.010949234            5 
 4765000   0.50504907   -8.3162843     715.7684   0.01251781  0.010945685            4 
 4766000   0.48276684   -8.3173124    716.51087  0.012528166  0.010942138            7 
 4767000   0.48377196   -8.3131025    716.29317  0.012521732   0.01093859            3 
 4768000   0.48577713   -8.3297907    715.62561  0.012507439  0.010935046            5 
 4769000   0.48992822   -8.3109868    717.26237  0.012533417    0.0109315            3 
 4770000   0.50706357   -8.3020487    717.27198  0.012530957  0.010927959            4 
 4771000   0.48473584   -8.3073452    716.33454  0.012511957   0.01092442            4 
 4772000   0.49120515   -8.3018167     715.3883  0.012492811  0.010920881            7 
 4773000   0.49175508   -8.3186409    716.59172  0.012511204  0.010917343            5 
 4774000   0.49425925   -8.3364303    716.80765  0.012512353  0.010913805            4 
 4775000   0.48969398   -8.2990708    714.52435  0.012469884  0.010910268            5 
 4776000   0.48024255    -8.317723    716.62963  0.012504007  0.010906736            4 
 4777000   0.49393734    -8.307829    715.65066  0.012484311  0.010903202            4 
 4778000   0.48776292   -8.3291527    715.33127  0.012476128   0.01089967            5 
 4779000   0.47511806   -8.3254812    715.55994  0.012477505  0.010896142            5 
 4780000   0.50213925   -8.3115877    715.47939   0.01247349  0.010892615            6 
 4781000   0.49726091   -8.3190759     715.8044  0.012476546  0.010889088            7 
 4782000   0.49313663   -8.3231328    715.87174   0.01247511   0.01088556            7 
 4783000   0.49370546   -8.2978846    716.64054  0.012485897  0.010882037            7 
 4784000   0.48745967   -8.3405571    715.88997  0.012470213  0.010878512            5 
 4785000   0.48628585   -8.3241002    715.23829  0.012456257  0.010874989            5 
 4786000   0.48962854   -8.3363243    715.67382  0.012461238  0.010871469            3 
 4787000   0.49107854   -8.3380186    716.74876  0.012477348   0.01086795            7 
 4788000   0.49520959   -8.3171402    716.45421  0.012469615  0.010864433            4 
 4789000   0.48012436   -8.3294003    716.14648  0.012461657  0.010860917            2 
 4790000   0.49567397   -8.3117467    715.03352  0.012439692    0.0108574            3 
 4791000   0.48040112    -8.334596    715.78753  0.012450211  0.010853888            7 
 4792000    0.4890474   -8.3242763    716.35774  0.012457529  0.010850378            3 
 4793000   0.49511553   -8.3127484    715.42955  0.012438792  0.010846869            5 
 4794000   0.49484862   -8.3167286    715.64719   0.01243998  0.010843363            4 
 4795000   0.47984733   -8.3255809     716.1873  0.012446773  0.010839856            4 
 4796000   0.48290108   -8.3228947    714.99824  0.012423517  0.010836352            4 
 4797000   0.49349629   -8.3201226    715.67332  0.012432654  0.010832848            9 
 4798000   0.47869269   -8.3287649    715.27407  0.012423129  0.010829346            5 
 4799000    0.4883683   -8.3231663     715.7366  0.012428572  0.010825844            5 
 4800000   0.49432644   -8.3434559    715.89638  0.012428757  0.010822341            8 
 4801000   0.47695637   -8.3403163    715.46196  0.012418627  0.010818839            4 
 4802000   0.48271331    -8.317054    716.06445  0.012426497  0.010815338            4 
 4803000   0.48718457   -8.3245706     717.1971  0.012443561  0.010811843            4 
 4804000   0.47612636   -8.3228644    715.61842  0.012413586  0.010808349            6 
 4805000   0.47748347   -8.3228122    714.55448  0.012392551  0.010804854            5 
 4806000   0.48792823   -8.3488667    714.52763  0.012389507   0.01080136            9 
 4807000   0.47710124     -8.31523    716.16233  0.012415268  0.010797868            6 
 4808000   0.48250584   -8.3169509    715.76854  0.012405861   0.01079438            9 
 4809000   0.48857781     -8.32233     715.6491  0.012401211  0.010790893            4 
 4810000   0.47973741   -8.3100801    715.95321  0.012403902  0.010787409            4 
 4811000   0.48639364   -8.3288565    715.19548  0.012388199  0.010783925            6 
 4812000   0.49408591    -8.315555    715.91698  0.012398119  0.010780443            5 
 4813000   0.47801889   -8.3352309    716.18905  0.012400254  0.010776961            7 
 4814000   0.48543173   -8.3315099     715.9564   0.01239365  0.010773483            6 
 4815000   0.46867159   -8.3280044    716.73898  0.012404621  0.010770003            8 
 4816000    0.4750916   -8.3347503     715.7103  0.012384245  0.010766525            4 
 4817000   0.49552794    -8.352491    715.90057  0.012384966  0.010763048            4 
 4818000     0.474904   -8.3306151    715.59791   0.01237716  0.010759574            5 
 4819000   0.48336129   -8.3424977    715.66001  0.012375666    0.0107561            4 
 4820000   0.47942045   -8.3474217    715.95441  0.012378188  0.010752626            3 
 4821000   0.48476246   -8.3365263    714.16806  0.012344743  0.010749156            6 
 4822000     0.475767   -8.3336891     715.9185  0.012372434  0.010745686            5 
 4823000   0.48507495   -8.3270115    715.03626  0.012354625  0.010742218            7 
 4824000    0.4818308   -8.3285046    716.56063  0.012378397  0.010738748            7 
 4825000    0.4773662   -8.3154958    715.59788  0.012359204   0.01073528            5 
 4826000   0.48615991   -8.3295106    714.84103  0.012343574  0.010731815            2 
 4827000   0.48776929   -8.3365979    715.97126  0.012360529   0.01072835            6 
 4828000   0.48520122   -8.3420628    715.25389  0.012345586  0.010724888            6 
 4829000     0.470916   -8.3281459    716.26397  0.012360461  0.010721427            6 
 4830000   0.48189735   -8.3228099     715.4862  0.012344482  0.010717966            7 
 4831000    0.4737046   -8.3261221    714.91573  0.012332087  0.010714506            5 
 4832000   0.47237349   -8.3254039    715.31757  0.012336465  0.010711051            7 
 4833000   0.48850251   -8.3384751    715.24348  0.012332635  0.010707597            6 
 4834000   0.48105701   -8.3144572     715.5385  0.012335169   0.01070414            5 
 4835000    0.4861908   -8.3277479    713.62038  0.012299558  0.010700686            5 
 4836000   0.47501781   -8.3202487    715.82954  0.012335083  0.010697235            5 
 4837000   0.47533483     -8.33806    716.53886  0.012344753  0.010693784            6 
 4838000   0.48069617   -8.3298294     716.0395    0.0123336  0.010690334            5 
 4839000   0.48259985   -8.3396615    715.33904  0.012318989  0.010686887            6 
 4840000   0.48846359   -8.3321695    714.92294  0.012309279  0.010683442            4 
 4841000   0.48913561   -8.3347288    716.15634  0.012327968  0.010679998            7 
 4842000   0.46741385    -8.325197    716.21808  0.012326485  0.010676557            6 
 4843000   0.48288916   -8.3287999    716.14173  0.012322626  0.010673114            2 
 4844000   0.48340907   -8.3238226    715.72953  0.012312991  0.010669674            6 
 4845000   0.48720578   -8.3378718    716.18784  0.012318332  0.010666237            5 
 4846000   0.46404457    -8.332948    713.42999  0.012268365  0.010662799            6 
 4847000   0.47167681   -8.3334582    715.81113  0.012306773  0.010659359            6 
 4848000   0.48051795   -8.3068144    714.17579  0.012276124  0.010655922            5 
 4849000     0.485643   -8.3445335    715.18818  0.012290991   0.01065249            6 
 4850000   0.48001349   -8.3294612    714.65273  0.012279257  0.010649058            6 
 4851000   0.47305045   -8.3413244    715.18446   0.01228586   0.01064563            2 
 4852000   0.46609598   -8.3503749    714.45615  0.012270819  0.010642199            4 
 4853000   0.47207901   -8.3492893    715.45588  0.012285457   0.01063877            7 
 4854000   0.47148908   -8.3459134    716.48159  0.012300536  0.010635346            5 
 4855000   0.47232402   -8.3331858    715.81564  0.012286571  0.010631918            7 
 4856000   0.48356011   -8.3440995    714.52807  0.012261945  0.010628495            7 
 4857000    0.4816843   -8.3434446    716.35902  0.012290835  0.010625073            6 
 4858000   0.46447924   -8.3350941    715.11791  0.012267015   0.01062165            7 
 4859000   0.46824551    -8.343862    716.26052  0.012284087  0.010618231            5 
 4860000   0.46678545   -8.3336364    716.04568  0.012277875  0.010614813            4 
 4861000   0.47883716   -8.3378606    715.85953  0.012272158  0.010611397            4 
 4862000   0.47312719   -8.3538209    715.99019  0.012271873  0.010607981            4 
 4863000   0.47557688   -8.3296257    714.83934  0.012249629  0.010604564            8 
 4864000   0.47157223   -8.3347146    714.02403  0.012233142  0.010601154            6 
 4865000   0.46671052   -8.3555837    714.65111  0.012241369  0.010597738            5 
 4866000   0.46867948   -8.3325269    714.27462  0.012232405  0.010594323            7 
 4867000   0.46881683   -8.3442102    714.61973  0.012235801  0.010590914            7 
 4868000   0.48597369   -8.3458018    714.66032  0.012233982  0.010587505            6 
 4869000   0.47207667   -8.3483642    716.14837  0.012256938  0.010584097            5 
 4870000   0.46654476   -8.3447782    715.08975  0.012236306  0.010580692            7 
 4871000   0.47195096   -8.3334592    714.57686   0.01222502  0.010577288            4 
 4872000   0.46959289   -8.3278198    714.57994  0.012222563  0.010573882            5 
 4873000   0.46389269   -8.3311494    714.69333  0.012221994  0.010570482            7 
 4874000   0.46631934   -8.3427132    715.25837  0.012229147  0.010567082            4 
 4875000   0.47593572   -8.3407538    714.26748  0.012209701  0.010563681            6 
 4876000   0.47541159   -8.3489524    715.18461  0.012222871  0.010560283            4 
 4877000   0.48081231   -8.3333377    714.63779  0.012211021  0.010556887            6 
 4878000   0.46365085   -8.3298743    715.55396  0.012224169  0.010553491            5 
 4879000   0.47361142   -8.3449424    714.00192  0.012195155  0.010550096            4 
 4880000   0.47906942   -8.3571714    715.31408  0.012215063  0.010546703            5 
 4881000   0.47487668    -8.347644    714.57237  0.012199897  0.010543312            5 
 4882000    0.4768108   -8.3478306    714.71698  0.012199867  0.010539922            4 
 4883000   0.47435967   -8.3622424    714.26224  0.012189607   0.01053653            4 
 4884000   0.46485581    -8.347271    714.44054  0.012190154   0.01053314            5 
 4885000   0.46608968   -8.3448551    715.61816  0.012207748  0.010529751            4 
 4886000   0.47166959   -8.3421551     713.9541  0.012176868  0.010526364            8 
 4887000    0.4686209   -8.3500103    714.65116  0.012186262  0.010522979            3 
 4888000    0.4799081   -8.3265742    714.29553  0.012177706  0.010519597            7 
 4889000   0.46973285    -8.348584    715.55474  0.012196679  0.010516215            4 
 4890000   0.48139511   -8.3406525      715.322  0.012190218  0.010512835            5 
 4891000     0.466614   -8.3451543    714.37823  0.012171646  0.010509457            6 
 4892000   0.46426373   -8.3681582    715.66858  0.012191138  0.010506076            3 
 4893000   0.47006558   -8.3372661    714.28085  0.012165012    0.0105027            3 
 4894000   0.46280259   -8.3456807    713.97583  0.012157333  0.010499324            5 
 4895000   0.46965607   -8.3605096    714.97532  0.012171864  0.010495952            4 
 4896000   0.46521459   -8.3603017    714.82692  0.012166853  0.010492581            4 
 4897000   0.46793446   -8.3677023     715.5528   0.01217672   0.01048921            4 
 4898000   0.46897769   -8.3396609    715.15023  0.012167385  0.010485839            6 
 4899000   0.46349759   -8.3549654    714.02357  0.012145737  0.010482469            4 
 4900000   0.46816677     -8.34885    714.75198  0.012155646  0.010479103            3 
 4901000   0.45373901   -8.3447941    714.63496  0.012151176  0.010475735            6 
 4902000   0.47056924   -8.3619895    714.08242  0.012139304  0.010472369            3 
 4903000   0.46779216   -8.3638698    714.57453  0.012145192  0.010469003            4 
 4904000   0.45843033   -8.3550911    714.32739  0.012138516   0.01046564            4 
 4905000   0.47095127    -8.344368    715.21311  0.012151089  0.010462279            5 
 4906000   0.46767211   -8.3595885    714.79377  0.012141489  0.010458919            6 
 4907000   0.46675518   -8.3511349    714.63845  0.012136377  0.010455558            5 
 4908000   0.45930516   -8.3533045    714.90433  0.012138419    0.0104522            4 
 4909000   0.47774084   -8.3545602    715.32601  0.012143105  0.010448842            8 
 4910000   0.46254992   -8.3484528    715.69616  0.012146914  0.010445485            4 
 4911000   0.46155538   -8.3415238    714.45597  0.012123396  0.010442127            3 
 4912000   0.46100213   -8.3642465    714.58984  0.012123199  0.010438774            8 
 4913000   0.46015866   -8.3512756    714.80815  0.012124434  0.010435422            6 
 4914000   0.45756003    -8.364411    714.79022  0.012121663  0.010432072            4 
 4915000   0.46719774   -8.3468131    714.04903   0.01210663   0.01042872            5 
 4916000   0.46737286   -8.3485676    714.15867  0.012106026  0.010425372            3 
 4917000   0.46300154    -8.348986    714.89508  0.012116044  0.010422024            3 
 4918000   0.47461512   -8.3650578    715.80715  0.012129035  0.010418682            5 
 4919000   0.46482574   -8.3557261     714.2536  0.012100251  0.010415338            5 
 4920000   0.46132594   -8.3456539    713.86976   0.01209129  0.010411996            5 
 4921000   0.45399259   -8.3469664    713.91623   0.01208962  0.010408654            5 
 4922000   0.46927474   -8.3408713    715.17723  0.012108513  0.010405315            5 
 4923000   0.45922258   -8.3575286    714.91995  0.012101699  0.010401978            6 
 4924000    0.4622912   -8.3654175    713.85526  0.012081222  0.010398641            4 
 4925000   0.45810051   -8.3571839     714.7417  0.012093768  0.010395307            4 
 4926000   0.45935282   -8.3736362    714.18519  0.012081899  0.010391972            5 
 4927000   0.45926577   -8.3596795    713.82302  0.012073321  0.010388639            6 
 4928000   0.45364553   -8.3757714    716.21941  0.012111394   0.01038531            5 
 4929000    0.4628943   -8.3392258    714.04382  0.012072155  0.010381978            4 
 4930000   0.47337405   -8.3634206     714.9058  0.012084277  0.010378648            4 
 4931000   0.45828279   -8.3591718    715.42096  0.012090532  0.010375321            5 
 4932000   0.46829563    -8.361092    714.49263  0.012072395  0.010371995            5 
 4933000   0.46051187   -8.3667123    714.91247   0.01207704   0.01036867            6 
 4934000   0.46521004   -8.3610473     714.6178  0.012069616   0.01036535            6 
 4935000   0.45944723   -8.3653733    713.50618  0.012048399  0.010362028            4 
 4936000   0.47187002   -8.3707972    714.21845  0.012057983  0.010358708            5 
 4937000   0.45866016   -8.3509677    714.40909  0.012058759  0.010355388            6 
 4938000   0.45990009   -8.3576011    714.62252  0.012059918  0.010352069            7 
 4939000   0.46242477   -8.3564325    714.29885  0.012052016  0.010348751            5 
 4940000   0.46763615   -8.3613994    713.98876  0.012044345  0.010345438            6 
 4941000   0.45883226   -8.3465581    713.68771   0.01203683  0.010342123            6 
 4942000   0.46188451    -8.357744    714.77362  0.012052705   0.01033881            5 
 4943000   0.46872857   -8.3631589    714.29971  0.012042277  0.010335497            3 
 4944000   0.45753139   -8.3717331    715.14581  0.012054103  0.010332185            6 
 4945000   0.46758859   -8.3615693    713.94223  0.012031382  0.010328876            4 
 4946000   0.46791971   -8.3620645    713.98291  0.012029635  0.010325568            6 
 4947000   0.45250922   -8.3438209     714.9659  0.012043762  0.010322261            4 
 4948000   0.45505193   -8.3647957     713.9155  0.012023638  0.010318958            5 
 4949000   0.44969336   -8.3400331    714.38125  0.012029051  0.010315655            6 
 4950000   0.46284123   -8.3531709     715.1892  0.012040222  0.010312353            7 
 4951000    0.4651413   -8.3494413     714.5368  0.012026809  0.010309052            5 
 4952000   0.45696368   -8.3599688    714.65844  0.012026428  0.010305753            6 
 4953000    0.4596138   -8.3562171    713.67566  0.012007464  0.010302451            4 
 4954000   0.45800226   -8.3647922    713.27017   0.01199822  0.010299153            4 
 4955000   0.45974592   -8.3767733    714.80535  0.012021617  0.010295857            4 
 4956000   0.46167319    -8.375006    716.19637  0.012042581  0.010292563            5 
 4957000   0.46267247   -8.3691335    714.20916  0.012006744  0.010289268            7 
 4958000   0.46784592   -8.3644326    713.57474  0.011993659  0.010285974            4 
 4959000   0.45495093   -8.3669758    714.53715  0.012007413  0.010282683            6 
 4960000   0.44795843   -8.3673302    713.65037  0.011990094  0.010279393            4 
 4961000   0.45891937   -8.3637232     714.5582  0.012002926  0.010276101            4 
 4962000   0.45129097   -8.3627171    713.70434  0.011986167  0.010272816            5 
 4963000   0.46077656   -8.3623021    713.71188  0.011983879  0.010269528            5 
 4964000   0.46121255   -8.3662393     713.6162  0.011979858   0.01026624            4 
 4965000   0.45732452   -8.3626161    713.49673   0.01197544  0.010262958            4 
 4966000    0.4611157   -8.3787248    713.60554  0.011974855  0.010259677            6 
 4967000   0.46089324   -8.3757068    715.11602  0.011997786  0.010256395            3 
 4968000   0.46279055    -8.366985    715.51014  0.012001982  0.010253116            6 
 4969000   0.44964068   -8.3606401    713.66143  0.011968562  0.010249837            4 
 4970000    0.4487548   -8.3783345    714.83097  0.011985764  0.010246559            4 
 4971000   0.46311123   -8.3796823    714.35109  0.011975308  0.010243283            5 
 4972000   0.44621127   -8.3813735    713.96295  0.011966394  0.010240008            4 
 4973000   0.46883608   -8.3692878    714.26937  0.011969123  0.010236735            3 
 4974000   0.45098548   -8.3607007    713.40113   0.01195217  0.010233464            6 
 4975000    0.4506855   -8.3821085    713.51464  0.011951669   0.01023019            5 
 4976000    0.4632298   -8.3745225    713.65222  0.011951571  0.010226919            5 
 4977000   0.45491277   -8.3630656    713.85924  0.011952636   0.01022365            6 
 4978000    0.4590367   -8.3703913    714.10219  0.011954302  0.010220381            5 
 4979000   0.45288826    -8.371584    713.87801  0.011948149  0.010217116            6 
 4980000   0.45311285   -8.3522221     713.4383  0.011938392  0.010213851            9 
 4981000   0.44550282   -8.3747723    714.23101  0.011949257  0.010210588            5 
 4982000   0.45574011   -8.3739782    714.94549   0.01195881  0.010207324            5 
 4983000   0.45885028    -8.370362    714.70435  0.011952377  0.010204065            5 
 4984000   0.46005571   -8.3725025    713.13085   0.01192367  0.010200805            6 
 4985000   0.45348323   -8.3655011    714.57485  0.011945417  0.010197547            4 
 4986000   0.46136874   -8.3617985    713.96814  0.011932881   0.01019429            6 
 4987000   0.46654156   -8.3713492    713.65918  0.011925325  0.010191035            7 
 4988000   0.46037016   -8.3786077    714.15253  0.011931177  0.010187781            5 
 4989000   0.45697027   -8.3693895    714.31577  0.011931512  0.010184525            5 
 4990000   0.45094421   -8.3740582    713.96412  0.011923248  0.010181274            4 
 4991000   0.46209186   -8.3750773    713.86456  0.011919197  0.010178024            6 
 4992000   0.45581336   -8.3932169    714.21568  0.011922671  0.010174772            3 
 4993000    0.4507617   -8.3765582     713.0336  0.011900554  0.010171522            9 
 4994000   0.44505607   -8.3603274    714.30992  0.011919469  0.010168274            4 
 4995000   0.45575273   -8.3617932    714.39049  0.011918427  0.010165027            4 
 4996000   0.45249487   -8.3790876    713.63014  0.011903358  0.010161781            7 
 4997000   0.45434075   -8.3794062    715.03021  0.011924325  0.010158539            5 
 4998000   0.45311395   -8.3671339    713.10596  0.011889855  0.010155295            7 
 4999000   0.46206421   -8.3622403    713.63366  0.011896274  0.010152054            6 
 5000000   0.44772817   -8.3746449    713.61427  0.011893571  0.010148814            7 
 5001000   0.46859832   -8.3813926    713.96848  0.011897095  0.010145576            5 
 5002000   0.44963941   -8.3734207    713.11072  0.011880426  0.010142338            6 
 5003000   0.45739128   -8.3932016    714.65837  0.011903831  0.010139104            7 
 5004000   0.43899081    -8.372064    714.15548  0.011893077  0.010135871            7 
 5005000   0.45348889   -8.3748086    713.38757  0.011877915  0.010132638            6 
 5006000   0.44897239   -8.3740993    713.61316  0.011879298  0.010129408           10 
 5007000    0.4510923   -8.3901302    713.22942  0.011870538  0.010126175            3 
 5008000    0.4455626    -8.372074    712.64064  0.011858371  0.010122946            5 
 5009000   0.44799482   -8.3613397    714.87489  0.011893174  0.010119721            7 
 5010000   0.45765302   -8.3798355    714.45375  0.011883795  0.010116496            3 
 5011000   0.44795014   -8.3696181    713.38401  0.011863633  0.010113272            3 
 5012000   0.44944525   -8.3782843    713.11023  0.011856714  0.010110049            2 
Loop time of 11727.4 on 48 procs for 5000000 steps with 4000 atoms

Performance: 73673.911 tau/day, 426.354 timesteps/s
99.4% CPU use with 48 MPI tasks x no OpenMP threads

MPI task timing breakdown:
Section |  min time  |  avg time  |  max time  |%varavg| %total
---------------------------------------------------------------
Pair    | 728.09     | 771.65     | 829.91     |  90.3 |  6.58
Neigh   | 74.768     | 78.734     | 82.126     |  18.5 |  0.67
Comm    | 687.54     | 768.23     | 835.31     | 111.3 |  6.55
Output  | 13.756     | 13.761     | 13.851     |   0.4 |  0.12
Modify  | 9946.8     | 9988.6     | 10030      |  14.7 | 85.17
Other   |            | 106.4      |            |       |  0.91

Nlocal:        83.3333 ave          92 max          75 min
Histogram: 2 3 5 7 9 8 3 7 1 3
Nghost:        1972.21 ave        1996 max        1944 min
Histogram: 1 2 4 5 7 10 6 5 6 2
Neighs:        12577.1 ave       14258 max       10468 min
Histogram: 1 2 4 5 8 8 4 9 2 5
FullNghs:      25154.9 ave       28200 max       22029 min
Histogram: 2 2 3 8 10 8 5 5 1 4

Total # of neighbors = 1207437
Ave neighs/atom = 301.85925
Neighbor list builds = 268353
Dangerous builds = 1

#clear
#
#next RN
#
#jump SELF
Total wall time: 3:15:30
